LAMMPS (24 Dec 2020)
OMP_NUM_THREADS environment is not set. Defaulting to 1 thread. (src/comm.cpp:94)
  using 1 OpenMP thread(s) per MPI task
#Read the equilibrated lj fluid and add nanocubes

units           lj
atom_style      full
atom_modify     map array first cubes
dimension       3
boundary        p p f
pair_style      lj/cut/opt 2.5

variable        sigma           equal 1.0
variable        epsilon         equal 1.0
read_restart	restart.dat.3000000
Reading restart file ...
  restart file = 24 Dec 2020, LAMMPS = 24 Dec 2020
WARNING: Restart file used different # of processors: 48 vs. 288 (src/read_restart.cpp:697)
  restoring atom style full from restart
  orthogonal box = (0.0000000 0.0000000 0.0000000) to (80.000000 80.000000 160.00000)
  6 by 4 by 12 MPI processor grid
  restoring pair style lj/cut/opt from restart
  518400 atoms
Finding 1-2 1-3 1-4 neighbors ...
  special bond factors lj:    0        0        0       
  special bond factors coul:  0        0        0       
     0 = max # of 1-2 neighbors
     0 = max # of 1-3 neighbors
     0 = max # of 1-4 neighbors
     1 = max # of special neighbors
  special bonds CPU = 2.426 seconds
  read_restart CPU = 2.755 seconds

group		solvent type 1
518400 atoms in group solvent

read_data	data_150.cubes group cubes add append
Reading data file ...
  orthogonal box = (0.0000000 0.0000000 0.0000000) to (80.000000 80.000000 160.00000)
  6 by 4 by 12 MPI processor grid
  reading atoms ...
  200025 atoms
  reading velocities ...
  200025 velocities
Finding 1-2 1-3 1-4 neighbors ...
  special bond factors lj:    0        0        0       
  special bond factors coul:  0        0        0       
     0 = max # of 1-2 neighbors
     0 = max # of 1-3 neighbors
     0 = max # of 1-4 neighbors
     1 = max # of special neighbors
  special bonds CPU = 0.062 seconds
  read_data CPU = 0.538 seconds

group 		hull  type 2
78050 atoms in group hull
group 		dummy type 3
121975 atoms in group dummy

neighbor      0.4 bin
neigh_modify  exclude molecule/intra cubes


pair_modify   shift yes

pair_coeff    1 1 1.0 1.0 #solvent
pair_coeff    2 2 1.0 1.0 1.12 #np
pair_coeff    3 3 0.0 0.0 0.0 #dummy
pair_coeff    2 3 0.0 0.0 0.0 #np dummy
pair_coeff    1 2 ${eps} ${sig} ${nscut} #np solvent
pair_coeff    1 2 2.0 ${sig} ${nscut} 
pair_coeff    1 2 2.0 2.0 ${nscut} 
pair_coeff    1 2 2.0 2.0 4.0 
pair_coeff    1 3 0.0 0.0 2.5 #dummy solvent

# delete solvent where the cubes are
delete_atoms  overlap 2.0 solvent cubes
System init for delete_atoms ...
Neighbor list info ...
  update every 1 steps, delay 10 steps, check yes
  max neighbors/atom: 2000, page size: 100000
  master list distance cutoff = 4.4
  ghost atom cutoff = 4.4
  binsize = 2.2, bins = 37 37 73
  2 neighbor lists, perpetual/occasional/extra = 1 1 0
  (1) command delete_atoms, occasional
      attributes: full, newton on
      pair build: full/bin
      stencil: full/bin/3d
      bin: standard
  (2) pair lj/cut/opt, perpetual
      attributes: half, newton on
      pair build: half/bin/newton
      stencil: half/bin/3d/newton
      bin: standard
WARNING: Delete_atoms cutoff > minimum neighbor cutoff (src/delete_atoms.cpp:307)
WARNING: Ignoring 'compress yes' for molecular system (src/delete_atoms.cpp:125)
Deleted 198079 atoms, new total = 520346



pair_coeff    1 1 1.0 1.0 #solvent
pair_coeff    2 2 1.0 1.0 1.12 #np
pair_coeff    3 3 0.0 0.0 0.0 #dummy
pair_coeff    2 3 0.0 0.0 0.0 #np dummy
pair_coeff    1 2 ${eps} ${sig} ${nscut} #np solvent
pair_coeff    1 2 2.0 ${sig} ${nscut} 
pair_coeff    1 2 2.0 2.0 ${nscut} 
pair_coeff    1 2 2.0 2.0 4.0 
pair_coeff    1 3 0.0 0.0 0.0 #dummy solvent


comm_modify   mode multi cutoff/multi 1 2.5 cutoff/multi 2 2.5 cutoff/multi 3 6.95

reset_timestep 	0

balance 	1.05 shift z 10 1.05
Balancing ...
Neighbor list info ...
  update every 1 steps, delay 10 steps, check yes
  max neighbors/atom: 2000, page size: 100000
  master list distance cutoff = 4.4
  ghost atom cutoff = 6.95
  binsize = 2.2, bins = 37 37 73
  1 neighbor lists, perpetual/occasional/extra = 1 0 0
  (1) pair lj/cut/opt, perpetual
      attributes: half, newton on
      pair build: half/bin/newton
      stencil: half/bin/3d/newton
      bin: standard
 rebalancing time: 0.005 seconds
  iteration count = 4
  initial/final maximal load/proc = 2181.0000 2317.0000
  initial/final imbalance factor  = 1.2071353 1.2824082
  x cuts: 0.0000000 0.16666667 0.33333333 0.50000000 0.66666667 0.83333333 1.0000000
  y cuts: 0.0000000 0.25000000 0.50000000 0.75000000 1.0000000
  z cuts: 0.0000000 0.078125000 0.16145833 0.25520833 0.33854167 0.41145833 0.49479167 0.56770833 0.64062500 0.71354167 0.78645833 0.85937500 1.0000000

####################### WALLS ###########################

variable       epsilonWall equal 2*${epsilon}
variable       epsilonWall equal 2*1
variable       repulsive   equal   0.7147*${sigma}
variable       repulsive   equal   0.7147*1
variable       full	   equal   3*${sigma}
variable       full	   equal   3*1
region         lowWall block EDGE EDGE EDGE EDGE EDGE 2

fix            topWall all wall/lj93 zhi EDGE 	       ${epsilonWall} ${sigma} ${repulsive} units box
fix            topWall all wall/lj93 zhi EDGE 	       2 ${sigma} ${repulsive} units box
fix            topWall all wall/lj93 zhi EDGE 	       2 1 ${repulsive} units box
fix            topWall all wall/lj93 zhi EDGE 	       2 1 0.7147 units box
fix            lowSol solvent wall/lj93 zlo EDGE                ${epsilonWall} ${sigma} ${full} units box
fix            lowSol solvent wall/lj93 zlo EDGE                2 ${sigma} ${full} units box
fix            lowSol solvent wall/lj93 zlo EDGE                2 1 ${full} units box
fix            lowSol solvent wall/lj93 zlo EDGE                2 1 3 units box
fix 	       lowCub cubes wall/lj93 zlo EDGE                ${epsilonWall} ${sigma} ${repulsive} units box
fix 	       lowCub cubes wall/lj93 zlo EDGE                2 ${sigma} ${repulsive} units box
fix 	       lowCub cubes wall/lj93 zlo EDGE                2 1 ${repulsive} units box
fix 	       lowCub cubes wall/lj93 zlo EDGE                2 1 0.7147 units box


###################### COMPUTES ##########################

compute        bin1 solvent chunk/atom bin/1d z lower 1.0 units box


######################  FIXES ############################


fix             peclet solvent ave/chunk 10 10 10000 bin1 density/number norm                  none ave one file density.profile

fix              temp solvent ave/chunk 10 10 10000 bin1 temp norm                  none ave one file temp.profile

fix             1 cubes rigid/nve/small molecule
  create bodies CPU = 0.001 seconds
  175 rigid bodies with 200025 atoms
  6.9282032 = max distance from body owner to body atom

fix             2 solvent nve# temp ${temp} ${temp} 10


## Thermostat
region          regthermo block EDGE EDGE EDGE EDGE 0 15
group           thermo dynamic solvent region regthermo every 1000
dynamic group thermo defined
fix             3 thermo langevin ${temp} ${temp} 10 156453
fix             3 thermo langevin 1.0 ${temp} 10 156453
fix             3 thermo langevin 1.0 1.0 10 156453


#### Load balancing

fix             bal all balance 1000 1.05 shift z 10 1.05

############### Diagnostics and computes ###################

compute        	com cubes          rigid/local   1 mol x y z
compute        	quat cubes         rigid/local   1 mol quatw quati quatj quatk

compute 	cc2 cubes 	   chunk/atom 	 molecule
compute 	msd cubes 	   msd/chunk 	 cc2

fix 		msd all ave/time  1 1 10000 c_msd[*] file dump.msd ave one mode vector

dump            1 all custom 500000 dump.lammpstrj id mol type x y z
dump		cubetrj hull custom 500000 cubes.lammpstrj id mol type x y z
dump            com cubes local 10000 dump.*.xyz c_com[*]
dump	        xyz hull xyz 100000 cubes.xyz
dump            quat cubes      local 10000 dump.*.quat c_quat[*]
#dump		mol cubes molfile 10000 mol.xyz xyz


dump            2 all image 10000 image.*.png type type
dump_modify     2 pad 8
dump		image cubes image 10000 image_cubes.*.png type type
dump_modify	image pad 8
dump            3 all movie 5000 movie.avi type type
dump		4 cubes movie 5000 movie_cubes.avi type type


thermo          1000
thermo_style    custom step temp epair evdwl etotal press pe ke atoms

restart         1000000 restart.dat
timestep        0.005
timer           full
New timer settings: style=full  mode=nosync  timeout=off

run 		4000000
Per MPI rank memory allocation (min/avg/max) = 15.95 | 21.54 | 24.07 Mbytes
Step Temp E_pair E_vdwl TotEng Press PotEng KinEng Atoms 
       0   0.99744477   -3.1756988   -3.1756988   -2.2536663   -2.8701941   -3.1756988   0.92203249   520346 
    1000    2.1555799   -4.3247983   -4.3247983    -2.332192   0.71824907   -4.3247983    1.9926062   520346 
    2000    2.2651422   -4.5036179   -4.5036179   -2.4097329   0.77913448   -4.5036179     2.093885   520346 
    3000    2.2560351   -4.5643347   -4.5643347   -2.4788682   0.68288973   -4.5643347    2.0854665   520346 
    4000    2.2318805   -4.6057245   -4.6057245   -2.5425864   0.63383594   -4.6057245    2.0631382   520346 
    5000    2.2086112   -4.6417068   -4.6417068   -2.6000786   0.61869485   -4.6417068    2.0416282   520346 
    6000    2.2217558   -4.7052339   -4.7052339   -2.6514549   0.66250025   -4.7052339    2.0537789   520346 
    7000    2.2287455   -4.7554643   -4.7554643   -2.6952241   0.73373076   -4.7554643    2.0602402   520346 
    8000    2.2141539   -4.7811543   -4.7811543   -2.7344025   0.72587174   -4.7811543    2.0467518   520346 
    9000    2.1985178   -4.8003983   -4.8003983   -2.7681004   0.73042493   -4.8003983    2.0322979   520346 
   10000    2.1829863   -4.8161814   -4.8161814   -2.7982408   0.69013658   -4.8161814    2.0179406   520346 
   11000    2.1710399   -4.8323783   -4.8323783   -2.8254809   0.70387092   -4.8323783    2.0068974   520346 
   12000    2.1602941   -4.8466464   -4.8466464   -2.8496823   0.68616068   -4.8466464    1.9969641   520346 
   13000    2.1595239   -4.8679849   -4.8679849   -2.8717328   0.73910359   -4.8679849    1.9962521   520346 
   14000    2.1495431   -4.8793863   -4.8793863   -2.8923604   0.69414231   -4.8793863    1.9870259   520346 
   15000    2.1410106   -4.8922334   -4.8922334   -2.9130949   0.67564407   -4.8922334    1.9791385   520346 
   16000    2.1295597   -4.9011545   -4.9011545   -2.9326011   0.69078647   -4.9011545    1.9685534   520346 
   17000    2.1172116    -4.910409    -4.910409   -2.9532702   0.72510155    -4.910409    1.9571388   520346 
   18000    2.1083686   -4.9241564   -4.9241564    -2.975192   0.68721683   -4.9241564    1.9489644   520346 
   19000    2.0941933   -4.9328962   -4.9328962   -2.9970353   0.70736494   -4.9328962    1.9358609   520346 
   20000    2.0855601   -4.9460172   -4.9460172   -3.0181369   0.67937116   -4.9460172    1.9278803   520346 
   21000    2.0709198   -4.9524776   -4.9524776   -3.0381306   0.66889761   -4.9524776     1.914347   520346 
   22000    2.0626861   -4.9650775   -4.9650775   -3.0583417   0.63930075   -4.9650775    1.9067358   520346 
   23000    2.0575755   -4.9783655   -4.9783655   -3.0763539   0.64290026   -4.9783655    1.9020116   520346 
   24000    2.0511162   -4.9886869   -4.9886869   -3.0926462   0.63123372   -4.9886869    1.8960407   520346 
   25000    2.0443298   -4.9995099   -4.9995099   -3.1097427   0.63200583   -4.9995099    1.8897673   520346 
   26000    2.0425893   -5.0135484   -5.0135484     -3.12539   0.64000133   -5.0135484    1.8881584   520346 
   27000    2.0401481   -5.0263663   -5.0263663   -3.1404645   0.60218985   -5.0263663    1.8859017   520346 
   28000    2.0339411   -5.0366705   -5.0366705   -3.1565065   0.62126308   -5.0366705     1.880164   520346 
   29000    2.0269799   -5.0445323   -5.0445323   -3.1708032   0.63985581   -5.0445323    1.8737292   520346 
   30000    2.0222769   -5.0547565   -5.0547565   -3.1853748   0.62484383   -5.0547565    1.8693817   520346 
   31000      2.01713    -5.063171    -5.063171    -3.198547   0.62866764    -5.063171     1.864624   520346 
   32000     2.006768   -5.0666574   -5.0666574    -3.211612   0.63154876   -5.0666574    1.8550454   520346 
   33000     1.999307   -5.0739204   -5.0739204   -3.2257719   0.63525417   -5.0739204    1.8481485   520346 
   34000    1.9931233    -5.081421    -5.081421   -3.2389887   0.60198436    -5.081421    1.8424323   520346 
   35000    1.9846457   -5.0864442   -5.0864442   -3.2518486   0.59296186   -5.0864442    1.8345956   520346 
   36000    1.9827989   -5.0969633   -5.0969633   -3.2640748   0.56256553   -5.0969633    1.8328885   520346 
   37000    1.9760407   -5.1033327   -5.1033327   -3.2766915    0.5412573   -5.1033327    1.8266412   520346 
   38000    1.9664917   -5.1078275   -5.1078275   -3.2900133   0.57315095   -5.1078275    1.8178142   520346 
   39000    1.9661975   -5.1195174   -5.1195174   -3.3019752     0.590958   -5.1195174    1.8175422   520346 
   40000    1.9595298    -5.124771    -5.124771   -3.3133923   0.58697568    -5.124771    1.8113787   520346 
   41000     1.956462   -5.1336278   -5.1336278    -3.325085   0.57789176   -5.1336278    1.8085428   520346 
   42000    1.9484416   -5.1373833   -5.1373833   -3.3362545    0.5632212   -5.1373833    1.8011288   520346 
   43000    1.9437202   -5.1444097   -5.1444097   -3.3476453   0.58307041   -5.1444097    1.7967643   520346 
   44000    1.9405629   -5.1531564   -5.1531564   -3.3593107   0.59041891   -5.1531564    1.7938457   520346 
   45000    1.9373219    -5.161374    -5.161374   -3.3705242   0.55325356    -5.161374    1.7908498   520346 
   46000     1.928748   -5.1639931   -5.1639931    -3.381069   0.55602931   -5.1639931    1.7829242   520346 
   47000    1.9253781   -5.1715089   -5.1715089   -3.3916999    0.5511633   -5.1715089     1.779809   520346 
   48000    1.9197147   -5.1769395   -5.1769395   -3.4023657   0.59388888   -5.1769395    1.7745738   520346 
   49000    1.9192446   -5.1875561   -5.1875561   -3.4134169   0.55321507   -5.1875561    1.7741392   520346 
   50000    1.9120446   -5.1905172   -5.1905172   -3.4230336   0.54352077   -5.1905172    1.7674836   520346 
   51000    1.9086966   -5.1966714   -5.1966714   -3.4322826   0.55823646   -5.1966714    1.7643887   520346 
   52000    1.9057893   -5.2033888   -5.2033888   -3.4416877   0.53754523   -5.2033888    1.7617012   520346 
   53000    1.9027374   -5.2104967   -5.2104967   -3.4516167   0.52899045   -5.2104967    1.7588801   520346 
   54000    1.8943274   -5.2126532   -5.2126532   -3.4615473   0.52418498   -5.2126532    1.7511059   520346 
   55000    1.8943427   -5.2218482   -5.2218482   -3.4707282   0.53085234   -5.2218482      1.75112   520346 
   56000    1.8859632   -5.2243591   -5.2243591    -3.480985   0.53978546   -5.2243591    1.7433741   520346 
   57000     1.881307   -5.2291737   -5.2291737   -3.4901039   0.57031718   -5.2291737    1.7390699   520346 
   58000    1.8766133   -5.2344473   -5.2344473   -3.4997162   0.55872921   -5.2344473    1.7347311   520346 
   59000    1.8747179    -5.242149    -5.242149     -3.50917   0.53219022    -5.242149     1.732979   520346 
   60000    1.8704867   -5.2469062   -5.2469062   -3.5178384   0.52200858   -5.2469062    1.7290677   520346 
   61000    1.8689654   -5.2539314   -5.2539314   -3.5262699   0.52762942   -5.2539314    1.7276614   520346 
   62000     1.862374   -5.2565383   -5.2565383   -3.5349699   0.53388023   -5.2565383    1.7215684   520346 
   63000    1.8592922    -5.262013    -5.262013   -3.5432935   0.52484922    -5.262013    1.7187195   520346 
   64000    1.8531974   -5.2658761   -5.2658761   -3.5527905    0.5427559   -5.2658761    1.7130856   520346 
   65000    1.8515105   -5.2725436   -5.2725436   -3.5610174   0.49822545   -5.2725436    1.7115262   520346 
   66000    1.8460529   -5.2752965   -5.2752965   -3.5688153   0.50502569   -5.2752965    1.7064812   520346 
   67000    1.8453823   -5.2831005   -5.2831005   -3.5772392   0.51078736   -5.2831005    1.7058613   520346 
   68000    1.8429941   -5.2902486   -5.2902486   -3.5865949   0.52218598   -5.2902486    1.7036537   520346 
   69000     1.836257   -5.2934512   -5.2934512   -3.5960252   0.47413192   -5.2934512     1.697426   520346 
   70000    1.8341399   -5.2996223   -5.2996223   -3.6041534    0.5134757   -5.2996223    1.6954689   520346 
   71000    1.8308995   -5.3051464   -5.3051464   -3.6126729   0.48880406   -5.3051464    1.6924735   520346 
   72000    1.8274793   -5.3087005   -5.3087005   -3.6193887     0.533482   -5.3087005    1.6893119   520346 
   73000     1.822252   -5.3115481   -5.3115481   -3.6270684   0.49563192   -5.3115481    1.6844798   520346 
   74000    1.8208289    -5.318195    -5.318195   -3.6350307    0.4986513    -5.318195    1.6831643   520346 
   75000    1.8160847   -5.3212148   -5.3212148    -3.642436   0.49157288   -5.3212148    1.6787788   520346 
   76000    1.8146547   -5.3285466   -5.3285466   -3.6510896   0.50594624   -5.3285466    1.6774569   520346 
   77000    1.8108161    -5.332341    -5.332341   -3.6584325   0.53567963    -5.332341    1.6739085   520346 
   78000    1.8116357   -5.3402009   -5.3402009   -3.6655347   0.47508812   -5.3402009    1.6746661   520346 
   79000     1.803974    -5.340459    -5.340459   -3.6728753   0.49717528    -5.340459    1.6675838   520346 
   80000    1.8060953    -5.349735    -5.349735   -3.6801903   0.49056703    -5.349735    1.6695446   520346 
   81000    1.8006417   -5.3516827   -5.3516827   -3.6871793   0.50511838   -5.3516827    1.6645033   520346 
   82000    1.8009337   -5.3590712   -5.3590712    -3.694298   0.50813967   -5.3590712    1.6647733   520346 
   83000    1.7963722   -5.3614434   -5.3614434   -3.7008868   0.49195112   -5.3614434    1.6605566   520346 
   84000     1.795922   -5.3683495   -5.3683495    -3.708209   0.50261643   -5.3683495    1.6601405   520346 
   85000    1.7901311   -5.3689208   -5.3689208   -3.7141334   0.51374216   -5.3689208    1.6547874   520346 
   86000    1.7872019   -5.3730835   -5.3730835   -3.7210038   0.49122578   -5.3730835    1.6520797   520346 
   87000    1.7871951   -5.3799211   -5.3799211   -3.7278478   0.50213088   -5.3799211    1.6520734   520346 
   88000    1.7813765   -5.3806933   -5.3806933   -3.7339985   0.50466139   -5.3806933    1.6466947   520346 
   89000    1.7799218   -5.3862962   -5.3862962   -3.7409462   0.53601238   -5.3862962      1.64535   520346 
   90000     1.776606   -5.3898707   -5.3898707   -3.7475859   0.50774217   -5.3898707    1.6422848   520346 
   91000     1.775491   -5.3954503   -5.3954503   -3.7541961   0.51322285   -5.3954503    1.6412542   520346 
   92000    1.7730269   -5.3994557   -5.3994557   -3.7604793   0.50747627   -5.3994557    1.6389764   520346 
   93000    1.7671349   -5.3998995   -5.3998995   -3.7663696   0.50502928   -5.3998995    1.6335298   520346 
   94000    1.7672094   -5.4061057   -5.4061057    -3.772507   0.47478471   -5.4061057    1.6335987   520346 
   95000    1.7634669   -5.4091717   -5.4091717   -3.7790325   0.48177752   -5.4091717    1.6301392   520346 
   96000    1.7648113   -5.4159756   -5.4159756   -3.7845937   0.47674106   -5.4159756    1.6313819   520346 
   97000    1.7602725   -5.4180836   -5.4180836   -3.7908973   0.47656891   -5.4180836    1.6271863   520346 
   98000    1.7590145   -5.4233038   -5.4233038   -3.7972804   0.48681553   -5.4233038    1.6260234   520346 
   99000    1.7558027   -5.4257418   -5.4257418   -3.8026873   0.47835552   -5.4257418    1.6230545   520346 
  100000    1.7551193   -5.4297384   -5.4297384   -3.8073157   0.48262685   -5.4297384    1.6224227   520346 
  101000    1.7473219   -5.4297773   -5.4297773   -3.8145625   0.45794386   -5.4297773    1.6152148   520346 
  102000    1.7470045   -5.4347523   -5.4347523   -3.8198309   0.50348354   -5.4347523    1.6149214   520346 
  103000     1.746798   -5.4402284   -5.4402284   -3.8254979    0.4886863   -5.4402284    1.6147305   520346 
  104000    1.7435862   -5.4439544   -5.4439544   -3.8321929   0.47112427   -5.4439544    1.6117616   520346 
  105000    1.7402935   -5.4456365   -5.4456365   -3.8369187   0.45822395   -5.4456365    1.6087178   520346 
  106000     1.736666   -5.4481534   -5.4481534   -3.8427888   0.46192176   -5.4481534    1.6053646   520346 
  107000    1.7396914   -5.4568917   -5.4568917   -3.8487304   0.46621475   -5.4568917    1.6081612   520346 
  108000    1.7338612   -5.4566753   -5.4566753   -3.8539034    0.4656685   -5.4566753    1.6027718   520346 
  109000    1.7311344   -5.4592828   -5.4592828   -3.8590316   0.45845195   -5.4592828    1.6002512   520346 
  110000    1.7299603   -5.4627469   -5.4627469    -3.863581   0.45232067   -5.4627469    1.5991659   520346 
  111000    1.7241336   -5.4622892   -5.4622892   -3.8685095   0.47923925   -5.4622892    1.5937797   520346 
  112000    1.7274406   -5.4703303   -5.4703303   -3.8734937   0.46610691   -5.4703303    1.5968366   520346 
  113000    1.7253658      -5.4733      -5.4733   -3.8783813   0.44778009      -5.4733    1.5949187   520346 
  114000    1.7213845   -5.4758192   -5.4758192   -3.8845807   0.45989986   -5.4758192    1.5912384   520346 
  115000     1.720027   -5.4792382   -5.4792382   -3.8892546   0.47942202   -5.4792382    1.5899836   520346 
  116000    1.7218062    -5.486306    -5.486306   -3.8946778   0.45345905    -5.486306    1.5916283   520346 
  117000    1.7155735   -5.4855072   -5.4855072   -3.8996404   0.47458591   -5.4855072    1.5858668   520346 
  118000    1.7130868   -5.4891907   -5.4891907   -3.9056226   0.46316871   -5.4891907    1.5835681   520346 
  119000    1.7081026   -5.4898994   -5.4898994   -3.9109387   0.45971096   -5.4898994    1.5789607   520346 
  120000    1.7085136   -5.4937034   -5.4937034   -3.9143628    0.4263335   -5.4937034    1.5793406   520346 
  121000    1.7057777   -5.4959732   -5.4959732   -3.9191616   0.43700673   -5.4959732    1.5768116   520346 
  122000    1.7038598   -5.4999129   -5.4999129   -3.9248742   0.44824315   -5.4999129    1.5750387   520346 
  123000    1.7047446   -5.5054838   -5.5054838   -3.9296272   0.45483572   -5.5054838    1.5758566   520346 
  124000    1.7020343   -5.5075454   -5.5075454   -3.9341942    0.4416837   -5.5075454    1.5733512   520346 
  125000    1.6994233   -5.5104989   -5.5104989   -3.9395612   0.46416763   -5.5104989    1.5709376   520346 
  126000    1.6975485   -5.5138469   -5.5138469   -3.9446424   0.45587606   -5.5138469    1.5692045   520346 
  127000    1.6940808   -5.5160887   -5.5160887   -3.9500897   0.45481927   -5.5160887    1.5659991   520346 
  128000    1.6958558   -5.5224804   -5.5224804   -3.9548405   0.46059236   -5.5224804    1.5676399   520346 
  129000    1.6912826   -5.5233808   -5.5233808   -3.9599684   0.46222087   -5.5233808    1.5634124   520346 
  130000     1.688796   -5.5262462   -5.5262462   -3.9651324   0.43178443   -5.5262462    1.5611138   520346 
  131000    1.6841044   -5.5267199   -5.5267199    -3.969943   0.43500819   -5.5267199    1.5567769   520346 
  132000    1.6845409   -5.5326498   -5.5326498   -3.9754694   0.45550269   -5.5326498    1.5571804   520346 
  133000    1.6801643    -5.532998    -5.532998   -3.9798633   0.44019688    -5.532998    1.5531347   520346 
  134000     1.680349   -5.5370581   -5.5370581   -3.9837527   0.42912842   -5.5370581    1.5533054   520346 
  135000    1.6767426   -5.5384375   -5.5384375   -3.9884658   0.44115271   -5.5384375    1.5499717   520346 
  136000    1.6750211   -5.5401526   -5.5401526   -3.9917722   0.43539416   -5.5401526    1.5483804   520346 
  137000    1.6741868   -5.5448788   -5.5448788   -3.9972696    0.4411177   -5.5448788    1.5476091   520346 
  138000    1.6716902   -5.5469572   -5.5469572   -4.0016559   0.42663023   -5.5469572    1.5453013   520346 
  139000    1.6707216   -5.5503625   -5.5503625   -4.0059566   0.44351602   -5.5503625    1.5444059   520346 
  140000    1.6669073   -5.5506233   -5.5506233   -4.0097433   0.41919146   -5.5506233      1.54088   520346 
  141000    1.6674402   -5.5552906   -5.5552906    -4.013918   0.42572014   -5.5552906    1.5413726   520346 
  142000    1.6636486   -5.5553015   -5.5553015   -4.0174339   0.42511182   -5.5553015    1.5378676   520346 
  143000    1.6641576    -5.560742    -5.560742   -4.0224039   0.43387606    -5.560742    1.5383382   520346 
  144000    1.6620131   -5.5623932   -5.5623932   -4.0260373   0.42122969   -5.5623932    1.5363559   520346 
  145000    1.6594991    -5.564717    -5.564717   -4.0306851   0.43437173    -5.564717    1.5340319   520346 
  146000      1.65932   -5.5695702   -5.5695702   -4.0357039   0.43241856   -5.5695702    1.5338663   520346 
  147000    1.6544256   -5.5695438   -5.5695438   -4.0402018   0.42067743   -5.5695438     1.529342   520346 
  148000    1.6534298   -5.5726188   -5.5726188   -4.0441974   0.41175754   -5.5726188    1.5284214   520346 
  149000    1.6513974   -5.5749233   -5.5749233   -4.0483806   0.42899791   -5.5749233    1.5265427   520346 
  150000     1.650968   -5.5783106   -5.5783106   -4.0521648   0.42900509   -5.5783106    1.5261458   520346 
  151000    1.6508208   -5.5820104   -5.5820104   -4.0560006   0.41430781   -5.5820104    1.5260098   520346 
  152000    1.6483172    -5.585121    -5.585121   -4.0614256   0.43797578    -5.585121    1.5236954   520346 
  153000    1.6468625   -5.5869166   -5.5869166   -4.0645659    0.4169488   -5.5869166    1.5223507   520346 
  154000    1.6447268   -5.5892431   -5.5892431   -4.0688666    0.3974556   -5.5892431    1.5203765   520346 
  155000    1.6432191   -5.5921933   -5.5921933   -4.0732105   0.42587893   -5.5921933    1.5189828   520346 
  156000    1.6428851   -5.5954412   -5.5954412   -4.0767672   0.42303121   -5.5954412     1.518674   520346 
  157000     1.639982   -5.5977882   -5.5977882   -4.0817978    0.4318496   -5.5977882    1.5159904   520346 
  158000    1.6433213   -5.6040058   -5.6040058   -4.0849286   0.42074393   -5.6040058    1.5190772   520346 
  159000    1.6373844   -5.6024158   -5.6024158   -4.0888266   0.44608803   -5.6024158    1.5135892   520346 
  160000    1.6333984   -5.6022712   -5.6022712   -4.0923666   0.41044284   -5.6022712    1.5099046   520346 
  161000    1.6385107   -5.6097071   -5.6097071   -4.0950767   0.40723709   -5.6097071    1.5146304   520346 
  162000    1.6379683   -5.6135905   -5.6135905   -4.0994616   0.42312253   -5.6135905    1.5141289   520346 
  163000     1.632402   -5.6126084   -5.6126084    -4.103625   0.41467262   -5.6126084    1.5089835   520346 
  164000    1.6313804   -5.6158954   -5.6158954   -4.1078563   0.44321508   -5.6158954    1.5080391   520346 
  165000    1.6297056   -5.6170293   -5.6170293   -4.1105384   0.43238312   -5.6170293    1.5064909   520346 
  166000    1.6264924   -5.6176725   -5.6176725   -4.1141518   0.41697733   -5.6176725    1.5035207   520346 
  167000    1.6256711   -5.6207842   -5.6207842   -4.1180227   0.42602375   -5.6207842    1.5027615   520346 
  168000    1.6246125   -5.6244345   -5.6244345   -4.1226516   0.42557747   -5.6244345    1.5017829   520346 
  169000    1.6210057   -5.6242029   -5.6242029    -4.125754   0.39631032   -5.6242029    1.4984489   520346 
  170000    1.6186021    -5.625635    -5.625635   -4.1294081   0.42430126    -5.625635     1.496227   520346 
  171000    1.6215837   -5.6322318   -5.6322318   -4.1332487   0.44497391   -5.6322318    1.4989831   520346 
  172000    1.6179259   -5.6320042   -5.6320042   -4.1364024   0.41875551   -5.6320042    1.4956018   520346 
  173000    1.6163274   -5.6336682   -5.6336682    -4.139544   0.39887588   -5.6336682    1.4941242   520346 
  174000    1.6153207   -5.6369923   -5.6369923   -4.1437987   0.38995402   -5.6369923    1.4931936   520346 
  175000    1.6150655   -5.6410362   -5.6410362   -4.1480785   0.43316397   -5.6410362    1.4929577   520346 
  176000    1.6150808   -5.6441559   -5.6441559    -4.151184   0.42306827   -5.6441559    1.4929719   520346 
  177000    1.6090056   -5.6436978   -5.6436978   -4.1563418   0.39795225   -5.6436978     1.487356   520346 
  178000    1.6079424   -5.6464373   -5.6464373   -4.1600641   0.40955362   -5.6464373    1.4863732   520346 
  179000       1.6054   -5.6473554   -5.6473554   -4.1633324   0.41061834   -5.6473554     1.484023   520346 
  180000    1.6053782   -5.6515132   -5.6515132   -4.1675103   0.42640177   -5.6515132    1.4840028   520346 
  181000    1.6000453   -5.6506525   -5.6506525   -4.1715793   0.40077831   -5.6506525    1.4790732   520346 
  182000    1.6029992   -5.6572677   -5.6572677    -4.175464     0.420635   -5.6572677    1.4818037   520346 
  183000    1.6036955   -5.6609363   -5.6609363    -4.178489   0.39835404   -5.6609363    1.4824473   520346 
  184000    1.5997774    -5.661517    -5.661517   -4.1826915    0.4022404    -5.661517    1.4788255   520346 
  185000    1.5988195     -5.66456     -5.66456     -4.18662   0.39538411     -5.66456      1.47794   520346 
  186000    1.5973221   -5.6664352   -5.6664352   -4.1898794   0.39417351   -5.6664352    1.4765558   520346 
  187000    1.5956007   -5.6690971   -5.6690971   -4.1941326   0.39267079   -5.6690971    1.4749645   520346 
  188000     1.596913   -5.6731965   -5.6731965   -4.1970188   0.43943656   -5.6731965    1.4761776   520346 
  189000    1.5931417   -5.6731031   -5.6731031   -4.2004117   0.38086967   -5.6731031    1.4726914   520346 
  190000    1.5914768   -5.6745009   -5.6745009   -4.2033484   0.41966578   -5.6745009    1.4711525   520346 
  191000    1.5903803   -5.6759068   -5.6759068    -4.205768   0.43566406   -5.6759068    1.4701388   520346 
  192000    1.5919668   -5.6811818   -5.6811818   -4.2095764   0.42270465   -5.6811818    1.4716054   520346 
  193000    1.5893764   -5.6821605   -5.6821605   -4.2129496   0.38513216   -5.6821605    1.4692109   520346 
  194000    1.5901524   -5.6851035   -5.6851035   -4.2151753   0.41004459   -5.6851035    1.4699282   520346 
  195000    1.5842398   -5.6835164   -5.6835164   -4.2190538   0.39735975   -5.6835164    1.4644626   520346 
  196000    1.5837782   -5.6869513   -5.6869513   -4.2229154   0.42380793   -5.6869513    1.4640359   520346 
  197000    1.5853672    -5.691633    -5.691633   -4.2261282   0.38843059    -5.691633    1.4655048   520346 
  198000    1.5840107    -5.693352    -5.693352   -4.2291011   0.41061179    -5.693352    1.4642509   520346 
  199000    1.5817796   -5.6944497   -5.6944497   -4.2322613    0.3727867   -5.6944497    1.4621884   520346 
  200000    1.5757484   -5.6921951   -5.6921951   -4.2355818   0.36148726   -5.6921951    1.4566133   520346 
  201000    1.5781206   -5.6978945   -5.6978945   -4.2390885   0.34878423   -5.6978945     1.458806   520346 
  202000    1.5787385   -5.7010438   -5.7010438   -4.2416665    0.4012619   -5.7010438    1.4593772   520346 
  203000    1.5741319   -5.7004324   -5.7004324   -4.2453135   0.38905758   -5.7004324    1.4551189   520346 
  204000    1.5738546    -5.703506    -5.703506   -4.2486433   0.38146666    -5.703506    1.4548626   520346 
  205000    1.5742046   -5.7066801   -5.7066801    -4.251494    0.3605863   -5.7066801    1.4551861   520346 
  206000    1.5718852   -5.7077367   -5.7077367   -4.2546947   0.38263674   -5.7077367    1.4530421   520346 
  207000    1.5708591   -5.7101903   -5.7101903   -4.2580968   0.38118582   -5.7101903    1.4520936   520346 
  208000    1.5707152   -5.7138867   -5.7138867   -4.2619262   0.39727169   -5.7138867    1.4519606   520346 
  209000    1.5686498   -5.7147787   -5.7147787   -4.2647273    0.3757121   -5.7147787    1.4500513   520346 
  210000    1.5678342    -5.716286    -5.716286   -4.2669886   0.37683843    -5.716286    1.4492974   520346 
  211000    1.5648204   -5.7175402   -5.7175402   -4.2710288   0.40620424   -5.7175402    1.4465114   520346 
  212000    1.5682467   -5.7234545   -5.7234545   -4.2737758    0.3945271   -5.7234545    1.4496787   520346 
  213000    1.5620501   -5.7205588   -5.7205588   -4.2766083   0.38280594   -5.7205588    1.4439506   520346 
  214000    1.5620538   -5.7229304   -5.7229304   -4.2789764    0.3762032   -5.7229304     1.443954   520346 
  215000    1.5612473   -5.7247479   -5.7247479   -4.2815395   0.39590273   -5.7247479    1.4432085   520346 
  216000    1.5597557   -5.7265832   -5.7265832   -4.2847536   0.39703232   -5.7265832    1.4418296   520346 
  217000    1.5611946   -5.7316054   -5.7316054   -4.2884457   0.39718279   -5.7316054    1.4431597   520346 
  218000    1.5585282   -5.7328577   -5.7328577   -4.2921628   0.39368224   -5.7328577     1.440695   520346 
  219000    1.5584868   -5.7355304   -5.7355304   -4.2948738   0.40365023   -5.7355304    1.4406566   520346 
  220000     1.554538   -5.7361306   -5.7361306   -4.2991242   0.39369855   -5.7361306    1.4370064   520346 
  221000    1.5566389   -5.7404735   -5.7404735   -4.3015249   0.39012628   -5.7404735    1.4389485   520346 
  222000    1.5544165   -5.7422416   -5.7422416   -4.3053475   0.36827883   -5.7422416    1.4368941   520346 
  223000    1.5508874   -5.7413207   -5.7413207   -4.3076889   0.35765439   -5.7413207    1.4336318   520346 
  224000    1.5515035   -5.7444765   -5.7444765   -4.3102751   0.38773486   -5.7444765    1.4342013   520346 
  225000    1.5513766    -5.747772    -5.747772    -4.313688   0.34762412    -5.747772     1.434084   520346 
  226000    1.5485181   -5.7479419   -5.7479419   -4.3165002   0.38937868   -5.7479419    1.4314417   520346 
  227000    1.5463963   -5.7495236   -5.7495236   -4.3200434   0.35825667   -5.7495236    1.4294803   520346 
  228000    1.5461481   -5.7525677   -5.7525677   -4.3233168   0.37966454   -5.7525677    1.4292509   520346 
  229000    1.5471544   -5.7563889   -5.7563889   -4.3262078    0.3690543   -5.7563889     1.430181   520346 
  230000      1.54587   -5.7574338   -5.7574338     -4.32844   0.37622887   -5.7574338    1.4289938   520346 
  231000    1.5436172   -5.7586165   -5.7586165   -4.3317052   0.35957021   -5.7586165    1.4269113   520346 
  232000    1.5426372   -5.7611709   -5.7611709   -4.3351655   0.35565636   -5.7611709    1.4260054   520346 
  233000    1.5428307   -5.7640098   -5.7640098   -4.3378255   0.36619176   -5.7640098    1.4261843   520346 
  234000    1.5414072   -5.7657494   -5.7657494    -4.340881   0.38033033   -5.7657494    1.4248684   520346 
  235000    1.5419504   -5.7702785   -5.7702785    -4.344908   0.39515014   -5.7702785    1.4253705   520346 
  236000    1.5384334   -5.7700362   -5.7700362   -4.3479168   0.36190222   -5.7700362    1.4221194   520346 
  237000    1.5368183   -5.7711969   -5.7711969   -4.3505705   0.36098298   -5.7711969    1.4206265   520346 
  238000    1.5347261   -5.7724818   -5.7724818   -4.3537894   0.39806717   -5.7724818    1.4186924   520346 
  239000    1.5359898   -5.7762366   -5.7762366   -4.3563761   0.37419669   -5.7762366    1.4198606   520346 
  240000    1.5336145   -5.7768825   -5.7768825   -4.3592176   0.37176051   -5.7768825    1.4176648   520346 
  241000    1.5350371   -5.7811678   -5.7811678   -4.3621879   0.36192084   -5.7811678    1.4189799   520346 
  242000    1.5327835   -5.7823738   -5.7823738   -4.3654772   0.36516414   -5.7823738    1.4168967   520346 
  243000    1.5299817   -5.7826871   -5.7826871   -4.3683804   0.37155153   -5.7826871    1.4143067   520346 
  244000    1.5322474   -5.7884806   -5.7884806   -4.3720795   0.35756501   -5.7884806    1.4164011   520346 
  245000    1.5268065    -5.786966    -5.786966   -4.3755944   0.37129465    -5.786966    1.4113716   520346 
  246000    1.5255639   -5.7885294   -5.7885294   -4.3783064   0.39926858   -5.7885294     1.410223   520346 
  247000    1.5273073    -5.791879    -5.791879   -4.3800445   0.37003007    -5.791879    1.4118345   520346 
  248000    1.5263893   -5.7932816   -5.7932816   -4.3822956   0.39142553   -5.7932816     1.410986   520346 
  249000    1.5243378   -5.7946614   -5.7946614   -4.3855718   0.36148112   -5.7946614    1.4090896   520346 
  250000    1.5251476   -5.7978923   -5.7978923   -4.3880542    0.3942223   -5.7978923    1.4098381   520346 
  251000    1.5212701   -5.7973472   -5.7973472   -4.3910935   0.35139147   -5.7973472    1.4062537   520346 
  252000    1.5208562   -5.7996973   -5.7996973   -4.3938261   0.36572995   -5.7996973    1.4058711   520346 
  253000    1.5218674   -5.8038971   -5.8038971   -4.3970912   0.36177567   -5.8038971    1.4068059   520346 
  254000     1.520258   -5.8050051   -5.8050051   -4.3996869   0.36214943   -5.8050051    1.4053182   520346 
  255000    1.5203578    -5.807245    -5.807245   -4.4018345   0.35085642    -5.807245    1.4054105   520346 
  256000    1.5176409   -5.8075562   -5.8075562   -4.4046573    0.3623816   -5.8075562    1.4028989   520346 
  257000    1.5170704   -5.8089645   -5.8089645   -4.4065928   0.37159034   -5.8089645    1.4023716   520346 
  258000    1.5136716   -5.8090795   -5.8090795   -4.4098497   0.37990765   -5.8090795    1.3992298   520346 
  259000    1.5138801   -5.8109728   -5.8109728   -4.4115504   0.39002055   -5.8109728    1.3994224   520346 
  260000    1.5124206   -5.8133238   -5.8133238   -4.4152504    0.3407006   -5.8133238    1.3980734   520346 
  261000    1.5108581   -5.8137612   -5.8137612   -4.4171322   0.34828156   -5.8137612     1.396629   520346 
  262000    1.5100753   -5.8164024   -5.8164024    -4.420497   0.36714339   -5.8164024    1.3959054   520346 
  263000    1.5105892   -5.8192775   -5.8192775   -4.4228971   0.37799903   -5.8192775    1.3963804   520346 
  264000     1.509971   -5.8218033   -5.8218033   -4.4259943   0.35166634   -5.8218033     1.395809   520346 
  265000    1.5102769   -5.8247067   -5.8247067    -4.428615   0.34339221   -5.8247067    1.3960917   520346 
  266000    1.5083595   -5.8250844   -5.8250844    -4.430765   0.36474712   -5.8250844    1.3943193   520346 
  267000    1.5061412   -5.8252177   -5.8252177    -4.432949   0.35521788   -5.8252177    1.3922687   520346 
  268000    1.5039352   -5.8261416   -5.8261416   -4.4359122   0.35357556   -5.8261416    1.3902295   520346 
  269000    1.5001022   -5.8249698   -5.8249698   -4.4382835    0.3241862   -5.8249698    1.3866863   520346 
  270000     1.504415    -5.831134    -5.831134    -4.440461   0.32111484    -5.831134     1.390673   520346 
  271000    1.5014643   -5.8313952   -5.8313952   -4.4434499   0.34169769   -5.8313952    1.3879454   520346 
  272000    1.5047952   -5.8368956   -5.8368956   -4.4458712   0.35776357   -5.8368956    1.3910244   520346 
  273000    1.5006467   -5.8358736   -5.8358736    -4.448684   0.33969977   -5.8358736    1.3871896   520346 
  274000    1.4963569   -5.8347686   -5.8347686   -4.4515445   0.34758874   -5.8347686    1.3832242   520346 
  275000    1.4976676   -5.8391908   -5.8391908    -4.454755   0.36350058   -5.8391908    1.3844357   520346 
  276000    1.4958078   -5.8402481   -5.8402481   -4.4575316   0.35241238   -5.8402481    1.3827165   520346 
  277000    1.4944923   -5.8415627   -5.8415627   -4.4600622    0.3357809   -5.8415627    1.3815005   520346 
  278000    1.4930908   -5.8424043   -5.8424043   -4.4621993   0.35254031   -5.8424043     1.380205   520346 
  279000    1.4922103   -5.8443904   -5.8443904   -4.4649993   0.32953496   -5.8443904    1.3793911   520346 
  280000    1.4924687   -5.8465774   -5.8465774   -4.4669475    0.3339479   -5.8465774    1.3796299   520346 
  281000    1.4917487   -5.8474865   -5.8474865   -4.4685222   0.32328801   -5.8474865    1.3789643   520346 
  282000    1.4888587   -5.8470537   -5.8470537   -4.4707608   0.31555454   -5.8470537    1.3762928   520346 
  283000    1.4880301   -5.8492799   -5.8492799    -4.473753   0.32420549   -5.8492799    1.3755269   520346 
  284000    1.4864212   -5.8500195   -5.8500195   -4.4759798   0.34237682   -5.8500195    1.3740396   520346 
  285000    1.4869545   -5.8533002   -5.8533002   -4.4787675   0.35491125   -5.8533002    1.3745326   520346 
  286000    1.4875807   -5.8569125   -5.8569125    -4.481801   0.34563305   -5.8569125    1.3751115   520346 
  287000    1.4863384   -5.8574459   -5.8574459   -4.4834828   0.35570247   -5.8574459    1.3739631   520346 
  288000    1.4865197   -5.8603991   -5.8603991   -4.4862684   0.33440237   -5.8603991    1.3741307   520346 
  289000    1.4828923   -5.8592589   -5.8592589   -4.4884813   0.33995633   -5.8592589    1.3707775   520346 
  290000    1.4830968   -5.8616438   -5.8616438   -4.4906772    0.3535221   -5.8616438    1.3709666   520346 
  291000    1.4812217   -5.8627206   -5.8627206   -4.4934873   0.34417873   -5.8627206    1.3692332   520346 
  292000    1.4830184   -5.8667114   -5.8667114   -4.4958173   0.30235735   -5.8667114    1.3708941   520346 
  293000    1.4809643   -5.8666949   -5.8666949   -4.4976995   0.32847575   -5.8666949    1.3689953   520346 
  294000    1.4799714   -5.8689817   -5.8689817   -4.5009042   0.32787237   -5.8689817    1.3680775   520346 
  295000    1.4783383     -5.87013     -5.87013   -4.5035622     0.331878     -5.87013    1.3665679   520346 
  296000    1.4798405   -5.8738666   -5.8738666   -4.5059101   0.37415808   -5.8738666    1.3679565   520346 
  297000    1.4761773   -5.8716933   -5.8716933   -4.5071231   0.33281256   -5.8716933    1.3645703   520346 
  298000    1.4776058    -5.876051    -5.876051   -4.5101603   0.33139444    -5.876051    1.3658908   520346 
  299000    1.4735065   -5.8758192   -5.8758192   -4.5137178   0.34421975   -5.8758192    1.3621013   520346 
  300000    1.4732487   -5.8783676   -5.8783676   -4.5165045   0.34575589   -5.8783676    1.3618631   520346 
  301000     1.476364   -5.8828536   -5.8828536   -4.5181108   0.32644959   -5.8828536    1.3647428   520346 
  302000    1.4751177   -5.8838407   -5.8838407   -4.5202499   0.32773514   -5.8838407    1.3635908   520346 
  303000    1.4732504   -5.8840552   -5.8840552   -4.5221905   0.33908705   -5.8840552    1.3618647   520346 
  304000    1.4740762   -5.8871669   -5.8871669   -4.5245389   0.32282317   -5.8871669     1.362628   520346 
  305000    1.4709774   -5.8859166   -5.8859166   -4.5261531    0.3379163   -5.8859166    1.3597635   520346 
  306000    1.4725501   -5.8893485   -5.8893485   -4.5281312   0.33616283   -5.8893485    1.3612173   520346 
  307000    1.4740934   -5.8931594   -5.8931594   -4.5305154   0.34988912   -5.8931594    1.3626439   520346 
  308000    1.4701919   -5.8919294   -5.8919294    -4.532892    0.3372735   -5.8919294    1.3590374   520346 
  309000    1.4666097   -5.8910892   -5.8910892   -4.5353632   0.31550738   -5.8910892     1.355726   520346 
  310000    1.4643421   -5.8905211   -5.8905211   -4.5368912   0.30485219   -5.8905211    1.3536299   520346 
  311000    1.4664155   -5.8943169   -5.8943169   -4.5387704   0.35080642   -5.8943169    1.3555465   520346 
  312000    1.4686367   -5.8992111   -5.8992111   -4.5416113   0.31971869   -5.8992111    1.3575998   520346 
  313000    1.4638962   -5.8973762   -5.8973762   -4.5441585   0.33031654   -5.8973762    1.3532177   520346 
  314000    1.4635826   -5.8996542   -5.8996542   -4.5467264   0.33156514   -5.8996542    1.3529278   520346 
  315000    1.4626843   -5.9013885   -5.9013885   -4.5492911   0.33166606   -5.9013885    1.3520974   520346 
  316000    1.4647819   -5.9047026   -5.9047026   -4.5506662   0.30211368   -5.9047026    1.3540364   520346 
  317000    1.4613879   -5.9050445   -5.9050445   -4.5541455   0.30022804   -5.9050445     1.350899   520346 
  318000    1.4604086   -5.9056058   -5.9056058   -4.5556121   0.34553464   -5.9056058    1.3499937   520346 
  319000    1.4608921   -5.9084284   -5.9084284   -4.5579877   0.32584674   -5.9084284    1.3504407   520346 
  320000    1.4591439   -5.9083648   -5.9083648   -4.5595402   0.33488781   -5.9083648    1.3488247   520346 
  321000    1.4575781   -5.9095056   -5.9095056   -4.5621283   0.29539215   -5.9095056    1.3473773   520346 
  322000    1.4585802   -5.9124507   -5.9124507   -4.5641471   0.29112816   -5.9124507    1.3483036   520346 
  323000    1.4579962   -5.9139144   -5.9139144   -4.5661506   0.31884829   -5.9139144    1.3477638   520346 
  324000    1.4570608   -5.9157397   -5.9157397   -4.5688407   0.32184159   -5.9157397     1.346899   520346 
  325000    1.4541227   -5.9140065   -5.9140065   -4.5698234   0.32203073   -5.9140065    1.3441831   520346 
  326000    1.4543848   -5.9167973   -5.9167973   -4.5723719   0.30732737   -5.9167973    1.3444253   520346 
  327000    1.4562758   -5.9204614   -5.9204614   -4.5742881   0.33801295   -5.9204614    1.3461734   520346 
  328000    1.4529993   -5.9187364   -5.9187364   -4.5755918   0.28751225   -5.9187364    1.3431446   520346 
  329000    1.4530673   -5.9220653   -5.9220653   -4.5788578   0.28413759   -5.9220653    1.3432075   520346 
  330000    1.4514355   -5.9221342   -5.9221342   -4.5804352   0.32213515   -5.9221342     1.341699   520346 
  331000    1.4520924   -5.9246656   -5.9246656   -4.5823594   0.31421837   -5.9246656    1.3423062   520346 
  332000    1.4522244   -5.9265667   -5.9265667   -4.5841384   0.32851868   -5.9265667    1.3424283   520346 
  333000    1.4514971   -5.9276064   -5.9276064   -4.5858503   0.32243302   -5.9276064     1.341756   520346 
  334000    1.4503151   -5.9291493   -5.9291493   -4.5884859   0.33033953   -5.9291493    1.3406634   520346 
  335000    1.4476991   -5.9283867   -5.9283867   -4.5901416   0.32085547   -5.9283867    1.3382451   520346 
  336000    1.4493656   -5.9312535   -5.9312535   -4.5914679   0.29299019   -5.9312535    1.3397856   520346 
  337000    1.4473708   -5.9316716   -5.9316716   -4.5937299    0.3092967   -5.9316716    1.3379417   520346 
  338000    1.4476059   -5.9332195   -5.9332195   -4.5950605   0.28699048   -5.9332195     1.338159   520346 
  339000    1.4449918   -5.9331955   -5.9331955    -4.597453   0.31528138   -5.9331955    1.3357425   520346 
  340000    1.4469712   -5.9366977   -5.9366977   -4.5991254   0.30788441   -5.9366977    1.3375722   520346 
  341000    1.4417595   -5.9340093   -5.9340093   -4.6012547   0.28860833   -5.9340093    1.3327546   520346 
  342000    1.4435951    -5.938255    -5.938255   -4.6038036   0.31128743    -5.938255    1.3344514   520346 
  343000    1.4454061   -5.9426362   -5.9426362   -4.6065107   0.30341005   -5.9426362    1.3361255   520346 
  344000    1.4435709   -5.9438771   -5.9438771    -4.609448   0.31289027   -5.9438771     1.334429   520346 
  345000    1.4408667   -5.9436204   -5.9436204   -4.6116911    0.3282322   -5.9436204    1.3319293   520346 
  346000      1.43962   -5.9442569   -5.9442569     -4.61348    0.3013532   -5.9442569    1.3307768   520346 
  347000    1.4385959   -5.9450213   -5.9450213   -4.6151911   0.30415501   -5.9450213    1.3298302   520346 
  348000    1.4377463   -5.9464143   -5.9464143   -4.6173694   0.30571271   -5.9464143    1.3290448   520346 
  349000    1.4384601   -5.9488556   -5.9488556   -4.6191509   0.30537619   -5.9488556    1.3297047   520346 
  350000    1.4373841    -5.950365    -5.950365    -4.621655   0.31149014    -5.950365      1.32871   520346 
  351000    1.4368662   -5.9521948   -5.9521948   -4.6239636    0.3156839   -5.9521948    1.3282312   520346 
  352000    1.4382943   -5.9552449   -5.9552449   -4.6256935   0.30311349   -5.9552449    1.3295514   520346 
  353000    1.4358377   -5.9552189   -5.9552189   -4.6279383   0.31139363   -5.9552189    1.3272805   520346 
  354000     1.435167   -5.9566455   -5.9566455    -4.629985   0.30452465   -5.9566455    1.3266605   520346 
  355000    1.4339356   -5.9573465   -5.9573465   -4.6318243   0.27315267   -5.9573465    1.3255222   520346 
  356000    1.4314353   -5.9574181   -5.9574181   -4.6342072    0.3076818   -5.9574181    1.3232109   520346 
  357000    1.4291548   -5.9574431   -5.9574431   -4.6363402   0.29532031   -5.9574431    1.3211029   520346 
  358000    1.4303709   -5.9612406   -5.9612406   -4.6390135   0.30195177   -5.9612406    1.3222271   520346 
  359000    1.4298718   -5.9624289   -5.9624289   -4.6406633   0.29354333   -5.9624289    1.3217657   520346 
  360000    1.4302125   -5.9642877   -5.9642877   -4.6422071   0.29986716   -5.9642877    1.3220806   520346 
  361000     1.430195   -5.9665154   -5.9665154    -4.644451    0.3171431   -5.9665154    1.3220645   520346 
  362000    1.4274659   -5.9659849   -5.9659849   -4.6464432   0.29338809   -5.9659849    1.3195417   520346 
  363000    1.4272849   -5.9673549   -5.9673549   -4.6479806   0.28949239   -5.9673549    1.3193743   520346 
  364000    1.4268097   -5.9702503   -5.9702503   -4.6513152   0.32179152   -5.9702503    1.3189351   520346 
  365000    1.4275865   -5.9718682   -5.9718682    -4.652215   0.30705236   -5.9718682    1.3196532   520346 
  366000    1.4272604   -5.9725839   -5.9725839   -4.6532322   0.32050503   -5.9725839    1.3193517   520346 
  367000    1.4227862   -5.9719513   -5.9719513   -4.6567356   0.31213988   -5.9719513    1.3152158   520346 
  368000    1.4223196   -5.9721903   -5.9721903   -4.6574058   0.31004711   -5.9721903    1.3147845   520346 
  369000    1.4241813   -5.9745615   -5.9745615   -4.6580561   0.29261242   -5.9745615    1.3165054   520346 
  370000    1.4236402   -5.9764419   -5.9764419   -4.6604368   0.30133472   -5.9764419    1.3160052   520346 
  371000     1.423062   -5.9784269   -5.9784269   -4.6629562   0.30832857   -5.9784269    1.3154707   520346 
  372000    1.4207229   -5.9779442   -5.9779442   -4.6646357   0.30199269   -5.9779442    1.3133085   520346 
  373000    1.4201445   -5.9800716   -5.9800716   -4.6672978   0.30386138   -5.9800716    1.3127738   520346 
  374000    1.4206668   -5.9820889   -5.9820889   -4.6688323   0.28504517   -5.9820889    1.3132566   520346 
  375000    1.4174441   -5.9816097   -5.9816097   -4.6713321   0.29652512   -5.9816097    1.3102776   520346 
  376000    1.4184477   -5.9845831   -5.9845831   -4.6733778   0.28241926   -5.9845831    1.3112053   520346 
  377000    1.4176653   -5.9859803   -5.9859803   -4.6754982   0.29396362   -5.9859803    1.3104821   520346 
  378000    1.4195692   -5.9898352   -5.9898352   -4.6775932   0.26957533   -5.9898352     1.312242   520346 
  379000    1.4164935   -5.9891477   -5.9891477   -4.6797489   0.28393935   -5.9891477    1.3093988   520346 
  380000    1.4169944   -5.9910924   -5.9910924   -4.6812306   0.28203014   -5.9910924    1.3098619   520346 
  381000    1.4157596   -5.9916802   -5.9916802   -4.6829598   0.27571361   -5.9916802    1.3087205   520346 
  382000    1.4151862   -5.9918716   -5.9918716   -4.6836812   0.30643579   -5.9918716    1.3081904   520346 
  383000    1.4138692   -5.9929416   -5.9929416   -4.6859686   0.29184826   -5.9929416     1.306973   520346 
  384000    1.4136767   -5.9943051   -5.9943051   -4.6875101   0.29156142   -5.9943051     1.306795   520346 
  385000    1.4118357   -5.9955493   -5.9955493   -4.6904561   0.27993042   -5.9955493    1.3050932   520346 
  386000    1.4131626   -5.9990359   -5.9990359   -4.6927161   0.29319041   -5.9990359    1.3063198   520346 
  387000    1.4112006   -5.9993312   -5.9993312    -4.694825   0.29628196   -5.9993312    1.3045062   520346 
  388000    1.4129618   -6.0028456   -6.0028456   -4.6967115   0.29165783   -6.0028456    1.3061341   520346 
  389000    1.4115308   -6.0024774   -6.0024774   -4.6976661   0.27878305   -6.0024774    1.3048113   520346 
  390000    1.4089653   -6.0026577   -6.0026577   -4.7002179    0.2993886   -6.0026577    1.3024398   520346 
  391000    1.4073613   -6.0040693   -6.0040693   -4.7031122   0.31208704   -6.0040693    1.3009571   520346 
  392000    1.4087451   -6.0068218   -6.0068218   -4.7045855   0.27503927   -6.0068218    1.3022363   520346 
  393000    1.4100413   -6.0096507   -6.0096507   -4.7062162   0.29635463   -6.0096507    1.3034345   520346 
  394000    1.4077829   -6.0091776   -6.0091776   -4.7078308   0.28338673   -6.0091776    1.3013468   520346 
  395000    1.4067525   -6.0104134   -6.0104134   -4.7100191   0.31710352   -6.0104134    1.3003943   520346 
  396000    1.4051572   -6.0102262   -6.0102262   -4.7113065   0.30109598   -6.0102262    1.2989196   520346 
  397000    1.4061535   -6.0124115   -6.0124115   -4.7125708   0.27589011   -6.0124115    1.2998407   520346 
  398000    1.4038833   -6.0124542   -6.0124542   -4.7147122   0.28164989   -6.0124542     1.297742   520346 
  399000    1.4038028   -6.0136869   -6.0136869   -4.7160193    0.2741366   -6.0136869    1.2976676   520346 
  400000    1.4026701   -6.0150358   -6.0150358   -4.7184153   0.26907726   -6.0150358    1.2966206   520346 
  401000    1.4038874   -6.0177524   -6.0177524   -4.7200066      0.30161   -6.0177524    1.2977458   520346 
  402000    1.4008064   -6.0176525   -6.0176525   -4.7227547   0.30091978   -6.0176525    1.2948978   520346 
  403000    1.4002886   -6.0190048   -6.0190048   -4.7245857   0.26855786   -6.0190048    1.2944191   520346 
  404000    1.4021498   -6.0229524   -6.0229524   -4.7268128   0.27246151   -6.0229524    1.2961396   520346 
  405000    1.3995883   -6.0216711   -6.0216711   -4.7278994   0.29729896   -6.0216711    1.2937718   520346 
  406000    1.3995804   -6.0237754   -6.0237754    -4.730011   0.27062555   -6.0237754    1.2937645   520346 
  407000    1.3999545   -6.0256645   -6.0256645   -4.7315542   0.28089082   -6.0256645    1.2941103   520346 
  408000    1.3953221   -6.0245031   -6.0245031    -4.734675   0.26607799   -6.0245031    1.2898281   520346 
  409000    1.3998642   -6.0305517   -6.0305517   -4.7365249   0.28160911   -6.0305517    1.2940269   520346 
  410000    1.3955453   -6.0274085   -6.0274085    -4.737374   0.30442588   -6.0274085    1.2900345   520346 
  411000    1.3950543   -6.0299303   -6.0299303   -4.7403497   0.30648108   -6.0299303    1.2895806   520346 
  412000    1.3924582   -6.0291836   -6.0291836   -4.7420028   0.29586844   -6.0291836    1.2871807   520346 
  413000    1.3915501   -6.0300516   -6.0300516   -4.7437102   0.28391815   -6.0300516    1.2863414   520346 
  414000    1.3903755    -6.030562    -6.030562   -4.7453065   0.29927304    -6.030562    1.2852555   520346 
  415000     1.392996   -6.0359369   -6.0359369   -4.7482591   0.28567136   -6.0359369    1.2876779   520346 
  416000    1.3903262   -6.0346439   -6.0346439   -4.7494339   0.27435666   -6.0346439      1.28521   520346 
  417000    1.3873317   -6.0341931   -6.0341931   -4.7517513   0.31543571   -6.0341931    1.2824419   520346 
  418000    1.3918423   -6.0391612   -6.0391612   -4.7525498   0.28757763   -6.0391612    1.2866114   520346 
  419000    1.3888926   -6.0390325   -6.0390325   -4.7551477   0.28035287   -6.0390325    1.2838848   520346 
  420000    1.3868681   -6.0390113   -6.0390113    -4.756998   0.25936533   -6.0390113    1.2820133   520346 
  421000    1.3880219   -6.0408949   -6.0408949   -4.7578151   0.26712295   -6.0408949    1.2830798   520346 
  422000    1.3861767   -6.0412917   -6.0412917   -4.7599175   0.26164273   -6.0412917    1.2813742   520346 
  423000    1.3847862   -6.0412976   -6.0412976   -4.7612088    0.2986576   -6.0412976    1.2800888   520346 
  424000     1.384322    -6.042054    -6.042054   -4.7623943   0.26671586    -6.042054    1.2796597   520346 
  425000     1.384149   -6.0437906   -6.0437906   -4.7642908   0.31450252   -6.0437906    1.2794998   520346 
  426000    1.3836928   -6.0464069   -6.0464069   -4.7673288   0.30526525   -6.0464069     1.279078   520346 
  427000    1.3820282    -6.047421    -6.047421   -4.7698817   0.28420391    -6.047421    1.2775393   520346 
  428000    1.3843981   -6.0506574   -6.0506574   -4.7709274   0.25764124   -6.0506574      1.27973   520346 
  429000    1.3859166   -6.0534349   -6.0534349   -4.7723012   0.28020758   -6.0534349    1.2811337   520346 
  430000    1.3809345   -6.0514828   -6.0514828   -4.7749545   0.29326073   -6.0514828    1.2765283   520346 
  431000     1.380185   -6.0519494   -6.0519494   -4.7761139    0.2688741   -6.0519494    1.2758355   520346 
  432000     1.382393   -6.0541951   -6.0541951   -4.7763185   0.27857609   -6.0541951    1.2778766   520346 
  433000    1.3807194   -6.0542865   -6.0542865    -4.777957   0.29474079   -6.0542865    1.2763295   520346 
  434000    1.3792998    -6.055199    -6.055199   -4.7801818   0.27407101    -6.055199    1.2750172   520346 
  435000    1.3771612   -6.0544242   -6.0544242   -4.7813839   0.26120242   -6.0544242    1.2730402   520346 
  436000    1.3774354   -6.0568956   -6.0568956   -4.7836018   0.27872798   -6.0568956    1.2732938   520346 
  437000    1.3746996   -6.0565034   -6.0565034   -4.7857386   0.28622872   -6.0565034    1.2707648   520346 
  438000    1.3740146   -6.0582604   -6.0582604   -4.7881289   0.30286765   -6.0582604    1.2701316   520346 
  439000    1.3742168     -6.05972     -6.05972   -4.7894016   0.28301336     -6.05972    1.2703185   520346 
  440000    1.3754231   -6.0627072   -6.0627072   -4.7912736   0.27899249   -6.0627072    1.2714336   520346 
  441000     1.373179   -6.0633595   -6.0633595   -4.7940003   0.27669844   -6.0633595    1.2693592   520346 
  442000    1.3743994   -6.0656733   -6.0656733    -4.795186   0.25105773   -6.0656733    1.2704873   520346 
  443000    1.3719371   -6.0653848   -6.0653848   -4.7971736   0.29100687   -6.0653848    1.2682112   520346 
  444000      1.37184   -6.0673788   -6.0673788   -4.7992573   0.24403047   -6.0673788    1.2681214   520346 
  445000    1.3691089   -6.0659545   -6.0659545   -4.8003577   0.28273361   -6.0659545    1.2655968   520346 
  446000    1.3677722   -6.0656068   -6.0656068   -4.8012456    0.2677505   -6.0656068    1.2643612   520346 
  447000    1.3705024   -6.0701105   -6.0701105   -4.8032256   0.26630386   -6.0701105    1.2668849   520346 
  448000     1.368663   -6.0700488   -6.0700488   -4.8048642   0.28581446   -6.0700488    1.2651846   520346 
  449000    1.3683537    -6.071712    -6.071712   -4.8068133   0.25113373    -6.071712    1.2648987   520346 
  450000    1.3687775   -6.0746005   -6.0746005     -4.80931   0.27708745   -6.0746005    1.2652904   520346 
  451000    1.3653575    -6.073192    -6.073192    -4.811063   0.28072023    -6.073192     1.262129   520346 
  452000    1.3662872   -6.0751681   -6.0751681   -4.8121796   0.25303938   -6.0751681    1.2629885   520346 
  453000    1.3658609   -6.0764208   -6.0764208   -4.8138264   0.28920159   -6.0764208    1.2625943   520346 
  454000    1.3664165   -6.0774868   -6.0774868   -4.8143789   0.24921879   -6.0774868    1.2631079   520346 
  455000     1.364117    -6.077463    -6.077463   -4.8164807   0.27236856    -6.077463    1.2609823   520346 
  456000    1.3629353   -6.0778837   -6.0778837   -4.8179937   0.28586266   -6.0778837      1.25989   520346 
  457000    1.3631013   -6.0794548   -6.0794548   -4.8194114   0.29226549   -6.0794548    1.2600434   520346 
  458000    1.3635616   -6.0810835   -6.0810835   -4.8206146   0.26775242   -6.0810835    1.2604689   520346 
  459000     1.361081   -6.0805005   -6.0805005   -4.8223246   0.25926489   -6.0805005    1.2581758   520346 
  460000    1.3606583   -6.0811944   -6.0811944   -4.8234093   0.29020941   -6.0811944    1.2577851   520346 
  461000    1.3600206   -6.0825896   -6.0825896    -4.825394   0.30304838   -6.0825896    1.2571956   520346 
  462000     1.360176   -6.0840221   -6.0840221   -4.8266829   0.28569043   -6.0840221    1.2573392   520346 
  463000    1.3592683   -6.0860012   -6.0860012    -4.829501   0.26977215   -6.0860012    1.2565002   520346 
  464000    1.3575265    -6.085586    -6.085586   -4.8306959   0.27014234    -6.085586      1.25489   520346 
  465000    1.3550116   -6.0847516   -6.0847516   -4.8321863   0.25286327   -6.0847516    1.2525653   520346 
  466000    1.3583664   -6.0902547   -6.0902547   -4.8345883   0.26481612   -6.0902547    1.2556665   520346 
  467000    1.3566084   -6.0891302   -6.0891302   -4.8350888   0.26178417   -6.0891302    1.2540414   520346 
  468000    1.3569634   -6.0903438   -6.0903438   -4.8359742   0.24905331   -6.0903438    1.2543695   520346 
  469000    1.3540958   -6.0896479   -6.0896479   -4.8379291   0.27627705   -6.0896479    1.2517188   520346 
  470000    1.3527025   -6.0909895   -6.0909895   -4.8405587   0.24492207   -6.0909895    1.2504308   520346 
  471000     1.354061   -6.0938556   -6.0938556    -4.842169   0.24956821   -6.0938556    1.2516866   520346 
  472000    1.3542822   -6.0952698   -6.0952698   -4.8433787    0.2864696   -6.0952698    1.2518911   520346 
  473000    1.3534745   -6.0960436   -6.0960436   -4.8448992   0.27541278   -6.0960436    1.2511444   520346 
  474000    1.3513412   -6.0957263   -6.0957263   -4.8465538   0.25592642   -6.0957263    1.2491724   520346 
  475000    1.3486327   -6.0958536   -6.0958536    -4.849185   0.26352489   -6.0958536    1.2466687   520346 
  476000    1.3492338   -6.0984266   -6.0984266   -4.8512023   0.27460522   -6.0984266    1.2472244   520346 
  477000    1.3483912   -6.0985393   -6.0985393   -4.8520939    0.2314211   -6.0985393    1.2464454   520346 
  478000    1.3496861   -6.1002789   -6.1002789   -4.8526365   0.24028363   -6.1002789    1.2476425   520346 
  479000    1.3489499   -6.1007486   -6.1007486   -4.8537867   0.25802181   -6.1007486    1.2469619   520346 
  480000    1.3472916   -6.1015067   -6.1015067   -4.8560777   0.25207848   -6.1015067     1.245429   520346 
  481000    1.3464609   -6.1023706   -6.1023706   -4.8577095    0.2557897   -6.1023706    1.2446611   520346 
  482000    1.3455063   -6.1032387   -6.1032387   -4.8594601   0.26815946   -6.1032387    1.2437787   520346 
  483000    1.3448323   -6.1040745   -6.1040745   -4.8609188   0.25458178   -6.1040745    1.2431556   520346 
  484000    1.3442124   -6.1046344   -6.1046344   -4.8620518   0.26222036   -6.1046344    1.2425826   520346 
  485000     1.343891   -6.1057052   -6.1057052   -4.8634197   0.24617952   -6.1057052    1.2422855   520346 
  486000    1.3446883    -6.107715    -6.107715   -4.8646925    0.2649398    -6.107715    1.2430225   520346 
  487000    1.3430989    -6.107502    -6.107502   -4.8659486   0.22940467    -6.107502    1.2415533   520346 
  488000    1.3434446   -6.1094255   -6.1094255   -4.8675527   0.26909739   -6.1094255    1.2418728   520346 
  489000    1.3424662   -6.1103983   -6.1103983   -4.8694299   0.25197089   -6.1103983    1.2409685   520346 
  490000     1.340509   -6.1104977   -6.1104977   -4.8713385   0.24651668   -6.1104977    1.2391592   520346 
  491000    1.3377407    -6.109846    -6.109846   -4.8732458   0.25229919    -6.109846    1.2366002   520346 
  492000    1.3409547    -6.113868    -6.113868   -4.8742968   0.26563505    -6.113868    1.2395712   520346 
  493000    1.3401651   -6.1149926   -6.1149926   -4.8761513   0.26344312   -6.1149926    1.2388413   520346 
  494000    1.3391312   -6.1151123   -6.1151123   -4.8772267   0.27413254   -6.1151123    1.2378856   520346 
  495000    1.3390553   -6.1154998   -6.1154998   -4.8776844   0.23472896   -6.1154998    1.2378154   520346 
  496000    1.3377602   -6.1153863   -6.1153863   -4.8787681   0.24260294   -6.1153863    1.2366183   520346 
  497000    1.3376981   -6.1168521   -6.1168521   -4.8802914   0.25230653   -6.1168521    1.2365608   520346 
  498000    1.3352339   -6.1171388   -6.1171388   -4.8828559   0.24452348   -6.1171388    1.2342829   520346 
  499000    1.3358411   -6.1189894   -6.1189894   -4.8841451   0.24193088   -6.1189894    1.2348442   520346 
  500000    1.3367297   -6.1206903   -6.1206903   -4.8850246   0.26039557   -6.1206903    1.2356657   520346 
  501000    1.3328887   -6.1184565   -6.1184565   -4.8863415   0.26599995   -6.1184565     1.232115   520346 
  502000    1.3332414   -6.1194327   -6.1194327   -4.8869916   0.26011489   -6.1194327    1.2324411   520346 
  503000    1.3348109   -6.1221837   -6.1221837   -4.8882919   0.24549076   -6.1221837    1.2338919   520346 
  504000    1.3331911   -6.1226823   -6.1226823   -4.8902878    0.2427525   -6.1226823    1.2323945   520346 
  505000    1.3351742   -6.1265282   -6.1265282   -4.8923004   0.25316226   -6.1265282    1.2342277   520346 
  506000     1.333292    -6.126166    -6.126166   -4.8936781   0.24865521    -6.126166    1.2324878   520346 
  507000    1.3312073   -6.1260473   -6.1260473   -4.8954866   0.23918972   -6.1260473    1.2305607   520346 
  508000    1.3315062   -6.1273053   -6.1273053   -4.8964682    0.2372324   -6.1273053    1.2308371   520346 
  509000    1.3276728   -6.1256849   -6.1256849   -4.8983914   0.26794675   -6.1256849    1.2272934   520346 
  510000    1.3309985   -6.1305455   -6.1305455   -4.9001778   0.23577939   -6.1305455    1.2303677   520346 
  511000    1.3290143   -6.1305544   -6.1305544   -4.9020208   0.26549878   -6.1305544    1.2285336   520346 
  512000    1.3278425   -6.1313438   -6.1313438   -4.9038935   0.25005123   -6.1313438    1.2274503   520346 
  513000    1.3270423   -6.1326198   -6.1326198   -4.9059092   0.23757544   -6.1326198    1.2267107   520346 
  514000    1.3267286   -6.1332078   -6.1332078   -4.9067871    0.2365112   -6.1332078    1.2264207   520346 
  515000    1.3243295   -6.1319257   -6.1319257   -4.9077228   0.23349132   -6.1319257    1.2242029   520346 
  516000    1.3264697   -6.1348133   -6.1348133   -4.9086319   0.23460711   -6.1348133    1.2261814   520346 
  517000    1.3279153   -6.1371222   -6.1371222   -4.9096045   0.23626395   -6.1371222    1.2275177   520346 
  518000    1.3253044   -6.1356098   -6.1356098   -4.9105056   0.21423801   -6.1356098    1.2251042   520346 
  519000    1.3287052   -6.1392913   -6.1392913   -4.9110435   0.24140745   -6.1392913    1.2282478   520346 
  520000    1.3253014   -6.1381951   -6.1381951   -4.9130937     0.237463   -6.1381951    1.2251014   520346 
  521000     1.323441   -6.1390147   -6.1390147    -4.915633   0.24921846   -6.1390147    1.2233817   520346 
  522000    1.3251554   -6.1426248   -6.1426248   -4.9176584   0.25001723   -6.1426248    1.2249664   520346 
  523000    1.3236723   -6.1420778   -6.1420778   -4.9184824   0.23399661   -6.1420778    1.2235954   520346 
  524000    1.3214297   -6.1415083   -6.1415083   -4.9199859   0.23737309   -6.1415083    1.2215224   520346 
  525000     1.321063   -6.1436849   -6.1436849   -4.9225015   0.22519151   -6.1436849    1.2211834   520346 
  526000    1.3216802   -6.1457517   -6.1457517   -4.9239978   0.20105766   -6.1457517     1.221754   520346 
  527000    1.3209892   -6.1467978   -6.1467978   -4.9256826   0.22768266   -6.1467978    1.2211152   520346 
  528000    1.3212257   -6.1479627   -6.1479627   -4.9266288   0.23607498   -6.1479627    1.2213338   520346 
  529000    1.3191569   -6.1472538   -6.1472538   -4.9278323   0.23906572   -6.1472538    1.2194215   520346 
  530000    1.3182447   -6.1481091   -6.1481091   -4.9295308   0.24605834   -6.1481091    1.2185782   520346 
  531000     1.318297   -6.1482915   -6.1482915   -4.9296649   0.25868561   -6.1482915    1.2186266   520346 
  532000    1.3179501    -6.149817    -6.149817   -4.9315112   0.25513197    -6.149817    1.2183058   520346 
  533000    1.3181343   -6.1518595   -6.1518595   -4.9333834    0.2415095   -6.1518595    1.2184762   520346 
  534000    1.3149562   -6.1503342   -6.1503342   -4.9347958   0.22885381   -6.1503342    1.2155384   520346 
  535000     1.317787   -6.1538226   -6.1538226   -4.9356674   0.22952611   -6.1538226    1.2181551   520346 
  536000    1.3147796   -6.1536835   -6.1536835   -4.9383084   0.24480041   -6.1536835    1.2153751   520346 
  537000    1.3147309    -6.154577    -6.154577   -4.9392469   0.22997141    -6.154577      1.21533   520346 
  538000    1.3171333   -6.1579085   -6.1579085   -4.9403577   0.24694126   -6.1579085    1.2175508   520346 
  539000    1.3165692   -6.1594438   -6.1594438   -4.9424144    0.2543172   -6.1594438    1.2170294   520346 
  540000    1.3112874   -6.1554918   -6.1554918    -4.943345   0.23411935   -6.1554918    1.2121469   520346 
  541000    1.3127319   -6.1578248   -6.1578248   -4.9443426   0.25761678   -6.1578248    1.2134822   520346 
  542000    1.3156788   -6.1620801   -6.1620801   -4.9458739   0.25469432   -6.1620801    1.2162063   520346 
  543000    1.3129483   -6.1602395   -6.1602395   -4.9465573   0.25250952   -6.1602395    1.2136822   520346 
  544000    1.3102559    -6.159488    -6.159488   -4.9482947   0.22962753    -6.159488    1.2111934   520346 
  545000    1.3127343   -6.1637143   -6.1637143   -4.9502299   0.22160735   -6.1637143    1.2134845   520346 
  546000     1.311099   -6.1633437   -6.1633437    -4.951371   0.20137103   -6.1633437    1.2119728   520346 
  547000    1.3112115    -6.165952    -6.165952   -4.9538752   0.21586078    -6.165952    1.2120768   520346 
  548000    1.3085004   -6.1640629   -6.1640629   -4.9544923   0.25653436   -6.1640629    1.2095706   520346 
  549000    1.3108161   -6.1686468   -6.1686468   -4.9569356   0.23882281   -6.1686468    1.2117112   520346 
  550000    1.3082828   -6.1682542   -6.1682542   -4.9588848   0.23895542   -6.1682542    1.2093694   520346 
  551000    1.3069336   -6.1684354   -6.1684354   -4.9603131   0.25119319   -6.1684354    1.2081223   520346 
  552000     1.308257   -6.1706728   -6.1706728   -4.9613271   0.21391929   -6.1706728    1.2093457   520346 
  553000     1.305724   -6.1691464   -6.1691464   -4.9621423   0.23115445   -6.1691464    1.2070041   520346 
  554000    1.3043021   -6.1688181   -6.1688181   -4.9631284   0.20981934   -6.1688181    1.2056897   520346 
  555000    1.3059848   -6.1724208   -6.1724208   -4.9651755   0.23158036   -6.1724208    1.2072452   520346 
  556000    1.3041004   -6.1723623   -6.1723623   -4.9668591   0.25027862   -6.1723623    1.2055033   520346 
  557000    1.3021019   -6.1721245   -6.1721245   -4.9684687   0.22732555   -6.1721245    1.2036559   520346 
  558000    1.3043585    -6.175618    -6.175618   -4.9698761   0.25038323    -6.175618    1.2057419   520346 
  559000    1.3012184   -6.1736345   -6.1736345   -4.9707953   0.24564131   -6.1736345    1.2028392   520346 
  560000    1.3044037   -6.1776207   -6.1776207   -4.9718371   0.25934213   -6.1776207    1.2057836   520346 
  561000    1.3021444   -6.1772753   -6.1772753   -4.9735801   0.21175983   -6.1772753    1.2036952   520346 
  562000    1.3009145   -6.1770608   -6.1770608   -4.9745026   0.23276679   -6.1770608    1.2025582   520346 
  563000    1.2990913   -6.1766086   -6.1766086   -4.9757357   0.24247764   -6.1766086    1.2008729   520346 
  564000    1.3017225   -6.1806239   -6.1806239   -4.9773187   0.24223997   -6.1806239    1.2033052   520346 
  565000    1.3004362   -6.1810879   -6.1810879   -4.9789718   0.21821205   -6.1810879    1.2021161   520346 
  566000    1.2992492   -6.1811937   -6.1811937   -4.9801749   0.22986755   -6.1811937    1.2010188   520346 
  567000    1.3012505   -6.1840964   -6.1840964   -4.9812276   0.24545482   -6.1840964    1.2028688   520346 
  568000    1.3013105   -6.1842325   -6.1842325   -4.9813081   0.23232188   -6.1842325    1.2029244   520346 
  569000    1.2985603   -6.1832906   -6.1832906   -4.9829086   0.23903873   -6.1832906     1.200382   520346 
  570000    1.2988763   -6.1853049   -6.1853049   -4.9846307   0.25650008   -6.1853049    1.2006742   520346 
  571000    1.2991441   -6.1865731   -6.1865731   -4.9856514   0.24139431   -6.1865731    1.2009217   520346 
  572000    1.2980158   -6.1873659   -6.1873659   -4.9874872   0.20393755   -6.1873659    1.1998787   520346 
  573000    1.2982036   -6.1882823   -6.1882823   -4.9882301   0.21455636   -6.1882823    1.2000523   520346 
  574000    1.2962939   -6.1875223   -6.1875223   -4.9892353   0.22820596   -6.1875223     1.198287   520346 
  575000    1.2972835   -6.1897643   -6.1897643   -4.9905625   0.21108877   -6.1897643    1.1992018   520346 
  576000    1.2952636   -6.1893919   -6.1893919   -4.9920573    0.2158773   -6.1893919    1.1973346   520346 
  577000     1.295081    -6.190484    -6.190484   -4.9933182   0.21983447    -6.190484    1.1971658   520346 
  578000    1.2939168   -6.1908652   -6.1908652   -4.9947755   0.21721172   -6.1908652    1.1960896   520346 
  579000    1.2897653   -6.1894077   -6.1894077   -4.9971556   0.21998189   -6.1894077     1.192252   520346 
  580000    1.2959244   -6.1958338   -6.1958338   -4.9978883   0.21221707   -6.1958338    1.1979454   520346 
  581000     1.293556   -6.1940013   -6.1940013   -4.9982452   0.22498105   -6.1940013    1.1957561   520346 
  582000     1.291039   -6.1938695   -6.1938695   -5.0004401   0.22995165   -6.1938695    1.1934294   520346 
  583000    1.2920758   -6.1972279   -6.1972279   -5.0028401   0.20737777   -6.1972279    1.1943878   520346 
  584000    1.2897015   -6.1951536   -6.1951536   -5.0029606    0.2341785   -6.1951536    1.1921931   520346 
  585000    1.2918578   -6.1985767   -6.1985767   -5.0043904   0.24176962   -6.1985767    1.1941863   520346 
  586000    1.2896467   -6.1976479   -6.1976479   -5.0055055   0.22176784   -6.1976479    1.1921424   520346 
  587000    1.2894029   -6.1983841   -6.1983841   -5.0064671   0.25194981   -6.1983841     1.191917   520346 
  588000    1.2897847    -6.200758    -6.200758   -5.0084881   0.25296234    -6.200758    1.1922699   520346 
  589000    1.2861857   -6.1987263   -6.1987263   -5.0097832   0.24938467   -6.1987263     1.188943   520346 
  590000    1.2888906   -6.2028737   -6.2028737   -5.0114303   0.22477109   -6.2028737    1.1914434   520346 
  591000    1.2863099   -6.2018837   -6.2018837   -5.0128259   0.22200857   -6.2018837    1.1890578   520346 
  592000    1.2890468   -6.2059667   -6.2059667   -5.0143788   0.24508878   -6.2059667    1.1915878   520346 
  593000    1.2871459   -6.2047202   -6.2047202   -5.0148895   0.20699238   -6.2047202    1.1898307   520346 
  594000    1.2848265   -6.2036039   -6.2036039   -5.0159173   0.21326206   -6.2036039    1.1876866   520346 
  595000     1.285239   -6.2046249   -6.2046249    -5.016557   0.19756435   -6.2046249    1.1880679   520346 
  596000    1.2883046   -6.2074137   -6.2074137    -5.016512    0.2255357   -6.2074137    1.1909017   520346 
  597000    1.2831306   -6.2047576   -6.2047576   -5.0186387   0.21341369   -6.2047576    1.1861189   520346 
  598000    1.2862741   -6.2082684   -6.2082684   -5.0192436   0.19153707   -6.2082684    1.1890248   520346 
  599000    1.2852939   -6.2091028   -6.2091028   -5.0209842   0.21554167   -6.2091028    1.1881186   520346 
  600000    1.2847531   -6.2099422   -6.2099422   -5.0223235   0.22839795   -6.2099422    1.1876187   520346 
  601000    1.2843997   -6.2100817   -6.2100817   -5.0227897    0.2375189   -6.2100817     1.187292   520346 
  602000    1.2853993   -6.2125597   -6.2125597   -5.0243436   0.22129227   -6.2125597    1.1882161   520346 
  603000    1.2876541   -6.2166977   -6.2166977   -5.0263973   0.19975914   -6.2166977    1.1903004   520346 
  604000    1.2831481   -6.2127121   -6.2127121    -5.026577   0.21552891   -6.2127121    1.1861351   520346 
  605000    1.2813879   -6.2128798   -6.2128798   -5.0283718   0.23194851   -6.2128798    1.1845079   520346 
  606000    1.2826235   -6.2151298   -6.2151298   -5.0294796   0.22182665   -6.2151298    1.1856501   520346 
  607000    1.2799375   -6.2144597   -6.2144597   -5.0312925   0.25145873   -6.2144597    1.1831672   520346 
  608000    1.2792139   -6.2132763   -6.2132763    -5.030778   0.20228451   -6.2132763    1.1824984   520346 
  609000    1.2795534   -6.2143725   -6.2143725   -5.0315603   0.18572907   -6.2143725    1.1828122   520346 
  610000    1.2753331   -6.2122146   -6.2122146   -5.0333036   0.21247452   -6.2122146     1.178911   520346 
  611000    1.2765318   -6.2155487   -6.2155487   -5.0355297   0.18792768   -6.2155487     1.180019   520346 
  612000    1.2760672   -6.2158696   -6.2158696   -5.0362801   0.17613061   -6.2158696    1.1795895   520346 
  613000    1.2804984   -6.2213561   -6.2213561   -5.0376704   0.21908593   -6.2213561    1.1836857   520346 
  614000    1.2781914   -6.2180964   -6.2180964   -5.0365433   0.22392205   -6.2180964    1.1815532   520346 
  615000     1.276922   -6.2196005   -6.2196005   -5.0392208   0.20968593   -6.2196005    1.1803797   520346 
  616000     1.275163   -6.2194561   -6.2194561   -5.0407024   0.21380393   -6.2194561    1.1787537   520346 
  617000    1.2763726   -6.2210826   -6.2210826   -5.0412108   0.21301953   -6.2210826    1.1798719   520346 
  618000     1.275323   -6.2212159   -6.2212159   -5.0423143   0.20413302   -6.2212159    1.1789016   520346 
  619000    1.2759691    -6.222136    -6.222136   -5.0426371   0.22804493    -6.222136    1.1794989   520346 
  620000    1.2751682   -6.2238755   -6.2238755    -5.045117   0.20450676   -6.2238755    1.1787585   520346 
  621000    1.2751201   -6.2241896   -6.2241896   -5.0454756   0.19614297   -6.2241896     1.178714   520346 
  622000    1.2741567   -6.2248209   -6.2248209   -5.0469975   0.21761586   -6.2248209    1.1778235   520346 
  623000    1.2740624   -6.2256876   -6.2256876   -5.0479513    0.2137299   -6.2256876    1.1777363   520346 
  624000    1.2745375   -6.2269478   -6.2269478   -5.0487723    0.1875985   -6.2269478    1.1781755   520346 
  625000    1.2721741   -6.2264088   -6.2264088   -5.0504181   0.20759675   -6.2264088    1.1759908   520346 
  626000    1.2725963   -6.2286446   -6.2286446   -5.0522635   0.21608464   -6.2286446    1.1763811   520346 
  627000    1.2704539   -6.2275357   -6.2275357   -5.0531351   0.20072359   -6.2275357    1.1744007   520346 
  628000    1.2705454   -6.2284444   -6.2284444   -5.0539592   0.21066773   -6.2284444    1.1744852   520346 
  629000    1.2691459   -6.2298805   -6.2298805    -5.056689   0.18963705   -6.2298805    1.1731915   520346 
  630000    1.2716277   -6.2323691   -6.2323691   -5.0568835   0.22697732   -6.2323691    1.1754857   520346 
  631000    1.2701606   -6.2326348   -6.2326348   -5.0585053   0.21968009   -6.2326348    1.1741295   520346 
  632000    1.2689274   -6.2321339   -6.2321339   -5.0591443   0.21827123   -6.2321339    1.1729896   520346 
  633000    1.2686545    -6.233556    -6.233556   -5.0608187   0.19789992    -6.233556    1.1727373   520346 
  634000    1.2664254   -6.2328495   -6.2328495   -5.0621728   0.20497406   -6.2328495    1.1706767   520346 
  635000    1.2682062   -6.2355216   -6.2355216   -5.0631987   0.21390444   -6.2355216    1.1723229   520346 
  636000    1.2650847   -6.2332827   -6.2332827   -5.0638453   0.23074389   -6.2332827    1.1694374   520346 
  637000    1.2647349   -6.2341151   -6.2341151    -5.065001   0.22737408   -6.2341151    1.1691141   520346 
  638000     1.265171   -6.2359006   -6.2359006   -5.0663834   0.18743762   -6.2359006    1.1695172   520346 
  639000     1.264412   -6.2366594   -6.2366594   -5.0678438    0.2018875   -6.2366594    1.1688156   520346 
  640000    1.2636896   -6.2370318   -6.2370318    -5.068884   0.22023838   -6.2370318    1.1681477   520346 
  641000    1.2651044   -6.2395989   -6.2395989   -5.0701433    0.1884959   -6.2395989    1.1694556   520346 
  642000    1.2663035   -6.2405195   -6.2405195   -5.0699554   0.19197081   -6.2405195    1.1705641   520346 
  643000    1.2665252   -6.2419542   -6.2419542   -5.0711852   0.20199522   -6.2419542     1.170769   520346 
  644000    1.2639357   -6.2406969   -6.2406969   -5.0723217   0.22851673   -6.2406969    1.1683752   520346 
  645000    1.2643225   -6.2435061   -6.2435061   -5.0747733   0.20529257   -6.2435061    1.1687328   520346 
  646000    1.2633412   -6.2437099   -6.2437099   -5.0758842   0.18447408   -6.2437099    1.1678257   520346 
  647000    1.2599143   -6.2413652   -6.2413652   -5.0767072   0.20567982   -6.2413652    1.1646579   520346 
  648000    1.2607354    -6.243492    -6.243492    -5.078075   0.19833095    -6.243492    1.1654169   520346 
  649000    1.2575904   -6.2419925   -6.2419925   -5.0794828   0.21071203   -6.2419925    1.1625097   520346 
  650000     1.258527   -6.2437792   -6.2437792   -5.0804037   0.20663622   -6.2437792    1.1633755   520346 
  651000    1.2596272   -6.2463762   -6.2463762   -5.0819837   0.18478009   -6.2463762    1.1643925   520346 
  652000    1.2586623   -6.2461174   -6.2461174   -5.0826168   0.23709827   -6.2461174    1.1635006   520346 
  653000     1.256441    -6.245926    -6.245926   -5.0844788   0.23072956    -6.245926    1.1614472   520346 
  654000    1.2583294   -6.2496886   -6.2496886   -5.0864958   0.22804268   -6.2496886    1.1631928   520346 
  655000    1.2570947   -6.2499001   -6.2499001   -5.0878486   0.18352799   -6.2499001    1.1620515   520346 
  656000    1.2579223   -6.2513487   -6.2513487   -5.0885322   0.19470978   -6.2513487    1.1628165   520346 
  657000    1.2580669   -6.2533587   -6.2533587   -5.0904085   0.21223321   -6.2533587    1.1629502   520346 
  658000    1.2587686   -6.2547364   -6.2547364   -5.0911376   0.19529591   -6.2547364    1.1635988   520346 
  659000    1.2560307   -6.2534608   -6.2534608   -5.0923928   0.20423679   -6.2534608    1.1610679   520346 
  660000    1.2566578   -6.2546578   -6.2546578   -5.0930102   0.20583895   -6.2546578    1.1616476   520346 
  661000    1.2538925   -6.2540039   -6.2540039   -5.0949125    0.2177898   -6.2540039    1.1590914   520346 
  662000    1.2535918   -6.2541294   -6.2541294    -5.095316   0.20083288   -6.2541294    1.1588135   520346 
  663000    1.2558085   -6.2562874   -6.2562874   -5.0954249   0.19226946   -6.2562874    1.1608626   520346 
  664000    1.2552575   -6.2570256   -6.2570256   -5.0966723   0.17599705   -6.2570256    1.1603532   520346 
  665000     1.256253   -6.2599417   -6.2599417   -5.0986683   0.19232984   -6.2599417    1.1612734   520346 
  666000    1.2536321   -6.2589733   -6.2589733   -5.1001226   0.22759082   -6.2589733    1.1588506   520346 
  667000    1.2546105   -6.2599784   -6.2599784   -5.1002233   0.20404533   -6.2599784    1.1597551   520346 
  668000    1.2551735   -6.2611085   -6.2611085   -5.1008329   0.19181982   -6.2611085    1.1602756   520346 
  669000    1.2536201   -6.2611762   -6.2611762   -5.1023367    0.1794704   -6.2611762    1.1588396   520346 
  670000    1.2534119    -6.262611    -6.262611   -5.1039638   0.19562113    -6.262611    1.1586471   520346 
  671000    1.2532047   -6.2628327   -6.2628327   -5.1043772    0.1992415   -6.2628327    1.1584556   520346 
  672000    1.2534463   -6.2639938   -6.2639938   -5.1053149   0.18681464   -6.2639938    1.1586789   520346 
  673000    1.2517463   -6.2625756   -6.2625756   -5.1054682   0.19783828   -6.2625756    1.1571075   520346 
  674000    1.2511452   -6.2628557   -6.2628557   -5.1063039   0.20764017   -6.2628557    1.1565518   520346 
  675000    1.2500769   -6.2625944   -6.2625944   -5.1070301   0.20283994   -6.2625944    1.1555643   520346 
  676000    1.2474391   -6.2613557   -6.2613557   -5.1082298   0.22307716   -6.2613557    1.1531259   520346 
  677000    1.2504769   -6.2656671   -6.2656671   -5.1097331    0.1896033   -6.2656671     1.155934   520346 
  678000    1.2499051   -6.2663397   -6.2663397   -5.1109342   0.20522201   -6.2663397    1.1554054   520346 
  679000    1.2470206   -6.2653307   -6.2653307   -5.1125916    0.1757575   -6.2653307     1.152739   520346 
  680000    1.2490834    -6.268131    -6.268131   -5.1134851   0.21177888    -6.268131    1.1546459   520346 
  681000    1.2474411   -6.2681563   -6.2681563   -5.1150286   0.19016113   -6.2681563    1.1531277   520346 
  682000    1.2469527   -6.2681021   -6.2681021   -5.1154258   0.20382269   -6.2681021    1.1526762   520346 
  683000    1.2456138    -6.267404    -6.267404   -5.1159654    0.1970941    -6.267404    1.1514386   520346 
  684000    1.2446468   -6.2666464   -6.2666464   -5.1161016   0.18659089   -6.2666464    1.1505447   520346 
  685000    1.2491816   -6.2718549   -6.2718549   -5.1171183   0.21140423   -6.2718549    1.1547366   520346 
  686000    1.2465709   -6.2709489   -6.2709489   -5.1186255   0.17817745   -6.2709489    1.1523234   520346 
  687000    1.2447534    -6.270884    -6.270884   -5.1202408   0.17889106    -6.270884    1.1506432   520346 
  688000    1.2436839   -6.2706376   -6.2706376    -5.120983   0.18879802   -6.2706376    1.1496546   520346 
  689000    1.2431748   -6.2721284   -6.2721284   -5.1229445   0.20028331   -6.2721284    1.1491839   520346 
  690000    1.2446839   -6.2737072   -6.2737072   -5.1231283   0.20038977   -6.2737072     1.150579   520346 
  691000     1.244458   -6.2741192   -6.2741192   -5.1237491   0.16798966   -6.2741192    1.1503702   520346 
  692000    1.2434361   -6.2744223   -6.2744223   -5.1249968   0.17519109   -6.2744223    1.1494255   520346 
  693000    1.2437563   -6.2761603   -6.2761603   -5.1264388   0.17335737   -6.2761603    1.1497215   520346 
  694000    1.2447025   -6.2785157   -6.2785157   -5.1279196   0.18157013   -6.2785157    1.1505961   520346 
  695000    1.2416575    -6.277221    -6.277221   -5.1294396   0.19355642    -6.277221    1.1477814   520346 
  696000    1.2391217   -6.2754583   -6.2754583   -5.1300209   0.19146404   -6.2754583    1.1454373   520346 
  697000    1.2423564    -6.279621    -6.279621   -5.1311935   0.21056862    -6.279621    1.1484275   520346 
  698000    1.2419675   -6.2817365   -6.2817365   -5.1336686   0.20760298   -6.2817365    1.1480679   520346 
  699000    1.2431015   -6.2837801   -6.2837801   -5.1346639   0.18695667   -6.2837801    1.1491162   520346 
  700000    1.2419945   -6.2822296   -6.2822296   -5.1341366   0.18728433   -6.2822296     1.148093   520346 
  701000    1.2393036   -6.2804558   -6.2804558   -5.1348503   0.19455087   -6.2804558    1.1456055   520346 
  702000    1.2391942   -6.2813147   -6.2813147   -5.1358103   0.20372864   -6.2813147    1.1455044   520346 
  703000    1.2395449   -6.2828955   -6.2828955    -5.137067   0.19352827   -6.2828955    1.1458286   520346 
  704000    1.2410823   -6.2855634   -6.2855634   -5.1383137   0.18128561   -6.2855634    1.1472497   520346 
  705000    1.2410974   -6.2863348   -6.2863348   -5.1390711   0.22453973   -6.2863348    1.1472637   520346 
  706000    1.2368856   -6.2830597   -6.2830597   -5.1396894   0.18289835   -6.2830597    1.1433703   520346 
  707000    1.2348661   -6.2820189   -6.2820189   -5.1405154   0.19748783   -6.2820189    1.1415035   520346 
  708000     1.238176   -6.2856901   -6.2856901    -5.141127    0.1699041   -6.2856901    1.1445631   520346 
  709000    1.2376647   -6.2857786   -6.2857786   -5.1416881   0.19062523   -6.2857786    1.1440905   520346 
  710000    1.2359584   -6.2855711   -6.2855711   -5.1430579   0.20101075   -6.2855711    1.1425132   520346 
  711000    1.2341426   -6.2847222   -6.2847222   -5.1438876   0.17198939   -6.2847222    1.1408346   520346 
  712000    1.2342763    -6.286163    -6.286163   -5.1452047   0.21547503    -6.286163    1.1409583   520346 
  713000     1.235638   -6.2890504   -6.2890504   -5.1468334   0.21947715   -6.2890504     1.142217   520346 
  714000    1.2362221    -6.290574    -6.290574    -5.147817   0.20137369    -6.290574    1.1427569   520346 
  715000    1.2335386   -6.2890935   -6.2890935   -5.1488171   0.18832016   -6.2890935    1.1402764   520346 
  716000    1.2335225   -6.2903915   -6.2903915     -5.15013   0.15671719   -6.2903915    1.1402615   520346 
  717000    1.2329218    -6.290982    -6.290982   -5.1512758   0.15974908    -6.290982    1.1397062   520346 
  718000    1.2323296   -6.2906535   -6.2906535   -5.1514947   0.19527918   -6.2906535    1.1391588   520346 
  719000    1.2313058   -6.2907507   -6.2907507   -5.1525384   0.20326955   -6.2907507    1.1382123   520346 
  720000    1.2321262   -6.2928508   -6.2928508   -5.1538801   0.18633047   -6.2928508    1.1389708   520346 
  721000    1.2314614   -6.2928941   -6.2928941   -5.1545379    0.2316179   -6.2928941    1.1383562   520346 
  722000    1.2329256   -6.2958054   -6.2958054   -5.1560958    0.1755825   -6.2958054    1.1397097   520346 
  723000    1.2298203   -6.2934722   -6.2934722    -5.156633   0.19589656   -6.2934722    1.1368392   520346 
  724000    1.2310715   -6.2957266   -6.2957266   -5.1577308   0.18566074   -6.2957266    1.1379958   520346 
  725000    1.2310294   -6.2963189   -6.2963189   -5.1583621    0.1735286   -6.2963189    1.1379569   520346 
  726000    1.2281982   -6.2944743   -6.2944743   -5.1591346   0.20054375   -6.2944743    1.1353397   520346 
  727000    1.2285423   -6.2951928   -6.2951928    -5.159535   0.20518979   -6.2951928    1.1356578   520346 
  728000    1.2315007   -6.2993405   -6.2993405    -5.160948   0.17424604   -6.2993405    1.1383925   520346 
  729000    1.2293397   -6.2986303   -6.2986303   -5.1622354   0.16970603   -6.2986303    1.1363949   520346 
  730000    1.2281764   -6.2984112   -6.2984112   -5.1630917   0.15864154   -6.2984112    1.1353196   520346 
  731000    1.2267608   -6.2975813   -6.2975813   -5.1635703   0.15462957   -6.2975813     1.134011   520346 
  732000    1.2278466   -6.2999833   -6.2999833   -5.1649685   0.17775511   -6.2999833    1.1350147   520346 
  733000    1.2279288   -6.3003626   -6.3003626    -5.165272   0.16895035   -6.3003626    1.1350907   520346 
  734000    1.2275441    -6.301774    -6.301774   -5.1670389   0.19174767    -6.301774     1.134735   520346 
  735000     1.227778   -6.3038203   -6.3038203    -5.168869   0.16837553   -6.3038203    1.1349513   520346 
  736000    1.2242476   -6.3024089   -6.3024089    -5.170721   0.18961506   -6.3024089    1.1316878   520346 
  737000    1.2247797   -6.3038633   -6.3038633   -5.1716836   0.18878492   -6.3038633    1.1321797   520346 
  738000    1.2260853   -6.3049694   -6.3049694   -5.1715829   0.21153285   -6.3049694    1.1333865   520346 
  739000    1.2226918   -6.3033537   -6.3033537    -5.173104   0.19280364   -6.3033537    1.1302497   520346 
  740000    1.2219182   -6.3047697   -6.3047697   -5.1752351   0.18006333   -6.3047697    1.1295345   520346 
  741000     1.223854     -6.30681     -6.30681    -5.175486   0.18582251     -6.30681    1.1313239   520346 
  742000    1.2204588   -6.3045795   -6.3045795    -5.176394   0.18762249   -6.3045795    1.1281854   520346 
  743000     1.222178   -6.3066495   -6.3066495   -5.1768748   0.19421447   -6.3066495    1.1297747   520346 
  744000    1.2216538   -6.3071017   -6.3071017   -5.1778116   0.14419061   -6.3071017    1.1292901   520346 
  745000    1.2247121   -6.3105659   -6.3105659   -5.1784487   0.17513132   -6.3105659    1.1321172   520346 
  746000    1.2211326   -6.3081747   -6.3081747   -5.1793664   0.15785966   -6.3081747    1.1288083   520346 
  747000    1.2193759   -6.3079911   -6.3079911   -5.1808067   0.19986245   -6.3079911    1.1271844   520346 
  748000    1.2209164   -6.3097852   -6.3097852   -5.1811768   0.16990204   -6.3097852    1.1286084   520346 
  749000     1.221328   -6.3115952   -6.3115952   -5.1826062    0.1719798   -6.3115952     1.128989   520346 
  750000    1.2179953   -6.3096289   -6.3096289   -5.1837207   0.17118569   -6.3096289    1.1259082   520346 
  751000    1.2212442   -6.3140201   -6.3140201   -5.1851086   0.16200846   -6.3140201    1.1289115   520346 
  752000    1.2203205   -6.3135529   -6.3135529   -5.1854952   0.18262739   -6.3135529    1.1280576   520346 
  753000    1.2217342   -6.3151595   -6.3151595   -5.1857951   0.17034191   -6.3151595    1.1293644   520346 
  754000     1.219882   -6.3144713   -6.3144713   -5.1868191    0.1836078   -6.3144713    1.1276522   520346 
  755000     1.219207   -6.3143881   -6.3143881   -5.1873598   0.16894113   -6.3143881    1.1270283   520346 
  756000    1.2167002   -6.3129207   -6.3129207   -5.1882097   0.16673221   -6.3129207    1.1247111   520346 
  757000    1.2158694   -6.3141754   -6.3141754   -5.1902324   0.16878722   -6.3141754     1.123943   520346 
  758000    1.2143032   -6.3135501   -6.3135501   -5.1910549   0.18865788   -6.3135501    1.1224952   520346 
  759000    1.2146569   -6.3150132   -6.3150132   -5.1921911   0.17532956   -6.3150132    1.1228222   520346 
  760000    1.2180987   -6.3186441   -6.3186441   -5.1926403   0.17800291   -6.3186441    1.1260038   520346 
  761000    1.2170818   -6.3185153   -6.3185153   -5.1934515   0.18267477   -6.3185153    1.1250637   520346 
  762000    1.2191312   -6.3217617   -6.3217617   -5.1948035   0.16746389   -6.3217617    1.1269582   520346 
  763000     1.213546   -6.3180867   -6.3180867   -5.1962914   0.15344169   -6.3180867    1.1217953   520346 
  764000    1.2155525   -6.3209595   -6.3209595   -5.1973094   0.16512263   -6.3209595    1.1236501   520346 
  765000    1.2173976   -6.3222158   -6.3222158   -5.1968601    0.1728093   -6.3222158    1.1253557   520346 
  766000    1.2160143   -6.3220375   -6.3220375   -5.1979605   0.17533236   -6.3220375     1.124077   520346 
  767000    1.2162001   -6.3224468   -6.3224468   -5.1981981   0.17239184   -6.3224468    1.1242487   520346 
  768000    1.2144701   -6.3221769   -6.3221769   -5.1995274   0.17413187   -6.3221769    1.1226495   520346 
  769000    1.2144786   -6.3231822   -6.3231822   -5.2005248   0.17007307   -6.3231822    1.1226573   520346 
  770000    1.2140346    -6.322561    -6.322561    -5.200314   0.16982722    -6.322561    1.1222469   520346 
  771000    1.2141692    -6.323459    -6.323459   -5.2010877   0.13635585    -6.323459    1.1223714   520346 
  772000    1.2126394   -6.3241162   -6.3241162    -5.203159   0.18552914   -6.3241162    1.1209572   520346 
  773000    1.2130038   -6.3243705   -6.3243705   -5.2030764   0.16919863   -6.3243705    1.1212941   520346 
  774000    1.2132266   -6.3247334   -6.3247334   -5.2032334   0.13496089   -6.3247334       1.1215   520346 
  775000    1.2141813   -6.3266517   -6.3266517   -5.2042692   0.17829624   -6.3266517    1.1223826   520346 
  776000    1.2121421   -6.3261509   -6.3261509   -5.2056533   0.17165466   -6.3261509    1.1204976   520346 
  777000    1.2106382   -6.3261806   -6.3261806   -5.2070733   0.17250273   -6.3261806    1.1191073   520346 
  778000    1.2147252   -6.3297728   -6.3297728   -5.2068874   0.19024679   -6.3297728    1.1228853   520346 
  779000    1.2136978    -6.330316    -6.330316   -5.2083804   0.17517361    -6.330316    1.1219356   520346 
  780000    1.2136422   -6.3301856   -6.3301856   -5.2083014    0.1730778   -6.3301856    1.1218842   520346 
  781000    1.2130954   -6.3303135   -6.3303135   -5.2089347   0.18553346   -6.3303135    1.1213788   520346 
  782000    1.2134787   -6.3318361   -6.3318361    -5.210103   0.12763847   -6.3318361    1.1217331   520346 
  783000    1.2117386   -6.3310123   -6.3310123   -5.2108877   0.16867616   -6.3310123    1.1201246   520346 
  784000    1.2090111   -6.3293919   -6.3293919   -5.2117886   0.16677765   -6.3293919    1.1176033   520346 
  785000    1.2096681   -6.3302416   -6.3302416   -5.2120311   0.17093659   -6.3302416    1.1182105   520346 
  786000    1.2095583    -6.332222    -6.332222    -5.214113   0.15482392    -6.332222     1.118109   520346 
  787000    1.2092335   -6.3329413   -6.3329413   -5.2151325   0.20122179   -6.3329413    1.1178088   520346 
  788000    1.2094941   -6.3340382   -6.3340382   -5.2159884   0.18918197   -6.3340382    1.1180497   520346 
  789000    1.2076746   -6.3334583   -6.3334583   -5.2170905   0.18400293   -6.3334583    1.1163678   520346 
  790000    1.2078302   -6.3338871   -6.3338871   -5.2173754   0.15384475   -6.3338871    1.1165117   520346 
  791000    1.2083652   -6.3351441   -6.3351441   -5.2181379   0.15362686   -6.3351441    1.1170062   520346 
  792000     1.209739   -6.3369841   -6.3369841   -5.2187079   0.17642732   -6.3369841    1.1182761   520346 
  793000    1.2066171   -6.3346223   -6.3346223   -5.2192321   0.19440508   -6.3346223    1.1153902   520346 
  794000    1.2089021   -6.3380389   -6.3380389   -5.2205364   0.16336195   -6.3380389    1.1175025   520346 
  795000    1.2073645   -6.3372071   -6.3372071   -5.2211259   0.17467681   -6.3372071    1.1160812   520346 
  796000    1.2057275     -6.33667     -6.33667   -5.2221021   0.18192151     -6.33667    1.1145679   520346 
  797000    1.2063022   -6.3381966   -6.3381966   -5.2230974   0.17894715   -6.3381966    1.1150991   520346 
  798000    1.2052727   -6.3381916   -6.3381916    -5.224044   0.16446153   -6.3381916    1.1141475   520346 
  799000    1.2055932    -6.339678    -6.339678   -5.2252343   0.16864858    -6.339678    1.1144438   520346 
  800000    1.2052239   -6.3391668   -6.3391668   -5.2250644   0.16497021   -6.3391668    1.1141024   520346 
  801000    1.2060929   -6.3404946   -6.3404946    -5.225589   0.18729884   -6.3404946    1.1149056   520346 
  802000    1.2044634   -6.3404956   -6.3404956   -5.2270962   0.18469811   -6.3404956    1.1133994   520346 
  803000    1.2047964   -6.3431285   -6.3431285   -5.2294213   0.14886165   -6.3431285    1.1137072   520346 
  804000    1.2020765    -6.342506    -6.342506   -5.2313131   0.18157593    -6.342506    1.1111929   520346 
  805000    1.2014655     -6.34366     -6.34366   -5.2330318   0.17634795     -6.34366    1.1106282   520346 
  806000    1.2015424     -6.34415     -6.34415   -5.2334507   0.15109931     -6.34415    1.1106993   520346 
  807000    1.2018703   -6.3445583   -6.3445583   -5.2335559   0.20605621   -6.3445583    1.1110024   520346 
  808000    1.2026347   -6.3462863   -6.3462863   -5.2345774   0.16038143   -6.3462863    1.1117089   520346 
  809000    1.2004376   -6.3463824   -6.3463824   -5.2367044   0.12688031   -6.3463824     1.109678   520346 
  810000    1.2015145    -6.347532    -6.347532   -5.2368586   0.18833416    -6.347532    1.1106734   520346 
  811000    1.1990785   -6.3456217   -6.3456217   -5.2372001   0.17123434   -6.3456217    1.1084217   520346 
  812000    1.2004677   -6.3481671   -6.3481671   -5.2384612    0.1506187   -6.3481671    1.1097058   520346 
  813000    1.1996336   -6.3486755   -6.3486755   -5.2397407   0.16933596   -6.3486755    1.1089348   520346 
  814000    1.2009709   -6.3502587   -6.3502587   -5.2400878   0.18203549   -6.3502587    1.1101709   520346 
  815000    1.2012602   -6.3511516   -6.3511516   -5.2407132   0.17025532   -6.3511516    1.1104384   520346 
  816000     1.197941   -6.3481805   -6.3481805   -5.2408104   0.14553814   -6.3481805    1.1073701   520346 
  817000    1.1994556   -6.3500704   -6.3500704   -5.2413002   0.16503789   -6.3500704    1.1087702   520346 
  818000    1.2005768   -6.3520964   -6.3520964   -5.2422897   0.15782513   -6.3520964    1.1098067   520346 
  819000    1.1970981   -6.3498958   -6.3498958   -5.2433049   0.15674982   -6.3498958    1.1065909   520346 
  820000    1.1975921   -6.3517778   -6.3517778   -5.2447302   0.16541468   -6.3517778    1.1070476   520346 
  821000    1.1977239   -6.3525637   -6.3525637   -5.2453942   0.17237287   -6.3525637    1.1071694   520346 
  822000    1.1955024   -6.3514714   -6.3514714   -5.2463555   0.17822521   -6.3514714    1.1051159   520346 
  823000    1.1979178   -6.3550107   -6.3550107    -5.247662   0.16335416   -6.3550107    1.1073487   520346 
  824000    1.1958186    -6.353851    -6.353851   -5.2484428    0.1679442    -6.353851    1.1054082   520346 
  825000      1.19537   -6.3550209   -6.3550209   -5.2500274   0.17327392   -6.3550209    1.1049935   520346 
  826000    1.1954703   -6.3559079   -6.3559079   -5.2508217   0.17262892   -6.3559079    1.1050862   520346 
  827000    1.1948009   -6.3557856   -6.3557856   -5.2513182   0.15182281   -6.3557856    1.1044674   520346 
  828000    1.1965784   -6.3574877   -6.3574877   -5.2513771   0.15461499   -6.3574877    1.1061106   520346 
  829000    1.1959701   -6.3581745   -6.3581745   -5.2526263   0.17132218   -6.3581745    1.1055482   520346 
  830000    1.1936469   -6.3564413   -6.3564413   -5.2530406   0.16839934   -6.3564413    1.1034006   520346 
  831000    1.1940189    -6.357321    -6.357321   -5.2535764   0.12172517    -6.357321    1.1037445   520346 
  832000    1.1924129   -6.3574378   -6.3574378   -5.2551779    0.1840772   -6.3574378      1.10226   520346 
  833000    1.1932392   -6.3590195   -6.3590195   -5.2559956   0.13946073   -6.3590195    1.1030238   520346 
  834000    1.1955342   -6.3610523   -6.3610523    -5.255907   0.16814065   -6.3610523    1.1051452   520346 
  835000    1.1919147   -6.3598791   -6.3598791   -5.2580796    0.1846861   -6.3598791    1.1017995   520346 
  836000    1.1927445   -6.3609357   -6.3609357   -5.2583693   0.17026154   -6.3609357    1.1025665   520346 
  837000    1.1947099   -6.3638604   -6.3638604   -5.2594771   0.14299854   -6.3638604    1.1043833   520346 
  838000     1.190998   -6.3617375   -6.3617375   -5.2607854   0.15959288   -6.3617375    1.1009521   520346 
  839000    1.1925712   -6.3638884   -6.3638884   -5.2614821   0.12544353   -6.3638884    1.1024063   520346 
  840000    1.1893133   -6.3623333   -6.3623333   -5.2629385   0.16115527   -6.3623333    1.0993947   520346 
  841000     1.191747   -6.3651374   -6.3651374   -5.2634929   0.13506593   -6.3651374    1.1016445   520346 
  842000    1.1900102   -6.3641445   -6.3641445   -5.2641056   0.14996837   -6.3641445    1.1000389   520346 
  843000    1.1893913   -6.3644792   -6.3644792   -5.2650123   0.15627684   -6.3644792    1.0994668   520346 
  844000    1.1890726   -6.3657042   -6.3657042    -5.266532   0.16576087   -6.3657042    1.0991722   520346 
  845000    1.1891664    -6.365586    -6.365586   -5.2663271   0.12148564    -6.365586    1.0992589   520346 
  846000    1.1910583   -6.3674917   -6.3674917    -5.266484   0.15461533   -6.3674917    1.1010078   520346 
  847000    1.1896394   -6.3664721   -6.3664721   -5.2667759   0.15557568   -6.3664721    1.0996962   520346 
  848000    1.1907531   -6.3686034   -6.3686034   -5.2678777   0.18400031   -6.3686034    1.1007257   520346 
  849000    1.1859873   -6.3651952   -6.3651952    -5.268875   0.13083721   -6.3651952    1.0963202   520346 
  850000    1.1878044   -6.3674239   -6.3674239    -5.269424   0.15388215   -6.3674239    1.0979999   520346 
  851000    1.1858911   -6.3673781   -6.3673781   -5.2711469   0.13632831   -6.3673781    1.0962313   520346 
  852000    1.1870699   -6.3692258   -6.3692258   -5.2719049   0.18107315   -6.3692258     1.097321   520346 
  853000    1.1872036   -6.3695074   -6.3695074   -5.2720629   0.14737887   -6.3695074    1.0974445   520346 
  854000    1.1863884   -6.3699358   -6.3699358   -5.2732448   0.17057189   -6.3699358     1.096691   520346 
  855000    1.1850703   -6.3700335   -6.3700335    -5.274561   0.16426684   -6.3700335    1.0954725   520346 
  856000    1.1872555   -6.3720133   -6.3720133   -5.2745208   0.16920859   -6.3720133    1.0974925   520346 
  857000    1.1859362   -6.3712168   -6.3712168   -5.2749439   0.14619371   -6.3712168     1.096273   520346 
  858000    1.1864442   -6.3724956   -6.3724956    -5.275753   0.17122218   -6.3724956    1.0967426   520346 
  859000    1.1844914    -6.370852    -6.370852   -5.2759146   0.15303755    -6.370852    1.0949374   520346 
  860000    1.1841507   -6.3712921   -6.3712921   -5.2766697   0.16636418   -6.3712921    1.0946224   520346 
  861000    1.1863162   -6.3740119   -6.3740119   -5.2773877   0.15848182   -6.3740119    1.0966242   520346 
  862000    1.1845242   -6.3738702   -6.3738702   -5.2789025   0.16591151   -6.3738702    1.0949677   520346 
  863000    1.1868051   -6.3765046   -6.3765046   -5.2794284   0.14538013   -6.3765046    1.0970762   520346 
  864000    1.1876852   -6.3771125   -6.3771125   -5.2792227   0.14890586   -6.3771125    1.0978897   520346 
  865000    1.1850111       -6.376       -6.376   -5.2805822   0.15407952       -6.376    1.0954178   520346 
  866000    1.1828499   -6.3744586   -6.3744586   -5.2810386   0.14208726   -6.3744586      1.09342   520346 
  867000     1.183078    -6.375037    -6.375037   -5.2814061   0.14595927    -6.375037    1.0936309   520346 
  868000    1.1832481   -6.3757566   -6.3757566   -5.2819686   0.14199015   -6.3757566    1.0937881   520346 
  869000    1.1837617   -6.3778592   -6.3778592   -5.2835963   0.15067487   -6.3778592    1.0942629   520346 
  870000    1.1835986    -6.378547    -6.378547   -5.2844349   0.17865355    -6.378547    1.0941121   520346 
  871000    1.1819113   -6.3773893   -6.3773893   -5.2848369   0.14755281   -6.3773893    1.0925524   520346 
  872000    1.1828736   -6.3794333   -6.3794333   -5.2859914    0.1545328   -6.3794333    1.0934419   520346 
  873000    1.1839559    -6.381273    -6.381273   -5.2868306   0.15243233    -6.381273    1.0944423   520346 
  874000    1.1818557   -6.3804073   -6.3804073   -5.2879064   0.11221555   -6.3804073     1.092501   520346 
  875000    1.1787326    -6.378466    -6.378466    -5.288852   0.18030338    -6.378466     1.089614   520346 
  876000    1.1806528   -6.3801153   -6.3801153   -5.2887264   0.13793943   -6.3801153     1.091389   520346 
  877000    1.1809453   -6.3811686   -6.3811686   -5.2895092   0.14522138   -6.3811686    1.0916594   520346 
  878000    1.1773939   -6.3788678   -6.3788678   -5.2904914   0.14563042   -6.3788678    1.0883765   520346 
  879000    1.1783283   -6.3804442   -6.3804442    -5.291204   0.13347953   -6.3804442    1.0892402   520346 
  880000    1.1801593   -6.3822994   -6.3822994   -5.2913666   0.16997346   -6.3822994    1.0909329   520346 
  881000     1.182231     -6.38579     -6.38579   -5.2929421   0.14877192     -6.38579    1.0928479   520346 
  882000    1.1818338   -6.3852944   -6.3852944   -5.2928137   0.17598621   -6.3852944    1.0924807   520346 
  883000    1.1796097   -6.3840481   -6.3840481   -5.2936234   0.18154378   -6.3840481    1.0904247   520346 
  884000    1.1801543   -6.3853202   -6.3853202    -5.294392   0.16841524   -6.3853202    1.0909282   520346 
  885000    1.1810608   -6.3864642   -6.3864642    -5.294698   0.15136609   -6.3864642    1.0917662   520346 
  886000    1.1781879   -6.3849674   -6.3849674   -5.2958569   0.14400219   -6.3849674    1.0891105   520346 
  887000     1.177785   -6.3858908   -6.3858908   -5.2971528   0.14696869   -6.3858908     1.088738   520346 
  888000    1.1786202   -6.3877105   -6.3877105   -5.2982004   0.15493615   -6.3877105    1.0895101   520346 
  889000    1.1771834   -6.3873213   -6.3873213   -5.2991395   0.14053145   -6.3873213    1.0881819   520346 
  890000    1.1778069   -6.3869061   -6.3869061   -5.2981478   0.13406099   -6.3869061    1.0887582   520346 
  891000    1.1798458   -6.3890379   -6.3890379   -5.2983949   0.16095833   -6.3890379     1.090643   520346 
  892000    1.1784489   -6.3887399   -6.3887399   -5.2993882   0.15565676   -6.3887399    1.0893518   520346 
  893000    1.1778228   -6.3887933   -6.3887933   -5.3000203   0.15077229   -6.3887933     1.088773   520346 
  894000    1.1783812   -6.3902089   -6.3902089   -5.3009197   0.14333265   -6.3902089    1.0892892   520346 
  895000    1.1754289   -6.3882407   -6.3882407   -5.3016806   0.18006342   -6.3882407      1.08656   520346 
  896000    1.1755144   -6.3893915   -6.3893915   -5.3027523   0.17073606   -6.3893915    1.0866391   520346 
  897000     1.176402   -6.3894239   -6.3894239   -5.3019643   0.15915527   -6.3894239    1.0874596   520346 
  898000    1.1756428    -6.389657    -6.389657   -5.3028992   0.14835346    -6.389657    1.0867578   520346 
  899000    1.1764919   -6.3913925   -6.3913925   -5.3038498    0.1431106   -6.3913925    1.0875427   520346 
  900000    1.1741801   -6.3892835   -6.3892835   -5.3038778   0.14587291   -6.3892835    1.0854056   520346 
  901000     1.176409   -6.3923063   -6.3923063   -5.3048403   0.15443665   -6.3923063    1.0874661   520346 
  902000    1.1748038   -6.3918399   -6.3918399   -5.3058577    0.1661936   -6.3918399    1.0859822   520346 
  903000    1.1769354   -6.3936627   -6.3936627   -5.3057101   0.12067308   -6.3936627    1.0879526   520346 
  904000     1.174929   -6.3924042   -6.3924042   -5.3063062    0.1734471   -6.3924042     1.086098   520346 
  905000    1.1786728   -6.3973222   -6.3973222   -5.3077636   0.14167815   -6.3973222    1.0895587   520346 
  906000    1.1736364   -6.3938618   -6.3938618   -5.3089587   0.16705334   -6.3938618    1.0849031   520346 
  907000    1.1739937   -6.3949528   -6.3949528   -5.3097194   0.16013934   -6.3949528    1.0852334   520346 
  908000    1.1738193   -6.3955785   -6.3955785   -5.3105064   0.17169971   -6.3955785    1.0850721   520346 
  909000    1.1727845   -6.3955541   -6.3955541   -5.3114385   0.12762949   -6.3955541    1.0841156   520346 
  910000     1.173979    -6.397565    -6.397565   -5.3123452   0.13643004    -6.397565    1.0852197   520346 
  911000    1.1746565   -6.3982411   -6.3982411    -5.312395   0.14854165   -6.3982411     1.085846   520346 
  912000    1.1725355   -6.3967167   -6.3967167   -5.3128313   0.11893348   -6.3967167    1.0838854   520346 
  913000    1.1742894   -6.3982383   -6.3982383   -5.3127315   0.16724045   -6.3982383    1.0855067   520346 
  914000    1.1742678   -6.3996044   -6.3996044   -5.3141176   0.14048696   -6.3996044    1.0854868   520346 
  915000    1.1708705   -6.3981203   -6.3981203   -5.3157739   0.14159492   -6.3981203    1.0823463   520346 
  916000    1.1706578   -6.3979451   -6.3979451   -5.3157954   0.13530406   -6.3979451    1.0821497   520346 
  917000    1.1730895   -6.4011003   -6.4011003   -5.3167028   0.12827009   -6.4011003    1.0843975   520346 
  918000    1.1708901   -6.3988874   -6.3988874   -5.3165229   0.14914115   -6.3988874    1.0823645   520346 
  919000    1.1703523     -6.39987     -6.39987   -5.3180028   0.15228577     -6.39987    1.0818673   520346 
  920000    1.1682043   -6.3984756   -6.3984756    -5.318594   0.16436512   -6.3984756    1.0798817   520346 
  921000    1.1695212   -6.4005181   -6.4005181    -5.319419   0.16307426   -6.4005181     1.081099   520346 
  922000    1.1699029    -6.401936    -6.401936   -5.3204841   0.13981681    -6.401936    1.0814518   520346 
  923000    1.1700903   -6.4017837   -6.4017837   -5.3201586   0.15809214   -6.4017837    1.0816251   520346 
  924000    1.1682712   -6.4008461   -6.4008461   -5.3209025   0.15015234   -6.4008461    1.0799436   520346 
  925000    1.1697191   -6.4036679   -6.4036679    -5.322386   0.15344936   -6.4036679    1.0812819   520346 
  926000      1.16944   -6.4043015   -6.4043015   -5.3232775   0.13165352   -6.4043015     1.081024   520346 
  927000    1.1696291    -6.405591    -6.405591   -5.3243922    0.1514333    -6.405591    1.0811988   520346 
  928000    1.1662817   -6.4029939   -6.4029939   -5.3248894   0.14515535   -6.4029939    1.0781045   520346 
  929000    1.1700779   -6.4074175   -6.4074175   -5.3258039   0.15882294   -6.4074175    1.0816136   520346 
  930000    1.1646365   -6.4033938   -6.4033938   -5.3268102   0.17452388   -6.4033938    1.0765836   520346 
  931000    1.1662971   -6.4058807   -6.4058807    -5.327762    0.1420836   -6.4058807    1.0781187   520346 
  932000    1.1672117   -6.4065856   -6.4065856   -5.3276216   0.14232107   -6.4065856    1.0789641   520346 
  933000    1.1658278   -6.4074116   -6.4074116   -5.3297268   0.15977745   -6.4074116    1.0776848   520346 
  934000    1.1676588   -6.4095387   -6.4095387   -5.3301613   0.15209497   -6.4095387    1.0793774   520346 
  935000    1.1674283   -6.4098388   -6.4098388   -5.3306744   0.16150154   -6.4098388    1.0791643   520346 
  936000    1.1652918   -6.4093158   -6.4093158   -5.3321265   0.15872201   -6.4093158    1.0771893   520346 
  937000    1.1653059   -6.4096426   -6.4096426   -5.3324403   0.15107083   -6.4096426    1.0772024   520346 
  938000    1.1667951   -6.4118898   -6.4118898   -5.3333109   0.15159546   -6.4118898     1.078579   520346 
  939000    1.1652986   -6.4097679   -6.4097679   -5.3325723   0.14725182   -6.4097679    1.0771956   520346 
  940000    1.1649231   -6.4108582   -6.4108582   -5.3340097   0.13940876   -6.4108582    1.0768485   520346 
  941000    1.1652944   -6.4124139   -6.4124139    -5.335222   0.12600868   -6.4124139    1.0771918   520346 
  942000    1.1646016   -6.4116613   -6.4116613     -5.33511   0.13047801   -6.4116613    1.0765513   520346 
  943000    1.1659015   -6.4127195   -6.4127195   -5.3349665    0.1090904   -6.4127195     1.077753   520346 
  944000    1.1648432   -6.4119209   -6.4119209   -5.3351463   0.12905965   -6.4119209    1.0767747   520346 
  945000    1.1635074   -6.4125501   -6.4125501   -5.3370102   0.16253368   -6.4125501    1.0755399   520346 
  946000    1.1658863   -6.4152678   -6.4152678   -5.3375288   0.13634416   -6.4152678    1.0777389   520346 
  947000    1.1634913   -6.4137693   -6.4137693   -5.3382443    0.1428961   -6.4137693     1.075525   520346 
  948000    1.1618726   -6.4137342   -6.4137342   -5.3397055   0.14895516   -6.4137342    1.0740286   520346 
  949000    1.1636762   -6.4148721   -6.4148721   -5.3391762   0.15857436   -6.4148721    1.0756959   520346 
  950000    1.1653891   -6.4161924   -6.4161924   -5.3389131   0.13262556   -6.4161924    1.0772793   520346 
  951000    1.1645972    -6.416282    -6.416282   -5.3397347    0.1564471    -6.416282    1.0765473   520346 
  952000    1.1605066   -6.4140685   -6.4140685   -5.3413026   0.14902122   -6.4140685     1.072766   520346 
  953000    1.1626649   -6.4171268   -6.4171268   -5.3423657   0.13987624   -6.4171268    1.0747611   520346 
  954000    1.1615595   -6.4161687   -6.4161687   -5.3424295   0.12768185   -6.4161687    1.0737392   520346 
  955000    1.1605706   -6.4155836   -6.4155836   -5.3427585   0.12896919   -6.4155836    1.0728251   520346 
  956000    1.1624401   -6.4186439   -6.4186439   -5.3440906   0.15694192   -6.4186439    1.0745533   520346 
  957000     1.163233   -6.4200952   -6.4200952    -5.344809   0.14655604   -6.4200952    1.0752863   520346 
  958000    1.1638468   -6.4206936   -6.4206936     -5.34484    0.1512519   -6.4206936    1.0758536   520346 
  959000    1.1622078   -6.4194121   -6.4194121   -5.3450735   0.15103966   -6.4194121    1.0743386   520346 
  960000    1.1595373   -6.4180107   -6.4180107   -5.3461408   0.11990011   -6.4180107    1.0718699   520346 
  961000    1.1618381   -6.4206401   -6.4206401   -5.3466434   0.12985687   -6.4206401    1.0739968   520346 
  962000    1.1593001   -6.4185028   -6.4185028   -5.3468521   0.13710265   -6.4185028    1.0716507   520346 
  963000    1.1588841   -6.4193395   -6.4193395   -5.3480733   0.13872859   -6.4193395    1.0712662   520346 
  964000    1.1591461    -6.420074    -6.420074   -5.3485657   0.14087756    -6.420074    1.0715083   520346 
  965000    1.1603632   -6.4217267   -6.4217267   -5.3490932   0.14324905   -6.4217267    1.0726334   520346 
  966000    1.1595193   -6.4223355   -6.4223355   -5.3504822   0.13712589   -6.4223355    1.0718533   520346 
  967000    1.1591812   -6.4224362   -6.4224362   -5.3508955   0.14548963   -6.4224362    1.0715408   520346 
  968000     1.158475   -6.4242714   -6.4242714   -5.3533834     0.126577   -6.4242714     1.070888   520346 
  969000    1.1590276   -6.4268482   -6.4268482   -5.3554494   0.12072776   -6.4268482    1.0713988   520346 
  970000     1.156656   -6.4236951   -6.4236951   -5.3544886   0.15607597   -6.4236951    1.0692065   520346 
  971000    1.1547617   -6.4221225   -6.4221225    -5.354667   0.16287056   -6.4221225    1.0674554   520346 
  972000    1.1576946   -6.4249555   -6.4249555    -5.354789   0.13436487   -6.4249555    1.0701665   520346 
  973000    1.1568843   -6.4259386   -6.4259386    -5.356521   0.15275018   -6.4259386    1.0694176   520346 
  974000     1.155669   -6.4248553   -6.4248553   -5.3565612   0.13738346   -6.4248553    1.0682941   520346 
  975000    1.1575843    -6.427193    -6.427193   -5.3571283   0.14923465    -6.427193    1.0700646   520346 
  976000    1.1548918   -6.4254627   -6.4254627    -5.357887   0.13222404   -6.4254627    1.0675757   520346 
  977000    1.1585017   -6.4284887   -6.4284887   -5.3575761   0.15724452   -6.4284887    1.0709126   520346 
  978000    1.1573077   -6.4280865   -6.4280865   -5.3582776   0.15338041   -6.4280865    1.0698089   520346 
  979000    1.1558056   -6.4275385   -6.4275385   -5.3591181   0.12563067   -6.4275385    1.0684204   520346 
  980000    1.1568077   -6.4287001   -6.4287001   -5.3593534   0.14381515   -6.4287001    1.0693467   520346 
  981000    1.1582375   -6.4307698   -6.4307698   -5.3601014   0.13924278   -6.4307698    1.0706684   520346 
  982000    1.1566115   -6.4300551   -6.4300551   -5.3608897   0.13035898   -6.4300551    1.0691653   520346 
  983000     1.158035   -6.4313137   -6.4313137   -5.3608325   0.13063743   -6.4313137    1.0704812   520346 
  984000    1.1564918   -6.4305671   -6.4305671   -5.3615124   0.13760691   -6.4305671    1.0690547   520346 
  985000    1.1558868   -6.4307668   -6.4307668   -5.3622714   0.14675721   -6.4307668    1.0684954   520346 
  986000    1.1534971   -6.4299365   -6.4299365     -5.36365   0.15505649   -6.4299365    1.0662864   520346 
  987000    1.1563398   -6.4335766   -6.4335766   -5.3646624   0.13150781   -6.4335766    1.0689142   520346 
  988000    1.1548478   -6.4330412   -6.4330412   -5.3655062   0.13323197   -6.4330412     1.067535   520346 
  989000     1.154037   -6.4327863   -6.4327863   -5.3660008   0.13524141   -6.4327863    1.0667855   520346 
  990000    1.1537531    -6.432724    -6.432724   -5.3662009   0.15019435    -6.432724     1.066523   520346 
  991000    1.1536923   -6.4334811   -6.4334811   -5.3670143   0.12626075   -6.4334811    1.0664668   520346 
  992000     1.153439    -6.433409    -6.433409   -5.3671763   0.13961991    -6.433409    1.0662327   520346 
  993000    1.1542598   -6.4359188   -6.4359188   -5.3689273   0.13903531   -6.4359188    1.0669915   520346 
  994000    1.1527943   -6.4354683   -6.4354683   -5.3698316   0.15344549   -6.4354683    1.0656367   520346 
  995000    1.1521189   -6.4354066   -6.4354066   -5.3703943   0.14423743   -6.4354066    1.0650124   520346 
  996000     1.153194   -6.4375202   -6.4375202    -5.371514    0.1453267   -6.4375202    1.0660063   520346 
  997000    1.1535029   -6.4382621   -6.4382621   -5.3719703   0.13646671   -6.4382621    1.0662918   520346 
  998000    1.1532451   -6.4375295   -6.4375295    -5.371476   0.13583942   -6.4375295    1.0660535   520346 
  999000    1.1505699   -6.4360696   -6.4360696   -5.3724891    0.1453995   -6.4360696    1.0635805   520346 
 1000000    1.1484431   -6.4342657   -6.4342657   -5.3726511   0.13920016   -6.4342657    1.0616146   520346 
 1001000    1.1513313   -6.4374253   -6.4374253   -5.3731409   0.15231553   -6.4374253    1.0642844   520346 
 1002000    1.1508719   -6.4374473   -6.4374473   -5.3735876   0.14470103   -6.4374473    1.0638597   520346 
 1003000    1.1519246   -6.4395178   -6.4395178    -5.374685   0.14285883   -6.4395178    1.0648328   520346 
 1004000    1.1502852   -6.4393459   -6.4393459   -5.3760286   0.13583321   -6.4393459    1.0633174   520346 
 1005000      1.14988   -6.4392836   -6.4392836   -5.3763408    0.1090091   -6.4392836    1.0629428   520346 
 1006000    1.1489347   -6.4379129   -6.4379129   -5.3758439   0.14611949   -6.4379129     1.062069   520346 
 1007000    1.1477249   -6.4384811   -6.4384811   -5.3775304   0.14178046   -6.4384811    1.0609507   520346 
 1008000     1.149809   -6.4407586   -6.4407586   -5.3778814   0.12267427   -6.4407586    1.0628772   520346 
 1009000    1.1503697   -6.4419571   -6.4419571   -5.3785617   0.15090074   -6.4419571    1.0633954   520346 
 1010000    1.1480813   -6.4409776   -6.4409776   -5.3796975   0.12984263   -6.4409776    1.0612801   520346 
 1011000    1.1473021     -6.44069     -6.44069   -5.3801302   0.13029814     -6.44069    1.0605598   520346 
 1012000    1.1499258   -6.4433968   -6.4433968   -5.3804117   0.10957327   -6.4433968    1.0629851   520346 
 1013000    1.1496803    -6.444065    -6.444065   -5.3813068   0.14576311    -6.444065    1.0627582   520346 
 1014000     1.146898   -6.4421567   -6.4421567   -5.3819705   0.12154604   -6.4421567    1.0601862   520346 
 1015000    1.1478106   -6.4440311   -6.4440311   -5.3830012   0.12261349   -6.4440311    1.0610298   520346 
 1016000    1.1486101   -6.4461352   -6.4461352   -5.3843663   0.14391967   -6.4461352    1.0617689   520346 
 1017000    1.1474645   -6.4451888   -6.4451888   -5.3844789   0.16600356   -6.4451888    1.0607099   520346 
 1018000    1.1481158   -6.4462375   -6.4462375   -5.3849256    0.1337515   -6.4462375    1.0613119   520346 
 1019000    1.1469155   -6.4457769   -6.4457769   -5.3855744   0.14927101   -6.4457769    1.0602025   520346 
 1020000    1.1482908    -6.447602    -6.447602   -5.3861282    0.1244993    -6.447602    1.0614737   520346 
 1021000    1.1465158     -6.44614     -6.44614    -5.386307   0.13731629     -6.44614    1.0598329   520346 
 1022000    1.1450006   -6.4448763   -6.4448763    -5.386444    0.1326235   -6.4448763    1.0584323   520346 
 1023000     1.144991   -6.4456595   -6.4456595    -5.387236   0.15162391   -6.4456595    1.0584234   520346 
 1024000    1.1466166   -6.4473991   -6.4473991    -5.387473   0.13406888   -6.4473991    1.0599261   520346 
 1025000    1.1458642   -6.4466525   -6.4466525   -5.3874219   0.12848382   -6.4466525    1.0592306   520346 
 1026000    1.1478996   -6.4486784   -6.4486784   -5.3875663   0.13654363   -6.4486784    1.0611121   520346 
 1027000    1.1460201   -6.4486799   -6.4486799   -5.3893051   0.12500402   -6.4486799    1.0593747   520346 
 1028000     1.145427    -6.450374    -6.450374   -5.3915475   0.13746176    -6.450374    1.0588265   520346 
 1029000    1.1451822   -6.4503234   -6.4503234   -5.3917232   0.16787942   -6.4503234    1.0586002   520346 
 1030000    1.1452891   -6.4509641   -6.4509641   -5.3922651   0.13028594   -6.4509641     1.058699   520346 
 1031000    1.1453189   -6.4512973   -6.4512973   -5.3925708   0.12859649   -6.4512973    1.0587265   520346 
 1032000     1.146613   -6.4528658   -6.4528658    -5.392943   0.15359242   -6.4528658    1.0599228   520346 
 1033000    1.1461657   -6.4540383   -6.4540383    -5.394529   0.15170476   -6.4540383    1.0595093   520346 
 1034000    1.1433233   -6.4525005   -6.4525005   -5.3956187   0.13030024   -6.4525005    1.0568818   520346 
 1035000    1.1453596   -6.4545365   -6.4545365   -5.3957724   0.16015841   -6.4545365    1.0587641   520346 
 1036000    1.1433411   -6.4529086   -6.4529086   -5.3960103   0.13347848   -6.4529086    1.0568982   520346 
 1037000    1.1434346   -6.4527534   -6.4527534   -5.3957686   0.10023869   -6.4527534    1.0569847   520346 
 1038000    1.1429577   -6.4536224   -6.4536224   -5.3970786   0.13350489   -6.4536224    1.0565438   520346 
 1039000    1.1451458   -6.4552061   -6.4552061   -5.3966395   0.11945635   -6.4552061    1.0585665   520346 
 1040000    1.1440779   -6.4547275   -6.4547275   -5.3971481   0.13460291   -6.4547275    1.0575794   520346 
 1041000     1.143506   -6.4543373   -6.4543373   -5.3972867   0.11868504   -6.4543373    1.0570507   520346 
 1042000    1.1431632   -6.4549114   -6.4549114   -5.3981776   0.14291219   -6.4549114    1.0567338   520346 
 1043000    1.1436576   -6.4556282   -6.4556282   -5.3984374   0.13118044   -6.4556282    1.0571908   520346 
 1044000    1.1440073   -6.4568506   -6.4568506   -5.3993364   0.13491584   -6.4568506    1.0575141   520346 
 1045000    1.1427477   -6.4561494   -6.4561494   -5.3997997    0.1508533   -6.4561494    1.0563497   520346 
 1046000    1.1429664    -6.457146    -6.457146   -5.4005941   0.13232138    -6.457146    1.0565519   520346 
 1047000    1.1406136   -6.4553151   -6.4553151   -5.4009382   0.12981839   -6.4553151    1.0543769   520346 
 1048000    1.1419811   -6.4570591   -6.4570591   -5.4014179   0.13722309   -6.4570591    1.0556411   520346 
 1049000    1.1431445   -6.4584695   -6.4584695    -5.401753   0.15968476   -6.4584695    1.0567166   520346 
 1050000    1.1415755   -6.4581834   -6.4581834   -5.4029172   0.13609488   -6.4581834    1.0552662   520346 
 1051000    1.1403977   -6.4568397   -6.4568397   -5.4026623   0.13495279   -6.4568397    1.0541774   520346 
 1052000    1.1407429   -6.4571547   -6.4571547   -5.4026582   0.12603347   -6.4571547    1.0544965   520346 
 1053000    1.1410505   -6.4583186   -6.4583186   -5.4035378   0.16250071   -6.4583186    1.0547808   520346 
 1054000       1.1403   -6.4588826   -6.4588826   -5.4047955   0.11943421   -6.4588826    1.0540871   520346 
 1055000    1.1411536   -6.4604417   -6.4604417   -5.4055655   0.14253429   -6.4604417    1.0548762   520346 
 1056000    1.1413373   -6.4614897   -6.4614897   -5.4064438   0.11226056   -6.4614897     1.055046   520346 
 1057000    1.1393241    -6.460411    -6.460411   -5.4072261  0.093582134    -6.460411     1.053185   520346 
 1058000    1.1414522   -6.4630917   -6.4630917   -5.4079395   0.12487159   -6.4630917    1.0551522   520346 
 1059000    1.1405139   -6.4620225   -6.4620225   -5.4077377   0.16532241   -6.4620225    1.0542849   520346 
 1060000    1.1388634   -6.4609674   -6.4609674   -5.4082082   0.13509189   -6.4609674    1.0527591   520346 
 1061000    1.1398099   -6.4622622   -6.4622622   -5.4086282   0.14082262   -6.4622622     1.053634   520346 
 1062000    1.1399168   -6.4633838   -6.4633838    -5.409651   0.14611496   -6.4633838    1.0537329   520346 
 1063000    1.1384113   -6.4617677   -6.4617677   -5.4094265   0.16031214   -6.4617677    1.0523412   520346 
 1064000    1.1387069   -6.4626371   -6.4626371   -5.4100227    0.1072973   -6.4626371    1.0526144   520346 
 1065000    1.1395551   -6.4638939   -6.4638939   -5.4104954   0.13210157   -6.4638939    1.0533985   520346 
 1066000    1.1405708   -6.4653115   -6.4653115   -5.4109741   0.15677516   -6.4653115    1.0543374   520346 
 1067000    1.1380795   -6.4630104   -6.4630104   -5.4109759   0.12434399   -6.4630104    1.0520344   520346 
 1068000    1.1399441   -6.4644992   -6.4644992   -5.4107411   0.10382668   -6.4644992    1.0537581   520346 
 1069000    1.1391488   -6.4643314   -6.4643314   -5.4113085   0.12484489   -6.4643314    1.0530229   520346 
 1070000    1.1407537   -6.4664669   -6.4664669   -5.4119604   0.13916157   -6.4664669    1.0545064   520346 
 1071000    1.1387665   -6.4664424   -6.4664424   -5.4137729   0.14719516   -6.4664424    1.0526695   520346 
 1072000    1.1387775   -6.4660425   -6.4660425   -5.4133629   0.15131069   -6.4660425    1.0526797   520346 
 1073000     1.136829   -6.4656301   -6.4656301   -5.4147516   0.11798108   -6.4656301    1.0508786   520346 
 1074000    1.1402257   -6.4687021   -6.4687021   -5.4146837     0.138555   -6.4687021    1.0540184   520346 
 1075000    1.1401124   -6.4683996   -6.4683996    -5.414486   0.12757479   -6.4683996    1.0539136   520346 
 1076000    1.1375432   -6.4666895   -6.4666895   -5.4151508   0.12449292   -6.4666895    1.0515387   520346 
 1077000    1.1380571   -6.4681812   -6.4681812   -5.4161674   0.14330668   -6.4681812    1.0520138   520346 
 1078000     1.138436   -6.4701247   -6.4701247   -5.4177607   0.13740768   -6.4701247     1.052364   520346 
 1079000    1.1353142   -6.4686955   -6.4686955   -5.4192172  0.096552884   -6.4686955    1.0494782   520346 
 1080000    1.1372844   -6.4707717   -6.4707717   -5.4194723   0.13986882   -6.4707717    1.0512995   520346 
 1081000    1.1379772   -6.4708702   -6.4708702   -5.4189303   0.13763797   -6.4708702    1.0519399   520346 
 1082000    1.1350095   -6.4695604   -6.4695604   -5.4203638   0.13699086   -6.4695604    1.0491966   520346 
 1083000    1.1367574   -6.4719701   -6.4719701   -5.4211578   0.13206018   -6.4719701    1.0508123   520346 
 1084000    1.1334806   -6.4698931   -6.4698931   -5.4221099    0.1112764   -6.4698931    1.0477833   520346 
 1085000    1.1365731   -6.4720228   -6.4720228   -5.4213808   0.13659937   -6.4720228    1.0506419   520346 
 1086000    1.1329924   -6.4689532   -6.4689532   -5.4216212   0.12519483   -6.4689532     1.047332   520346 
 1087000    1.1340027   -6.4711852   -6.4711852   -5.4229193   0.13385849   -6.4711852    1.0482659   520346 
 1088000    1.1365048   -6.4740265   -6.4740265   -5.4234477   0.11109008   -6.4740265    1.0505788   520346 
 1089000    1.1347552   -6.4733331   -6.4733331   -5.4243716   0.11898465   -6.4733331    1.0489615   520346 
 1090000    1.1357864   -6.4743401   -6.4743401   -5.4244254   0.13868887   -6.4743401    1.0499147   520346 
 1091000     1.134707    -6.474752    -6.474752   -5.4258351   0.10791494    -6.474752    1.0489169   520346 
 1092000    1.1342992   -6.4743522   -6.4743522   -5.4258122   0.11569888   -6.4743522      1.04854   520346 
 1093000    1.1339147   -6.4749478   -6.4749478   -5.4267633   0.11546639   -6.4749478    1.0481846   520346 
 1094000    1.1333818   -6.4755031   -6.4755031   -5.4278112   0.11647677   -6.4755031    1.0476919   520346 
 1095000    1.1347739   -6.4770975   -6.4770975   -5.4281187   0.13283193   -6.4770975    1.0489788   520346 
 1096000    1.1330096   -6.4761493   -6.4761493   -5.4288014   0.11449427   -6.4761493    1.0473479   520346 
 1097000    1.1347759   -6.4783805   -6.4783805   -5.4293999   0.12835476   -6.4783805    1.0489806   520346 
 1098000     1.135649   -6.4789868   -6.4789868    -5.429199   0.12852018   -6.4789868    1.0497877   520346 
 1099000    1.1341174   -6.4786665   -6.4786665   -5.4302945   0.14473404   -6.4786665     1.048372   520346 
 1100000    1.1355423   -6.4806981   -6.4806981   -5.4310091   0.11236679   -6.4806981    1.0496891   520346 
 1101000    1.1348828   -6.4808282   -6.4808282   -5.4317488   0.14491289   -6.4808282    1.0490795   520346 
 1102000     1.132386    -6.478582    -6.478582   -5.4318106   0.10482722    -6.478582    1.0467714   520346 
 1103000    1.1309428   -6.4778846   -6.4778846   -5.4324472   0.14765888   -6.4778846    1.0454373   520346 
 1104000     1.132964   -6.4813539   -6.4813539   -5.4340481   0.13313818   -6.4813539    1.0473057   520346 
 1105000    1.1307005   -6.4795488   -6.4795488   -5.4343355   0.11765505   -6.4795488    1.0452133   520346 
 1106000    1.1300746   -6.4791408   -6.4791408    -5.434506   0.14995392   -6.4791408    1.0446348   520346 
 1107000    1.1322947   -6.4817428   -6.4817428   -5.4350558  0.093013433   -6.4817428    1.0466871   520346 
 1108000    1.1333063   -6.4835839   -6.4835839   -5.4359618   0.15209005   -6.4835839    1.0476222   520346 
 1109000     1.131963   -6.4830356   -6.4830356   -5.4366551   0.13295107   -6.4830356    1.0463804   520346 
 1110000    1.1293434    -6.481066    -6.481066   -5.4371071   0.12289738    -6.481066    1.0439589   520346 
 1111000    1.1309529    -6.482827    -6.482827   -5.4373803   0.11965096    -6.482827    1.0454466   520346 
 1112000    1.1289388   -6.4816898   -6.4816898    -5.438105   0.11334437   -6.4816898    1.0435848   520346 
 1113000     1.130866   -6.4840442   -6.4840442   -5.4386778   0.12888747   -6.4840442    1.0453664   520346 
 1114000    1.1300262   -6.4842789   -6.4842789   -5.4396889   0.11453592   -6.4842789    1.0445901   520346 
 1115000    1.1307211   -6.4847135   -6.4847135   -5.4394811   0.12413404   -6.4847135    1.0452324   520346 
 1116000    1.1295115   -6.4841867   -6.4841867   -5.4400724   0.13095578   -6.4841867    1.0441143   520346 
 1117000    1.1271323   -6.4820977   -6.4820977   -5.4401827   0.12648512   -6.4820977    1.0419149   520346 
 1118000    1.1311126   -6.4861339   -6.4861339   -5.4405396   0.12741421   -6.4861339    1.0455943   520346 
 1119000    1.1284834   -6.4832079   -6.4832079   -5.4400441    0.1234628   -6.4832079    1.0431639   520346 
 1120000    1.1282697    -6.484234    -6.484234   -5.4412676     0.133539    -6.484234    1.0429664   520346 
 1121000    1.1299487   -6.4866078   -6.4866078   -5.4420894   0.12626246   -6.4866078    1.0445184   520346 
 1122000      1.12903   -6.4860703   -6.4860703   -5.4424011   0.12124101   -6.4860703    1.0436692   520346 
 1123000    1.1306117   -6.4887007   -6.4887007   -5.4435695   0.11501333   -6.4887007    1.0451312   520346 
 1124000    1.1282581   -6.4871606   -6.4871606   -5.4442049    0.1215801   -6.4871606    1.0429556   520346 
 1125000    1.1277113   -6.4884411   -6.4884411   -5.4459909   0.10914564   -6.4884411    1.0424501   520346 
 1126000    1.1258501   -6.4862828   -6.4862828   -5.4455531   0.14111954   -6.4862828    1.0407297   520346 
 1127000    1.1265607   -6.4874823   -6.4874823   -5.4460957   0.12145837   -6.4874823    1.0413866   520346 
 1128000    1.1265305   -6.4882423   -6.4882423   -5.4468836   0.12527738   -6.4882423    1.0413587   520346 
 1129000    1.1300013   -6.4924152   -6.4924152   -5.4478482   0.13382239   -6.4924152     1.044567   520346 
 1130000    1.1249434   -6.4893306   -6.4893306   -5.4494391    0.1079461   -6.4893306    1.0398915   520346 
 1131000    1.1260347   -6.4909257   -6.4909257   -5.4500254    0.1241496   -6.4909257    1.0409003   520346 
 1132000    1.1258904   -6.4903418   -6.4903418   -5.4495748   0.12766593   -6.4903418    1.0407669   520346 
 1133000     1.126204   -6.4915039   -6.4915039   -5.4504471   0.13833311   -6.4915039    1.0410568   520346 
 1134000    1.1250123   -6.4909709   -6.4909709   -5.4510157   0.10800669   -6.4909709    1.0399552   520346 
 1135000    1.1273316   -6.4929301   -6.4929301   -5.4508309   0.10910758   -6.4929301    1.0420992   520346 
 1136000      1.12493    -6.492126    -6.492126   -5.4522469   0.10865127    -6.492126    1.0398791   520346 
 1137000    1.1237993   -6.4913767   -6.4913767   -5.4525428   0.12860815   -6.4913767    1.0388339   520346 
 1138000    1.1262531   -6.4947188   -6.4947188   -5.4536166   0.12758219   -6.4947188    1.0411022   520346 
 1139000    1.1253544   -6.4937911   -6.4937911   -5.4535196   0.13993307   -6.4937911    1.0402715   520346 
 1140000     1.125031    -6.493743    -6.493743   -5.4537704   0.11139203    -6.493743    1.0399726   520346 
 1141000    1.1246935   -6.4934739   -6.4934739   -5.4538133   0.12899446   -6.4934739    1.0396606   520346 
 1142000    1.1265765   -6.4962762   -6.4962762   -5.4548751   0.11946562   -6.4962762    1.0414012   520346 
 1143000    1.1249157   -6.4955421   -6.4955421   -5.4556762   0.11753143   -6.4955421    1.0398659   520346 
 1144000    1.1253216   -6.4961396   -6.4961396   -5.4558985   0.12281774   -6.4961396    1.0402411   520346 
 1145000    1.1242417   -6.4952927   -6.4952927   -5.4560498   0.12977669   -6.4952927    1.0392429   520346 
 1146000    1.1273188   -6.4992976   -6.4992976   -5.4572102   0.12151036   -6.4992976    1.0420874   520346 
 1147000    1.1251259   -6.4966678   -6.4966678   -5.4566075   0.15462486   -6.4966678    1.0400602   520346 
 1148000    1.1257614   -6.4974519   -6.4974519   -5.4568042    0.1190388   -6.4974519    1.0406477   520346 
 1149000    1.1234145   -6.4961738   -6.4961738   -5.4576956   0.11896973   -6.4961738    1.0384783   520346 
 1150000    1.1220977   -6.4958345   -6.4958345   -5.4585735    0.1184764   -6.4958345     1.037261   520346 
 1151000    1.1229069    -6.497511    -6.497511    -5.459502   0.12203551    -6.497511     1.038009   520346 
 1152000    1.1237467   -6.4980167   -6.4980167   -5.4592315   0.15778457   -6.4980167    1.0387853   520346 
 1153000    1.1240221   -6.4985583   -6.4985583   -5.4595184   0.11914482   -6.4985583    1.0390399   520346 
 1154000    1.1210033    -6.496655    -6.496655   -5.4604057   0.13890709    -6.496655    1.0362493   520346 
 1155000    1.1240945   -6.5014852   -6.5014852   -5.4623784  0.097432263   -6.5014852    1.0391068   520346 
 1156000    1.1225977    -6.500673    -6.500673   -5.4629499   0.15113492    -6.500673    1.0377232   520346 
 1157000    1.1235305   -6.5027742   -6.5027742   -5.4641887   0.12292046   -6.5027742    1.0385855   520346 
 1158000     1.123315   -6.5027383   -6.5027383   -5.4643521   0.13313221   -6.5027383    1.0383862   520346 
 1159000    1.1217954    -6.501877    -6.501877   -5.4648955   0.11875016    -6.501877    1.0369815   520346 
 1160000    1.1208483   -6.5012034   -6.5012034   -5.4650973   0.14188592   -6.5012034    1.0361061   520346 
 1161000    1.1217304   -6.5021653   -6.5021653   -5.4652439   0.11345863   -6.5021653    1.0369214   520346 
 1162000    1.1210099   -6.5015912   -6.5015912   -5.4653357   0.11779989   -6.5015912    1.0362555   520346 
 1163000    1.1222873    -6.502811    -6.502811   -5.4653747   0.13059548    -6.502811    1.0374363   520346 
 1164000    1.1221335   -6.5039334   -6.5039334   -5.4666393   0.16510137   -6.5039334     1.037294   520346 
 1165000    1.1203554   -6.5021642   -6.5021642   -5.4665138   0.12543715   -6.5021642    1.0356504   520346 
 1166000    1.1234787   -6.5057315   -6.5057315   -5.4671939   0.13090171   -6.5057315    1.0385376   520346 
 1167000    1.1203745   -6.5030232   -6.5030232   -5.4673551   0.13119413   -6.5030232    1.0356681   520346 
 1168000    1.1222289   -6.5063234   -6.5063234   -5.4689412   0.10874027   -6.5063234    1.0373822   520346 
 1169000    1.1202421   -6.5042109   -6.5042109   -5.4686652   0.13437061   -6.5042109    1.0355457   520346 
 1170000    1.1211991   -6.5057578   -6.5057578   -5.4693274   0.13890635   -6.5057578    1.0364303   520346 
 1171000    1.1217415   -6.5067159   -6.5067159   -5.4697842   0.11247364   -6.5067159    1.0369318   520346 
 1172000    1.1208292   -6.5061115   -6.5061115    -5.470023   0.11236611   -6.5061115    1.0360884   520346 
 1173000    1.1204299   -6.5052195   -6.5052195   -5.4695002   0.11043981   -6.5052195    1.0357193   520346 
 1174000    1.1208744   -6.5071648   -6.5071648   -5.4710347   0.11651599   -6.5071648    1.0361302   520346 
 1175000     1.121032   -6.5073609   -6.5073609   -5.4710851   0.13435335   -6.5073609    1.0362758   520346 
 1176000    1.1219069    -6.508335    -6.508335   -5.4712503  0.092333212    -6.508335    1.0370846   520346 
 1177000    1.1186815   -6.5062201   -6.5062201    -5.472117   0.11972094   -6.5062201    1.0341031   520346 
 1178000    1.1195902   -6.5082123   -6.5082123   -5.4732692   0.14343073   -6.5082123    1.0349431   520346 
 1179000    1.1195098   -6.5084457   -6.5084457    -5.473577    0.1249292   -6.5084457    1.0348687   520346 
 1180000     1.118921   -6.5085637   -6.5085637   -5.4742393    0.1290165   -6.5085637    1.0343244   520346 
 1181000    1.1201933   -6.5108897   -6.5108897   -5.4753891   0.12822661   -6.5108897    1.0355006   520346 
 1182000    1.1190746    -6.510217    -6.510217   -5.4757505   0.12638516    -6.510217    1.0344664   520346 
 1183000    1.1189367   -6.5104748   -6.5104748   -5.4761358   0.11584308   -6.5104748     1.034339   520346 
 1184000    1.1163509   -6.5085448   -6.5085448   -5.4765961   0.13173456   -6.5085448    1.0319487   520346 
 1185000    1.1185411   -6.5108298   -6.5108298   -5.4768565   0.10507546   -6.5108298    1.0339733   520346 
 1186000    1.1193453   -6.5120879   -6.5120879   -5.4773712   0.13039766   -6.5120879    1.0347167   520346 
 1187000    1.1176248   -6.5108873   -6.5108873    -5.477761   0.11404599   -6.5108873    1.0331263   520346 
 1188000    1.1188658   -6.5124669   -6.5124669   -5.4781935   0.13109953   -6.5124669    1.0342734   520346 
 1189000     1.117908   -6.5111942   -6.5111942   -5.4778061   0.11251921   -6.5111942    1.0333881   520346 
 1190000    1.1193036   -6.5131137   -6.5131137   -5.4784356   0.15875796   -6.5131137    1.0346781   520346 
 1191000      1.11752    -6.512217    -6.512217   -5.4791876   0.10773052    -6.512217    1.0330294   520346 
 1192000    1.1193026   -6.5141357   -6.5141357   -5.4794585   0.13079453   -6.5141357    1.0346772   520346 
 1193000    1.1173533   -6.5125478   -6.5125478   -5.4796725   0.12021401   -6.5125478    1.0328753   520346 
 1194000    1.1188349   -6.5144686   -6.5144686   -5.4802238   0.11352668   -6.5144686    1.0342449   520346 
 1195000     1.117793   -6.5145929   -6.5145929   -5.4813112   0.10738463   -6.5145929    1.0332818   520346 
 1196000    1.1154506   -6.5127414   -6.5127414    -5.481625   0.13933451   -6.5127414    1.0311164   520346 
 1197000    1.1181155   -6.5151499   -6.5151499   -5.4815701   0.11918242   -6.5151499    1.0335798   520346 
 1198000     1.118932   -6.5165343   -6.5165343   -5.4821997   0.12909223   -6.5165343    1.0343347   520346 
 1199000    1.1204651   -6.5189796   -6.5189796   -5.4832278   0.11838195   -6.5189796    1.0357519   520346 
 1200000    1.1180804   -6.5173476   -6.5173476   -5.4838002   0.11185444   -6.5173476    1.0335474   520346 
 1201000    1.1200738   -6.5186304   -6.5186304   -5.4832403   0.12721239   -6.5186304    1.0353901   520346 
 1202000    1.1170104   -6.5162099   -6.5162099   -5.4836516  0.089197109   -6.5162099    1.0325583   520346 
 1203000    1.1161867   -6.5157809   -6.5157809   -5.4839841   0.14754513   -6.5157809    1.0317969   520346 
 1204000    1.1151044    -6.515388    -6.515388   -5.4845916   0.12057117    -6.515388    1.0307964   520346 
 1205000    1.1175802   -6.5185793   -6.5185793   -5.4854942  0.091288059   -6.5185793    1.0330851   520346 
 1206000    1.1167226   -6.5183896   -6.5183896   -5.4860973   0.10278557   -6.5183896    1.0322923   520346 
 1207000    1.1173146   -6.5189909   -6.5189909   -5.4861515   0.11474206   -6.5189909    1.0328395   520346 
 1208000    1.1137443   -6.5163662   -6.5163662    -5.486827   0.11228965   -6.5163662    1.0295392   520346 
 1209000    1.1127328   -6.5160938   -6.5160938   -5.4874897   0.12602472   -6.5160938    1.0286041   520346 
 1210000    1.1155089   -6.5196046   -6.5196046   -5.4884342   0.11952352   -6.5196046    1.0311703   520346 
 1211000    1.1149333   -6.5206698   -6.5206698   -5.4900315   0.12358837   -6.5206698    1.0306383   520346 
 1212000    1.1145533   -6.5207466   -6.5207466   -5.4904595   0.13487944   -6.5207466     1.030287   520346 
 1213000     1.112088    -6.519254    -6.519254    -5.491246   0.13418593    -6.519254     1.028008   520346 
 1214000     1.115376   -6.5220771   -6.5220771   -5.4910297   0.12468074   -6.5220771    1.0310475   520346 
 1215000    1.1141878   -6.5214589   -6.5214589   -5.4915098  0.095305579   -6.5214589    1.0299491   520346 
 1216000    1.1143649    -6.521904    -6.521904   -5.4917912   0.14057061    -6.521904    1.0301129   520346 
 1217000    1.1139356    -6.521044    -6.521044    -5.491328   0.14576033    -6.521044     1.029716   520346 
 1218000    1.1126075   -6.5204083   -6.5204083     -5.49192    0.1027491   -6.5204083    1.0284883   520346 
 1219000    1.1125624   -6.5213017   -6.5213017   -5.4928551   0.12062273   -6.5213017    1.0284466   520346 
 1220000    1.1127581   -6.5227436   -6.5227436   -5.4941161  0.094231374   -6.5227436    1.0286275   520346 
 1221000    1.1111283   -6.5225856   -6.5225856   -5.4954646   0.12093648   -6.5225856     1.027121   520346 
 1222000    1.1119986   -6.5237911   -6.5237911   -5.4958657   0.12410776   -6.5237911    1.0279254   520346 
 1223000    1.1122708   -6.5243975   -6.5243975   -5.4962204   0.13504637   -6.5243975    1.0281771   520346 
 1224000    1.1116117   -6.5245176   -6.5245176   -5.4969497  0.095871162   -6.5245176    1.0275678   520346 
 1225000    1.1115806   -6.5251468   -6.5251468   -5.4976078   0.11754072   -6.5251468    1.0275391   520346 
 1226000    1.1099072   -6.5242564   -6.5242564   -5.4982643   0.12005938   -6.5242564    1.0259921   520346 
 1227000     1.109983   -6.5251658   -6.5251658   -5.4991035   0.12344639   -6.5251658    1.0260622   520346 
 1228000    1.1113331   -6.5263357   -6.5263357   -5.4990254  0.099116745   -6.5263357    1.0273102   520346 
 1229000    1.1098775   -6.5251442   -6.5251442   -5.4991795   0.13107181   -6.5251442    1.0259647   520346 
 1230000    1.1068562   -6.5237683   -6.5237683   -5.5005964   0.10640974   -6.5237683    1.0231718   520346 
 1231000     1.112766   -6.5290991   -6.5290991   -5.5004643   0.10790281   -6.5290991    1.0286348   520346 
 1232000    1.1105869    -6.528365    -6.528365   -5.5017446  0.097794625    -6.528365    1.0266204   520346 
 1233000    1.1075353   -6.5259144   -6.5259144   -5.5021148   0.12601353   -6.5259144    1.0237996   520346 
 1234000    1.1079182    -6.526957    -6.526957   -5.5028035   0.14198477    -6.526957    1.0241535   520346 
 1235000    1.1111714   -6.5301663   -6.5301663   -5.5030055   0.10958451   -6.5301663    1.0271608   520346 
 1236000    1.1087771   -6.5279358   -6.5279358   -5.5029883   0.11625341   -6.5279358    1.0249475   520346 
 1237000    1.1098016   -6.5293746   -6.5293746     -5.50348  0.091628676   -6.5293746    1.0258946   520346 
 1238000    1.1104356   -6.5294708   -6.5294708   -5.5029902  0.093439411   -6.5294708    1.0264806   520346 
 1239000    1.1112847   -6.5308093   -6.5308093   -5.5035438   0.12544895   -6.5308093    1.0272655   520346 
 1240000    1.1096537    -6.530097    -6.530097   -5.5043392   0.13193638    -6.530097    1.0257578   520346 
 1241000    1.1086549   -6.5298329   -6.5298329   -5.5049984   0.12813984   -6.5298329    1.0248345   520346 
 1242000    1.1106103    -6.533026    -6.533026   -5.5063839  0.088587356    -6.533026    1.0266421   520346 
 1243000    1.1093328   -6.5317286   -6.5317286   -5.5062674   0.11320428   -6.5317286    1.0254612   520346 
 1244000    1.1084366   -6.5313669   -6.5313669   -5.5067342   0.12352014   -6.5313669    1.0246328   520346 
 1245000    1.1083895   -6.5321216   -6.5321216   -5.5075325   0.13801414   -6.5321216    1.0245892   520346 
 1246000     1.109235   -6.5325735   -6.5325735   -5.5072027   0.13843893   -6.5325735    1.0253708   520346 
 1247000    1.1088839   -6.5336895   -6.5336895   -5.5086432   0.11218992   -6.5336895    1.0250462   520346 
 1248000    1.1081289   -6.5339648   -6.5339648   -5.5096165   0.12090637   -6.5339648    1.0243483   520346 
 1249000     1.110121   -6.5359677   -6.5359677   -5.5097778   0.10979028   -6.5359677    1.0261898   520346 
 1250000    1.1097718   -6.5362845   -6.5362845   -5.5104175  0.099122822   -6.5362845     1.025867   520346 
 1251000    1.1080607   -6.5357432   -6.5357432   -5.5114579    0.1269203   -6.5357432    1.0242852   520346 
 1252000    1.1077951   -6.5361507   -6.5361507    -5.512111   0.10073264   -6.5361507    1.0240397   520346 
 1253000    1.1060354   -6.5343932   -6.5343932   -5.5119802   0.10227056   -6.5343932    1.0224131   520346 
 1254000    1.1079847   -6.5366136   -6.5366136   -5.5123986   0.12470226   -6.5366136     1.024215   520346 
 1255000    1.1091582   -6.5377027   -6.5377027    -5.512403  0.097248772   -6.5377027    1.0252998   520346 
 1256000    1.1060817   -6.5360658   -6.5360658   -5.5136099   0.13844959   -6.5360658    1.0224558   520346 
 1257000    1.1058987    -6.536884    -6.536884   -5.5145973   0.12200447    -6.536884    1.0222868   520346 
 1258000    1.1071308   -6.5373075   -6.5373075   -5.5138818   0.10444753   -6.5373075    1.0234257   520346 
 1259000     1.106724   -6.5369861   -6.5369861   -5.5139365   0.11544707   -6.5369861    1.0230497   520346 
 1260000    1.1062677   -6.5371088   -6.5371088    -5.514481   0.11475087   -6.5371088    1.0226278   520346 
 1261000    1.1052642   -6.5377437   -6.5377437   -5.5160435   0.11884206   -6.5377437    1.0217002   520346 
 1262000    1.1062573   -6.5386336   -6.5386336   -5.5160154   0.12556858   -6.5386336    1.0226182   520346 
 1263000      1.10645   -6.5390483   -6.5390483   -5.5162519  0.070499245   -6.5390483    1.0227963   520346 
 1264000     1.107565    -6.539648    -6.539648   -5.5158209  0.091324933    -6.539648    1.0238271   520346 
 1265000    1.1064039   -6.5388276   -6.5388276   -5.5160739   0.12147053   -6.5388276    1.0227537   520346 
 1266000    1.1066871   -6.5390103   -6.5390103   -5.5159948   0.11947563   -6.5390103    1.0230155   520346 
 1267000    1.1084355   -6.5406358   -6.5406358   -5.5160041   0.11294194   -6.5406358    1.0246317   520346 
 1268000    1.1052945   -6.5389455   -6.5389455   -5.5172173   0.11215697   -6.5389455    1.0217282   520346 
 1269000    1.1049429   -6.5387853   -6.5387853   -5.5173821   0.13420195   -6.5387853    1.0214032   520346 
 1270000    1.1063685   -6.5405911   -6.5405911   -5.5178701  0.092457161   -6.5405911     1.022721   520346 
 1271000    1.1046831   -6.5394474   -6.5394474   -5.5182844     0.113043   -6.5394474     1.021163   520346 
 1272000    1.1032554   -6.5395782   -6.5395782   -5.5197349  0.093726849   -6.5395782    1.0198432   520346 
 1273000    1.1045248   -6.5411084   -6.5411084   -5.5200917   0.13133054   -6.5411084    1.0210167   520346 
 1274000    1.1058727   -6.5430887   -6.5430887    -5.520826   0.10381826   -6.5430887    1.0222627   520346 
 1275000    1.1045485   -6.5423042   -6.5423042   -5.5212655    0.1329832   -6.5423042    1.0210386   520346 
 1276000    1.1059148   -6.5437786   -6.5437786    -5.521477   0.12276412   -6.5437786    1.0223016   520346 
 1277000    1.1033532   -6.5422591   -6.5422591   -5.5223254   0.10693392   -6.5422591    1.0199337   520346 
 1278000    1.1020805   -6.5406504   -6.5406504   -5.5218932   0.12102966   -6.5406504    1.0187572   520346 
 1279000    1.1048191   -6.5434414   -6.5434414   -5.5221526   0.10519465   -6.5434414    1.0212888   520346 
 1280000    1.1059486   -6.5453256   -6.5453256   -5.5229927   0.11252038   -6.5453256    1.0223329   520346 
 1281000    1.1037625   -6.5441573   -6.5441573   -5.5238453   0.12268714   -6.5441573     1.020312   520346 
 1282000    1.1035129   -6.5444589   -6.5444589   -5.5243777   0.12685784   -6.5444589    1.0200813   520346 
 1283000    1.1031169   -6.5451554   -6.5451554   -5.5254402   0.08593814   -6.5451554    1.0197152   520346 
 1284000    1.1041608   -6.5457883   -6.5457883   -5.5251082    0.1231069   -6.5457883    1.0206802   520346 
 1285000    1.1044344   -6.5464574   -6.5464574   -5.5255242   0.11059625   -6.5464574    1.0209332   520346 
 1286000    1.1060943   -6.5485084   -6.5485084   -5.5260408   0.11038565   -6.5485084    1.0224676   520346 
 1287000    1.1047618   -6.5470414   -6.5470414   -5.5258057   0.11416711   -6.5470414    1.0212358   520346 
 1288000    1.1026964   -6.5455252   -6.5455252   -5.5261986  0.095813074   -6.5455252    1.0193265   520346 
 1289000    1.1044968   -6.5472713   -6.5472713   -5.5262805   0.13330986   -6.5472713    1.0209908   520346 
 1290000    1.1048496   -6.5470427   -6.5470427   -5.5257257   0.13428703   -6.5470427    1.0213169   520346 
 1291000    1.1025941   -6.5456389   -6.5456389   -5.5264069   0.10182015   -6.5456389     1.019232   520346 
 1292000    1.1033797   -6.5473966   -6.5473966   -5.5274384   0.12892863   -6.5473966    1.0199582   520346 
 1293000    1.1030085   -6.5480509   -6.5480509   -5.5284359   0.14236191   -6.5480509     1.019615   520346 
 1294000    1.0999671   -6.5460024   -6.5460024   -5.5291988   0.11853739   -6.5460024    1.0168036   520346 
 1295000    1.1012813   -6.5478795   -6.5478795   -5.5298611   0.12321453   -6.5478795    1.0180184   520346 
 1296000    1.1010544   -6.5476278   -6.5476278   -5.5298191   0.12489173   -6.5476278    1.0178086   520346 
 1297000    1.1030636   -6.5488871   -6.5488871   -5.5292211   0.12265641   -6.5488871     1.019666   520346 
 1298000    1.1028263    -6.549239    -6.549239   -5.5297924  0.095830254    -6.549239    1.0194466   520346 
 1299000    1.1015436    -6.548518    -6.548518   -5.5302571   0.12464779    -6.548518    1.0182609   520346 
 1300000    1.1009438   -6.5485813   -6.5485813   -5.5308749   0.10392569   -6.5485813    1.0177064   520346 
 1301000    1.1010835   -6.5499995   -6.5499995   -5.5321639   0.11374869   -6.5499995    1.0178356   520346 
 1302000    1.1019443   -6.5516694   -6.5516694   -5.5330381   0.11408076   -6.5516694    1.0186313   520346 
 1303000    1.1006247   -6.5512248   -6.5512248   -5.5338133   0.10623596   -6.5512248    1.0174115   520346 
 1304000    1.0987952   -6.5505036   -6.5505036   -5.5347832   0.12301259   -6.5505036    1.0157203   520346 
 1305000    1.0986269   -6.5502148   -6.5502148   -5.5346501   0.11234277   -6.5502148    1.0155647   520346 
 1306000    1.1020396   -6.5534968   -6.5534968   -5.5347774   0.11085509   -6.5534968    1.0187194   520346 
 1307000    1.1008725   -6.5522421   -6.5522421   -5.5346015  0.095982984   -6.5522421    1.0176406   520346 
 1308000    1.1016623   -6.5539118   -6.5539118   -5.5355412   0.13227886   -6.5539118    1.0183706   520346 
 1309000    1.1016902   -6.5545167   -6.5545167   -5.5361202   0.10903738   -6.5545167    1.0183964   520346 
 1310000    1.1009291   -6.5540555   -6.5540555   -5.5363627  0.097960155   -6.5540555    1.0176928   520346 
 1311000    1.1033927   -6.5567912   -6.5567912   -5.5368211   0.10530698   -6.5567912    1.0199701   520346 
 1312000    1.1029343     -6.55638     -6.55638   -5.5368336   0.11974077     -6.55638    1.0195464   520346 
 1313000    1.1014092   -6.5561679   -6.5561679   -5.5380312   0.13310637   -6.5561679    1.0181367   520346 
 1314000    1.0998178   -6.5551146   -6.5551146    -5.538449  0.097789864   -6.5551146    1.0166656   520346 
 1315000     1.101194   -6.5569199   -6.5569199   -5.5389822   0.11472863   -6.5569199    1.0179377   520346 
 1316000    1.1000037   -6.5564802   -6.5564802   -5.5396428   0.11056885   -6.5564802    1.0168374   520346 
 1317000    1.0997214   -6.5556834   -6.5556834    -5.539107  0.081891156   -6.5556834    1.0165764   520346 
 1318000    1.0988034   -6.5552305   -6.5552305   -5.5395027  0.082450645   -6.5552305    1.0157279   520346 
 1319000    1.1009183   -6.5577045   -6.5577045   -5.5400216   0.11452576   -6.5577045    1.0176829   520346 
 1320000    1.1018244   -6.5594589   -6.5594589   -5.5409384   0.10586836   -6.5594589    1.0185205   520346 
 1321000    1.0993832   -6.5583138   -6.5583138   -5.5420499  0.094081983   -6.5583138    1.0162638   520346 
 1322000    1.0976093    -6.555739    -6.555739   -5.5411149   0.11820595    -6.555739    1.0146241   520346 
 1323000    1.1002557   -6.5578991   -6.5578991   -5.5408287   0.11685316   -6.5578991    1.0170704   520346 
 1324000    1.0986512   -6.5573439   -6.5573439   -5.5417567    0.1093529   -6.5573439    1.0155872   520346 
 1325000    1.0976507    -6.557934    -6.557934   -5.5432717   0.13532208    -6.557934    1.0146623   520346 
 1326000    1.1001132   -6.5604508   -6.5604508   -5.5435121  0.088910605   -6.5604508    1.0169387   520346 
 1327000    1.0987311   -6.5598271   -6.5598271    -5.544166  0.074512209   -6.5598271     1.015661   520346 
 1328000    1.0971565   -6.5576511   -6.5576511   -5.5434456  0.083966304   -6.5576511    1.0142055   520346 
 1329000    1.0990821   -6.5604698   -6.5604698   -5.5444842  0.090355585   -6.5604698    1.0159855   520346 
 1330000    1.0961712   -6.5573532   -6.5573532   -5.5440585   0.11923868   -6.5573532    1.0132947   520346 
 1331000    1.0976326   -6.5597746   -6.5597746    -5.545129   0.10664932   -6.5597746    1.0146456   520346 
 1332000    1.0992242   -6.5613778   -6.5613778    -5.545261   0.08610095   -6.5613778    1.0161169   520346 
 1333000    1.0974184   -6.5594658   -6.5594658   -5.5450182   0.11101967   -6.5594658    1.0144476   520346 
 1334000    1.0963229   -6.5591665   -6.5591665   -5.5457316  0.095646479   -6.5591665    1.0134349   520346 
 1335000    1.0950936   -6.5577572   -6.5577572   -5.5454587   0.11413029   -6.5577572    1.0122985   520346 
 1336000    1.0954092   -6.5584352   -6.5584352   -5.5458449  0.082079945   -6.5584352    1.0125903   520346 
 1337000    1.0972558   -6.5611051   -6.5611051   -5.5468078   0.12304539   -6.5611051    1.0142973   520346 
 1338000    1.0980588   -6.5624891   -6.5624891   -5.5474495   0.10397863   -6.5624891    1.0150395   520346 
 1339000    1.0992562   -6.5641074   -6.5641074    -5.547961   0.10775808   -6.5641074    1.0161464   520346 
 1340000    1.0966246   -6.5628401   -6.5628401   -5.5491263   0.11203311   -6.5628401    1.0137138   520346 
 1341000    1.0976314   -6.5636908   -6.5636908   -5.5490463    0.1157242   -6.5636908    1.0146445   520346 
 1342000     1.097744   -6.5650223   -6.5650223   -5.5502737   0.10257072   -6.5650223    1.0147486   520346 
 1343000    1.0958062   -6.5636784   -6.5636784   -5.5507211   0.11358016   -6.5636784    1.0129573   520346 
 1344000    1.0970956   -6.5658774   -6.5658774   -5.5517282  0.084200818   -6.5658774    1.0141492   520346 
 1345000    1.0951583   -6.5640278   -6.5640278   -5.5516695  0.090402051   -6.5640278    1.0123583   520346 
 1346000    1.0945144   -6.5639872   -6.5639872   -5.5522241  0.089510145   -6.5639872    1.0117632   520346 
 1347000    1.0960189   -6.5659673   -6.5659673   -5.5528135  0.098664835   -6.5659673    1.0131539   520346 
 1348000    1.0974237    -6.566867    -6.566867   -5.5524145   0.10617829    -6.566867    1.0144525   520346 
 1349000    1.0955009   -6.5661806   -6.5661806   -5.5535055  0.099594942   -6.5661806    1.0126751   520346 
 1350000    1.0963178   -6.5670403   -6.5670403   -5.5536101   0.10045078   -6.5670403    1.0134302   520346 
 1351000    1.0950769   -6.5662344   -6.5662344   -5.5539513  0.096839421   -6.5662344    1.0122831   520346 
 1352000    1.0936388   -6.5651277   -6.5651277    -5.554174   0.11243231   -6.5651277    1.0109537   520346 
 1353000    1.0952973   -6.5668558   -6.5668558   -5.5543689    0.1007711   -6.5668558    1.0124869   520346 
 1354000    1.0954913   -6.5671118   -6.5671118   -5.5544456   0.10440775   -6.5671118    1.0126662   520346 
 1355000    1.0935326   -6.5655272   -6.5655272   -5.5546717   0.12261457   -6.5655272    1.0108555   520346 
 1356000    1.0942661   -6.5681014   -6.5681014   -5.5565679   0.10903646   -6.5681014    1.0115336   520346 
 1357000     1.093434   -6.5679709   -6.5679709   -5.5572065   0.10327209   -6.5679709    1.0107644   520346 
 1358000    1.0948174   -6.5685324   -6.5685324   -5.5564892   0.11415612   -6.5685324    1.0120432   520346 
 1359000    1.0939482   -6.5682872   -6.5682872   -5.5570474   0.10968421   -6.5682872    1.0112397   520346 
 1360000    1.0898061   -6.5648453   -6.5648453   -5.5574345  0.085419374   -6.5648453    1.0074108   520346 
 1361000    1.0928846   -6.5682949   -6.5682949   -5.5580383    0.1078401   -6.5682949    1.0102566   520346 
 1362000    1.0924992   -6.5689883   -6.5689883    -5.559088  0.051879005   -6.5689883    1.0099003   520346 
 1363000    1.0934988   -6.5702258   -6.5702258   -5.5594015   0.10686395   -6.5702258    1.0108244   520346 
 1364000    1.0939111   -6.5710505   -6.5710505   -5.5598451   0.12245726   -6.5710505    1.0112054   520346 
 1365000    1.0943176   -6.5707367   -6.5707367   -5.5591556   0.10284671   -6.5707367    1.0115812   520346 
 1366000    1.0946812    -6.571018    -6.571018   -5.5591007   0.10612627    -6.571018    1.0119173   520346 
 1367000    1.0940127   -6.5716851   -6.5716851   -5.5603858   0.10571599   -6.5716851    1.0112993   520346 
 1368000    1.0937546   -6.5720894   -6.5720894   -5.5610286   0.11859601   -6.5720894    1.0110608   520346 
 1369000    1.0922083   -6.5712495   -6.5712495   -5.5616181  0.086542147   -6.5712495    1.0096314   520346 
 1370000    1.0938936   -6.5731578   -6.5731578   -5.5619686   0.09289675   -6.5731578    1.0111892   520346 
 1371000    1.0941258   -6.5733471   -6.5733471   -5.5619432   0.10807035   -6.5733471    1.0114039   520346 
 1372000    1.0939136   -6.5738146   -6.5738146   -5.5626068    0.1205555   -6.5738146    1.0112078   520346 
 1373000    1.0946311   -6.5740416   -6.5740416   -5.5621706   0.10647034   -6.5740416     1.011871   520346 
 1374000    1.0936808   -6.5735179   -6.5735179   -5.5625253   0.10503216   -6.5735179    1.0109926   520346 
 1375000    1.0948136   -6.5745957   -6.5745957   -5.5625561   0.10717295   -6.5745957    1.0120397   520346 
 1376000    1.0926433   -6.5738114   -6.5738114   -5.5637779  0.085066853   -6.5738114    1.0100335   520346 
 1377000    1.0930865   -6.5751567   -6.5751567   -5.5647135  0.069459739   -6.5751567    1.0104432   520346 
 1378000    1.0926366   -6.5750471   -6.5750471   -5.5650199  0.097114983   -6.5750471    1.0100273   520346 
 1379000    1.0932053   -6.5762988   -6.5762988   -5.5657459  0.074189562   -6.5762988     1.010553   520346 
 1380000     1.090316   -6.5735846   -6.5735846   -5.5657025  0.090009339   -6.5735846    1.0078822   520346 
 1381000    1.0920691   -6.5745985   -6.5745985   -5.5650958   0.10164476   -6.5745985    1.0095027   520346 
 1382000    1.0930415    -6.577798    -6.577798   -5.5673964  0.097756877    -6.577798    1.0104016   520346 
 1383000       1.0914   -6.5768024   -6.5768024   -5.5679182  0.093458183   -6.5768024    1.0088842   520346 
 1384000      1.09305   -6.5782049   -6.5782049   -5.5677955   0.11358245   -6.5782049    1.0104095   520346 
 1385000    1.0947195   -6.5797678   -6.5797678   -5.5678151  0.099562324   -6.5797678    1.0119527   520346 
 1386000    1.0924422    -6.577667    -6.577667   -5.5678193  0.096674654    -6.577667    1.0098476   520346 
 1387000    1.0937081   -6.5782712   -6.5782712   -5.5672534  0.096503708   -6.5782712    1.0110178   520346 
 1388000    1.0931398   -6.5777434   -6.5777434    -5.567251   0.11021663   -6.5777434    1.0104924   520346 
 1389000    1.0909676   -6.5767806   -6.5767806   -5.5682961  0.095815575   -6.5767806    1.0084845   520346 
 1390000    1.0931889   -6.5794713   -6.5794713   -5.5689334  0.096403363   -6.5794713    1.0105378   520346 
 1391000    1.0921367   -6.5787607   -6.5787607   -5.5691955   0.11856484   -6.5787607    1.0095652   520346 
 1392000    1.0918395   -6.5791248   -6.5791248   -5.5698343   0.12671981   -6.5791248    1.0092905   520346 
 1393000     1.092703   -6.5801985   -6.5801985   -5.5701098   0.11461952   -6.5801985    1.0100886   520346 
 1394000    1.0920424   -6.5802812   -6.5802812   -5.5708032   0.11383389   -6.5802812     1.009478   520346 
 1395000     1.091956   -6.5798341   -6.5798341   -5.5704359  0.088330993   -6.5798341    1.0093982   520346 
 1396000    1.0899786   -6.5787528   -6.5787528   -5.5711825   0.10205985   -6.5787528    1.0075703   520346 
 1397000     1.091361   -6.5809764   -6.5809764   -5.5721282   0.12683335   -6.5809764    1.0088482   520346 
 1398000    1.0908776   -6.5803708   -6.5803708   -5.5719695   0.11050576   -6.5803708    1.0084013   520346 
 1399000    1.0905899   -6.5810179   -6.5810179   -5.5728826   0.10771276   -6.5810179    1.0081353   520346 
 1400000    1.0885011   -6.5805885   -6.5805885    -5.574384    0.1102759   -6.5805885    1.0062045   520346 
 1401000    1.0898756   -6.5818498   -6.5818498   -5.5743747  0.078513973   -6.5818498     1.007475   520346 
 1402000    1.0900522   -6.5819752   -6.5819752   -5.5743369   0.11320411   -6.5819752    1.0076383   520346 
 1403000    1.0894788   -6.5818035   -6.5818035   -5.5746953   0.11774772   -6.5818035    1.0071082   520346 
 1404000    1.0895263   -6.5815127   -6.5815127   -5.5743606   0.12120977   -6.5815127    1.0071521   520346 
 1405000    1.0907042   -6.5833537   -6.5833537   -5.5751127   0.12118409   -6.5833537     1.008241   520346 
 1406000    1.0903117   -6.5843022   -6.5843022    -5.576424  0.094577787   -6.5843022    1.0078781   520346 
 1407000    1.0887138   -6.5824818   -6.5824818   -5.5760807  0.098894272   -6.5824818    1.0064011   520346 
 1408000    1.0880315   -6.5829609   -6.5829609   -5.5771906   0.12205181   -6.5829609    1.0057704   520346 
 1409000    1.0891542   -6.5834254   -6.5834254   -5.5766172    0.1078738   -6.5834254    1.0068082   520346 
 1410000    1.0900976   -6.5855041   -6.5855041   -5.5778238  0.083055554   -6.5855041    1.0076803   520346 
 1411000    1.0873074    -6.583867    -6.583867   -5.5787659  0.098692175    -6.583867    1.0051011   520346 
 1412000    1.0892682   -6.5866592   -6.5866592   -5.5797457  0.092623768   -6.5866592    1.0069136   520346 
 1413000    1.0878139   -6.5861724   -6.5861724   -5.5806032  0.085068001   -6.5861724    1.0055692   520346 
 1414000    1.0892975   -6.5878592   -6.5878592   -5.5809185  0.081418119   -6.5878592    1.0069406   520346 
 1415000       1.0867   -6.5848164   -6.5848164   -5.5802769   0.09351394   -6.5848164    1.0045395   520346 
 1416000    1.0901304   -6.5887148   -6.5887148   -5.5810042  0.067214493   -6.5887148    1.0077106   520346 
 1417000     1.089631   -6.5882291   -6.5882291   -5.5809801  0.098849038   -6.5882291     1.007249   520346 
 1418000    1.0890329   -6.5872246   -6.5872246   -5.5805285   0.11660002   -6.5872246    1.0066961   520346 
 1419000    1.0901288   -6.5884858   -6.5884858   -5.5807767  0.071398478   -6.5884858    1.0077092   520346 
 1420000    1.0897339   -6.5887516   -6.5887516   -5.5814076   0.11795863   -6.5887516     1.007344   520346 
 1421000    1.0927071   -6.5912699   -6.5912699   -5.5811774   0.11604806   -6.5912699    1.0100925   520346 
 1422000    1.0913938   -6.5906035   -6.5906035    -5.581725    0.1017265   -6.5906035    1.0088785   520346 
 1423000    1.0873432   -6.5863078   -6.5863078   -5.5811737  0.087311784   -6.5863078    1.0051341   520346 
 1424000    1.0896596   -6.5888008   -6.5888008   -5.5815254  0.099361197   -6.5888008    1.0072754   520346 
 1425000    1.0883612   -6.5878687   -6.5878687   -5.5817935   0.11739874   -6.5878687    1.0060751   520346 
 1426000     1.088248    -6.587759    -6.587759   -5.5817884   0.10759883    -6.587759    1.0059705   520346 
 1427000    1.0894357   -6.5891955   -6.5891955   -5.5821271   0.10135635   -6.5891955    1.0070684   520346 
 1428000    1.0894404   -6.5896284   -6.5896284   -5.5825556   0.10107449   -6.5896284    1.0070727   520346 
 1429000    1.0876935    -6.589079    -6.589079   -5.5836211   0.11373578    -6.589079    1.0054579   520346 
 1430000    1.0885645   -6.5901564   -6.5901564   -5.5838934    0.1171925   -6.5901564    1.0062631   520346 
 1431000    1.0887363   -6.5905676   -6.5905676   -5.5841458  0.067292729   -6.5905676    1.0064219   520346 
 1432000    1.0889285   -6.5915714   -6.5915714   -5.5849718  0.095436128   -6.5915714    1.0065996   520346 
 1433000    1.0878713   -6.5911984   -6.5911984    -5.585576  0.094959815   -6.5911984    1.0056223   520346 
 1434000    1.0885055   -6.5917759   -6.5917759   -5.5855674  0.095824254   -6.5917759    1.0062085   520346 
 1435000    1.0885679   -6.5922069   -6.5922069   -5.5859407  0.086558663   -6.5922069    1.0062662   520346 
 1436000    1.0888143   -6.5920219   -6.5920219   -5.5855279  0.084843147   -6.5920219     1.006494   520346 
 1437000    1.0881162   -6.5916525   -6.5916525   -5.5858038  0.095926588   -6.5916525    1.0058486   520346 
 1438000    1.0894852   -6.5929809   -6.5929809   -5.5858667  0.091790218   -6.5929809    1.0071142   520346 
 1439000    1.0885853   -6.5924355   -6.5924355   -5.5861532  0.094754718   -6.5924355    1.0062823   520346 
 1440000    1.0851371   -6.5899008   -6.5899008    -5.586806   0.10289864   -6.5899008    1.0030948   520346 
 1441000    1.0889919   -6.5944748   -6.5944748   -5.5878166   0.10044159   -6.5944748    1.0066582   520346 
 1442000    1.0881482   -6.5938849   -6.5938849   -5.5880067   0.11709715   -6.5938849    1.0058783   520346 
 1443000    1.0871582   -6.5931137   -6.5931137   -5.5881506  0.099463406   -6.5931137    1.0049631   520346 
 1444000     1.087583   -6.5942811   -6.5942811   -5.5889253  0.085204028   -6.5942811    1.0053558   520346 
 1445000    1.0864152   -6.5948319   -6.5948319   -5.5905557  0.085201852   -6.5948319    1.0042762   520346 
 1446000    1.0867717   -6.5949148   -6.5949148    -5.590309   0.10396614   -6.5949148    1.0046058   520346 
 1447000    1.0864512   -6.5950226   -6.5950226   -5.5907131   0.10084132   -6.5950226    1.0043096   520346 
 1448000    1.0862669   -6.5951685   -6.5951685   -5.5910293   0.09850261   -6.5951685    1.0041392   520346 
 1449000    1.0837749   -6.5928395   -6.5928395   -5.5910039   0.11657056   -6.5928395    1.0018356   520346 
 1450000    1.0865863   -6.5953999   -6.5953999   -5.5909655  0.094461039   -6.5953999    1.0044344   520346 
 1451000     1.085252    -6.594921    -6.594921     -5.59172   0.11032485    -6.594921     1.003201   520346 
 1452000    1.0858799   -6.5954885   -6.5954885    -5.591707   0.11708432   -6.5954885    1.0037815   520346 
 1453000    1.0850033   -6.5950808   -6.5950808   -5.5921097   0.10745122   -6.5950808    1.0029711   520346 
 1454000    1.0871067   -6.5977644   -6.5977644   -5.5928489   0.10591894   -6.5977644    1.0049155   520346 
 1455000    1.0870308   -6.5980037   -6.5980037   -5.5931583  0.084740107   -6.5980037    1.0048454   520346 
 1456000    1.0850606   -6.5961541   -6.5961541     -5.59313  0.099584174   -6.5961541    1.0030241   520346 
 1457000    1.0844433   -6.5966501   -6.5966501   -5.5941966   0.11542896   -6.5966501    1.0024535   520346 
 1458000     1.087465   -6.5995894   -6.5995894   -5.5943427   0.10707347   -6.5995894    1.0052467   520346 
 1459000    1.0864218   -6.5991566   -6.5991566   -5.5948742  0.099647441   -6.5991566    1.0042824   520346 
 1460000    1.0858831   -6.5987238   -6.5987238   -5.5949394     0.123512   -6.5987238    1.0037844   520346 
 1461000    1.0847897   -6.5989861   -6.5989861   -5.5962124  0.099773324   -6.5989861    1.0027737   520346 
 1462000     1.087165   -6.6007611   -6.6007611   -5.5957917   0.10967447   -6.6007611    1.0049694   520346 
 1463000    1.0860873   -6.6002326   -6.6002326   -5.5962594   0.11321696   -6.6002326    1.0039731   520346 
 1464000    1.0866728    -6.600611    -6.600611   -5.5960966   0.12467726    -6.600611    1.0045144   520346 
 1465000    1.0851384   -6.6001426   -6.6001426   -5.5970465    0.1102184   -6.6001426     1.003096   520346 
 1466000    1.0839231   -6.5989706   -6.5989706    -5.596998   0.12259245   -6.5989706    1.0019726   520346 
 1467000    1.0848104   -6.6009375   -6.6009375   -5.5981446  0.095361843   -6.6009375    1.0027928   520346 
 1468000    1.0845194   -6.6008008   -6.6008008    -5.598277    0.1075854   -6.6008008    1.0025238   520346 
 1469000    1.0839844   -6.6000137   -6.6000137   -5.5979844  0.093547334   -6.6000137    1.0020293   520346 
 1470000     1.084393   -6.6012045   -6.6012045   -5.5987975  0.091148594   -6.6012045    1.0024069   520346 
 1471000    1.0874984   -6.6042764   -6.6042764   -5.5989988  0.098226098   -6.6042764    1.0052776   520346 
 1472000    1.0853158   -6.6032625   -6.6032625   -5.6000025  0.095908487   -6.6032625      1.00326   520346 
 1473000    1.0838484   -6.6023173   -6.6023173   -5.6004138  0.082850423   -6.6023173    1.0019036   520346 
 1474000     1.084909    -6.603046    -6.603046   -5.6001621    0.1088406    -6.603046    1.0028839   520346 
 1475000    1.0829915    -6.601659    -6.601659   -5.6005475   0.10453444    -6.601659    1.0011114   520346 
 1476000    1.0847076     -6.60297     -6.60297   -5.6002722  0.089618346     -6.60297    1.0026978   520346 
 1477000    1.0857166    -6.604417    -6.604417   -5.6007864   0.10331367    -6.604417    1.0036305   520346 
 1478000    1.0841556   -6.6027666   -6.6027666    -5.600579   0.10880176   -6.6027666    1.0021875   520346 
 1479000    1.0825546   -6.6025813   -6.6025813   -5.6018738  0.096423892   -6.6025813    1.0007075   520346 
 1480000    1.0827973   -6.6025904   -6.6025904   -5.6016585   0.10135319   -6.6025904    1.0009319   520346 
 1481000    1.0824837   -6.6029762   -6.6029762   -5.6023341   0.10436818   -6.6029762    1.0006421   520346 
 1482000    1.0836178   -6.6046413   -6.6046413   -5.6029509  0.099327667   -6.6046413    1.0016903   520346 
 1483000    1.0826157   -6.6039499   -6.6039499   -5.6031858  0.091643518   -6.6039499    1.0007641   520346 
 1484000     1.082734   -6.6041244   -6.6041244    -5.603251  0.087438793   -6.6041244    1.0008734   520346 
 1485000    1.0852097   -6.6077008   -6.6077008   -5.6045389   0.10991198   -6.6077008     1.003162   520346 
 1486000    1.0835467   -6.6064338   -6.6064338   -5.6048091  0.085053844   -6.6064338    1.0016247   520346 
 1487000    1.0826799   -6.6053416   -6.6053416   -5.6045183  0.070826715   -6.6053416    1.0008233   520346 
 1488000    1.0821103   -6.6052361   -6.6052361   -5.6049393  0.082390645   -6.6052361    1.0002968   520346 
 1489000    1.0809155   -6.6037964   -6.6037964    -5.604604   0.12851464   -6.6037964   0.99919236   520346 
 1490000    1.0819644   -6.6059029   -6.6059029    -5.605741  0.080306327   -6.6059029     1.000162   520346 
 1491000    1.0814972   -6.6063646   -6.6063646   -5.6066345  0.084824487   -6.6063646   0.99973012   520346 
 1492000    1.0797227   -6.6047193   -6.6047193   -5.6066295  0.092777515   -6.6047193   0.99808978   520346 
 1493000    1.0774687   -6.6031705   -6.6031705   -5.6071643  0.096869114   -6.6031705   0.99600614   520346 
 1494000    1.0806149   -6.6064764   -6.6064764   -5.6075619   0.11126175   -6.6064764   0.99891452   520346 
 1495000    1.0819375   -6.6084833   -6.6084833   -5.6083462   0.11666145   -6.6084833    1.0001371   520346 
 1496000    1.0807328   -6.6073762   -6.6073762   -5.6083526   0.10703141   -6.6073762   0.99902353   520346 
 1497000    1.0808185   -6.6070414   -6.6070414   -5.6079387   0.10177086   -6.6070414   0.99910271   520346 
 1498000    1.0806012   -6.6069499   -6.6069499   -5.6080481  0.074536265   -6.6069499   0.99890186   520346 
 1499000    1.0838572   -6.6105642   -6.6105642   -5.6086525  0.073464424   -6.6105642    1.0019117   520346 
 1500000    1.0819076   -6.6090338   -6.6090338   -5.6089243  0.085542968   -6.6090338    1.0001094   520346 
 1501000    1.0804817   -6.6085404   -6.6085404   -5.6097491   0.11563574   -6.6085404   0.99879134   520346 
 1502000    1.0832689     -6.61104     -6.61104   -5.6096722   0.10941565     -6.61104    1.0013679   520346 
 1503000    1.0812538   -6.6099419   -6.6099419   -5.6104368   0.10316739   -6.6099419   0.99950507   520346 
 1504000     1.080694   -6.6102911   -6.6102911   -5.6113034  0.062885132   -6.6102911   0.99898767   520346 
 1505000    1.0783503   -6.6074825   -6.6074825   -5.6106614  0.092228641   -6.6074825   0.99682112   520346 
 1506000    1.0804665    -6.609622    -6.609622   -5.6108447  0.098711014    -6.609622    0.9987773   520346 
 1507000    1.0811481   -6.6113524   -6.6113524   -5.6119449  0.091783183   -6.6113524   0.99940741   520346 
 1508000    1.0810492   -6.6125912   -6.6125912   -5.6132753  0.091363256   -6.6125912   0.99931599   520346 
 1509000    1.0793428   -6.6117669   -6.6117669   -5.6140283   0.11658657   -6.6117669   0.99773861   520346 
 1510000     1.079563   -6.6124039   -6.6124039   -5.6144617  0.096205305   -6.6124039   0.99794214   520346 
 1511000    1.0811085    -6.613509    -6.613509   -5.6141382  0.068941469    -6.613509   0.99937075   520346 
 1512000    1.0803738   -6.6135498   -6.6135498   -5.6148581   0.11545779   -6.6135498   0.99869165   520346 
 1513000    1.0801617    -6.613776    -6.613776   -5.6152804  0.062372684    -6.613776   0.99849561   520346 
 1514000    1.0797666   -6.6133151   -6.6133151   -5.6151848   0.10649928   -6.6133151   0.99813035   520346 
 1515000    1.0779384   -6.6118537   -6.6118537   -5.6154133  0.089400145   -6.6118537   0.99644038   520346 
 1516000    1.0782811   -6.6127013   -6.6127013   -5.6159441  0.079481392   -6.6127013   0.99675716   520346 
 1517000    1.0798844   -6.6143984   -6.6143984   -5.6161591  0.064601966   -6.6143984   0.99823925   520346 
 1518000    1.0810825   -6.6165085   -6.6165085   -5.6171618  0.069066361   -6.6165085   0.99934673   520346 
 1519000    1.0784575   -6.6141429   -6.6141429   -5.6172226  0.088819477   -6.6141429   0.99692025   520346 
 1520000    1.0788639   -6.6156017   -6.6156017   -5.6183058  0.077287561   -6.6156017   0.99729591   520346 
 1521000    1.0791266   -6.6156728   -6.6156728   -5.6181341   0.11327236   -6.6156728   0.99753874   520346 
 1522000    1.0799668   -6.6161115   -6.6161115   -5.6177961  0.066329236   -6.6161115   0.99831541   520346 
 1523000    1.0804489    -6.615752    -6.615752    -5.616991  0.084786381    -6.615752   0.99876107   520346 
 1524000    1.0776113   -6.6144389   -6.6144389   -5.6183009   0.10583754   -6.6144389   0.99613798   520346 
 1525000    1.0811725   -6.6183318   -6.6183318   -5.6189018   0.12213556   -6.6183318   0.99942999   520346 
 1526000    1.0798733     -6.61801     -6.61801    -5.619781  0.097517286     -6.61801   0.99822899   520346 
 1527000    1.0792093   -6.6175119   -6.6175119   -5.6198967  0.076271029   -6.6175119   0.99761514   520346 
 1528000     1.079977   -6.6182526   -6.6182526   -5.6199278  0.082186837   -6.6182526   0.99832485   520346 
 1529000    1.0769598     -6.61628     -6.61628   -5.6207442   0.10555223     -6.61628   0.99553578   520346 
 1530000    1.0769819   -6.6160986   -6.6160986   -5.6205424  0.074888724   -6.6160986   0.99555616   520346 
 1531000    1.0776467   -6.6161601   -6.6161601   -5.6199894  0.082216277   -6.6161601   0.99617071   520346 
 1532000    1.0773743   -6.6168531   -6.6168531   -5.6209342   0.07779298   -6.6168531   0.99591891   520346 
 1533000    1.0790195    -6.619046    -6.619046   -5.6216062  0.058024635    -6.619046   0.99743977   520346 
 1534000    1.0759059   -6.6167438   -6.6167438   -5.6221822  0.083240527   -6.6167438   0.99456157   520346 
 1535000    1.0790284   -6.6207144   -6.6207144   -5.6232664  0.092140903   -6.6207144   0.99744797   520346 
 1536000    1.0799013   -6.6219012   -6.6219012   -5.6236463   0.11570829   -6.6219012   0.99825485   520346 
 1537000    1.0775635   -6.6192939   -6.6192939   -5.6232001  0.091338094   -6.6192939    0.9960938   520346 
 1538000     1.078995   -6.6211721   -6.6211721    -5.623755  0.075541419   -6.6211721   0.99741712   520346 
 1539000    1.0782088   -6.6212384   -6.6212384   -5.6245481  0.082615005   -6.6212384   0.99669032   520346 
 1540000    1.0776621   -6.6212288   -6.6212288   -5.6250438  0.096553501   -6.6212288   0.99618499   520346 
 1541000    1.0785625   -6.6229845   -6.6229845   -5.6259673   0.10724933   -6.6229845   0.99701725   520346 
 1542000    1.0767404   -6.6205813   -6.6205813   -5.6252483  0.093334695   -6.6205813   0.99533299   520346 
 1543000    1.0750823   -6.6203619   -6.6203619   -5.6265617  0.067276676   -6.6203619   0.99380021   520346 
 1544000    1.0764861   -6.6223973   -6.6223973   -5.6272994  0.087647639   -6.6223973   0.99509791   520346 
 1545000    1.0758812   -6.6218439   -6.6218439   -5.6273052  0.091555167   -6.6218439   0.99453871   520346 
 1546000    1.0772718   -6.6226962   -6.6226962    -5.626872  0.095650149   -6.6226962    0.9958242   520346 
 1547000    1.0739173   -6.6198682   -6.6198682   -5.6271449   0.11192663   -6.6198682   0.99272327   520346 
 1548000    1.0753288   -6.6213908   -6.6213908   -5.6273628  0.091475312   -6.6213908   0.99402807   520346 
 1549000    1.0766277   -6.6229097   -6.6229097   -5.6276809  0.077340658   -6.6229097   0.99522877   520346 
 1550000    1.0770359   -6.6232889   -6.6232889   -5.6276828  0.085466473   -6.6232889   0.99560611   520346 
 1551000     1.076827   -6.6235612   -6.6235612   -5.6281482  0.088676923   -6.6235612   0.99541298   520346 
 1552000     1.076018   -6.6224404   -6.6224404   -5.6277752  0.072000755   -6.6224404   0.99466517   520346 
 1553000     1.076004   -6.6230708   -6.6230708   -5.6284186  0.072359042   -6.6230708   0.99465219   520346 
 1554000    1.0753059   -6.6223965   -6.6223965   -5.6283896   0.10428699   -6.6223965   0.99400691   520346 
 1555000    1.0766965   -6.6237812   -6.6237812   -5.6284888  0.086249891   -6.6237812   0.99529238   520346 
 1556000    1.0762761   -6.6235282   -6.6235282   -5.6286245  0.086816289   -6.6235282   0.99490371   520346 
 1557000    1.0769122   -6.6240234   -6.6240234   -5.6285317   0.11012167   -6.6240234   0.99549175   520346 
 1558000    1.0775213   -6.6256401   -6.6256401   -5.6295853  0.094137371   -6.6256401   0.99605478   520346 
 1559000    1.0764103   -6.6250517   -6.6250517   -5.6300239   0.09583334   -6.6250517   0.99502779   520346 
 1560000    1.0766532   -6.6262512   -6.6262512   -5.6309989  0.061451813   -6.6262512   0.99525235   520346 
 1561000    1.0752891   -6.6256951   -6.6256951   -5.6317037  0.083130191   -6.6256951    0.9939914   520346 
 1562000    1.0724611   -6.6223345   -6.6223345   -5.6309573  0.085350027   -6.6223345   0.99137722   520346 
 1563000    1.0738278   -6.6234135   -6.6234135    -5.630773  0.078954949   -6.6234135   0.99264052   520346 
 1564000    1.0747612   -6.6248317   -6.6248317   -5.6313283  0.083493021   -6.6248317   0.99350338   520346 
 1565000    1.0755185   -6.6254637   -6.6254637   -5.6312603    0.1162414   -6.6254637   0.99420338   520346 
 1566000    1.0764209   -6.6279848   -6.6279848   -5.6329472  0.085528932   -6.6279848   0.99503756   520346 
 1567000    1.0749649   -6.6266492   -6.6266492   -5.6329575  0.077923671   -6.6266492   0.99369172   520346 
 1568000    1.0758853   -6.6281973   -6.6281973   -5.6336548   0.10666436   -6.6281973   0.99454246   520346 
 1569000    1.0740217   -6.6271325   -6.6271325   -5.6343128  0.080953776   -6.6271325   0.99281976   520346 
 1570000    1.0741929   -6.6274574   -6.6274574   -5.6344794  0.086348687   -6.6274574   0.99297801   520346 
 1571000     1.073308   -6.6276349   -6.6276349   -5.6354749  0.082039649   -6.6276349   0.99216001   520346 
 1572000    1.0735869   -6.6279115   -6.6279115   -5.6354936  0.084791604   -6.6279115    0.9924179   520346 
 1573000    1.0750982   -6.6291719   -6.6291719    -5.635357   0.08153952   -6.6291719   0.99381494   520346 
 1574000    1.0758628   -6.6296603   -6.6296603   -5.6351386  0.091111637   -6.6296603   0.99452167   520346 
 1575000    1.0760043   -6.6296738   -6.6296738   -5.6350213   0.10979714   -6.6296738    0.9946525   520346 
 1576000    1.0736449   -6.6284506   -6.6284506   -5.6359791  0.068499237   -6.6284506   0.99247144   520346 
 1577000    1.0739547   -6.6291531   -6.6291531   -5.6363952  0.076086758   -6.6291531   0.99275785   520346 
 1578000    1.0743395   -6.6303474   -6.6303474   -5.6372338  0.087843099   -6.6303474   0.99311359   520346 
 1579000    1.0731317   -6.6294746   -6.6294746   -5.6374775   0.11940618   -6.6294746   0.99199704   520346 
 1580000    1.0714033   -6.6277137   -6.6277137   -5.6373143  0.080704514   -6.6277137   0.99039933   520346 
 1581000    1.0739657   -6.6299126   -6.6299126   -5.6371446  0.076633618   -6.6299126     0.992768   520346 
 1582000    1.0766079   -6.6321434   -6.6321434    -5.636933  0.097461272   -6.6321434   0.99521044   520346 
 1583000    1.0724324   -6.6285501   -6.6285501   -5.6371994   0.11710929   -6.6285501   0.99135066   520346 
 1584000    1.0720199   -6.6288977   -6.6288977   -5.6379284  0.065274109   -6.6288977   0.99096934   520346 
 1585000    1.0729551   -6.6295474   -6.6295474   -5.6377136  0.081884611   -6.6295474   0.99183385   520346 
 1586000    1.0753728   -6.6331405   -6.6331405   -5.6390718  0.045932157   -6.6331405    0.9940687   520346 
 1587000    1.0736808   -6.6321326   -6.6321326   -5.6396279  0.067596844   -6.6321326   0.99250463   520346 
 1588000    1.0742606   -6.6331383   -6.6331383   -5.6400976    0.0914023   -6.6331383   0.99304065   520346 
 1589000     1.073898   -6.6335909   -6.6335909   -5.6408854  0.096006291   -6.6335909   0.99270548   520346 
 1590000    1.0714696   -6.6314468   -6.6314468   -5.6409862  0.088211482   -6.6314468   0.99046061   520346 
 1591000    1.0723475   -6.6329037   -6.6329037   -5.6416315  0.084482252   -6.6329037   0.99127216   520346 
 1592000    1.0734261   -6.6342831   -6.6342831   -5.6420138   0.08517109   -6.6342831   0.99226922   520346 
 1593000     1.073537   -6.6347728   -6.6347728   -5.6424011  0.086014186   -6.6347728    0.9923717   520346 
 1594000    1.0724192   -6.6341668   -6.6341668   -5.6428284  0.082570654   -6.6341668   0.99133844   520346 
 1595000    1.0741186   -6.6355631   -6.6355631   -5.6426537  0.077040461   -6.6355631   0.99290937   520346 
 1596000    1.0741438   -6.6362477   -6.6362477    -5.643315  0.094461345   -6.6362477    0.9929327   520346 
 1597000    1.0721582    -6.634627    -6.634627   -5.6435298   0.07606561    -6.634627   0.99109714   520346 
 1598000    1.0730968   -6.6366104   -6.6366104   -5.6446456  0.078377577   -6.6366104   0.99196482   520346 
 1599000    1.0727667    -6.636179    -6.636179   -5.6445194  0.063955457    -6.636179   0.99165965   520346 
 1600000    1.0718341   -6.6350234   -6.6350234   -5.6442259   0.07743826   -6.6350234   0.99079755   520346 
 1601000     1.071843   -6.6354742   -6.6354742   -5.6446684   0.08249039   -6.6354742   0.99080582   520346 
 1602000    1.0745776   -6.6387772   -6.6387772   -5.6454436  0.086850851   -6.6387772   0.99333363   520346 
 1603000    1.0731131   -6.6374097   -6.6374097   -5.6454299  0.099032506   -6.6374097   0.99197987   520346 
 1604000    1.0738042   -6.6381377   -6.6381377    -5.645519  0.089836685   -6.6381377   0.99261871   520346 
 1605000    1.0721653   -6.6370786   -6.6370786   -5.6459749   0.10940667   -6.6370786   0.99110374   520346 
 1606000    1.0723571   -6.6381471   -6.6381471    -5.646866  0.095440089   -6.6381471   0.99128109   520346 
 1607000     1.071582   -6.6382028   -6.6382028   -5.6476382   0.06735085   -6.6382028   0.99056457   520346 
 1608000    1.0714283   -6.6372794   -6.6372794   -5.6468569  0.070760819   -6.6372794   0.99042248   520346 
 1609000    1.0704753    -6.636945    -6.636945   -5.6474034  0.087873182    -6.636945   0.98954153   520346 
 1610000     1.070066   -6.6370774   -6.6370774   -5.6479142  0.078959897   -6.6370774   0.98916318   520346 
 1611000    1.0716885   -6.6397903   -6.6397903   -5.6491273  0.085835571   -6.6397903   0.99066296   520346 
 1612000    1.0707385   -6.6381805   -6.6381805   -5.6483957  0.082476193   -6.6381805   0.98978479   520346 
 1613000    1.0705495   -6.6383581   -6.6383581    -5.648748  0.079800851   -6.6383581   0.98961007   520346 
 1614000    1.0707748   -6.6393981   -6.6393981   -5.6495797  0.090180806   -6.6393981   0.98981836   520346 
 1615000    1.0693501   -6.6381378   -6.6381378   -5.6496363  0.090339198   -6.6381378   0.98850143   520346 
 1616000    1.0693678   -6.6378029   -6.6378029   -5.6492852  0.059378854   -6.6378029   0.98851772   520346 
 1617000    1.0697083   -6.6385426   -6.6385426   -5.6497101  0.064488663   -6.6385426   0.98883251   520346 
 1618000    1.0707577   -6.6400586   -6.6400586    -5.650256  0.090958143   -6.6400586   0.98980256   520346 
 1619000    1.0713691   -6.6405661   -6.6405661   -5.6501984  0.073911714   -6.6405661   0.99036776   520346 
 1620000    1.0701894   -6.6399204   -6.6399204   -5.6506431  0.078517373   -6.6399204   0.98927728   520346 
 1621000    1.0720736   -6.6411059   -6.6411059    -5.650087  0.061021231   -6.6411059   0.99101894   520346 
 1622000    1.0726351   -6.6414344   -6.6414344   -5.6498963  0.065476364   -6.6414344   0.99153807   520346 
 1623000    1.0721701   -6.6418922   -6.6418922    -5.650784  0.061675241   -6.6418922   0.99110822   520346 
 1624000    1.0695601    -6.639962    -6.639962   -5.6512665  0.068923471    -6.639962   0.98869555   520346 
 1625000    1.0717189   -6.6429928   -6.6429928   -5.6523017  0.079419178   -6.6429928   0.99069112   520346 
 1626000    1.0708086   -6.6430549   -6.6430549   -5.6532052  0.075272697   -6.6430549   0.98984964   520346 
 1627000    1.0716457    -6.643156    -6.643156   -5.6525326   0.10297592    -6.643156   0.99062344   520346 
 1628000    1.0692025   -6.6407367   -6.6407367   -5.6523717   0.09408775   -6.6407367     0.988365   520346 
 1629000    1.0713892   -6.6420931   -6.6420931   -5.6517068  0.078540937   -6.6420931   0.99038636   520346 
 1630000    1.0721438   -6.6431606   -6.6431606   -5.6520767  0.090454679   -6.6431606   0.99108384   520346 
 1631000    1.0718235   -6.6427897   -6.6427897   -5.6520019   0.08879859   -6.6427897   0.99078776   520346 
 1632000    1.0693835   -6.6409543   -6.6409543    -5.652422   0.09354096   -6.6409543   0.98853227   520346 
 1633000     1.068836   -6.6410928   -6.6410928   -5.6530667  0.081551644   -6.6410928   0.98802616   520346 
 1634000    1.0715261   -6.6443627   -6.6443627   -5.6538498  0.067983859   -6.6443627    0.9905129   520346 
 1635000    1.0709958    -6.644177    -6.644177   -5.6541544  0.090089143    -6.644177   0.99002269   520346 
 1636000    1.0715363   -6.6444437   -6.6444437   -5.6539214  0.073564216   -6.6444437   0.99052231   520346 
 1637000    1.0687348   -6.6417917   -6.6417917   -5.6538591   0.08581068   -6.6417917   0.98793264   520346 
 1638000    1.0695715    -6.643231    -6.643231    -5.654525  0.097816845    -6.643231   0.98870606   520346 
 1639000    1.0707579   -6.6444643   -6.6444643   -5.6546615   0.07393964   -6.6444643   0.98980275   520346 
 1640000    1.0705446   -6.6449196   -6.6449196    -5.655314  0.066257374   -6.6449196   0.98960562   520346 
 1641000    1.0700364   -6.6437766   -6.6437766   -5.6546407  0.091483298   -6.6437766   0.98913582   520346 
 1642000      1.07107    -6.646093    -6.646093   -5.6560018  0.090914688    -6.646093   0.99009122   520346 
 1643000    1.0714332   -6.6465664   -6.6465664   -5.6561394  0.077172302   -6.6465664   0.99042695   520346 
 1644000    1.0705172   -6.6456313   -6.6456313    -5.656051  0.089463198   -6.6456313   0.98958029   520346 
 1645000    1.0688157   -6.6439956   -6.6439956   -5.6559882  0.085604813   -6.6439956    0.9880074   520346 
 1646000    1.0693462   -6.6452312   -6.6452312   -5.6567335  0.079779579   -6.6452312   0.98849775   520346 
 1647000    1.0689043   -6.6458836   -6.6458836   -5.6577943  0.086234664   -6.6458836    0.9880893   520346 
 1648000    1.0691597   -6.6461215   -6.6461215   -5.6577961  0.060575479   -6.6461215   0.98832543   520346 
 1649000     1.068023   -6.6459131   -6.6459131   -5.6586385  0.067543026   -6.6459131   0.98727465   520346 
 1650000    1.0667945   -6.6447476   -6.6447476   -5.6586085   0.10084961   -6.6447476   0.98613902   520346 
 1651000    1.0688657   -6.6460257   -6.6460257   -5.6579721   0.10006133   -6.6460257   0.98805358   520346 
 1652000    1.0678474   -6.6458712   -6.6458712   -5.6587589  0.078083827   -6.6458712   0.98711231   520346 
 1653000    1.0696069   -6.6467781   -6.6467781   -5.6580393  0.068215139   -6.6467781   0.98873878   520346 
 1654000    1.0681913    -6.645969    -6.645969   -5.6585388  0.072077154    -6.645969   0.98743021   520346 
 1655000    1.0683404   -6.6472344   -6.6472344   -5.6596663   0.08914942   -6.6472344   0.98756806   520346 
 1656000    1.0706108   -6.6500772   -6.6500772   -5.6604105  0.093488766   -6.6500772   0.98966675   520346 
 1657000    1.0687138   -6.6486464   -6.6486464   -5.6607332  0.088571447   -6.6486464    0.9879132   520346 
 1658000    1.0685667   -6.6489695   -6.6489695   -5.6611923  0.073602848   -6.6489695   0.98777721   520346 
 1659000    1.0702736   -6.6497527   -6.6497527   -5.6603976  0.067692395   -6.6497527   0.98935508   520346 
 1660000    1.0696807   -6.6503216   -6.6503216   -5.6615146  0.098549969   -6.6503216   0.98880703   520346 
 1661000    1.0673624   -6.6489746   -6.6489746   -5.6623106   0.10264703   -6.6489746     0.986664   520346 
 1662000    1.0664491   -6.6481143   -6.6481143   -5.6622946  0.065783733   -6.6481143   0.98581969   520346 
 1663000     1.068137   -6.6502368   -6.6502368   -5.6628567  0.077336386   -6.6502368   0.98738005   520346 
 1664000    1.0666971   -6.6490148   -6.6490148   -5.6629658  0.068554239   -6.6490148   0.98604895   520346 
 1665000    1.0667173   -6.6497241   -6.6497241   -5.6636564  0.091754015   -6.6497241   0.98606767   520346 
 1666000    1.0665149   -6.6504308   -6.6504308   -5.6645503  0.087587182   -6.6504308   0.98588053   520346 
 1667000    1.0668208   -6.6513841   -6.6513841   -5.6652208  0.099999022   -6.6513841   0.98616336   520346 
 1668000    1.0682301   -6.6519849   -6.6519849   -5.6645188   0.07393109   -6.6519849   0.98746611   520346 
 1669000      1.06795   -6.6519985   -6.6519985   -5.6647913  0.047514791   -6.6519985   0.98720717   520346 
 1670000    1.0662057   -6.6506084   -6.6506084   -5.6650137   0.10237635   -6.6506084   0.98559469   520346 
 1671000    1.0668812   -6.6520578   -6.6520578   -5.6658387  0.045274791   -6.6520578   0.98621916   520346 
 1672000     1.068335   -6.6531006   -6.6531006   -5.6655375  0.085622455   -6.6531006   0.98756307   520346 
 1673000    1.0653553   -6.6509778   -6.6509778   -5.6661691   0.10206565   -6.6509778   0.98480861   520346 
 1674000    1.0660654   -6.6514205   -6.6514205   -5.6659555  0.040740273   -6.6514205   0.98546502   520346 
 1675000    1.0654263   -6.6513235   -6.6513235   -5.6664492  0.069858162   -6.6513235   0.98487428   520346 
 1676000    1.0676565   -6.6531958   -6.6531958     -5.66626  0.075428133   -6.6531958    0.9869358   520346 
 1677000    1.0655588   -6.6509124   -6.6509124   -5.6659156  0.072554897   -6.6509124   0.98499676   520346 
 1678000    1.0675664   -6.6527619   -6.6527619   -5.6659094  0.081582201   -6.6527619   0.98685253   520346 
 1679000    1.0682863   -6.6534051   -6.6534051    -5.665887   0.10149498   -6.6534051   0.98751804   520346 
 1680000    1.0687492   -6.6540682   -6.6540682   -5.6661223   0.07055438   -6.6540682   0.98794592   520346 
 1681000    1.0672563   -6.6524019   -6.6524019    -5.665836  0.095998816   -6.6524019   0.98656591   520346 
 1682000    1.0656994   -6.6516706   -6.6516706   -5.6665439   0.12074724   -6.6516706   0.98512673   520346 
 1683000    1.0679528   -6.6548286   -6.6548286   -5.6676189  0.079228657   -6.6548286    0.9872097   520346 
 1684000    1.0670107   -6.6550801   -6.6550801   -5.6687412  0.066774283   -6.6550801   0.98633888   520346 
 1685000    1.0647309   -6.6534193   -6.6534193   -5.6691879  0.065641379   -6.6534193   0.98423143   520346 
 1686000    1.0666266   -6.6550996   -6.6550996   -5.6691158  0.074006465   -6.6550996   0.98598376   520346 
 1687000    1.0635701    -6.652418    -6.652418   -5.6692597  0.087960821    -6.652418   0.98315835   520346 
 1688000    1.0659723   -6.6548544   -6.6548544   -5.6694754   0.10277318   -6.6548544   0.98537899   520346 
 1689000    1.0652894   -6.6545274   -6.6545274   -5.6697796  0.051974152   -6.6545274   0.98474775   520346 
 1690000    1.0670321   -6.6569235   -6.6569235   -5.6705648  0.098133847   -6.6569235   0.98635867   520346 
 1691000    1.0636313   -6.6546246   -6.6546246   -5.6714096  0.080483256   -6.6546246     0.983215   520346 
 1692000    1.0658828   -6.6569637   -6.6569637   -5.6716675  0.063120164   -6.6569637   0.98529624   520346 
 1693000    1.0645264   -6.6565839   -6.6565839   -5.6725415  0.086790405   -6.6565839   0.98404241   520346 
 1694000    1.0654728   -6.6574235   -6.6574235   -5.6725062  0.070217245   -6.6574235   0.98491723   520346 
 1695000    1.0660751   -6.6584173   -6.6584173   -5.6729433  0.076918184   -6.6584173   0.98547397   520346 
 1696000    1.0654184   -6.6586479   -6.6586479    -5.673781  0.061581333   -6.6586479   0.98486694   520346 
 1697000    1.0660934    -6.658484    -6.658484   -5.6729931  0.087205857    -6.658484   0.98549089   520346 
 1698000    1.0658859   -6.6579469   -6.6579469   -5.6726478   0.10079185   -6.6579469    0.9852991   520346 
 1699000    1.0674878   -6.6600713   -6.6600713   -5.6732914  0.080357219   -6.6600713   0.98677991   520346 
 1700000    1.0668367   -6.6598063   -6.6598063   -5.6736282  0.060908463   -6.6598063   0.98617806   520346 
 1701000    1.0660042     -6.65924     -6.65924   -5.6738316  0.084681862     -6.65924    0.9854085   520346 
 1702000    1.0630576   -6.6575277   -6.6575277   -5.6748431  0.089315433   -6.6575277   0.98268466   520346 
 1703000     1.065415   -6.6601323   -6.6601323   -5.6752685   0.07736525   -6.6601323    0.9848638   520346 
 1704000    1.0645458   -6.6600956   -6.6600956   -5.6760353  0.082292543   -6.6600956   0.98406036   520346 
 1705000    1.0659838   -6.6617796   -6.6617796     -5.67639  0.073703854   -6.6617796   0.98538961   520346 
 1706000    1.0656469   -6.6617487   -6.6617487   -5.6766705  0.098197049   -6.6617487   0.98507817   520346 
 1707000    1.0635221    -6.659516    -6.659516   -5.6764021  0.064680078    -6.659516   0.98311399   520346 
 1708000    1.0658752   -6.6619442   -6.6619442    -5.676655  0.067443892   -6.6619442    0.9852892   520346 
 1709000    1.0635768    -6.660201    -6.660201   -5.6770364  0.078805039    -6.660201   0.98316462   520346 
 1710000    1.0646808   -6.6617083   -6.6617083   -5.6775232  0.061360918   -6.6617083   0.98418509   520346 
 1711000    1.0631375   -6.6603411   -6.6603411   -5.6775826  0.086019282   -6.6603411   0.98275851   520346 
 1712000    1.0646813   -6.6618586   -6.6618586    -5.677673   0.10231081   -6.6618586   0.98418559   520346 
 1713000    1.0613232   -6.6590527   -6.6590527   -5.6779714  0.085081858   -6.6590527   0.98108133   520346 
 1714000    1.0654206   -6.6632575   -6.6632575   -5.6783885   0.07511251   -6.6632575   0.98486898   520346 
 1715000    1.0627362   -6.6622108   -6.6622108   -5.6798232  0.055364172   -6.6622108   0.98238751   520346 
 1716000    1.0645289   -6.6635217   -6.6635217    -5.679477   0.10184163   -6.6635217   0.98404466   520346 
 1717000    1.0623438   -6.6613457   -6.6613457   -5.6793209  0.081834775   -6.6613457   0.98202485   520346 
 1718000    1.0641053   -6.6625499   -6.6625499   -5.6788968  0.075736984   -6.6625499   0.98365313   520346 
 1719000    1.0666087   -6.6658878   -6.6658878   -5.6799205  0.088336774   -6.6658878   0.98596728   520346 
 1720000    1.0656948   -6.6653081   -6.6653081   -5.6801856   0.08436848   -6.6653081   0.98512248   520346 
 1721000    1.0660352    -6.666492    -6.666492   -5.6810549  0.080166739    -6.666492   0.98543712   520346 
 1722000    1.0643825   -6.6638175   -6.6638175   -5.6799081   0.08209315   -6.6638175   0.98390938   520346 
 1723000    1.0636407   -6.6639628   -6.6639628   -5.6807391   0.10654481   -6.6639628   0.98322367   520346 
 1724000    1.0640646   -6.6644262   -6.6644262   -5.6808107  0.065755274   -6.6644262   0.98361551   520346 
 1725000    1.0630687   -6.6647753   -6.6647753   -5.6820804  0.090832309   -6.6647753   0.98269486   520346 
 1726000    1.0627595    -6.664955    -6.664955   -5.6825459   0.09636876    -6.664955   0.98240907   520346 
 1727000    1.0618436     -6.66434     -6.66434   -5.6827775   0.10403011     -6.66434   0.98156246   520346 
 1728000    1.0620542   -6.6648994   -6.6648994   -5.6831422  0.056507454   -6.6648994   0.98175713   520346 
 1729000    1.0634768   -6.6665405   -6.6665405   -5.6834684  0.095330532   -6.6665405    0.9830721   520346 
 1730000    1.0636306   -6.6669918   -6.6669918   -5.6837775  0.078248112   -6.6669918   0.98321428   520346 
 1731000     1.065096   -6.6683754   -6.6683754   -5.6838065   0.11242465   -6.6683754   0.98456895   520346 
 1732000    1.0625868   -6.6673795   -6.6673795   -5.6851301  0.086735789   -6.6673795   0.98224941   520346 
 1733000    1.0624218   -6.6674249   -6.6674249    -5.685328  0.068221512   -6.6674249   0.98209692   520346 
 1734000    1.0609757   -6.6663755   -6.6663755   -5.6856153  0.086297532   -6.6663755   0.98076019   520346 
 1735000    1.0641554   -6.6694161   -6.6694161   -5.6857167  0.062952201   -6.6694161   0.98369942   520346 
 1736000    1.0626407   -6.6679738   -6.6679738   -5.6856745   0.10450904   -6.6679738   0.98229927   520346 
 1737000    1.0616736   -6.6678179   -6.6678179   -5.6864126  0.072419889   -6.6678179   0.98140526   520346 
 1738000    1.0602311    -6.666271    -6.666271   -5.6861992  0.058579648    -6.666271   0.98007184   520346 
 1739000    1.0614652   -6.6683653   -6.6683653   -5.6871527  0.065726977   -6.6683653   0.98121264   520346 
 1740000    1.0628681   -6.6699316   -6.6699316   -5.6874221  0.065792537   -6.6699316   0.98250949   520346 
 1741000    1.0592509   -6.6666078   -6.6666078   -5.6874421  0.061662119   -6.6666078   0.97916573   520346 
 1742000     1.065323   -6.6716912   -6.6716912   -5.6869124   0.08239058   -6.6716912   0.98477876   520346 
 1743000    1.0638778    -6.670868    -6.670868   -5.6874252  0.096846987    -6.670868   0.98344283   520346 
 1744000    1.0622242   -6.6693393   -6.6693393    -5.687425  0.066357642   -6.6693393   0.98191429   520346 
 1745000    1.0616433   -6.6693796   -6.6693796   -5.6880024  0.066892453   -6.6693796   0.98137727   520346 
 1746000    1.0620842   -6.6694019   -6.6694019   -5.6876171  0.072136191   -6.6694019   0.98178485   520346 
 1747000    1.0614418   -6.6699661   -6.6699661   -5.6887751  0.078774743   -6.6699661     0.981191   520346 
 1748000    1.0620919   -6.6712694   -6.6712694   -5.6894774  0.085235814   -6.6712694   0.98179192   520346 
 1749000    1.0641469   -6.6725711   -6.6725711   -5.6888794  0.072839399   -6.6725711   0.98369162   520346 
 1750000    1.0608868   -6.6695334   -6.6695334   -5.6888554   0.10196954   -6.6695334   0.98067799   520346 
 1751000    1.0605032    -6.669789    -6.669789   -5.6894656  0.092725665    -6.669789   0.98032334   520346 
 1752000    1.0624156   -6.6718464   -6.6718464   -5.6897552  0.072208447   -6.6718464   0.98209121   520346 
 1753000     1.060902   -6.6701166   -6.6701166   -5.6894246  0.068703683   -6.6701166   0.98069205   520346 
 1754000    1.0606878   -6.6699196   -6.6699196   -5.6894255  0.076606571   -6.6699196   0.98049405   520346 
 1755000    1.0639402   -6.6726038   -6.6726038   -5.6891033  0.087310621   -6.6726038   0.98350054   520346 
 1756000    1.0599584   -6.6698886   -6.6698886   -5.6900689   0.09519535   -6.6698886   0.97981976   520346 
 1757000    1.0598172   -6.6703602   -6.6703602    -5.690671   0.11611318   -6.6703602    0.9796892   520346 
 1758000    1.0617252   -6.6720519   -6.6720519   -5.6905989  0.062752294   -6.6720519   0.98145295   520346 
 1759000    1.0621988   -6.6733913   -6.6733913   -5.6915005  0.082342943   -6.6733913   0.98189077   520346 
 1760000    1.0624435   -6.6736936   -6.6736936   -5.6915766   0.11350152   -6.6736936   0.98211701   520346 
 1761000    1.0617256   -6.6734235   -6.6734235   -5.6919702  0.085562535   -6.6734235   0.98145337   520346 
 1762000    1.0606794    -6.673508    -6.673508   -5.6930218   0.12273349    -6.673508   0.98048622   520346 
 1763000    1.0626305   -6.6744242   -6.6744242   -5.6921344    0.0884705   -6.6744242   0.98228982   520346 
 1764000    1.0622083   -6.6745377   -6.6745377   -5.6926381  0.067687797   -6.6745377   0.98189956   520346 
 1765000    1.0630609   -6.6753505   -6.6753505   -5.6926628    0.1235989   -6.6753505   0.98268768   520346 
 1766000    1.0590783   -6.6723025   -6.6723025   -5.6932964   0.10293433   -6.6723025   0.97900616   520346 
 1767000    1.0600042   -6.6738398   -6.6738398   -5.6939777  0.094582799   -6.6738398   0.97986207   520346 
 1768000    1.0622231   -6.6747317   -6.6747317   -5.6928185   0.10028112   -6.6747317   0.98191319   520346 
 1769000    1.0621638   -6.6761187   -6.6761187   -5.6942603   0.09527995   -6.6761187   0.98185843   520346 
 1770000    1.0592242   -6.6738331   -6.6738331   -5.6946921  0.083530791   -6.6738331   0.97914105   520346 
 1771000    1.0602116   -6.6755792   -6.6755792   -5.6955255  0.091638823   -6.6755792   0.98005379   520346 
 1772000    1.0600591   -6.6751773   -6.6751773   -5.6952645   0.09765391   -6.6751773   0.97991283   520346 
 1773000    1.0633208   -6.6786662   -6.6786662   -5.6957383  0.099099687   -6.6786662   0.98292798   520346 
 1774000    1.0600224   -6.6763386   -6.6763386   -5.6964597  0.099320167   -6.6763386   0.97987889   520346 
 1775000    1.0600152   -6.6772288   -6.6772288   -5.6973565   0.10102115   -6.6772288   0.97987229   520346 
 1776000    1.0598605   -6.6757897   -6.6757897   -5.6960604   0.09748694   -6.6757897   0.97972923   520346 
 1777000    1.0618434   -6.6774632   -6.6774632    -5.695901  0.071215823   -6.6774632   0.98156226   520346 
 1778000    1.0595537   -6.6752819   -6.6752819   -5.6958362  0.091912878   -6.6752819   0.97944563   520346 
 1779000    1.0577945    -6.674528    -6.674528   -5.6967086  0.070593412    -6.674528   0.97781943   520346 
 1780000    1.0594948   -6.6762017   -6.6762017   -5.6968105  0.094458055   -6.6762017   0.97939117   520346 
 1781000    1.0604795   -6.6778164   -6.6778164    -5.697515   0.07830057   -6.6778164   0.98030142   520346 
 1782000    1.0585982   -6.6770754   -6.6770754   -5.6985131  0.080307602   -6.6770754   0.97856237   520346 
 1783000    1.0600406   -6.6772833   -6.6772833   -5.6973876  0.057565365   -6.6772833   0.97989578   520346 
 1784000    1.0596456   -6.6780305   -6.6780305   -5.6984999  0.079168744   -6.6780305   0.97953064   520346 
 1785000    1.0602548   -6.6789212   -6.6789212   -5.6988274  0.089926039   -6.6789212   0.98009379   520346 
 1786000    1.0586581   -6.6788708   -6.6788708    -5.700253  0.071042949   -6.6788708   0.97861772   520346 
 1787000    1.0574819    -6.677743    -6.677743   -5.7002125  0.059739892    -6.677743   0.97753052   520346 
 1788000    1.0578514   -6.6783512   -6.6783512   -5.7004792  0.088525883   -6.6783512   0.97787207   520346 
 1789000    1.0609267   -6.6802748   -6.6802748     -5.69956  0.066765586   -6.6802748   0.98071484   520346 
 1790000    1.0601301   -6.6791209   -6.6791209   -5.6991424  0.062101039   -6.6791209   0.97997851   520346 
 1791000    1.0585556   -6.6782575   -6.6782575   -5.6997345  0.082948816   -6.6782575   0.97852299   520346 
 1792000    1.0590989   -6.6791276   -6.6791276   -5.7001023  0.089631977   -6.6791276   0.97902527   520346 
 1793000    1.0608627    -6.680516    -6.680516   -5.6998603  0.072866203    -6.680516   0.98065567   520346 
 1794000    1.0576115   -6.6781998   -6.6781998   -5.7005495  0.084500302   -6.6781998   0.97765031   520346 
 1795000     1.058292   -6.6791084   -6.6791084   -5.7008291  0.070665014   -6.6791084   0.97827935   520346 
 1796000    1.0593428   -6.6797682   -6.6797682   -5.7005175  0.085799635   -6.6797682   0.97925065   520346 
 1797000    1.0604023   -6.6814857   -6.6814857   -5.7012556  0.081319234   -6.6814857    0.9802301   520346 
 1798000    1.0597621   -6.6812957   -6.6812957   -5.7016574  0.068191171   -6.6812957   0.97963828   520346 
 1799000    1.0585579   -6.6814534   -6.6814534   -5.7029283   0.12389855   -6.6814534   0.97852514   520346 
 1800000    1.0562825    -6.678301    -6.678301   -5.7018792  0.084436323    -6.678301   0.97642182   520346 
 1801000    1.0602569   -6.6813396   -6.6813396   -5.7012439  0.065762012   -6.6813396   0.98009565   520346 
 1802000    1.0601784    -6.681309    -6.681309   -5.7012859  0.084800895    -6.681309   0.98002313   520346 
 1803000    1.0572959    -6.679513    -6.679513   -5.7021544  0.077692553    -6.679513   0.97735858   520346 
 1804000    1.0568297   -6.6793667   -6.6793667   -5.7024391  0.076900067   -6.6793667   0.97692758   520346 
 1805000    1.0573649     -6.67933     -6.67933   -5.7019077  0.075822451     -6.67933   0.97742232   520346 
 1806000    1.0573324   -6.6805644   -6.6805644   -5.7031721  0.081627069   -6.6805644   0.97739233   520346 
 1807000    1.0595306   -6.6828994   -6.6828994   -5.7034751  0.068413933   -6.6828994   0.97942425   520346 
 1808000     1.056833   -6.6808493   -6.6808493   -5.7039187  0.085694313   -6.6808493   0.97693064   520346 
 1809000    1.0586142   -6.6835761   -6.6835761   -5.7049989  0.080876947   -6.6835761   0.97857715   520346 
 1810000    1.0583286   -6.6845973   -6.6845973   -5.7062841  0.095984317   -6.6845973   0.97831318   520346 
 1811000    1.0581213   -6.6841735   -6.6841735   -5.7060519  0.072876206   -6.6841735   0.97812159   520346 
 1812000      1.05806   -6.6836469   -6.6836469    -5.705582  0.057661703   -6.6836469    0.9780649   520346 
 1813000    1.0583414   -6.6847667   -6.6847667   -5.7064417  0.069653087   -6.6847667   0.97832501   520346 
 1814000    1.0574629   -6.6832778   -6.6832778   -5.7057649  0.050443919   -6.6832778   0.97751291   520346 
 1815000    1.0581847   -6.6841835   -6.6841835   -5.7060034  0.072390721   -6.6841835   0.97818015   520346 
 1816000    1.0587299   -6.6844929   -6.6844929   -5.7058088  0.096326874   -6.6844929   0.97868413   520346 
 1817000    1.0582341   -6.6845655   -6.6845655   -5.7063397    0.1011735   -6.6845655   0.97822581   520346 
 1818000    1.0591547   -6.6852085   -6.6852085   -5.7061317  0.090044455   -6.6852085   0.97907678   520346 
 1819000    1.0598807   -6.6857021   -6.6857021   -5.7059541  0.094027397   -6.6857021   0.97974795   520346 
 1820000    1.0609869   -6.6864019   -6.6864019   -5.7056314  0.059283319   -6.6864019   0.98077052   520346 
 1821000    1.0598895   -6.6865593   -6.6865593   -5.7068032  0.064591762   -6.6865593   0.97975605   520346 
 1822000    1.0602777   -6.6868146   -6.6868146   -5.7066996  0.084253214   -6.6868146   0.98011496   520346 
 1823000    1.0570043    -6.684362    -6.684362    -5.707273  0.064249367    -6.684362   0.97708896   520346 
 1824000    1.0581411   -6.6852049   -6.6852049   -5.7070651  0.069474526   -6.6852049   0.97813986   520346 
 1825000    1.0576381   -6.6858167   -6.6858167   -5.7081418  0.040284054   -6.6858167   0.97767486   520346 
 1826000    1.0589358    -6.687264    -6.687264   -5.7083896  0.087176558    -6.687264   0.97887444   520346 
 1827000    1.0583986   -6.6870978   -6.6870978   -5.7087199   0.09144146   -6.6870978   0.97837793   520346 
 1828000    1.0584348   -6.6861753   -6.6861753   -5.7077639  0.070672127   -6.6861753   0.97841138   520346 
 1829000    1.0586797   -6.6870041   -6.6870041   -5.7083663  0.053670496   -6.6870041   0.97863776   520346 
 1830000    1.0578618   -6.6862651   -6.6862651   -5.7083835  0.093188162   -6.6862651   0.97788167   520346 
 1831000    1.0582118   -6.6880734   -6.6880734   -5.7098682  0.096413165   -6.6880734   0.97820522   520346 
 1832000    1.0570583   -6.6873345   -6.6873345   -5.7101956  0.044180695   -6.6873345   0.97713888   520346 
 1833000    1.0564306   -6.6873695   -6.6873695   -5.7108108  0.086015317   -6.6873695   0.97655869   520346 
 1834000    1.0566619   -6.6872916   -6.6872916   -5.7105191  0.085265625   -6.6872916   0.97677248   520346 
 1835000    1.0570921    -6.688289    -6.688289   -5.7111188  0.061523933    -6.688289   0.97717013   520346 
 1836000    1.0570957   -6.6888546   -6.6888546   -5.7116811  0.051951891   -6.6888546   0.97717349   520346 
 1837000    1.0572107   -6.6888435   -6.6888435   -5.7115637  0.063806861   -6.6888435   0.97727979   520346 
 1838000     1.057139   -6.6888601   -6.6888601   -5.7116466  0.063803898   -6.6888601   0.97721354   520346 
 1839000    1.0535914   -6.6861332   -6.6861332   -5.7121991  0.078048097   -6.6861332   0.97393412   520346 
 1840000    1.0568395   -6.6893897   -6.6893897    -5.712453  0.047742991   -6.6893897   0.97693666   520346 
 1841000    1.0557489   -6.6874852   -6.6874852   -5.7115567  0.087250613   -6.6874852    0.9759285   520346 
 1842000    1.0553999   -6.6886979   -6.6886979    -5.713092  0.077554252   -6.6886979    0.9756059   520346 
 1843000    1.0561942   -6.6883609   -6.6883609   -5.7120208  0.068764183   -6.6883609   0.97634013   520346 
 1844000    1.0554347   -6.6893558   -6.6893558   -5.7137178  0.090458295   -6.6893558   0.97563809   520346 
 1845000    1.0541293   -6.6873393   -6.6873393    -5.712908  0.085295018   -6.6873393   0.97443137   520346 
 1846000    1.0546952   -6.6889753   -6.6889753   -5.7140208   0.07430092   -6.6889753   0.97495444   520346 
 1847000    1.0574872   -6.6923218   -6.6923218   -5.7147864   0.10760284   -6.6923218   0.97753543   520346 
 1848000    1.0575754   -6.6913548   -6.6913548   -5.7137378  0.084864307   -6.6913548   0.97761696   520346 
 1849000    1.0575303   -6.6911334   -6.6911334   -5.7135582  0.064179425   -6.6911334   0.97757524   520346 
 1850000    1.0579266   -6.6922521   -6.6922521   -5.7143105  0.083673506   -6.6922521   0.97794157   520346 
 1851000    1.0559929   -6.6904472   -6.6904472   -5.7142931  0.091431371   -6.6904472    0.9761541   520346 
 1852000    1.0577477   -6.6926809   -6.6926809   -5.7149047   0.05556717   -6.6926809   0.97777622   520346 
 1853000    1.0552278   -6.6904295   -6.6904295   -5.7149827   0.08948376   -6.6904295   0.97544682   520346 
 1854000    1.0535597   -6.6896896   -6.6896896   -5.7157848  0.079523837   -6.6896896   0.97390481   520346 
 1855000    1.0534037    -6.690332    -6.690332   -5.7165714  0.082051421    -6.690332   0.97376066   520346 
 1856000    1.0554609   -6.6940876   -6.6940876   -5.7184253  0.056677944   -6.6940876   0.97566231   520346 
 1857000    1.0532301   -6.6926918   -6.6926918   -5.7190916  0.099642892   -6.6926918   0.97360017   520346 
 1858000    1.0559755   -6.6956728   -6.6956728   -5.7195348  0.070692873   -6.6956728   0.97613795   520346 
 1859000    1.0546598   -6.6933835   -6.6933835   -5.7184617  0.098686401   -6.6933835   0.97492175   520346 
 1860000    1.0558739   -6.6939881   -6.6939881    -5.717944  0.069296899   -6.6939881   0.97604406   520346 
 1861000    1.0529356   -6.6913434   -6.6913434   -5.7180154  0.069369236   -6.6913434   0.97332791   520346 
 1862000    1.0526247   -6.6918576   -6.6918576   -5.7188171  0.073900596   -6.6918576   0.97304048   520346 
 1863000    1.0537064   -6.6942876   -6.6942876   -5.7202471  0.053196527   -6.6942876   0.97404045   520346 
 1864000    1.0532922   -6.6942728   -6.6942728   -5.7206152  0.046004297   -6.6942728   0.97365754   520346 
 1865000    1.0518664   -6.6929695   -6.6929695   -5.7206299  0.080903585   -6.6929695   0.97233959   520346 
 1866000    1.0538836   -6.6945686   -6.6945686   -5.7203644   0.07750375   -6.6945686   0.97420423   520346 
 1867000    1.0536141   -6.6941796   -6.6941796   -5.7202246  0.058432156   -6.6941796   0.97395508   520346 
 1868000    1.0529924   -6.6937629   -6.6937629   -5.7203825  0.068407264   -6.6937629   0.97338047   520346 
 1869000    1.0548976   -6.6958125   -6.6958125    -5.720671  0.052280138   -6.6958125   0.97514154   520346 
 1870000    1.0538675   -6.6945851   -6.6945851   -5.7203957  0.074135036   -6.6945851   0.97418941   520346 
 1871000    1.0533551   -6.6941537   -6.6941537   -5.7204381  0.076558999   -6.6941537   0.97371566   520346 
 1872000    1.0538066   -6.6943725   -6.6943725   -5.7202394  0.087633542   -6.6943725    0.9741331   520346 
 1873000    1.0538014    -6.695051    -6.695051   -5.7209227  0.063142943    -6.695051   0.97412829   520346 
 1874000    1.0528334    -6.693898    -6.693898   -5.7206645  0.087102759    -6.693898   0.97323346   520346 
 1875000    1.0560561   -6.6964596   -6.6964596   -5.7202471  0.062195232   -6.6964596   0.97621246   520346 
 1876000    1.0531289   -6.6940648   -6.6940648   -5.7205582  0.078331117   -6.6940648   0.97350662   520346 
 1877000     1.053958   -6.6955802   -6.6955802   -5.7213071  0.055895418   -6.6955802   0.97427305   520346 
 1878000    1.0532709   -6.6943289   -6.6943289    -5.720691   0.03971144   -6.6943289   0.97363789   520346 
 1879000    1.0553709   -6.6964671   -6.6964671    -5.720888  0.050993319   -6.6964671   0.97557907   520346 
 1880000    1.0544984   -6.6961688   -6.6961688   -5.7213962  0.099093945   -6.6961688   0.97477255   520346 
 1881000    1.0549413   -6.6970089   -6.6970089   -5.7218269  0.083528597   -6.6970089   0.97518202   520346 
 1882000    1.0522857   -6.6947794   -6.6947794   -5.7220523  0.082467306   -6.6947794   0.97272716   520346 
 1883000    1.0526352   -6.6948274   -6.6948274   -5.7217772  0.091168645   -6.6948274   0.97305027   520346 
 1884000    1.0529461   -6.6950489   -6.6950489   -5.7217113  0.066071065   -6.6950489   0.97333767   520346 
 1885000     1.055853   -6.6972122   -6.6972122   -5.7211875  0.075194242   -6.6972122    0.9760247   520346 
 1886000    1.0552917   -6.6981108   -6.6981108    -5.722605  0.032507312   -6.6981108   0.97550584   520346 
 1887000    1.0531705   -6.6961277   -6.6961277   -5.7225827  0.079431894   -6.6961277   0.97354505   520346 
 1888000    1.0556042   -6.6982639   -6.6982639   -5.7224692  0.092050376   -6.6982639   0.97579474   520346 
 1889000    1.0546169    -6.697577    -6.697577    -5.722695  0.082585077    -6.697577   0.97488207   520346 
 1890000    1.0543334    -6.697824    -6.697824    -5.723204  0.072598943    -6.697824      0.97462   520346 
 1891000    1.0533108   -6.6966056   -6.6966056   -5.7229309  0.087271268   -6.6966056   0.97367475   520346 
 1892000    1.0545428   -6.6984078   -6.6984078   -5.7235942  0.077336535   -6.6984078   0.97481363   520346 
 1893000    1.0539044   -6.6981407   -6.6981407   -5.7239172  0.075369555   -6.6981407   0.97422348   520346 
 1894000    1.0508778   -6.6952535   -6.6952535   -5.7238278  0.064379936   -6.6952535   0.97142567   520346 
 1895000    1.0537064   -6.6984572   -6.6984572   -5.7244167  0.046154551   -6.6984572   0.97404041   520346 
 1896000    1.0549541   -6.7003517   -6.7003517   -5.7251579  0.094772155   -6.7003517   0.97519381   520346 
 1897000    1.0537069   -6.6989823   -6.6989823   -5.7249414  0.077099476   -6.6989823   0.97404089   520346 
 1898000    1.0539021   -6.6998083   -6.6998083    -5.725587  0.064015647   -6.6998083   0.97422132   520346 
 1899000     1.053325   -6.6993605   -6.6993605   -5.7256727    0.1133718   -6.6993605   0.97368786   520346 
 1900000     1.053714   -6.6996892   -6.6996892   -5.7256417   0.10055907   -6.6996892   0.97404746   520346 
 1901000    1.0529326   -6.6990832   -6.6990832   -5.7257581  0.062139313   -6.6990832   0.97332518   520346 
 1902000    1.0553504   -6.7011882   -6.7011882   -5.7256281  0.053353884   -6.7011882   0.97556016   520346 
 1903000    1.0538454   -6.6986877   -6.6986877   -5.7245188    0.0398353   -6.6986877   0.97416891   520346 
 1904000    1.0547877   -6.7006797   -6.7006797   -5.7256397  0.054346689   -6.7006797   0.97503995   520346 
 1905000     1.054595   -6.7017821   -6.7017821   -5.7269203  0.082723098   -6.7017821   0.97486186   520346 
 1906000    1.0540919   -6.7003642   -6.7003642   -5.7259674  0.055469733   -6.7003642    0.9743968   520346 
 1907000    1.0537253   -6.7011721   -6.7011721   -5.7271142  0.095647153   -6.7011721   0.97405788   520346 
 1908000    1.0541666   -6.7018606   -6.7018606   -5.7273948  0.085277127   -6.7018606   0.97446582   520346 
 1909000    1.0518933   -6.6998033   -6.6998033   -5.7274389  0.060111111   -6.6998033   0.97236441   520346 
 1910000    1.0533118   -6.7015125   -6.7015125   -5.7278368  0.081809841   -6.7015125   0.97367566   520346 
 1911000    1.0527214   -6.7015529   -6.7015529    -5.728423  0.081959714   -6.7015529   0.97312988   520346 
 1912000    1.0527441   -6.7027394   -6.7027394   -5.7295885  0.047980329   -6.7027394    0.9731509   520346 
 1913000    1.0524936   -6.7026212   -6.7026212   -5.7297019   0.08029412   -6.7026212   0.97291933   520346 
 1914000    1.0513803   -6.7014346   -6.7014346   -5.7295444    0.1002568   -6.7014346   0.97189023   520346 
 1915000    1.0519778   -6.7021845   -6.7021845   -5.7297419  0.071325781   -6.7021845   0.97244257   520346 
 1916000    1.0519756   -6.7015159   -6.7015159   -5.7290754  0.056444391   -6.7015159   0.97244052   520346 
 1917000    1.0545371   -6.7033589   -6.7033589   -5.7285506  0.072766416   -6.7033589   0.97480836   520346 
 1918000    1.0537007   -6.7034554   -6.7034554   -5.7294203  0.080150475   -6.7034554   0.97403515   520346 
 1919000    1.0535393   -6.7034112   -6.7034112   -5.7295253  0.078859945   -6.7034112   0.97388597   520346 
 1920000    1.0538507    -6.703995    -6.703995   -5.7298213  0.061624176    -6.703995   0.97417379   520346 
 1921000    1.0549111     -6.70519     -6.70519    -5.730036  0.063461134     -6.70519   0.97515402   520346 
 1922000    1.0535099   -6.7049935   -6.7049935   -5.7311347  0.051341263   -6.7049935   0.97385883   520346 
 1923000    1.0546272   -6.7062326   -6.7062326    -5.731341  0.074331334   -6.7062326    0.9748916   520346 
 1924000    1.0543697   -6.7060721   -6.7060721   -5.7314185  0.081397731   -6.7060721   0.97465362   520346 
 1925000    1.0540747   -6.7064273   -6.7064273   -5.7320464  0.048986026   -6.7064273   0.97438086   520346 
 1926000    1.0508514   -6.7035421   -6.7035421   -5.7321408  0.074689133   -6.7035421   0.97140128   520346 
 1927000    1.0538812   -6.7058418   -6.7058418   -5.7316398  0.074221252   -6.7058418   0.97420199   520346 
 1928000    1.0517897   -6.7047649   -6.7047649   -5.7324963  0.075324311   -6.7047649   0.97226863   520346 
 1929000     1.053931    -6.707286    -6.707286   -5.7330379   0.05977388    -6.707286   0.97424807   520346 
 1930000    1.0514455    -6.704621    -6.704621   -5.7326706  0.069856762    -6.704621   0.97195044   520346 
 1931000     1.053066   -6.7047513   -6.7047513   -5.7313029  0.074336771   -6.7047513   0.97344841   520346 
 1932000    1.0528074   -6.7058216   -6.7058216   -5.7326121   0.09954395   -6.7058216   0.97320945   520346 
 1933000    1.0517169   -6.7057527   -6.7057527   -5.7335513  0.066712539   -6.7057527   0.97220134   520346 
 1934000    1.0521029   -6.7058676   -6.7058676   -5.7333095  0.097762727   -6.7058676   0.97255817   520346 
 1935000    1.0504047   -6.7046725   -6.7046725   -5.7336841  0.079696669   -6.7046725   0.97098839   520346 
 1936000      1.04783    -6.702071    -6.702071   -5.7334627  0.073457875    -6.702071   0.96860831   520346 
 1937000    1.0522047   -6.7070389   -6.7070389   -5.7343867  0.085104119   -6.7070389   0.97265225   520346 
 1938000    1.0536903   -6.7085794   -6.7085794   -5.7345539  0.096529352   -6.7085794   0.97402551   520346 
 1939000    1.0546557   -6.7099005   -6.7099005   -5.7349826  0.059855078   -6.7099005   0.97491793   520346 
 1940000    1.0522041   -6.7076126   -6.7076126   -5.7349608  0.065173327   -6.7076126   0.97265176   520346 
 1941000    1.0524775   -6.7082941   -6.7082941   -5.7353896  0.086968147   -6.7082941   0.97290448   520346 
 1942000    1.0540133   -6.7091341   -6.7091341     -5.73481  0.044860149   -6.7091341    0.9743241   520346 
 1943000    1.0521678   -6.7083202   -6.7083202    -5.735702  0.094271088   -6.7083202   0.97261819   520346 
 1944000    1.0528188   -6.7093839   -6.7093839    -5.736164  0.096432813   -6.7093839   0.97321991   520346 
 1945000    1.0527236   -6.7099063   -6.7099063   -5.7367744  0.094070038   -6.7099063   0.97313198   520346 
 1946000    1.0544358   -6.7112203   -6.7112203   -5.7365057  0.086802611   -6.7112203   0.97471467   520346 
 1947000    1.0520428   -6.7090263   -6.7090263   -5.7365237  0.068652133   -6.7090263   0.97250257   520346 
 1948000    1.0501437   -6.7078612   -6.7078612   -5.7371141  0.067659855   -6.7078612   0.97074711   520346 
 1949000    1.0509956   -6.7092985   -6.7092985   -5.7377639  0.070574234   -6.7092985   0.97153461   520346 
 1950000    1.0482125   -6.7076711   -6.7076711   -5.7387093  0.061040898   -6.7076711   0.96896189   520346 
 1951000    1.0507168   -6.7098786   -6.7098786   -5.7386016  0.088311298   -6.7098786   0.97127691   520346 
 1952000    1.0503477   -6.7097971   -6.7097971   -5.7388615  0.065907173   -6.7097971   0.97093564   520346 
 1953000    1.0502753    -6.709602    -6.709602   -5.7387332  0.081227865    -6.709602   0.97086878   520346 
 1954000    1.0501455   -6.7085948   -6.7085948    -5.737846  0.073936252   -6.7085948   0.97074879   520346 
 1955000    1.0525897   -6.7113763   -6.7113763   -5.7383681  0.049860113   -6.7113763    0.9730082   520346 
 1956000    1.0499991    -6.710139    -6.710139   -5.7395256  0.074370209    -6.710139   0.97061339   520346 
 1957000    1.0481371   -6.7089423   -6.7089423   -5.7400501  0.078060016   -6.7089423   0.96889221   520346 
 1958000    1.0494618   -6.7103425   -6.7103425   -5.7402258  0.089613924   -6.7103425   0.97011672   520346 
 1959000    1.0494681   -6.7101366   -6.7101366   -5.7400139  0.059285387   -6.7101366   0.97012262   520346 
 1960000    1.0499893   -6.7111255   -6.7111255   -5.7405211   0.05870427   -6.7111255    0.9706044   520346 
 1961000    1.0504536   -6.7118027   -6.7118027   -5.7407691  0.076023785   -6.7118027   0.97103357   520346 
 1962000    1.0514671   -6.7124758   -6.7124758   -5.7405054  0.075017996   -6.7124758   0.97197043   520346 
 1963000     1.051551   -6.7129793   -6.7129793   -5.7409313    0.1001255   -6.7129793   0.97204803   520346 
 1964000    1.0494692    -6.712122    -6.712122   -5.7419984  0.091917547    -6.712122   0.97012359   520346 
 1965000    1.0493885   -6.7117693   -6.7117693   -5.7417204  0.088188305   -6.7117693   0.97004895   520346 
 1966000    1.0488502   -6.7109921   -6.7109921   -5.7414407  0.071538649   -6.7109921   0.96955136   520346 
 1967000     1.051487   -6.7142895   -6.7142895   -5.7423007  0.097239612   -6.7142895   0.97198887   520346 
 1968000    1.0492097   -6.7112007   -6.7112007    -5.741317  0.073677655   -6.7112007   0.96988373   520346 
 1969000     1.047679   -6.7095563   -6.7095563   -5.7410876  0.077864315   -6.7095563   0.96846879   520346 
 1970000    1.0495883   -6.7122429   -6.7122429   -5.7420092   0.10845749   -6.7122429   0.97023373   520346 
 1971000    1.0468286    -6.709253    -6.709253   -5.7415704  0.080173816    -6.709253   0.96768261   520346 
 1972000    1.0503874   -6.7127063   -6.7127063   -5.7417339  0.084890813   -6.7127063   0.97097242   520346 
 1973000    1.0482371   -6.7110506   -6.7110506   -5.7420659  0.053507213   -6.7110506   0.96898465   520346 
 1974000    1.0495481   -6.7128094   -6.7128094   -5.7426128  0.055988902   -6.7128094   0.97019657   520346 
 1975000    1.0477894   -6.7103486   -6.7103486   -5.7417778  0.068865187   -6.7103486   0.96857077   520346 
 1976000     1.048123   -6.7110279   -6.7110279   -5.7421487  0.059254106   -6.7110279   0.96887922   520346 
 1977000     1.051022   -6.7137029   -6.7137029   -5.7421439   0.10970692   -6.7137029   0.97155904   520346 
 1978000    1.0481516   -6.7119598   -6.7119598   -5.7430542  0.061141552   -6.7119598   0.96890564   520346 
 1979000     1.048829   -6.7127407   -6.7127407   -5.7432088   0.10320269   -6.7127407   0.96953184   520346 
 1980000    1.0499477   -6.7131042   -6.7131042   -5.7425383  0.083677631   -6.7131042   0.97056588   520346 
 1981000    1.0507828   -6.7132821   -6.7132821   -5.7419442  0.061733715   -6.7132821   0.97133789   520346 
 1982000     1.050285   -6.7127046   -6.7127046   -5.7418269  0.070398963   -6.7127046    0.9708777   520346 
 1983000    1.0501526   -6.7131575   -6.7131575   -5.7424022   0.08621403   -6.7131575   0.97075529   520346 
 1984000      1.04937   -6.7134721   -6.7134721   -5.7434402  0.057277249   -6.7134721    0.9700319   520346 
 1985000    1.0473595   -6.7108491   -6.7108491   -5.7426757  0.078550916   -6.7108491   0.96817341   520346 
 1986000    1.0494607   -6.7135478   -6.7135478   -5.7434321  0.090767209   -6.7135478   0.97011575   520346 
 1987000    1.0500993   -6.7145912   -6.7145912   -5.7438852   0.10650876   -6.7145912   0.97070606   520346 
 1988000      1.04947   -6.7133997   -6.7133997   -5.7432753  0.082718166   -6.7133997   0.97012433   520346 
 1989000    1.0483054   -6.7122953   -6.7122953   -5.7432475  0.069306952   -6.7122953    0.9690478   520346 
 1990000    1.0491314   -6.7148815   -6.7148815   -5.7450702  0.080148029   -6.7148815   0.96981131   520346 
 1991000    1.0501317   -6.7158401   -6.7158401    -5.745104  0.082576286   -6.7158401   0.97073603   520346 
 1992000    1.0493348   -6.7154476   -6.7154476   -5.7454483  0.053087309   -6.7154476   0.96999937   520346 
 1993000    1.0463995   -6.7124108   -6.7124108   -5.7451248   0.09243202   -6.7124108   0.96728597   520346 
 1994000    1.0482654   -6.7136221   -6.7136221   -5.7446112    0.0934934   -6.7136221   0.96901084   520346 
 1995000     1.048542     -6.71455     -6.71455   -5.7452836  0.065132148     -6.71455   0.96926646   520346 
 1996000    1.0462039    -6.713172    -6.713172   -5.7460668  0.081467115    -6.713172   0.96710516   520346 
 1997000    1.0487712   -6.7151142   -6.7151142   -5.7456359  0.074072732   -6.7151142   0.96947834   520346 
 1998000    1.0478743    -6.714797    -6.714797   -5.7461478  0.051439272    -6.714797   0.96864927   520346 
 1999000    1.0476689   -6.7153773   -6.7153773   -5.7469179  0.039481009   -6.7153773   0.96845937   520346 
 2000000    1.0487808   -6.7170337   -6.7170337   -5.7475465  0.062829017   -6.7170337   0.96948721   520346 
 2001000    1.0488329   -6.7168538   -6.7168538   -5.7473184  0.076560261   -6.7168538   0.96953542   520346 
 2002000    1.0485857    -6.716234    -6.716234   -5.7469271  0.061922808    -6.716234   0.96930693   520346 
 2003000    1.0491753   -6.7173776   -6.7173776   -5.7475256  0.090345115   -6.7173776   0.96985193   520346 
 2004000      1.04807   -6.7166709   -6.7166709   -5.7478407  0.059023463   -6.7166709   0.96883019   520346 
 2005000    1.0465413   -6.7150568   -6.7150568   -5.7476398  0.088864876   -6.7150568   0.96741702   520346 
 2006000    1.0495757   -6.7177732   -6.7177732   -5.7475511   0.05343144   -6.7177732   0.97022207   520346 
 2007000    1.0467904   -6.7151667   -6.7151667   -5.7475193  0.076680116   -6.7151667   0.96764735   520346 
 2008000    1.0488843    -6.717119    -6.717119   -5.7475361  0.094060743    -6.717119   0.96958293   520346 
 2009000    1.0492363   -6.7179549   -6.7179549   -5.7480466  0.079639245   -6.7179549   0.96990826   520346 
 2010000    1.0463191   -6.7160018   -6.7160018   -5.7487901  0.053642271   -6.7160018   0.96721171   520346 
 2011000    1.0501083   -6.7197642   -6.7197642   -5.7490498  0.086191694   -6.7197642   0.97071439   520346 
 2012000    1.0501251   -6.7197096   -6.7197096   -5.7489797   0.10106093   -6.7197096   0.97072994   520346 
 2013000    1.0475275   -6.7164799   -6.7164799   -5.7481512  0.059483911   -6.7164799   0.96832873   520346 
 2014000     1.047076   -6.7169118   -6.7169118   -5.7490005  0.070965228   -6.7169118   0.96791135   520346 
 2015000    1.0496582   -6.7196801   -6.7196801   -5.7493818  0.071009046   -6.7196801   0.97029827   520346 
 2016000    1.0497634   -6.7209463   -6.7209463   -5.7505508  0.055970143   -6.7209463   0.97039552   520346 
 2017000    1.0471068   -6.7181733   -6.7181733   -5.7502334   0.10341904   -6.7181733   0.96793982   520346 
 2018000    1.0485528   -6.7209306   -6.7209306   -5.7516541  0.085067037   -6.7209306   0.96927651   520346 
 2019000    1.0465563   -6.7194334   -6.7194334   -5.7520025  0.082420146   -6.7194334   0.96743095   520346 
 2020000    1.0443324     -6.71763     -6.71763   -5.7522549   0.10586248     -6.71763    0.9653752   520346 
 2021000    1.0467291   -6.7194508   -6.7194508   -5.7518602  0.070434462   -6.7194508   0.96759066   520346 
 2022000    1.0479354    -6.720638    -6.720638   -5.7519323  0.075325895    -6.720638   0.96870578   520346 
 2023000    1.0490353    -6.720865    -6.720865   -5.7511425  0.081615158    -6.720865    0.9697225   520346 
 2024000    1.0468789   -6.7188673   -6.7188673   -5.7511382   0.06704922   -6.7188673   0.96772911   520346 
 2025000    1.0470984   -6.7197582   -6.7197582   -5.7518263  0.074629441   -6.7197582     0.967932   520346 
 2026000    1.0444741   -6.7171887   -6.7171887   -5.7516825   0.09475354   -6.7171887   0.96550617   520346 
 2027000    1.0463164   -6.7200096   -6.7200096   -5.7528004  0.077613994   -6.7200096   0.96720918   520346 
 2028000    1.0486789   -6.7213141   -6.7213141    -5.751921   0.06126136   -6.7213141   0.96939302   520346 
 2029000    1.0499691   -6.7228585   -6.7228585   -5.7522727  0.072495909   -6.7228585   0.97058573   520346 
 2030000    1.0492186   -6.7225078   -6.7225078   -5.7526158  0.094030614   -6.7225078   0.96989198   520346 
 2031000    1.0472423   -6.7203191   -6.7203191   -5.7522541  0.065803586   -6.7203191   0.96806507   520346 
 2032000    1.0474983   -6.7217809   -6.7217809   -5.7534791  0.049693044   -6.7217809   0.96830174   520346 
 2033000    1.0482027   -6.7232393   -6.7232393   -5.7542865  0.043223139   -6.7232393   0.96895281   520346 
 2034000    1.0469694   -6.7219565   -6.7219565   -5.7541437  0.071746542   -6.7219565    0.9678128   520346 
 2035000    1.0479553   -6.7231842   -6.7231842     -5.75446  0.078988856   -6.7231842   0.96872418   520346 
 2036000    1.0481136   -6.7228984   -6.7228984   -5.7540279  0.064246921   -6.7228984   0.96887048   520346 
 2037000    1.0481459   -6.7227095   -6.7227095   -5.7538092   0.07286209   -6.7227095    0.9689003   520346 
 2038000    1.0481555    -6.723522    -6.723522   -5.7546128  0.072389247    -6.723522   0.96890924   520346 
 2039000    1.0476233   -6.7233398   -6.7233398   -5.7549226  0.068630215   -6.7233398   0.96841722   520346 
 2040000    1.0445925   -6.7212797   -6.7212797   -5.7556641  0.081750891   -6.7212797   0.96561558   520346 
 2041000    1.0470753   -6.7231902   -6.7231902   -5.7552795  0.082485297   -6.7231902   0.96791065   520346 
 2042000    1.0458508   -6.7222926   -6.7222926   -5.7555139  0.068133216   -6.7222926   0.96677873   520346 
 2043000    1.0467816   -6.7231611   -6.7231611   -5.7555219  0.065649366   -6.7231611   0.96763922   520346 
 2044000    1.0438974   -6.7208598   -6.7208598   -5.7558868   0.10878535   -6.7208598   0.96497305   520346 
 2045000    1.0463201    -6.723189    -6.723189   -5.7559764  0.045083381    -6.723189   0.96721262   520346 
 2046000    1.0470417   -6.7241929   -6.7241929   -5.7563133  0.071008846   -6.7241929   0.96787967   520346 
 2047000    1.0457499   -6.7236893   -6.7236893   -5.7570038  0.081362349   -6.7236893   0.96668547   520346 
 2048000     1.046194   -6.7238138   -6.7238138   -5.7567178  0.077806601   -6.7238138   0.96709602   520346 
 2049000    1.0476907   -6.7250843   -6.7250843   -5.7566048  0.067489404   -6.7250843   0.96847953   520346 
 2050000    1.0466275     -6.72451     -6.72451   -5.7570132  0.045168421     -6.72451   0.96749677   520346 
 2051000    1.0450671   -6.7230671   -6.7230671   -5.7570128  0.077403716   -6.7230671   0.96605436   520346 
 2052000    1.0459108   -6.7247821   -6.7247821   -5.7579479  0.089141836   -6.7247821   0.96683419   520346 
 2053000    1.0436805   -6.7227257   -6.7227257   -5.7579532  0.085449243   -6.7227257   0.96477252   520346 
 2054000    1.0469107   -6.7261932   -6.7261932   -5.7584347  0.061131487   -6.7261932   0.96775852   520346 
 2055000    1.0459829   -6.7247098   -6.7247098   -5.7578089  0.034421242   -6.7247098   0.96690091   520346 
 2056000    1.0467872   -6.7266125   -6.7266125   -5.7589681  0.084368154   -6.7266125    0.9676444   520346 
 2057000    1.0473603   -6.7272225   -6.7272225   -5.7590484  0.091598952   -6.7272225   0.96817416   520346 
 2058000    1.0449489   -6.7253054   -6.7253054   -5.7593604  0.097297489   -6.7253054   0.96594501   520346 
 2059000     1.046862   -6.7276537   -6.7276537   -5.7599402  0.070523551   -6.7276537    0.9677135   520346 
 2060000    1.0453816   -6.7268185   -6.7268185   -5.7604734  0.086205958   -6.7268185   0.96634503   520346 
 2061000    1.0428583   -6.7241572   -6.7241572   -5.7601447  0.052773474   -6.7241572   0.96401251   520346 
 2062000    1.0474547   -6.7292016   -6.7292016   -5.7609402  0.064872201   -6.7292016   0.96826144   520346 
 2063000    1.0467341   -6.7274624   -6.7274624   -5.7598671  0.057928199   -6.7274624   0.96759528   520346 
 2064000    1.0464159     -6.72778     -6.72778   -5.7604788  0.044274763     -6.72778   0.96730114   520346 
 2065000    1.0453162   -6.7274166   -6.7274166    -5.761132  0.081189912   -6.7274166   0.96628461   520346 
 2066000    1.0456533   -6.7279034   -6.7279034   -5.7613072  0.061085526   -6.7279034    0.9665962   520346 
 2067000    1.0456023   -6.7280787   -6.7280787   -5.7615297   0.06952581   -6.7280787   0.96654903   520346 
 2068000    1.0441278   -6.7273619   -6.7273619   -5.7621759   0.08878989   -6.7273619   0.96518601   520346 
 2069000    1.0449258   -6.7286939   -6.7286939   -5.7627702  0.075444832   -6.7286939   0.96592366   520346 
 2070000    1.0446504   -6.7290328   -6.7290328   -5.7633636  0.066914551   -6.7290328   0.96566912   520346 
 2071000    1.0449483   -6.7283391   -6.7283391   -5.7623946   0.06561451   -6.7283391   0.96594454   520346 
 2072000    1.0451275   -6.7294917   -6.7294917   -5.7633815   0.10113336   -6.7294917   0.96611017   520346 
 2073000     1.044777   -6.7291585   -6.7291585   -5.7633723  0.095549062   -6.7291585   0.96578618   520346 
 2074000     1.043756   -6.7281454   -6.7281454   -5.7633031  0.077650173   -6.7281454   0.96484235   520346 
 2075000    1.0445533   -6.7288124   -6.7288124   -5.7632331  0.066877275   -6.7288124   0.96557938   520346 
 2076000    1.0451264    -6.729959    -6.729959   -5.7638499   0.06579314    -6.729959   0.96610914   520346 
 2077000    1.0423153   -6.7275527   -6.7275527   -5.7640421  0.076478156   -6.7275527   0.96351059   520346 
 2078000    1.0450968   -6.7300048   -6.7300048    -5.763923  0.035330789   -6.7300048   0.96608177   520346 
 2079000     1.044089   -6.7290517   -6.7290517   -5.7639016  0.057010493   -6.7290517   0.96515014   520346 
 2080000    1.0424355   -6.7278551   -6.7278551   -5.7642334  0.081959773   -6.7278551   0.96362164   520346 
 2081000    1.0420852   -6.7270622   -6.7270622   -5.7637643  0.081956716   -6.7270622   0.96329789   520346 
 2082000    1.0451919    -6.730136    -6.730136   -5.7639663  0.071085985    -6.730136   0.96616967   520346 
 2083000    1.0429366   -6.7278929   -6.7278929   -5.7638081  0.074507592   -6.7278929   0.96408486   520346 
 2084000    1.0455352   -6.7304464   -6.7304464   -5.7639594  0.075830259   -6.7304464   0.96648705   520346 
 2085000    1.0446424   -6.7301261   -6.7301261   -5.7644644  0.065143134   -6.7301261   0.96566177   520346 
 2086000     1.045605   -6.7305473   -6.7305473   -5.7639958  0.067083155   -6.7305473   0.96655152   520346 
 2087000    1.0447455   -6.7305358   -6.7305358   -5.7647788   0.07257481   -6.7305358     0.965757   520346 
 2088000     1.044964   -6.7302064   -6.7302064   -5.7642474  0.094291453   -6.7302064   0.96595898   520346 
 2089000    1.0449827   -6.7311795   -6.7311795   -5.7652032  0.079761704   -6.7311795   0.96597629   520346 
 2090000     1.046599   -6.7334421   -6.7334421   -5.7659716  0.053038708   -6.7334421   0.96747044   520346 
 2091000    1.0426091   -6.7303273   -6.7303273   -5.7665452  0.072175996   -6.7303273   0.96378217   520346 
 2092000    1.0444125   -6.7321303   -6.7321303   -5.7666811  0.062763324   -6.7321303   0.96544918   520346 
 2093000     1.045079   -6.7327025   -6.7327025   -5.7666372  0.084489264   -6.7327025    0.9660653   520346 
 2094000    1.0422821   -6.7298402   -6.7298402   -5.7663603   0.03381684   -6.7298402   0.96347992   520346 
 2095000    1.0442111   -6.7317745   -6.7317745   -5.7665115  0.063860248   -6.7317745     0.965263   520346 
 2096000    1.0467511   -6.7332542   -6.7332542   -5.7656432  0.081827603   -6.7332542   0.96761103   520346 
 2097000    1.0446225   -6.7314275   -6.7314275   -5.7657842  0.092523371   -6.7314275   0.96564335   520346 
 2098000    1.0425339   -6.7294779   -6.7294779   -5.7657652  0.034083584   -6.7294779   0.96371267   520346 
 2099000    1.0440138    -6.731707    -6.731707   -5.7666263  0.091400981    -6.731707   0.96508069   520346 
 2100000      1.04514    -6.733138    -6.733138   -5.7670163  0.068372068    -6.733138   0.96612169   520346 
 2101000    1.0462014   -6.7344089   -6.7344089   -5.7673061  0.071547409   -6.7344089   0.96710289   520346 
 2102000    1.0453046    -6.733367    -6.733367   -5.7670931  0.067846668    -6.733367   0.96627386   520346 
 2103000    1.0439068   -6.7326794   -6.7326794   -5.7676977  0.071511815   -6.7326794   0.96498171   520346 
 2104000    1.0446408   -6.7335416   -6.7335416   -5.7678813  0.091968855   -6.7335416   0.96566029   520346 
 2105000    1.0430685   -6.7325802   -6.7325802   -5.7683734  0.085327594   -6.7325802   0.96420683   520346 
 2106000    1.0453549   -6.7337447   -6.7337447   -5.7674243   0.09411479   -6.7337447   0.96632034   520346 
 2107000    1.0450429   -6.7346303   -6.7346303   -5.7685983  0.056374499   -6.7346303   0.96603198   520346 
 2108000    1.0455884   -6.7351477   -6.7351477   -5.7686115  0.099976406   -6.7351477   0.96653625   520346 
 2109000    1.0444919   -6.7342638   -6.7342638   -5.7687412  0.077517668   -6.7342638   0.96552256   520346 
 2110000    1.0437008   -6.7329418   -6.7329418   -5.7681505  0.060255627   -6.7329418   0.96479133   520346 
 2111000    1.0440719    -6.733299    -6.733299   -5.7681647  0.054556528    -6.733299   0.96513435   520346 
 2112000    1.0445827   -6.7342764   -6.7342764   -5.7686699  0.041137199   -6.7342764   0.96560651   520346 
 2113000    1.0437814   -6.7345503   -6.7345503   -5.7696844  0.067728168   -6.7345503   0.96486587   520346 
 2114000    1.0460506   -6.7363563   -6.7363563   -5.7693928  0.053102203   -6.7363563   0.96696343   520346 
 2115000    1.0427147   -6.7338177   -6.7338177    -5.769938  0.082268286   -6.7338177   0.96387973   520346 
 2116000    1.0433216   -6.7342557   -6.7342557   -5.7698149  0.068209465   -6.7342557   0.96444082   520346 
 2117000    1.0424768   -6.7342383   -6.7342383   -5.7705784  0.075739933   -6.7342383   0.96365989   520346 
 2118000    1.0428285   -6.7347049   -6.7347049     -5.77072    0.0577738   -6.7347049   0.96398499   520346 
 2119000    1.0439409   -6.7355343   -6.7355343    -5.770521   0.05843148   -6.7355343    0.9650133   520346 
 2120000     1.043816   -6.7361159   -6.7361159   -5.7712182  0.048228629   -6.7361159   0.96489777   520346 
 2121000     1.043677   -6.7356643   -6.7356643    -5.770895  0.054739689   -6.7356643   0.96476936   520346 
 2122000    1.0447272   -6.7368633   -6.7368633   -5.7711232  0.095788031   -6.7368633   0.96574008   520346 
 2123000    1.0420703   -6.7349644   -6.7349644   -5.7716803  0.063236301   -6.7349644   0.96328412   520346 
 2124000    1.0447273   -6.7377063   -6.7377063   -5.7719661  0.073459099   -6.7377063   0.96574021   520346 
 2125000    1.0420967   -6.7350602   -6.7350602   -5.7717516  0.063548495   -6.7350602   0.96330853   520346 
 2126000     1.044239   -6.7374828   -6.7374828    -5.772194  0.076730099   -6.7374828   0.96528881   520346 
 2127000    1.0442466    -6.737431    -6.737431   -5.7721352  0.092409005    -6.737431   0.96529581   520346 
 2128000    1.0434084   -6.7365038   -6.7365038   -5.7719827  0.080266033   -6.7365038   0.96452105   520346 
 2129000    1.0409729   -6.7349987   -6.7349987   -5.7727291  0.079612554   -6.7349987   0.96226965   520346 
 2130000    1.0441065     -6.74006     -6.74006   -5.7748936  0.067719497     -6.74006   0.96516639   520346 
 2131000    1.0433915   -6.7383925   -6.7383925   -5.7738871   0.06968882   -6.7383925   0.96450538   520346 
 2132000    1.0408515   -6.7356008   -6.7356008   -5.7734434  0.071098055   -6.7356008   0.96215743   520346 
 2133000    1.0425823   -6.7377808   -6.7377808   -5.7740235  0.075032711   -6.7377808   0.96375736   520346 
 2134000    1.0425815   -6.7375831   -6.7375831   -5.7738265  0.075568532   -6.7375831   0.96375667   520346 
 2135000     1.044549   -6.7391932   -6.7391932   -5.7736178  0.091746419   -6.7391932   0.96557537   520346 
 2136000    1.0417659    -6.737125    -6.737125   -5.7741223  0.042231564    -6.737125   0.96300268   520346 
 2137000    1.0448787   -6.7393111   -6.7393111   -5.7734309  0.077080456   -6.7393111    0.9658802   520346 
 2138000    1.0430014   -6.7386492   -6.7386492   -5.7745044  0.074184211   -6.7386492   0.96414479   520346 
 2139000    1.0423683    -6.738042    -6.738042   -5.7744824  0.095487582    -6.738042   0.96355961   520346 
 2140000    1.0424395   -6.7379489   -6.7379489   -5.7743235  0.063611829   -6.7379489   0.96362538   520346 
 2141000     1.041781   -6.7381665   -6.7381665   -5.7751498  0.060746519   -6.7381665   0.96301667   520346 
 2142000    1.0420101   -6.7377224   -6.7377224   -5.7744939  0.066180118   -6.7377224   0.96322842   520346 
 2143000    1.0428808   -6.7383525   -6.7383525   -5.7743192  0.069757817   -6.7383525   0.96403329   520346 
 2144000    1.0422088   -6.7371835   -6.7371835   -5.7737714  0.079764407   -6.7371835   0.96341215   520346 
 2145000    1.0440217    -6.738175    -6.738175    -5.773087  0.066382534    -6.738175   0.96508799   520346 
 2146000    1.0434138   -6.7378973   -6.7378973   -5.7733713   0.07843661   -6.7378973     0.964526   520346 
 2147000    1.0434768   -6.7383119   -6.7383119   -5.7737277  0.066651382   -6.7383119   0.96458428   520346 
 2148000    1.0447223   -6.7399263   -6.7399263   -5.7741907   0.11014419   -6.7399263   0.96573557   520346 
 2149000    1.0455531   -6.7412924   -6.7412924   -5.7747888  0.065069413   -6.7412924   0.96650356   520346 
 2150000    1.0425961   -6.7390755   -6.7390755   -5.7753054  0.075062768   -6.7390755   0.96377014   520346 
 2151000    1.0434146   -6.7405269   -6.7405269   -5.7760002  0.066115021   -6.7405269   0.96452678   520346 
 2152000    1.0433168   -6.7407569   -6.7407569   -5.7763205  0.068242247   -6.7407569   0.96443639   520346 
 2153000    1.0422431   -6.7394165   -6.7394165   -5.7759727  0.062614036   -6.7394165   0.96344379   520346 
 2154000    1.0436242   -6.7396912   -6.7396912   -5.7749706  0.081105162   -6.7396912   0.96472053   520346 
 2155000    1.0438347   -6.7405032   -6.7405032   -5.7755881  0.076863556   -6.7405032    0.9649151   520346 
 2156000    1.0441509    -6.741273    -6.741273   -5.7760656  0.054050243    -6.741273   0.96520737   520346 
 2157000    1.0437159    -6.740772    -6.740772   -5.7759667  0.079152202    -6.740772    0.9648053   520346 
 2158000    1.0414025   -6.7379548   -6.7379548    -5.775288  0.056340076   -6.7379548   0.96266682   520346 
 2159000    1.0447739   -6.7414186   -6.7414186   -5.7756353  0.091693324   -6.7414186   0.96578328   520346 
 2160000    1.0440089   -6.7406243   -6.7406243   -5.7755481  0.049992995   -6.7406243   0.96507616   520346 
 2161000    1.0439223   -6.7415307   -6.7415307   -5.7765346  0.090049069   -6.7415307   0.96499611   520346 
 2162000    1.0431509   -6.7411824   -6.7411824   -5.7768994  0.069643243   -6.7411824   0.96428296   520346 
 2163000    1.0431421   -6.7413287   -6.7413287   -5.7770538  0.046654554   -6.7413287    0.9642749   520346 
 2164000    1.0431108   -6.7408763   -6.7408763   -5.7766304  0.079058337   -6.7408763   0.96424589   520346 
 2165000    1.0433268   -6.7413984   -6.7413984   -5.7769528  0.072447436   -6.7413984   0.96444556   520346 
 2166000    1.0439405   -6.7421861   -6.7421861   -5.7771732   0.06232003   -6.7421861   0.96501288   520346 
 2167000    1.0449821   -6.7433469   -6.7433469   -5.7773712  0.070029321   -6.7433469   0.96597573   520346 
 2168000    1.0454971   -6.7446501   -6.7446501   -5.7781983  0.067422644   -6.7446501   0.96645181   520346 
 2169000    1.0430405   -6.7430693   -6.7430693   -5.7788883  0.073915552   -6.7430693   0.96418098   520346 
 2170000    1.0430092   -6.7434715   -6.7434715   -5.7793195  0.080268732   -6.7434715   0.96415199   520346 
 2171000    1.0407178   -6.7420973   -6.7420973   -5.7800634  0.063597965   -6.7420973   0.96203389   520346 
 2172000    1.0412251   -6.7419865   -6.7419865   -5.7794836  0.079302868   -6.7419865   0.96250284   520346 
 2173000    1.0432889   -6.7434795   -6.7434795    -5.779069  0.070199609   -6.7434795   0.96441057   520346 
 2174000    1.0429582   -6.7436224   -6.7436224   -5.7795175  0.050486571   -6.7436224   0.96410488   520346 
 2175000    1.0422753   -6.7435605   -6.7435605   -5.7800869  0.061099937   -6.7435605   0.96347363   520346 
 2176000    1.0418101   -6.7440812   -6.7440812   -5.7810376  0.061585972   -6.7440812   0.96304356   520346 
 2177000    1.0465194   -6.7478452   -6.7478452   -5.7804484     0.082097   -6.7478452   0.96739681   520346 
 2178000    1.0417275   -6.7429678   -6.7429678   -5.7800006  0.082870906   -6.7429678    0.9629672   520346 
 2179000    1.0434061   -6.7448048   -6.7448048   -5.7802859    0.1013239   -6.7448048   0.96451894   520346 
 2180000     1.042416   -6.7439474   -6.7439474   -5.7803438  0.065118255   -6.7439474   0.96360362   520346 
 2181000    1.0408878   -6.7416332   -6.7416332   -5.7794422   0.08592055   -6.7416332   0.96219098   520346 
 2182000     1.042463   -6.7432764   -6.7432764   -5.7796293  0.083820743   -6.7432764    0.9636471   520346 
 2183000    1.0423108   -6.7446486   -6.7446486   -5.7811422   0.04795542   -6.7446486   0.96350642   520346 
 2184000    1.0430932    -6.745993    -6.745993   -5.7817634  0.085003342    -6.745993   0.96422965   520346 
 2185000    1.0410115   -6.7436796   -6.7436796   -5.7813742  0.065130273   -6.7436796   0.96230538   520346 
 2186000    1.0411902   -6.7446566   -6.7446566   -5.7821861  0.060597398   -6.7446566   0.96247054   520346 
 2187000    1.0420101   -6.7436298   -6.7436298   -5.7804013  0.078773813   -6.7436298   0.96322849   520346 
 2188000    1.0424854   -6.7435483   -6.7435483   -5.7798805  0.042709515   -6.7435483   0.96366779   520346 
 2189000    1.0428433   -6.7442616   -6.7442616   -5.7802629  0.069960915   -6.7442616   0.96399862   520346 
 2190000    1.0403627   -6.7430123   -6.7430123   -5.7813067   0.11581777   -6.7430123   0.96170555   520346 
 2191000    1.0437773   -6.7462624   -6.7462624   -5.7814004  0.084448751   -6.7462624   0.96486201   520346 
 2192000    1.0424422   -6.7460936   -6.7460936   -5.7824657  0.063893142   -6.7460936   0.96362787   520346 
 2193000    1.0440467   -6.7477252   -6.7477252   -5.7826141  0.098895459   -6.7477252   0.96511107   520346 
 2194000     1.042215   -6.7458442   -6.7458442   -5.7824264  0.066140381   -6.7458442   0.96341785   520346 
 2195000    1.0416893   -6.7452585   -6.7452585   -5.7823266  0.066369977   -6.7452585   0.96293189   520346 
 2196000    1.0418489   -6.7463986   -6.7463986   -5.7833192  0.047435277   -6.7463986   0.96307941   520346 
 2197000    1.0426661   -6.7480734   -6.7480734   -5.7842385  0.047701504   -6.7480734   0.96383489   520346 
 2198000    1.0418226   -6.7469212   -6.7469212   -5.7838661  0.083537898   -6.7469212   0.96305509   520346 
 2199000    1.0427803   -6.7484253   -6.7484253   -5.7844849  0.072862201   -6.7484253   0.96394039   520346 
 2200000    1.0413027   -6.7474169   -6.7474169   -5.7848424  0.074289079   -6.7474169   0.96257451   520346 
 2201000    1.0418837   -6.7478395   -6.7478395   -5.7847279  0.086575257   -6.7478395    0.9631116   520346 
 2202000    1.0427953   -6.7486044   -6.7486044   -5.7846502  0.042284942   -6.7486044   0.96395426   520346 
 2203000    1.0418489    -6.747442    -6.747442   -5.7843626  0.071466375    -6.747442   0.96307943   520346 
 2204000    1.0409058   -6.7464883   -6.7464883   -5.7842806  0.066397401   -6.7464883   0.96220767   520346 
 2205000    1.0423251   -6.7476504   -6.7476504   -5.7841307  0.066549446   -6.7476504   0.96351964   520346 
 2206000    1.0409083   -6.7461541   -6.7461541   -5.7839442  0.059449482   -6.7461541   0.96220994   520346 
 2207000    1.0422181   -6.7488307   -6.7488307     -5.78541  0.090389029   -6.7488307    0.9634207   520346 
 2208000    1.0426009   -6.7481907   -6.7481907   -5.7844162  0.059261879   -6.7481907   0.96377456   520346 
 2209000    1.0424326   -6.7481992   -6.7481992   -5.7845802  0.087327456   -6.7481992   0.96361901   520346 
 2210000    1.0406426   -6.7466729   -6.7466729   -5.7847086  0.089596569   -6.7466729   0.96196434   520346 
 2211000    1.0394312   -6.7450929   -6.7450929   -5.7842483  0.066928632   -6.7450929   0.96084453   520346 
 2212000    1.0417245   -6.7480246   -6.7480246   -5.7850602  0.072833843   -6.7480246   0.96296448   520346 
 2213000    1.0413451   -6.7481373   -6.7481373   -5.7855236  0.069275496   -6.7481373   0.96261368   520346 
 2214000    1.0407393   -6.7477743   -6.7477743   -5.7857206  0.086244766   -6.7477743   0.96205368   520346 
 2215000    1.0411603   -6.7482193   -6.7482193   -5.7857765   0.09254961   -6.7482193   0.96244286   520346 
 2216000    1.0412627   -6.7482983   -6.7482983   -5.7857607  0.088742044   -6.7482983   0.96253751   520346 
 2217000    1.0424451   -6.7494378   -6.7494378   -5.7858072  0.076151537   -6.7494378   0.96363058   520346 
 2218000    1.0400751   -6.7482875   -6.7482875   -5.7868478     0.059711   -6.7482875    0.9614397   520346 
 2219000    1.0430073   -6.7512184   -6.7512184   -5.7870681  0.063191752   -6.7512184   0.96415025   520346 
 2220000    1.0441041    -6.751864    -6.751864   -5.7866999  0.073070351    -6.751864   0.96516414   520346 
 2221000    1.0424037   -6.7508267   -6.7508267   -5.7872345  0.089698237   -6.7508267   0.96359226   520346 
 2222000    1.0425154    -6.752092    -6.752092   -5.7883965   0.10542182    -6.752092    0.9636955   520346 
 2223000    1.0407668   -6.7506603   -6.7506603   -5.7885812  0.056118406   -6.7506603   0.96207917   520346 
 2224000    1.0416389   -6.7516397   -6.7516397   -5.7887544  0.071020869   -6.7516397   0.96288532   520346 
 2225000    1.0412402   -6.7517336   -6.7517336   -5.7892169  0.065442906   -6.7517336   0.96251672   520346 
 2226000    1.0406205   -6.7506523   -6.7506523   -5.7887084  0.053856144   -6.7506523   0.96194389   520346 
 2227000    1.0392846   -6.7486026   -6.7486026   -5.7878936  0.065684478   -6.7486026   0.96070899   520346 
 2228000    1.0396839   -6.7505428   -6.7505428   -5.7894647  0.070177119   -6.7505428   0.96107812   520346 
 2229000    1.0425796   -6.7531432   -6.7531432   -5.7893883  0.074040163   -6.7531432   0.96375488   520346 
 2230000    1.0412234   -6.7518096   -6.7518096   -5.7893084  0.070924431   -6.7518096   0.96250125   520346 
 2231000    1.0408313   -6.7527603   -6.7527603   -5.7906215  0.067781803   -6.7527603   0.96213881   520346 
 2232000    1.0424854   -6.7537639   -6.7537639   -5.7900961  0.053619053   -6.7537639   0.96366783   520346 
 2233000    1.0390285    -6.751046    -6.751046   -5.7905738  0.075517566    -6.751046   0.96047225   520346 
 2234000    1.0416803   -6.7541516   -6.7541516   -5.7912281  0.070272113   -6.7541516   0.96292355   520346 
 2235000    1.0410748   -6.7529237   -6.7529237   -5.7905599  0.074834464   -6.7529237   0.96236384   520346 
 2236000     1.041054   -6.7533178   -6.7533178   -5.7909731  0.088036207   -6.7533178   0.96234467   520346 
 2237000     1.039589   -6.7523722   -6.7523722   -5.7913818  0.078623684   -6.7523722   0.96099042   520346 
 2238000    1.0400539   -6.7529214   -6.7529214   -5.7915013   0.08363605   -6.7529214   0.96142018   520346 
 2239000    1.0390784    -6.753266    -6.753266   -5.7927475  0.054787283    -6.753266   0.96051843   520346 
 2240000    1.0404079   -6.7537494   -6.7537494   -5.7920021  0.050080771   -6.7537494   0.96174738   520346 
 2241000    1.0408059   -6.7543821   -6.7543821   -5.7922668  0.067677375   -6.7543821   0.96211525   520346 
 2242000    1.0399736   -6.7541125   -6.7541125   -5.7927666  0.065933316   -6.7541125   0.96134591   520346 
 2243000    1.0396833   -6.7540428   -6.7540428   -5.7929652  0.070890554   -6.7540428   0.96107761   520346 
 2244000    1.0388359   -6.7540888   -6.7540888   -5.7937945  0.079535171   -6.7540888   0.96029426   520346 
 2245000    1.0380461   -6.7530015   -6.7530015   -5.7934373  0.076369612   -6.7530015   0.95956411   520346 
 2246000    1.0390481    -6.754587    -6.754587   -5.7940966  0.080063228    -6.754587   0.96049041   520346 
 2247000    1.0405378   -6.7547009   -6.7547009   -5.7928334  0.080220006   -6.7547009   0.96186747   520346 
 2248000    1.0415077   -6.7560514   -6.7560514   -5.7932874  0.090148219   -6.7560514   0.96276404   520346 
 2249000    1.0398841   -6.7555102   -6.7555102    -5.794247  0.085402904   -6.7555102   0.96126319   520346 
 2250000    1.0374962   -6.7539565   -6.7539565   -5.7949006  0.055928468   -6.7539565   0.95905585   520346 
 2251000    1.0376014   -6.7534672   -6.7534672   -5.7943142  0.071582728   -6.7534672   0.95915304   520346 
 2252000    1.0404417   -6.7568543   -6.7568543   -5.7950757  0.077017679   -6.7568543    0.9617786   520346 
 2253000    1.0424428    -6.758472    -6.758472   -5.7948435   0.11406294    -6.758472   0.96362847   520346 
 2254000    1.0397755   -6.7553882   -6.7553882   -5.7942254  0.074572063   -6.7553882   0.96116275   520346 
 2255000    1.0399465   -6.7565546   -6.7565546   -5.7952337  0.084277095   -6.7565546   0.96132082   520346 
 2256000    1.0383685   -6.7555473   -6.7555473   -5.7956852  0.057554993   -6.7555473   0.95986214   520346 
 2257000    1.0382866   -6.7553613   -6.7553613   -5.7955749  0.070660947   -6.7553613   0.95978649   520346 
 2258000    1.0395403   -6.7569345   -6.7569345    -5.795989  0.069819259   -6.7569345   0.96094541   520346 
 2259000    1.0374617   -6.7542211   -6.7542211   -5.7951972  0.068169416   -6.7542211   0.95902391   520346 
 2260000    1.0400274   -6.7569446   -6.7569446    -5.795549   0.10265979   -6.7569446   0.96139562   520346 
 2261000    1.0389081   -6.7567402   -6.7567402   -5.7963792  0.064274534   -6.7567402     0.960361   520346 
 2262000    1.0415479   -6.7575181   -6.7575181   -5.7947169  0.076636345   -6.7575181   0.96280115   520346 
 2263000    1.0403962   -6.7566883   -6.7566883   -5.7949518  0.077456622   -6.7566883   0.96173653   520346 
 2264000      1.03817   -6.7544634   -6.7544634   -5.7947848   0.11013812   -6.7544634   0.95967864   520346 
 2265000    1.0399975   -6.7560721   -6.7560721    -5.794704  0.069183871   -6.7560721   0.96136805   520346 
 2266000    1.0397016    -6.756218    -6.756218   -5.7951235  0.061265363    -6.756218   0.96109447   520346 
 2267000    1.0393694   -6.7558988   -6.7558988   -5.7951114  0.057072063   -6.7558988   0.96078744   520346 
 2268000    1.0391921    -6.755943    -6.755943   -5.7953195  0.096487296    -6.755943   0.96062347   520346 
 2269000    1.0390426   -6.7561812   -6.7561812   -5.7956959  0.054584258   -6.7561812   0.96048529   520346 
 2270000    1.0400125   -6.7580554   -6.7580554   -5.7966735  0.063358774   -6.7580554   0.96138186   520346 
 2271000    1.0388515   -6.7584036   -6.7584036   -5.7980949  0.057970339   -6.7584036   0.96030868   520346 
 2272000    1.0392083   -6.7584326   -6.7584326   -5.7977941  0.049949811   -6.7584326   0.96063848   520346 
 2273000    1.0398402    -6.758924    -6.758924   -5.7977014  0.071386834    -6.758924   0.96122258   520346 
 2274000    1.0392592   -6.7600155   -6.7600155   -5.7993299  0.061204147   -6.7600155   0.96068556   520346 
 2275000    1.0386424   -6.7603562   -6.7603562   -5.8002408  0.082512997   -6.7603562   0.96011538   520346 
 2276000    1.0382601   -6.7594631   -6.7594631   -5.7997011  0.083667979   -6.7594631     0.959762   520346 
 2277000    1.0378733   -6.7592049   -6.7592049   -5.7998005   0.05055394   -6.7592049   0.95940438   520346 
 2278000     1.038133   -6.7590128   -6.7590128   -5.7993683  0.064299373   -6.7590128   0.95964448   520346 
 2279000    1.0397216   -6.7608565   -6.7608565   -5.7997436   0.06791357   -6.7608565   0.96111296   520346 
 2280000    1.0388239    -6.759756    -6.759756   -5.7994729  0.067325817    -6.759756   0.96028315   520346 
 2281000    1.0387183   -6.7601957   -6.7601957   -5.8000102   0.05707115   -6.7601957   0.96018553   520346 
 2282000     1.041236   -6.7617766   -6.7617766   -5.7992637  0.062944455   -6.7617766    0.9625129   520346 
 2283000    1.0422817   -6.7630944   -6.7630944   -5.7996149  0.086494291   -6.7630944   0.96347948   520346 
 2284000     1.041294   -6.7621466   -6.7621466   -5.7995801  0.080038108   -6.7621466   0.96256651   520346 
 2285000    1.0388346   -6.7600709   -6.7600709    -5.799778  0.089388504   -6.7600709   0.96029299   520346 
 2286000    1.0382518   -6.7596349   -6.7596349   -5.7998806  0.046463652   -6.7596349    0.9597543   520346 
 2287000     1.039866   -6.7618321   -6.7618321   -5.8005856   0.07124124   -6.7618321   0.96124648   520346 
 2288000    1.0389501   -6.7605128   -6.7605128    -5.800113   0.06948605   -6.7605128    0.9603998   520346 
 2289000    1.0391807   -6.7617719   -6.7617719    -5.801159  0.073483345   -6.7617719   0.96061293   520346 
 2290000     1.037259   -6.7595935   -6.7595935   -5.8007569  0.066724747   -6.7595935   0.95883656   520346 
 2291000     1.038106   -6.7613404   -6.7613404   -5.8017208  0.056437624   -6.7613404   0.95961953   520346 
 2292000    1.0389261    -6.761983    -6.761983   -5.8016053   0.05933518    -6.761983   0.96037765   520346 
 2293000    1.0371566   -6.7608501   -6.7608501   -5.8021082  0.088757848   -6.7608501   0.95874186   520346 
 2294000    1.0369152   -6.7609615   -6.7609615   -5.8024428  0.081120657   -6.7609615   0.95851876   520346 
 2295000    1.0339042   -6.7578743   -6.7578743   -5.8021389  0.077361762   -6.7578743   0.95573537   520346 
 2296000    1.0389018   -6.7626458   -6.7626458   -5.8022906  0.068655051   -6.7626458   0.96035512   520346 
 2297000    1.0350752   -6.7592145   -6.7592145   -5.8023966  0.093643381   -6.7592145   0.95681786   520346 
 2298000    1.0369748   -6.7620922   -6.7620922   -5.8035183  0.075150959   -6.7620922   0.95857382   520346 
 2299000     1.038234   -6.7625999   -6.7625999    -5.802862  0.087306948   -6.7625999   0.95973787   520346 
 2300000    1.0386232   -6.7628381   -6.7628381   -5.8027405  0.082338442   -6.7628381   0.96009762   520346 
 2301000    1.0376656   -6.7617065   -6.7617065   -5.8024941  0.082178474   -6.7617065   0.95921242   520346 
 2302000     1.039017   -6.7643965   -6.7643965   -5.8039348  0.088198528   -6.7643965   0.96046168   520346 
 2303000     1.037138   -6.7624727   -6.7624727   -5.8037481  0.078108478   -6.7624727   0.95872467   520346 
 2304000    1.0349092   -6.7611105   -6.7611105   -5.8044461  0.055696936   -6.7611105   0.95666441   520346 
 2305000    1.0364907   -6.7632916   -6.7632916   -5.8051652  0.068487065   -6.7632916   0.95812634   520346 
 2306000    1.0371359   -6.7645026   -6.7645026   -5.8057798   0.06959303   -6.7645026   0.95872275   520346 
 2307000    1.0367008   -6.7635602   -6.7635602   -5.8052396  0.051587735   -6.7635602   0.95832055   520346 
 2308000    1.0378534   -6.7632968   -6.7632968   -5.8039108  0.084970712   -6.7632968   0.95938601   520346 
 2309000     1.038482    -6.764767    -6.764767   -5.8047999  0.084993721    -6.764767   0.95996713   520346 
 2310000    1.0392156   -6.7646718   -6.7646718   -5.8040266  0.081614391   -6.7646718   0.96064521   520346 
 2311000    1.0364562   -6.7621257   -6.7621257   -5.8040312  0.060455955   -6.7621257   0.95809447   520346 
 2312000    1.0353004   -6.7609621   -6.7609621    -5.803936  0.068494026   -6.7609621   0.95702605   520346 
 2313000    1.0365659   -6.7630137   -6.7630137   -5.8048179  0.085695632   -6.7630137   0.95819584   520346 
 2314000    1.0350442   -6.7627031   -6.7627031   -5.8059139  0.078518121   -6.7627031    0.9567892   520346 
 2315000    1.0378453   -6.7659669   -6.7659669   -5.8065883  0.059543523   -6.7659669   0.95937856   520346 
 2316000    1.0362745   -6.7640835   -6.7640835    -5.806157  0.073964517   -6.7640835   0.95792649   520346 
 2317000    1.0367867   -6.7637887   -6.7637887   -5.8053887  0.068352999   -6.7637887   0.95839997   520346 
 2318000    1.0372018   -6.7641776   -6.7641776    -5.805394  0.077526906   -6.7641776   0.95878366   520346 
 2319000    1.0339155   -6.7609637   -6.7609637   -5.8052178  0.030067874   -6.7609637   0.95574587   520346 
 2320000    1.0338361   -6.7614851   -6.7614851   -5.8058127  0.075204914   -6.7614851   0.95567243   520346 
 2321000    1.0356092   -6.7633206   -6.7633206   -5.8060092  0.040634655   -6.7633206   0.95731146   520346 
 2322000    1.0360295   -6.7638164   -6.7638164   -5.8061164  0.084509324   -6.7638164       0.9577   520346 
 2323000    1.0376029    -6.765366    -6.765366   -5.8062116  0.067737415    -6.765366   0.95915443   520346 
 2324000    1.0386689   -6.7667462   -6.7667462   -5.8066063  0.083862417   -6.7667462   0.96013989   520346 
 2325000    1.0361461    -6.765425    -6.765425   -5.8076172   0.06125982    -6.765425   0.95780784   520346 
 2326000    1.0356511   -6.7646652   -6.7646652    -5.807315   0.10466973   -6.7646652   0.95735021   520346 
 2327000    1.0363346   -6.7661507   -6.7661507   -5.8081686  0.038796501   -6.7661507   0.95798204   520346 
 2328000    1.0363744    -6.766433    -6.766433   -5.8084142  0.066707484    -6.766433    0.9580188   520346 
 2329000    1.0349324   -6.7649282   -6.7649282   -5.8082423   0.04455948   -6.7649282   0.95668589   520346 
 2330000    1.0348973   -6.7638852   -6.7638852   -5.8072318  0.066309694   -6.7638852   0.95665344   520346 
 2331000    1.0345055   -6.7640401   -6.7640401   -5.8077488  0.049180454   -6.7640401   0.95629127   520346 
 2332000    1.0360807   -6.7662694   -6.7662694   -5.8085221     0.066705   -6.7662694   0.95774731   520346 
 2333000    1.0373476   -6.7672595   -6.7672595    -5.808341  0.076207658   -6.7672595   0.95891843   520346 
 2334000    1.0344377   -6.7653961   -6.7653961   -5.8091676   0.07986652   -6.7653961   0.95622853   520346 
 2335000    1.0375965   -6.7684414   -6.7684414   -5.8092929  0.070987022   -6.7684414   0.95914854   520346 
 2336000     1.035839   -6.7667253   -6.7667253   -5.8092014  0.049777669   -6.7667253   0.95752388   520346 
 2337000    1.0374663   -6.7679112   -6.7679112    -5.808883  0.062048284   -6.7679112   0.95902821   520346 
 2338000    1.0366311   -6.7668525   -6.7668525   -5.8085963  0.060335108   -6.7668525   0.95825616   520346 
 2339000     1.035781   -6.7664382   -6.7664382   -5.8089679  0.072274237   -6.7664382    0.9574703   520346 
 2340000     1.038981   -6.7696944   -6.7696944    -5.809266  0.087282028   -6.7696944   0.96042838   520346 
 2341000    1.0367791   -6.7675481   -6.7675481   -5.8091551  0.069532858   -6.7675481   0.95839297   520346 
 2342000    1.0354756   -6.7664416   -6.7664416   -5.8092537  0.061142037   -6.7664416   0.95718795   520346 
 2343000    1.0335811   -6.7650604   -6.7650604   -5.8096237  0.074404954   -6.7650604   0.95543673   520346 
 2344000    1.0359368   -6.7677719   -6.7677719   -5.8101576  0.065557952   -6.7677719    0.9576143   520346 
 2345000    1.0363735   -6.7675874   -6.7675874   -5.8095693  0.075216835   -6.7675874   0.95801803   520346 
 2346000    1.0360398   -6.7663927   -6.7663927   -5.8086831  0.066529371   -6.7663927    0.9577095   520346 
 2347000    1.0347605   -6.7661793   -6.7661793   -5.8096524  0.059062335   -6.7661793   0.95652693   520346 
 2348000    1.0341071   -6.7656027   -6.7656027   -5.8096798  0.088461159   -6.7656027   0.95592294   520346 
 2349000    1.0357233   -6.7675623   -6.7675623   -5.8101454  0.076977553   -6.7675623   0.95741693   520346 
 2350000     1.035948   -6.7687792   -6.7687792   -5.8111546  0.060362329   -6.7687792   0.95762465   520346 
 2351000    1.0347108   -6.7674633   -6.7674633   -5.8109822  0.065461373   -6.7674633   0.95648105   520346 
 2352000     1.036001   -6.7691885   -6.7691885   -5.8115148  0.064087381   -6.7691885    0.9576737   520346 
 2353000    1.0364237   -6.7688323   -6.7688323   -5.8107678  0.057138635   -6.7688323   0.95806444   520346 
 2354000    1.0354855   -6.7684752   -6.7684752   -5.8112781  0.058760382   -6.7684752   0.95719714   520346 
 2355000    1.0365348   -6.7693455   -6.7693455   -5.8111784   0.09072151   -6.7693455   0.95816713   520346 
 2356000    1.0340886   -6.7679207   -6.7679207   -5.8120149  0.059475249   -6.7679207   0.95590584   520346 
 2357000    1.0359032   -6.7692965   -6.7692965   -5.8117132  0.060507623   -6.7692965   0.95758326   520346 
 2358000    1.0343824    -6.767522    -6.767522   -5.8113445  0.059829183    -6.767522   0.95617745   520346 
 2359000    1.0374742   -6.7701044   -6.7701044   -5.8110689  0.080252185   -6.7701044   0.95903549   520346 
 2360000    1.0355467   -6.7688516   -6.7688516   -5.8115979  0.072249045   -6.7688516   0.95725374   520346 
 2361000    1.0362581   -6.7695053   -6.7695053    -5.811594  0.068768096   -6.7695053   0.95791128   520346 
 2362000    1.0354651   -6.7690317   -6.7690317   -5.8118535  0.074616237   -6.7690317   0.95717825   520346 
 2363000    1.0372143   -6.7713882   -6.7713882   -5.8125929  0.063106647   -6.7713882   0.95879526   520346 
 2364000    1.0366852   -6.7701332   -6.7701332    -5.811827  0.080714926   -6.7701332   0.95830615   520346 
 2365000    1.0366461   -6.7708305   -6.7708305   -5.8125605  0.085188955   -6.7708305   0.95826996   520346 
 2366000    1.0363756   -6.7699784   -6.7699784   -5.8119585  0.055929426   -6.7699784   0.95801998   520346 
 2367000     1.035581   -6.7699477   -6.7699477   -5.8126623  0.078062445   -6.7699477    0.9572854   520346 
 2368000    1.0382532   -6.7718374   -6.7718374   -5.8120818  0.061160858   -6.7718374   0.95975562   520346 
 2369000    1.0370329   -6.7713707   -6.7713707   -5.8127431  0.063937698   -6.7713707   0.95862757   520346 
 2370000    1.0369277   -6.7709038   -6.7709038   -5.8123735  0.086365156   -6.7709038   0.95853027   520346 
 2371000    1.0351554    -6.770375    -6.770375    -5.813483  0.077962493    -6.770375   0.95689204   520346 
 2372000    1.0351779   -6.7709896   -6.7709896   -5.8140768   0.06207024   -6.7709896   0.95691279   520346 
 2373000     1.035103   -6.7706497   -6.7706497   -5.8138062  0.087477614   -6.7706497   0.95684352   520346 
 2374000    1.0354734   -6.7719639   -6.7719639   -5.8147779   0.10081196   -6.7719639   0.95718599   520346 
 2375000    1.0360418   -6.7717053   -6.7717053   -5.8139939  0.064840411   -6.7717053   0.95771142   520346 
 2376000    1.0352562   -6.7718939   -6.7718939   -5.8149088  0.068016271   -6.7718939   0.95698515   520346 
 2377000    1.0358168   -6.7718915   -6.7718915   -5.8143881  0.057212354   -6.7718915   0.95750338   520346 
 2378000     1.035997   -6.7715183   -6.7715183   -5.8138484  0.044674655   -6.7715183   0.95766996   520346 
 2379000    1.0353846   -6.7712476   -6.7712476   -5.8141437  0.089245296   -6.7712476   0.95710384   520346 
 2380000    1.0345597   -6.7704988   -6.7704988   -5.8141575  0.094395233   -6.7704988   0.95634135   520346 
 2381000    1.0347335    -6.771015    -6.771015    -5.814513  0.054513016    -6.771015     0.956502   520346 
 2382000    1.0355085   -6.7721585   -6.7721585   -5.8149401  0.069312293   -6.7721585   0.95721844   520346 
 2383000    1.0355035   -6.7725613   -6.7725613   -5.8153475  0.087389172   -6.7725613    0.9572138   520346 
 2384000    1.0354409   -6.7724914   -6.7724914   -5.8153355  0.078450702   -6.7724914   0.95715592   520346 
 2385000    1.0349681   -6.7712412   -6.7712412   -5.8145223  0.084283054   -6.7712412   0.95671884   520346 
 2386000    1.0345417   -6.7705565   -6.7705565   -5.8142318  0.079393867   -6.7705565   0.95632469   520346 
 2387000    1.0354677    -6.772101    -6.772101   -5.8149203  0.075465189    -6.772101   0.95718069   520346 
 2388000    1.0360133    -6.772318    -6.772318    -5.814633  0.077448049    -6.772318   0.95768506   520346 
 2389000    1.0369699   -6.7732934   -6.7732934   -5.8147241  0.058055381   -6.7732934    0.9585693   520346 
 2390000    1.0362437    -6.773403    -6.773403    -5.815505   0.08085508    -6.773403   0.95789804   520346 
 2391000    1.0361399   -6.7742849   -6.7742849   -5.8164828  0.065508362   -6.7742849   0.95780205   520346 
 2392000    1.0331904   -6.7718742   -6.7718742   -5.8167987  0.093180579   -6.7718742   0.95507554   520346 
 2393000    1.0345385   -6.7734331   -6.7734331   -5.8171114  0.063060936   -6.7734331   0.95632175   520346 
 2394000    1.0360624   -6.7741987   -6.7741987   -5.8164683  0.087953526   -6.7741987   0.95773043   520346 
 2395000    1.0367002   -6.7746127   -6.7746127   -5.8162927  0.055930445   -6.7746127   0.95831999   520346 
 2396000    1.0343657   -6.7725241   -6.7725241   -5.8163621   0.05170069   -6.7725241     0.956162   520346 
 2397000    1.0355803   -6.7742438   -6.7742438    -5.816959  0.084165581   -6.7742438   0.95728478   520346 
 2398000    1.0378027   -6.7765846   -6.7765846   -5.8172455  0.064983396   -6.7765846   0.95933913   520346 
 2399000    1.0348764   -6.7746196   -6.7746196   -5.8179855  0.065123169   -6.7746196   0.95663412   520346 
 2400000    1.0356839   -6.7754616   -6.7754616   -5.8180811  0.042808284   -6.7754616   0.95738053   520346 
 2401000     1.036309   -6.7762971   -6.7762971   -5.8183387  0.087634441   -6.7762971   0.95795842   520346 
 2402000    1.0359009   -6.7766471   -6.7766471    -5.819066  0.081632747   -6.7766471   0.95758112   520346 
 2403000    1.0353066    -6.776112    -6.776112   -5.8190803   0.09079545    -6.776112   0.95703176   520346 
 2404000    1.0356024   -6.7772088   -6.7772088   -5.8199035  0.067379765   -6.7772088   0.95730524   520346 
 2405000    1.0348953   -6.7769453   -6.7769453   -5.8202937   0.10173099   -6.7769453   0.95665156   520346 
 2406000    1.0361544   -6.7784081   -6.7784081   -5.8205927  0.046866098   -6.7784081   0.95781543   520346 
 2407000    1.0339906   -6.7753384   -6.7753384   -5.8195232   0.07773271   -6.7753384   0.95581527   520346 
 2408000    1.0350226   -6.7771719   -6.7771719   -5.8204027  0.084482206   -6.7771719   0.95676921   520346 
 2409000    1.0345576    -6.778123    -6.778123   -5.8217836  0.072619733    -6.778123   0.95633936   520346 
 2410000    1.0352076   -6.7783813   -6.7783813    -5.821441  0.091815164   -6.7783813   0.95694029   520346 
 2411000    1.0363206   -6.7787215   -6.7787215   -5.8207524  0.063007449   -6.7787215   0.95796908   520346 
 2412000    1.0366007   -6.7787796   -6.7787796   -5.8205515  0.070159704   -6.7787796   0.95822804   520346 
 2413000    1.0326387   -6.7759241   -6.7759241   -5.8213586  0.051098245   -6.7759241   0.95456554   520346 
 2414000    1.0346801   -6.7770036   -6.7770036   -5.8205509  0.076247239   -6.7770036   0.95645266   520346 
 2415000    1.0324319   -6.7753967   -6.7753967   -5.8210223  0.069327406   -6.7753967   0.95437443   520346 
 2416000    1.0360873   -6.7780384   -6.7780384   -5.8202849  0.075048155   -6.7780384   0.95775349   520346 
 2417000    1.0357609   -6.7780836   -6.7780836   -5.8206318  0.078230396   -6.7780836   0.95745175   520346 
 2418000    1.0353496   -6.7783709   -6.7783709   -5.8212994  0.091248512   -6.7783709   0.95707148   520346 
 2419000    1.0361183     -6.77929     -6.77929   -5.8215079  0.097285384     -6.77929   0.95778206   520346 
 2420000    1.0331993   -6.7773058   -6.7773058    -5.822222   0.10828409   -6.7773058   0.95508379   520346 
 2421000    1.0336816   -6.7786459   -6.7786459   -5.8231163  0.060527853   -6.7786459   0.95552964   520346 
 2422000    1.0334226   -6.7774939   -6.7774939   -5.8222037  0.072388159   -6.7774939   0.95529022   520346 
 2423000    1.0359461   -6.7804575   -6.7804575   -5.8228346  0.095531597   -6.7804575   0.95762288   520346 
 2424000    1.0358763   -6.7807794   -6.7807794    -5.823221  0.063181136   -6.7807794   0.95755842   520346 
 2425000    1.0354306   -6.7792197   -6.7792197   -5.8220733  0.052309452   -6.7792197   0.95714635   520346 
 2426000    1.0330332   -6.7782884   -6.7782884   -5.8233582  0.067034295   -6.7782884    0.9549302   520346 
 2427000    1.0326676   -6.7788929   -6.7788929   -5.8243007  0.058687053   -6.7788929   0.95459226   520346 
 2428000     1.033764   -6.7795172   -6.7795172   -5.8239114  0.059320184   -6.7795172   0.95560581   520346 
 2429000    1.0339444   -6.7811793   -6.7811793   -5.8254068  0.065453393   -6.7811793   0.95577253   520346 
 2430000    1.0319906   -6.7786247   -6.7786247   -5.8246583  0.056399312   -6.7786247   0.95396645   520346 
 2431000    1.0337779   -6.7805225   -6.7805225   -5.8249039  0.079191255   -6.7805225   0.95561865   520346 
 2432000    1.0336878    -6.779429    -6.779429   -5.8238937  0.067500357    -6.779429   0.95553532   520346 
 2433000    1.0325464   -6.7779797   -6.7779797   -5.8234995  0.071916845   -6.7779797   0.95448024   520346 
 2434000    1.0325947    -6.778698    -6.778698   -5.8241731  0.071434632    -6.778698   0.95452489   520346 
 2435000    1.0325221   -6.7781519   -6.7781519   -5.8236942  0.056377049   -6.7781519   0.95445775   520346 
 2436000    1.0355672   -6.7809175   -6.7809175   -5.8236449  0.080227164   -6.7809175   0.95727264   520346 
 2437000    1.0337615   -6.7795447   -6.7795447   -5.8239412  0.056794613   -6.7795447   0.95560351   520346 
 2438000    1.0344339   -6.7805488   -6.7805488   -5.8243238  0.052014632   -6.7805488   0.95622501   520346 
 2439000    1.0354804   -6.7820588   -6.7820588   -5.8248664  0.081657109   -6.7820588   0.95719247   520346 
 2440000    1.0324777   -6.7803703   -6.7803703   -5.8259536  0.060303347   -6.7803703   0.95441675   520346 
 2441000     1.036257   -6.7824184   -6.7824184   -5.8245081  0.059323974   -6.7824184    0.9579103   520346 
 2442000    1.0333581   -6.7806786   -6.7806786    -5.825448  0.071999927   -6.7806786   0.95523062   520346 
 2443000    1.0344812   -6.7816331   -6.7816331   -5.8253643  0.062266515   -6.7816331    0.9562688   520346 
 2444000    1.0336321   -6.7816768   -6.7816768   -5.8261929  0.091458497   -6.7816768   0.95548391   520346 
 2445000    1.0316649   -6.7792496   -6.7792496   -5.8255842   0.07283587   -6.7792496   0.95366542   520346 
 2446000    1.0326525   -6.7804189   -6.7804189   -5.8258406   0.08511682   -6.7804189   0.95457833   520346 
 2447000    1.0318069   -6.7793654   -6.7793654   -5.8255687  0.064392478   -6.7793654   0.95379663   520346 
 2448000     1.033764   -6.7815538   -6.7815538   -5.8259479  0.067449519   -6.7815538   0.95560581   520346 
 2449000    1.0354892   -6.7835461   -6.7835461   -5.8263455   0.05419521   -6.7835461    0.9572006   520346 
 2450000    1.0345167   -6.7829686   -6.7829686    -5.826667  0.086929428   -6.7829686    0.9563016   520346 
 2451000    1.0341587   -6.7824413   -6.7824413   -5.8264707  0.073884783   -6.7824413   0.95597061   520346 
 2452000    1.0346747   -6.7834029   -6.7834029   -5.8269552  0.066422053   -6.7834029   0.95644768   520346 
 2453000    1.0350156   -6.7827987   -6.7827987   -5.8260359  0.070899583   -6.7827987   0.95676274   520346 
 2454000    1.0344182   -6.7820051   -6.7820051   -5.8257945   0.06717327   -6.7820051   0.95621057   520346 
 2455000    1.0333269   -6.7823855   -6.7823855   -5.8271837  0.093767124   -6.7823855   0.95520176   520346 
 2456000    1.0331618   -6.7826026   -6.7826026   -5.8275534  0.054491238   -6.7826026   0.95504911   520346 
 2457000    1.0359097   -6.7852933   -6.7852933   -5.8277041  0.084467099   -6.7852933   0.95758923   520346 
 2458000    1.0352045   -6.7846571   -6.7846571   -5.8277197  0.075006787   -6.7846571   0.95693739   520346 
 2459000    1.0353466   -6.7840155   -6.7840155   -5.8269468  0.076725722   -6.7840155   0.95706871   520346 
 2460000    1.0355751   -6.7838969   -6.7838969   -5.8266169  0.051127141   -6.7838969   0.95727997   520346 
 2461000     1.034514   -6.7830071   -6.7830071    -5.826708  0.076577846   -6.7830071   0.95629907   520346 
 2462000    1.0326946   -6.7816141   -6.7816141   -5.8269969  0.087908416   -6.7816141   0.95461729   520346 
 2463000    1.0346621   -6.7846465   -6.7846465   -5.8282105   0.08136124   -6.7846465   0.95643598   520346 
 2464000    1.0324172   -6.7826578   -6.7826578    -5.828297  0.045349875   -6.7826578   0.95436082   520346 
 2465000    1.0335352   -6.7841377   -6.7841377   -5.8287434    0.0727246   -6.7841377   0.95539433   520346 
 2466000    1.0338222   -6.7858426   -6.7858426    -5.830183  0.084221141   -6.7858426   0.95565955   520346 
 2467000    1.0335696   -6.7851542   -6.7851542    -5.829728  0.082580627   -6.7851542   0.95542611   520346 
 2468000    1.0340305   -6.7856061   -6.7856061    -5.829754  0.051389673   -6.7856061   0.95585211   520346 
 2469000    1.0355091   -6.7869977   -6.7869977   -5.8297787   0.10695494   -6.7869977   0.95721898   520346 
 2470000    1.0316856   -6.7834366   -6.7834366   -5.8297521  0.068798855   -6.7834366   0.95368451   520346 
 2471000     1.033137   -6.7851639   -6.7851639   -5.8301377  0.054510162   -6.7851639   0.95502619   520346 
 2472000    1.0311365   -6.7829864   -6.7829864   -5.8298095  0.074310337   -6.7829864   0.95317698   520346 
 2473000    1.0312398   -6.7833038   -6.7833038   -5.8300313  0.029265607   -6.7833038   0.95327246   520346 
 2474000    1.0321793   -6.7840256   -6.7840256   -5.8298847  0.056307986   -6.7840256   0.95414089   520346 
 2475000    1.0328003   -6.7843087   -6.7843087   -5.8295938   0.07347713   -6.7843087   0.95471495   520346 
 2476000    1.0333477     -6.78487     -6.78487    -5.829649  0.064183214     -6.78487     0.955221   520346 
 2477000    1.0349029    -6.786609    -6.786609   -5.8299504   0.07329111    -6.786609   0.95665858   520346 
 2478000    1.0305812   -6.7829696   -6.7829696    -5.830306  0.061162669   -6.7829696   0.95266363   520346 
 2479000    1.0337132   -6.7864385   -6.7864385   -5.8308797  0.062158813   -6.7864385   0.95555883   520346 
 2480000    1.0324863   -6.7852509   -6.7852509   -5.8308262   0.09525765   -6.7852509   0.95442467   520346 
 2481000     1.032682   -6.7858106   -6.7858106   -5.8312049  0.052796769   -6.7858106   0.95460564   520346 
 2482000    1.0318418   -6.7857428   -6.7857428   -5.8319139   0.06150839   -6.7857428   0.95382892   520346 
 2483000     1.030213   -6.7845374   -6.7845374   -5.8322141  0.076745412   -6.7845374    0.9523233   520346 
 2484000     1.032853   -6.7866742   -6.7866742   -5.8319105  0.053565095   -6.7866742    0.9547637   520346 
 2485000    1.0326034    -6.786306    -6.786306   -5.8317731  0.047991433    -6.786306   0.95453291   520346 
 2486000    1.0311301   -6.7851172   -6.7851172   -5.8319461   0.06103285   -6.7851172   0.95317106   520346 
 2487000    1.0324632   -6.7857102   -6.7857102   -5.8313069  0.049080414   -6.7857102   0.95440332   520346 
 2488000    1.0315425   -6.7845095   -6.7845095   -5.8309572  0.080752432   -6.7845095   0.95355224   520346 
 2489000    1.0350127    -6.786719    -6.786719   -5.8299589  0.085856138    -6.786719   0.95676007   520346 
 2490000    1.0332091   -6.7862548   -6.7862548   -5.8311619  0.075765465   -6.7862548   0.95509288   520346 
 2491000    1.0307976   -6.7851264   -6.7851264   -5.8322627  0.081564384   -6.7851264   0.95286371   520346 
 2492000    1.0316862   -6.7857231   -6.7857231    -5.832038  0.060778868   -6.7857231   0.95368511   520346 
 2493000    1.0329587   -6.7859571   -6.7859571   -5.8310958  0.047634593   -6.7859571   0.95486135   520346 
 2494000    1.0313843    -6.785315    -6.785315    -5.831909  0.063824692    -6.785315   0.95340604   520346 
 2495000    1.0327121   -6.7863236   -6.7863236   -5.8316902  0.079544765   -6.7863236    0.9546334   520346 
 2496000    1.0306287   -6.7841676   -6.7841676     -5.83146  0.098591283   -6.7841676   0.95270758   520346 
 2497000    1.0333671   -6.7868892   -6.7868892   -5.8316503  0.077238452   -6.7868892   0.95523886   520346 
 2498000    1.0321513   -6.7863712   -6.7863712   -5.8322562  0.057427569   -6.7863712   0.95411502   520346 
 2499000    1.0306924   -6.7838836   -6.7838836   -5.8311172  0.079601057   -6.7838836   0.95276641   520346 
 2500000    1.0313584   -6.7851505   -6.7851505   -5.8317684  0.083763997   -6.7851505    0.9533821   520346 
 2501000    1.0342927   -6.7884988   -6.7884988   -5.8324043  0.070816741   -6.7884988    0.9560945   520346 
 2502000    1.0328365   -6.7862112   -6.7862112   -5.8314627  0.059182515   -6.7862112   0.95474844   520346 
 2503000    1.0317689   -6.7854911   -6.7854911   -5.8317295  0.062554018   -6.7854911   0.95376157   520346 
 2504000    1.0287479   -6.7825169   -6.7825169   -5.8315479  0.030253985   -6.7825169   0.95096894   520346 
 2505000    1.0330071   -6.7871694   -6.7871694   -5.8322633  0.064124752   -6.7871694   0.95490612   520346 
 2506000    1.0321502    -6.786081    -6.786081    -5.831967  0.096349798    -6.786081   0.95411397   520346 
 2507000    1.0325106   -6.7865747   -6.7865747   -5.8321276  0.077788155   -6.7865747   0.95444714   520346 
 2508000    1.0341333   -6.7885179   -6.7885179   -5.8325708  0.084672085   -6.7885179   0.95594713   520346 
 2509000    1.0337242   -6.7876679   -6.7876679   -5.8320989  0.070633634   -6.7876679   0.95556902   520346 
 2510000    1.0314135   -6.7854751   -6.7854751   -5.8320421  0.069803153   -6.7854751   0.95343298   520346 
 2511000    1.0332595   -6.7879518   -6.7879518   -5.8328124  0.070019373   -6.7879518   0.95513941   520346 
 2512000    1.0323742   -6.7866358   -6.7866358   -5.8323148  0.066380179   -6.7866358   0.95432103   520346 
 2513000    1.0330034   -6.7882716   -6.7882716   -5.8333689  0.085027863   -6.7882716   0.95490268   520346 
 2514000     1.029528    -6.785661    -6.785661    -5.833971  0.072495307    -6.785661   0.95169002   520346 
 2515000    1.0305485   -6.7862045   -6.7862045   -5.8335711  0.070645262   -6.7862045   0.95263337   520346 
 2516000    1.0325602   -6.7870812   -6.7870812   -5.8325883  0.077822104   -6.7870812   0.95449298   520346 
 2517000    1.0311275   -6.7848924   -6.7848924   -5.8317237  0.058943035   -6.7848924   0.95316864   520346 
 2518000    1.0311999   -6.7859188   -6.7859188   -5.8326833  0.059752381   -6.7859188   0.95323552   520346 
 2519000    1.0314825   -6.7861176   -6.7861176   -5.8326209  0.068630442   -6.7861176   0.95349674   520346 
 2520000    1.0323862   -6.7873496   -6.7873496   -5.8330174  0.079933413   -6.7873496   0.95433219   520346 
 2521000    1.0356059   -6.7900863   -6.7900863   -5.8327779  0.091330783   -6.7900863   0.95730845   520346 
 2522000     1.032553   -6.7879214   -6.7879214    -5.833435  0.061809135   -6.7879214   0.95448639   520346 
 2523000    1.0321925   -6.7888531   -6.7888531      -5.8347   0.05799727   -6.7888531    0.9541531   520346 
 2524000    1.0308803   -6.7878418   -6.7878418   -5.8349016  0.076604258   -6.7878418   0.95294011   520346 
 2525000    1.0321551   -6.7891744   -6.7891744   -5.8350558  0.065376351   -6.7891744   0.95411858   520346 
 2526000    1.0324344   -6.7902756   -6.7902756   -5.8358988  0.050410362   -6.7902756   0.95437675   520346 
 2527000    1.0327072   -6.7905272   -6.7905272   -5.8358983  0.072559222   -6.7905272   0.95462891   520346 
 2528000     1.034286   -6.7924955   -6.7924955   -5.8364072  0.062128701   -6.7924955   0.95608835   520346 
 2529000    1.0330916   -6.7907074   -6.7907074   -5.8357231  0.078814555   -6.7907074   0.95498426   520346 
 2530000    1.0326173   -6.7910793   -6.7910793   -5.8365335    0.0658439   -6.7910793   0.95454582   520346 
 2531000    1.0321502   -6.7907847   -6.7907847   -5.8366708  0.089485442   -6.7907847   0.95411398   520346 
 2532000     1.032396   -6.7909783   -6.7909783   -5.8366371  0.036835279   -6.7909783   0.95434119   520346 
 2533000    1.0329041   -6.7911173   -6.7911173   -5.8363064   0.05718152   -6.7911173   0.95481091   520346 
 2534000    1.0302874   -6.7881157   -6.7881157   -5.8357236  0.085408516   -6.7881157   0.95239204   520346 
 2535000    1.0311818   -6.7897585   -6.7897585   -5.8365397  0.061602089   -6.7897585   0.95321879   520346 
 2536000    1.0347162   -6.7927791   -6.7927791   -5.8362931  0.087894156   -6.7927791   0.95648601   520346 
 2537000    1.0302199   -6.7885461   -6.7885461   -5.8362164   0.07813525   -6.7885461   0.95232969   520346 
 2538000    1.0317767   -6.7905662   -6.7905662   -5.8367975  0.056263801   -6.7905662   0.95376875   520346 
 2539000    1.0327508   -6.7907517   -6.7907517   -5.8360825  0.078540504   -6.7907517   0.95466922   520346 
 2540000    1.0314121   -6.7903389   -6.7903389   -5.8369072  0.080723606   -6.7903389   0.95343172   520346 
 2541000    1.0322493   -6.7912299   -6.7912299   -5.8370242  0.071615633   -6.7912299   0.95420565   520346 
 2542000    1.0315808     -6.79084     -6.79084   -5.8372523   0.09665727     -6.79084   0.95358768   520346 
 2543000    1.0326022   -6.7924106   -6.7924106   -5.8378788  0.072527037   -6.7924106   0.95453187   520346 
 2544000    1.0329184   -6.7929249   -6.7929249   -5.8381008  0.064478659   -6.7929249    0.9548241   520346 
 2545000    1.0336465   -6.7938576   -6.7938576   -5.8383603  0.079386227   -6.7938576   0.95549721   520346 
 2546000    1.0306068   -6.7896415   -6.7896415   -5.8369542  0.073282972   -6.7896415   0.95268731   520346 
 2547000     1.031083   -6.7905952   -6.7905952   -5.8374677  0.074676114   -6.7905952   0.95312747   520346 
 2548000    1.0305537   -6.7897661   -6.7897661   -5.8371279  0.048816389   -6.7897661   0.95263823   520346 
 2549000    1.0285764   -6.7887936   -6.7887936   -5.8379831  0.052158026   -6.7887936   0.95081044   520346 
 2550000     1.030532   -6.7909214   -6.7909214   -5.8383032  0.057625218   -6.7909214   0.95261818   520346 
 2551000    1.0296005   -6.7900003   -6.7900003   -5.8382433  0.060451851   -6.7900003   0.95175706   520346 
 2552000    1.0325519   -6.7931497   -6.7931497   -5.8386643  0.058113832   -6.7931497   0.95448538   520346 
 2553000    1.0319168   -6.7917193   -6.7917193    -5.837821  0.096957332   -6.7917193   0.95389822   520346 
 2554000     1.031652   -6.7923767   -6.7923767   -5.8387232  0.055386598   -6.7923767   0.95365347   520346 
 2555000    1.0310725   -6.7924783   -6.7924783   -5.8393605  0.080692265   -6.7924783   0.95311781   520346 
 2556000    1.0305868   -6.7923625   -6.7923625   -5.8396937  0.079196759   -6.7923625   0.95266877   520346 
 2557000    1.0296141   -6.7914051   -6.7914051   -5.8396354  0.081959721   -6.7914051   0.95176968   520346 
 2558000    1.0299313   -6.7919692   -6.7919692   -5.8399063  0.047090256   -6.7919692   0.95206284   520346 
 2559000    1.0295466   -6.7914399   -6.7914399   -5.8397326  0.068742202   -6.7914399   0.95170729   520346 
 2560000    1.0325182   -6.7933304   -6.7933304   -5.8388762  0.033612217   -6.7933304   0.95445422   520346 
 2561000    1.0300627   -6.7910851   -6.7910851   -5.8389008  0.069191293   -6.7910851    0.9521843   520346 
 2562000    1.0300582   -6.7913273   -6.7913273   -5.8391471  0.073716045   -6.7913273   0.95218018   520346 
 2563000    1.0316816   -6.7938228   -6.7938228   -5.8401419  0.077631473   -6.7938228   0.95368088   520346 
 2564000    1.0311785   -6.7935636   -6.7935636   -5.8403478  0.066921332   -6.7935636   0.95321578   520346 
 2565000    1.0307361   -6.7931318   -6.7931318   -5.8403249  0.074535496   -6.7931318   0.95280686   520346 
 2566000    1.0319136   -6.7935978   -6.7935978   -5.8397025  0.090902542   -6.7935978   0.95389526   520346 
 2567000    1.0321566   -6.7937421   -6.7937421   -5.8396222  0.066000587   -6.7937421   0.95411991   520346 
 2568000    1.0308457   -6.7917308   -6.7917308   -5.8388226  0.098131782   -6.7917308   0.95290812   520346 
 2569000     1.030846   -6.7929433   -6.7929433   -5.8400349  0.056072775   -6.7929433   0.95290838   520346 
 2570000    1.0319932   -6.7944417   -6.7944417   -5.8404728  0.066624095   -6.7944417   0.95396884   520346 
 2571000    1.0310032   -6.7928109   -6.7928109   -5.8397572  0.057657242   -6.7928109   0.95305369   520346 
 2572000    1.0296365   -6.7919065   -6.7919065   -5.8401161  0.052946706   -6.7919065   0.95179038   520346 
 2573000    1.0331794   -6.7941628   -6.7941628   -5.8390973  0.079742047   -6.7941628   0.95506543   520346 
 2574000     1.032485   -6.7937729   -6.7937729   -5.8393494   0.11123535   -6.7937729   0.95442351   520346 
 2575000    1.0325178   -6.7938842   -6.7938842   -5.8394303   0.11529284   -6.7938842   0.95445383   520346 
 2576000    1.0293882   -6.7917237   -6.7917237   -5.8401629  0.075670409   -6.7917237    0.9515608   520346 
 2577000    1.0307686    -6.793216    -6.793216   -5.8403792  0.071705473    -6.793216   0.95283684   520346 
 2578000    1.0287979   -6.7913553   -6.7913553   -5.8403401  0.045776834   -6.7913553   0.95101517   520346 
 2579000    1.0292898   -6.7925892   -6.7925892   -5.8411194  0.068543314   -6.7925892   0.95146983   520346 
 2580000    1.0303556   -6.7933256   -6.7933256   -5.8408704   0.11108287   -6.7933256   0.95245512   520346 
 2581000    1.0299652   -6.7929659   -6.7929659   -5.8408718    0.0686788   -6.7929659   0.95209418   520346 
 2582000    1.0307475   -6.7942162   -6.7942162   -5.8413989  0.058740411   -6.7942162   0.95281731   520346 
 2583000    1.0305213   -6.7937449   -6.7937449   -5.8411367  0.091044399   -6.7937449   0.95260823   520346 
 2584000    1.0317259   -6.7948894   -6.7948894   -5.8411677  0.087022563   -6.7948894   0.95372177   520346 
 2585000    1.0320222   -6.7952197   -6.7952197    -5.841224  0.062080092   -6.7952197   0.95399565   520346 
 2586000    1.0320727   -6.7953899   -6.7953899   -5.8413475  0.058100062   -6.7953899   0.95404239   520346 
 2587000    1.0271808    -6.791293    -6.791293   -5.8417727  0.042076938    -6.791293   0.94952034   520346 
 2588000    1.0309783   -6.7946392   -6.7946392   -5.8416084  0.051759286   -6.7946392   0.95303074   520346 
 2589000    1.0312041   -6.7940606   -6.7940606   -5.8408212  0.073208523   -6.7940606    0.9532394   520346 
 2590000    1.0318171    -6.794951    -6.794951    -5.841145  0.081127669    -6.794951   0.95380607   520346 
 2591000    1.0302621   -6.7940757   -6.7940757    -5.841707   0.06542918   -6.7940757   0.95236866   520346 
 2592000    1.0299306   -6.7938059   -6.7938059   -5.8417437  0.070670018   -6.7938059    0.9520622   520346 
 2593000    1.0281276    -6.792598    -6.792598   -5.8422024   0.08272309    -6.792598   0.95039554   520346 
 2594000    1.0313215   -6.7950085   -6.7950085   -5.8416606  0.068323183   -6.7950085   0.95334793   520346 
 2595000    1.0329966   -6.7962429   -6.7962429   -5.8413465  0.068207528   -6.7962429   0.95489639   520346 
 2596000    1.0292342   -6.7940642   -6.7940642   -5.8426458  0.075686019   -6.7940642   0.95141845   520346 
 2597000    1.0313267   -6.7961052   -6.7961052   -5.8427524  0.088477569   -6.7961052   0.95335277   520346 
 2598000    1.0309966   -6.7959118   -6.7959118   -5.8428641  0.097118361   -6.7959118   0.95304762   520346 
 2599000    1.0296331    -6.794871    -6.794871   -5.8430837  0.071505475    -6.794871   0.95178725   520346 
 2600000    1.0333418   -6.7990703   -6.7990703   -5.8438548  0.074276277   -6.7990703   0.95521554   520346 
 2601000    1.0308571    -6.797297    -6.797297   -5.8443784  0.075804331    -6.797297   0.95291866   520346 
 2602000    1.0291071    -6.795701    -6.795701   -5.8443999  0.052971556    -6.795701   0.95130102   520346 
 2603000    1.0291065    -6.796096    -6.796096   -5.8447956  0.053347677    -6.796096   0.95130042   520346 
 2604000    1.0290743   -6.7961853   -6.7961853   -5.8449147  0.059759017   -6.7961853   0.95127062   520346 
 2605000    1.0282087   -6.7957981   -6.7957981   -5.8453276   0.07334017   -6.7957981   0.95047054   520346 
 2606000    1.0284586   -6.7962186   -6.7962186   -5.8455171  0.068714924   -6.7962186   0.95070149   520346 
 2607000    1.0306506   -6.7977863   -6.7977863   -5.8450585  0.075151552   -6.7977863   0.95272782   520346 
 2608000    1.0287917   -6.7956045   -6.7956045    -5.844595  0.063920417   -6.7956045   0.95100947   520346 
 2609000    1.0297314   -6.7962494   -6.7962494   -5.8443713  0.039572591   -6.7962494   0.95187808   520346 
 2610000    1.0294911    -6.795975    -6.795975    -5.844319  0.065892404    -6.795975   0.95165598   520346 
 2611000    1.0310831   -6.7979556   -6.7979556    -5.844828  0.046658717   -6.7979556   0.95312759   520346 
 2612000    1.0299748   -6.7967106   -6.7967106   -5.8446076  0.085960514   -6.7967106   0.95210305   520346 
 2613000    1.0297491   -6.7975838   -6.7975838   -5.8456893  0.051110565   -6.7975838   0.95189445   520346 
 2614000    1.0280455   -6.7949836   -6.7949836   -5.8446639  0.062930161   -6.7949836   0.95031965   520346 
 2615000    1.0315882   -6.7980962   -6.7980962   -5.8445017  0.045113334   -6.7980962    0.9535945   520346 
 2616000    1.0300322   -6.7971204   -6.7971204   -5.8449642  0.051033681   -6.7971204   0.95215617   520346 
 2617000    1.0302512   -6.7972943   -6.7972943   -5.8449357  0.059737777   -6.7972943   0.95235854   520346 
 2618000    1.0292056   -6.7968129   -6.7968129   -5.8454209  0.056686599   -6.7968129   0.95139203   520346 
 2619000    1.0290849   -6.7966884   -6.7966884    -5.845408  0.072602566   -6.7966884   0.95128048   520346 
 2620000    1.0280614   -6.7967099   -6.7967099   -5.8463755  0.065593136   -6.7967099   0.95033438   520346 
 2621000    1.0319032   -6.8001899   -6.8001899   -5.8463042  0.058250799   -6.8001899   0.95388566   520346 
 2622000    1.0305059   -6.7989471   -6.7989471   -5.8463531  0.061575595   -6.7989471   0.95259402   520346 
 2623000    1.0293281    -6.797303    -6.797303   -5.8457977  0.061014217    -6.797303   0.95150527   520346 
 2624000    1.0284036   -6.7978242   -6.7978242   -5.8471736  0.081539971   -6.7978242   0.95065067   520346 
 2625000    1.0295238   -6.7991123   -6.7991123   -5.8474261  0.068358927   -6.7991123    0.9516862   520346 
 2626000    1.0286289   -6.7986075   -6.7986075   -5.8477485  0.062162143   -6.7986075   0.95085895   520346 
 2627000    1.0268756   -6.7963478   -6.7963478   -5.8471095   0.07864178   -6.7963478   0.94923824   520346 
 2628000    1.0290457   -6.7989992   -6.7989992    -5.847755  0.064067126   -6.7989992   0.95124425   520346 
 2629000    1.0299842   -6.7989275   -6.7989275   -5.8468158  0.048655733   -6.7989275   0.95211173   520346 
 2630000    1.0285782   -6.7987559   -6.7987559   -5.8479439  0.084591146   -6.7987559   0.95081205   520346 
 2631000    1.0292893   -6.7995096   -6.7995096   -5.8480402  0.067060279   -6.7995096   0.95146938   520346 
 2632000    1.0281788   -6.7981186   -6.7981186   -5.8476758  0.079552659   -6.7981186   0.95044284   520346 
 2633000    1.0277567   -6.7987616   -6.7987616   -5.8487089  0.073525314   -6.7987616   0.95005268   520346 
 2634000    1.0282621   -6.8003558   -6.8003558   -5.8498359  0.064900929   -6.8003558    0.9505199   520346 
 2635000    1.0278184   -6.7992246   -6.7992246   -5.8491148  0.083421149   -6.7992246   0.95010974   520346 
 2636000    1.0283557   -6.8000485   -6.8000485   -5.8494421  0.087955609   -6.8000485   0.95060641   520346 
 2637000    1.0278841   -6.7989546   -6.7989546   -5.8487842  0.098527398   -6.7989546   0.95017042   520346 
 2638000    1.0318968   -6.8037348   -6.8037348    -5.849855  0.090628695   -6.8037348   0.95387977   520346 
 2639000    1.0286125   -6.8003229   -6.8003229   -5.8494791  0.074882285   -6.8003229    0.9508438   520346 
 2640000    1.0296116   -6.8022019   -6.8022019   -5.8504345  0.083410361   -6.8022019   0.95176736   520346 
 2641000    1.0294707   -6.8024855   -6.8024855   -5.8508484  0.097049512   -6.8024855   0.95163709   520346 
 2642000    1.0290126   -6.8019332   -6.8019332   -5.8507196  0.082722295   -6.8019332   0.95121364   520346 
 2643000    1.0295027   -6.8023896   -6.8023896   -5.8507229  0.017950776   -6.8023896   0.95166666   520346 
 2644000      1.02895   -6.8008078   -6.8008078    -5.849652  0.036463175   -6.8008078    0.9511558   520346 
 2645000    1.0269016    -6.800153    -6.800153   -5.8508907  0.067148163    -6.800153   0.94926222   520346 
 2646000    1.0286831   -6.8013226   -6.8013226   -5.8504135  0.092802638   -6.8013226   0.95090906   520346 
 2647000    1.0276348   -6.7998628   -6.7998628   -5.8499228  0.055825163   -6.7998628   0.94993997   520346 
 2648000    1.0285873   -6.8019109   -6.8019109   -5.8510904  0.075411421   -6.8019109   0.95082048   520346 
 2649000    1.0255809   -6.7992564   -6.7992564    -5.851215  0.049498232   -6.7992564   0.94804139   520346 
 2650000     1.028643   -6.8028486   -6.8028486   -5.8519766  0.070904577   -6.8028486   0.95087201   520346 
 2651000     1.029508   -6.8039628   -6.8039628   -5.8522912  0.057561055   -6.8039628   0.95167153   520346 
 2652000    1.0279341   -6.8025612   -6.8025612   -5.8523445  0.098912753   -6.8025612   0.95021669   520346 
 2653000    1.0274213   -6.8010107   -6.8010107    -5.851268  0.065923466   -6.8010107   0.94974267   520346 
 2654000    1.0296632   -6.8026772   -6.8026772   -5.8508621  0.059468919   -6.8026772   0.95181506   520346 
 2655000    1.0291238   -6.8020648   -6.8020648   -5.8507484  0.063870884   -6.8020648   0.95131639   520346 
 2656000    1.0271333   -6.8008564   -6.8008564   -5.8513801  0.049673056   -6.8008564   0.94947637   520346 
 2657000    1.0277417   -6.8017697   -6.8017697   -5.8517308  0.065753334   -6.8017697   0.95003884   520346 
 2658000    1.0290975   -6.8029565   -6.8029565   -5.8516643  0.088457071   -6.8029565   0.95129214   520346 
 2659000     1.030923   -6.8047212   -6.8047212   -5.8517416  0.071849859   -6.8047212   0.95297958   520346 
 2660000    1.0290798   -6.8023195   -6.8023195   -5.8510438  0.070064563   -6.8023195   0.95127573   520346 
 2661000    1.0280768   -6.8016548   -6.8016548   -5.8513062  0.073474891   -6.8016548   0.95034858   520346 
 2662000    1.0292089   -6.8031132   -6.8031132   -5.8517182  0.063284054   -6.8031132   0.95139505   520346 
 2663000    1.0278138   -6.8018875   -6.8018875   -5.8517821  0.074186991   -6.8018875   0.95010545   520346 
 2664000    1.0269819   -6.8011167   -6.8011167   -5.8517803   0.07715132   -6.8011167   0.94933642   520346 
 2665000    1.0284797   -6.8027176   -6.8027176   -5.8519966  0.062314402   -6.8027176   0.95072099   520346 
 2666000    1.0286026   -6.8037373   -6.8037373   -5.8529027  0.049772875   -6.8037373   0.95083459   520346 
 2667000    1.0279461   -6.8030036   -6.8030036   -5.8527759  0.081078411   -6.8030036   0.95022773   520346 
 2668000    1.0272373   -6.8024073   -6.8024073   -5.8528347  0.067095354   -6.8024073   0.94957258   520346 
 2669000    1.0256603   -6.8013153   -6.8013153   -5.8532005  0.083510711   -6.8013153   0.94811482   520346 
 2670000    1.0278449   -6.8034018   -6.8034018   -5.8532676  0.071837279   -6.8034018   0.95013424   520346 
 2671000    1.0289765   -6.8036598   -6.8036598   -5.8524795  0.075171835   -6.8036598   0.95118029   520346 
 2672000    1.0298465   -6.8048444   -6.8048444   -5.8528599  0.068119528   -6.8048444   0.95198446   520346 
 2673000     1.029151   -6.8038505   -6.8038505   -5.8525089  0.068143485   -6.8038505   0.95134158   520346 
 2674000    1.0290971   -6.8040462   -6.8040462   -5.8527545   0.09173631   -6.8040462   0.95129173   520346 
 2675000    1.0288709   -6.8034836   -6.8034836   -5.8524009   0.04515558   -6.8034836   0.95108268   520346 
 2676000    1.0285029   -6.8032838   -6.8032838   -5.8525414  0.071763181   -6.8032838   0.95074243   520346 
 2677000    1.0284072   -6.8032881   -6.8032881   -5.8526341  0.074405324   -6.8032881   0.95065402   520346 
 2678000    1.0264678    -6.802451    -6.802451   -5.8535898  0.076782505    -6.802451   0.94886126   520346 
 2679000    1.0277472   -6.8037721   -6.8037721   -5.8537282  0.050979051   -6.8037721   0.95004388   520346 
 2680000    1.0275034   -6.8040935   -6.8040935   -5.8542749   0.05480535   -6.8040935   0.94981855   520346 
 2681000    1.0269189   -6.8030873   -6.8030873    -5.853809  0.082271621   -6.8030873   0.94927824   520346 
 2682000    1.0257628   -6.8017931   -6.8017931   -5.8535836  0.075226226   -6.8017931    0.9482095   520346 
 2683000    1.0279076   -6.8033704   -6.8033704   -5.8531783  0.069461574   -6.8033704   0.95019214   520346 
 2684000    1.0288625   -6.8043714   -6.8043714   -5.8532965  0.073845448   -6.8043714   0.95107485   520346 
 2685000    1.0271633   -6.8037753   -6.8037753   -5.8542711  0.064648124   -6.8037753   0.94950419   520346 
 2686000    1.0268541    -6.804347    -6.804347   -5.8551287  0.056564257    -6.804347   0.94921829   520346 
 2687000    1.0293014   -6.8067988   -6.8067988   -5.8553182  0.068726885   -6.8067988   0.95148058   520346 
 2688000    1.0268148   -6.8048668   -6.8048668   -5.8556848  0.060778091   -6.8048668   0.94918202   520346 
 2689000    1.0263502   -6.8038017   -6.8038017   -5.8550491  0.059106782   -6.8038017   0.94875256   520346 
 2690000    1.0283567   -6.8062597   -6.8062597   -5.8556523  0.060921721   -6.8062597   0.95060736   520346 
 2691000    1.0262622   -6.8039086   -6.8039086   -5.8552374    0.0975222   -6.8039086   0.94867122   520346 
 2692000    1.0280602   -6.8057412   -6.8057412    -5.855408   0.06747798   -6.8057412   0.95033326   520346 
 2693000    1.0276231   -6.8062004   -6.8062004   -5.8562712  0.058835427   -6.8062004   0.94992919   520346 
 2694000    1.0297046   -6.8088521   -6.8088521   -5.8569988   0.06113265   -6.8088521   0.95185331   520346 
 2695000    1.0263429   -6.8051194   -6.8051194   -5.8563736  0.076514994   -6.8051194   0.94874581   520346 
 2696000    1.0279263   -6.8060212   -6.8060212   -5.8558118  0.071735375   -6.8060212   0.95020942   520346 
 2697000    1.0250621   -6.8033736   -6.8033736   -5.8558119  0.064681211   -6.8033736   0.94756178   520346 
 2698000    1.0283866    -6.806826    -6.806826   -5.8561911  0.071842246    -6.806826   0.95063494   520346 
 2699000    1.0269502    -6.804901    -6.804901   -5.8555938  0.088678909    -6.804901    0.9493072   520346 
 2700000     1.028606   -6.8066418   -6.8066418   -5.8558041  0.072886423   -6.8066418   0.95083777   520346 
 2701000     1.028357   -6.8063516   -6.8063516   -5.8557441  0.096870216   -6.8063516   0.95060755   520346 
 2702000    1.0295005   -6.8072933   -6.8072933   -5.8556286  0.072048661   -6.8072933   0.95166466   520346 
 2703000    1.0277901   -6.8057947   -6.8057947   -5.8557112  0.044036486   -6.8057947   0.95008355   520346 
 2704000    1.0261705   -6.8057519   -6.8057519   -5.8571655  0.077190311   -6.8057519   0.94858642   520346 
 2705000    1.0266005   -6.8067224   -6.8067224   -5.8577385  0.044677699   -6.8067224   0.94898389   520346 
 2706000    1.0257349   -6.8061483   -6.8061483   -5.8579646  0.044572616   -6.8061483    0.9481837   520346 
 2707000    1.0274816   -6.8070546   -6.8070546   -5.8572562  0.087015614   -6.8070546   0.94979841   520346 
 2708000     1.027619   -6.8061846   -6.8061846   -5.8562593  0.092205538   -6.8061846   0.94992539   520346 
 2709000    1.0283776   -6.8069737   -6.8069737    -5.856347  0.052463381   -6.8069737   0.95062666   520346 
 2710000    1.0271027   -6.8063398   -6.8063398   -5.8568917   0.05752057   -6.8063398   0.94944811   520346 
 2711000    1.0273094   -6.8060687   -6.8060687   -5.8564295  0.079439695   -6.8060687   0.94963921   520346 
 2712000    1.0273271   -6.8064823   -6.8064823   -5.8568268  0.078263406   -6.8064823   0.94965552   520346 
 2713000    1.0257296   -6.8045273   -6.8045273   -5.8563485  0.035324829   -6.8045273   0.94817881   520346 
 2714000    1.0266182   -6.8060804   -6.8060804   -5.8570801  0.077160815   -6.8060804    0.9490003   520346 
 2715000    1.0283924     -6.80829     -6.80829   -5.8576496  0.048231489     -6.80829   0.95064036   520346 
 2716000    1.0276767   -6.8071039   -6.8071039   -5.8571252  0.069711113   -6.8071039   0.94997869   520346 
 2717000    1.0278813   -6.8082873   -6.8082873   -5.8581195  0.061366784   -6.8082873   0.95016782   520346 
 2718000    1.0296554    -6.809742    -6.809742   -5.8579342  0.080204972    -6.809742   0.95180782   520346 
 2719000    1.0247725   -6.8065294   -6.8065294   -5.8592353  0.075184303   -6.8065294   0.94729406   520346 
 2720000    1.0278864   -6.8090166   -6.8090166   -5.8588441  0.067119276   -6.8090166   0.95017255   520346 
 2721000    1.0274933   -6.8087252   -6.8087252   -5.8589161  0.087801332   -6.8087252   0.94980916   520346 
 2722000    1.0259233   -6.8067233   -6.8067233   -5.8583654  0.066110639   -6.8067233   0.94835785   520346 
 2723000    1.0272335   -6.8078824   -6.8078824   -5.8583133   0.05631659   -6.8078824   0.94956904   520346 
 2724000    1.0265836   -6.8065794   -6.8065794   -5.8576111    0.0541004   -6.8065794   0.94896829   520346 
 2725000     1.026147   -6.8061928   -6.8061928   -5.8576282  0.067405763   -6.8061928   0.94856464   520346 
 2726000    1.0295847    -6.808776    -6.808776   -5.8570335  0.051839224    -6.808776   0.95174248   520346 
 2727000    1.0281201   -6.8072901   -6.8072901   -5.8569015  0.082464237   -6.8072901   0.95038865   520346 
 2728000    1.0253117   -6.8051066   -6.8051066    -5.857314  0.077029418   -6.8051066   0.94779257   520346 
 2729000    1.0280085   -6.8070997   -6.8070997   -5.8568143  0.059162811   -6.8070997    0.9502854   520346 
 2730000    1.0245292   -6.8046969   -6.8046969   -5.8576277  0.069853048   -6.8046969   0.94706921   520346 
 2731000    1.0289386   -6.8087371   -6.8087371   -5.8575918   0.07631714   -6.8087371   0.95114524   520346 
 2732000    1.0283529    -6.808429    -6.808429   -5.8578251  0.064870214    -6.808429   0.95060382   520346 
 2733000    1.0262226   -6.8071879   -6.8071879   -5.8585534    0.0781895   -6.8071879   0.94863454   520346 
 2734000    1.0276355   -6.8081521   -6.8081521   -5.8582114  0.046308937   -6.8081521   0.94994068   520346 
 2735000    1.0258229   -6.8073906   -6.8073906   -5.8591255  0.068783489   -6.8073906   0.94826506   520346 
 2736000     1.026761   -6.8084874   -6.8084874   -5.8593551  0.052774811   -6.8084874   0.94913227   520346 
 2737000    1.0262655   -6.8079988   -6.8079988   -5.8593245  0.070897791   -6.8079988   0.94867425   520346 
 2738000    1.0259594    -6.807103    -6.807103   -5.8587117  0.072882448    -6.807103   0.94839128   520346 
 2739000    1.0261965   -6.8074672   -6.8074672   -5.8588568  0.079190563   -6.8074672    0.9486104   520346 
 2740000    1.0284936   -6.8094382   -6.8094382   -5.8587043  0.068937847   -6.8094382   0.95073388   520346 
 2741000    1.0268629    -6.808094    -6.808094   -5.8588676  0.079794869    -6.808094   0.94922641   520346 
 2742000    1.0285621   -6.8099976   -6.8099976   -5.8592004  0.058439508   -6.8099976   0.95079718   520346 
 2743000    1.0269364   -6.8090303   -6.8090303    -5.859736  0.055762502   -6.8090303   0.94929439   520346 
 2744000    1.0261889   -6.8095862   -6.8095862   -5.8609828  0.045986531   -6.8095862   0.94860341   520346 
 2745000     1.027096   -6.8107549   -6.8107549    -5.861313  0.075659296   -6.8107549   0.94944189   520346 
 2746000    1.0267049   -6.8095404   -6.8095404   -5.8604599  0.053047077   -6.8095404   0.94908044   520346 
 2747000    1.0282272   -6.8112321   -6.8112321   -5.8607445  0.076032373   -6.8112321   0.95048758   520346 
 2748000    1.0259326   -6.8089903   -6.8089903   -5.8606238  0.068714433   -6.8089903   0.94836649   520346 
 2749000    1.0271401   -6.8099769   -6.8099769   -5.8604942  0.051429682   -6.8099769   0.94948272   520346 
 2750000    1.0253366   -6.8089019   -6.8089019   -5.8610863  0.070623487   -6.8089019   0.94781558   520346 
 2751000     1.024315   -6.8090119   -6.8090119   -5.8621407  0.061642263   -6.8090119   0.94687119   520346 
 2752000    1.0249346   -6.8093522   -6.8093522   -5.8619082  0.050630503   -6.8093522   0.94744397   520346 
 2753000    1.0271125   -6.8119171   -6.8119171   -5.8624599  0.043161164   -6.8119171   0.94945722   520346 
 2754000    1.0257812   -6.8106725   -6.8106725    -5.862446  0.066354951   -6.8106725   0.94822654   520346 
 2755000    1.0233936   -6.8093638   -6.8093638   -5.8633444  0.040557808   -6.8093638   0.94601944   520346 
 2756000    1.0249862   -6.8095741   -6.8095741   -5.8620824  0.084822474   -6.8095741   0.94749168   520346 
 2757000    1.0261379   -6.8101089   -6.8101089   -5.8615526  0.095267214   -6.8101089    0.9485563   520346 
 2758000    1.0246603   -6.8085717   -6.8085717   -5.8613813  0.061260871   -6.8085717   0.94719038   520346 
 2759000    1.0253052   -6.8096861   -6.8096861   -5.8618995  0.080405983   -6.8096861   0.94778655   520346 
 2760000    1.0252508    -6.810204    -6.810204   -5.8624677  0.074017484    -6.810204   0.94773628   520346 
 2761000    1.0268094   -6.8112399   -6.8112399   -5.8620629  0.042545235   -6.8112399     0.949177   520346 
 2762000    1.0249168    -6.810432    -6.810432   -5.8630045  0.071939728    -6.810432   0.94742751   520346 
 2763000     1.023897   -6.8094516   -6.8094516   -5.8629668  0.087239513   -6.8094516   0.94648478   520346 
 2764000    1.0243313   -6.8110894   -6.8110894   -5.8642032   0.06087328   -6.8110894   0.94688627   520346 
 2765000    1.0248029   -6.8102541   -6.8102541   -5.8629319  0.081543112   -6.8102541   0.94732221   520346 
 2766000    1.0258175   -6.8107556   -6.8107556   -5.8624955  0.073155901   -6.8107556   0.94826013   520346 
 2767000    1.0252866   -6.8108206   -6.8108206   -5.8630512  0.081214232   -6.8108206   0.94776932   520346 
 2768000    1.0248032   -6.8098169   -6.8098169   -5.8624944  0.060585031   -6.8098169   0.94732247   520346 
 2769000    1.0249208   -6.8097636   -6.8097636   -5.8623323  0.042148724   -6.8097636   0.94743123   520346 
 2770000    1.0285018   -6.8129292   -6.8129292   -5.8621877   0.10006736   -6.8129292   0.95074147   520346 
 2771000    1.0240983   -6.8086629   -6.8086629   -5.8619921  0.065223869   -6.8086629   0.94667086   520346 
 2772000    1.0254358   -6.8107226   -6.8107226   -5.8628154  0.042995194   -6.8107226   0.94790724   520346 
 2773000    1.0264539    -6.812199    -6.812199   -5.8633506  0.079578244    -6.812199   0.94884836   520346 
 2774000    1.0255154   -6.8111577   -6.8111577   -5.8631769  0.078586683   -6.8111577   0.94798082   520346 
 2775000    1.0256299    -6.811563    -6.811563   -5.8634763  0.071384536    -6.811563   0.94808665   520346 
 2776000     1.025028   -6.8105508   -6.8105508   -5.8630205  0.078305622   -6.8105508   0.94753032   520346 
 2777000    1.0257523   -6.8106358   -6.8106358   -5.8624361   0.06486601   -6.8106358   0.94819978   520346 
 2778000    1.0256727    -6.810767    -6.810767   -5.8626407  0.059726829    -6.810767   0.94812628   520346 
 2779000    1.0241503    -6.809318    -6.809318   -5.8625991  0.059116898    -6.809318    0.9467189   520346 
 2780000    1.0256085    -6.811689    -6.811689    -5.863622  0.049687928    -6.811689   0.94806693   520346 
 2781000    1.0265273   -6.8121591   -6.8121591   -5.8632428  0.045915113   -6.8121591   0.94891625   520346 
 2782000    1.0243212   -6.8102191   -6.8102191   -5.8633422  0.079679045   -6.8102191   0.94687691   520346 
 2783000    1.0239553   -6.8092934   -6.8092934   -5.8627547  0.042128938   -6.8092934    0.9465387   520346 
 2784000    1.0235606   -6.8096031   -6.8096031   -5.8634293  0.044664795   -6.8096031   0.94617383   520346 
 2785000    1.0244645    -6.810615    -6.810615   -5.8636056  0.055400804    -6.810615   0.94700943   520346 
 2786000    1.0239525   -6.8105777   -6.8105777   -5.8640416  0.076252344   -6.8105777   0.94653611   520346 
 2787000    1.0243917    -6.810927    -6.810927   -5.8639849  0.087459088    -6.810927   0.94694209   520346 
 2788000    1.0253705   -6.8115648   -6.8115648   -5.8637179  0.048568618   -6.8115648   0.94784685   520346 
 2789000    1.0260992   -6.8121589   -6.8121589   -5.8636384  0.070187595   -6.8121589   0.94852047   520346 
 2790000    1.0247539   -6.8110947   -6.8110947   -5.8638178  0.092023754   -6.8110947    0.9472769   520346 
 2791000    1.0262816   -6.8126405   -6.8126405   -5.8639514  0.066711305   -6.8126405   0.94868906   520346 
 2792000    1.0268594   -6.8132413   -6.8132413   -5.8640181  0.069300021   -6.8132413   0.94922322   520346 
 2793000    1.0258227   -6.8115438   -6.8115438   -5.8632789  0.064931534   -6.8115438   0.94826487   520346 
 2794000    1.0264816   -6.8121234   -6.8121234   -5.8632494  0.074344689   -6.8121234   0.94887403   520346 
 2795000    1.0245444   -6.8113819   -6.8113819   -5.8642987  0.095287568   -6.8113819   0.94708323   520346 
 2796000    1.0258966    -6.812843    -6.812843   -5.8645098  0.079779162    -6.812843    0.9483332   520346 
 2797000    1.0259163   -6.8129502   -6.8129502   -5.8645988  0.046105165   -6.8129502   0.94835147   520346 
 2798000    1.0259107   -6.8121756   -6.8121756   -5.8638294  0.068040902   -6.8121756   0.94834621   520346 
 2799000      1.02586   -6.8131465   -6.8131465   -5.8648471  0.049641718   -6.8131465   0.94829941   520346 
 2800000      1.02787   -6.8148464   -6.8148464   -5.8646891  0.077362498   -6.8148464   0.95015737   520346 
 2801000    1.0239651   -6.8116291   -6.8116291   -5.8650813  0.073246628   -6.8116291   0.94654775   520346 
 2802000    1.0257973   -6.8139932   -6.8139932   -5.8657518  0.066148798   -6.8139932   0.94824143   520346 
 2803000    1.0268933   -6.8151338   -6.8151338   -5.8658793  0.059959921   -6.8151338   0.94925458   520346 
 2804000     1.024152   -6.8131085   -6.8131085    -5.866388  0.060071645   -6.8131085   0.94672048   520346 
 2805000    1.0259724   -6.8145765   -6.8145765   -5.8661732  0.058696956   -6.8145765   0.94840328   520346 
 2806000    1.0243172   -6.8138782   -6.8138782    -5.867005  0.070924878   -6.8138782   0.94687322   520346 
 2807000    1.0233623     -6.81232     -6.81232   -5.8663294   0.05839268     -6.81232   0.94599054   520346 
 2808000    1.0261838    -6.814614    -6.814614   -5.8660153  0.057578361    -6.814614   0.94859865   520346 
 2809000    1.0260554   -6.8145748   -6.8145748   -5.8660948  0.064094873   -6.8145748      0.94848   520346 
 2810000    1.0257066   -6.8143784   -6.8143784   -5.8662208  0.061345784   -6.8143784   0.94815755   520346 
 2811000    1.0253716   -6.8136331   -6.8136331   -5.8657853  0.077418254   -6.8136331   0.94784787   520346 
 2812000     1.026551   -6.8152439   -6.8152439   -5.8663058  0.064144285   -6.8152439   0.94893811   520346 
 2813000    1.0262871   -6.8147693   -6.8147693   -5.8660752  0.036247459   -6.8147693   0.94869418   520346 
 2814000     1.023517   -6.8129961   -6.8129961   -5.8668626  0.081550427   -6.8129961   0.94613348   520346 
 2815000    1.0271628   -6.8157473   -6.8157473   -5.8662437  0.068771542   -6.8157473   0.94950364   520346 
 2816000    1.0245621   -6.8142166   -6.8142166   -5.8671169   0.08205598   -6.8142166   0.94709965   520346 
 2817000    1.0257968   -6.8150478   -6.8150478   -5.8668068  0.056475653   -6.8150478   0.94824097   520346 
 2818000    1.0269062   -6.8165938   -6.8165938   -5.8673274  0.052725619   -6.8165938   0.94926645   520346 
 2819000    1.0244808   -6.8138637   -6.8138637   -5.8668392  0.085409033   -6.8138637   0.94702443   520346 
 2820000    1.0254809   -6.8147378   -6.8147378   -5.8667888  0.072611577   -6.8147378   0.94794898   520346 
 2821000    1.0266855   -6.8162541   -6.8162541   -5.8671917  0.062050651   -6.8162541   0.94906244   520346 
 2822000    1.0246695   -6.8153713   -6.8153713   -5.8681724  0.061441496   -6.8153713   0.94719892   520346 
 2823000    1.0237709   -6.8151076   -6.8151076   -5.8687394  0.055783864   -6.8151076   0.94636827   520346 
 2824000    1.0239939   -6.8160819   -6.8160819   -5.8695075  0.065019501   -6.8160819   0.94657436   520346 
 2825000    1.0240902    -6.815608    -6.815608   -5.8689447  0.078028283    -6.815608   0.94666335   520346 
 2826000    1.0244559   -6.8164782   -6.8164782   -5.8694767  0.040455844   -6.8164782   0.94700144   520346 
 2827000     1.025924   -6.8179649   -6.8179649   -5.8696064  0.057946936   -6.8179649    0.9483585   520346 
 2828000    1.0259187   -6.8178864   -6.8178864   -5.8695328  0.032328515   -6.8178864    0.9483536   520346 
 2829000    1.0252077   -6.8177346   -6.8177346   -5.8700382  0.074131374   -6.8177346   0.94769642   520346 
 2830000    1.0280253   -6.8196078   -6.8196078   -5.8693069  0.063507272   -6.8196078   0.95030096   520346 
 2831000    1.0239946   -6.8165832   -6.8165832   -5.8700082  0.059287025   -6.8165832   0.94657497   520346 
 2832000    1.0261006   -6.8192216   -6.8192216   -5.8706997  0.048249927   -6.8192216   0.94852183   520346 
 2833000    1.0243699   -6.8168447   -6.8168447   -5.8699228  0.095943972   -6.8168447    0.9469219   520346 
 2834000     1.024111   -6.8167825   -6.8167825   -5.8700999  0.059975228   -6.8167825   0.94668266   520346 
 2835000    1.0249406   -6.8170501   -6.8170501   -5.8696006   0.10668367   -6.8170501   0.94744952   520346 
 2836000    1.0246218   -6.8162129   -6.8162129   -5.8690581  0.073274168   -6.8162129   0.94715477   520346 
 2837000    1.0259772   -6.8179863   -6.8179863   -5.8695786   0.08408789   -6.8179863   0.94840771   520346 
 2838000    1.0247396   -6.8176188   -6.8176188   -5.8703551  0.077502546   -6.8176188    0.9472637   520346 
 2839000    1.0248214   -6.8180923   -6.8180923    -5.870753  0.074271048   -6.8180923   0.94733927   520346 
 2840000    1.0255623    -6.819343    -6.819343   -5.8713187  0.068987192    -6.819343   0.94802423   520346 
 2841000    1.0249673   -6.8186856   -6.8186856   -5.8712114   0.06278627   -6.8186856   0.94747421   520346 
 2842000    1.0256667    -6.818515    -6.818515   -5.8703943  0.083753205    -6.818515    0.9481207   520346 
 2843000    1.0242392   -6.8178878   -6.8178878   -5.8710866    0.0741301   -6.8178878   0.94680115   520346 
 2844000    1.0251052   -6.8187478   -6.8187478   -5.8711462  0.055460017   -6.8187478   0.94760167   520346 
 2845000    1.0239798   -6.8170805   -6.8170805   -5.8705192    0.0673288   -6.8170805    0.9465613   520346 
 2846000    1.0233269   -6.8168975   -6.8168975   -5.8709398  0.068013171   -6.8168975   0.94595778   520346 
 2847000    1.0236461   -6.8167907   -6.8167907   -5.8705378  0.051018296   -6.8167907   0.94625285   520346 
 2848000    1.0235184   -6.8172899   -6.8172899    -5.871155   0.09593299   -6.8172899   0.94613485   520346 
 2849000    1.0267505   -6.8201046   -6.8201046    -5.870982  0.064235772   -6.8201046   0.94912254   520346 
 2850000    1.0234745    -6.816858    -6.816858   -5.8707638  0.059570661    -6.816858   0.94609424   520346 
 2851000    1.0239837   -6.8164374   -6.8164374   -5.8698725  0.073224498   -6.8164374   0.94656492   520346 
 2852000    1.0243339   -6.8176472   -6.8176472   -5.8707585  0.057896928   -6.8176472   0.94688866   520346 
 2853000    1.0236678   -6.8177405   -6.8177405   -5.8714677  0.048452632   -6.8177405   0.94627289   520346 
 2854000    1.0241219   -6.8185844   -6.8185844   -5.8718917  0.071313842   -6.8185844   0.94669268   520346 
 2855000    1.0237838   -6.8180565   -6.8180565   -5.8716763  0.076083041   -6.8180565   0.94638018   520346 
 2856000    1.0240308    -6.819297    -6.819297   -5.8726886  0.058654053    -6.819297   0.94660845   520346 
 2857000    1.0227044   -6.8179455   -6.8179455   -5.8725631  0.022630858   -6.8179455   0.94538234   520346 
 2858000    1.0230221   -6.8191058   -6.8191058   -5.8734298  0.063504204   -6.8191058   0.94567608   520346 
 2859000    1.0241124   -6.8191822   -6.8191822   -5.8724983  0.070703419   -6.8191822   0.94668394   520346 
 2860000    1.0239658   -6.8181178   -6.8181178   -5.8715695  0.046130859   -6.8181178   0.94654836   520346 
 2861000    1.0254265   -6.8190255   -6.8190255   -5.8711268  0.054570576   -6.8190255   0.94789861   520346 
 2862000    1.0240964    -6.818545    -6.818545   -5.8718759  0.053573496    -6.818545   0.94666912   520346 
 2863000    1.0206027   -6.8165623   -6.8165623   -5.8731227  0.054385716   -6.8165623   0.94343956   520346 
 2864000    1.0260542   -6.8212956   -6.8212956   -5.8728167  0.059678147   -6.8212956   0.94847889   520346 
 2865000    1.0242733    -6.819443    -6.819443   -5.8726104  0.088743933    -6.819443   0.94683264   520346 
 2866000    1.0246289   -6.8199743   -6.8199743    -5.872813   0.06301653   -6.8199743   0.94716134   520346 
 2867000    1.0225624    -6.818711    -6.818711   -5.8734599  0.055655044    -6.818711    0.9452511   520346 
 2868000    1.0242154   -6.8199031   -6.8199031   -5.8731239  0.076881178   -6.8199031   0.94677913   520346 
 2869000    1.0263507    -6.821186    -6.821186   -5.8724331  0.082587775    -6.821186   0.94875294   520346 
 2870000    1.0247944   -6.8197885   -6.8197885   -5.8724741    0.0907236   -6.8197885   0.94731436   520346 
 2871000    1.0228623   -6.8175555   -6.8175555   -5.8720272  0.095577431   -6.8175555   0.94552829   520346 
 2872000    1.0258631   -6.8204303   -6.8204303    -5.872128  0.040888002   -6.8204303   0.94830226   520346 
 2873000    1.0246261    -6.818778    -6.818778   -5.8716192  0.058189993    -6.818778   0.94715876   520346 
 2874000    1.0246695   -6.8189302   -6.8189302   -5.8717312  0.057572277   -6.8189302   0.94719893   520346 
 2875000     1.024723   -6.8197746   -6.8197746   -5.8725263   0.06936821   -6.8197746   0.94724835   520346 
 2876000    1.0242165   -6.8193314   -6.8193314   -5.8725513  0.075303682   -6.8193314    0.9467801   520346 
 2877000    1.0246085   -6.8206463   -6.8206463   -5.8735038  0.032769238   -6.8206463   0.94714246   520346 
 2878000    1.0248709    -6.820344    -6.820344   -5.8729589  0.056298496    -6.820344   0.94738509   520346 
 2879000    1.0264183   -6.8215357   -6.8215357   -5.8727203  0.065537951   -6.8215357   0.94881546   520346 
 2880000    1.0265879   -6.8219073   -6.8219073    -5.872935  0.082057458   -6.8219073   0.94897228   520346 
 2881000    1.0224234   -6.8185894   -6.8185894   -5.8734667  0.074830765   -6.8185894   0.94512265   520346 
 2882000    1.0253166   -6.8213354   -6.8213354   -5.8735383  0.048776857   -6.8213354   0.94779711   520346 
 2883000    1.0241519   -6.8197841   -6.8197841   -5.8730636  0.048487737   -6.8197841   0.94672043   520346 
 2884000    1.0249819   -6.8206785   -6.8206785   -5.8731909  0.089430204   -6.8206785   0.94748764   520346 
 2885000    1.0269417   -6.8224249   -6.8224249   -5.8731256  0.062297187   -6.8224249   0.94929926   520346 
 2886000    1.0264213   -6.8224659   -6.8224659   -5.8736477   0.07638782   -6.8224659    0.9488182   520346 
 2887000    1.0240481   -6.8202758   -6.8202758   -5.8736514  0.063840083   -6.8202758   0.94662444   520346 
 2888000    1.0260003   -6.8228323   -6.8228323   -5.8744033  0.055674443   -6.8228323   0.94842903   520346 
 2889000    1.0240151   -6.8215265   -6.8215265   -5.8749325  0.054568418   -6.8215265   0.94659399   520346 
 2890000    1.0237415   -6.8209871   -6.8209871    -5.874646   0.06251767   -6.8209871   0.94634108   520346 
 2891000    1.0240742    -6.821218    -6.821218   -5.8745694  0.077441662    -6.821218   0.94664864   520346 
 2892000    1.0238585   -6.8212018   -6.8212018   -5.8747526  0.037655755   -6.8212018   0.94644922   520346 
 2893000    1.0229592   -6.8197404   -6.8197404   -5.8741225  0.063619092   -6.8197404   0.94561786   520346 
 2894000    1.0247277   -6.8207598   -6.8207598   -5.8735071  0.077120625   -6.8207598   0.94725265   520346 
 2895000    1.0251266    -6.821704    -6.821704   -5.8740826  0.078016751    -6.821704   0.94762143   520346 
 2896000    1.0251719   -6.8212329   -6.8212329   -5.8735696  0.051134955   -6.8212329   0.94766326   520346 
 2897000    1.0261633   -6.8220476   -6.8220476   -5.8734678  0.073616676   -6.8220476   0.94857974   520346 
 2898000    1.0277791   -6.8241323   -6.8241323   -5.8740588  0.061286409   -6.8241323   0.95007342   520346 
 2899000    1.0247789   -6.8213409   -6.8213409   -5.8740409  0.084044971   -6.8213409   0.94730003   520346 
 2900000    1.0243627   -6.8217421   -6.8217421   -5.8748268  0.063802485   -6.8217421    0.9469153   520346 
 2901000    1.0273236   -6.8241339   -6.8241339   -5.8744817  0.061715773   -6.8241339   0.94965228   520346 
 2902000    1.0244163   -6.8210771   -6.8210771   -5.8741123  0.074093482   -6.8210771   0.94696484   520346 
 2903000    1.0232253   -6.8199768   -6.8199768    -5.874113  0.081775947   -6.8199768   0.94586384   520346 
 2904000    1.0236661   -6.8210178   -6.8210178   -5.8747464  0.069670385   -6.8210178   0.94627139   520346 
 2905000    1.0222498    -6.820574    -6.820574   -5.8756118  0.066332345    -6.820574   0.94496216   520346 
 2906000    1.0229373   -6.8213929   -6.8213929   -5.8757952  0.077225385   -6.8213929   0.94559763   520346 
 2907000    1.0228205   -6.8210913   -6.8210913   -5.8756016  0.070137397   -6.8210913   0.94548965   520346 
 2908000     1.022301   -6.8205475   -6.8205475    -5.875538  0.064349881   -6.8205475    0.9450095   520346 
 2909000    1.0237636   -6.8219603   -6.8219603   -5.8755988  0.068649944   -6.8219603   0.94636152   520346 
 2910000     1.022066   -6.8202308   -6.8202308   -5.8754386  0.054126123   -6.8202308   0.94479219   520346 
 2911000    1.0245919   -6.8228305   -6.8228305   -5.8757033  0.067688392   -6.8228305   0.94712719   520346 
 2912000    1.0216733   -6.8204677   -6.8204677   -5.8760385  0.037165012   -6.8204677   0.94442923   520346 
 2913000    1.0224679   -6.8217449   -6.8217449   -5.8765812  0.077569903   -6.8217449   0.94516377   520346 
 2914000    1.0223482    -6.821979    -6.821979   -5.8769259  0.095249334    -6.821979   0.94505307   520346 
 2915000    1.0238581    -6.823404    -6.823404   -5.8769552   0.07283352    -6.823404   0.94644881   520346 
 2916000    1.0223966    -6.822659    -6.822659   -5.8775612  0.089041994    -6.822659   0.94509784   520346 
 2917000    1.0226927    -6.823182    -6.823182   -5.8778105  0.084234552    -6.823182   0.94537158   520346 
 2918000    1.0243427    -6.823701    -6.823701   -5.8768042  0.096827166    -6.823701   0.94689681   520346 
 2919000    1.0216839   -6.8211001   -6.8211001   -5.8766611  0.060158913   -6.8211001   0.94443906   520346 
 2920000    1.0228807   -6.8232387   -6.8232387   -5.8776934  0.063228965   -6.8232387   0.94554531   520346 
 2921000    1.0243428   -6.8246201   -6.8246201   -5.8777232  0.052495263   -6.8246201   0.94689694   520346 
 2922000    1.0244662   -6.8243915   -6.8243915   -5.8773806  0.075103404   -6.8243915   0.94701093   520346 
 2923000    1.0231208   -6.8224768   -6.8224768   -5.8767095  0.069130355   -6.8224768   0.94576732   520346 
 2924000    1.0246321    -6.824893    -6.824893   -5.8777287  0.072437334    -6.824893   0.94716431   520346 
 2925000    1.0216825   -6.8223348   -6.8223348   -5.8778971  0.049787346   -6.8223348   0.94443776   520346 
 2926000    1.0221821    -6.823173    -6.823173   -5.8782735  0.038740077    -6.823173   0.94489951   520346 
 2927000    1.0245535   -6.8248706   -6.8248706   -5.8777789  0.041983822   -6.8248706    0.9470917   520346 
 2928000     1.023486   -6.8223237   -6.8223237   -5.8762188  0.051437018   -6.8223237   0.94610483   520346 
 2929000    1.0224531   -6.8220083   -6.8220083   -5.8768583  0.049704899   -6.8220083   0.94515002   520346 
 2930000    1.0223148   -6.8223202   -6.8223202    -5.877298   0.07002965   -6.8223202   0.94502225   520346 
 2931000    1.0216636    -6.821718    -6.821718   -5.8772978  0.062985451    -6.821718   0.94442028   520346 
 2932000    1.0225935   -6.8234022   -6.8234022   -5.8781224  0.057627439   -6.8234022   0.94527983   520346 
 2933000      1.02336   -6.8238503   -6.8238503   -5.8778619  0.070617029   -6.8238503   0.94598836   520346 
 2934000    1.0232325   -6.8235777   -6.8235777   -5.8777071  0.064447374   -6.8235777   0.94587053   520346 
 2935000    1.0221927   -6.8229272   -6.8229272   -5.8780178  0.054188474   -6.8229272   0.94490937   520346 
 2936000    1.0217448   -6.8224355   -6.8224355   -5.8779401  0.063259246   -6.8224355   0.94449535   520346 
 2937000    1.0235638   -6.8242101   -6.8242101   -5.8780334  0.055621144   -6.8242101   0.94617675   520346 
 2938000    1.0246809   -6.8251537   -6.8251537   -5.8779443  0.071013912   -6.8251537    0.9472094   520346 
 2939000    1.0236283   -6.8246728   -6.8246728   -5.8784364  0.055853921   -6.8246728   0.94623644   520346 
 2940000    1.0246002   -6.8248969   -6.8248969   -5.8777621  0.074338507   -6.8248969   0.94713479   520346 
 2941000    1.0214454   -6.8215863   -6.8215863   -5.8773678  0.058536644   -6.8215863   0.94421853   520346 
 2942000     1.023083    -6.823516    -6.823516   -5.8777836  0.072053842    -6.823516   0.94573231   520346 
 2943000    1.0249228   -6.8261233   -6.8261233   -5.8786903  0.055188643   -6.8261233   0.94743302   520346 
 2944000    1.0225181   -6.8232577   -6.8232577   -5.8780476  0.061459098   -6.8232577    0.9452101   520346 
 2945000    1.0246332   -6.8265894   -6.8265894   -5.8794241  0.059563015   -6.8265894    0.9471653   520346 
 2946000    1.0249504   -6.8268007   -6.8268007   -5.8793421  0.050724144   -6.8268007   0.94745859   520346 
 2947000    1.0225273   -6.8248519   -6.8248519   -5.8796332  0.044429454   -6.8248519    0.9452187   520346 
 2948000    1.0226777   -6.8250677   -6.8250677     -5.87971  0.063444363   -6.8250677   0.94535764   520346 
 2949000     1.021361   -6.8238114   -6.8238114   -5.8796709  0.062063203   -6.8238114   0.94414055   520346 
 2950000    1.0234329   -6.8252845   -6.8252845   -5.8792288   0.06529853   -6.8252845   0.94605574   520346 
 2951000    1.0234311   -6.8258873   -6.8258873   -5.8798332  0.065242428   -6.8258873    0.9460541   520346 
 2952000    1.0237662   -6.8270759   -6.8270759   -5.8807121  0.051718113   -6.8270759   0.94636388   520346 
 2953000    1.0223851   -6.8255444   -6.8255444   -5.8804572  0.072262129   -6.8255444   0.94508721   520346 
 2954000    1.0217711   -6.8252624   -6.8252624   -5.8807427  0.054022604   -6.8252624   0.94451966   520346 
 2955000    1.0226261   -6.8252382   -6.8252382   -5.8799282  0.047576209   -6.8252382   0.94530999   520346 
 2956000    1.0233899   -6.8256292   -6.8256292   -5.8796132  0.075078551   -6.8256292   0.94601601   520346 
 2957000    1.0227467   -6.8258928   -6.8258928   -5.8804714  0.054285146   -6.8258928   0.94542142   520346 
 2958000     1.022359   -6.8253035   -6.8253035   -5.8802404  0.065357788   -6.8253035   0.94506308   520346 
 2959000    1.0216021   -6.8248237   -6.8248237   -5.8804603  0.068041905   -6.8248237    0.9443634   520346 
 2960000    1.0214935   -6.8251634   -6.8251634   -5.8809004   0.06409236   -6.8251634   0.94426301   520346 
 2961000    1.0216697   -6.8255466   -6.8255466   -5.8811207   0.08944826   -6.8255466   0.94442589   520346 
 2962000    1.0208853   -6.8249874   -6.8249874   -5.8812866  0.072205701   -6.8249874   0.94370081   520346 
 2963000    1.0240277   -6.8281128   -6.8281128   -5.8815073  0.054146181   -6.8281128   0.94660557   520346 
 2964000    1.0208499   -6.8256651   -6.8256651   -5.8819971  0.068847844   -6.8256651   0.94366807   520346 
 2965000    1.0209581   -6.8251466   -6.8251466   -5.8813785  0.054196878   -6.8251466   0.94376807   520346 
 2966000    1.0222601   -6.8269975   -6.8269975   -5.8820258  0.075902262   -6.8269975   0.94497169   520346 
 2967000    1.0226476   -6.8278376   -6.8278376   -5.8825078  0.049032593   -6.8278376   0.94532983   520346 
 2968000    1.0218311   -6.8269789   -6.8269789   -5.8824038  0.091545313   -6.8269789   0.94457506   520346 
 2969000    1.0225854   -6.8279672   -6.8279672   -5.8826949  0.066685289   -6.8279672   0.94527238   520346 
 2970000    1.0216495   -6.8271962   -6.8271962    -5.882789  0.061592474   -6.8271962   0.94440719   520346 
 2971000    1.0210743   -6.8268006   -6.8268006   -5.8829251  0.060642786   -6.8268006   0.94387549   520346 
 2972000    1.0228312   -6.8281601   -6.8281601   -5.8826605   0.08254702   -6.8281601   0.94549954   520346 
 2973000    1.0237292   -6.8289991   -6.8289991   -5.8826695  0.074502298   -6.8289991   0.94632968   520346 
 2974000    1.0222241   -6.8283385   -6.8283385   -5.8834001  0.069684127   -6.8283385    0.9449384   520346 
 2975000    1.0242637   -6.8292042   -6.8292042   -5.8823804  0.057469266   -6.8292042   0.94682376   520346 
 2976000     1.021609   -6.8272308   -6.8272308   -5.8828611  0.076361145   -6.8272308   0.94436976   520346 
 2977000    1.0253101   -6.8297527   -6.8297527   -5.8819616  0.027955068   -6.8297527   0.94779108   520346 
 2978000    1.0211296   -6.8253856   -6.8253856   -5.8814589  0.040133074   -6.8253856   0.94392666   520346 
 2979000    1.0209636   -6.8272465   -6.8272465   -5.8834733  0.073751829   -6.8272465   0.94377314   520346 
 2980000    1.0210889   -6.8277464   -6.8277464   -5.8838574  0.066069361   -6.8277464   0.94388904   520346 
 2981000    1.0209043   -6.8274468   -6.8274468   -5.8837284  0.042049541   -6.8274468    0.9437184   520346 
 2982000    1.0204027   -6.8261567   -6.8261567   -5.8829021  0.063079281   -6.8261567   0.94325466   520346 
 2983000    1.0215851   -6.8272747   -6.8272747    -5.882927  0.071374349   -6.8272747   0.94434769   520346 
 2984000    1.0208448   -6.8265688   -6.8265688   -5.8829054  0.059799433   -6.8265688   0.94366334   520346 
 2985000    1.0218008   -6.8268177   -6.8268177   -5.8822706  0.057956594   -6.8268177   0.94454709   520346 
 2986000    1.0229106   -6.8288802   -6.8288802   -5.8833072  0.063656455   -6.8288802   0.94557298   520346 
 2987000    1.0215403   -6.8273699   -6.8273699   -5.8830636  0.052588246   -6.8273699   0.94430632   520346 
 2988000    1.0218713   -6.8278506   -6.8278506   -5.8832383  0.047364022   -6.8278506   0.94461224   520346 
 2989000    1.0222832   -6.8287246   -6.8287246   -5.8837316  0.043200401   -6.8287246   0.94499304   520346 
 2990000    1.0198726   -6.8257657   -6.8257657    -5.883001  0.064837249   -6.8257657   0.94276467   520346 
 2991000    1.0207977     -6.82635     -6.82635   -5.8827301  0.064672117     -6.82635   0.94361983   520346 
 2992000    1.0238408    -6.829049    -6.829049   -5.8826161  0.053002332    -6.829049   0.94643288   520346 
 2993000    1.0214191   -6.8280948   -6.8280948   -5.8839006  0.053708878   -6.8280948   0.94419419   520346 
 2994000    1.0209145   -6.8275843   -6.8275843   -5.8838566  0.057829409   -6.8275843   0.94372777   520346 
 2995000    1.0232246   -6.8294474   -6.8294474   -5.8835842  0.072650874   -6.8294474   0.94586327   520346 
 2996000    1.0241938   -6.8299332   -6.8299332    -5.883174  0.054224493   -6.8299332   0.94675918   520346 
 2997000    1.0236837    -6.829485    -6.829485   -5.8831974  0.048861765    -6.829485    0.9462876   520346 
 2998000    1.0225715   -6.8291417   -6.8291417   -5.8838822  0.045338525   -6.8291417    0.9452595   520346 
 2999000    1.0213087   -6.8281892   -6.8281892    -5.884097  0.082364413   -6.8281892    0.9440922   520346 
 3000000    1.0201088   -6.8265427   -6.8265427   -5.8835597  0.060029532   -6.8265427   0.94298297   520346 
 3001000    1.0218764   -6.8278447   -6.8278447   -5.8832278  0.032410004   -6.8278447   0.94461692   520346 
 3002000    1.0233653   -6.8301115   -6.8301115   -5.8841182  0.051049278   -6.8301115   0.94599327   520346 
 3003000    1.0214019    -6.828218    -6.828218   -5.8840396  0.054254455    -6.828218   0.94417837   520346 
 3004000    1.0200506    -6.826475    -6.826475   -5.8835458  0.057267984    -6.826475   0.94292916   520346 
 3005000    1.0210072   -6.8272612   -6.8272612   -5.8834477  0.063285993   -6.8272612   0.94381349   520346 
 3006000    1.0204133   -6.8267835   -6.8267835    -5.883519  0.065669552   -6.8267835   0.94326445   520346 
 3007000    1.0200449    -6.826736    -6.826736   -5.8838121  0.051131357    -6.826736   0.94292392   520346 
 3008000    1.0226233   -6.8294226   -6.8294226   -5.8841152  0.049949838   -6.8294226    0.9453074   520346 
 3009000    1.0232991   -6.8296274   -6.8296274   -5.8836953  0.071929838   -6.8296274    0.9459321   520346 
 3010000    1.0221336   -6.8286584   -6.8286584   -5.8838037   0.10122186   -6.8286584    0.9448547   520346 
 3011000    1.0195044    -6.826687    -6.826687   -5.8842627  0.054895574    -6.826687   0.94242428   520346 
 3012000    1.0222909    -6.829317    -6.829317   -5.8843169  0.033663428    -6.829317   0.94500011   520346 
 3013000    1.0197613   -6.8278315   -6.8278315   -5.8851698  0.051709976   -6.8278315   0.94266173   520346 
 3014000    1.0207187   -6.8288895   -6.8288895   -5.8853428    0.0274718   -6.8288895   0.94354675   520346 
 3015000    1.0201942   -6.8291487   -6.8291487   -5.8860867  0.045971695   -6.8291487   0.94306191   520346 
 3016000    1.0203221   -6.8294269   -6.8294269   -5.8862467  0.049370169   -6.8294269   0.94318021   520346 
 3017000     1.020493   -6.8305934   -6.8305934   -5.8872552  0.058731518   -6.8305934   0.94333814   520346 
 3018000    1.0204447   -6.8308959   -6.8308959   -5.8876023  0.073736798   -6.8308959   0.94329353   520346 
 3019000    1.0193097   -6.8293341   -6.8293341   -5.8870898  0.041434761   -6.8293341   0.94224433   520346 
 3020000    1.0211554   -6.8304317   -6.8304317   -5.8864812  0.044154632   -6.8304317   0.94395046   520346 
 3021000    1.0212818   -6.8316135   -6.8316135   -5.8875462  0.069140103   -6.8316135    0.9440673   520346 
 3022000    1.0198723   -6.8294958   -6.8294958   -5.8867315  0.068532198   -6.8294958   0.94276434   520346 
 3023000    1.0197971    -6.830041    -6.830041   -5.8873461  0.068263507    -6.830041   0.94269487   520346 
 3024000     1.023068   -6.8325117   -6.8325117   -5.8867933  0.064450199   -6.8325117   0.94571844   520346 
 3025000    1.0222295   -6.8317936   -6.8317936   -5.8868502  0.047785809   -6.8317936    0.9449434   520346 
 3026000    1.0202185   -6.8298153   -6.8298153   -5.8867309  0.073187951   -6.8298153   0.94308442   520346 
 3027000    1.0216961   -6.8306692   -6.8306692    -5.886219  0.048360558   -6.8306692   0.94445025   520346 
 3028000    1.0214277   -6.8302694   -6.8302694   -5.8860672  0.040913615   -6.8302694   0.94420217   520346 
 3029000    1.0216138   -6.8310717   -6.8310717   -5.8866975  0.051981746   -6.8310717   0.94437424   520346 
 3030000    1.0208745   -6.8305221   -6.8305221   -5.8868313  0.045914263   -6.8305221    0.9436908   520346 
 3031000    1.0178321   -6.8280501   -6.8280501   -5.8871717  0.066328188   -6.8280501   0.94087845   520346 
 3032000    1.0191658   -6.8286919   -6.8286919   -5.8865807  0.064113546   -6.8286919   0.94211126   520346 
 3033000    1.0232667   -6.8333366   -6.8333366   -5.8874344  0.078501125   -6.8333366   0.94590219   520346 
 3034000    1.0205867   -6.8301837   -6.8301837   -5.8867589  0.072421807   -6.8301837   0.94342479   520346 
 3035000    1.0195606   -6.8298345   -6.8298345   -5.8873582  0.053765233   -6.8298345   0.94247628   520346 
 3036000    1.0177186   -6.8274291   -6.8274291   -5.8866556  0.051681373   -6.8274291   0.94077348   520346 
 3037000    1.0209606   -6.8305103   -6.8305103   -5.8867399  0.030199919   -6.8305103   0.94377038   520346 
 3038000    1.0219067    -6.830924    -6.830924    -5.886279  0.063604007    -6.830924     0.944645   520346 
 3039000    1.0198258   -6.8303232   -6.8303232   -5.8876018  0.052692278   -6.8303232   0.94272142   520346 
 3040000    1.0177971   -6.8288786   -6.8288786   -5.8880326  0.066412735   -6.8288786   0.94084606   520346 
 3041000    1.0204956   -6.8313944   -6.8313944   -5.8880539   0.08077478   -6.8313944   0.94334056   520346 
 3042000     1.020755   -6.8315831   -6.8315831   -5.8880027  0.076443101   -6.8315831   0.94358032   520346 
 3043000     1.020268   -6.8313023   -6.8313023   -5.8881721  0.053683774   -6.8313023    0.9431302   520346 
 3044000    1.0206862   -6.8319595   -6.8319595   -5.8884427  0.058345081   -6.8319595   0.94351679   520346 
 3045000     1.018219   -6.8294247   -6.8294247   -5.8881886  0.052160523   -6.8294247   0.94123609   520346 
 3046000    1.0198971   -6.8303173   -6.8303173     -5.88753   0.02817901   -6.8303173    0.9427873   520346 
 3047000    1.0199027   -6.8309334   -6.8309334   -5.8881409  0.040640002   -6.8309334   0.94279249   520346 
 3048000    1.0190325   -6.8300261   -6.8300261    -5.888038  0.058024606   -6.8300261    0.9419881   520346 
 3049000    1.0208366    -6.830783    -6.830783   -5.8871272  0.075861103    -6.830783    0.9436558   520346 
 3050000     1.019166   -6.8297718   -6.8297718   -5.8876603  0.067777138   -6.8297718   0.94211148   520346 
 3051000    1.0189056   -6.8294618   -6.8294618    -5.887591  0.036547784   -6.8294618   0.94187079   520346 
 3052000    1.0187227   -6.8306108   -6.8306108   -5.8889091  0.016847588   -6.8306108   0.94170174   520346 
 3053000    1.0211805   -6.8318862   -6.8318862   -5.8879125  0.056724901   -6.8318862   0.94397371   520346 
 3054000    1.0204233   -6.8309531   -6.8309531   -5.8876794  0.037647327   -6.8309531   0.94327373   520346 
 3055000    1.0194644   -6.8302999   -6.8302999   -5.8879126  0.070315178   -6.8302999   0.94238728   520346 
 3056000    1.0189932   -6.8301328   -6.8301328   -5.8881811  0.075457372   -6.8301328   0.94195176   520346 
 3057000    1.0173295   -6.8288125   -6.8288125   -5.8883987  0.079041933   -6.8288125   0.94041381   520346 
 3058000    1.0207611      -6.8311      -6.8311    -5.887514  0.063468875      -6.8311   0.94358601   520346 
 3059000    1.0196381   -6.8305205   -6.8305205   -5.8879725  0.044110315   -6.8305205   0.94254793   520346 
 3060000    1.0206845   -6.8327763   -6.8327763   -5.8892611  0.036511952   -6.8327763   0.94351517   520346 
 3061000    1.0215772   -6.8332405   -6.8332405   -5.8889001  0.071059142   -6.8332405    0.9443404   520346 
 3062000    1.0205888   -6.8328694   -6.8328694   -5.8894427   0.06210045   -6.8328694   0.94342669   520346 
 3063000    1.0195489   -6.8320197   -6.8320197   -5.8895543  0.083628198   -6.8320197   0.94246543   520346 
 3064000    1.0171424   -6.8305162   -6.8305162   -5.8902752  0.070245647   -6.8305162   0.94024092   520346 
 3065000     1.021977   -6.8341891   -6.8341891   -5.8894792  0.064354564   -6.8341891   0.94470994   520346 
 3066000    1.0168487   -6.8305297   -6.8305297   -5.8905604  0.065043829   -6.8305297   0.93996936   520346 
 3067000    1.0208064   -6.8333379   -6.8333379     -5.88971  0.065643788   -6.8333379   0.94362788   520346 
 3068000    1.0191391   -6.8308208   -6.8308208   -5.8887342  0.047808862   -6.8308208   0.94208659   520346 
 3069000    1.0228118   -6.8334916   -6.8334916     -5.88801  0.046666497   -6.8334916   0.94548161   520346 
 3070000    1.0222379   -6.8328762   -6.8328762   -5.8879251  0.067483002   -6.8328762   0.94495117   520346 
 3071000    1.0187619   -6.8305918   -6.8305918   -5.8888539  0.066740741   -6.8305918    0.9417379   520346 
 3072000    1.0198971   -6.8307888   -6.8307888   -5.8880015  0.081415578   -6.8307888   0.94278734   520346 
 3073000    1.0207315   -6.8321817   -6.8321817   -5.8886231  0.053698178   -6.8321817   0.94355866   520346 
 3074000    1.0206307   -6.8311108   -6.8311108   -5.8876454  0.073128971   -6.8311108   0.94346547   520346 
 3075000    1.0205898   -6.8314106   -6.8314106   -5.8879829  0.094541097   -6.8314106   0.94342762   520346 
 3076000    1.0214343   -6.8335009   -6.8335009   -5.8892926  0.049077398   -6.8335009   0.94420833   520346 
 3077000     1.018969   -6.8319305   -6.8319305   -5.8900012  0.059473159   -6.8319305   0.94192935   520346 
 3078000    1.0172792   -6.8299687   -6.8299687   -5.8896013   0.04260379   -6.8299687   0.94036738   520346 
 3079000    1.0208994   -6.8319927   -6.8319927   -5.8882789  0.078123578   -6.8319927    0.9437138   520346 
 3080000    1.0197832    -6.831169    -6.831169   -5.8884871  0.024895889    -6.831169   0.94268198   520346 
 3081000    1.0208775   -6.8321487   -6.8321487   -5.8884551  0.052896746   -6.8321487    0.9436936   520346 
 3082000    1.0220426   -6.8335077   -6.8335077    -5.888737  0.033546071   -6.8335077   0.94477064   520346 
 3083000    1.0199776   -6.8320444   -6.8320444   -5.8891826  0.065819085   -6.8320444   0.94286173   520346 
 3084000    1.0202005   -6.8323225   -6.8323225   -5.8892547  0.038299859   -6.8323225   0.94306781   520346 
 3085000    1.0203511   -6.8316361   -6.8316361   -5.8884291  0.035387015   -6.8316361   0.94320701   520346 
 3086000    1.0218321    -6.833243    -6.833243   -5.8886671  0.047925634    -6.833243   0.94457597   520346 
 3087000    1.0190621   -6.8311686   -6.8311686   -5.8891532  0.087054623   -6.8311686   0.94201542   520346 
 3088000    1.0214745   -6.8329781   -6.8329781   -5.8887327  0.040514611   -6.8329781   0.94424549   520346 
 3089000    1.0232974   -6.8349413   -6.8349413   -5.8890108   0.06762725   -6.8349413    0.9459305   520346 
 3090000    1.0205399   -6.8309583   -6.8309583   -5.8875768  0.053687756   -6.8309583   0.94338149   520346 
 3091000    1.0241742   -6.8352564   -6.8352564   -5.8885154  0.062610711   -6.8352564   0.94674103   520346 
 3092000    1.0200131   -6.8304607   -6.8304607   -5.8875662  0.060269984   -6.8304607   0.94289452   520346 
 3093000      1.02151   -6.8324597   -6.8324597   -5.8881814   0.07137215   -6.8324597    0.9442783   520346 
 3094000    1.0217779   -6.8328258   -6.8328258   -5.8882999   0.08176761   -6.8328258   0.94452592   520346 
 3095000    1.0211572   -6.8325583   -6.8325583   -5.8886061   0.06995221   -6.8325583   0.94395214   520346 
 3096000    1.0233061   -6.8351589   -6.8351589   -5.8892203  0.066071042   -6.8351589   0.94593854   520346 
 3097000     1.021294   -6.8336856   -6.8336856    -5.889607  0.075389005   -6.8336856    0.9440786   520346 
 3098000    1.0200115   -6.8326813   -6.8326813   -5.8897882  0.084629989   -6.8326813   0.94289303   520346 
 3099000      1.01998   -6.8327395   -6.8327395   -5.8898756  0.071515743   -6.8327395    0.9428639   520346 
 3100000    1.0205521   -6.8331507   -6.8331507    -5.889758  0.037144296   -6.8331507   0.94339275   520346 
 3101000    1.0212203   -6.8333163   -6.8333163   -5.8893059  0.063907275   -6.8333163   0.94401044   520346 
 3102000    1.0204731   -6.8326672   -6.8326672   -5.8893474  0.072328768   -6.8326672   0.94331976   520346 
 3103000    1.0226509   -6.8336452   -6.8336452   -5.8883122  0.055665274   -6.8336452   0.94533292   520346 
 3104000    1.0212612   -6.8325671   -6.8325671   -5.8885189  0.085507423   -6.8325671   0.94404824   520346 
 3105000    1.0220374   -6.8337916   -6.8337916   -5.8890258  0.072810093   -6.8337916    0.9447658   520346 
 3106000    1.0209245   -6.8330171   -6.8330171   -5.8892801  0.045156457   -6.8330171   0.94373702   520346 
 3107000     1.022036   -6.8341068   -6.8341068   -5.8893423  0.062241738   -6.8341068    0.9447645   520346 
 3108000    1.0195484   -6.8324137   -6.8324137   -5.8899488  0.067205918   -6.8324137   0.94246494   520346 
 3109000    1.0210144   -6.8339149   -6.8339149   -5.8900947  0.056796597   -6.8339149   0.94382017   520346 
 3110000    1.0222201   -6.8350615   -6.8350615   -5.8901268  0.055529373   -6.8350615   0.94493469   520346 
 3111000    1.0203049   -6.8332416   -6.8332416   -5.8900774  0.044023193   -6.8332416   0.94316425   520346 
 3112000    1.0197875   -6.8328373   -6.8328373   -5.8901513  0.055490173   -6.8328373   0.94268596   520346 
 3113000    1.0214499   -6.8340769   -6.8340769   -5.8898543   0.05884579   -6.8340769   0.94422269   520346 
 3114000    1.0217077   -6.8344945   -6.8344945   -5.8900335  0.045007107   -6.8344945   0.94446106   520346 
 3115000    1.0199198   -6.8331442   -6.8331442   -5.8903359  0.042222064   -6.8331442    0.9428083   520346 
 3116000    1.0236487   -6.8362365   -6.8362365   -5.8899812  0.057386747   -6.8362365   0.94625528   520346 
 3117000     1.021275   -6.8345232   -6.8345232   -5.8904622  0.055344051   -6.8345232   0.94406101   520346 
 3118000    1.0210465   -6.8351142   -6.8351142   -5.8912644   0.07027393   -6.8351142   0.94384985   520346 
 3119000    1.0189388   -6.8334951   -6.8334951   -5.8915936  0.035315647   -6.8334951   0.94190148   520346 
 3120000    1.0228249   -6.8373533   -6.8373533   -5.8918595  0.055762416   -6.8373533   0.94549376   520346 
 3121000    1.0222962   -6.8379908   -6.8379908   -5.8929858  0.052854284   -6.8379908     0.945005   520346 
 3122000    1.0200755    -6.835598    -6.835598   -5.8926458  0.040649205    -6.835598   0.94295222   520346 
 3123000    1.0203812   -6.8358064   -6.8358064   -5.8925716  0.024777426   -6.8358064   0.94323483   520346 
 3124000    1.0212905    -6.837439    -6.837439   -5.8933636  0.055834218    -6.837439   0.94407536   520346 
 3125000    1.0205058   -6.8363488   -6.8363488   -5.8929987  0.036441108   -6.8363488   0.94335002   520346 
 3126000    1.0209953   -6.8362082   -6.8362082   -5.8924057  0.074849846   -6.8362082   0.94380252   520346 
 3127000     1.019281   -6.8355802   -6.8355802   -5.8933624  0.053839829   -6.8355802    0.9422178   520346 
 3128000    1.0197247   -6.8352835   -6.8352835   -5.8926556  0.088340314   -6.8352835    0.9426279   520346 
 3129000    1.0193065   -6.8352638   -6.8352638   -5.8930224  0.061055865   -6.8352638   0.94224137   520346 
 3130000    1.0201043   -6.8359948   -6.8359948   -5.8930159  0.062369551   -6.8359948   0.94297887   520346 
 3131000    1.0201787   -6.8350626   -6.8350626    -5.892015  0.059745515   -6.8350626    0.9430476   520346 
 3132000    1.0202583   -6.8360566   -6.8360566   -5.8929354  0.063444132   -6.8360566   0.94312118   520346 
 3133000    1.0229054   -6.8372199   -6.8372199   -5.8916518  0.061637155   -6.8372199   0.94556812   520346 
 3134000     1.019962   -6.8343583   -6.8343583    -5.891511  0.059562952   -6.8343583   0.94284726   520346 
 3135000    1.0218243   -6.8355582   -6.8355582   -5.8909894  0.058517571   -6.8355582    0.9445688   520346 
 3136000    1.0198182   -6.8341066   -6.8341066   -5.8913922  0.036248918   -6.8341066   0.94271436   520346 
 3137000    1.0187802   -6.8343106   -6.8343106   -5.8925557  0.059564849   -6.8343106   0.94175488   520346 
 3138000    1.0191308   -6.8343074   -6.8343074   -5.8922285  0.067414635   -6.8343074    0.9420789   520346 
 3139000    1.0198816   -6.8351061   -6.8351061   -5.8923331    0.0746188   -6.8351061   0.94277299   520346 
 3140000    1.0204646   -6.8357372   -6.8357372   -5.8924253  0.059567955   -6.8357372   0.94331191   520346 
 3141000    1.0215951   -6.8368835   -6.8368835   -5.8925266  0.076542581   -6.8368835   0.94435695   520346 
 3142000     1.021534   -6.8366851   -6.8366851   -5.8923846  0.038483714   -6.8366851   0.94430043   520346 
 3143000    1.0201264   -6.8355999   -6.8355999   -5.8926005  0.074502141   -6.8355999   0.94299931   520346 
 3144000    1.0178955   -6.8336023   -6.8336023   -5.8926653  0.073054451   -6.8336023   0.94093701   520346 
 3145000    1.0198409   -6.8350883   -6.8350883   -5.8923529  0.051500369   -6.8350883   0.94273537   520346 
 3146000    1.0205355   -6.8353324   -6.8353324    -5.891955  0.036085964   -6.8353324   0.94337746   520346 
 3147000    1.0200167   -6.8343571   -6.8343571   -5.8914592  0.051638064   -6.8343571   0.94289789   520346 
 3148000    1.0193264   -6.8341516   -6.8341516   -5.8918918  0.044033837   -6.8341516   0.94225976   520346 
 3149000    1.0183974   -6.8331311   -6.8331311   -5.8917301  0.045859789   -6.8331311   0.94140102   520346 
 3150000    1.0211343   -6.8359857   -6.8359857   -5.8920548  0.085731759   -6.8359857   0.94393095   520346 
 3151000    1.0186473   -6.8337531   -6.8337531   -5.8921211  0.063599952   -6.8337531   0.94163197   520346 
 3152000    1.0215275   -6.8369602   -6.8369602   -5.8926658  0.057745266   -6.8369602    0.9442944   520346 
 3153000    1.0201216   -6.8355453   -6.8355453   -5.8925504   0.06340802   -6.8355453   0.94299487   520346 
 3154000    1.0196805   -6.8360442   -6.8360442   -5.8934571  0.051495743   -6.8360442   0.94258709   520346 
 3155000    1.0195588    -6.834824    -6.834824   -5.8923495  0.021223274    -6.834824   0.94247455   520346 
 3156000    1.0215796   -6.8359468   -6.8359468   -5.8916041  0.035186561   -6.8359468   0.94434264   520346 
 3157000    1.0204858   -6.8354328   -6.8354328   -5.8921013  0.050752879   -6.8354328   0.94333149   520346 
 3158000    1.0205659   -6.8354258   -6.8354258   -5.8920202  0.034576455   -6.8354258   0.94340554   520346 
 3159000    1.0213016   -6.8359654   -6.8359654   -5.8918797  0.071708212   -6.8359654   0.94408566   520346 
 3160000    1.0218415   -6.8356575   -6.8356575   -5.8910728  0.037198016   -6.8356575   0.94458469   520346 
 3161000    1.0194882   -6.8337182   -6.8337182   -5.8913088  0.074911788   -6.8337182   0.94240933   520346 
 3162000    1.0219241   -6.8353928   -6.8353928   -5.8907317  0.078720808   -6.8353928   0.94466106   520346 
 3163000    1.0219803   -6.8351042   -6.8351042   -5.8903911  0.050308559   -6.8351042   0.94471305   520346 
 3164000    1.0217472    -6.834856    -6.834856   -5.8903585  0.084336478    -6.834856    0.9444975   520346 
 3165000    1.0211945   -6.8354584   -6.8354584   -5.8914718  0.056791164   -6.8354584   0.94398664   520346 
 3166000     1.021665   -6.8354727   -6.8354727   -5.8910511  0.056706871   -6.8354727   0.94442157   520346 
 3167000    1.0210638   -6.8360309   -6.8360309   -5.8921651  0.050201421   -6.8360309   0.94386583   520346 
 3168000    1.0208702   -6.8359775   -6.8359775   -5.8922906  0.071622105   -6.8359775   0.94368682   520346 
 3169000     1.020752   -6.8358712   -6.8358712   -5.8922937  0.061403331   -6.8358712   0.94357755   520346 
 3170000    1.0225413   -6.8367277   -6.8367277    -5.891496  0.049907442   -6.8367277   0.94523162   520346 
 3171000     1.023124   -6.8370984   -6.8370984   -5.8913282  0.076123851   -6.8370984   0.94577022   520346 
 3172000    1.0212954   -6.8351652   -6.8351652   -5.8910853  0.056333584   -6.8351652   0.94407991   520346 
 3173000    1.0209226   -6.8348058   -6.8348058   -5.8910705  0.074147678   -6.8348058   0.94373531   520346 
 3174000    1.0236188   -6.8380024   -6.8380024   -5.8917748  0.064848808   -6.8380024   0.94622766   520346 
 3175000    1.0203181    -6.834326    -6.834326   -5.8911495  0.064595842    -6.834326   0.94317646   520346 
 3176000    1.0210274   -6.8356448   -6.8356448   -5.8918127  0.058743402   -6.8356448   0.94383212   520346 
 3177000      1.02276    -6.836704    -6.836704   -5.8912703  0.053554429    -6.836704   0.94543377   520346 
 3178000    1.0205843   -6.8347532   -6.8347532   -5.8913307  0.063907185   -6.8347532   0.94342252   520346 
 3179000    1.0221898   -6.8361348   -6.8361348   -5.8912281  0.060662255   -6.8361348   0.94490665   520346 
 3180000    1.0211526   -6.8356662   -6.8356662   -5.8917184  0.046462537   -6.8356662   0.94394786   520346 
 3181000    1.0211875   -6.8358218   -6.8358218   -5.8918417  0.056459685   -6.8358218   0.94398016   520346 
 3182000    1.0223456   -6.8379112   -6.8379112   -5.8928605  0.037232334   -6.8379112   0.94505073   520346 
 3183000    1.0190111   -6.8363255   -6.8363255   -5.8943572  0.061581296   -6.8363255   0.94196833   520346 
 3184000    1.0199347   -6.8369542   -6.8369542   -5.8941321  0.050216177   -6.8369542   0.94282205   520346 
 3185000    1.0209905   -6.8375897   -6.8375897   -5.8937917   0.05739444   -6.8375897   0.94379807   520346 
 3186000    1.0196464   -6.8363815   -6.8363815    -5.893826  0.070436053   -6.8363815   0.94255557   520346 
 3187000    1.0198981   -6.8362659   -6.8362659   -5.8934777  0.068470837   -6.8362659   0.94278821   520346 
 3188000    1.0216515   -6.8375628   -6.8375628   -5.8931537  0.071727548   -6.8375628   0.94440911   520346 
 3189000    1.0222444   -6.8383075   -6.8383075   -5.8933504  0.041621087   -6.8383075   0.94495713   520346 
 3190000    1.0195735   -6.8352063   -6.8352063   -5.8927181  0.041929081   -6.8352063   0.94248818   520346 
 3191000    1.0192957   -6.8357336   -6.8357336   -5.8935022  0.043794664   -6.8357336   0.94223134   520346 
 3192000    1.0214953   -6.8382527   -6.8382527    -5.893988   0.05816194   -6.8382527    0.9442647   520346 
 3193000    1.0203395   -6.8370767   -6.8370767   -5.8938804  0.064107475   -6.8370767   0.94319626   520346 
 3194000    1.0211356   -6.8378784   -6.8378784   -5.8939463  0.074061747   -6.8378784   0.94393213   520346 
 3195000    1.0195938   -6.8369632   -6.8369632   -5.8944562  0.062475599   -6.8369632   0.94250698   520346 
 3196000    1.0201869   -6.8371465   -6.8371465   -5.8940912  0.083409353   -6.8371465   0.94305522   520346 
 3197000    1.0204212     -6.83736     -6.83736   -5.8940882  0.081532689     -6.83736   0.94327174   520346 
 3198000    1.0210487   -6.8381254   -6.8381254   -5.8942735  0.044220234   -6.8381254   0.94385188   520346 
 3199000    1.0192015    -6.836164    -6.836164   -5.8940197  0.049901887    -6.836164   0.94214431   520346 
 3200000    1.0206653   -6.8375782   -6.8375782   -5.8940808  0.049747781   -6.8375782    0.9434974   520346 
 3201000     1.020933   -6.8374731   -6.8374731   -5.8937282  0.061761753   -6.8374731   0.94374489   520346 
 3202000    1.0209364   -6.8387807   -6.8387807   -5.8950326  0.054360516   -6.8387807   0.94374807   520346 
 3203000    1.0216978   -6.8396228   -6.8396228    -5.895171  0.043642332   -6.8396228   0.94445186   520346 
 3204000    1.0213247   -6.8395669   -6.8395669     -5.89546  0.076101864   -6.8395669   0.94410698   520346 
 3205000    1.0215995   -6.8395743   -6.8395743   -5.8952133  0.081757949   -6.8395743   0.94436096   520346 
 3206000    1.0217337   -6.8406245   -6.8406245   -5.8961395  0.067520666   -6.8406245   0.94448504   520346 
 3207000    1.0203023   -6.8392203   -6.8392203   -5.8960584  0.080597744   -6.8392203   0.94316186   520346 
 3208000    1.0219897   -6.8407382   -6.8407382   -5.8960165  0.064428278   -6.8407382   0.94472168   520346 
 3209000    1.0221761   -6.8411194   -6.8411194   -5.8962254  0.090436684   -6.8411194   0.94489404   520346 
 3210000    1.0212228   -6.8394747   -6.8394747   -5.8954619  0.045637124   -6.8394747   0.94401277   520346 
 3211000     1.019969    -6.839201    -6.839201   -5.8963472  0.050168193    -6.839201   0.94285379   520346 
 3212000    1.0190448   -6.8384609   -6.8384609   -5.8964615   0.05340465   -6.8384609   0.94199944   520346 
 3213000    1.0200127   -6.8387519   -6.8387519   -5.8958578  0.069396983   -6.8387519   0.94289416   520346 
 3214000    1.0202192   -6.8400579   -6.8400579   -5.8969729   0.06251177   -6.8400579   0.94308502   520346 
 3215000    1.0205111   -6.8401756   -6.8401756   -5.8968207  0.079065028   -6.8401756   0.94335486   520346 
 3216000    1.0191434    -6.838782    -6.838782   -5.8966914  0.056308968    -6.838782   0.94209062   520346 
 3217000    1.0196477   -6.8386027   -6.8386027    -5.896046  0.071884767   -6.8386027   0.94255672   520346 
 3218000      1.01978   -6.8383376   -6.8383376   -5.8956586  0.060166126   -6.8383376   0.94267907   520346 
 3219000    1.0208744   -6.8399132   -6.8399132   -5.8962225  0.054987293   -6.8399132    0.9436907   520346 
 3220000    1.0210847   -6.8393495   -6.8393495   -5.8954644   0.07190219   -6.8393495   0.94388512   520346 
 3221000    1.0205484   -6.8401632   -6.8401632   -5.8967739  0.069708036   -6.8401632   0.94338933   520346 
 3222000    1.0219199   -6.8407498   -6.8407498   -5.8960927  0.065422849   -6.8407498   0.94465715   520346 
 3223000    1.0197447    -6.838434    -6.838434   -5.8957876  0.078138555    -6.838434    0.9426464   520346 
 3224000    1.0213947   -6.8407688   -6.8407688   -5.8965972  0.061097406   -6.8407688   0.94417165   520346 
 3225000    1.0202732   -6.8407084   -6.8407084   -5.8975735   0.05022836   -6.8407084   0.94313495   520346 
 3226000    1.0187261   -6.8400519   -6.8400519    -5.898347  0.051546026   -6.8400519   0.94170489   520346 
 3227000    1.0188178   -6.8396653   -6.8396653   -5.8978757  0.086026842   -6.8396653   0.94178961   520346 
 3228000    1.0214536   -6.8422201   -6.8422201   -5.8979939  0.070528178   -6.8422201   0.94422616   520346 
 3229000     1.020714    -6.841278    -6.841278   -5.8977356  0.080116314    -6.841278   0.94354241   520346 
 3230000    1.0197669   -6.8397298   -6.8397298   -5.8970628  0.054874211   -6.8397298   0.94266697   520346 
 3231000    1.0211975   -6.8401827   -6.8401827   -5.8961933  0.052548338   -6.8401827   0.94398935   520346 
 3232000    1.0204894   -6.8409772   -6.8409772   -5.8976423  0.064359767   -6.8409772   0.94333483   520346 
 3233000    1.0202491   -6.8415346   -6.8415346    -5.898422  0.052343241   -6.8415346   0.94311266   520346 
 3234000    1.0210083   -6.8413816   -6.8413816   -5.8975672  0.056965476   -6.8413816   0.94381446   520346 
 3235000    1.0202072   -6.8402184   -6.8402184   -5.8971445  0.032965281   -6.8402184   0.94307393   520346 
 3236000    1.0213865   -6.8415728   -6.8415728   -5.8974087  0.074900453   -6.8415728   0.94416407   520346 
 3237000    1.0191241   -6.8395588   -6.8395588   -5.8974861  0.038806911   -6.8395588   0.94207279   520346 
 3238000    1.0207416   -6.8414991   -6.8414991   -5.8979312  0.057063105   -6.8414991   0.94356791   520346 
 3239000    1.0223516   -6.8427583   -6.8427583   -5.8977021  0.068380689   -6.8427583   0.94505625   520346 
 3240000    1.0198651   -6.8410928   -6.8410928   -5.8983351  0.084746412   -6.8410928    0.9427577   520346 
 3241000    1.0185602   -6.8398455   -6.8398455    -5.898294  0.077931959   -6.8398455   0.94155151   520346 
 3242000    1.0209416   -6.8413868   -6.8413868   -5.8976339  0.060034306   -6.8413868   0.94375283   520346 
 3243000    1.0207965   -6.8419126   -6.8419126   -5.8982939  0.058946275   -6.8419126   0.94361871   520346 
 3244000    1.0207149   -6.8424047   -6.8424047   -5.8988614  0.065445326   -6.8424047   0.94354328   520346 
 3245000    1.0191595   -6.8412535   -6.8412535    -5.899148  0.059737047   -6.8412535   0.94210549   520346 
 3246000    1.0202329   -6.8415146   -6.8415146   -5.8984169  0.049445242   -6.8415146   0.94309773   520346 
 3247000    1.0211042    -6.842736    -6.842736   -5.8988329  0.057953076    -6.842736   0.94390312   520346 
 3248000    1.0233039   -6.8450399   -6.8450399   -5.8991034  0.057282934   -6.8450399   0.94593651   520346 
 3249000    1.0219759   -6.8437296   -6.8437296   -5.8990207  0.077627853   -6.8437296   0.94470895   520346 
 3250000    1.0222288    -6.843669    -6.843669   -5.8987263  0.053833769    -6.843669   0.94494271   520346 
 3251000    1.0214056   -6.8423907   -6.8423907    -5.898209  0.072308329   -6.8423907   0.94418174   520346 
 3252000    1.0216417   -6.8429776   -6.8429776   -5.8985776   0.06963372   -6.8429776       0.9444   520346 
 3253000    1.0212736   -6.8424647   -6.8424647    -5.898405   0.05457699   -6.8424647   0.94405972   520346 
 3254000     1.019315   -6.8409475   -6.8409475   -5.8986982  0.083930166   -6.8409475   0.94224921   520346 
 3255000      1.01896   -6.8400554   -6.8400554   -5.8981343  0.053569817   -6.8400554    0.9419211   520346 
 3256000    1.0201173   -6.8409954   -6.8409954   -5.8980045  0.061477422   -6.8409954   0.94299084   520346 
 3257000    1.0189591   -6.8407089   -6.8407089   -5.8987887  0.065110274   -6.8407089   0.94192024   520346 
 3258000    1.0191049   -6.8405447   -6.8405447   -5.8984898  0.064093509   -6.8405447   0.94205496   520346 
 3259000    1.0186358   -6.8402955   -6.8402955   -5.8986741  0.070198245   -6.8402955   0.94162139   520346 
 3260000    1.0201878   -6.8410865   -6.8410865   -5.8980305  0.066397566   -6.8410865   0.94305602   520346 
 3261000    1.0207698   -6.8418971   -6.8418971    -5.898303  0.060977009   -6.8418971   0.94359405   520346 
 3262000    1.0203941   -6.8418326   -6.8418326   -5.8985858  0.070026099   -6.8418326   0.94324674   520346 
 3263000    1.0200747   -6.8432096   -6.8432096   -5.9002582  0.049643206   -6.8432096   0.94295146   520346 
 3264000    1.0176771   -6.8413525   -6.8413525   -5.9006173  0.064485688   -6.8413525   0.94073516   520346 
 3265000    1.0193069   -6.8427714   -6.8427714   -5.9005297  0.059185301   -6.8427714   0.94224172   520346 
 3266000     1.022093   -6.8446055   -6.8446055   -5.8997883  0.082501043   -6.8446055   0.94481722   520346 
 3267000    1.0215939   -6.8439164   -6.8439164   -5.8995605  0.078408712   -6.8439164   0.94435582   520346 
 3268000    1.0191647   -6.8423007   -6.8423007   -5.9001905  0.064010206   -6.8423007   0.94211025   520346 
 3269000     1.019769   -6.8431221   -6.8431221   -5.9004532  0.077179161   -6.8431221   0.94266888   520346 
 3270000    1.0185457    -6.842173    -6.842173    -5.900635  0.091006736    -6.842173   0.94153807   520346 
 3271000    1.0200216   -6.8430362   -6.8430362   -5.9001338  0.059978856   -6.8430362   0.94290239   520346 
 3272000    1.0210954   -6.8430355   -6.8430355   -5.8991405  0.085512896   -6.8430355   0.94389503   520346 
 3273000     1.021611   -6.8437651   -6.8437651   -5.8993935  0.065386233   -6.8437651   0.94437162   520346 
 3274000    1.0190448   -6.8415283   -6.8415283   -5.8995288  0.071861662   -6.8415283   0.94199947   520346 
 3275000    1.0198449   -6.8430708   -6.8430708   -5.9003317  0.074859925   -6.8430708   0.94273908   520346 
 3276000    1.0184097   -6.8412348   -6.8412348   -5.8998224  0.065021949   -6.8412348   0.94141232   520346 
 3277000    1.0179473   -6.8410939   -6.8410939    -5.900109  0.034605719   -6.8410939   0.94098492   520346 
 3278000    1.0208223   -6.8439162   -6.8439162   -5.9002737  0.051807234   -6.8439162   0.94364256   520346 
 3279000    1.0189547    -6.841746    -6.841746   -5.8998299  0.057905091    -6.841746   0.94191612   520346 
 3280000     1.018921   -6.8411602   -6.8411602   -5.8992752  0.064618628   -6.8411602   0.94188502   520346 
 3281000    1.0178021   -6.8389914   -6.8389914   -5.8981407  0.071109454   -6.8389914   0.94085073   520346 
 3282000     1.020837   -6.8419664   -6.8419664   -5.8983103  0.054943105   -6.8419664   0.94365618   520346 
 3283000    1.0196621    -6.841129    -6.841129   -5.8985589  0.054441385    -6.841129   0.94257012   520346 
 3284000    1.0190923   -6.8407314   -6.8407314   -5.8986881  0.057069592   -6.8407314   0.94204331   520346 
 3285000    1.0205777   -6.8434156   -6.8434156   -5.8999991  0.075251907   -6.8434156   0.94341641   520346 
 3286000    1.0205069   -6.8432305   -6.8432305   -5.8998795   0.04630912   -6.8432305   0.94335104   520346 
 3287000    1.0186126   -6.8412019   -6.8412019    -5.899602  0.048270764   -6.8412019   0.94159989   520346 
 3288000    1.0193131   -6.8424365   -6.8424365    -5.900189  0.038472225   -6.8424365   0.94224748   520346 
 3289000    1.0213471   -6.8438808   -6.8438808   -5.8997531  0.082268138   -6.8438808   0.94412771   520346 
 3290000    1.0208107   -6.8445471   -6.8445471   -5.9009153  0.081383795   -6.8445471   0.94363179   520346 
 3291000     1.019475   -6.8428716   -6.8428716   -5.9004744  0.069575504   -6.8428716   0.94239715   520346 
 3292000    1.0200142   -6.8432981   -6.8432981   -5.9004026  0.062956503   -6.8432981   0.94289553   520346 
 3293000    1.0178686   -6.8428252   -6.8428252    -5.901913  0.075808466   -6.8428252   0.94091215   520346 
 3294000    1.0175857    -6.842069    -6.842069   -5.9014184  0.052548997    -6.842069   0.94065066   520346 
 3295000    1.0207051   -6.8452184   -6.8452184   -5.9016841  0.066983837   -6.8452184   0.94353426   520346 
 3296000    1.0181727   -6.8426867   -6.8426867   -5.9014934   0.04081096   -6.8426867   0.94119326   520346 
 3297000    1.0197361   -6.8439997   -6.8439997   -5.9013611  0.070137881   -6.8439997   0.94263851   520346 
 3298000    1.0196309   -6.8437451   -6.8437451   -5.9012039  0.056816647   -6.8437451   0.94254127   520346 
 3299000    1.0188231   -6.8431518   -6.8431518   -5.9013573  0.080796726   -6.8431518   0.94179452   520346 
 3300000    1.0176296   -6.8426896   -6.8426896   -5.9019984  0.069944468   -6.8426896    0.9406912   520346 
 3301000    1.0204463   -6.8439905   -6.8439905   -5.9006955  0.053243677   -6.8439905   0.94329503   520346 
 3302000    1.0199581   -6.8441283   -6.8441283   -5.9012847  0.052552455   -6.8441283   0.94284366   520346 
 3303000    1.0193333   -6.8451946   -6.8451946   -5.9029284  0.046345358   -6.8451946   0.94226615   520346 
 3304000    1.0186318   -6.8454481   -6.8454481   -5.9038304  0.095900022   -6.8454481   0.94161765   520346 
 3305000    1.0192391   -6.8461405   -6.8461405   -5.9039615  0.033120037   -6.8461405   0.94217901   520346 
 3306000    1.0168345   -6.8436085   -6.8436085   -5.9036522  0.070098678   -6.8436085   0.93995624   520346 
 3307000    1.0158313   -6.8423013   -6.8423013   -5.9032724  0.039088897   -6.8423013    0.9390289   520346 
 3308000    1.0189173   -6.8449243   -6.8449243   -5.9030427  0.067005473   -6.8449243   0.94188157   520346 
 3309000    1.0182285   -6.8444061   -6.8444061   -5.9031612  0.057833474   -6.8444061   0.94124491   520346 
 3310000    1.0175598   -6.8440671   -6.8440671   -5.9034403  0.033934752   -6.8440671   0.94062676   520346 
 3311000    1.0180196   -6.8448604   -6.8448604   -5.9038087  0.078603485   -6.8448604   0.94105176   520346 
 3312000    1.0198463   -6.8463671   -6.8463671   -5.9036268  0.037820683   -6.8463671   0.94274033   520346 
 3313000    1.0181629   -6.8452406   -6.8452406   -5.9040563  0.052400586   -6.8452406   0.94118424   520346 
 3314000    1.0183997   -6.8452488   -6.8452488   -5.9038457   0.08273266   -6.8452488   0.94140311   520346 
 3315000    1.0153234   -6.8424037   -6.8424037   -5.9038443  0.055114953   -6.8424037   0.93855938   520346 
 3316000    1.0182385   -6.8445615   -6.8445615   -5.9033074  0.067946629   -6.8445615   0.94125415   520346 
 3317000    1.0177885   -6.8446915   -6.8446915   -5.9038534   0.06598898   -6.8446915   0.94083817   520346 
 3318000    1.0192077     -6.84519     -6.84519     -5.90304  0.050566288     -6.84519   0.94215005   520346 
 3319000    1.0160695   -6.8427813   -6.8427813   -5.9035321  0.074279311   -6.8427813   0.93924914   520346 
 3320000    1.0167597   -6.8438731   -6.8438731    -5.903986  0.045435839   -6.8438731    0.9398871   520346 
 3321000    1.0184488   -6.8449753   -6.8449753   -5.9035269  0.058329486   -6.8449753   0.94144847   520346 
 3322000    1.0179754    -6.843847    -6.843847   -5.9028361  0.057573615    -6.843847   0.94101085   520346 
 3323000    1.0198588   -6.8448173   -6.8448173   -5.9020654  0.069113203   -6.8448173   0.94275188   520346 
 3324000    1.0185446    -6.844047    -6.844047   -5.9025099  0.067924337    -6.844047   0.94153711   520346 
 3325000    1.0171693   -6.8431599   -6.8431599   -5.9028941  0.050795401   -6.8431599   0.94026578   520346 
 3326000    1.0196702   -6.8451585   -6.8451585   -5.9025809  0.079647872   -6.8451585   0.94257759   520346 
 3327000    1.0185092   -6.8446812   -6.8446812   -5.9031769  0.045391283   -6.8446812    0.9415043   520346 
 3328000    1.0208847    -6.846922    -6.846922   -5.9032218  0.040825295    -6.846922    0.9437002   520346 
 3329000    1.0168934   -6.8422927   -6.8422927    -5.902282  0.048007955   -6.8422927   0.94001067   520346 
 3330000    1.0199775   -6.8448281   -6.8448281   -5.9019665  0.049850289   -6.8448281   0.94286161   520346 
 3331000    1.0197615   -6.8446796   -6.8446796   -5.9020176  0.066703155   -6.8446796   0.94266194   520346 
 3332000    1.0173114   -6.8421175   -6.8421175   -5.9017204  0.054455511   -6.8421175   0.94039711   520346 
 3333000    1.0189582   -6.8437603   -6.8437603   -5.9018408  0.042663336   -6.8437603   0.94191943   520346 
 3334000    1.0201119   -6.8445518   -6.8445518    -5.901566  0.083442787   -6.8445518   0.94298588   520346 
 3335000    1.0188772   -6.8436682   -6.8436682   -5.9018237  0.043345093   -6.8436682   0.94184456   520346 
 3336000    1.0196713   -6.8450718   -6.8450718   -5.9024933  0.048726745   -6.8450718   0.94257855   520346 
 3337000    1.0185225     -6.84351     -6.84351   -5.9019933  0.048810369     -6.84351   0.94151666   520346 
 3338000    1.0141652   -6.8399297   -6.8399297    -5.902441  0.063093883   -6.8399297   0.93748876   520346 
 3339000    1.0181325    -6.845107    -6.845107   -5.9039509  0.027752723    -6.845107   0.94115612   520346 
 3340000    1.0198875   -6.8465017   -6.8465017   -5.9037232  0.054531586   -6.8465017   0.94277845   520346 
 3341000    1.0184491   -6.8455527   -6.8455527   -5.9041039  0.037583607   -6.8455527   0.94144879   520346 
 3342000    1.0184309   -6.8450694   -6.8450694   -5.9036375   0.06853895   -6.8450694   0.94143195   520346 
 3343000    1.0185183   -6.8449632   -6.8449632   -5.9034504  0.074607591   -6.8449632   0.94151277   520346 
 3344000    1.0182642   -6.8450332   -6.8450332   -5.9037553  0.061592692   -6.8450332   0.94127789   520346 
 3345000    1.0192238   -6.8451081   -6.8451081   -5.9029432    0.0684336   -6.8451081   0.94216487   520346 
 3346000    1.0169618   -6.8435792   -6.8435792   -5.9035053  0.081854725   -6.8435792   0.94007393   520346 
 3347000     1.020384   -6.8460617   -6.8460617   -5.9028243  0.040091362   -6.8460617   0.94323739   520346 
 3348000    1.0207261   -6.8466088   -6.8466088   -5.9030552  0.043333512   -6.8466088   0.94355365   520346 
 3349000    1.0211778    -6.847398    -6.847398   -5.9034268  0.046148421    -6.847398   0.94397115   520346 
 3350000     1.021342   -6.8478025   -6.8478025   -5.9036795  0.032707717   -6.8478025   0.94412297   520346 
 3351000    1.0187026    -6.845449    -6.845449   -5.9037659  0.040159477    -6.845449   0.94168308   520346 
 3352000    1.0194171   -6.8462339   -6.8462339   -5.9038903  0.055404912   -6.8462339   0.94234361   520346 
 3353000    1.0199742   -6.8457811   -6.8457811   -5.9029225  0.059190545   -6.8457811   0.94285856   520346 
 3354000    1.0206848   -6.8462558   -6.8462558   -5.9027403   0.07465114   -6.8462558   0.94351548   520346 
 3355000    1.0213739   -6.8471386   -6.8471386   -5.9029861  0.065484118   -6.8471386    0.9441525   520346 
 3356000    1.0217403   -6.8481214   -6.8481214   -5.9036303  0.050336705   -6.8481214   0.94449113   520346 
 3357000    1.0212936   -6.8469206   -6.8469206   -5.9028423  0.056014192   -6.8469206   0.94407826   520346 
 3358000    1.0191374   -6.8449765   -6.8449765   -5.9028914  0.072005648   -6.8449765   0.94208505   520346 
 3359000     1.019448   -6.8457743   -6.8457743   -5.9034022  0.049399074   -6.8457743   0.94237216   520346 
 3360000    1.0198987   -6.8460562   -6.8460562   -5.9032675   0.06642897   -6.8460562   0.94278875   520346 
 3361000    1.0191497   -6.8458077   -6.8458077   -5.9037113  0.063204586   -6.8458077   0.94209644   520346 
 3362000    1.0209494   -6.8463877   -6.8463877   -5.9026276  0.059102561   -6.8463877   0.94376009   520346 
 3363000    1.0203137   -6.8468285   -6.8468285    -5.903656  0.075851904   -6.8468285   0.94317244   520346 
 3364000    1.0209504   -6.8478744   -6.8478744   -5.9041134  0.048244073   -6.8478744   0.94376094   520346 
 3365000    1.0187031    -6.846331    -6.846331   -5.9046473  0.062666831    -6.846331   0.94168362   520346 
 3366000    1.0174852    -6.845767    -6.845767   -5.9052092  0.048895005    -6.845767   0.94055773   520346 
 3367000    1.0203943   -6.8482228   -6.8482228   -5.9049758   0.05227124   -6.8482228   0.94324694   520346 
 3368000    1.0205169   -6.8476949   -6.8476949   -5.9043346  0.087921524   -6.8476949   0.94336022   520346 
 3369000    1.0206127   -6.8472254   -6.8472254   -5.9037766  0.068175303   -6.8472254   0.94344881   520346 
 3370000    1.0189269   -6.8460814   -6.8460814   -5.9041909   0.04587456   -6.8460814   0.94189044   520346 
 3371000    1.0190578   -6.8455863   -6.8455863   -5.9035748  0.053888166   -6.8455863   0.94201144   520346 
 3372000    1.0194809   -6.8470234   -6.8470234   -5.9046208  0.057917638   -6.8470234   0.94240259   520346 
 3373000    1.0212584   -6.8478158   -6.8478158   -5.9037701   0.06330305   -6.8478158   0.94404573   520346 
 3374000     1.020157    -6.846718    -6.846718   -5.9036904  0.045553452    -6.846718   0.94302758   520346 
 3375000    1.0181643   -6.8446632   -6.8446632   -5.9034776  0.052268526   -6.8446632   0.94118556   520346 
 3376000    1.0206659   -6.8471315   -6.8471315   -5.9036336  0.046907249   -6.8471315   0.94349797   520346 
 3377000    1.0188258   -6.8462517   -6.8462517   -5.9044547  0.037740085   -6.8462517   0.94179698   520346 
 3378000     1.019082   -6.8465495   -6.8465495   -5.9045157  0.068341544   -6.8465495    0.9420338   520346 
 3379000    1.0194499   -6.8471223   -6.8471223   -5.9047484  0.066416384   -6.8471223   0.94237393   520346 
 3380000    1.0184995   -6.8457035   -6.8457035   -5.9042081  0.081808755   -6.8457035   0.94149536   520346 
 3381000    1.0198071   -6.8464133   -6.8464133   -5.9037092  0.077114383   -6.8464133    0.9427041   520346 
 3382000    1.0189143   -6.8455466   -6.8455466   -5.9036678  0.059032762   -6.8455466   0.94187877   520346 
 3383000     1.019737   -6.8463873   -6.8463873    -5.903748  0.057724833   -6.8463873   0.94263929   520346 
 3384000    1.0210705    -6.848391    -6.848391    -5.904519  0.068126676    -6.848391     0.943872   520346 
 3385000    1.0181754   -6.8457609   -6.8457609   -5.9045652   0.04967622   -6.8457609   0.94119576   520346 
 3386000     1.021265   -6.8490071   -6.8490071   -5.9049554  0.071614782   -6.8490071   0.94405175   520346 
 3387000    1.0213044   -6.8485007   -6.8485007   -5.9044125  0.066618963   -6.8485007   0.94408825   520346 
 3388000    1.0211864    -6.848213    -6.848213   -5.9042338  0.055086304    -6.848213   0.94397914   520346 
 3389000    1.0180237   -6.8456877   -6.8456877   -5.9046321  0.040303014   -6.8456877   0.94105551   520346 
 3390000    1.0188022   -6.8467751   -6.8467751   -5.9049999   0.02555723   -6.8467751   0.94177518   520346 
 3391000    1.0192328   -6.8473075   -6.8473075   -5.9051342  0.059823467   -6.8473075   0.94217326   520346 
 3392000    1.0192811    -6.847411    -6.847411   -5.9051931  0.059795167    -6.847411   0.94221784   520346 
 3393000    1.0170635   -6.8453972   -6.8453972   -5.9052292  0.070721388   -6.8453972   0.94016799   520346 
 3394000     1.019771   -6.8487241   -6.8487241   -5.9060534  0.042376035   -6.8487241   0.94267074   520346 
 3395000    1.0192457   -6.8485294   -6.8485294   -5.9063443  0.075493744   -6.8485294   0.94218513   520346 
 3396000    1.0195076   -6.8492551   -6.8492551   -5.9068278  0.037431097   -6.8492551   0.94242728   520346 
 3397000    1.0195089   -6.8499858   -6.8499858   -5.9075573  0.039815061   -6.8499858   0.94242845   520346 
 3398000    1.0189949   -6.8482634   -6.8482634   -5.9063101   0.08015545   -6.8482634   0.94195334   520346 
 3399000    1.0180314   -6.8473038   -6.8473038   -5.9062411  0.038005043   -6.8473038   0.94106271   520346 
 3400000    1.0182264   -6.8469575   -6.8469575   -5.9057146  0.059646446   -6.8469575   0.94124288   520346 
 3401000      1.01907     -6.84845     -6.84845   -5.9064273  0.041476391     -6.84845   0.94202272   520346 
 3402000    1.0181868   -6.8474042   -6.8474042   -5.9061979  0.069689472   -6.8474042   0.94120635   520346 
 3403000    1.0208682     -6.84964     -6.84964    -5.905955  0.060005251     -6.84964   0.94368502   520346 
 3404000    1.0175337   -6.8459845   -6.8459845   -5.9053819  0.059911072   -6.8459845   0.94060259   520346 
 3405000    1.0204182   -6.8492363   -6.8492363   -5.9059673  0.044819603   -6.8492363   0.94326897   520346 
 3406000    1.0157539   -6.8452582   -6.8452582   -5.9063009  0.042194989   -6.8452582   0.93895732   520346 
 3407000    1.0177449   -6.8478969   -6.8478969   -5.9070991  0.028047707   -6.8478969   0.94079782   520346 
 3408000    1.0193041   -6.8484075   -6.8484075   -5.9061683  0.060028048   -6.8484075   0.94223918   520346 
 3409000    1.0184839   -6.8485727   -6.8485727   -5.9070918  0.060633665   -6.8485727   0.94148093   520346 
 3410000    1.0186416   -6.8483866   -6.8483866   -5.9067599  0.068608473   -6.8483866   0.94162677   520346 
 3411000    1.0178458   -6.8483687   -6.8483687   -5.9074776  0.046996429   -6.8483687   0.94089112   520346 
 3412000    1.0191438   -6.8496762   -6.8496762   -5.9075852   0.06429871   -6.8496762   0.94209097   520346 
 3413000    1.0217686    -6.851537    -6.851537   -5.9070197  0.045238255    -6.851537   0.94451731   520346 
 3414000    1.0200736   -6.8519049   -6.8519049   -5.9089545  0.082517548   -6.8519049   0.94295046   520346 
 3415000    1.0199123   -6.8515947   -6.8515947   -5.9087933  0.050377676   -6.8515947   0.94280136   520346 
 3416000    1.0191822   -6.8509539   -6.8509539   -5.9088274  0.060835247   -6.8509539   0.94212643   520346 
 3417000    1.0193948   -6.8512279   -6.8512279   -5.9089049  0.053473425   -6.8512279   0.94232302   520346 
 3418000    1.0196988   -6.8515991   -6.8515991   -5.9089951  0.067183073   -6.8515991   0.94260401   520346 
 3419000    1.0182476   -6.8502403   -6.8502403   -5.9089777  0.053988652   -6.8502403   0.94126254   520346 
 3420000    1.0195881   -6.8518694   -6.8518694   -5.9093678  0.060518367   -6.8518694   0.94250163   520346 
 3421000    1.0184863   -6.8497048   -6.8497048   -5.9082217  0.044629241   -6.8497048   0.94148317   520346 
 3422000    1.0195723   -6.8501824   -6.8501824   -5.9076954    0.0455066   -6.8501824   0.94248703   520346 
 3423000    1.0218773   -6.8529966   -6.8529966   -5.9083788  0.055887742   -6.8529966   0.94461783   520346 
 3424000    1.0173142   -6.8492778   -6.8492778   -5.9088781  0.070745873   -6.8492778   0.94039968   520346 
 3425000    1.0186553   -6.8500245   -6.8500245   -5.9083851  0.060789056   -6.8500245   0.94163943   520346 
 3426000    1.0194456   -6.8504108   -6.8504108    -5.908041  0.039522847   -6.8504108    0.9423699   520346 
 3427000    1.0186554   -6.8492963   -6.8492963   -5.9076568  0.029233764   -6.8492963   0.94163949   520346 
 3428000    1.0186773   -6.8497235   -6.8497235   -5.9080637  0.043453538   -6.8497235   0.94165976   520346 
 3429000    1.0193694   -6.8492777   -6.8492777   -5.9069782  0.039602602   -6.8492777   0.94229952   520346 
 3430000    1.0204437   -6.8502381   -6.8502381   -5.9069455  0.056071818   -6.8502381   0.94329263   520346 
 3431000    1.0222639   -6.8524866   -6.8524866   -5.9075115  0.055010303   -6.8524866   0.94497518   520346 
 3432000    1.0195388    -6.850725    -6.850725   -5.9082689  0.049220039    -6.850725   0.94245608   520346 
 3433000    1.0177405   -6.8499723   -6.8499723   -5.9091786   0.05426105   -6.8499723   0.94079377   520346 
 3434000    1.0172385   -6.8494372   -6.8494372   -5.9091075  0.043285089   -6.8494372   0.94032967   520346 
 3435000    1.0169274   -6.8495075   -6.8495075   -5.9094654  0.033664909   -6.8495075    0.9400421   520346 
 3436000    1.0187388   -6.8512958   -6.8512958   -5.9095792  0.090037256   -6.8512958    0.9417166   520346 
 3437000    1.0202967   -6.8530109   -6.8530109   -5.9098542  0.061768155   -6.8530109    0.9431567   520346 
 3438000    1.0206042   -6.8526358   -6.8526358   -5.9091948  0.052059133   -6.8526358   0.94344093   520346 
 3439000    1.0197298   -6.8520699   -6.8520699   -5.9094372  0.052081981   -6.8520699   0.94263269   520346 
 3440000    1.0180965   -6.8509013   -6.8509013   -5.9097784  0.051665032   -6.8509013   0.94112284   520346 
 3441000    1.0176199   -6.8511986   -6.8511986   -5.9105163  0.056522307   -6.8511986   0.94068227   520346 
 3442000    1.0185046   -6.8518048   -6.8518048   -5.9103048  0.067481715   -6.8518048   0.94150008   520346 
 3443000    1.0176866   -6.8511192   -6.8511192   -5.9103753  0.085861033   -6.8511192    0.9407439   520346 
 3444000    1.0190633   -6.8524486   -6.8524486   -5.9104321  0.022461649   -6.8524486   0.94201657   520346 
 3445000    1.0169759   -6.8511497   -6.8511497   -5.9110627  0.045344308   -6.8511497   0.94008697   520346 
 3446000    1.0179699   -6.8514952   -6.8514952   -5.9104893  0.057762227   -6.8514952   0.94100585   520346 
 3447000     1.019053   -6.8521739   -6.8521739   -5.9101668  0.076166598   -6.8521739   0.94200707   520346 
 3448000    1.0210985   -6.8542993   -6.8542993   -5.9104014  0.031708247   -6.8542993   0.94389788   520346 
 3449000     1.021413   -6.8530849   -6.8530849   -5.9088963  0.046274928   -6.8530849   0.94418857   520346 
 3450000    1.0187712   -6.8508551   -6.8508551   -5.9091085  0.055711703   -6.8508551   0.94174658   520346 
 3451000    1.0199066   -6.8526544   -6.8526544   -5.9098583  0.077958919   -6.8526544   0.94279613   520346 
 3452000     1.020198   -6.8527741   -6.8527741   -5.9097086  0.048065867   -6.8527741   0.94306547   520346 
 3453000    1.0190087   -6.8518344   -6.8518344   -5.9098684  0.062995885   -6.8518344   0.94196603   520346 
 3454000    1.0183383   -6.8520183   -6.8520183   -5.9106719  0.074341559   -6.8520183   0.94134634   520346 
 3455000    1.0185572   -6.8524412   -6.8524412   -5.9108926  0.035104946   -6.8524412   0.94154867   520346 
 3456000    1.0167193    -6.850921    -6.850921   -5.9110713  0.056206809    -6.850921   0.93984975   520346 
 3457000    1.0182037     -6.85213     -6.85213   -5.9109081  0.043389003     -6.85213    0.9412219   520346 
 3458000    1.0194551   -6.8528588   -6.8528588   -5.9104801  0.039343534   -6.8528588   0.94237872   520346 
 3459000    1.0209563   -6.8538657   -6.8538657   -5.9100992  0.068077639   -6.8538657   0.94376645   520346 
 3460000    1.0195872   -6.8532868   -6.8532868   -5.9107859  0.068554206   -6.8532868   0.94250086   520346 
 3461000    1.0189671   -6.8526856   -6.8526856    -5.910758  0.051087266   -6.8526856   0.94192761   520346 
 3462000    1.0171328   -6.8519675   -6.8519675   -5.9117355  0.086497962   -6.8519675   0.94023203   520346 
 3463000    1.0173153   -6.8518954   -6.8518954   -5.9114947   0.02078931   -6.8518954   0.94040068   520346 
 3464000    1.0162992   -6.8504663   -6.8504663   -5.9110048  0.052565501   -6.8504663   0.93946142   520346 
 3465000    1.0176086   -6.8518292   -6.8518292   -5.9111573  0.053363157   -6.8518292   0.94067185   520346 
 3466000    1.0180269   -6.8532727   -6.8532727   -5.9122141  0.039689391   -6.8532727   0.94105852   520346 
 3467000    1.0187692   -6.8538756   -6.8538756   -5.9121309  0.063216651   -6.8538756   0.94174469   520346 
 3468000    1.0184079   -6.8532599   -6.8532599   -5.9118492   0.07683295   -6.8532599    0.9414107   520346 
 3469000    1.0183034   -6.8533167   -6.8533167   -5.9120026  0.049534064   -6.8533167   0.94131412   520346 
 3470000    1.0184487   -6.8547771   -6.8547771   -5.9133286  0.070635495   -6.8547771   0.94144845   520346 
 3471000    1.0176348   -6.8538525   -6.8538525   -5.9131564  0.061994324   -6.8538525   0.94069603   520346 
 3472000    1.0167288   -6.8532248   -6.8532248   -5.9133663  0.029874229   -6.8532248   0.93985853   520346 
 3473000    1.0183684   -6.8548232   -6.8548232    -5.913449  0.058419535   -6.8548232   0.94137417   520346 
 3474000    1.0148395   -6.8515106   -6.8515106   -5.9133985  0.071699815   -6.8515106   0.93811209   520346 
 3475000     1.019462   -6.8551459   -6.8551459   -5.9127608  0.033140369   -6.8551459   0.94238507   520346 
 3476000    1.0178776   -6.8540973   -6.8540973   -5.9131768  0.071347351   -6.8540973   0.94092047   520346 
 3477000    1.0182153   -6.8543751   -6.8543751   -5.9131424   0.05901787   -6.8543751    0.9412327   520346 
 3478000    1.0197175    -6.855844    -6.855844   -5.9132227  0.078791858    -6.855844   0.94262133   520346 
 3479000     1.021708   -6.8573676   -6.8573676   -5.9129063  0.054355139   -6.8573676   0.94446131   520346 
 3480000    1.0190042   -6.8549951   -6.8549951   -5.9130332  0.050962662   -6.8549951   0.94196189   520346 
 3481000    1.0181754   -6.8543329   -6.8543329   -5.9131371  0.064438973   -6.8543329   0.94119579   520346 
 3482000     1.017269   -6.8528141   -6.8528141   -5.9124562   0.04380978   -6.8528141   0.94035787   520346 
 3483000    1.0180061    -6.854073    -6.854073   -5.9130338  0.049381764    -6.854073   0.94103923   520346 
 3484000    1.0179803    -6.854197    -6.854197   -5.9131815  0.060086318    -6.854197   0.94101544   520346 
 3485000     1.016347   -6.8534623   -6.8534623   -5.9139566  0.060134376   -6.8534623   0.93950566   520346 
 3486000    1.0168774   -6.8539536   -6.8539536   -5.9139577  0.069771141   -6.8539536   0.93999588   520346 
 3487000       1.0166   -6.8534493   -6.8534493   -5.9137098  0.051606941   -6.8534493   0.93973949   520346 
 3488000    1.0193393   -6.8559019   -6.8559019   -5.9136303  0.041100986   -6.8559019   0.94227165   520346 
 3489000    1.0190778   -6.8558677   -6.8558677   -5.9138377  0.063139511   -6.8558677   0.94202996   520346 
 3490000    1.0165777   -6.8533932   -6.8533932   -5.9136743  0.051410489   -6.8533932   0.93971887   520346 
 3491000    1.0173061   -6.8534957   -6.8534957   -5.9131035  0.058619002   -6.8534957   0.94039218   520346 
 3492000    1.0176895   -6.8555598   -6.8555598   -5.9148133   0.03580829   -6.8555598   0.94074658   520346 
 3493000    1.0154301   -6.8538624   -6.8538624   -5.9152044  0.050165561   -6.8538624   0.93865802   520346 
 3494000    1.0178937   -6.8558005   -6.8558005   -5.9148651  0.051329516   -6.8558005   0.94093541   520346 
 3495000    1.0163805   -6.8534941   -6.8534941   -5.9139575  0.069258909   -6.8534941   0.93953659   520346 
 3496000    1.0183141    -6.854834    -6.854834     -5.91351  0.070633388    -6.854834   0.94132398   520346 
 3497000    1.0151777   -6.8521608   -6.8521608   -5.9137361  0.070743328   -6.8521608   0.93842477   520346 
 3498000     1.017145   -6.8546084   -6.8546084   -5.9143651  0.026851494   -6.8546084   0.94024328   520346 
 3499000    1.0177714   -6.8555369   -6.8555369   -5.9147145  0.036526606   -6.8555369   0.94082236   520346 
 3500000    1.0167672   -6.8542952   -6.8542952   -5.9144012  0.055972095   -6.8542952   0.93989402   520346 
 3501000    1.0181795   -6.8561996   -6.8561996   -5.9150001  0.077893685   -6.8561996   0.94119957   520346 
 3502000    1.0173747   -6.8553506   -6.8553506    -5.914895  0.056993837   -6.8553506   0.94045561   520346 
 3503000    1.0151683   -6.8533707   -6.8533707   -5.9149546   0.07055669   -6.8533707   0.93841606   520346 
 3504000    1.0168999   -6.8545694   -6.8545694   -5.9145527  0.054438243   -6.8545694   0.94001671   520346 
 3505000    1.0171727   -6.8552904   -6.8552904   -5.9150216  0.041103339   -6.8552904   0.94026887   520346 
 3506000    1.0167789   -6.8548091   -6.8548091   -5.9149043  0.042851708   -6.8548091   0.93990488   520346 
 3507000    1.0163733   -6.8543883   -6.8543883   -5.9148583  0.040530716   -6.8543883   0.93952996   520346 
 3508000    1.0175966   -6.8549221   -6.8549221   -5.9142613  0.066689478   -6.8549221   0.94066078   520346 
 3509000    1.0182411   -6.8553848   -6.8553848   -5.9141283  0.050362194   -6.8553848   0.94125649   520346 
 3510000     1.015474   -6.8522967   -6.8522967    -5.913598     0.055946   -6.8522967   0.93869866   520346 
 3511000    1.0185532   -6.8559665   -6.8559665   -5.9144215    0.0534604   -6.8559665     0.941545   520346 
 3512000    1.0185756   -6.8558417   -6.8558417    -5.914276  0.067925716   -6.8558417   0.94156568   520346 
 3513000    1.0180461   -6.8560505   -6.8560505   -5.9149742   0.05075318   -6.8560505   0.94107624   520346 
 3514000    1.0170711   -6.8548161   -6.8548161   -5.9146412  0.049520487   -6.8548161   0.94017495   520346 
 3515000     1.016184   -6.8548486   -6.8548486   -5.9154936  0.049851529   -6.8548486   0.93935497   520346 
 3516000    1.0188198   -6.8564509   -6.8564509   -5.9146594  0.065046098   -6.8564509   0.94179143   520346 
 3517000    1.0197196   -6.8574185   -6.8574185   -5.9147952  0.078608146   -6.8574185   0.94262323   520346 
 3518000    1.0171975   -6.8559062   -6.8559062   -5.9156144  0.060301005   -6.8559062   0.94029185   520346 
 3519000    1.0186949    -6.857605    -6.857605    -5.915929  0.049733178    -6.857605   0.94167599   520346 
 3520000    1.0205284   -6.8582976   -6.8582976   -5.9149267  0.056500559   -6.8582976   0.94337089   520346 
 3521000    1.0192107   -6.8575314   -6.8575314   -5.9153785  0.050214975   -6.8575314   0.94215284   520346 
 3522000    1.0162156   -6.8545722   -6.8545722    -5.915188  0.029499147   -6.8545722   0.93938416   520346 
 3523000    1.0141798   -6.8536288   -6.8536288   -5.9161265  0.014378929   -6.8536288    0.9375023   520346 
 3524000    1.0188043   -6.8576915   -6.8576915   -5.9159144  0.052402607   -6.8576915   0.94177714   520346 
 3525000    1.0192424   -6.8583386   -6.8583386   -5.9161564  0.036851131   -6.8583386   0.94218215   520346 
 3526000     1.017646   -6.8567191   -6.8567191   -5.9160128  0.049024459   -6.8567191   0.94070636   520346 
 3527000    1.0189461    -6.857518    -6.857518   -5.9156098  0.051603529    -6.857518   0.94190822   520346 
 3528000    1.0194843   -6.8566278   -6.8566278    -5.914222  0.048138044   -6.8566278   0.94240575   520346 
 3529000    1.0181937   -6.8570251   -6.8570251   -5.9158124  0.055341565   -6.8570251    0.9412127   520346 
 3530000    1.0181616   -6.8562118   -6.8562118   -5.9150288  0.072642623   -6.8562118   0.94118301   520346 
 3531000    1.0184677   -6.8576978   -6.8576978   -5.9162318  0.060108804   -6.8576978   0.94146596   520346 
 3532000    1.0178226   -6.8567014   -6.8567014   -5.9158317  0.049198601   -6.8567014   0.94086966   520346 
 3533000    1.0172179   -6.8568534   -6.8568534   -5.9165427  0.051718476   -6.8568534   0.94031065   520346 
 3534000    1.0170593   -6.8570473   -6.8570473   -5.9168832  0.062285767   -6.8570473   0.94016407   520346 
 3535000    1.0157966    -6.855604    -6.855604   -5.9166072  0.048567347    -6.855604   0.93899678   520346 
 3536000    1.0184548   -6.8581193   -6.8581193   -5.9166653  0.081979366   -6.8581193   0.94145408   520346 
 3537000    1.0165612   -6.8564556   -6.8564556    -5.916752   0.03659973   -6.8564556   0.93970358   520346 
 3538000    1.0184019   -6.8580452   -6.8580452     -5.91664  0.061794957   -6.8580452   0.94140519   520346 
 3539000    1.0174435   -6.8565473   -6.8565473   -5.9160281   0.04450019   -6.8565473   0.94051921   520346 
 3540000    1.0180325   -6.8574581   -6.8574581   -5.9163945  0.029006771   -6.8574581   0.94106365   520346 
 3541000    1.0196471   -6.8591936   -6.8591936   -5.9166374  0.061909191   -6.8591936   0.94255623   520346 
 3542000    1.0178302   -6.8580143   -6.8580143   -5.9171376  0.050794907   -6.8580143   0.94087669   520346 
 3543000    1.0177522   -6.8574287   -6.8574287   -5.9166241  0.039414306   -6.8574287   0.94080457   520346 
 3544000    1.0164557    -6.856498    -6.856498   -5.9168919  0.071044082    -6.856498   0.93960612   520346 
 3545000    1.0194516   -6.8583706   -6.8583706   -5.9159952  0.088531634   -6.8583706   0.94237547   520346 
 3546000    1.0159631   -6.8556764   -6.8556764   -5.9165256  0.042050556   -6.8556764   0.93915079   520346 
 3547000    1.0167414   -6.8563667   -6.8563667   -5.9164965  0.073047455   -6.8563667   0.93987018   520346 
 3548000    1.0192636   -6.8586169   -6.8586169   -5.9164152  0.036238975   -6.8586169   0.94220171   520346 
 3549000    1.0186213   -6.8584507   -6.8584507   -5.9168428   0.05482937   -6.8584507   0.94160792   520346 
 3550000     1.019032   -6.8590465   -6.8590465   -5.9170589  0.050850201   -6.8590465    0.9419876   520346 
 3551000    1.0172514   -6.8574079   -6.8574079   -5.9170663  0.066876856   -6.8574079   0.94034168   520346 
 3552000    1.0198017   -6.8597583   -6.8597583   -5.9170592  0.026810801   -6.8597583    0.9426991   520346 
 3553000    1.0186661   -6.8587331   -6.8587331   -5.9170837  0.042502481   -6.8587331   0.94164935   520346 
 3554000    1.0159576   -6.8564154   -6.8564154   -5.9172697  0.066139916   -6.8564154   0.93914562   520346 
 3555000    1.0173551    -6.857727    -6.857727   -5.9172895  0.058276247    -6.857727   0.94043752   520346 
 3556000    1.0167439   -6.8563295   -6.8563295    -5.916457   0.04897916   -6.8563295   0.93987247   520346 
 3557000    1.0170913   -6.8564082   -6.8564082   -5.9162146  0.042348451   -6.8564082    0.9401936   520346 
 3558000    1.0182952   -6.8574127   -6.8574127   -5.9161062   0.06397282   -6.8574127   0.94130651   520346 
 3559000    1.0176664   -6.8565687   -6.8565687   -5.9158434  0.039939603   -6.8565687    0.9407253   520346 
 3560000     1.016206   -6.8546162   -6.8546162   -5.9152409  0.060213661   -6.8546162   0.93937531   520346 
 3561000    1.0189449   -6.8565361   -6.8565361    -5.914629  0.051323249   -6.8565361   0.94190713   520346 
 3562000    1.0186952   -6.8560577   -6.8560577   -5.9143814  0.061886718   -6.8560577   0.94167627   520346 
 3563000    1.0184551   -6.8563594   -6.8563594    -5.914905  0.051424525   -6.8563594   0.94145435   520346 
 3564000    1.0162716   -6.8556651   -6.8556651   -5.9162292  0.055109774   -6.8556651   0.93943592   520346 
 3565000    1.0167589   -6.8568394   -6.8568394   -5.9169531  0.052651485   -6.8568394   0.93988636   520346 
 3566000    1.0176752   -6.8574268   -6.8574268   -5.9166934  0.057690787   -6.8574268    0.9407334   520346 
 3567000     1.017504   -6.8567283   -6.8567283   -5.9161531  0.052154224   -6.8567283   0.94057515   520346 
 3568000    1.0191886   -6.8585212   -6.8585212   -5.9163888  0.053747456   -6.8585212   0.94213242   520346 
 3569000    1.0168232   -6.8555924   -6.8555924   -5.9156466  0.055712659   -6.8555924   0.93994578   520346 
 3570000    1.0177881   -6.8564037   -6.8564037   -5.9155659  0.019595902   -6.8564037   0.94083779   520346 
 3571000    1.0168683   -6.8557191   -6.8557191   -5.9157316  0.065626972   -6.8557191   0.93998746   520346 
 3572000    1.0201803   -6.8585206   -6.8585206   -5.9154715  0.039738952   -6.8585206   0.94304906   520346 
 3573000    1.0166414   -6.8551587   -6.8551587   -5.9153809  0.062389328   -6.8551587    0.9397778   520346 
 3574000    1.0183056   -6.8564219   -6.8564219   -5.9151058  0.052748641   -6.8564219   0.94131615   520346 
 3575000    1.0176539   -6.8556948   -6.8556948   -5.9149812  0.074329282   -6.8556948   0.94071368   520346 
 3576000    1.0182322   -6.8574234   -6.8574234   -5.9161751  0.056789361   -6.8574234   0.94124831   520346 
 3577000    1.0177543   -6.8575435   -6.8575435    -5.916737  0.058571475   -6.8575435   0.94080654   520346 
 3578000     1.016516   -6.8571715   -6.8571715   -5.9175097  0.076820033   -6.8571715   0.93966181   520346 
 3579000    1.0172369   -6.8577049   -6.8577049   -5.9173766  0.031851357   -6.8577049   0.94032825   520346 
 3580000    1.0186537   -6.8575146   -6.8575146   -5.9158767  0.052972051   -6.8575146    0.9416379   520346 
 3581000     1.018084   -6.8572298   -6.8572298   -5.9161185   0.04954086   -6.8572298   0.94111125   520346 
 3582000    1.0185473   -6.8575878   -6.8575878   -5.9160482   0.03658111   -6.8575878   0.94153955   520346 
 3583000    1.0174382   -6.8563942   -6.8563942   -5.9158798   0.03897422   -6.8563942   0.94051433   520346 
 3584000    1.0163871   -6.8560803   -6.8560803   -5.9165376  0.047189836   -6.8560803   0.93954267   520346 
 3585000    1.0162784    -6.856849    -6.856849   -5.9174068  0.044253715    -6.856849    0.9394422   520346 
 3586000    1.0172949   -6.8579159   -6.8579159    -5.917534  0.063174477   -6.8579159   0.94038186   520346 
 3587000    1.0174904   -6.8572317   -6.8572317   -5.9166691  0.061504751   -6.8572317   0.94056256   520346 
 3588000    1.0164506   -6.8567643   -6.8567643   -5.9171629   0.06383223   -6.8567643   0.93960138   520346 
 3589000    1.0167698   -6.8571527   -6.8571527   -5.9172562  0.046854325   -6.8571527   0.93989648   520346 
 3590000    1.0186775   -6.8596625   -6.8596625   -5.9180025  0.044153359   -6.8596625   0.94165992   520346 
 3591000    1.0184199   -6.8593971   -6.8593971   -5.9179753  0.030937475   -6.8593971   0.94142176   520346 
 3592000    1.0194061   -6.8604171   -6.8604171   -5.9180836  0.055306597   -6.8604171   0.94233347   520346 
 3593000    1.0157509   -6.8575493   -6.8575493   -5.9185946  0.067532216   -6.8575493   0.93895463   520346 
 3594000    1.0172124   -6.8586791   -6.8586791   -5.9183735  0.044885976   -6.8586791   0.94030556   520346 
 3595000    1.0175965   -6.8586386   -6.8586386    -5.917978  0.069363187   -6.8586386   0.94066062   520346 
 3596000    1.0170879   -6.8579199   -6.8579199   -5.9177294  0.049703892   -6.8579199   0.94019052   520346 
 3597000    1.0172048   -6.8583442   -6.8583442   -5.9180456  0.049344601   -6.8583442   0.94029856   520346 
 3598000    1.0164283   -6.8573533   -6.8573533   -5.9177725  0.061942407   -6.8573533   0.93958077   520346 
 3599000     1.016822   -6.8576466   -6.8576466   -5.9177019  0.062780959   -6.8576466   0.93994472   520346 
 3600000    1.0165517   -6.8571545   -6.8571545   -5.9174596  0.045507271   -6.8571545   0.93969488   520346 
 3601000    1.0160244   -6.8574009   -6.8574009   -5.9181935  0.037238358   -6.8574009   0.93920742   520346 
 3602000    1.0178175    -6.858687    -6.858687   -5.9178221  0.057107133    -6.858687   0.94086492   520346 
 3603000    1.0189547   -6.8602099   -6.8602099   -5.9182938  0.050336295   -6.8602099   0.94191619   520346 
 3604000    1.0164635   -6.8581814   -6.8581814   -5.9185681  0.060350071   -6.8581814   0.93961329   520346 
 3605000    1.0177214   -6.8598281   -6.8598281   -5.9190519  0.048610698   -6.8598281   0.94077614   520346 
 3606000    1.0170866   -6.8599486   -6.8599486   -5.9197593  0.048977979   -6.8599486   0.94018926   520346 
 3607000    1.0162026   -6.8596092   -6.8596092    -5.920237  0.034365156   -6.8596092   0.93937217   520346 
 3608000    1.0168957   -6.8599612   -6.8599612   -5.9199483   0.04728774   -6.8599612   0.94001286   520346 
 3609000    1.0169198   -6.8603085   -6.8603085   -5.9202734  0.034056843   -6.8603085    0.9400351   520346 
 3610000     1.016515   -6.8604596   -6.8604596   -5.9207987   0.03819625   -6.8604596   0.93966088   520346 
 3611000    1.0180126   -6.8621758   -6.8621758   -5.9211305  0.029062791   -6.8621758   0.94104532   520346 
 3612000    1.0160723   -6.8607289   -6.8607289   -5.9214773  0.030620532   -6.8607289   0.93925164   520346 
 3613000    1.0173667   -6.8612072   -6.8612072    -5.920759  0.075212532   -6.8612072   0.94044818   520346 
 3614000    1.0191845   -6.8631528   -6.8631528   -5.9210242  0.066098857   -6.8631528   0.94212858   520346 
 3615000    1.0172433   -6.8613064   -6.8613064   -5.9209722  0.041324054   -6.8613064   0.94033415   520346 
 3616000    1.0176184   -6.8614782   -6.8614782   -5.9207973  0.071412932   -6.8614782   0.94068087   520346 
 3617000    1.0173307   -6.8609009   -6.8609009    -5.920486  0.026721021   -6.8609009   0.94041491   520346 
 3618000    1.0176254   -6.8614688   -6.8614688   -5.9207815  0.054139427   -6.8614688   0.94068732   520346 
 3619000     1.015653   -6.8606326   -6.8606326   -5.9217686  0.043223449   -6.8606326   0.93886404   520346 
 3620000    1.0169506   -6.8613335   -6.8613335   -5.9212699  0.040993506   -6.8613335   0.94006358   520346 
 3621000    1.0176893   -6.8620548   -6.8620548   -5.9213083   0.06929548   -6.8620548   0.94074647   520346 
 3622000    1.0177093   -6.8613557   -6.8613557   -5.9205907  0.055713067   -6.8613557   0.94076493   520346 
 3623000    1.0164298   -6.8602753   -6.8602753   -5.9206931  0.064618553   -6.8602753    0.9395822   520346 
 3624000    1.0178285   -6.8626662   -6.8626662   -5.9217911  0.055095965   -6.8626662   0.94087513   520346 
 3625000    1.0147347   -6.8599465   -6.8599465   -5.9219313  0.070680413   -6.8599465   0.93801522   520346 
 3626000    1.0169248   -6.8618592   -6.8618592   -5.9218195  0.071692889   -6.8618592   0.94003975   520346 
 3627000     1.016555   -6.8625389   -6.8625389    -5.922841  0.063660126   -6.8625389   0.93969788   520346 
 3628000    1.0157349   -6.8625261   -6.8625261   -5.9235863  0.048023959   -6.8625261   0.93893982   520346 
 3629000    1.0165777   -6.8630024   -6.8630024   -5.9232835  0.063077919   -6.8630024   0.93971891   520346 
 3630000    1.0135573   -6.8606339   -6.8606339   -5.9237071  0.065743831   -6.8606339   0.93692687   520346 
 3631000    1.0157396   -6.8634135   -6.8634135   -5.9244693  0.062846291   -6.8634135   0.93894413   520346 
 3632000    1.0152789    -6.862043    -6.862043   -5.9235248  0.021919928    -6.862043   0.93851829   520346 
 3633000    1.0156318    -6.862407    -6.862407   -5.9235625   0.02907462    -6.862407   0.93884445   520346 
 3634000    1.0147545   -6.8614663   -6.8614663   -5.9234328  0.068344972   -6.8614663   0.93803355   520346 
 3635000    1.0161296    -6.861735    -6.861735   -5.9224304  0.043872082    -6.861735   0.93930466   520346 
 3636000     1.015547   -6.8610578   -6.8610578   -5.9222917  0.063711299   -6.8610578   0.93876612   520346 
 3637000    1.0172986   -6.8631178   -6.8631178   -5.9227325  0.052498452   -6.8631178    0.9403853   520346 
 3638000     1.018099    -6.863844    -6.863844   -5.9227189  0.077670909    -6.863844    0.9411252   520346 
 3639000    1.0179457   -6.8636728   -6.8636728   -5.9226893  0.043261604   -6.8636728   0.94098342   520346 
 3640000    1.0154501   -6.8613229   -6.8613229   -5.9226464  0.061050522   -6.8613229   0.93867649   520346 
 3641000    1.0171993   -6.8624483   -6.8624483   -5.9221548  0.060736011   -6.8624483   0.94029351   520346 
 3642000    1.0145982   -6.8616819   -6.8616819   -5.9237929  0.055062583   -6.8616819     0.937889   520346 
 3643000    1.0152865   -6.8625093   -6.8625093    -5.923984  0.067196114   -6.8625093   0.93852529   520346 
 3644000    1.0157117   -6.8623797   -6.8623797   -5.9234614  0.072844295   -6.8623797   0.93891834   520346 
 3645000    1.0174247   -6.8639192   -6.8639192   -5.9234174  0.044201676   -6.8639192   0.94050182   520346 
 3646000    1.0160142   -6.8627687   -6.8627687   -5.9235708  0.036386495   -6.8627687   0.93919795   520346 
 3647000    1.0167728   -6.8635391   -6.8635391   -5.9236399  0.044284275   -6.8635391   0.93989923   520346 
 3648000    1.0182351    -6.864618    -6.864618    -5.923367  0.084922134    -6.864618   0.94125099   520346 
 3649000    1.0158702   -6.8624172   -6.8624172   -5.9233523  0.054549875   -6.8624172   0.93906488   520346 
 3650000    1.0195602   -6.8651814   -6.8651814   -5.9227055  0.034590556   -6.8651814   0.94247589   520346 
 3651000    1.0169258   -6.8624903   -6.8624903   -5.9224497  0.047489112   -6.8624903   0.94004067   520346 
 3652000     1.017472   -6.8632787   -6.8632787   -5.9227332  0.055128658   -6.8632787   0.94054556   520346 
 3653000    1.0178432   -6.8628806   -6.8628806   -5.9219919  0.055019478   -6.8628806   0.94088874   520346 
 3654000    1.0176405    -6.863492    -6.863492   -5.9227907  0.038572242    -6.863492   0.94070133   520346 
 3655000    1.0179883   -6.8642964   -6.8642964   -5.9232736  0.061945769   -6.8642964   0.94102282   520346 
 3656000    1.0160973   -6.8620278   -6.8620278    -5.922753  0.037790839   -6.8620278   0.93927477   520346 
 3657000    1.0144252   -6.8609964   -6.8609964   -5.9232673   0.07568023   -6.8609964    0.9377291   520346 
 3658000    1.0128557   -6.8603043   -6.8603043    -5.924026  0.067962985   -6.8603043   0.93627828   520346 
 3659000    1.0170745   -6.8646432   -6.8646432   -5.9244651  0.049730664   -6.8646432   0.94017808   520346 
 3660000    1.0156427   -6.8627633   -6.8627633   -5.9239087   0.06128929   -6.8627633   0.93885457   520346 
 3661000    1.0156887   -6.8636133   -6.8636133   -5.9247162  0.036924165   -6.8636133   0.93889706   520346 
 3662000    1.0162994   -6.8635334   -6.8635334   -5.9240718  0.026468008   -6.8635334   0.93946157   520346 
 3663000    1.0170145   -6.8639068   -6.8639068   -5.9237842  0.060752247   -6.8639068   0.94012262   520346 
 3664000    1.0170813   -6.8641875   -6.8641875   -5.9240031  0.060697715   -6.8641875   0.94018441   520346 
 3665000    1.0166027   -6.8648644   -6.8648644   -5.9251224  0.066215777   -6.8648644   0.93974202   520346 
 3666000    1.0174249   -6.8645299   -6.8645299   -5.9240279  0.076515289   -6.8645299   0.94050201   520346 
 3667000    1.0173081   -6.8640008   -6.8640008   -5.9236067  0.058704183   -6.8640008   0.94039405   520346 
 3668000     1.015769   -6.8633285   -6.8633285   -5.9243572  0.069959854   -6.8633285   0.93897129   520346 
 3669000    1.0173163   -6.8649409   -6.8649409   -5.9245393   0.04930696   -6.8649409   0.94040163   520346 
 3670000    1.0149042   -6.8624712   -6.8624712   -5.9242994  0.043584433   -6.8624712   0.93817188   520346 
 3671000    1.0156539   -6.8629727   -6.8629727   -5.9241078  0.043963428   -6.8629727   0.93886492   520346 
 3672000    1.0169168   -6.8643417   -6.8643417   -5.9243093  0.056710927   -6.8643417   0.94003234   520346 
 3673000    1.0178409   -6.8653604   -6.8653604   -5.9244738  0.055955332   -6.8653604   0.94088659   520346 
 3674000    1.0164837   -6.8641213   -6.8641213   -5.9244893  0.056793772   -6.8641213   0.93963201   520346 
 3675000    1.0157606   -6.8640544   -6.8640544   -5.9250908  0.074554416   -6.8640544   0.93896359   520346 
 3676000    1.0174905   -6.8650276   -6.8650276    -5.924465  0.023470175   -6.8650276   0.94056263   520346 
 3677000    1.0160616   -6.8636499   -6.8636499   -5.9244081   0.04069251   -6.8636499   0.93924182   520346 
 3678000    1.0179344   -6.8655815   -6.8655815   -5.9246085   0.03388965   -6.8655815   0.94097301   520346 
 3679000    1.0167926   -6.8645915   -6.8645915   -5.9246739  0.073700936   -6.8645915   0.93991755   520346 
 3680000    1.0170745   -6.8656493   -6.8656493   -5.9254711  0.054316583   -6.8656493   0.94017813   520346 
 3681000    1.0154987   -6.8644255   -6.8644255   -5.9257041  0.036900233   -6.8644255   0.93872145   520346 
 3682000    1.0148133   -6.8629368   -6.8629368    -5.924849  0.055987644   -6.8629368   0.93808784   520346 
 3683000    1.0160717   -6.8641803   -6.8641803   -5.9249291  0.046128154   -6.8641803   0.93925115   520346 
 3684000    1.0136172   -6.8623544   -6.8623544   -5.9253722  0.036257547   -6.8623544    0.9369822   520346 
 3685000    1.0177425    -6.865663    -6.865663   -5.9248674  0.058678743    -6.865663   0.94079561   520346 
 3686000    1.0175832   -6.8650746   -6.8650746   -5.9244262  0.063645983   -6.8650746   0.94064839   520346 
 3687000    1.0171062   -6.8642731   -6.8642731   -5.9240656  0.066340466   -6.8642731   0.94020742   520346 
 3688000    1.0158104   -6.8630723   -6.8630723   -5.9240628  0.025317043   -6.8630723   0.93900957   520346 
 3689000      1.01699     -6.86435     -6.86435     -5.92425  0.047069682     -6.86435       0.9401   520346 
 3690000    1.0163359    -6.863822    -6.863822   -5.9243267  0.046980589    -6.863822   0.93949537   520346 
 3691000    1.0167085   -6.8642671   -6.8642671   -5.9244273  0.057627832   -6.8642671   0.93983978   520346 
 3692000    1.0169358   -6.8651053   -6.8651053   -5.9250554  0.061278805   -6.8651053    0.9400499   520346 
 3693000    1.0178015   -6.8668366   -6.8668366   -5.9259865  0.061033258   -6.8668366   0.94085015   520346 
 3694000    1.0167308    -6.864999    -6.864999   -5.9251387  0.071127474    -6.864999   0.93986036   520346 
 3695000    1.0161887   -6.8646641   -6.8646641   -5.9253048  0.035718994   -6.8646641   0.93935926   520346 
 3696000    1.0162414   -6.8642412   -6.8642412   -5.9248331  0.073687468   -6.8642412   0.93940803   520346 
 3697000    1.0167972   -6.8657386   -6.8657386   -5.9258169  0.049295974   -6.8657386   0.93992174   520346 
 3698000    1.0160194   -6.8656265   -6.8656265   -5.9264236  0.046317408   -6.8656265   0.93920282   520346 
 3699000    1.0148157   -6.8640699   -6.8640699   -5.9259798  0.061076592   -6.8640699   0.93809011   520346 
 3700000    1.0167955   -6.8661675   -6.8661675   -5.9262473  0.028856135   -6.8661675    0.9399202   520346 
 3701000    1.0156967   -6.8651455   -6.8651455    -5.926241  0.039861953   -6.8651455    0.9389045   520346 
 3702000    1.0158721   -6.8650562   -6.8650562   -5.9259895  0.076606706   -6.8650562   0.93906665   520346 
 3703000     1.017683   -6.8665543   -6.8665543   -5.9258137  0.059082134   -6.8665543   0.94074065   520346 
 3704000    1.0153302   -6.8647344   -6.8647344   -5.9261687  0.055937693   -6.8647344   0.93856572   520346 
 3705000    1.0178395   -6.8679352   -6.8679352   -5.9270499  0.055915245   -6.8679352   0.94088525   520346 
 3706000    1.0175188   -6.8682687   -6.8682687     -5.92768  0.034486791   -6.8682687   0.94058878   520346 
 3707000    1.0177681    -6.868105    -6.868105   -5.9272858  0.073933317    -6.868105   0.94081927   520346 
 3708000    1.0147538   -6.8654686   -6.8654686   -5.9274357  0.051699316   -6.8654686    0.9380329   520346 
 3709000    1.0161979   -6.8676789   -6.8676789   -5.9283111  0.051873727   -6.8676789   0.93936778   520346 
 3710000    1.0158908   -6.8670204   -6.8670204   -5.9279365  0.034651607   -6.8670204    0.9390839   520346 
 3711000    1.0147234    -6.865744    -6.865744   -5.9277392  0.075786197    -6.865744   0.93800474   520346 
 3712000    1.0158825   -6.8674583   -6.8674583    -5.928382  0.052270935   -6.8674583   0.93907626   520346 
 3713000    1.0165871   -6.8675204   -6.8675204   -5.9277928  0.068628807   -6.8675204   0.93972754   520346 
 3714000    1.0149726   -6.8657655   -6.8657655   -5.9275304  0.053031783   -6.8657655   0.93823511   520346 
 3715000    1.0153695   -6.8658394   -6.8658394   -5.9272374  0.039667483   -6.8658394   0.93860199   520346 
 3716000    1.0175193   -6.8684754   -6.8684754   -5.9278861  0.063800001   -6.8684754    0.9405893   520346 
 3717000    1.0159981   -6.8675125   -6.8675125   -5.9283294  0.058177479   -6.8675125   0.93918305   520346 
 3718000    1.0156615   -6.8670507   -6.8670507   -5.9281788  0.060801577   -6.8670507   0.93887199   520346 
 3719000    1.0168969   -6.8671887   -6.8671887   -5.9271747  0.056271988   -6.8671887   0.94001392   520346 
 3720000    1.0158364   -6.8669841   -6.8669841   -5.9279504  0.056656362   -6.8669841   0.93903365   520346 
 3721000    1.0167185   -6.8683272   -6.8683272   -5.9284782  0.070244749   -6.8683272   0.93984902   520346 
 3722000    1.0156699   -6.8674622   -6.8674622   -5.9285825   0.07791335   -6.8674622   0.93887967   520346 
 3723000    1.0144236   -6.8665417   -6.8665417   -5.9288141  0.049821858   -6.8665417   0.93772765   520346 
 3724000    1.0158433   -6.8686444   -6.8686444   -5.9296045  0.074917546   -6.8686444   0.93903999   520346 
 3725000    1.0136767   -6.8664155   -6.8664155   -5.9293783  0.071516273   -6.8664155   0.93703725   520346 
 3726000    1.0149599   -6.8670645   -6.8670645   -5.9288411  0.062966491   -6.8670645   0.93822337   520346 
 3727000    1.0156323   -6.8670733   -6.8670733   -5.9282283  0.050699779   -6.8670733   0.93884492   520346 
 3728000    1.0154236   -6.8668608   -6.8668608   -5.9282088  0.053189385   -6.8668608   0.93865204   520346 
 3729000    1.0149222   -6.8668456   -6.8668456   -5.9286571  0.081512827   -6.8668456   0.93818856   520346 
 3730000    1.0179497   -6.8697503   -6.8697503   -5.9287632   0.01394092   -6.8697503   0.94098711   520346 
 3731000    1.0160162    -6.867136    -6.867136   -5.9279362  0.064225496    -6.867136   0.93919978   520346 
 3732000     1.013562   -6.8651136   -6.8651136   -5.9281824  0.059405707   -6.8651136   0.93693117   520346 
 3733000    1.0180264   -6.8690943   -6.8690943   -5.9280363  0.052032694   -6.8690943   0.94105808   520346 
 3734000    1.0178733   -6.8690112   -6.8690112   -5.9280946  0.043316433   -6.8690112   0.94091655   520346 
 3735000    1.0174458   -6.8687185   -6.8687185   -5.9281971  0.053213345   -6.8687185   0.94052134   520346 
 3736000    1.0169802   -6.8684462   -6.8684462   -5.9283553  0.052533991   -6.8684462    0.9400909   520346 
 3737000    1.0170697   -6.8681623   -6.8681623   -5.9279887  0.066090532   -6.8681623   0.94017364   520346 
 3738000    1.0162301   -6.8671453   -6.8671453   -5.9277478  0.073544702   -6.8671453   0.93939755   520346 
 3739000    1.0168564   -6.8680186   -6.8680186   -5.9280421  0.084185415   -6.8680186   0.93997649   520346 
 3740000    1.0166533   -6.8682679   -6.8682679   -5.9284792  0.064052929   -6.8682679   0.93978876   520346 
 3741000    1.0171104    -6.869339    -6.869339   -5.9291277  0.077214641    -6.869339   0.94021129   520346 
 3742000    1.0187123   -6.8699653   -6.8699653   -5.9282732  0.037517346   -6.8699653   0.94169213   520346 
 3743000    1.0174046   -6.8690147   -6.8690147   -5.9285314  0.042318878   -6.8690147   0.94048325   520346 
 3744000    1.0169723    -6.869533    -6.869533   -5.9294493  0.049145622    -6.869533   0.94008366   520346 
 3745000    1.0159687   -6.8686321   -6.8686321   -5.9294761  0.068932585   -6.8686321   0.93915595   520346 
 3746000    1.0194817    -6.872152    -6.872152   -5.9297487  0.022596108    -6.872152   0.94240333   520346 
 3747000    1.0170784   -6.8704394   -6.8704394   -5.9302577  0.066863815   -6.8704394   0.94018168   520346 
 3748000     1.016973   -6.8699274   -6.8699274   -5.9298431  0.091498973   -6.8699274   0.94008429   520346 
 3749000    1.0164639   -6.8696038   -6.8696038   -5.9299902  0.082568316   -6.8696038    0.9396137   520346 
 3750000    1.0150543   -6.8680959   -6.8680959   -5.9297852  0.055370934   -6.8680959   0.93831069   520346 
 3751000    1.0144278   -6.8666876   -6.8666876   -5.9289561  0.059378733   -6.8666876   0.93773149   520346 
 3752000    1.0153674   -6.8671622   -6.8671622   -5.9285621  0.062234154   -6.8671622   0.93860008   520346 
 3753000    1.0146764   -6.8675924   -6.8675924   -5.9296312  0.064318703   -6.8675924   0.93796129   520346 
 3754000    1.0152131    -6.868188    -6.868188   -5.9297306  0.034148325    -6.868188   0.93845746   520346 
 3755000    1.0176739   -6.8708336   -6.8708336   -5.9301014   0.05622283   -6.8708336   0.94073216   520346 
 3756000     1.013758   -6.8676146   -6.8676146   -5.9305022  0.057638594   -6.8676146    0.9371124   520346 
 3757000     1.016702   -6.8696763   -6.8696763   -5.9298425  0.077273778   -6.8696763   0.93983379   520346 
 3758000    1.0175123   -6.8708215   -6.8708215   -5.9302386  0.059607964   -6.8708215   0.94058281   520346 
 3759000    1.0174329    -6.871125    -6.871125   -5.9306156  0.068288084    -6.871125   0.94050942   520346 
 3760000    1.0145486   -6.8684301   -6.8684301   -5.9305869  0.085734034   -6.8684301   0.93784323   520346 
 3761000    1.0162831   -6.8702002   -6.8702002   -5.9307537  0.058247827   -6.8702002   0.93944656   520346 
 3762000    1.0166351   -6.8705422   -6.8705422   -5.9307702  0.069559037   -6.8705422   0.93977196   520346 
 3763000    1.0167209   -6.8709026   -6.8709026   -5.9310514   0.07056697   -6.8709026   0.93985127   520346 
 3764000    1.0159112   -6.8705595   -6.8705595   -5.9314567  0.059501395   -6.8705595   0.93910275   520346 
 3765000    1.0161608   -6.8714589   -6.8714589   -5.9321254  0.063154303   -6.8714589   0.93933345   520346 
 3766000    1.0156069    -6.871137    -6.871137   -5.9323155  0.050051589    -6.871137   0.93882145   520346 
 3767000    1.0151731   -6.8705053   -6.8705053   -5.9320849  0.041967988   -6.8705053   0.93842044   520346 
 3768000    1.0179517   -6.8720569   -6.8720569   -5.9310678  0.081735539   -6.8720569   0.94098902   520346 
 3769000    1.0163224   -6.8705698   -6.8705698   -5.9310869  0.052370633   -6.8705698   0.93948291   520346 
 3770000    1.0161257    -6.870238    -6.870238   -5.9309369  0.051607796    -6.870238   0.93930108   520346 
 3771000    1.0166991    -6.870198    -6.870198    -5.930367  0.061303361    -6.870198   0.93983105   520346 
 3772000    1.0158151   -6.8705454   -6.8705454   -5.9315315  0.049727304   -6.8705454    0.9390139   520346 
 3773000     1.015927   -6.8693048   -6.8693048   -5.9301875  0.085507747   -6.8693048   0.93911736   520346 
 3774000    1.0153277   -6.8683656   -6.8683656   -5.9298022  0.045014423   -6.8683656    0.9385634   520346 
 3775000    1.0190362    -6.871897    -6.871897   -5.9299055  0.060675198    -6.871897   0.94199146   520346 
 3776000    1.0158125   -6.8685588   -6.8685588   -5.9295473  0.046186602   -6.8685588   0.93901152   520346 
 3777000     1.015449   -6.8683985   -6.8683985    -5.929723  0.048232749   -6.8683985   0.93867553   520346 
 3778000    1.0171297   -6.8697325   -6.8697325   -5.9295034  0.066271767   -6.8697325    0.9402291   520346 
 3779000    1.0171165   -6.8708271   -6.8708271   -5.9306102  0.045368428   -6.8708271   0.94021692   520346 
 3780000    1.0138959   -6.8681144   -6.8681144   -5.9308746  0.036453516   -6.8681144   0.93723984   520346 
 3781000    1.0124541   -6.8669792   -6.8669792   -5.9310722  0.043892949   -6.8669792   0.93590701   520346 
 3782000    1.0160341   -6.8701109   -6.8701109   -5.9308945  0.070806719   -6.8701109    0.9392164   520346 
 3783000    1.0147259   -6.8696013   -6.8696013   -5.9315941  0.086588705   -6.8696013   0.93800711   520346 
 3784000    1.0192764   -6.8731316   -6.8731316    -5.930918  0.070073553   -6.8731316   0.94221351   520346 
 3785000    1.0160842   -6.8705993   -6.8705993   -5.9313366  0.054430409   -6.8705993   0.93926271   520346 
 3786000    1.0152546   -6.8700074   -6.8700074   -5.9315116  0.049238685   -6.8700074    0.9384958   520346 
 3787000    1.0156458   -6.8694783   -6.8694783   -5.9306209   0.05512769   -6.8694783   0.93885746   520346 
 3788000    1.0153411    -6.869917    -6.869917   -5.9313412  0.053667683    -6.869917   0.93857581   520346 
 3789000    1.0163347   -6.8708553   -6.8708553    -5.931361  0.065488234   -6.8708553   0.93949424   520346 
 3790000    1.0173712   -6.8723393   -6.8723393   -5.9318869  0.043273112   -6.8723393   0.94045242   520346 
 3791000    1.0153438   -6.8697055   -6.8697055   -5.9311272  0.058378633   -6.8697055   0.93857828   520346 
 3792000    1.0148655   -6.8711506   -6.8711506   -5.9330144  0.034769398   -6.8711506   0.93813616   520346 
 3793000    1.0138655   -6.8708658   -6.8708658   -5.9336541  0.059438926   -6.8708658   0.93721172   520346 
 3794000    1.0133291   -6.8712419   -6.8712419   -5.9345259  0.043854922   -6.8712419   0.93671593   520346 
 3795000    1.0141073   -6.8728976   -6.8728976   -5.9354624  0.035938654   -6.8728976   0.93743521   520346 
 3796000    1.0141843   -6.8731206   -6.8731206   -5.9356142  0.043310845   -6.8731206   0.93750639   520346 
 3797000    1.0123866   -6.8717095   -6.8717095   -5.9358649  0.051877783   -6.8717095   0.93584466   520346 
 3798000    1.0137108   -6.8729874   -6.8729874   -5.9359187   0.02045375   -6.8729874   0.93706874   520346 
 3799000    1.0144904   -6.8728291   -6.8728291   -5.9350397  0.048345566   -6.8728291   0.93778943   520346 
 3800000    1.0132541   -6.8717321   -6.8717321   -5.9350855  0.055093698   -6.8717321   0.93664658   520346 
 3801000    1.0138561   -6.8720746   -6.8720746   -5.9348715  0.064686706   -6.8720746   0.93720302   520346 
 3802000    1.0157475   -6.8740474   -6.8740474   -5.9350959  0.055604309   -6.8740474   0.93895148   520346 
 3803000    1.0145677   -6.8723548   -6.8723548    -5.934494  0.058294826   -6.8723548   0.93786082   520346 
 3804000    1.0135347   -6.8722296   -6.8722296   -5.9353237  0.079669817   -6.8722296   0.93690593   520346 
 3805000    1.0141724   -6.8723853   -6.8723853   -5.9348899  0.069764982   -6.8723853   0.93749542   520346 
 3806000    1.0161177   -6.8742391   -6.8742391   -5.9349454   0.07182207   -6.8742391   0.93929367   520346 
 3807000    1.0162584   -6.8738224   -6.8738224   -5.9343987  0.070900133   -6.8738224   0.93942369   520346 
 3808000    1.0141803   -6.8719828   -6.8719828   -5.9344801  0.072334329   -6.8719828   0.93750273   520346 
 3809000    1.0158604   -6.8740024   -6.8740024   -5.9349465  0.090936153   -6.8740024   0.93905583   520346 
 3810000    1.0159397   -6.8747124   -6.8747124   -5.9355833  0.067856334   -6.8747124    0.9391291   520346 
 3811000    1.0139153   -6.8724234   -6.8724234   -5.9351657  0.060654045   -6.8724234   0.93725773   520346 
 3812000    1.0137968   -6.8721924   -6.8721924   -5.9350442  0.048175548   -6.8721924    0.9371482   520346 
 3813000    1.0160482   -6.8741927   -6.8741927   -5.9349633  0.043978248   -6.8741927   0.93922937   520346 
 3814000    1.0143822   -6.8715711   -6.8715711   -5.9338818  0.051815706   -6.8715711   0.93768934   520346 
 3815000     1.013034   -6.8707416   -6.8707416   -5.9342985  0.054171698   -6.8707416   0.93644305   520346 
 3816000    1.0129774   -6.8701994   -6.8701994   -5.9338086  0.054157218   -6.8701994   0.93639077   520346 
 3817000    1.0119243   -6.8704821   -6.8704821   -5.9350648  0.048531734   -6.8704821   0.93541729   520346 
 3818000    1.0163758   -6.8727211   -6.8727211   -5.9331889  0.058490975   -6.8727211    0.9395322   520346 
 3819000    1.0157492   -6.8724813   -6.8724813   -5.9335283  0.051606243   -6.8724813   0.93895299   520346 
 3820000    1.0142724   -6.8717457   -6.8717457   -5.9341578  0.082270195   -6.8717457   0.93758791   520346 
 3821000    1.0148041   -6.8721712   -6.8721712   -5.9340918  0.056922512   -6.8721712   0.93807938   520346 
 3822000    1.0139793   -6.8710286   -6.8710286   -5.9337117  0.081463959   -6.8710286   0.93731693   520346 
 3823000    1.0146225   -6.8715194   -6.8715194   -5.9336079  0.057754145   -6.8715194   0.93791154   520346 
 3824000    1.0135881   -6.8702942   -6.8702942   -5.9333389  0.039494485   -6.8702942   0.93695533   520346 
 3825000    1.0164064   -6.8732535   -6.8732535   -5.9336929  0.046758321   -6.8732535   0.93956054   520346 
 3826000    1.0148475   -6.8725325   -6.8725325    -5.934413  0.066762885   -6.8725325   0.93811949   520346 
 3827000    1.0134847   -6.8707606   -6.8707606   -5.9339009  0.079645249   -6.8707606   0.93685974   520346 
 3828000    1.0134916   -6.8713464   -6.8713464   -5.9344803  0.058141033   -6.8713464   0.93686613   520346 
 3829000    1.0126387   -6.8710113   -6.8710113   -5.9349337  0.055182131   -6.8710113   0.93607764   520346 
 3830000    1.0132119   -6.8713798   -6.8713798   -5.9347723    0.0512533   -6.8713798   0.93660751   520346 
 3831000    1.0141675   -6.8714937   -6.8714937   -5.9340028  0.062519911   -6.8714937   0.93749087   520346 
 3832000    1.0133072   -6.8704445   -6.8704445   -5.9337488  0.073643164   -6.8704445   0.93669563   520346 
 3833000    1.0146428   -6.8723686   -6.8723686   -5.9344384  0.056612578   -6.8723686   0.93793023   520346 
 3834000    1.0157191    -6.874236    -6.874236   -5.9353108  0.060196906    -6.874236    0.9389252   520346 
 3835000    1.0157428   -6.8751078   -6.8751078   -5.9361607  0.027369344   -6.8751078   0.93894706   520346 
 3836000    1.0148377    -6.873871    -6.873871   -5.9357606  0.052255248    -6.873871   0.93811044   520346 
 3837000    1.0141144   -6.8724599   -6.8724599   -5.9350181   0.04917903   -6.8724599   0.93744183   520346 
 3838000    1.0141883   -6.8726663   -6.8726663   -5.9351561  0.078894936   -6.8726663   0.93751017   520346 
 3839000    1.0150088   -6.8732812   -6.8732812   -5.9350126  0.056064488   -6.8732812   0.93826858   520346 
 3840000     1.014884   -6.8742522   -6.8742522   -5.9360989  0.037720154   -6.8742522   0.93815326   520346 
 3841000    1.0144662   -6.8728919   -6.8728919   -5.9351248  0.069763922   -6.8728919   0.93776704   520346 
 3842000    1.0151396   -6.8733897   -6.8733897   -5.9350002  0.064594268   -6.8733897   0.93838953   520346 
 3843000       1.0141   -6.8720307   -6.8720307   -5.9346022  0.069622949   -6.8720307   0.93742852   520346 
 3844000    1.0153242   -6.8734547   -6.8734547   -5.9348945  0.060887953   -6.8734547   0.93856015   520346 
 3845000    1.0144585   -6.8733597   -6.8733597   -5.9355998   0.04786756   -6.8733597   0.93775993   520346 
 3846000    1.0136593   -6.8737481   -6.8737481    -5.936727  0.038147772   -6.8737481   0.93702116   520346 
 3847000    1.0134529   -6.8732358   -6.8732358   -5.9364055  0.063371343   -6.8732358   0.93683033   520346 
 3848000    1.0149983     -6.87485     -6.87485   -5.9365911  0.055923695     -6.87485    0.9382589   520346 
 3849000     1.015322   -6.8747404   -6.8747404   -5.9361824  0.061861855   -6.8747404   0.93855809   520346 
 3850000    1.0137139   -6.8734197   -6.8734197   -5.9363481  0.066940605   -6.8734197   0.93707156   520346 
 3851000    1.0142539    -6.874498    -6.874498   -5.9369272  0.057006744    -6.874498    0.9375708   520346 
 3852000    1.0170533   -6.8769118   -6.8769118   -5.9367533  0.064501005   -6.8769118   0.94015849   520346 
 3853000     1.014736   -6.8751539   -6.8751539   -5.9371375  0.048495121   -6.8751539    0.9380164   520346 
 3854000      1.01378   -6.8738047   -6.8738047   -5.9366719  0.070695219   -6.8738047   0.93713271   520346 
 3855000    1.0135099   -6.8735576   -6.8735576   -5.9366746  0.061439142   -6.8735576   0.93688299   520346 
 3856000    1.0137233   -6.8737898   -6.8737898   -5.9367095  0.068776398   -6.8737898    0.9370803   520346 
 3857000    1.0127303   -6.8725202   -6.8725202   -5.9363579  0.058356264   -6.8725202   0.93616234   520346 
 3858000    1.0157157   -6.8742688   -6.8742688   -5.9353468  0.043994756   -6.8742688   0.93892204   520346 
 3859000    1.0122878    -6.871803    -6.871803   -5.9360497  0.098306194    -6.871803    0.9357533   520346 
 3860000    1.0138623   -6.8732869   -6.8732869   -5.9360781  0.077490383   -6.8732869   0.93720881   520346 
 3861000    1.0158419   -6.8746443   -6.8746443   -5.9356056  0.075452858   -6.8746443   0.93903871   520346 
 3862000    1.0158794   -6.8746813   -6.8746813   -5.9356079  0.074742247   -6.8746813    0.9390734   520346 
 3863000    1.0128574   -6.8718889   -6.8718889   -5.9356091  0.018672728   -6.8718889   0.93627981   520346 
 3864000    1.0132462    -6.871367    -6.871367   -5.9347278  0.047749766    -6.871367   0.93663925   520346 
 3865000     1.013481   -6.8711631   -6.8711631   -5.9343068  0.044594268   -6.8711631   0.93685633   520346 
 3866000    1.0161098   -6.8735832   -6.8735832   -5.9342968  0.046892888   -6.8735832   0.93928634   520346 
 3867000    1.0159841   -6.8741241   -6.8741241   -5.9349539  0.045429876   -6.8741241   0.93917016   520346 
 3868000    1.0179408   -6.8764119   -6.8764119    -5.935433  0.063546593   -6.8764119   0.94097895   520346 
 3869000    1.0149012   -6.8743556   -6.8743556   -5.9361864  0.047684523   -6.8743556   0.93816916   520346 
 3870000    1.0157167   -6.8757335   -6.8757335   -5.9368105  0.066870944   -6.8757335   0.93892299   520346 
 3871000    1.0162906   -6.8757939   -6.8757939   -5.9363404  0.063777436   -6.8757939   0.93945344   520346 
 3872000    1.0145399   -6.8746855   -6.8746855   -5.9368503   0.03820684   -6.8746855   0.93783517   520346 
 3873000    1.0136434   -6.8730117   -6.8730117   -5.9360053  0.060734167   -6.8730117   0.93700642   520346 
 3874000    1.0142357   -6.8734477   -6.8734477   -5.9358937  0.056055455   -6.8734477   0.93755397   520346 
 3875000    1.0150101    -6.874052    -6.874052   -5.9357821  0.067307863    -6.874052   0.93826983   520346 
 3876000    1.0161368   -6.8752692   -6.8752692   -5.9359579  0.052474265   -6.8752692    0.9393113   520346 
 3877000    1.0168521   -6.8761261   -6.8761261   -5.9361535  0.059561711   -6.8761261   0.93997256   520346 
 3878000    1.0156454   -6.8743159   -6.8743159   -5.9354588  0.063766034   -6.8743159   0.93885709   520346 
 3879000    1.0143768   -6.8733892   -6.8733892   -5.9357049   0.07714957   -6.8733892   0.93768435   520346 
 3880000    1.0127535   -6.8711717   -6.8711717   -5.9349879  0.047186182   -6.8711717   0.93618379   520346 
 3881000     1.014869   -6.8729271   -6.8729271   -5.9347878  0.025425319   -6.8729271   0.93813938   520346 
 3882000    1.0160811   -6.8735837   -6.8735837   -5.9343239  0.065517629   -6.8735837   0.93925982   520346 
 3883000    1.0155209   -6.8733595   -6.8733595   -5.9346175  0.033911106   -6.8733595   0.93874193   520346 
 3884000    1.0168323   -6.8745059   -6.8745059   -5.9345517  0.063734896   -6.8745059   0.93995419   520346 
 3885000    1.0139521   -6.8728669   -6.8728669   -5.9355751  0.047968926   -6.8728669   0.93729176   520346 
 3886000    1.0145664    -6.873722    -6.873722   -5.9358624  0.061584809    -6.873722   0.93785962   520346 
 3887000    1.0133564   -6.8732286   -6.8732286   -5.9364875  0.045582461   -6.8732286   0.93674112   520346 
 3888000    1.0157709   -6.8751886   -6.8751886   -5.9362155  0.041241996   -6.8751886    0.9389731   520346 
 3889000    1.0148849   -6.8744934   -6.8744934   -5.9363393  0.041949685   -6.8744934   0.93815407   520346 
 3890000    1.0141938   -6.8736661   -6.8736661   -5.9361509  0.061928799   -6.8736661   0.93751525   520346 
 3891000    1.0146659   -6.8731658   -6.8731658   -5.9352142   0.08356986   -6.8731658    0.9379516   520346 
 3892000    1.0137819   -6.8729425   -6.8729425   -5.9358081  0.063800818   -6.8729425   0.93713443   520346 
 3893000    1.0149538   -6.8747619   -6.8747619   -5.9365442  0.055822195   -6.8747619   0.93821771   520346 
 3894000    1.0143736   -6.8750159   -6.8750159   -5.9373345  0.058782693   -6.8750159   0.93768142   520346 
 3895000    1.0129941    -6.874821    -6.874821   -5.9384148  0.087542949    -6.874821   0.93640619   520346 
 3896000    1.0141945   -6.8757992   -6.8757992   -5.9382833  0.051964524   -6.8757992   0.93751587   520346 
 3897000    1.0172455    -6.878071    -6.878071   -5.9377348  0.047982668    -6.878071   0.94033622   520346 
 3898000    1.0149777   -6.8757907   -6.8757907   -5.9375509   0.07559046   -6.8757907   0.93823983   520346 
 3899000    1.0150686   -6.8756076   -6.8756076   -5.9372837  0.047253045   -6.8756076   0.93832384   520346 
 3900000     1.013917   -6.8740043   -6.8740043    -5.936745  0.045299454   -6.8740043   0.93725933   520346 
 3901000    1.0142374   -6.8742098   -6.8742098   -5.9366543  0.092689903   -6.8742098   0.93755553   520346 
 3902000    1.0154896   -6.8750651   -6.8750651    -5.936352  0.068286283   -6.8750651   0.93871307   520346 
 3903000    1.0138345   -6.8739732   -6.8739732   -5.9367901  0.034882787   -6.8739732   0.93718312   520346 
 3904000    1.0145318   -6.8745022   -6.8745022   -5.9366745   0.03667362   -6.8745022   0.93782764   520346 
 3905000    1.0140431   -6.8738429   -6.8738429    -5.936467  0.048291272   -6.8738429   0.93737589   520346 
 3906000    1.0133866   -6.8729182   -6.8729182   -5.9361492  0.072896779   -6.8729182   0.93676902   520346 
 3907000    1.0134455   -6.8728211   -6.8728211   -5.9359976  0.079745801   -6.8728211   0.93682348   520346 
 3908000    1.0155562   -6.8748696   -6.8748696    -5.936095  0.063241585   -6.8748696   0.93877462   520346 
 3909000    1.0160539   -6.8759533   -6.8759533   -5.9367186  0.068026493   -6.8759533   0.93923471   520346 
 3910000     1.012579   -6.8731529   -6.8731529   -5.9371304  0.049571082   -6.8731529   0.93602247   520346 
 3911000    1.0146272   -6.8753105   -6.8753105   -5.9373947  0.042192317   -6.8753105   0.93791583   520346 
 3912000    1.0175443   -6.8774113   -6.8774113   -5.9367989  0.062856426   -6.8774113   0.94061235   520346 
 3913000    1.0159088    -6.876652    -6.876652   -5.9375515  0.053760592    -6.876652   0.93910052   520346 
 3914000     1.014551   -6.8761568   -6.8761568   -5.9383114  0.087242771   -6.8761568    0.9378454   520346 
 3915000    1.0135316   -6.8761058   -6.8761058   -5.9392027  0.070271642   -6.8761058   0.93690309   520346 
 3916000    1.0132163   -6.8757884   -6.8757884   -5.9391767  0.040890765   -6.8757884   0.93661162   520346 
 3917000    1.0132983   -6.8752124   -6.8752124    -5.938525  0.050487367   -6.8752124   0.93668738   520346 
 3918000     1.013192   -6.8747678   -6.8747678   -5.9381786  0.062030348   -6.8747678   0.93658916   520346 
 3919000    1.0126235   -6.8742957   -6.8742957   -5.9382321  0.066601908   -6.8742957    0.9360636   520346 
 3920000    1.0157779   -6.8771933   -6.8771933   -5.9382138  0.041211613   -6.8771933    0.9389795   520346 
 3921000    1.0146224   -6.8758504   -6.8758504    -5.937939  0.074537611   -6.8758504   0.93791139   520346 
 3922000    1.0126478   -6.8741287   -6.8741287   -5.9380427  0.037045316   -6.8741287   0.93608606   520346 
 3923000    1.0136928   -6.8745542   -6.8745542   -5.9375022  0.042789288   -6.8745542   0.93705208   520346 
 3924000    1.0154484   -6.8758929   -6.8758929   -5.9372179  0.057974925   -6.8758929   0.93867499   520346 
 3925000    1.0144284   -6.8747576   -6.8747576   -5.9370256  0.037911875   -6.8747576   0.93773205   520346 
 3926000    1.0143586   -6.8748912   -6.8748912   -5.9372236  0.064755486   -6.8748912   0.93766756   520346 
 3927000    1.0129212   -6.8739559   -6.8739559    -5.937617  0.061078437   -6.8739559   0.93633886   520346 
 3928000     1.013843   -6.8747964   -6.8747964   -5.9376054  0.054729189   -6.8747964   0.93719094   520346 
 3929000    1.0170004   -6.8777071   -6.8777071   -5.9375975  0.062366381   -6.8777071   0.94010962   520346 
 3930000    1.0147775   -6.8756564   -6.8756564   -5.9376016  0.066562212   -6.8756564   0.93805479   520346 
 3931000    1.0147748   -6.8754582   -6.8754582   -5.9374059  0.049640458   -6.8754582   0.93805226   520346 
 3932000     1.014347   -6.8747484   -6.8747484   -5.9370916  0.068433154   -6.8747484   0.93765679   520346 
 3933000    1.0150607   -6.8761279   -6.8761279   -5.9378114  0.049141757   -6.8761279   0.93831653   520346 
 3934000    1.0162372   -6.8765151   -6.8765151    -5.937111  0.037241248   -6.8765151   0.93940415   520346 
 3935000    1.0131634   -6.8744368   -6.8744368    -5.937874  0.056231334   -6.8744368   0.93656273   520346 
 3936000    1.0136095    -6.874355    -6.874355   -5.9373799  0.054523177    -6.874355   0.93697508   520346 
 3937000    1.0147925   -6.8759522   -6.8759522   -5.9378836  0.066886092   -6.8759522   0.93806864   520346 
 3938000     1.013885   -6.8754047   -6.8754047   -5.9381749  0.065538486   -6.8754047    0.9372298   520346 
 3939000    1.0137213   -6.8755108   -6.8755108   -5.9384323  0.052759972   -6.8755108   0.93707844   520346 
 3940000    1.0146742   -6.8769769   -6.8769769   -5.9390176  0.056145671   -6.8769769   0.93795933   520346 
 3941000     1.014412   -6.8762906   -6.8762906   -5.9385737   0.06620889   -6.8762906   0.93771692   520346 
 3942000    1.0154974   -6.8775497   -6.8775497   -5.9388294  0.063752081   -6.8775497   0.93872029   520346 
 3943000    1.0137632   -6.8762026   -6.8762026   -5.9390854   0.07091907   -6.8762026   0.93711719   520346 
 3944000    1.0141898   -6.8764802   -6.8764802   -5.9389687  0.073171784   -6.8764802   0.93751152   520346 
 3945000    1.0139008   -6.8767805   -6.8767805   -5.9395361  0.077432732   -6.8767805   0.93724439   520346 
 3946000    1.0139814   -6.8766379   -6.8766379    -5.939319   0.02935294   -6.8766379    0.9373189   520346 
 3947000    1.0130171   -6.8766416   -6.8766416   -5.9402141  0.046340689   -6.8766416   0.93642749   520346 
 3948000    1.0162091   -6.8781234   -6.8781234   -5.9387452  0.050009333   -6.8781234   0.93937816   520346 
 3949000    1.0146814   -6.8764641   -6.8764641   -5.9384982  0.046686079   -6.8764641   0.93796594   520346 
 3950000    1.0147575   -6.8770321   -6.8770321   -5.9389957  0.054452945   -6.8770321   0.93803633   520346 
 3951000    1.0145321   -6.8766181   -6.8766181   -5.9387902  0.057528452   -6.8766181   0.93782791   520346 
 3952000    1.0129358   -6.8759871   -6.8759871   -5.9396349  0.071168699   -6.8759871   0.93635228   520346 
 3953000    1.0151688   -6.8781542   -6.8781542   -5.9397377  0.089602704   -6.8781542   0.93841653   520346 
 3954000    1.0163912    -6.878771    -6.878771   -5.9392245  0.061295084    -6.878771   0.93954644   520346 
 3955000    1.0164341   -6.8795264   -6.8795264   -5.9399402  0.043692898   -6.8795264   0.93958617   520346 
 3956000    1.0149397   -6.8786813   -6.8786813   -5.9404766  0.046749007   -6.8786813    0.9382047   520346 
 3957000    1.0155553   -6.8791868   -6.8791868   -5.9404131  0.034841622   -6.8791868   0.93877375   520346 
 3958000    1.0156166   -6.8789695   -6.8789695   -5.9401391  0.041897519   -6.8789695    0.9388304   520346 
 3959000    1.0150342   -6.8777767   -6.8777767   -5.9394847  0.068813524   -6.8777767   0.93829204   520346 
 3960000    1.0153091   -6.8780125   -6.8780125   -5.9394663  0.050186185   -6.8780125   0.93854617   520346 
 3961000    1.0151978   -6.8768574   -6.8768574   -5.9384141  0.062247386   -6.8768574   0.93844329   520346 
 3962000    1.0147953   -6.8761152   -6.8761152   -5.9380439  0.075544862   -6.8761152   0.93807127   520346 
 3963000    1.0171161    -6.878233    -6.878233   -5.9380164  0.063461456    -6.878233   0.94021653   520346 
 3964000    1.0149336   -6.8758597   -6.8758597   -5.9376606   0.05522047   -6.8758597   0.93819905   520346 
 3965000    1.0170924   -6.8782879   -6.8782879   -5.9380933  0.087611908   -6.8782879   0.94019462   520346 
 3966000    1.0155024   -6.8761867   -6.8761867   -5.9374619  0.052133844   -6.8761867   0.93872486   520346 
 3967000    1.0154662   -6.8760089   -6.8760089   -5.9373175  0.036677033   -6.8760089    0.9386914   520346 
 3968000    1.0151794     -6.87683     -6.87683   -5.9384037  0.030418428     -6.87683   0.93842626   520346 
 3969000      1.01558   -6.8770956   -6.8770956    -5.938299  0.043969303   -6.8770956   0.93879656   520346 
 3970000    1.0153808   -6.8760694   -6.8760694    -5.937457  0.065664715   -6.8760694   0.93861244   520346 
 3971000    1.0160442   -6.8769231   -6.8769231   -5.9376974  0.047748938   -6.8769231   0.93922575   520346 
 3972000    1.0144356   -6.8755843   -6.8755843   -5.9378456  0.037408248   -6.8755843   0.93773872   520346 
 3973000    1.0119543    -6.874037    -6.874037   -5.9385919   0.07554647    -6.874037   0.93544506   520346 
 3974000    1.0163333   -6.8782129   -6.8782129     -5.93872  0.038224755   -6.8782129   0.93949293   520346 
 3975000    1.0153096   -6.8777065   -6.8777065   -5.9391598  0.076029803   -6.8777065   0.93854669   520346 
 3976000    1.0136986   -6.8761741   -6.8761741   -5.9391167  0.067234753   -6.8761741   0.93705741   520346 
 3977000     1.014868   -6.8776855   -6.8776855   -5.9395471   0.05137048   -6.8776855   0.93813841   520346 
 3978000    1.0151881   -6.8765732   -6.8765732   -5.9381389  0.037946385   -6.8765732   0.93843433   520346 
 3979000    1.0156037   -6.8775504   -6.8775504   -5.9387318  0.039934161   -6.8775504   0.93881855   520346 
 3980000    1.0137709   -6.8763021   -6.8763021   -5.9391779    0.0482726   -6.8763021   0.93712427   520346 
 3981000     1.016876   -6.8788329   -6.8788329   -5.9388383  0.053134197   -6.8788329   0.93999464   520346 
 3982000    1.0161322   -6.8785208   -6.8785208   -5.9392137  0.044641247   -6.8785208   0.93930704   520346 
 3983000    1.0135826   -6.8765709   -6.8765709   -5.9396207  0.060560155   -6.8765709   0.93695021   520346 
 3984000    1.0149212     -6.87718     -6.87718   -5.9389924   0.06065968     -6.87718    0.9381876   520346 
 3985000    1.0148932   -6.8773248   -6.8773248   -5.9391631   0.04175327   -6.8773248   0.93816172   520346 
 3986000     1.015208   -6.8781495   -6.8781495   -5.9396967  0.064497796   -6.8781495   0.93845272   520346 
 3987000    1.0124073     -6.87509     -6.87509   -5.9392262  0.026983044     -6.87509   0.93586382   520346 
 3988000    1.0142795   -6.8766879   -6.8766879   -5.9390935  0.055617105   -6.8766879    0.9375944   520346 
 3989000    1.0159659   -6.8787604   -6.8787604   -5.9396071  0.070274626   -6.8787604   0.93915333   520346 
 3990000    1.0155413   -6.8793865   -6.8793865   -5.9406256  0.051246136   -6.8793865   0.93876087   520346 
 3991000    1.0141006   -6.8782035   -6.8782035   -5.9407744   0.08050721   -6.8782035    0.9374291   520346 
 3992000    1.0151724   -6.8793161   -6.8793161   -5.9408963  0.045689537   -6.8793161   0.93841979   520346 
 3993000    1.0151794   -6.8798693   -6.8798693   -5.9414431  0.059083634   -6.8798693   0.93842627   520346 
 3994000    1.0132961   -6.8773984   -6.8773984    -5.940713   0.04355169   -6.8773984   0.93668539   520346 
 3995000    1.0152212   -6.8786759   -6.8786759   -5.9402109  0.057560705   -6.8786759   0.93846493   520346 
 3996000    1.0125712   -6.8760359   -6.8760359   -5.9400206   0.08561175   -6.8760359   0.93601527   520346 
 3997000    1.0147895   -6.8795137   -6.8795137   -5.9414478   0.06319098   -6.8795137   0.93806589   520346 
 3998000    1.0145062   -6.8798043   -6.8798043   -5.9420003   0.05162067   -6.8798043   0.93780398   520346 
 3999000    1.0147354   -6.8800423   -6.8800423   -5.9420264  0.062681339   -6.8800423    0.9380159   520346 
 4000000    1.0128689   -6.8778798   -6.8778798   -5.9415893  0.060809211   -6.8778798   0.93629045   520346 
Loop time of 12374.7 on 288 procs for 4000000 steps with 520346 atoms

Performance: 139639.441 tau/day, 323.239 timesteps/s
98.6% CPU use with 288 MPI tasks x 1 OpenMP threads

MPI task timing breakdown:
Section |  min time  |  avg time  |  max time  |%varavg|  %CPU | %total
-----------------------------------------------------------------------
Pair    | 411.22     | 2248.5     | 3361.1     |1263.3 |  98.7 | 18.17
Bond    | 2.6539     | 2.8082     | 2.9862     |   4.0 | 100.0 |  0.02
Neigh   | 705.88     | 3431.7     | 5202.3     |1586.9 |  99.6 | 27.73
Comm    | 2238.1     | 4494.6     | 9367.6     |2262.9 |  98.3 | 36.32
Output  | 190.67     | 199.22     | 210.34     |  44.4 |  97.1 |  1.61
Modify  | 924.94     | 1891.8     | 3500.2     |1090.7 |  98.5 | 15.29
Other   |            | 106.2      |            |       |       |  0.86

Nlocal:        1806.76 ave        3419 max         387 min
Histogram: 3 5 11 28 176 34 27 1 0 3
Nghost:        7408.85 ave       10216 max        1892 min
Histogram: 3 2 8 18 33 24 34 102 58 6
Neighs:        60180.6 ave       91597 max        4399 min
Histogram: 10 10 5 7 15 28 85 93 26 9

Total # of neighbors = 17332019
Ave neighs/atom = 33.308643
Ave special neighs/atom = 0.0000000
Neighbor list builds = 400000
Dangerous builds = 396000

Total wall time: 3:26:19
