LAMMPS (24 Dec 2020)
OMP_NUM_THREADS environment is not set. Defaulting to 1 thread. (src/comm.cpp:94)
  using 1 OpenMP thread(s) per MPI task
#Read the equilibrated lj fluid and add nanocubes

units           lj
atom_style      full
atom_modify     map array first cubes
dimension       3
boundary        p p f
pair_style      lj/cut/opt 2.5

variable        sigma           equal 1.0
variable        epsilon         equal 1.0
read_restart	restart.dat.3000000
Reading restart file ...
  restart file = 24 Dec 2020, LAMMPS = 24 Dec 2020
WARNING: Restart file used different # of processors: 48 vs. 288 (src/read_restart.cpp:697)
  restoring atom style full from restart
  orthogonal box = (0.0000000 0.0000000 0.0000000) to (80.000000 80.000000 160.00000)
  6 by 4 by 12 MPI processor grid
  restoring pair style lj/cut/opt from restart
  518400 atoms
Finding 1-2 1-3 1-4 neighbors ...
  special bond factors lj:    0        0        0       
  special bond factors coul:  0        0        0       
     0 = max # of 1-2 neighbors
     0 = max # of 1-3 neighbors
     0 = max # of 1-4 neighbors
     1 = max # of special neighbors
  special bonds CPU = 2.390 seconds
  read_restart CPU = 2.723 seconds

group		solvent type 1
518400 atoms in group solvent

read_data	data_125.cubes group cubes add append
Reading data file ...
  orthogonal box = (0.0000000 0.0000000 0.0000000) to (80.000000 80.000000 160.00000)
  6 by 4 by 12 MPI processor grid
  reading atoms ...
  142875 atoms
  reading velocities ...
  142875 velocities
Finding 1-2 1-3 1-4 neighbors ...
  special bond factors lj:    0        0        0       
  special bond factors coul:  0        0        0       
     0 = max # of 1-2 neighbors
     0 = max # of 1-3 neighbors
     0 = max # of 1-4 neighbors
     1 = max # of special neighbors
  special bonds CPU = 0.060 seconds
  read_data CPU = 0.439 seconds

group 		hull  type 2
55750 atoms in group hull
group 		dummy type 3
87125 atoms in group dummy

neighbor      0.4 bin
neigh_modify  exclude molecule/intra cubes


pair_modify   shift yes

pair_coeff    1 1 1.0 1.0 #solvent
pair_coeff    2 2 1.0 1.0 1.12 #np
pair_coeff    3 3 0.0 0.0 0.0 #dummy
pair_coeff    2 3 0.0 0.0 0.0 #np dummy
pair_coeff    1 2 ${eps} ${sig} ${nscut} #np solvent
pair_coeff    1 2 2.0 ${sig} ${nscut} 
pair_coeff    1 2 2.0 2.0 ${nscut} 
pair_coeff    1 2 2.0 2.0 4.0 
pair_coeff    1 3 0.0 0.0 2.5 #dummy solvent

# delete solvent where the cubes are
delete_atoms  overlap 2.0 solvent cubes
System init for delete_atoms ...
Neighbor list info ...
  update every 1 steps, delay 10 steps, check yes
  max neighbors/atom: 2000, page size: 100000
  master list distance cutoff = 4.4
  ghost atom cutoff = 4.4
  binsize = 2.2, bins = 37 37 73
  2 neighbor lists, perpetual/occasional/extra = 1 1 0
  (1) command delete_atoms, occasional
      attributes: full, newton on
      pair build: full/bin
      stencil: full/bin/3d
      bin: standard
  (2) pair lj/cut/opt, perpetual
      attributes: half, newton on
      pair build: half/bin/newton
      stencil: half/bin/3d/newton
      bin: standard
WARNING: Delete_atoms cutoff > minimum neighbor cutoff (src/delete_atoms.cpp:307)
WARNING: Ignoring 'compress yes' for molecular system (src/delete_atoms.cpp:125)
Deleted 140737 atoms, new total = 520538



pair_coeff    1 1 1.0 1.0 #solvent
pair_coeff    2 2 1.0 1.0 1.12 #np
pair_coeff    3 3 0.0 0.0 0.0 #dummy
pair_coeff    2 3 0.0 0.0 0.0 #np dummy
pair_coeff    1 2 ${eps} ${sig} ${nscut} #np solvent
pair_coeff    1 2 2.0 ${sig} ${nscut} 
pair_coeff    1 2 2.0 2.0 ${nscut} 
pair_coeff    1 2 2.0 2.0 4.0 
pair_coeff    1 3 0.0 0.0 0.0 #dummy solvent


comm_modify   mode multi cutoff/multi 1 2.5 cutoff/multi 2 2.5 cutoff/multi 3 6.95

reset_timestep 	0

balance 	1.05 shift z 10 1.05
Balancing ...
Neighbor list info ...
  update every 1 steps, delay 10 steps, check yes
  max neighbors/atom: 2000, page size: 100000
  master list distance cutoff = 4.4
  ghost atom cutoff = 6.95
  binsize = 2.2, bins = 37 37 73
  1 neighbor lists, perpetual/occasional/extra = 1 0 0
  (1) pair lj/cut/opt, perpetual
      attributes: half, newton on
      pair build: half/bin/newton
      stencil: half/bin/3d/newton
      bin: standard
 rebalancing time: 0.003 seconds
  iteration count = 4
  initial/final maximal load/proc = 2180.0000 2306.0000
  initial/final imbalance factor  = 1.2061367 1.2758492
  x cuts: 0.0000000 0.16666667 0.33333333 0.50000000 0.66666667 0.83333333 1.0000000
  y cuts: 0.0000000 0.25000000 0.50000000 0.75000000 1.0000000
  z cuts: 0.0000000 0.078125000 0.16145833 0.25520833 0.34895833 0.42187500 0.49479167 0.57812500 0.65104167 0.72395833 0.78645833 0.85937500 1.0000000

####################### WALLS ###########################

variable       epsilonWall equal 2*${epsilon}
variable       epsilonWall equal 2*1
variable       repulsive   equal   0.7147*${sigma}
variable       repulsive   equal   0.7147*1
variable       full	   equal   3*${sigma}
variable       full	   equal   3*1
region         lowWall block EDGE EDGE EDGE EDGE EDGE 2

fix            topWall all wall/lj93 zhi EDGE 	       ${epsilonWall} ${sigma} ${repulsive} units box
fix            topWall all wall/lj93 zhi EDGE 	       2 ${sigma} ${repulsive} units box
fix            topWall all wall/lj93 zhi EDGE 	       2 1 ${repulsive} units box
fix            topWall all wall/lj93 zhi EDGE 	       2 1 0.7147 units box
fix            lowSol solvent wall/lj93 zlo EDGE                ${epsilonWall} ${sigma} ${full} units box
fix            lowSol solvent wall/lj93 zlo EDGE                2 ${sigma} ${full} units box
fix            lowSol solvent wall/lj93 zlo EDGE                2 1 ${full} units box
fix            lowSol solvent wall/lj93 zlo EDGE                2 1 3 units box
fix 	       lowCub cubes wall/lj93 zlo EDGE                ${epsilonWall} ${sigma} ${repulsive} units box
fix 	       lowCub cubes wall/lj93 zlo EDGE                2 ${sigma} ${repulsive} units box
fix 	       lowCub cubes wall/lj93 zlo EDGE                2 1 ${repulsive} units box
fix 	       lowCub cubes wall/lj93 zlo EDGE                2 1 0.7147 units box


###################### COMPUTES ##########################

compute        bin1 solvent chunk/atom bin/1d z lower 1.0 units box


######################  FIXES ############################


fix             peclet solvent ave/chunk 10 10 10000 bin1 density/number norm                  none ave one file density.profile

fix              temp solvent ave/chunk 10 10 10000 bin1 temp norm                  none ave one file temp.profile

fix             1 cubes rigid/nve/small molecule
  create bodies CPU = 0.001 seconds
  125 rigid bodies with 142875 atoms
  6.9282032 = max distance from body owner to body atom

fix             2 solvent nve# temp ${temp} ${temp} 10


## Thermostat
region          regthermo block EDGE EDGE EDGE EDGE 0 15
group           thermo dynamic solvent region regthermo every 1000
dynamic group thermo defined
fix             3 thermo langevin ${temp} ${temp} 10 156453
fix             3 thermo langevin 1.0 ${temp} 10 156453
fix             3 thermo langevin 1.0 1.0 10 156453


#### Load balancing

fix             bal all balance 1000 1.05 shift z 10 1.05

############### Diagnostics and computes ###################

compute        	com cubes          rigid/local   1 mol x y z
compute        	quat cubes         rigid/local   1 mol quatw quati quatj quatk

compute 	cc2 cubes 	   chunk/atom 	 molecule
compute 	msd cubes 	   msd/chunk 	 cc2

fix 		msd all ave/time  1 1 10000 c_msd[*] file dump.msd ave one mode vector

dump            1 all custom 500000 dump.lammpstrj id mol type x y z
dump		cubetrj hull custom 500000 cubes.lammpstrj id mol type x y z
dump            com cubes local 10000 dump.*.xyz c_com[*]
dump	        xyz hull xyz 100000 cubes.xyz
dump            quat cubes      local 10000 dump.*.quat c_quat[*]
#dump		mol cubes molfile 10000 mol.xyz xyz


dump            2 all image 10000 image.*.png type type
dump_modify     2 pad 8
dump		image cubes image 10000 image_cubes.*.png type type
dump_modify	image pad 8
dump            3 all movie 5000 movie.avi type type
dump		4 cubes movie 5000 movie_cubes.avi type type


thermo          1000
thermo_style    custom step temp epair evdwl etotal press pe ke atoms

restart         1000000 restart.dat
timestep        0.005
timer           full
New timer settings: style=full  mode=nosync  timeout=off

run 		4000000
Per MPI rank memory allocation (min/avg/max) = 15.67 | 20.16 | 23.61 Mbytes
Step Temp E_pair E_vdwl TotEng Press PotEng KinEng Atoms 
       0   0.99285609   -3.2689281   -3.2689281   -2.1877038   -2.2319201   -3.2689281    1.0812243   520538 
    1000    1.7372326   -4.1386141   -4.1386141   -2.2467607   0.53751498   -4.1386141    1.8918534   520538 
    2000    1.8112794   -4.2802818   -4.2802818   -2.3077911   0.57691634   -4.2802818    1.9724907   520538 
    3000    1.8290228   -4.3545978   -4.3545978   -2.3627846   0.60238587   -4.3545978    1.9918132   520538 
    4000    1.8099849   -4.3895397   -4.3895397   -2.4184588   0.59910135   -4.3895397    1.9710809   520538 
    5000    1.7723331   -4.4037549   -4.4037549    -2.473677   0.51693222   -4.4037549    1.9300779   520538 
    6000     1.751624   -4.4281674   -4.4281674   -2.5206417   0.47943349   -4.4281674    1.9075257   520538 
    7000    1.7581489   -4.4749508   -4.4749508   -2.5603195   0.51787542   -4.4749508    1.9146313   520538 
    8000     1.779166   -4.5316081   -4.5316081   -2.5940891   0.61668558   -4.5316081     1.937519   520538 
    9000    1.7885289   -4.5705487   -4.5705487   -2.6228335   0.67204008   -4.5705487    1.9477152   520538 
   10000    1.7838069   -4.5908505   -4.5908505   -2.6482776   0.68389547   -4.5908505     1.942573   520538 
   11000    1.7713412   -4.6002792   -4.6002792   -2.6712815   0.63645466   -4.6002792    1.9289978   520538 
   12000     1.756459    -4.605195    -4.605195    -2.692404   0.62658692    -4.605195     1.912791   520538 
   13000    1.7426937    -4.607699    -4.607699   -2.7098984   0.59255268    -4.607699    1.8978006   520538 
   14000    1.7295128   -4.6097547   -4.6097547   -2.7263082   0.55450278   -4.6097547    1.8834464   520538 
   15000    1.7205255   -4.6148551   -4.6148551   -2.7411958      0.59232   -4.6148551    1.8736593   520538 
   16000    1.7098063   -4.6174748   -4.6174748   -2.7554888   0.53025182   -4.6174748     1.861986   520538 
   17000      1.70216   -4.6234159   -4.6234159   -2.7697567   0.55029113   -4.6234159    1.8536592   520538 
   18000    1.6887543   -4.6238728   -4.6238728   -2.7848125    0.5188265   -4.6238728    1.8390603   520538 
   19000    1.6809725   -4.6314719   -4.6314719    -2.800886   0.54689075   -4.6314719    1.8305859   520538 
   20000    1.6724349   -4.6393669   -4.6393669   -2.8180785   0.53823133   -4.6393669    1.8212884   520538 
   21000    1.6571596   -4.6411862   -4.6411862   -2.8365327   0.49529485   -4.6411862    1.8046535   520538 
   22000     1.651951   -4.6533219   -4.6533219   -2.8543406   0.50512478   -4.6533219    1.7989813   520538 
   23000    1.6433204   -4.6623173   -4.6623173   -2.8727347   0.51140802   -4.6623173    1.7895826   520538 
   24000    1.6344892   -4.6689207   -4.6689207   -2.8889553   0.48028634   -4.6689207    1.7799654   520538 
   25000    1.6269884   -4.6766416   -4.6766416   -2.9048446   0.44737088   -4.6766416     1.771797   520538 
   26000    1.6204585   -4.6855288   -4.6855288    -2.920843   0.47367188   -4.6855288    1.7646859   520538 
   27000    1.6200321   -4.7002852   -4.7002852   -2.9360637   0.48543501   -4.7002852    1.7642216   520538 
   28000    1.6173629   -4.7107131   -4.7107131   -2.9493984   0.48644044   -4.7107131    1.7613147   520538 
   29000    1.6148444     -4.71998     -4.71998   -2.9614078   0.49286917     -4.71998    1.7585721   520538 
   30000    1.6147807   -4.7317476   -4.7317476   -2.9732448   0.49306162   -4.7317476    1.7585028   520538 
   31000    1.6160513   -4.7455095   -4.7455095   -2.9856231   0.47251738   -4.7455095    1.7598864   520538 
   32000    1.6135483    -4.754094    -4.754094   -2.9969334   0.46255178    -4.754094    1.7571607   520538 
   33000    1.6127393   -4.7644835   -4.7644835   -3.0082039   0.47435126   -4.7644835    1.7562797   520538 
   34000    1.6072406   -4.7679244   -4.7679244   -3.0176329   0.51045446   -4.7679244    1.7502915   520538 
   35000    1.6051167   -4.7759786   -4.7759786       -3.028   0.47978234   -4.7759786    1.7479786   520538 
   36000    1.5957344   -4.7753889   -4.7753889   -3.0376276   0.46930967   -4.7753889    1.7377613   520538 
   37000    1.5911763   -4.7787662   -4.7787662   -3.0459687   0.45161575   -4.7787662    1.7327975   520538 
   38000    1.5818028    -4.778155    -4.778155   -3.0555653   0.47659426    -4.778155    1.7225897   520538 
   39000    1.5764085   -4.7812921   -4.7812921   -3.0645768   0.45064646   -4.7812921    1.7167152   520538 
   40000    1.5710014   -4.7846508   -4.7846508   -3.0738239   0.44587756   -4.7846508    1.7108269   520538 
   41000    1.5685879   -4.7913516   -4.7913516   -3.0831531   0.41700516   -4.7913516    1.7081986   520538 
   42000    1.5602054   -4.7909709   -4.7909709   -3.0919008     0.440744   -4.7909709      1.69907   520538 
   43000     1.555694   -4.7955953   -4.7955953   -3.1014382   0.43494569   -4.7955953    1.6941571   520538 
   44000    1.5515722   -4.8019066   -4.8019066   -3.1122381   0.45281949   -4.8019066    1.6896685   520538 
   45000    1.5509471   -4.8104181   -4.8104181   -3.1214304   0.47369796   -4.8104181    1.6889877   520538 
   46000    1.5447708   -4.8133708   -4.8133708   -3.1311091   0.42786051   -4.8133708    1.6822617   520538 
   47000    1.5410147   -4.8188384   -4.8188384   -3.1406671   0.43598048   -4.8188384    1.6781713   520538 
   48000    1.5416116   -4.8278774   -4.8278774   -3.1490561   0.41877558   -4.8278774    1.6788214   520538 
   49000     1.535702   -4.8313504   -4.8313504   -3.1589646   0.43289647   -4.8313504    1.6723857   520538 
   50000    1.5301748   -4.8336687   -4.8336687   -3.1673022   0.41420106   -4.8336687    1.6663666   520538 
   51000    1.5333238   -4.8465556   -4.8465556   -3.1767597   0.43008483   -4.8465556    1.6697959   520538 
   52000    1.5271205   -4.8486852   -4.8486852   -3.1856448   0.38796604   -4.8486852    1.6630404   520538 
   53000    1.5244485   -4.8538818   -4.8538818   -3.1937511   0.38569067   -4.8538818    1.6601306   520538 
   54000    1.5240008    -4.860313    -4.860313   -3.2006699   0.42550091    -4.860313    1.6596431   520538 
   55000    1.5223116   -4.8660024   -4.8660024   -3.2081989   0.39669131   -4.8660024    1.6578035   520538 
   56000    1.5179333   -4.8694243   -4.8694243   -3.2163887    0.4222849   -4.8694243    1.6530356   520538 
   57000     1.513205   -4.8712777   -4.8712777   -3.2233914   0.41754251   -4.8712777    1.6478864   520538 
   58000    1.5103403   -4.8755938   -4.8755938    -3.230827    0.4115872   -4.8755938    1.6447667   520538 
   59000    1.5072851   -4.8786302   -4.8786302   -3.2371905   0.38558516   -4.8786302    1.6414397   520538 
   60000    1.5023469   -4.8793057   -4.8793057   -3.2432439   0.39618672   -4.8793057    1.6360619   520538 
   61000    1.4970053   -4.8808078   -4.8808078    -3.250563   0.39184296   -4.8808078    1.6302448   520538 
   62000    1.4963579   -4.8867388   -4.8867388   -3.2571989   0.39834122   -4.8867388    1.6295399   520538 
   63000    1.4959191   -4.8930181   -4.8930181   -3.2639561   0.41019486   -4.8930181     1.629062   520538 
   64000    1.4891194   -4.8940284   -4.8940284   -3.2723714   0.39683982   -4.8940284     1.621657   520538 
   65000    1.4876876   -4.8988509   -4.8988509   -3.2787531   0.39469741   -4.8988509    1.6200978   520538 
   66000    1.4854493   -4.9033699   -4.9033699   -3.2857096   0.36449954   -4.9033699    1.6176603   520538 
   67000    1.4822633   -4.9064534   -4.9064534   -3.2922626    0.3917523   -4.9064534    1.6141908   520538 
   68000    1.4812555   -4.9128928   -4.9128928   -3.2997995   0.40096843   -4.9128928    1.6130933   520538 
   69000    1.4774841    -4.915558    -4.915558   -3.3065718   0.38906263    -4.915558    1.6089862   520538 
   70000    1.4754859   -4.9198911   -4.9198911   -3.3130809   0.38548784   -4.9198911    1.6068102   520538 
   71000    1.4740741   -4.9243716   -4.9243716   -3.3190989   0.35499766   -4.9243716    1.6052727   520538 
   72000    1.4702425   -4.9259485   -4.9259485   -3.3248484    0.3745818   -4.9259485    1.6011001   520538 
   73000    1.4655448   -4.9268449   -4.9268449   -3.3308607   0.38412277   -4.9268449    1.5959842   520538 
   74000    1.4662584   -4.9327669   -4.9327669   -3.3360055   0.32667259   -4.9327669    1.5967614   520538 
   75000    1.4640141   -4.9365162   -4.9365162   -3.3421989   0.36881251   -4.9365162    1.5943173   520538 
   76000    1.4625059   -4.9413235   -4.9413235   -3.3486486   0.35976656   -4.9413235    1.5926749   520538 
   77000    1.4581616   -4.9429608   -4.9429608   -3.3550169   0.37423524   -4.9429608    1.5879439   520538 
   78000    1.4575428   -4.9483394   -4.9483394   -3.3610693   0.37104129   -4.9483394    1.5872701   520538 
   79000    1.4534508   -4.9499872   -4.9499872   -3.3671734   0.36366033   -4.9499872    1.5828138   520538 
   80000    1.4503832   -4.9518793   -4.9518793   -3.3724061   0.35596407   -4.9518793    1.5794732   520538 
   81000    1.4485893   -4.9559165   -4.9559165   -3.3783969   0.35917092   -4.9559165    1.5775196   520538 
   82000    1.4449922   -4.9566786   -4.9566786   -3.3830761   0.35491011   -4.9566786    1.5736024   520538 
   83000    1.4428894   -4.9588552   -4.9588552   -3.3875428   0.35537441   -4.9588552    1.5713124   520538 
   84000    1.4410151   -4.9627193   -4.9627193   -3.3934481   0.34554377   -4.9627193    1.5692713   520538 
   85000    1.4395714   -4.9676854   -4.9676854   -3.3999863    0.3497612   -4.9676854    1.5676991   520538 
   86000    1.4373947   -4.9706981   -4.9706981   -3.4053694   0.33716974   -4.9706981    1.5653287   520538 
   87000    1.4342437   -4.9727362   -4.9727362    -3.410839   0.34619529   -4.9727362    1.5618972   520538 
   88000    1.4325433    -4.975644    -4.975644   -3.4155986   0.34199068    -4.975644    1.5600455   520538 
   89000    1.4342047   -4.9816059   -4.9816059   -3.4197512   0.34497908   -4.9816059    1.5618547   520538 
   90000    1.4279866   -4.9800705   -4.9800705   -3.4249873   0.33722236   -4.9800705    1.5550832   520538 
   91000    1.4277742   -4.9845971   -4.9845971   -3.4297453   0.34365006   -4.9845971    1.5548519   520538 
   92000      1.42579   -4.9875396   -4.9875396   -3.4348485   0.35829631   -4.9875396    1.5526912   520538 
   93000    1.4228332   -4.9890003   -4.9890003   -3.4395292   0.32065709   -4.9890003    1.5494711   520538 
   94000    1.4219792   -4.9930614   -4.9930614   -3.4445202   0.33193841   -4.9930614    1.5485412   520538 
   95000    1.4199841   -4.9959302   -4.9959302   -3.4495618   0.31968219   -4.9959302    1.5463684   520538 
   96000    1.4165442   -4.9972083   -4.9972083    -3.454586   0.33912432   -4.9972083    1.5426224   520538 
   97000     1.417453   -5.0035405   -5.0035405   -3.4599284   0.31344453   -5.0035405    1.5436121   520538 
   98000    1.4149702   -5.0057491   -5.0057491   -3.4648408   0.34997313   -5.0057491    1.5409084   520538 
   99000    1.4120699   -5.0071855   -5.0071855   -3.4694356   0.31733695   -5.0071855    1.5377499   520538 
  100000    1.4118533   -5.0113318   -5.0113318   -3.4738178   0.30248935   -5.0113318     1.537514   520538 
  101000    1.4090474   -5.0124002   -5.0124002   -3.4779418   0.33931345   -5.0124002    1.5344583   520538 
  102000     1.404539   -5.0119889   -5.0119889   -3.4824402   0.28736162   -5.0119889    1.5295487   520538 
  103000    1.4048423   -5.0167185   -5.0167185   -3.4868394   0.30201824   -5.0167185     1.529879   520538 
  104000     1.402566   -5.0190212   -5.0190212   -3.4916211   0.33135084   -5.0190212    1.5274001   520538 
  105000    1.3990666   -5.0188989   -5.0188989   -3.4953097     0.311531   -5.0188989    1.5235892   520538 
  106000    1.4004379   -5.0251265   -5.0251265   -3.5000439   0.31489945   -5.0251265    1.5250825   520538 
  107000    1.3972157   -5.0266682   -5.0266682   -3.5050947    0.3242557   -5.0266682    1.5215735   520538 
  108000    1.3989663   -5.0326534   -5.0326534   -3.5091734   0.31992526   -5.0326534      1.52348   520538 
  109000    1.3952948   -5.0325345   -5.0325345   -3.5130528   0.33168009   -5.0325345    1.5194817   520538 
  110000    1.3924463   -5.0342534   -5.0342534   -3.5178736   0.32878959   -5.0342534    1.5163797   520538 
  111000    1.3931793   -5.0390641   -5.0390641   -3.5218861   0.29339567   -5.0390641    1.5171779   520538 
  112000    1.3898552   -5.0392471   -5.0392471   -3.5256892   0.32009596   -5.0392471    1.5135579   520538 
  113000    1.3891856    -5.042676    -5.042676   -3.5298473   0.30857054    -5.042676    1.5128288   520538 
  114000    1.3878382   -5.0450554   -5.0450554    -3.533694   0.31413307   -5.0450554    1.5113614   520538 
  115000    1.3856073    -5.045746    -5.045746    -3.536814   0.29775795    -5.045746    1.5089319   520538 
  116000    1.3845225   -5.0482165   -5.0482165   -3.5404659   0.31588715   -5.0482165    1.5077507   520538 
  117000    1.3837098   -5.0511686   -5.0511686    -3.544303   0.32034114   -5.0511686    1.5068656   520538 
  118000    1.3808537   -5.0515557   -5.0515557   -3.5478004   0.30789615   -5.0515557    1.5037553   520538 
  119000    1.3800624   -5.0542918   -5.0542918   -3.5513983    0.3034558   -5.0542918    1.5028936   520538 
  120000    1.3763509   -5.0547187   -5.0547187   -3.5558669   0.31175698   -5.0547187    1.4988518   520538 
  121000    1.3763682   -5.0595705   -5.0595705   -3.5606999   0.29376193   -5.0595705    1.4988706   520538 
  122000    1.3733483   -5.0606874   -5.0606874   -3.5651056   0.30140436   -5.0606874    1.4955818   520538 
  123000    1.3729783   -5.0646163   -5.0646163   -3.5694373   0.31875365   -5.0646163    1.4951789   520538 
  124000    1.3731258   -5.0683996   -5.0683996   -3.5730601   0.30338098   -5.0683996    1.4953396   520538 
  125000    1.3695991   -5.0678187   -5.0678187   -3.5763197    0.2847167   -5.0678187     1.491499   520538 
  126000    1.3675472   -5.0688492   -5.0688492   -3.5795847   0.30340807   -5.0688492    1.4892645   520538 
  127000     1.367246   -5.0723565   -5.0723565   -3.5834201   0.28647054   -5.0723565    1.4889364   520538 
  128000    1.3656279   -5.0743723   -5.0743723   -3.5871979   0.28700394   -5.0743723    1.4871744   520538 
  129000    1.3622181   -5.0742786   -5.0742786   -3.5908176   0.30783314   -5.0742786     1.483461   520538 
  130000    1.3599147   -5.0760693   -5.0760693   -3.5951167   0.31275493   -5.0760693    1.4809526   520538 
  131000    1.3595034   -5.0797134   -5.0797134   -3.5992087   0.29106934   -5.0797134    1.4805047   520538 
  132000    1.3567102   -5.0802569   -5.0802569    -3.602794   0.29441227   -5.0802569    1.4774629   520538 
  133000    1.3548492    -5.081431    -5.081431   -3.6059947   0.28514325    -5.081431    1.4754363   520538 
  134000    1.3519213    -5.082496    -5.082496   -3.6102483   0.28319206    -5.082496    1.4722478   520538 
  135000    1.3527522   -5.0874866   -5.0874866   -3.6143339   0.28441591   -5.0874866    1.4731527   520538 
  136000    1.3506431   -5.0874724   -5.0874724   -3.6166166   0.30337733   -5.0874724    1.4708558   520538 
  137000    1.3491549    -5.089806    -5.089806   -3.6205709   0.27783676    -5.089806    1.4692351   520538 
  138000     1.348762   -5.0930984   -5.0930984   -3.6242911   0.28220085   -5.0930984    1.4688073   520538 
  139000    1.3481311   -5.0973639   -5.0973639   -3.6292436   0.28905213   -5.0973639    1.4681203   520538 
  140000    1.3442068   -5.0965966   -5.0965966   -3.6327499   0.27575035   -5.0965966    1.4638467   520538 
  141000    1.3455496   -5.1005971   -5.1005971   -3.6352881   0.28083502   -5.1005971     1.465309   520538 
  142000    1.3422312   -5.1021923   -5.1021923   -3.6404971   0.29354775   -5.1021923    1.4616952   520538 
  143000    1.3408157   -5.1046418   -5.1046418    -3.644488   0.27214195   -5.1046418    1.4601537   520538 
  144000    1.3403217   -5.1073241   -5.1073241   -3.6477082   0.28282935   -5.1073241    1.4596158   520538 
  145000    1.3370223   -5.1072814   -5.1072814   -3.6512587   0.29411005   -5.1072814    1.4560227   520538 
  146000    1.3378249   -5.1112219   -5.1112219   -3.6543251   0.28013168   -5.1112219    1.4568968   520538 
  147000    1.3368238   -5.1126282   -5.1126282   -3.6568216   0.28252106   -5.1126282    1.4558066   520538 
  148000    1.3362505   -5.1148267   -5.1148267   -3.6596445   0.24866358   -5.1148267    1.4551822   520538 
  149000    1.3348122   -5.1157307   -5.1157307   -3.6621148   0.28224187   -5.1157307    1.4536159   520538 
  150000    1.3319422   -5.1166704   -5.1166704     -3.66618   0.24836852   -5.1166704    1.4504904   520538 
  151000    1.3304031   -5.1180206   -5.1180206   -3.6692062   0.23178754   -5.1180206    1.4488144   520538 
  152000    1.3280658   -5.1182246   -5.1182246   -3.6719555      0.25559   -5.1182246    1.4462691   520538 
  153000    1.3295981   -5.1238019   -5.1238019   -3.6758641   0.25485662   -5.1238019    1.4479378   520538 
  154000    1.3270565   -5.1243213   -5.1243213   -3.6791514   0.24963634   -5.1243213    1.4451699   520538 
  155000    1.3276707   -5.1279975   -5.1279975   -3.6821587   0.22937117   -5.1279975    1.4458388   520538 
  156000    1.3215889   -5.1253807   -5.1253807    -3.686165   0.28485022   -5.1253807    1.4392157   520538 
  157000    1.3248238   -5.1312246   -5.1312246   -3.6884862   0.25120837   -5.1312246    1.4427385   520538 
  158000    1.3240618   -5.1332829   -5.1332829   -3.6913742    0.2508801   -5.1332829    1.4419087   520538 
  159000    1.3191559   -5.1310188   -5.1310188   -3.6944527   0.23154725   -5.1310188    1.4365661   520538 
  160000    1.3210742   -5.1369312   -5.1369312    -3.698276   0.26064469   -5.1369312    1.4386551   520538 
  161000    1.3201422   -5.1393989   -5.1393989   -3.7017587   0.25869123   -5.1393989    1.4376402   520538 
  162000    1.3176341    -5.140578    -5.140578   -3.7056691   0.24594165    -5.140578    1.4349089   520538 
  163000    1.3153521   -5.1420812   -5.1420812   -3.7096574   0.25511483   -5.1420812    1.4324238   520538 
  164000     1.313305   -5.1429672   -5.1429672   -3.7127727   0.26089653   -5.1429672    1.4301944   520538 
  165000    1.3116196   -5.1434526   -5.1434526   -3.7150935   0.24313204   -5.1434526    1.4283591   520538 
  166000     1.311354   -5.1455029   -5.1455029    -3.717433   0.25086426   -5.1455029    1.4280699   520538 
  167000       1.3079   -5.1448923   -5.1448923   -3.7205839   0.23502083   -5.1448923    1.4243084   520538 
  168000    1.3082783   -5.1485113   -5.1485113   -3.7237909   0.24914122   -5.1485113    1.4247204   520538 
  169000     1.308995    -5.151764    -5.151764   -3.7262631   0.26776916    -5.151764    1.4255008   520538 
  170000    1.3061193   -5.1516928   -5.1516928   -3.7293236   0.26674917   -5.1516928    1.4223692   520538 
  171000    1.3081761   -5.1558212   -5.1558212   -3.7312121   0.24426748   -5.1558212    1.4246091   520538 
  172000    1.3073258   -5.1571487   -5.1571487   -3.7334656    0.2441981   -5.1571487    1.4236831   520538 
  173000    1.3040837   -5.1560395   -5.1560395   -3.7358871   0.25874148   -5.1560395    1.4201525   520538 
  174000    1.3039256   -5.1586839   -5.1586839   -3.7387036   0.24793926   -5.1586839    1.4199803   520538 
  175000    1.3020753   -5.1596218   -5.1596218   -3.7416566   0.26074901   -5.1596218    1.4179653   520538 
  176000    1.2997668    -5.159903    -5.159903   -3.7444517   0.24972451    -5.159903    1.4154513   520538 
  177000     1.299984   -5.1640804   -5.1640804   -3.7483926   0.25213513   -5.1640804    1.4156878   520538 
  178000    1.2996085   -5.1650851   -5.1650851   -3.7498062   0.25220031   -5.1650851     1.415279   520538 
  179000    1.2975602    -5.165643    -5.165643   -3.7525946   0.20683019    -5.165643    1.4130484   520538 
  180000     1.299085   -5.1701443   -5.1701443   -3.7554354   0.25531646   -5.1701443    1.4147089   520538 
  181000    1.2981084   -5.1728699   -5.1728699   -3.7592246   0.24547549   -5.1728699    1.4136453   520538 
  182000    1.2951983   -5.1722963   -5.1722963   -3.7618202    0.2462547   -5.1722963    1.4104762   520538 
  183000     1.293368   -5.1728916   -5.1728916   -3.7644086   0.25317444   -5.1728916     1.408483   520538 
  184000    1.2962748    -5.179428    -5.179428   -3.7677794   0.26340691    -5.179428    1.4116486   520538 
  185000    1.2924014   -5.1772645   -5.1772645   -3.7698341   0.25203206   -5.1772645    1.4074304   520538 
  186000    1.2913343   -5.1785251   -5.1785251   -3.7722568   0.24890878   -5.1785251    1.4062683   520538 
  187000    1.2938403   -5.1827976   -5.1827976   -3.7738003   0.24769459   -5.1827976    1.4089973   520538 
  188000    1.2895319    -5.180783    -5.180783   -3.7764776    0.2563793    -5.180783    1.4043055   520538 
  189000    1.2870208    -5.181013    -5.181013   -3.7794421   0.22527237    -5.181013    1.4015709   520538 
  190000    1.2872965   -5.1845156   -5.1845156   -3.7826445   0.22789914   -5.1845156    1.4018712   520538 
  191000    1.2890202   -5.1883915   -5.1883915   -3.7846432   0.25805977   -5.1883915    1.4037483   520538 
  192000    1.2880509   -5.1889279   -5.1889279   -3.7862353   0.22114919   -5.1889279    1.4026926   520538 
  193000    1.2843836   -5.1878849   -5.1878849    -3.789186   0.20692805   -5.1878849    1.3986989   520538 
  194000    1.2832439   -5.1890707   -5.1890707   -3.7916128   0.23899422   -5.1890707    1.3974579   520538 
  195000    1.2832516   -5.1915948   -5.1915948   -3.7941286   0.24202399   -5.1915948    1.3974662   520538 
  196000    1.2805815   -5.1913383   -5.1913383   -3.7967798   0.24759448   -5.1913383    1.3945584   520538 
  197000    1.2808422   -5.1945432   -5.1945432   -3.7997009   0.24274985   -5.1945432    1.3948423   520538 
  198000    1.2784355   -5.1938791   -5.1938791   -3.8016576   0.21552903   -5.1938791    1.3922215   520538 
  199000    1.2768872   -5.1940479   -5.1940479   -3.8035125   0.25394871   -5.1940479    1.3905354   520538 
  200000    1.2804505   -5.2004398   -5.2004398    -3.806024    0.2257217   -5.2004398    1.3944159   520538 
  201000    1.2760444   -5.1984249   -5.1984249   -3.8088074   0.25175925   -5.1984249    1.3896175   520538 
  202000    1.2755873    -5.200894    -5.200894   -3.8117743   0.25167061    -5.200894    1.3891197   520538 
  203000    1.2745599   -5.2023015   -5.2023015   -3.8143005   0.22388367   -5.2023015    1.3880009   520538 
  204000    1.2742258   -5.2049012   -5.2049012   -3.8172642   0.24397675   -5.2049012     1.387637   520538 
  205000    1.2751333   -5.2084735   -5.2084735   -3.8198481    0.2121748   -5.2084735    1.3886254   520538 
  206000    1.2738694   -5.2086989   -5.2086989   -3.8214499   0.22958049   -5.2086989    1.3872489   520538 
  207000    1.2721338   -5.2097718   -5.2097718   -3.8244129   0.23375178   -5.2097718    1.3853589   520538 
  208000    1.2698952   -5.2090524   -5.2090524   -3.8261315   0.20542865   -5.2090524     1.382921   520538 
  209000     1.272429   -5.2131834   -5.2131834    -3.827503   0.23321672   -5.2131834    1.3856804   520538 
  210000    1.2682691   -5.2108757   -5.2108757   -3.8297255   0.22805862   -5.2108757    1.3811502   520538 
  211000    1.2675898   -5.2119516   -5.2119516   -3.8315411   0.22532984   -5.2119516    1.3804105   520538 
  212000     1.267414   -5.2134226   -5.2134226   -3.8332036   0.22383831   -5.2134226     1.380219   520538 
  213000    1.2661267    -5.214554    -5.214554   -3.8357369   0.22095384    -5.214554    1.3788171   520538 
  214000    1.2664208   -5.2166274   -5.2166274   -3.8374901   0.22944513   -5.2166274    1.3791374   520538 
  215000    1.2654363   -5.2176739   -5.2176739   -3.8396086   0.23524329   -5.2176739    1.3780653   520538 
  216000    1.2634112    -5.217338    -5.217338   -3.8414781   0.24083485    -5.217338    1.3758599   520538 
  217000    1.2616099   -5.2163723   -5.2163723    -3.842474    0.2145073   -5.2163723    1.3738983   520538 
  218000    1.2629516    -5.220457    -5.220457   -3.8450975   0.21746667    -5.220457    1.3753594   520538 
  219000    1.2624348    -5.222262    -5.222262   -3.8474654   0.22531345    -5.222262    1.3747967   520538 
  220000    1.2602088   -5.2223983   -5.2223983   -3.8500258   0.19796713   -5.2223983    1.3723725   520538 
  221000    1.2610901   -5.2258165   -5.2258165   -3.8524843   0.19756922   -5.2258165    1.3733322   520538 
  222000    1.2581121   -5.2253558   -5.2253558   -3.8552666   0.23762354   -5.2253558    1.3700892   520538 
  223000    1.2563358   -5.2264611   -5.2264611   -3.8583063   0.23860455   -5.2264611    1.3681548   520538 
  224000    1.2552841   -5.2274239   -5.2274239   -3.8604144   0.19692325   -5.2274239    1.3670095   520538 
  225000    1.2542449   -5.2269573   -5.2269573   -3.8610794   0.22432307   -5.2269573    1.3658778   520538 
  226000    1.2532779   -5.2288112   -5.2288112   -3.8639865   0.22550865   -5.2288112    1.3648248   520538 
  227000     1.254316   -5.2325586   -5.2325586   -3.8666033    0.2076162   -5.2325586    1.3659553   520538 
  228000    1.2535196   -5.2325618   -5.2325618   -3.8674739   0.21313767   -5.2325618    1.3650879   520538 
  229000    1.2530094   -5.2339833   -5.2339833    -3.869451   0.19454799   -5.2339833    1.3645323   520538 
  230000    1.2516748   -5.2346428   -5.2346428   -3.8715639   0.22587719   -5.2346428    1.3630789   520538 
  231000    1.2522593    -5.237141    -5.237141   -3.8734255   0.19548175    -5.237141    1.3637154   520538 
  232000     1.248987   -5.2358235   -5.2358235   -3.8756716   0.19334632   -5.2358235     1.360152   520538 
  233000    1.2511798   -5.2394694   -5.2394694   -3.8769295   0.21867998   -5.2394694    1.3625399   520538 
  234000     1.249422    -5.240252    -5.240252   -3.8796263   0.22041677    -5.240252    1.3606256   520538 
  235000    1.2509494   -5.2434916   -5.2434916   -3.8812025   0.24986604   -5.2434916     1.362289   520538 
  236000    1.2483314   -5.2426329   -5.2426329   -3.8831948   0.19106929   -5.2426329     1.359438   520538 
  237000    1.2479496   -5.2443276   -5.2443276   -3.8853053   0.20835368   -5.2443276    1.3590222   520538 
  238000    1.2476859   -5.2444945   -5.2444945   -3.8857594   0.21340725   -5.2444945    1.3587351   520538 
  239000    1.2464046   -5.2452505   -5.2452505   -3.8879108   0.20290188   -5.2452505    1.3573397   520538 
  240000    1.2460607   -5.2456223   -5.2456223   -3.8886571   0.22024301   -5.2456223    1.3569652   520538 
  241000    1.2479744   -5.2496369   -5.2496369   -3.8905876   0.20082208   -5.2496369    1.3590492   520538 
  242000    1.2453884   -5.2483798   -5.2483798   -3.8921468   0.21072822   -5.2483798     1.356233   520538 
  243000    1.2444241   -5.2500535   -5.2500535   -3.8948707   0.21614523   -5.2500535    1.3551829   520538 
  244000    1.2450249   -5.2521023   -5.2521023   -3.8962652   0.20451887   -5.2521023    1.3558371   520538 
  245000    1.2416674   -5.2507738   -5.2507738    -3.898593   0.23846967   -5.2507738    1.3521808   520538 
  246000    1.2412884   -5.2521194   -5.2521194   -3.9003513   0.20287356   -5.2521194    1.3517681   520538 
  247000     1.240649   -5.2542051   -5.2542051   -3.9031333   0.22966767   -5.2542051    1.3510718   520538 
  248000     1.240014   -5.2550057   -5.2550057   -3.9046254   0.19773209   -5.2550057    1.3503803   520538 
  249000     1.239647   -5.2563656   -5.2563656    -3.906385   0.22084657   -5.2563656    1.3499806   520538 
  250000      1.23859    -5.257175    -5.257175   -3.9083454   0.23102343    -5.257175    1.3488296   520538 
  251000    1.2388441   -5.2592978   -5.2592978   -3.9101915   0.21124299   -5.2592978    1.3491063   520538 
  252000    1.2370151    -5.259116    -5.259116   -3.9120016   0.19974931    -5.259116    1.3471145   520538 
  253000    1.2338144   -5.2569584   -5.2569584   -3.9133294   0.20788878   -5.2569584    1.3436289   520538 
  254000    1.2368973   -5.2622918   -5.2622918   -3.9153056   0.21285099   -5.2622918    1.3469861   520538 
  255000    1.2356346   -5.2617648   -5.2617648   -3.9161537   0.20509989   -5.2617648    1.3456111   520538 
  256000    1.2369877   -5.2647355   -5.2647355   -3.9176508   0.23170583   -5.2647355    1.3470847   520538 
  257000    1.2338693    -5.264185    -5.264185   -3.9204964   0.19831525    -5.264185    1.3436886   520538 
  258000    1.2361806   -5.2678654   -5.2678654   -3.9216597   0.21619769   -5.2678654    1.3462057   520538 
  259000    1.2334421   -5.2667718   -5.2667718   -3.9235483   0.20260882   -5.2667718    1.3432235   520538 
  260000    1.2319304   -5.2671398   -5.2671398   -3.9255627   0.21657654   -5.2671398    1.3415772   520538 
  261000    1.2320221    -5.268661    -5.268661    -3.926984    0.1927936    -5.268661     1.341677   520538 
  262000    1.2305335   -5.2696502   -5.2696502   -3.9295942   0.22514042   -5.2696502     1.340056   520538 
  263000    1.2307464   -5.2706958   -5.2706958   -3.9304079   0.20278975   -5.2706958    1.3402878   520538 
  264000    1.2293341   -5.2710857   -5.2710857   -3.9323358   0.20902636   -5.2710857    1.3387498   520538 
  265000    1.2314105   -5.2740164   -5.2740164   -3.9330053   0.18759929   -5.2740164    1.3410111   520538 
  266000    1.2303082   -5.2761063   -5.2761063   -3.9362957   0.21707147   -5.2761063    1.3398106   520538 
  267000    1.2292787   -5.2772319   -5.2772319   -3.9385424   0.22344129   -5.2772319    1.3386895   520538 
  268000     1.227297   -5.2771288   -5.2771288   -3.9405973   0.20013376   -5.2771288    1.3365314   520538 
  269000    1.2292507    -5.280422    -5.280422    -3.941763   0.21600113    -5.280422     1.338659   520538 
  270000    1.2288619   -5.2816392   -5.2816392   -3.9434036   0.18885481   -5.2816392    1.3382356   520538 
  271000    1.2269848   -5.2823788   -5.2823788   -3.9461874   0.16778998   -5.2823788    1.3361914   520538 
  272000    1.2252268   -5.2822724   -5.2822724   -3.9479954   0.21226087   -5.2822724     1.334277   520538 
  273000    1.2266995   -5.2863514   -5.2863514   -3.9504707   0.19920136   -5.2863514    1.3358807   520538 
  274000    1.2257163   -5.2863108   -5.2863108   -3.9515008   0.20064513   -5.2863108      1.33481   520538 
  275000    1.2242034    -5.286032    -5.286032   -3.9528696   0.20845352    -5.286032    1.3331625   520538 
  276000    1.2227754   -5.2867608   -5.2867608   -3.9551533   0.18460974   -5.2867608    1.3316074   520538 
  277000    1.2229482   -5.2888823   -5.2888823   -3.9570868   0.21619381   -5.2888823    1.3317956   520538 
  278000    1.2220996   -5.2896443   -5.2896443   -3.9587728   0.22011382   -5.2896443    1.3308714   520538 
  279000    1.2214866   -5.2913956   -5.2913956   -3.9611917    0.1918655   -5.2913956    1.3302039   520538 
  280000    1.2188582   -5.2900721   -5.2900721   -3.9627306   0.19847096   -5.2900721    1.3273415   520538 
  281000     1.221533   -5.2946033   -5.2946033   -3.9643489   0.21191471   -5.2946033    1.3302544   520538 
  282000    1.2206651   -5.2957626   -5.2957626   -3.9664534   0.18238008   -5.2957626    1.3293093   520538 
  283000    1.2189803   -5.2956247   -5.2956247   -3.9681502   0.19151102   -5.2956247    1.3274745   520538 
  284000    1.2171467   -5.2945236   -5.2945236   -3.9690458   0.19021216   -5.2945236    1.3254778   520538 
  285000     1.218005   -5.2972257   -5.2972257   -3.9708134   0.20928231   -5.2972257    1.3264124   520538 
  286000    1.2170738   -5.2979893   -5.2979893    -3.972591   0.17386609   -5.2979893    1.3253983   520538 
  287000     1.213905   -5.2964258   -5.2964258   -3.9744783   0.20978226   -5.2964258    1.3219475   520538 
  288000    1.2159658    -5.299975    -5.299975   -3.9757832    0.1710945    -5.299975    1.3241917   520538 
  289000    1.2132095   -5.2978789   -5.2978789   -3.9766887   0.18800043   -5.2978789    1.3211901   520538 
  290000    1.2157131    -5.301529    -5.301529   -3.9776125   0.19939183    -5.301529    1.3239165   520538 
  291000    1.2131683   -5.3009458   -5.3009458   -3.9798006   0.21997812   -5.3009458    1.3211452   520538 
  292000    1.2141366   -5.3034311   -5.3034311   -3.9812315   0.20706711   -5.3034311    1.3221997   520538 
  293000    1.2134327   -5.3048552   -5.3048552    -3.983422   0.20314894   -5.3048552    1.3214332   520538 
  294000    1.2142553   -5.3056467   -5.3056467   -3.9833178   0.20960178   -5.3056467    1.3223289   520538 
  295000    1.2143784   -5.3069476   -5.3069476   -3.9844846   0.20618005   -5.3069476     1.322463   520538 
  296000      1.21215   -5.3058047   -5.3058047   -3.9857684    0.1794166   -5.3058047    1.3200363   520538 
  297000    1.2131794   -5.3084259   -5.3084259   -3.9872686   0.19670073   -5.3084259    1.3211573   520538 
  298000    1.2133592   -5.3096165   -5.3096165   -3.9882633   0.20844003   -5.3096165    1.3213532   520538 
  299000    1.2126656   -5.3094393   -5.3094393   -3.9888415   0.19118615   -5.3094393    1.3205978   520538 
  300000     1.210956   -5.3089052   -5.3089052   -3.9901692   0.21858124   -5.3089052     1.318736   520538 
  301000    1.2084184   -5.3072019   -5.3072019   -3.9912293   0.17791354   -5.3072019    1.3159726   520538 
  302000     1.210195   -5.3128741   -5.3128741   -3.9949668   0.18440822   -5.3128741    1.3179073   520538 
  303000    1.2110332    -5.315082    -5.315082   -3.9962618   0.18430743    -5.315082    1.3188201   520538 
  304000    1.2094349   -5.3138098   -5.3138098   -3.9967303   0.18925011   -5.3138098    1.3170796   520538 
  305000    1.2087984   -5.3151721   -5.3151721   -3.9987857   0.19710064   -5.3151721    1.3163863   520538 
  306000    1.2076719   -5.3155428   -5.3155428   -4.0003832   0.19108873   -5.3155428    1.3151596   520538 
  307000    1.2092256   -5.3178607   -5.3178607   -4.0010091   0.17752523   -5.3178607    1.3168516   520538 
  308000    1.2089736   -5.3186509   -5.3186509   -4.0020738    0.2037556   -5.3186509    1.3165771   520538 
  309000    1.2076119   -5.3193294   -5.3193294   -4.0042352   0.18594888   -5.3193294    1.3150942   520538 
  310000    1.2087761    -5.322331    -5.322331   -4.0059689   0.21392883    -5.322331    1.3163621   520538 
  311000    1.2053476   -5.3202818   -5.3202818   -4.0076534   0.18753616   -5.3202818    1.3126285   520538 
  312000     1.203502   -5.3203596   -5.3203596    -4.009741    0.2190837   -5.3203596    1.3106186   520538 
  313000    1.2039943   -5.3218974   -5.3218974   -4.0107427   0.15760001   -5.3218974    1.3111547   520538 
  314000    1.2042182   -5.3232831   -5.3232831   -4.0118846   0.19083869   -5.3232831    1.3113985   520538 
  315000    1.2043561    -5.325227    -5.325227   -4.0136783   0.18333085    -5.325227    1.3115487   520538 
  316000    1.2035241   -5.3259935   -5.3259935   -4.0153508    0.2094702   -5.3259935    1.3106426   520538 
  317000    1.2024996    -5.327473    -5.327473    -4.017946   0.21671934    -5.327473     1.309527   520538 
  318000    1.2043681   -5.3307363   -5.3307363   -4.0191745   0.21083728   -5.3307363    1.3115618   520538 
  319000    1.2007782   -5.3282991   -5.3282991   -4.0206467   0.21530584   -5.3282991    1.3076524   520538 
  320000    1.2006177   -5.3294669   -5.3294669   -4.0219893   0.18916972   -5.3294669    1.3074776   520538 
  321000    1.1995323   -5.3300156   -5.3300156   -4.0237201   0.18030395   -5.3300156    1.3062955   520538 
  322000    1.1980688    -5.329672    -5.329672   -4.0249702   0.21431294    -5.329672    1.3047018   520538 
  323000    1.1976948   -5.3316111   -5.3316111   -4.0273166   0.18352532   -5.3316111    1.3042945   520538 
  324000    1.1962946   -5.3311365   -5.3311365   -4.0283668   0.17743579   -5.3311365    1.3027697   520538 
  325000    1.1972088   -5.3339339   -5.3339339   -4.0301686   0.17964388   -5.3339339    1.3037652   520538 
  326000    1.1963827   -5.3340434   -5.3340434   -4.0311778   0.19136282   -5.3340434    1.3028656   520538 
  327000    1.1962514   -5.3343581   -5.3343581   -4.0316355   0.17658491   -5.3343581    1.3027226   520538 
  328000    1.1967761   -5.3359143   -5.3359143   -4.0326203   0.15555823   -5.3359143     1.303294   520538 
  329000    1.1957388   -5.3373449   -5.3373449   -4.0351804   0.18848864   -5.3373449    1.3021644   520538 
  330000    1.1954639    -5.337068    -5.337068    -4.035203    0.1906019    -5.337068     1.301865   520538 
  331000    1.1959666   -5.3391058   -5.3391058   -4.0366934   0.19747541   -5.3391058    1.3024125   520538 
  332000    1.1956211   -5.3389807   -5.3389807   -4.0369444   0.14069601   -5.3389807    1.3020363   520538 
  333000    1.1925144    -5.337475    -5.337475    -4.038822   0.17699793    -5.337475     1.298653   520538 
  334000    1.1969745   -5.3427342   -5.3427342   -4.0392241   0.18306831   -5.3427342    1.3035101   520538 
  335000    1.1941707   -5.3418316   -5.3418316   -4.0413748   0.17955733   -5.3418316    1.3004568   520538 
  336000     1.195191   -5.3442707   -5.3442707   -4.0427028   0.18136221   -5.3442707    1.3015679   520538 
  337000     1.193596   -5.3434915   -5.3434915   -4.0436606   0.18872231   -5.3434915    1.2998309   520538 
  338000    1.1949115   -5.3459563   -5.3459563   -4.0446928    0.1860884   -5.3459563    1.3012635   520538 
  339000    1.1933586   -5.3458952   -5.3458952   -4.0463228    0.1795781   -5.3458952    1.2995724   520538 
  340000    1.1922703   -5.3460069   -5.3460069   -4.0476197    0.1798531   -5.3460069    1.2983873   520538 
  341000    1.1928774   -5.3474767   -5.3474767   -4.0484283   0.19458782   -5.3474767    1.2990484   520538 
  342000    1.1932694   -5.3493692   -5.3493692    -4.049894     0.181412   -5.3493692    1.2994752   520538 
  343000    1.1909432   -5.3487306   -5.3487306   -4.0517886   0.18198711   -5.3487306     1.296942   520538 
  344000    1.1912204   -5.3502621   -5.3502621   -4.0530183   0.19489942   -5.3502621    1.2972439   520538 
  345000    1.1903457   -5.3510169   -5.3510169   -4.0547256   0.16504029   -5.3510169    1.2962913   520538 
  346000    1.1881511   -5.3501326   -5.3501326   -4.0562313    0.1730722   -5.3501326    1.2939014   520538 
  347000    1.1877039   -5.3512423   -5.3512423   -4.0578279   0.18314111   -5.3512423    1.2934144   520538 
  348000    1.1874813   -5.3521769   -5.3521769   -4.0590049   0.18239521   -5.3521769     1.293172   520538 
  349000    1.1886101   -5.3544358   -5.3544358   -4.0600345   0.17946717   -5.3544358    1.2944013   520538 
  350000    1.1866893    -5.354562    -5.354562   -4.0622525   0.17667193    -5.354562    1.2923095   520538 
  351000    1.1880394   -5.3568116   -5.3568116   -4.0630318   0.17617369   -5.3568116    1.2937798   520538 
  352000    1.1852831    -5.354879    -5.354879   -4.0641009   0.18081149    -5.354879    1.2907781   520538 
  353000    1.1855058   -5.3562523   -5.3562523   -4.0652317   0.16026587   -5.3562523    1.2910206   520538 
  354000    1.1859392   -5.3578171   -5.3578171   -4.0663245   0.17255224   -5.3578171    1.2914927   520538 
  355000    1.1881606   -5.3611238   -5.3611238   -4.0672121   0.17281872   -5.3611238    1.2939117   520538 
  356000    1.1858775    -5.359672    -5.359672   -4.0682466   0.18711033    -5.359672    1.2914254   520538 
  357000    1.1834815   -5.3579125   -5.3579125   -4.0690963   0.17328369   -5.3579125    1.2888162   520538 
  358000    1.1829447   -5.3598137   -5.3598137   -4.0715821   0.16887915   -5.3598137    1.2882316   520538 
  359000    1.1844818    -5.362927    -5.362927   -4.0730215   0.19820894    -5.362927    1.2899055   520538 
  360000    1.1842365   -5.3637533   -5.3637533   -4.0741149   0.18688897   -5.3637533    1.2896384   520538 
  361000    1.1840425   -5.3644743   -5.3644743   -4.0750473   0.18413785   -5.3644743    1.2894271   520538 
  362000    1.1829344   -5.3641793   -5.3641793    -4.075959   0.19432592   -5.3641793    1.2882203   520538 
  363000    1.1805055    -5.362162    -5.362162   -4.0765868   0.18813995    -5.362162    1.2855753   520538 
  364000    1.1816776   -5.3651729   -5.3651729   -4.0783212   0.15763021   -5.3651729    1.2868517   520538 
  365000     1.181574   -5.3666216   -5.3666216   -4.0798827   0.16199875   -5.3666216    1.2867389   520538 
  366000    1.1821167    -5.368059    -5.368059    -4.080729   0.18283193    -5.368059    1.2873299   520538 
  367000    1.1798196   -5.3660436   -5.3660436   -4.0812153    0.1816839   -5.3660436    1.2848283   520538 
  368000    1.1807676   -5.3682113   -5.3682113   -4.0823506   0.16025039   -5.3682113    1.2858607   520538 
  369000    1.1805046   -5.3699042   -5.3699042   -4.0843299   0.17593734   -5.3699042    1.2855743   520538 
  370000    1.1802833   -5.3695386   -5.3695386   -4.0842053   0.16121111   -5.3695386    1.2853333   520538 
  371000     1.179013   -5.3700507   -5.3700507   -4.0861008   0.19858066   -5.3700507    1.2839499   520538 
  372000    1.1770331   -5.3691799   -5.3691799    -4.087386   0.19594884   -5.3691799    1.2817939   520538 
  373000    1.1782021    -5.372396    -5.372396   -4.0893291    0.1800452    -5.372396    1.2830669   520538 
  374000    1.1789079   -5.3745054   -5.3745054   -4.0906699   0.16230109   -5.3745054    1.2838355   520538 
  375000    1.1778636   -5.3736994   -5.3736994   -4.0910011    0.1872517   -5.3736994    1.2826983   520538 
  376000    1.1768543   -5.3743508   -5.3743508   -4.0927516   0.18869137   -5.3743508    1.2815992   520538 
  377000    1.1770104   -5.3755735   -5.3755735   -4.0938044   0.20760067   -5.3755735    1.2817691   520538 
  378000    1.1765941   -5.3757251   -5.3757251   -4.0944094   0.17682769   -5.3757251    1.2813157   520538 
  379000    1.1762765   -5.3772935   -5.3772935   -4.0963236   0.19143254   -5.3772935    1.2809699   520538 
  380000    1.1764967   -5.3781577   -5.3781577    -4.096948   0.16238699   -5.3781577    1.2812097   520538 
  381000    1.1741642   -5.3770811   -5.3770811   -4.0984115    0.1716481   -5.3770811    1.2786696   520538 
  382000    1.1756698   -5.3797024   -5.3797024   -4.0993932   0.16964981   -5.3797024    1.2803092   520538 
  383000    1.1759236   -5.3806099   -5.3806099   -4.1000243   0.17335335   -5.3806099    1.2805856   520538 
  384000    1.1717689    -5.378036    -5.378036   -4.1019749   0.17932543    -5.378036    1.2760611   520538 
  385000      1.17459   -5.3821328   -5.3821328   -4.1029995   0.16538737   -5.3821328    1.2791333   520538 
  386000    1.1754126   -5.3833387   -5.3833387   -4.1033097   0.17521492   -5.3833387    1.2800291   520538 
  387000    1.1726887   -5.3810695   -5.3810695   -4.1040068   0.18034203   -5.3810695    1.2770628   520538 
  388000    1.1728833   -5.3809275   -5.3809275   -4.1036529   0.15131973   -5.3809275    1.2772746   520538 
  389000     1.171559   -5.3820064   -5.3820064   -4.1061739   0.16860615   -5.3820064    1.2758325   520538 
  390000    1.1726654   -5.3846653   -5.3846653   -4.1076278   0.16897632   -5.3846653    1.2770374   520538 
  391000    1.1714222   -5.3839196   -5.3839196    -4.108236   0.15758406   -5.3839196    1.2756836   520538 
  392000    1.1722082   -5.3847651   -5.3847651   -4.1082257   0.17231816   -5.3847651    1.2765395   520538 
  393000    1.1698297   -5.3834191   -5.3834191   -4.1094698   0.17622726   -5.3834191    1.2739493   520538 
  394000    1.1712243   -5.3864356   -5.3864356   -4.1109677   0.16676666   -5.3864356     1.275468   520538 
  395000    1.1700342   -5.3861582   -5.3861582   -4.1119862   0.17905995   -5.3861582     1.274172   520538 
  396000    1.1710337   -5.3875327   -5.3875327   -4.1122722   0.15336248   -5.3875327    1.2752605   520538 
  397000     1.171307   -5.3873928   -5.3873928   -4.1118348   0.17156972   -5.3873928     1.275558   520538 
  398000    1.1720813    -5.389777    -5.389777   -4.1133757   0.18461539    -5.389777    1.2764013   520538 
  399000    1.1693473   -5.3886527   -5.3886527   -4.1152287   0.18127108   -5.3886527     1.273424   520538 
  400000    1.1683998    -5.389082    -5.389082   -4.1166898   0.17045048    -5.389082    1.2723921   520538 
  401000    1.1707179   -5.3925604   -5.3925604   -4.1176438   0.17203506   -5.3925604    1.2749165   520538 
  402000    1.1685953   -5.3909254   -5.3909254   -4.1183203    0.1674515   -5.3909254     1.272605   520538 
  403000     1.168218   -5.3920066   -5.3920066   -4.1198125   0.17385191   -5.3920066    1.2721941   520538 
  404000    1.1693972   -5.3938919   -5.3938919   -4.1204135   0.19148573   -5.3938919    1.2734783   520538 
  405000    1.1680903   -5.3936962   -5.3936962   -4.1216411   0.16471044   -5.3936962    1.2720551   520538 
  406000    1.1668433   -5.3941191   -5.3941191    -4.123422     0.184079   -5.3941191    1.2706971   520538 
  407000    1.1661442    -5.394777    -5.394777   -4.1248412   0.17722738    -5.394777    1.2699358   520538 
  408000    1.1650551    -5.394301    -5.394301   -4.1255513   0.17887271    -5.394301    1.2687497   520538 
  409000    1.1658625   -5.3969265   -5.3969265   -4.1272976    0.1843976   -5.3969265     1.269629   520538 
  410000    1.1657629   -5.3986259   -5.3986259   -4.1291054   0.17562032   -5.3986259    1.2695205   520538 
  411000    1.1641351   -5.3975482   -5.3975482   -4.1298004   0.16066202   -5.3975482    1.2677478   520538 
  412000    1.1639221   -5.3986374   -5.3986374   -4.1311216   0.17658071   -5.3986374    1.2675159   520538 
  413000    1.1651627   -5.4007978   -5.4007978   -4.1319309   0.17198867   -5.4007978    1.2688669   520538 
  414000    1.1653242   -5.4015988   -5.4015988   -4.1325561   0.16800657   -5.4015988    1.2690428   520538 
  415000    1.1641353   -5.4015876   -5.4015876   -4.1338396   0.16295845   -5.4015876     1.267748   520538 
  416000     1.162314   -5.4022484   -5.4022484   -4.1364837    0.1719985   -5.4022484    1.2657647   520538 
  417000    1.1635879    -5.403398    -5.403398    -4.136246   0.15794679    -5.403398     1.267152   520538 
  418000    1.1619463   -5.4022992   -5.4022992   -4.1369349   0.15421408   -5.4022992    1.2653643   520538 
  419000     1.164007   -5.4055379   -5.4055379   -4.1379296   0.14738522   -5.4055379    1.2676084   520538 
  420000    1.1610554   -5.4028134   -5.4028134   -4.1384194    0.1746486   -5.4028134     1.264394   520538 
  421000    1.1611346   -5.4040827   -5.4040827   -4.1396023   0.17397938   -5.4040827    1.2644803   520538 
  422000    1.1611074   -5.4047096   -5.4047096    -4.140259   0.15847012   -5.4047096    1.2644507   520538 
  423000    1.1611248   -5.4048233   -5.4048233   -4.1403537   0.16482151   -5.4048233    1.2644696   520538 
  424000    1.1613913   -5.4072294   -5.4072294   -4.1424696   0.14603381   -5.4072294    1.2647598   520538 
  425000    1.1597488   -5.4063021   -5.4063021   -4.1433309   0.16578826   -5.4063021    1.2629712   520538 
  426000    1.1594271   -5.4066636   -5.4066636   -4.1440428   0.14667752   -5.4066636    1.2626208   520538 
  427000    1.1609563   -5.4089663   -5.4089663   -4.1446801   0.15853739   -5.4089663    1.2642862   520538 
  428000    1.1596518   -5.4080247   -5.4080247   -4.1451591   0.18829311   -5.4080247    1.2628655   520538 
  429000    1.1584208   -5.4077614   -5.4077614   -4.1462365   0.17271761   -5.4077614    1.2615249   520538 
  430000     1.158041   -5.4097516   -5.4097516   -4.1486402   0.15360211   -5.4097516    1.2611114   520538 
  431000    1.1571325   -5.4103777   -5.4103777   -4.1502558    0.1626469   -5.4103777     1.260122   520538 
  432000    1.1575821   -5.4107034   -5.4107034   -4.1500917   0.17202332   -5.4107034    1.2606117   520538 
  433000    1.1558679   -5.4096153   -5.4096153   -4.1508704   0.17583785   -5.4096153    1.2587449   520538 
  434000    1.1566911   -5.4123027   -5.4123027   -4.1526614   0.16858671   -5.4123027    1.2596413   520538 
  435000    1.1576125   -5.4133658   -5.4133658   -4.1527211   0.15700245   -5.4133658    1.2606447   520538 
  436000    1.1574159    -5.414082    -5.414082   -4.1536514    0.1829317    -5.414082    1.2604306   520538 
  437000     1.155648   -5.4122907   -5.4122907   -4.1537854   0.18117732   -5.4122907    1.2585054   520538 
  438000    1.1556364   -5.4131637   -5.4131637   -4.1546709   0.16412844   -5.4131637    1.2584927   520538 
  439000    1.1555436   -5.4147845   -5.4147845   -4.1563929   0.15532262   -5.4147845    1.2583916   520538 
  440000    1.1546847   -5.4151373   -5.4151373    -4.157681   0.13543144   -5.4151373    1.2574563   520538 
  441000    1.1539441   -5.4149924   -5.4149924   -4.1583426   0.15227464   -5.4149924    1.2566498   520538 
  442000    1.1513434   -5.4131262   -5.4131262   -4.1593086   0.18550794   -5.4131262    1.2538176   520538 
  443000    1.1533807   -5.4160717   -5.4160717   -4.1600354   0.16201185   -5.4160717    1.2560363   520538 
  444000    1.1548829   -5.4187391   -5.4187391   -4.1610669   0.15811047   -5.4187391    1.2576722   520538 
  445000     1.152133   -5.4172208   -5.4172208   -4.1625432   0.16567071   -5.4172208    1.2546776   520538 
  446000    1.1521209   -5.4183721   -5.4183721   -4.1637078   0.14051058   -5.4183721    1.2546643   520538 
  447000    1.1516006   -5.4176097   -5.4176097    -4.163512   0.16891084   -5.4176097    1.2540977   520538 
  448000    1.1525909   -5.4196493   -5.4196493   -4.1644732    0.1535936   -5.4196493    1.2551762   520538 
  449000    1.1526608   -5.4199943   -5.4199943    -4.164742   0.16757485   -5.4199943    1.2552523   520538 
  450000    1.1515046    -5.418794    -5.418794   -4.1648008   0.14432222    -5.418794    1.2539932   520538 
  451000    1.1523541   -5.4206782   -5.4206782   -4.1657599   0.15704117   -5.4206782    1.2549183   520538 
  452000    1.1509118   -5.4203566   -5.4203566    -4.167009   0.15836854   -5.4203566    1.2533476   520538 
  453000    1.1517831   -5.4223999   -5.4223999   -4.1681034   0.17011803   -5.4223999    1.2542965   520538 
  454000    1.1490888   -5.4204469   -5.4204469   -4.1690845   0.13908255   -5.4204469    1.2513624   520538 
  455000    1.1482544    -5.420489    -5.420489   -4.1700353   0.15283711    -5.420489    1.2504537   520538 
  456000    1.1502497   -5.4241318   -5.4241318   -4.1715052   0.14186586   -5.4241318    1.2526266   520538 
  457000    1.1501787   -5.4238932   -5.4238932   -4.1713439   0.14138134   -5.4238932    1.2525493   520538 
  458000    1.1501588   -5.4250514   -5.4250514   -4.1725239   0.16187498   -5.4250514    1.2525276   520538 
  459000    1.1482452   -5.4239715   -5.4239715   -4.1735277   0.16118231   -5.4239715    1.2504437   520538 
  460000    1.1482858   -5.4243118   -5.4243118   -4.1738239   0.14052888   -5.4243118    1.2504879   520538 
  461000    1.1488451   -5.4259465   -5.4259465   -4.1748495   0.15254992   -5.4259465     1.251097   520538 
  462000    1.1477026   -5.4261677   -5.4261677   -4.1763149   0.14089464   -5.4261677    1.2498528   520538 
  463000    1.1474622   -5.4269634   -5.4269634   -4.1773724   0.15941357   -5.4269634     1.249591   520538 
  464000    1.1477984   -5.4289904   -5.4289904   -4.1790333   0.15548832   -5.4289904    1.2499571   520538 
  465000    1.1470565   -5.4297369   -5.4297369   -4.1805877   0.14634466   -5.4297369    1.2491492   520538 
  466000    1.1462016   -5.4291875   -5.4291875   -4.1809693   0.14546381   -5.4291875    1.2482183   520538 
  467000    1.1457341   -5.4307592   -5.4307592   -4.1830501   0.16261887   -5.4307592    1.2477091   520538 
  468000    1.1481218   -5.4341567   -5.4341567   -4.1838473   0.16440229   -5.4341567    1.2503094   520538 
  469000    1.1462701   -5.4334594   -5.4334594   -4.1851667   0.14501399   -5.4334594    1.2482928   520538 
  470000    1.1432362   -5.4304889   -5.4304889      -4.1855   0.17156991   -5.4304889    1.2449889   520538 
  471000    1.1465607   -5.4336711   -5.4336711   -4.1850618      0.16104   -5.4336711    1.2486093   520538 
  472000    1.1477794    -5.435271    -5.435271   -4.1853345   0.15920344    -5.435271    1.2499365   520538 
  473000    1.1449693   -5.4323844   -5.4323844   -4.1855081   0.15922567   -5.4323844    1.2468763   520538 
  474000    1.1471649   -5.4344489   -5.4344489   -4.1851817   0.15919585   -5.4344489    1.2492673   520538 
  475000    1.1459063   -5.4345351   -5.4345351   -4.1866385   0.15486353   -5.4345351    1.2478966   520538 
  476000    1.1433003   -5.4330864   -5.4330864   -4.1880277   0.13255348   -5.4330864    1.2450587   520538 
  477000    1.1457259   -5.4363308   -5.4363308   -4.1886306   0.14760253   -5.4363308    1.2477001   520538 
  478000    1.1430497   -5.4348774   -5.4348774   -4.1900917   0.14965703   -5.4348774    1.2447857   520538 
  479000    1.1436455    -5.436392    -5.436392   -4.1909574    0.1768819    -5.436392    1.2454346   520538 
  480000    1.1415085   -5.4360456   -5.4360456   -4.1929382   0.13524722   -5.4360456    1.2431074   520538 
  481000    1.1436692   -5.4388927   -5.4388927   -4.1934323   0.14861905   -5.4388927    1.2454604   520538 
  482000    1.1422034   -5.4383593   -5.4383593   -4.1944952   0.15488994   -5.4383593    1.2438641   520538 
  483000    1.1418298   -5.4402068   -5.4402068   -4.1967495   0.16137245   -5.4402068    1.2434573   520538 
  484000    1.1402847   -5.4380116   -5.4380116   -4.1962369   0.14886198   -5.4380116    1.2417746   520538 
  485000    1.1415511   -5.4406486   -5.4406486   -4.1974948   0.14819486   -5.4406486    1.2431538   520538 
  486000    1.1411538   -5.4408399   -5.4408399   -4.1981188   0.13808559   -5.4408399    1.2427211   520538 
  487000    1.1399619   -5.4394696   -5.4394696   -4.1980464   0.13320826   -5.4394696    1.2414231   520538 
  488000    1.1383229   -5.4384248   -5.4384248   -4.1987865   0.15309247   -5.4384248    1.2396383   520538 
  489000     1.138475   -5.4398498   -5.4398498   -4.2000459   0.14624155   -5.4398498    1.2398039   520538 
  490000    1.1392946   -5.4411711   -5.4411711   -4.2004747   0.13929541   -5.4411711    1.2406964   520538 
  491000    1.1399222    -5.442641    -5.442641   -4.2012611   0.16833285    -5.442641    1.2413799   520538 
  492000    1.1394167   -5.4441339   -5.4441339   -4.2033045   0.17248572   -5.4441339    1.2408294   520538 
  493000    1.1388832   -5.4444107   -5.4444107   -4.2041623   0.15063419   -5.4444107    1.2402485   520538 
  494000    1.1399225   -5.4457242   -5.4457242    -4.204344   0.16525521   -5.4457242    1.2413802   520538 
  495000    1.1385879   -5.4454276   -5.4454276   -4.2055007   0.14570638   -5.4454276    1.2399269   520538 
  496000    1.1368389   -5.4441735   -5.4441735   -4.2061513   0.16637728   -5.4441735    1.2380222   520538 
  497000    1.1382201   -5.4450621   -5.4450621   -4.2055357   0.16686755   -5.4450621    1.2395263   520538 
  498000      1.13759   -5.4457435   -5.4457435   -4.2069033    0.1424417   -5.4457435    1.2388402   520538 
  499000    1.1383671   -5.4475022   -5.4475022   -4.2078158   0.14597722   -5.4475022    1.2396864   520538 
  500000     1.136055   -5.4454884   -5.4454884   -4.2083199   0.14167963   -5.4454884    1.2371686   520538 
  501000    1.1366601   -5.4464854   -5.4464854   -4.2086579   0.15507962   -5.4464854    1.2378275   520538 
  502000    1.1358596   -5.4461696   -5.4461696   -4.2092139   0.16668565   -5.4461696    1.2369557   520538 
  503000    1.1363077   -5.4486456   -5.4486456   -4.2112018   0.15684963   -5.4486456    1.2374437   520538 
  504000     1.136934   -5.4497088   -5.4497088    -4.211583   0.16313446   -5.4497088    1.2381258   520538 
  505000    1.1353797   -5.4491556   -5.4491556   -4.2127224    0.1659481   -5.4491556    1.2364331   520538 
  506000    1.1357187   -5.4499798   -5.4499798   -4.2131775   0.14417552   -5.4499798    1.2368023   520538 
  507000    1.1376855   -5.4527816   -5.4527816   -4.2138376   0.14652767   -5.4527816    1.2389441   520538 
  508000    1.1356836   -5.4522341   -5.4522341   -4.2154701   0.16239507   -5.4522341     1.236764   520538 
  509000    1.1363965   -5.4536323   -5.4536323   -4.2160919    0.1317268   -5.4536323    1.2375404   520538 
  510000    1.1347223    -5.452549    -5.452549   -4.2168317   0.14549254    -5.452549    1.2357173   520538 
  511000    1.1341321   -5.4525944   -5.4525944   -4.2175199   0.13635097   -5.4525944    1.2350745   520538 
  512000    1.1324705   -5.4516307   -5.4516307   -4.2183657   0.14681085   -5.4516307     1.233265   520538 
  513000    1.1349386    -5.455585    -5.455585   -4.2196323   0.16296779    -5.455585    1.2359528   520538 
  514000    1.1343152   -5.4543491   -5.4543491   -4.2190753   0.12383278   -5.4543491    1.2352738   520538 
  515000    1.1348722   -5.4549183   -5.4549183   -4.2190379   0.14744492   -5.4549183    1.2358805   520538 
  516000    1.1356031   -5.4563656   -5.4563656   -4.2196892   0.11312841   -5.4563656    1.2366764   520538 
  517000    1.1326824   -5.4543488   -5.4543488   -4.2208531   0.15191884   -5.4543488    1.2334957   520538 
  518000    1.1290303   -5.4517426   -5.4517426    -4.222224   0.13661993   -5.4517426    1.2295186   520538 
  519000     1.132717   -5.4558265   -5.4558265    -4.222293   0.11428905   -5.4558265    1.2335335   520538 
  520000    1.1334513    -5.457087    -5.457087   -4.2227539   0.15572067    -5.457087     1.234333   520538 
  521000    1.1333708   -5.4578189   -5.4578189   -4.2235735   0.15081462   -5.4578189    1.2342454   520538 
  522000    1.1338617   -5.4586273   -5.4586273   -4.2238472   0.14609075   -5.4586273    1.2347801   520538 
  523000    1.1318339   -5.4582505   -5.4582505   -4.2256788   0.15903956   -5.4582505    1.2325717   520538 
  524000    1.1312903   -5.4578149   -5.4578149   -4.2258351   0.13945232   -5.4578149    1.2319798   520538 
  525000    1.1328387   -5.4602707   -5.4602707   -4.2266047   0.15824229   -5.4602707     1.233666   520538 
  526000    1.1319647   -5.4605195   -5.4605195   -4.2278054   0.15546296   -5.4605195    1.2327142   520538 
  527000    1.1305975   -5.4602696   -5.4602696   -4.2290443   0.13981087   -5.4602696    1.2312253   520538 
  528000    1.1307559   -5.4623696   -5.4623696   -4.2309718   0.13393963   -5.4623696    1.2313978   520538 
  529000    1.1300659   -5.4616997   -5.4616997   -4.2310533   0.14018748   -5.4616997    1.2306464   520538 
  530000    1.1290806   -5.4604816   -5.4604816   -4.2309083   0.15567542   -5.4604816    1.2295734   520538 
  531000    1.1294758   -5.4617598   -5.4617598   -4.2317561   0.12673436   -5.4617598    1.2300037   520538 
  532000    1.1321062   -5.4657688   -5.4657688   -4.2329005   0.16733742   -5.4657688    1.2328683   520538 
  533000     1.128634   -5.4621172   -5.4621172   -4.2330302   0.11859246   -5.4621172     1.229087   520538 
  534000    1.1303403   -5.4648743   -5.4648743   -4.2339291   0.15646839   -5.4648743    1.2309452   520538 
  535000    1.1297501   -5.4654455   -5.4654455    -4.235143   0.13420099   -5.4654455    1.2303025   520538 
  536000    1.1291894   -5.4654632   -5.4654632   -4.2357713   0.14621729   -5.4654632    1.2296918   520538 
  537000    1.1311333     -5.46875     -5.46875   -4.2369413   0.13565617     -5.46875    1.2318087   520538 
  538000    1.1298145   -5.4672891   -5.4672891   -4.2369165   0.15281611   -5.4672891    1.2303726   520538 
  539000    1.1280163   -5.4652178   -5.4652178   -4.2368035   0.15833255   -5.4652178    1.2284144   520538 
  540000    1.1289776    -5.466402    -5.466402   -4.2369408   0.16905464    -5.466402    1.2294612   520538 
  541000    1.1295688   -5.4678501   -5.4678501   -4.2377451   0.15100036   -5.4678501     1.230105   520538 
  542000     1.128694   -5.4686093   -5.4686093   -4.2394569   0.13833647   -5.4686093    1.2291524   520538 
  543000    1.1268054   -5.4672786   -5.4672786    -4.240183   0.12356557   -5.4672786    1.2270956   520538 
  544000    1.1279853   -5.4684709   -5.4684709   -4.2400903   0.12876951   -5.4684709    1.2283805   520538 
  545000    1.1279035   -5.4696048   -5.4696048   -4.2413133   0.15606965   -5.4696048    1.2282915   520538 
  546000    1.1278318   -5.4701912   -5.4701912   -4.2419778   0.14021607   -5.4701912    1.2282135   520538 
  547000    1.1285978   -5.4722784   -5.4722784   -4.2432308   0.13743007   -5.4722784    1.2290476   520538 
  548000    1.1278001   -5.4717653   -5.4717653   -4.2435864   0.12709637   -5.4717653    1.2281789   520538 
  549000    1.1256087     -5.46983     -5.46983   -4.2440376   0.13016263     -5.46983    1.2257924   520538 
  550000    1.1261851   -5.4709933   -5.4709933   -4.2445731    0.1178252   -5.4709933    1.2264202   520538 
  551000    1.1262563   -5.4724994   -5.4724994   -4.2460018   0.14521671   -5.4724994    1.2264976   520538 
  552000    1.1251052   -5.4721073   -5.4721073   -4.2468632   0.13889501   -5.4721073    1.2252441   520538 
  553000    1.1249054   -5.4737233   -5.4737233   -4.2486968   0.13449564   -5.4737233    1.2250266   520538 
  554000    1.1279347   -5.4773787   -5.4773787   -4.2490532   0.14464067   -5.4773787    1.2283255   520538 
  555000    1.1263164    -5.476287    -5.476287   -4.2497239   0.15400544    -5.476287    1.2265631   520538 
  556000    1.1262196   -5.4764739   -5.4764739   -4.2500162   0.13837463   -5.4764739    1.2264577   520538 
  557000    1.1240596   -5.4752411   -5.4752411   -4.2511356   0.13211452   -5.4752411    1.2241055   520538 
  558000    1.1225318   -5.4745655   -5.4745655   -4.2521238   0.13517318   -5.4745655    1.2224417   520538 
  559000    1.1237272   -5.4754401   -5.4754401   -4.2516967   0.14047088   -5.4754401    1.2237435   520538 
  560000    1.1240504    -5.476949    -5.476949   -4.2528536   0.15343241    -5.476949    1.2240954   520538 
  561000     1.124557   -5.4772039   -5.4772039   -4.2525567   0.12584574   -5.4772039    1.2246472   520538 
  562000    1.1254467   -5.4790187   -5.4790187   -4.2534027   0.10910899   -5.4790187     1.225616   520538 
  563000    1.1218879   -5.4759044   -5.4759044    -4.254164   0.13439014   -5.4759044    1.2217404   520538 
  564000    1.1214943   -5.4761604   -5.4761604   -4.2548485   0.14935644   -5.4761604    1.2213119   520538 
  565000    1.1237522   -5.4800914   -5.4800914   -4.2563207   0.13315965   -5.4800914    1.2237707   520538 
  566000    1.1247586   -5.4815903   -5.4815903   -4.2567236   0.12630748   -5.4815903    1.2248667   520538 
  567000    1.1235976   -5.4807707   -5.4807707   -4.2571683   0.17250944   -5.4807707    1.2236024   520538 
  568000    1.1228034   -5.4801909   -5.4801909   -4.2574534   0.13471559   -5.4801909    1.2227375   520538 
  569000    1.1229159   -5.4825779   -5.4825779   -4.2597179   0.11971381   -5.4825779      1.22286   520538 
  570000    1.1208389   -5.4800379   -5.4800379   -4.2594398   0.12345389   -5.4800379    1.2205981   520538 
  571000     1.120282   -5.4809798   -5.4809798   -4.2609882   0.13137818   -5.4809798    1.2199916   520538 
  572000    1.1218747   -5.4831679   -5.4831679   -4.2614418   0.13902589   -5.4831679    1.2217261   520538 
  573000    1.1210521   -5.4829364   -5.4829364   -4.2621061    0.1213915   -5.4829364    1.2208303   520538 
  574000    1.1216192   -5.4840269   -5.4840269    -4.262579   0.11700061   -5.4840269    1.2214479   520538 
  575000    1.1185998   -5.4817362   -5.4817362   -4.2635764   0.13252447   -5.4817362    1.2181598   520538 
  576000    1.1198898   -5.4844078   -5.4844078   -4.2648433   0.16157861   -5.4844078    1.2195645   520538 
  577000    1.1201252   -5.4844789   -5.4844789    -4.264658   0.14941391   -5.4844789    1.2198209   520538 
  578000    1.1220689   -5.4875865   -5.4875865   -4.2656489   0.14357301   -5.4875865    1.2219376   520538 
  579000    1.1192338   -5.4860096   -5.4860096   -4.2671595   0.11619465   -5.4860096    1.2188502   520538 
  580000    1.1187452   -5.4854497   -5.4854497   -4.2671316   0.14147145   -5.4854497    1.2183181   520538 
  581000    1.1175402   -5.4850357   -5.4850357   -4.2680299   0.14484713   -5.4850357    1.2170058   520538 
  582000    1.1195629    -5.487743    -5.487743   -4.2685344   0.16513324    -5.487743    1.2192085   520538 
  583000    1.1195425   -5.4882861   -5.4882861   -4.2690998   0.12349417   -5.4882861    1.2191863   520538 
  584000    1.1190354   -5.4880885   -5.4880885   -4.2694544   0.12150212   -5.4880885    1.2186341   520538 
  585000    1.1173211   -5.4867621   -5.4867621   -4.2699948   0.13880157   -5.4867621    1.2167673   520538 
  586000    1.1177327   -5.4878563   -5.4878563   -4.2706409   0.12439745   -5.4878563    1.2172154   520538 
  587000    1.1199176    -5.490657    -5.490657   -4.2710622   0.15152371    -5.490657    1.2195948   520538 
  588000    1.1165902   -5.4882406   -5.4882406   -4.2722694   0.12084282   -5.4882406    1.2159712   520538 
  589000    1.1176446   -5.4903346   -5.4903346   -4.2732151    0.1387291   -5.4903346    1.2171195   520538 
  590000    1.1180095   -5.4904163   -5.4904163   -4.2728995    0.1197568   -5.4904163    1.2175168   520538 
  591000    1.1171711   -5.4901894   -5.4901894   -4.2735855   0.13930811   -5.4901894    1.2166039   520538 
  592000    1.1185688   -5.4926853   -5.4926853   -4.2745593   0.13237183   -5.4926853     1.218126   520538 
  593000    1.1159174   -5.4903083   -5.4903083   -4.2750698     0.117025   -5.4903083    1.2152386   520538 
  594000    1.1164904   -5.4908122   -5.4908122   -4.2749496   0.12696878   -5.4908122    1.2158626   520538 
  595000    1.1175243   -5.4924897   -5.4924897   -4.2755012   0.13192134   -5.4924897    1.2169885   520538 
  596000    1.1188092   -5.4948512   -5.4948512   -4.2764633   0.11392063   -5.4948512    1.2183878   520538 
  597000    1.1162716   -5.4926602   -5.4926602   -4.2770359   0.12420996   -5.4926602    1.2156243   520538 
  598000    1.1149357   -5.4908969   -5.4908969   -4.2767273    0.1384546   -5.4908969    1.2141695   520538 
  599000    1.1162214   -5.4936699   -5.4936699   -4.2781002   0.13856852   -5.4936699    1.2155696   520538 
  600000    1.1137825   -5.4922357   -5.4922357    -4.279322   0.14155874   -5.4922357    1.2129137   520538 
  601000    1.1143175    -5.493883    -5.493883   -4.2803867   0.12075746    -5.493883    1.2134963   520538 
  602000    1.1150306   -5.4953622   -5.4953622   -4.2810893   0.13847131   -5.4953622    1.2142729   520538 
  603000    1.1165481   -5.4974191   -5.4974191   -4.2814937   0.14145288   -5.4974191    1.2159254   520538 
  604000    1.1166273   -5.4982342   -5.4982342   -4.2822226   0.13296057   -5.4982342    1.2160117   520538 
  605000    1.1143069   -5.4975829   -5.4975829   -4.2840981   0.13957564   -5.4975829    1.2134847   520538 
  606000    1.1146625   -5.4986927   -5.4986927   -4.2848208   0.11509819   -5.4986927     1.213872   520538 
  607000    1.1150786   -5.4996863   -5.4996863   -4.2853612   0.12862354   -5.4996863    1.2143251   520538 
  608000    1.1142543   -5.4990444   -5.4990444   -4.2856169   0.14202228   -5.4990444    1.2134275   520538 
  609000    1.1155054   -5.4999225   -5.4999225   -4.2851326    0.1416525   -5.4999225    1.2147899   520538 
  610000    1.1131323   -5.4985379   -5.4985379   -4.2863323   0.13810639   -5.4985379    1.2122056   520538 
  611000     1.113818   -5.4992737   -5.4992737   -4.2863214   0.12420553   -5.4992737    1.2129523   520538 
  612000    1.1133117   -5.5001004   -5.5001004   -4.2876994   0.14255975   -5.5001004     1.212401   520538 
  613000    1.1156189   -5.5031759   -5.5031759   -4.2882625   0.11628834   -5.5031759    1.2149135   520538 
  614000    1.1130299   -5.5009302   -5.5009302   -4.2888361   0.14326437   -5.5009302    1.2120941   520538 
  615000    1.1140383   -5.5027563   -5.5027563   -4.2895641   0.13432245   -5.5027563    1.2131922   520538 
  616000    1.1117713   -5.5012005   -5.5012005   -4.2904771   0.12386852   -5.5012005    1.2107234   520538 
  617000    1.1140039   -5.5036252   -5.5036252   -4.2904705    0.1044504   -5.5036252    1.2131547   520538 
  618000    1.1128185   -5.5023425   -5.5023425   -4.2904786   0.13549298   -5.5023425    1.2118638   520538 
  619000     1.115354   -5.5049451   -5.5049451   -4.2903201   0.13368164   -5.5049451     1.214625   520538 
  620000    1.1149031   -5.5054095   -5.5054095   -4.2912755   0.12860431   -5.5054095     1.214134   520538 
  621000    1.1127902   -5.5034152   -5.5034152   -4.2915821   0.10973788   -5.5034152     1.211833   520538 
  622000    1.1122355    -5.504222    -5.504222    -4.292993   0.14297247    -5.504222     1.211229   520538 
  623000    1.1120008   -5.5044629   -5.5044629   -4.2934895   0.13979911   -5.5044629    1.2109734   520538 
  624000    1.1103361   -5.5030997   -5.5030997   -4.2939392   0.13722969   -5.5030997    1.2091605   520538 
  625000      1.11161   -5.5050146   -5.5050146   -4.2944668   0.13382318   -5.5050146    1.2105478   520538 
  626000     1.110929   -5.5054026   -5.5054026   -4.2955964   0.12661561   -5.5054026    1.2098062   520538 
  627000    1.1112695     -5.50573     -5.50573    -4.295553   0.12802142     -5.50573     1.210177   520538 
  628000    1.1087224   -5.5040845   -5.5040845   -4.2966812   0.14270473   -5.5040845    1.2074033   520538 
  629000    1.1107655   -5.5073285   -5.5073285   -4.2977004   0.13447142   -5.5073285    1.2096281   520538 
  630000    1.1106756   -5.5070372   -5.5070372   -4.2975069   0.10832959   -5.5070372    1.2095302   520538 
  631000    1.1096873    -5.506399    -5.506399    -4.297945    0.1483667    -5.506399     1.208454   520538 
  632000    1.1129153   -5.5114896   -5.5114896   -4.2995203   0.11573748   -5.5114896    1.2119693   520538 
  633000    1.1097561   -5.5095807   -5.5095807   -4.3010517   0.13544671   -5.5095807     1.208529   520538 
  634000    1.1103534   -5.5106194   -5.5106194     -4.30144   0.10403258   -5.5106194    1.2091794   520538 
  635000    1.1083705   -5.5096293   -5.5096293   -4.3026093   0.13016421   -5.5096293      1.20702   520538 
  636000    1.1107292   -5.5117292   -5.5117292   -4.3021406   0.13095855   -5.5117292    1.2095886   520538 
  637000    1.1101005   -5.5112415   -5.5112415   -4.3023375   0.13567146   -5.5112415     1.208904   520538 
  638000    1.1101847   -5.5125178   -5.5125178   -4.3035221    0.1341622   -5.5125178    1.2089956   520538 
  639000    1.1079484   -5.5102009   -5.5102009   -4.3036406    0.1298135   -5.5102009    1.2065603   520538 
  640000    1.1091284   -5.5120145   -5.5120145   -4.3041691   0.13056754   -5.5120145    1.2078453   520538 
  641000    1.1082336   -5.5115437   -5.5115437   -4.3046728   0.13400277   -5.5115437    1.2068709   520538 
  642000    1.1092232    -5.512366    -5.512366   -4.3044175    0.1285674    -5.512366    1.2079485   520538 
  643000    1.1093502   -5.5120594   -5.5120594   -4.3039725   0.12347997   -5.5120594    1.2080869   520538 
  644000    1.1078659   -5.5117137   -5.5117137   -4.3052433   0.12943453   -5.5117137    1.2064705   520538 
  645000    1.1097869   -5.5143404   -5.5143404   -4.3057779   0.12805819   -5.5143404    1.2085625   520538 
  646000    1.1074124   -5.5125246   -5.5125246    -4.306548   0.12436111   -5.5125246    1.2059766   520538 
  647000    1.1087216   -5.5151384   -5.5151384   -4.3077361   0.14610415   -5.5151384    1.2074023   520538 
  648000    1.1077181   -5.5139859   -5.5139859   -4.3076764   0.12031905   -5.5139859    1.2063095   520538 
  649000    1.1081775   -5.5154953   -5.5154953   -4.3086854   0.12179779   -5.5154953    1.2068099   520538 
  650000    1.1066579   -5.5144047   -5.5144047   -4.3092498   0.12000119   -5.5144047     1.205155   520538 
  651000    1.1080532     -5.51694     -5.51694   -4.3102656    0.1230739     -5.51694    1.2066744   520538 
  652000     1.107169   -5.5158489   -5.5158489   -4.3101374   0.10419806   -5.5158489    1.2057115   520538 
  653000      1.10552   -5.5143513   -5.5143513   -4.3104355   0.11098576   -5.5143513    1.2039158   520538 
  654000    1.1083009   -5.5166847   -5.5166847   -4.3097404   0.11179979   -5.5166847    1.2069442   520538 
  655000    1.1072664   -5.5160445   -5.5160445   -4.3102269   0.13413669   -5.5160445    1.2058176   520538 
  656000    1.1087914   -5.5189268   -5.5189268   -4.3114485   0.12510836   -5.5189268    1.2074783   520538 
  657000    1.1061313   -5.5168922   -5.5168922   -4.3123107   0.12072749   -5.5168922    1.2045815   520538 
  658000    1.1084713   -5.5194383   -5.5194383   -4.3123086   0.10601197   -5.5194383    1.2071297   520538 
  659000    1.1054576   -5.5176316   -5.5176316   -4.3137838   0.13733036   -5.5176316    1.2038478   520538 
  660000    1.1064048   -5.5196097   -5.5196097   -4.3147303   0.13070204   -5.5196097    1.2048794   520538 
  661000    1.1062706   -5.5201013   -5.5201013   -4.3153682   0.12381157   -5.5201013    1.2047331   520538 
  662000    1.1063327   -5.5207122   -5.5207122   -4.3159114   0.11784617   -5.5207122    1.2048008   520538 
  663000    1.1050806   -5.5198678   -5.5198678   -4.3164305   0.12127334   -5.5198678    1.2034373   520538 
  664000    1.1047785   -5.5202662   -5.5202662    -4.317158   0.11636222   -5.5202662    1.2031082   520538 
  665000    1.1065749   -5.5223089   -5.5223089   -4.3172443   0.11151127   -5.5223089    1.2050646   520538 
  666000    1.1020028   -5.5175465   -5.5175465    -4.317461   0.11746418   -5.5175465    1.2000855   520538 
  667000    1.1035239   -5.5199916   -5.5199916   -4.3182496   0.13606133   -5.5199916     1.201742   520538 
  668000    1.1061672   -5.5240283   -5.5240283   -4.3194077   0.11999923   -5.5240283    1.2046206   520538 
  669000    1.1044402   -5.5232149   -5.5232149   -4.3204751   0.10573784   -5.5232149    1.2027399   520538 
  670000     1.102943   -5.5215792   -5.5215792   -4.3204698   0.14134132   -5.5215792    1.2011094   520538 
  671000    1.1045609   -5.5239761   -5.5239761   -4.3211047   0.11120677   -5.5239761    1.2028714   520538 
  672000    1.1035367   -5.5233362   -5.5233362   -4.3215802   0.11502231   -5.5233362    1.2017559   520538 
  673000     1.103025   -5.5234368   -5.5234368    -4.322238  0.095094957   -5.5234368    1.2011987   520538 
  674000     1.103672   -5.5243019   -5.5243019   -4.3223986   0.11073723   -5.5243019    1.2019033   520538 
  675000    1.1042337   -5.5250536   -5.5250536   -4.3225386   0.11656486   -5.5250536     1.202515   520538 
  676000    1.1030755   -5.5245222   -5.5245222   -4.3232685   0.14427959   -5.5245222    1.2012537   520538 
  677000    1.1046225   -5.5262123   -5.5262123   -4.3232739   0.13159873   -5.5262123    1.2029384   520538 
  678000    1.1032024   -5.5254647   -5.5254647   -4.3240727   0.11982545   -5.5254647     1.201392   520538 
  679000    1.1055992   -5.5284563   -5.5284563   -4.3244542   0.14372121   -5.5284563    1.2040021   520538 
  680000    1.1040978   -5.5278643   -5.5278643   -4.3254974   0.12220959   -5.5278643     1.202367   520538 
  681000    1.1037257   -5.5285959   -5.5285959   -4.3266341   0.14683228   -5.5285959    1.2019618   520538 
  682000    1.1024836   -5.5282505   -5.5282505   -4.3276414   0.12715856   -5.5282505    1.2006091   520538 
  683000    1.1019535   -5.5285312   -5.5285312   -4.3284994   0.11812287   -5.5285312    1.2000318   520538 
  684000      1.10117   -5.5281692   -5.5281692   -4.3289905   0.10524094   -5.5281692    1.1991787   520538 
  685000    1.0998684   -5.5266537   -5.5266537   -4.3288925  0.097093186   -5.5266537    1.1977612   520538 
  686000    1.1011933   -5.5285947   -5.5285947   -4.3293908   0.10058801   -5.5285947     1.199204   520538 
  687000    1.1003121   -5.5278756   -5.5278756   -4.3296312   0.11642354   -5.5278756    1.1982444   520538 
  688000    1.1003124   -5.5280643   -5.5280643   -4.3298196   0.12555149   -5.5280643    1.1982447   520538 
  689000    1.0992477   -5.5279343   -5.5279343   -4.3308491    0.1062218   -5.5279343    1.1970852   520538 
  690000    1.0998539   -5.5290896   -5.5290896   -4.3313443   0.12646885   -5.5290896    1.1977454   520538 
  691000    1.0998198   -5.5290684   -5.5290684   -4.3313601   0.11253369   -5.5290684    1.1977083   520538 
  692000    1.1000854   -5.5307605   -5.5307605   -4.3327631    0.1175073   -5.5307605    1.1979974   520538 
  693000    1.1012534   -5.5324749   -5.5324749   -4.3332055   0.10240689   -5.5324749    1.1992694   520538 
  694000    1.1010765   -5.5325159   -5.5325159   -4.3334391   0.12768982   -5.5325159    1.1990768   520538 
  695000    1.1006299   -5.5328186   -5.5328186   -4.3342282   0.12816049   -5.5328186    1.1985905   520538 
  696000    1.1015138   -5.5346001   -5.5346001   -4.3350471      0.11049   -5.5346001     1.199553   520538 
  697000    1.1012464   -5.5342953   -5.5342953   -4.3350335   0.11403493   -5.5342953    1.1992618   520538 
  698000    1.0989918   -5.5320044   -5.5320044   -4.3351979   0.13624072   -5.5320044    1.1968065   520538 
  699000    1.1007738   -5.5339783   -5.5339783   -4.3352312   0.13944369   -5.5339783    1.1987471   520538 
  700000    1.0999589   -5.5335231   -5.5335231   -4.3356634   0.11324812   -5.5335231    1.1978597   520538 
  701000    1.1001336   -5.5349203   -5.5349203   -4.3368703   0.11238409   -5.5349203      1.19805   520538 
  702000    1.1021213   -5.5371886   -5.5371886    -4.336974   0.13056754   -5.5371886    1.2002146   520538 
  703000    1.1011855   -5.5371243   -5.5371243   -4.3379288   0.10475373   -5.5371243    1.1991955   520538 
  704000    1.1002526   -5.5358602   -5.5358602   -4.3376806   0.14458528   -5.5358602    1.1981796   520538 
  705000    1.1005146   -5.5365479   -5.5365479   -4.3380831   0.13085061   -5.5365479    1.1984648   520538 
  706000    1.0998888   -5.5359894   -5.5359894    -4.338206  0.095660373   -5.5359894    1.1977833   520538 
  707000    1.1005627   -5.5378223   -5.5378223   -4.3393051   0.12742256   -5.5378223    1.1985172   520538 
  708000    1.1001393   -5.5378674   -5.5378674   -4.3398112   0.11360405   -5.5378674    1.1980562   520538 
  709000    1.1005252   -5.5387304   -5.5387304    -4.340254   0.11424248   -5.5387304    1.1984764   520538 
  710000    1.0993853   -5.5379123   -5.5379123   -4.3406772   0.12624019   -5.5379123    1.1972351   520538 
  711000    1.0994802   -5.5383286   -5.5383286   -4.3409902   0.11113631   -5.5383286    1.1973384   520538 
  712000    1.0987869   -5.5382253   -5.5382253   -4.3416419   0.11885709   -5.5382253    1.1965834   520538 
  713000    1.0985411   -5.5381609   -5.5381609   -4.3418451   0.12739423   -5.5381609    1.1963157   520538 
  714000    1.1006695   -5.5419858   -5.5419858   -4.3433523   0.13311876   -5.5419858    1.1986336   520538 
  715000     1.096187   -5.5375955   -5.5375955   -4.3438435   0.13378113   -5.5375955    1.1937521   520538 
  716000    1.0989348   -5.5403651   -5.5403651   -4.3436206   0.11151974   -5.5403651    1.1967445   520538 
  717000    1.0998193   -5.5419203   -5.5419203   -4.3442126   0.12962712   -5.5419203    1.1977077   520538 
  718000    1.0979606   -5.5406537   -5.5406537   -4.3449701   0.11110038   -5.5406537    1.1956836   520538 
  719000    1.0962801   -5.5403968   -5.5403968   -4.3465434   0.11345319   -5.5403968    1.1938534   520538 
  720000    1.0958131   -5.5401293   -5.5401293   -4.3467843   0.10284555   -5.5401293     1.193345   520538 
  721000     1.096385   -5.5413547   -5.5413547    -4.347387   0.12095021   -5.5413547    1.1939677   520538 
  722000    1.0982423   -5.5435835   -5.5435835   -4.3475932   0.11980941   -5.5435835    1.1959903   520538 
  723000    1.0968393   -5.5424151   -5.5424151   -4.3479527   0.12065569   -5.5424151    1.1944624   520538 
  724000    1.0961426   -5.5429757   -5.5429757    -4.349272   0.13991442   -5.5429757    1.1937037   520538 
  725000    1.0967538   -5.5432817   -5.5432817   -4.3489124   0.13583269   -5.5432817    1.1943693   520538 
  726000    1.0961178   -5.5430933   -5.5430933   -4.3494165   0.11197693   -5.5430933    1.1936768   520538 
  727000    1.0959917   -5.5431042   -5.5431042   -4.3495648   0.12495415   -5.5431042    1.1935394   520538 
  728000    1.0960095    -5.544962    -5.544962   -4.3514033   0.14301365    -5.544962    1.1935588   520538 
  729000    1.0967761   -5.5463243   -5.5463243   -4.3519307   0.10183395   -5.5463243    1.1943936   520538 
  730000    1.0956284   -5.5456238   -5.5456238     -4.35248   0.13182782   -5.5456238    1.1931438   520538 
  731000    1.0950849   -5.5445075   -5.5445075   -4.3519556   0.12770166   -5.5445075    1.1925519   520538 
  732000    1.0965601   -5.5459382   -5.5459382   -4.3517797   0.13250431   -5.5459382    1.1941585   520538 
  733000    1.0958789   -5.5462789   -5.5462789   -4.3528624   0.11528974   -5.5462789    1.1934165   520538 
  734000    1.0952734   -5.5459604   -5.5459604   -4.3532033   0.12521456   -5.5459604    1.1927572   520538 
  735000    1.0973071   -5.5480301   -5.5480301   -4.3530583   0.13290095   -5.5480301    1.1949719   520538 
  736000    1.0939613   -5.5451277   -5.5451277   -4.3537994   0.11259471   -5.5451277    1.1913283   520538 
  737000    1.0927694   -5.5449325   -5.5449325   -4.3549022   0.13155573   -5.5449325    1.1900303   520538 
  738000    1.0943953   -5.5477627   -5.5477627   -4.3559618  0.096699837   -5.5477627     1.191801   520538 
  739000    1.0939614   -5.5478174   -5.5478174    -4.356489   0.10197146   -5.5478174    1.1913284   520538 
  740000    1.0950176   -5.5496677   -5.5496677    -4.357189   0.12851065   -5.5496677    1.1924787   520538 
  741000    1.0946192   -5.5490387   -5.5490387    -4.356994   0.13339558   -5.5490387    1.1920447   520538 
  742000    1.0928242   -5.5476781   -5.5476781   -4.3575881   0.11309299   -5.5476781      1.19009   520538 
  743000     1.094063   -5.5503709   -5.5503709   -4.3589319  0.092880625   -5.5503709    1.1914391   520538 
  744000    1.0941074   -5.5500933   -5.5500933   -4.3586059   0.12168606   -5.5500933    1.1914874   520538 
  745000     1.094889   -5.5526852   -5.5526852   -4.3603466   0.10009279   -5.5526852    1.1923386   520538 
  746000     1.093646   -5.5512817   -5.5512817   -4.3602968   0.12743799   -5.5512817     1.190985   520538 
  747000    1.0949259   -5.5530444   -5.5530444   -4.3606656   0.11253268   -5.5530444    1.1923787   520538 
  748000    1.0936709   -5.5517298   -5.5517298   -4.3607177   0.11424566   -5.5517298    1.1910121   520538 
  749000     1.093236   -5.5514253   -5.5514253   -4.3608869   0.12175189   -5.5514253    1.1905385   520538 
  750000    1.0938759    -5.552493    -5.552493   -4.3612577   0.11597931    -5.552493    1.1912353   520538 
  751000    1.0941554    -5.553655    -5.553655   -4.3621153      0.10302    -5.553655    1.1915397   520538 
  752000    1.0956275   -5.5553473   -5.5553473   -4.3622044   0.12725505   -5.5553473    1.1931428   520538 
  753000     1.092524   -5.5533053   -5.5533053   -4.3635422   0.13413362   -5.5533053    1.1897631   520538 
  754000    1.0936583   -5.5553227   -5.5553227   -4.3643244   0.12561603   -5.5553227    1.1909983   520538 
  755000     1.092839   -5.5542801   -5.5542801    -4.364174  0.092236614   -5.5542801    1.1901062   520538 
  756000     1.091869   -5.5538014   -5.5538014   -4.3647516   0.13895064   -5.5538014    1.1890498   520538 
  757000    1.0919259   -5.5544189   -5.5544189   -4.3653071   0.12865158   -5.5544189    1.1891118   520538 
  758000    1.0919944   -5.5553642   -5.5553642   -4.3661778   0.12686316   -5.5553642    1.1891864   520538 
  759000    1.0926392   -5.5560204   -5.5560204   -4.3661319   0.11103158   -5.5560204    1.1898885   520538 
  760000    1.0905266   -5.5535449   -5.5535449   -4.3659571   0.11166058   -5.5535449    1.1875879   520538 
  761000    1.0912404   -5.5540543   -5.5540543   -4.3656891    0.1290306   -5.5540543    1.1883652   520538 
  762000    1.0914735   -5.5538897   -5.5538897   -4.3652705   0.11727214   -5.5538897    1.1886191   520538 
  763000    1.0893757   -5.5529616   -5.5529616    -4.366627   0.12058146   -5.5529616    1.1863346   520538 
  764000    1.0905276   -5.5549605   -5.5549605   -4.3673715   0.10986314   -5.5549605     1.187589   520538 
  765000     1.091194   -5.5561086   -5.5561086   -4.3677939    0.1370599   -5.5561086    1.1883147   520538 
  766000    1.0919169   -5.5571659   -5.5571659    -4.368064  0.095137815   -5.5571659    1.1891019   520538 
  767000    1.0895025    -5.554696    -5.554696   -4.3682233  0.087504071    -5.554696    1.1864727   520538 
  768000    1.0905574   -5.5569294   -5.5569294    -4.369308  0.096938096   -5.5569294    1.1876215   520538 
  769000    1.0897211   -5.5561888   -5.5561888   -4.3694781  0.093850563   -5.5561888    1.1867107   520538 
  770000    1.0890359   -5.5567157   -5.5567157   -4.3707511   0.12047811   -5.5567157    1.1859645   520538 
  771000    1.0888538    -5.558091    -5.558091   -4.3723247   0.11552394    -5.558091    1.1857663   520538 
  772000    1.0874101   -5.5563399   -5.5563399   -4.3721459  0.089822739   -5.5563399     1.184194   520538 
  773000    1.0886266   -5.5580449   -5.5580449   -4.3725261   0.11179692   -5.5580449    1.1855188   520538 
  774000    1.0868158   -5.5558787   -5.5558787   -4.3723318   0.13081815   -5.5558787    1.1835468   520538 
  775000    1.0899497   -5.5600293   -5.5600293   -4.3730697   0.11003687   -5.5600293    1.1869596   520538 
  776000    1.0893859   -5.5611633   -5.5611633   -4.3748176   0.11629039   -5.5611633    1.1863457   520538 
  777000    1.0892599   -5.5618957   -5.5618957   -4.3756872   0.12519447   -5.5618957    1.1862085   520538 
  778000    1.0870853   -5.5604282   -5.5604282   -4.3765879   0.12726433   -5.5604282    1.1838403   520538 
  779000    1.0909529   -5.5642946   -5.5642946   -4.3762424   0.12580177   -5.5642946    1.1880522   520538 
  780000    1.0885377   -5.5617088   -5.5617088   -4.3762869   0.11589912   -5.5617088    1.1854219   520538 
  781000    1.0882664   -5.5622856   -5.5622856    -4.377159   0.13281132   -5.5622856    1.1851266   520538 
  782000     1.091567   -5.5659347   -5.5659347   -4.3772138  0.092531492   -5.5659347    1.1887209   520538 
  783000    1.0885545     -5.56314     -5.56314   -4.3776997    0.1055627     -5.56314    1.1854403   520538 
  784000    1.0881125   -5.5627976   -5.5627976   -4.3778387   0.15112275   -5.5627976    1.1849589   520538 
  785000    1.0886663   -5.5632349   -5.5632349   -4.3776728   0.13281703   -5.5632349     1.185562   520538 
  786000    1.0915833   -5.5663508   -5.5663508   -4.3776121  0.086487255   -5.5663508    1.1887386   520538 
  787000    1.0890761   -5.5638751   -5.5638751   -4.3778668   0.10408492   -5.5638751    1.1860083   520538 
  788000    1.0883843   -5.5649205   -5.5649205   -4.3796656   0.10233813   -5.5649205    1.1852549   520538 
  789000    1.0877835   -5.5656543   -5.5656543   -4.3810536   0.13527939   -5.5656543    1.1846006   520538 
  790000    1.0885336    -5.566961    -5.566961   -4.3815435   0.10543779    -5.566961    1.1854175   520538 
  791000     1.088031   -5.5664848   -5.5664848   -4.3816146   0.10844516   -5.5664848    1.1848702   520538 
  792000    1.0875768   -5.5657826   -5.5657826   -4.3814071   0.13038217   -5.5657826    1.1843755   520538 
  793000    1.0873268   -5.5671321   -5.5671321   -4.3830287   0.11227938   -5.5671321    1.1841034   520538 
  794000    1.0876284   -5.5678572   -5.5678572   -4.3834254   0.12846189   -5.5678572    1.1844318   520538 
  795000    1.0874118   -5.5663516   -5.5663516   -4.3821557   0.12980284   -5.5663516    1.1841959   520538 
  796000    1.0880577   -5.5670017   -5.5670017   -4.3821025   0.09937209   -5.5670017    1.1848992   520538 
  797000    1.0889048   -5.5681181   -5.5681181   -4.3822963   0.11906734   -5.5681181    1.1858217   520538 
  798000    1.0876236   -5.5674041   -5.5674041   -4.3829776   0.12666445   -5.5674041    1.1844265   520538 
  799000    1.0859763   -5.5675204   -5.5675204   -4.3848878   0.11395786   -5.5675204    1.1826326   520538 
  800000    1.0850461   -5.5672575   -5.5672575   -4.3856379   0.13517665   -5.5672575    1.1816196   520538 
  801000    1.0858177   -5.5673624   -5.5673624   -4.3849025   0.11545362   -5.5673624    1.1824599   520538 
  802000    1.0870046   -5.5692381   -5.5692381   -4.3854857   0.10848818   -5.5692381    1.1837524   520538 
  803000     1.087164   -5.5705201   -5.5705201   -4.3865941   0.11549069   -5.5705201     1.183926   520538 
  804000    1.0880773   -5.5713464   -5.5713464   -4.3864258   0.10677322   -5.5713464    1.1849206   520538 
  805000    1.0865328   -5.5704128   -5.5704128   -4.3871741  0.095886285   -5.5704128    1.1832386   520538 
  806000    1.0866166   -5.5704554   -5.5704554   -4.3871255  0.095999155   -5.5704554    1.1833299   520538 
  807000    1.0852596   -5.5701337   -5.5701337   -4.3882816   0.14157674   -5.5701337    1.1818521   520538 
  808000    1.0844158   -5.5702319   -5.5702319   -4.3892987    0.1026514   -5.5702319    1.1809332   520538 
  809000    1.0840072   -5.5705466   -5.5705466   -4.3900584  0.099403153   -5.5705466    1.1804883   520538 
  810000    1.0830051   -5.5701597   -5.5701597   -4.3907627  0.093222884   -5.5701597     1.179397   520538 
  811000    1.0868299   -5.5741369   -5.5741369   -4.3905747   0.12413503   -5.5741369    1.1835622   520538 
  812000    1.0844132   -5.5726402   -5.5726402   -4.3917098   0.11127895   -5.5726402    1.1809304   520538 
  813000    1.0849448   -5.5733587   -5.5733587   -4.3918494   0.13170997   -5.5733587    1.1815093   520538 
  814000    1.0842414   -5.5736104   -5.5736104   -4.3928671   0.11309842   -5.5736104    1.1807433   520538 
  815000    1.0838753   -5.5741736   -5.5741736   -4.3938291  0.082760954   -5.5741736    1.1803446   520538 
  816000    1.0843883   -5.5741306   -5.5741306   -4.3932273   0.10130219   -5.5741306    1.1809033   520538 
  817000    1.0833836    -5.573656    -5.573656   -4.3938469  0.098348894    -5.573656    1.1798091   520538 
  818000    1.0842771    -5.574276    -5.574276   -4.3934937   0.11932533    -5.574276    1.1807822   520538 
  819000    1.0822331   -5.5727505   -5.5727505   -4.3941943   0.11476134   -5.5727505    1.1785563   520538 
  820000    1.0839179   -5.5751502   -5.5751502   -4.3947592   0.11445973   -5.5751502     1.180391   520538 
  821000    1.0850544   -5.5763953   -5.5763953   -4.3947667   0.10407266   -5.5763953    1.1816287   520538 
  822000    1.0828283   -5.5750602   -5.5750602   -4.3958558   0.11380584   -5.5750602    1.1792044   520538 
  823000    1.0839485   -5.5774473   -5.5774473    -4.397023   0.11551674   -5.5774473    1.1804243   520538 
  824000    1.0833479   -5.5758166   -5.5758166   -4.3960463   0.10362438   -5.5758166    1.1797702   520538 
  825000    1.0845813   -5.5777718   -5.5777718   -4.3966583  0.098977331   -5.5777718    1.1811135   520538 
  826000    1.0826496   -5.5752439   -5.5752439   -4.3962341   0.10183924   -5.5752439    1.1790098   520538 
  827000    1.0829826    -5.576426    -5.576426   -4.3970535  0.099476485    -5.576426    1.1793725   520538 
  828000     1.082151    -5.576158    -5.576158   -4.3976912   0.10267736    -5.576158    1.1784668   520538 
  829000    1.0853797   -5.5805648   -5.5805648   -4.3985818  0.099370754   -5.5805648     1.181983   520538 
  830000     1.084391   -5.5785796   -5.5785796   -4.3976734   0.11239568   -5.5785796    1.1809062   520538 
  831000    1.0851463   -5.5799085   -5.5799085   -4.3981798   0.12135556   -5.5799085    1.1817287   520538 
  832000     1.083757   -5.5787017   -5.5787017   -4.3984859   0.10835753   -5.5787017    1.1802158   520538 
  833000    1.0825453   -5.5789498   -5.5789498   -4.4000536  0.094232142   -5.5789498    1.1788962   520538 
  834000    1.0833915   -5.5802292   -5.5802292   -4.4004114   0.10757215   -5.5802292    1.1798178   520538 
  835000    1.0829248   -5.5796893   -5.5796893   -4.4003798   0.10676588   -5.5796893    1.1793095   520538 
  836000    1.0830158   -5.5804785   -5.5804785   -4.4010698   0.09808278   -5.5804785    1.1794086   520538 
  837000    1.0829942   -5.5809718   -5.5809718   -4.4015866   0.11363392   -5.5809718    1.1793851   520538 
  838000    1.0838782   -5.5820638   -5.5820638    -4.401716   0.10356503   -5.5820638    1.1803478   520538 
  839000    1.0828648   -5.5807391   -5.5807391   -4.4014949  0.093675265   -5.5807391    1.1792441   520538 
  840000    1.0823016   -5.5800428   -5.5800428   -4.4014119   0.13353086   -5.5800428    1.1786309   520538 
  841000    1.0817834   -5.5803679   -5.5803679   -4.4023013    0.1114276   -5.5803679    1.1780665   520538 
  842000    1.0814833   -5.5805933   -5.5805933   -4.4028536   0.11359015   -5.5805933    1.1777397   520538 
  843000      1.08179   -5.5813935   -5.5813935   -4.4033198  0.096183129   -5.5813935    1.1780737   520538 
  844000    1.0821758   -5.5824493   -5.5824493   -4.4039555   0.11138932   -5.5824493    1.1784938   520538 
  845000    1.0822141   -5.5834304   -5.5834304   -4.4048948   0.11329807   -5.5834304    1.1785356   520538 
  846000    1.0831736   -5.5847257   -5.5847257   -4.4051452   0.10566581   -5.5847257    1.1795805   520538 
  847000    1.0843377   -5.5846873   -5.5846873   -4.4038392   0.11777816   -5.5846873    1.1808481   520538 
  848000    1.0818947   -5.5825718   -5.5825718   -4.4043841   0.12651615   -5.5825718    1.1781877   520538 
  849000    1.0815432   -5.5822713   -5.5822713   -4.4044663    0.1054685   -5.5822713     1.177805   520538 
  850000    1.0808272   -5.5819416   -5.5819416   -4.4049164  0.085379878   -5.5819416    1.1770252   520538 
  851000    1.0792696   -5.5811082   -5.5811082   -4.4057792   0.10023483   -5.5811082     1.175329   520538 
  852000    1.0820284   -5.5847197   -5.5847197   -4.4063863   0.10408348   -5.5847197    1.1783333   520538 
  853000    1.0814443   -5.5845326   -5.5845326   -4.4068354   0.11339817   -5.5845326    1.1776972   520538 
  854000    1.0832609   -5.5873159   -5.5873159   -4.4076404   0.12755368   -5.5873159    1.1796755   520538 
  855000    1.0820095    -5.586806    -5.586806   -4.4084933   0.10408771    -5.586806    1.1783127   520538 
  856000    1.0801415   -5.5849697   -5.5849697   -4.4086913   0.10173362   -5.5849697    1.1762784   520538 
  857000    1.0817578   -5.5866648   -5.5866648   -4.4086262   0.10524991   -5.5866648    1.1780386   520538 
  858000    1.0815645   -5.5875958   -5.5875958   -4.4097677   0.11689111   -5.5875958    1.1778281   520538 
  859000    1.0826586   -5.5893926   -5.5893926   -4.4103729    0.1025025   -5.5893926    1.1790196   520538 
  860000    1.0799684   -5.5878231   -5.5878231   -4.4117332   0.13722015   -5.5878231      1.17609   520538 
  861000     1.080848   -5.5890977   -5.5890977   -4.4120498  0.093844498   -5.5890977    1.1770479   520538 
  862000    1.0805281   -5.5888187   -5.5888187   -4.4121192  0.094057896   -5.5888187    1.1766995   520538 
  863000    1.0786582   -5.5865175   -5.5865175   -4.4118543    0.1127608   -5.5865175    1.1746631   520538 
  864000    1.0811039   -5.5894806   -5.5894806   -4.4121541   0.11416239   -5.5894806    1.1773265   520538 
  865000    1.0790621   -5.5871381   -5.5871381    -4.412035   0.12315584   -5.5871381    1.1751031   520538 
  866000    1.0803794   -5.5894463   -5.5894463   -4.4129087  0.095714048   -5.5894463    1.1765376   520538 
  867000    1.0832257   -5.5928599   -5.5928599   -4.4132227    0.1237266   -5.5928599    1.1796372   520538 
  868000     1.080059   -5.5906728   -5.5906728   -4.4144842   0.11026447   -5.5906728    1.1761886   520538 
  869000    1.0807422    -5.592418    -5.592418   -4.4154854  0.097777841    -5.592418    1.1769326   520538 
  870000    1.0805931   -5.5929473   -5.5929473    -4.416177    0.1156563   -5.5929473    1.1767703   520538 
  871000    1.0793983   -5.5918143   -5.5918143   -4.4163451  0.098270639   -5.5918143    1.1754692   520538 
  872000    1.0768852   -5.5876386   -5.5876386   -4.4149063   0.11299221   -5.5876386    1.1727323   520538 
  873000    1.0813421   -5.5931646   -5.5931646   -4.4155787   0.10635409   -5.5931646    1.1775859   520538 
  874000    1.0772921   -5.5891309   -5.5891309   -4.4159555   0.12091639   -5.5891309    1.1731754   520538 
  875000    1.0770469   -5.5881546   -5.5881546   -4.4152461  0.092304837   -5.5881546    1.1729085   520538 
  876000    1.0770527   -5.5887136   -5.5887136   -4.4157988   0.10499616   -5.5887136    1.1729148   520538 
  877000    1.0764577   -5.5882342   -5.5882342   -4.4159673   0.12994694   -5.5882342    1.1722668   520538 
  878000    1.0788058   -5.5908482   -5.5908482   -4.4160242   0.11352442   -5.5908482    1.1748239   520538 
  879000    1.0770181   -5.5898709   -5.5898709   -4.4169938   0.10726968   -5.5898709    1.1728771   520538 
  880000    1.0786335   -5.5911091   -5.5911091   -4.4164728   0.11858804   -5.5911091    1.1746363   520538 
  881000    1.0787874    -5.591992    -5.591992   -4.4171881   0.12410467    -5.591992    1.1748039   520538 
  882000    1.0775948   -5.5919684   -5.5919684   -4.4184634  0.094354327   -5.5919684    1.1735051   520538 
  883000    1.0783366   -5.5921174   -5.5921174   -4.4178045   0.11228291   -5.5921174    1.1743129   520538 
  884000    1.0777351   -5.5922438   -5.5922438   -4.4185859  0.073942545   -5.5922438    1.1736579   520538 
  885000    1.0797939    -5.595148    -5.595148    -4.419248  0.089783084    -5.595148    1.1758999   520538 
  886000     1.078573   -5.5942438   -5.5942438   -4.4196734   0.11250618   -5.5942438    1.1745704   520538 
  887000    1.0774613   -5.5934414   -5.5934414   -4.4200816    0.1097323   -5.5934414    1.1733598   520538 
  888000    1.0787543   -5.5949078   -5.5949078     -4.42014   0.10273946   -5.5949078    1.1747678   520538 
  889000    1.0791665   -5.5959946   -5.5959946   -4.4207779   0.11774078   -5.5959946    1.1752167   520538 
  890000    1.0800837   -5.5973545   -5.5973545    -4.421139   0.11935727   -5.5973545    1.1762155   520538 
  891000    1.0800828   -5.5972348   -5.5972348   -4.4210202   0.11733697   -5.5972348    1.1762145   520538 
  892000    1.0772378   -5.5951032   -5.5951032   -4.4219869   0.10629739   -5.5951032    1.1731163   520538 
  893000    1.0779647   -5.5964797   -5.5964797   -4.4225717   0.12659585   -5.5964797     1.173908   520538 
  894000     1.077594    -5.596807    -5.596807   -4.4233027   0.11352324    -5.596807    1.1735043   520538 
  895000    1.0783924   -5.5967586   -5.5967586    -4.422385   0.10279634   -5.5967586    1.1743737   520538 
  896000    1.0767812   -5.5963167   -5.5963167   -4.4236976   0.12427934   -5.5963167    1.1726191   520538 
  897000    1.0753389    -5.595631    -5.595631   -4.4245825   0.10016984    -5.595631    1.1710485   520538 
  898000    1.0770267   -5.5970445   -5.5970445   -4.4241581   0.11180227   -5.5970445    1.1728864   520538 
  899000    1.0768195   -5.5981546   -5.5981546   -4.4254938   0.11367366   -5.5981546    1.1726608   520538 
  900000    1.0781189     -5.59971     -5.59971   -4.4256342   0.11325335     -5.59971    1.1740758   520538 
  901000    1.0780784   -5.6002034   -5.6002034   -4.4261716   0.10477978   -5.6002034    1.1740318   520538 
  902000    1.0765721   -5.5988313   -5.5988313   -4.4264399  0.099680769   -5.5988313    1.1723914   520538 
  903000    1.0777205   -5.6003332   -5.6003332   -4.4266912   0.11136605   -5.6003332     1.173642   520538 
  904000    1.0760809   -5.5986609   -5.5986609   -4.4268044   0.12891378   -5.5986609    1.1718565   520538 
  905000    1.0771652   -5.6004458   -5.6004458   -4.4274085   0.12234262   -5.6004458    1.1730373   520538 
  906000    1.0775449   -5.6019665   -5.6019665   -4.4285158  0.083794767   -5.6019665    1.1734507   520538 
  907000     1.076838   -5.6017594   -5.6017594   -4.4290784   0.11173223   -5.6017594     1.172681   520538 
  908000     1.077391   -5.6030299   -5.6030299   -4.4297467   0.10484611   -5.6030299    1.1732832   520538 
  909000    1.0764299   -5.6026588   -5.6026588   -4.4304223   0.11196396   -5.6026588    1.1722366   520538 
  910000    1.0745203   -5.6010261   -5.6010261   -4.4308691  0.097809265   -5.6010261     1.170157   520538 
  911000    1.0764868   -5.6032171   -5.6032171   -4.4309186  0.083799655   -5.6032171    1.1722985   520538 
  912000    1.0756493   -5.6018829   -5.6018829   -4.4304964   0.11627531   -5.6018829    1.1713865   520538 
  913000    1.0765795   -5.6035194   -5.6035194   -4.4311199   0.12795603   -5.6035194    1.1723995   520538 
  914000    1.0758919   -5.6031092   -5.6031092   -4.4314586   0.10601052   -5.6031092    1.1716507   520538 
  915000    1.0746397    -5.602262    -5.602262    -4.431975   0.09584695    -5.602262     1.170287   520538 
  916000    1.0766273   -5.6045581   -5.6045581   -4.4321066   0.11124151   -5.6045581    1.1724515   520538 
  917000    1.0759809   -5.6040942   -5.6040942   -4.4323467  0.092238699   -5.6040942    1.1717475   520538 
  918000    1.0741712   -5.6024708   -5.6024708    -4.432694   0.10481161   -5.6024708    1.1697768   520538 
  919000    1.0767215   -5.6061376   -5.6061376   -4.4335835  0.094020375   -5.6061376    1.1725541   520538 
  920000    1.0759391   -5.6053385   -5.6053385   -4.4336365  0.093780981   -5.6053385     1.171702   520538 
  921000    1.0742114   -5.6035593   -5.6035593   -4.4337387   0.10479939   -5.6035593    1.1698206   520538 
  922000    1.0748074   -5.6043073   -5.6043073   -4.4338378   0.10562309   -5.6043073    1.1704696   520538 
  923000    1.0741312   -5.6041802   -5.6041802   -4.4344469   0.11600289   -5.6041802    1.1697332   520538 
  924000    1.0748722   -5.6047858   -5.6047858   -4.4342457  0.098796582   -5.6047858    1.1705402   520538 
  925000     1.074874    -5.605082    -5.605082   -4.4345398   0.11241138    -5.605082    1.1705422   520538 
  926000    1.0739066   -5.6050675   -5.6050675   -4.4355789   0.11843714   -5.6050675    1.1694886   520538 
  927000    1.0757011   -5.6077269   -5.6077269    -4.436284   0.09691095   -5.6077269    1.1714429   520538 
  928000    1.0730656   -5.6049842   -5.6049842   -4.4364114  0.089396563   -5.6049842    1.1685728   520538 
  929000    1.0738572   -5.6059562   -5.6059562   -4.4365213   0.11539859   -5.6059562    1.1694349   520538 
  930000    1.0745589   -5.6063854   -5.6063854   -4.4361864    0.1149028   -5.6063854     1.170199   520538 
  931000    1.0741093   -5.6068939   -5.6068939   -4.4371845  0.082263478   -5.6068939    1.1697094   520538 
  932000    1.0733575   -5.6053954   -5.6053954   -4.4365047   0.10321969   -5.6053954    1.1688907   520538 
  933000    1.0744792   -5.6073725   -5.6073725   -4.4372602  0.086200176   -5.6073725    1.1701123   520538 
  934000    1.0745075   -5.6066327   -5.6066327   -4.4364897  0.099212775   -5.6066327     1.170143   520538 
  935000    1.0727289   -5.6064712   -5.6064712    -4.438265   0.12622079   -5.6064712    1.1682061   520538 
  936000    1.0740157   -5.6092928   -5.6092928   -4.4396854  0.081062259   -5.6092928    1.1696075   520538 
  937000    1.0728146   -5.6075086   -5.6075086   -4.4392092   0.11751857   -5.6075086    1.1682994   520538 
  938000    1.0750853    -5.610176    -5.610176   -4.4394037  0.092815372    -5.610176    1.1707723   520538 
  939000    1.0748199   -5.6101708   -5.6101708   -4.4396876    0.1022873   -5.6101708    1.1704832   520538 
  940000    1.0720462   -5.6076658   -5.6076658   -4.4402031  0.077755103   -5.6076658    1.1674627   520538 
  941000    1.0734719   -5.6087195   -5.6087195   -4.4397042   0.10002908   -5.6087195    1.1690153   520538 
  942000    1.0706154   -5.6063333   -5.6063333   -4.4404288   0.11232785   -5.6063333    1.1659045   520538 
  943000    1.0728959    -5.609341    -5.609341    -4.440953  0.087075266    -5.609341     1.168388   520538 
  944000    1.0730335   -5.6092167   -5.6092167   -4.4406789  0.065926943   -5.6092167    1.1685379   520538 
  945000    1.0717532   -5.6089407   -5.6089407   -4.4417971    0.1288929   -5.6089407    1.1671435   520538 
  946000    1.0736521   -5.6110157   -5.6110157   -4.4418042   0.10909636   -5.6110157    1.1692115   520538 
  947000    1.0741427   -5.6121033   -5.6121033   -4.4423575  0.093578879   -5.6121033    1.1697458   520538 
  948000    1.0725225   -5.6103408   -5.6103408   -4.4423595   0.10140909   -5.6103408    1.1679813   520538 
  949000    1.0704527   -5.6084188   -5.6084188   -4.4426915  0.091029987   -5.6084188    1.1657273   520538 
  950000    1.0722177   -5.6107532   -5.6107532   -4.4431038  0.098865269   -5.6107532    1.1676494   520538 
  951000    1.0728573   -5.6113665   -5.6113665   -4.4430205   0.11309473   -5.6113665     1.168346   520538 
  952000    1.0714208   -5.6098567   -5.6098567   -4.4430751  0.090831814   -5.6098567    1.1667816   520538 
  953000    1.0725604   -5.6107403   -5.6107403   -4.4427176  0.090671101   -5.6107403    1.1680226   520538 
  954000    1.0706409   -5.6104272   -5.6104272   -4.4444949   0.10816774   -5.6104272    1.1659323   520538 
  955000    1.0716875   -5.6124445   -5.6124445   -4.4453724   0.11463228   -5.6124445     1.167072   520538 
  956000    1.0725123   -5.6128622   -5.6128622    -4.444892   0.10042359   -5.6128622    1.1679702   520538 
  957000    1.0727788   -5.6130682   -5.6130682   -4.4448078   0.10057161   -5.6130682    1.1682604   520538 
  958000    1.0728055   -5.6139913   -5.6139913   -4.4457017  0.086635318   -5.6139913    1.1682896   520538 
  959000    1.0724951   -5.6144843   -5.6144843   -4.4465327  0.077957508   -5.6144843    1.1679516   520538 
  960000    1.0725245   -5.6152633   -5.6152633   -4.4472797   0.10253117   -5.6152633    1.1679836   520538 
  961000    1.0734749   -5.6151084   -5.6151084   -4.4460899  0.098941116   -5.6151084    1.1690185   520538 
  962000    1.0733738   -5.6149041   -5.6149041   -4.4459956  0.097588157   -5.6149041    1.1689085   520538 
  963000    1.0737913   -5.6153217   -5.6153217   -4.4459586   0.11246575   -5.6153217     1.169363   520538 
  964000    1.0710072   -5.6132761   -5.6132761   -4.4469448   0.11648335   -5.6132761    1.1663313   520538 
  965000     1.070518   -5.6136432   -5.6136432   -4.4478447  0.092629388   -5.6136432    1.1657985   520538 
  966000    1.0716937   -5.6158351   -5.6158351   -4.4487563  0.090851581   -5.6158351    1.1670788   520538 
  967000    1.0719587   -5.6161299   -5.6161299   -4.4487625   0.10584384   -5.6161299    1.1673674   520538 
  968000     1.073176   -5.6171744   -5.6171744   -4.4484814  0.085381424   -5.6171744    1.1686931   520538 
  969000    1.0733429   -5.6185459   -5.6185459   -4.4496711   0.10479454   -5.6185459    1.1688748   520538 
  970000    1.0716998   -5.6171899   -5.6171899   -4.4501045   0.10211961   -5.6171899    1.1670854   520538 
  971000    1.0717719   -5.6172185   -5.6172185   -4.4500546  0.084141238   -5.6172185    1.1671639   520538 
  972000    1.0701956   -5.6160249   -5.6160249   -4.4505776   0.11731724   -5.6160249    1.1654473   520538 
  973000    1.0723354   -5.6191095   -5.6191095   -4.4513319   0.10383277   -5.6191095    1.1677776   520538 
  974000    1.0719393   -5.6175125   -5.6175125   -4.4501662  0.099758518   -5.6175125    1.1673463   520538 
  975000    1.0717014   -5.6177287   -5.6177287   -4.4506415  0.094810972   -5.6177287    1.1670872   520538 
  976000    1.0708377    -5.618487    -5.618487   -4.4523405   0.11526698    -5.618487    1.1661466   520538 
  977000    1.0699682   -5.6175343   -5.6175343   -4.4523345   0.09050666   -5.6175343    1.1651998   520538 
  978000    1.0694204   -5.6179549   -5.6179549   -4.4533518  0.096181935   -5.6179549    1.1646031   520538 
  979000    1.0704197   -5.6190776   -5.6190776   -4.4533862  0.087639062   -5.6190776    1.1656914   520538 
  980000    1.0671699    -5.616459    -5.616459   -4.4543066  0.081541095    -5.616459    1.1621524   520538 
  981000    1.0683174   -5.6186517   -5.6186517   -4.4552498  0.098012641   -5.6186517    1.1634019   520538 
  982000    1.0678882    -5.617922    -5.617922   -4.4549874   0.10209231    -5.617922    1.1629346   520538 
  983000    1.0708059   -5.6208344   -5.6208344   -4.4547224  0.096673438   -5.6208344     1.166112   520538 
  984000    1.0695525   -5.6193372   -5.6193372   -4.4545902  0.085053174   -5.6193372     1.164747   520538 
  985000    1.0683981     -5.61845     -5.61845   -4.4549601   0.10140927     -5.61845    1.1634899   520538 
  986000    1.0679013   -5.6184147   -5.6184147   -4.4554658  0.067857277   -5.6184147    1.1629489   520538 
  987000    1.0689953   -5.6205657   -5.6205657   -4.4564255  0.082685877   -5.6205657    1.1641402   520538 
  988000    1.0690488   -5.6213319   -5.6213319   -4.4571334    0.1037251   -5.6213319    1.1641985   520538 
  989000    1.0674062   -5.6193919   -5.6193919   -4.4569822  0.094867418   -5.6193919    1.1624097   520538 
  990000     1.069611   -5.6215829   -5.6215829   -4.4567722   0.05509298   -5.6215829    1.1648107   520538 
  991000    1.0679839   -5.6206807   -5.6206807   -4.4576419  0.084549744   -5.6206807    1.1630388   520538 
  992000    1.0693343   -5.6227205   -5.6227205   -4.4582111    0.1095901   -5.6227205    1.1645094   520538 
  993000    1.0692399   -5.6234807   -5.6234807   -4.4590741   0.11852557   -5.6234807    1.1644066   520538 
  994000    1.0701707   -5.6241733   -5.6241733    -4.458753  0.092469504   -5.6241733    1.1654203   520538 
  995000    1.0689547   -5.6238007   -5.6238007   -4.4597046   0.11685889   -5.6238007    1.1640961   520538 
  996000     1.067674   -5.6232266   -5.6232266   -4.4605253   0.11098043   -5.6232266    1.1627013   520538 
  997000    1.0696547   -5.6253625   -5.6253625   -4.4605042  0.080093222   -5.6253625    1.1648583   520538 
  998000      1.07163   -5.6266645   -5.6266645    -4.459655   0.10566213   -5.6266645    1.1670094   520538 
  999000    1.0686189   -5.6237449   -5.6237449   -4.4600146   0.08887905   -5.6237449    1.1637304   520538 
 1000000    1.0691259   -5.6243679   -5.6243679   -4.4600855  0.079857833   -5.6243679    1.1642824   520538 
 1001000     1.066926   -5.6231146   -5.6231146   -4.4612279  0.085531701   -5.6231146    1.1618867   520538 
 1002000    1.0701364   -5.6264587   -5.6264587   -4.4610758  0.091313568   -5.6264587    1.1653829   520538 
 1003000    1.0675641    -5.624137    -5.624137   -4.4615554   0.10283359    -5.624137    1.1625816   520538 
 1004000    1.0689498   -5.6264618   -5.6264618   -4.4623711   0.11369249   -5.6264618    1.1640907   520538 
 1005000    1.0695291   -5.6270461   -5.6270461   -4.4623245  0.087436635   -5.6270461    1.1647215   520538 
 1006000    1.0685322   -5.6258575   -5.6258575   -4.4622216   0.11079385   -5.6258575    1.1636359   520538 
 1007000    1.0677051   -5.6262178   -5.6262178   -4.4634826  0.097413548   -5.6262178    1.1627352   520538 
 1008000    1.0680294   -5.6270866   -5.6270866   -4.4639983   0.11686749   -5.6270866    1.1630883   520538 
 1009000     1.069108   -5.6274697   -5.6274697   -4.4632067   0.11410912   -5.6274697    1.1642629   520538 
 1010000    1.0710341   -5.6302474   -5.6302474   -4.4638869   0.07771774   -5.6302474    1.1663605   520538 
 1011000    1.0673162   -5.6278403   -5.6278403   -4.4655286   0.11128414   -5.6278403    1.1623117   520538 
 1012000    1.0680773   -5.6282114   -5.6282114   -4.4650708   0.12891348   -5.6282114    1.1631405   520538 
 1013000    1.0686792   -5.6289746   -5.6289746   -4.4651785  0.082079376   -5.6289746     1.163796   520538 
 1014000    1.0684957    -5.628564    -5.628564   -4.4649678  0.090768069    -5.628564    1.1635962   520538 
 1015000    1.0673468   -5.6272709   -5.6272709   -4.4649258   0.11823757   -5.6272709    1.1623451   520538 
 1016000    1.0685818   -5.6281284   -5.6281284   -4.4644385   0.12474387   -5.6281284    1.1636899   520538 
 1017000    1.0682605   -5.6295949   -5.6295949   -4.4662548   0.10548066   -5.6295949    1.1633401   520538 
 1018000    1.0653024     -5.62664     -5.62664   -4.4665213   0.11334559     -5.62664    1.1601187   520538 
 1019000    1.0672013   -5.6304486   -5.6304486   -4.4682621  0.072408971   -5.6304486    1.1621866   520538 
 1020000     1.067703   -5.6312171   -5.6312171   -4.4684842   0.10168976   -5.6312171    1.1627329   520538 
 1021000    1.0662653   -5.6291845   -5.6291845   -4.4680173  0.089323244   -5.6291845    1.1611672   520538 
 1022000      1.06513   -5.6278272   -5.6278272   -4.4678962   0.11097287   -5.6278272    1.1599309   520538 
 1023000    1.0662739   -5.6294763   -5.6294763   -4.4682997  0.096807722   -5.6294763    1.1611766   520538 
 1024000    1.0661214   -5.6287115   -5.6287115   -4.4677009  0.096116755   -5.6287115    1.1610106   520538 
 1025000     1.064326   -5.6287718   -5.6287718   -4.4697165   0.10069609   -5.6287718    1.1590554   520538 
 1026000    1.0654838   -5.6302305   -5.6302305   -4.4699143  0.082153413   -5.6302305    1.1603162   520538 
 1027000    1.0644857   -5.6307909   -5.6307909   -4.4715616  0.090018753   -5.6307909    1.1592293   520538 
 1028000    1.0673965   -5.6333821   -5.6333821   -4.4709829  0.093601187   -5.6333821    1.1623991   520538 
 1029000    1.0646224   -5.6310562   -5.6310562   -4.4716781  0.095424912   -5.6310562    1.1593781   520538 
 1030000    1.0665987   -5.6328616   -5.6328616   -4.4713313   0.09990943   -5.6328616    1.1615303   520538 
 1031000    1.0672317   -5.6330641   -5.6330641   -4.4708444   0.11292102   -5.6330641    1.1622197   520538 
 1032000    1.0670033   -5.6333391   -5.6333391   -4.4713682   0.12482437   -5.6333391    1.1619709   520538 
 1033000    1.0666508   -5.6333293   -5.6333293   -4.4717423  0.097068551   -5.6333293     1.161587   520538 
 1034000    1.0658009   -5.6324223   -5.6324223   -4.4717608  0.085387458   -5.6324223    1.1606615   520538 
 1035000    1.0658896   -5.6332893   -5.6332893   -4.4725311   0.10746086   -5.6332893    1.1607581   520538 
 1036000    1.0656868   -5.6349166   -5.6349166   -4.4743793  0.099187655   -5.6349166    1.1605373   520538 
 1037000    1.0657867   -5.6339973   -5.6339973   -4.4733513  0.081313612   -5.6339973     1.160646   520538 
 1038000    1.0654022   -5.6332856   -5.6332856   -4.4730583  0.095091157   -5.6332856    1.1602274   520538 
 1039000    1.0668357   -5.6356812   -5.6356812   -4.4738928  0.093759821   -5.6356812    1.1617884   520538 
 1040000    1.0663417   -5.6340941   -5.6340941   -4.4728437  0.095733798   -5.6340941    1.1612504   520538 
 1041000    1.0644691   -5.6331628   -5.6331628   -4.4739516  0.088516408   -5.6331628    1.1592112   520538 
 1042000    1.0656371   -5.6343891   -5.6343891    -4.473906   0.10590734   -5.6343891    1.1604831   520538 
 1043000    1.0651796   -5.6349583   -5.6349583   -4.4749734   0.08721163   -5.6349583    1.1599849   520538 
 1044000    1.0651831   -5.6355146   -5.6355146   -4.4755259  0.096405083   -5.6355146    1.1599887   520538 
 1045000    1.0655443   -5.6356647   -5.6356647   -4.4752826  0.099793983   -5.6356647    1.1603821   520538 
 1046000    1.0671364   -5.6374832   -5.6374832   -4.4753673   0.10251302   -5.6374832    1.1621159   520538 
 1047000    1.0650051   -5.6354638   -5.6354638   -4.4756689  0.088946409   -5.6354638    1.1597949   520538 
 1048000    1.0663276   -5.6365203   -5.6365203   -4.4752852  0.085162153   -5.6365203    1.1612351   520538 
 1049000    1.0666223   -5.6376441   -5.6376441    -4.476088   0.12312973   -5.6376441     1.161556   520538 
 1050000    1.0664211   -5.6377112   -5.6377112   -4.4763743  0.096135977   -5.6377112    1.1613369   520538 
 1051000    1.0664158   -5.6385399   -5.6385399   -4.4772088   0.12541432   -5.6385399    1.1613311   520538 
 1052000    1.0659075   -5.6385151   -5.6385151   -4.4777375  0.099903432   -5.6385151    1.1607776   520538 
 1053000    1.0653687   -5.6377822   -5.6377822   -4.4775914  0.098908663   -5.6377822    1.1601908   520538 
 1054000    1.0647723   -5.6373576   -5.6373576   -4.4778163   0.10381139   -5.6373576    1.1595413   520538 
 1055000    1.0666874   -5.6405735   -5.6405735   -4.4789465  0.082768449   -5.6405735    1.1616269   520538 
 1056000    1.0660013   -5.6393319   -5.6393319   -4.4784521   0.11367931   -5.6393319    1.1608798   520538 
 1057000    1.0627828   -5.6370874   -5.6370874   -4.4797127   0.11323543   -5.6370874    1.1573748   520538 
 1058000    1.0631394   -5.6379373   -5.6379373   -4.4801741   0.10117497   -5.6379373    1.1577631   520538 
 1059000    1.0650042   -5.6397519   -5.6397519   -4.4799579  0.095019598   -5.6397519    1.1597939   520538 
 1060000    1.0652551   -5.6409722   -5.6409722    -4.480905  0.090710507   -5.6409722    1.1600672   520538 
 1061000    1.0664315   -5.6417495   -5.6417495   -4.4804013   0.08918226   -5.6417495    1.1613482   520538 
 1062000    1.0653529   -5.6419019   -5.6419019   -4.4817283  0.094689568   -5.6419019    1.1601736   520538 
 1063000    1.0636911   -5.6397514   -5.6397514   -4.4813875  0.099617546   -5.6397514    1.1583639   520538 
 1064000    1.0638515   -5.6409286   -5.6409286     -4.48239    0.1029737   -5.6409286    1.1585386   520538 
 1065000    1.0633095   -5.6400327   -5.6400327   -4.4820843   0.10106735   -5.6400327    1.1579484   520538 
 1066000    1.0632446   -5.6411599   -5.6411599   -4.4832822  0.095302517   -5.6411599    1.1578777   520538 
 1067000    1.0635505   -5.6416676   -5.6416676   -4.4834567  0.075345407   -5.6416676    1.1582109   520538 
 1068000    1.0624284    -5.640317    -5.640317   -4.4833282   0.10773093    -5.640317    1.1569888   520538 
 1069000    1.0621951   -5.6408633   -5.6408633   -4.4841285  0.083261904   -5.6408633    1.1567348   520538 
 1070000    1.0624663   -5.6419418   -5.6419418   -4.4849117   0.09767332   -5.6419418    1.1570301   520538 
 1071000    1.0629812   -5.6423338   -5.6423338   -4.4847429   0.10045105   -5.6423338    1.1575909   520538 
 1072000    1.0627707   -5.6415989   -5.6415989   -4.4842372  0.073697297   -5.6415989    1.1573616   520538 
 1073000    1.0627915   -5.6422438   -5.6422438   -4.4848596  0.096610209   -5.6422438    1.1573842   520538 
 1074000     1.063066   -5.6428167   -5.6428167   -4.4851335  0.090735839   -5.6428167    1.1576832   520538 
 1075000    1.0609226   -5.6403216   -5.6403216   -4.4849726   0.10028312   -5.6403216     1.155349   520538 
 1076000    1.0608831   -5.6407199   -5.6407199   -4.4854138  0.098817869   -5.6407199    1.1553061   520538 
 1077000    1.0613436    -5.642148    -5.642148   -4.4863406  0.090787125    -5.642148    1.1558074   520538 
 1078000    1.0629068   -5.6448337   -5.6448337   -4.4873239  0.097415398   -5.6448337    1.1575098   520538 
 1079000    1.0634972   -5.6456111   -5.6456111   -4.4874583   0.10379464   -5.6456111    1.1581528   520538 
 1080000    1.0618832   -5.6440452   -5.6440452   -4.4876501  0.072552606   -5.6440452    1.1563951   520538 
 1081000    1.0645881   -5.6456959   -5.6456959   -4.4863552  0.095560983   -5.6456959    1.1593407   520538 
 1082000     1.061991   -5.6441301   -5.6441301   -4.4876175  0.097147083   -5.6441301    1.1565125   520538 
 1083000    1.0636225   -5.6452958   -5.6452958   -4.4870065  0.087272145   -5.6452958    1.1582893   520538 
 1084000    1.0636078   -5.6463715   -5.6463715   -4.4880984   0.09985789   -5.6463715    1.1582732   520538 
 1085000    1.0627141   -5.6453744   -5.6453744   -4.4880744    0.0841932   -5.6453744       1.1573   520538 
 1086000    1.0630903   -5.6467455   -5.6467455   -4.4890359   0.10081621   -5.6467455    1.1577097   520538 
 1087000    1.0631931   -5.6469071   -5.6469071   -4.4890855   0.10382758   -5.6469071    1.1578216   520538 
 1088000    1.0624242   -5.6465634   -5.6465634   -4.4895791  0.082570584   -5.6465634    1.1569842   520538 
 1089000    1.0630384   -5.6473379   -5.6473379   -4.4896848  0.087447275   -5.6473379    1.1576531   520538 
 1090000    1.0619173   -5.6461753   -5.6461753    -4.489743  0.086778006   -5.6461753    1.1564323   520538 
 1091000    1.0618731   -5.6468356   -5.6468356   -4.4904515  0.096056754   -5.6468356    1.1563841   520538 
 1092000    1.0637706   -5.6486819   -5.6486819   -4.4902314   0.10596796   -5.6486819    1.1584505   520538 
 1093000    1.0608916   -5.6463563   -5.6463563    -4.491041  0.081897066   -5.6463563    1.1553153   520538 
 1094000    1.0627782   -5.6486658   -5.6486658    -4.491296  0.085925526   -5.6486658    1.1573698   520538 
 1095000    1.0627909    -5.649069    -5.649069   -4.4916854  0.095651313    -5.649069    1.1573836   520538 
 1096000    1.0608944   -5.6468013   -5.6468013    -4.491483   0.11138389   -5.6468013    1.1553183   520538 
 1097000    1.0601418   -5.6464996   -5.6464996   -4.4920009  0.097473398   -5.6464996    1.1544987   520538 
 1098000    1.0625327   -5.6480227   -5.6480227   -4.4909203  0.072645288   -5.6480227    1.1571024   520538 
 1099000    1.0601858   -5.6457884   -5.6457884   -4.4912418  0.079257825   -5.6457884    1.1545467   520538 
 1100000     1.059917   -5.6461241   -5.6461241   -4.4918702  0.099888633   -5.6461241    1.1542539   520538 
 1101000    1.0606204   -5.6459523   -5.6459523   -4.4909324   0.10732809   -5.6459523      1.15502   520538 
 1102000    1.0593338   -5.6457402   -5.6457402   -4.4921214  0.093455151   -5.6457402    1.1536188   520538 
 1103000    1.0597818   -5.6473039   -5.6473039   -4.4931972  0.086838266   -5.6473039    1.1541067   520538 
 1104000     1.061318   -5.6494816   -5.6494816    -4.493702  0.093085203   -5.6494816    1.1557796   520538 
 1105000    1.0606493   -5.6493876   -5.6493876   -4.4943361  0.093961352   -5.6493876    1.1550514   520538 
 1106000    1.0615518    -5.650167    -5.650167   -4.4941328  0.085998216    -5.650167    1.1560342   520538 
 1107000    1.0614874   -5.6502208   -5.6502208   -4.4942567   0.10102289   -5.6502208    1.1559641   520538 
 1108000    1.0629669   -5.6511014   -5.6511014   -4.4935261   0.10396134   -5.6511014    1.1575753   520538 
 1109000    1.0603212    -5.648668    -5.648668   -4.4939738   0.09866641    -5.648668    1.1546941   520538 
 1110000    1.0591212   -5.6470758   -5.6470758   -4.4936885  0.083159253   -5.6470758    1.1533873   520538 
 1111000    1.0590317   -5.6466884   -5.6466884   -4.4933986  0.087892022   -5.6466884    1.1532898   520538 
 1112000     1.059357   -5.6485224   -5.6485224   -4.4948783   0.10539524   -5.6485224    1.1536441   520538 
 1113000    1.0604477   -5.6496915   -5.6496915   -4.4948596   0.10394755   -5.6496915    1.1548318   520538 
 1114000    1.0613558   -5.6511328   -5.6511328   -4.4953121  0.098151736   -5.6511328    1.1558208   520538 
 1115000     1.062227   -5.6535526   -5.6535526   -4.4967831   0.12313974   -5.6535526    1.1567695   520538 
 1116000    1.0602874   -5.6517354   -5.6517354    -4.497078   0.08058103   -5.6517354    1.1546573   520538 
 1117000     1.058606   -5.6500007   -5.6500007   -4.4971744  0.073356898   -5.6500007    1.1528263   520538 
 1118000      1.05992   -5.6511683   -5.6511683    -4.496911  0.066097599   -5.6511683    1.1542572   520538 
 1119000    1.0604823   -5.6526332   -5.6526332   -4.4977637  0.094664383   -5.6526332    1.1548695   520538 
 1120000    1.0598199   -5.6528609   -5.6528609   -4.4987127  0.067855536   -5.6528609    1.1541482   520538 
 1121000    1.0606145   -5.6535584   -5.6535584   -4.4985449  0.075258962   -5.6535584    1.1550135   520538 
 1122000    1.0594191   -5.6523103   -5.6523103   -4.4985987   0.10367458   -5.6523103    1.1537117   520538 
 1123000    1.0608441   -5.6537408   -5.6537408   -4.4984773  0.079977983   -5.6537408    1.1552635   520538 
 1124000    1.0605151   -5.6544837   -5.6544837   -4.4995785   0.10232428   -5.6544837    1.1549052   520538 
 1125000     1.057816   -5.6517943   -5.6517943   -4.4998284  0.082522682   -5.6517943    1.1519659   520538 
 1126000    1.0586538   -5.6530573   -5.6530573    -4.500179  0.088240072   -5.6530573    1.1528783   520538 
 1127000    1.0595321   -5.6545663   -5.6545663   -4.5007316    0.1004996   -5.6545663    1.1538347   520538 
 1128000    1.0600757   -5.6544799   -5.6544799   -4.5000531  0.074267743   -5.6544799    1.1544268   520538 
 1129000    1.0597822   -5.6542062   -5.6542062    -4.500099  0.099848154   -5.6542062    1.1541071   520538 
 1130000    1.0584581   -5.6521991   -5.6521991    -4.499534  0.094673105   -5.6521991    1.1526651   520538 
 1131000    1.0588038    -5.652674    -5.652674   -4.4996324   0.08470682    -5.652674    1.1530417   520538 
 1132000     1.059781   -5.6545002   -5.6545002   -4.5003944  0.099302326   -5.6545002    1.1541059   520538 
 1133000    1.0586838    -5.653799    -5.653799    -4.500888   0.10822258    -5.653799     1.152911   520538 
 1134000     1.060192    -5.654836    -5.654836   -4.5002826  0.087311279    -5.654836    1.1545535   520538 
 1135000    1.0594334   -5.6545737   -5.6545737   -4.5008464   0.09333427   -5.6545737    1.1537273   520538 
 1136000    1.0593346   -5.6550068   -5.6550068   -4.5013871   0.08841074   -5.6550068    1.1536197   520538 
 1137000    1.0599805   -5.6555442   -5.6555442    -4.501221  0.083618664   -5.6555442    1.1543231   520538 
 1138000    1.0596057   -5.6551927   -5.6551927   -4.5012777  0.077713391   -5.6551927     1.153915   520538 
 1139000    1.0586308   -5.6542903   -5.6542903    -4.501437  0.066535782   -5.6542903    1.1528532   520538 
 1140000    1.0583317   -5.6563059   -5.6563059   -4.5037783   0.10542746   -5.6563059    1.1525276   520538 
 1141000    1.0582599   -5.6568962   -5.6568962   -4.5044468  0.088153551   -5.6568962    1.1524494   520538 
 1142000    1.0603231   -5.6588611   -5.6588611   -4.5041649   0.10236225   -5.6588611    1.1546962   520538 
 1143000    1.0595054   -5.6570025   -5.6570025   -4.5031968  0.086908957   -5.6570025    1.1538057   520538 
 1144000    1.0585336   -5.6569898   -5.6569898   -4.5042424   0.10605179   -5.6569898    1.1527474   520538 
 1145000    1.0605138   -5.6592907   -5.6592907   -4.5043868   0.10089635   -5.6592907    1.1549039   520538 
 1146000    1.0582396    -5.657369    -5.657369   -4.5049418  0.079695875    -5.657369    1.1524272   520538 
 1147000    1.0591623   -5.6580064   -5.6580064   -4.5045744   0.08191778   -5.6580064     1.153432   520538 
 1148000    1.0573127   -5.6566929   -5.6566929   -4.5052751  0.094137377   -5.6566929    1.1514178   520538 
 1149000    1.0562055   -5.6554876   -5.6554876   -4.5052755  0.087760751   -5.6554876    1.1502121   520538 
 1150000    1.0584407   -5.6579087   -5.6579087   -4.5052625  0.078557379   -5.6579087    1.1526462   520538 
 1151000    1.0571041   -5.6572628   -5.6572628   -4.5060721  0.074084637   -5.6572628    1.1511907   520538 
 1152000    1.0582667   -5.6580969   -5.6580969   -4.5056401  0.095293542   -5.6580969    1.1524568   520538 
 1153000    1.0594952   -5.6593438   -5.6593438   -4.5055493  0.088303196   -5.6593438    1.1537945   520538 
 1154000    1.0582698   -5.6583009   -5.6583009   -4.5058407   0.10103492   -5.6583009    1.1524601   520538 
 1155000    1.0610926   -5.6615948   -5.6615948   -4.5060607  0.079647681   -5.6615948    1.1555341   520538 
 1156000    1.0589165   -5.6599767   -5.6599767   -4.5068123  0.098638261   -5.6599767    1.1531644   520538 
 1157000    1.0600053   -5.6608024   -5.6608024   -4.5064523  0.087945523   -5.6608024    1.1543501   520538 
 1158000    1.0586872   -5.6593577   -5.6593577    -4.506443  0.094139283   -5.6593577    1.1529147   520538 
 1159000    1.0570648   -5.6582307   -5.6582307   -4.5070828   0.11160821   -5.6582307    1.1511479   520538 
 1160000    1.0581959   -5.6596118   -5.6596118   -4.5072322  0.088931986   -5.6596118    1.1523796   520538 
 1161000    1.0594995   -5.6613627   -5.6613627   -4.5075635    0.0975093   -5.6613627    1.1537992   520538 
 1162000    1.0574735    -5.658891    -5.658891    -4.507298  0.097029496    -5.658891     1.151593   520538 
 1163000    1.0576364   -5.6603841   -5.6603841   -4.5086137   0.10276565   -5.6603841    1.1517703   520538 
 1164000    1.0577504   -5.6610682   -5.6610682   -4.5091737  0.091294398   -5.6610682    1.1518945   520538 
 1165000    1.0563127   -5.6609578   -5.6609578    -4.510629  0.095627459   -5.6609578    1.1503288   520538 
 1166000    1.0568835   -5.6620355   -5.6620355   -4.5110851  0.077980018   -5.6620355    1.1509504   520538 
 1167000    1.0580629   -5.6629741   -5.6629741   -4.5107393  0.082396434   -5.6629741    1.1522348   520538 
 1168000    1.0561463   -5.6612467   -5.6612467    -4.511099  0.097950886   -5.6612467    1.1501477   520538 
 1169000    1.0578556   -5.6642778   -5.6642778   -4.5122688  0.082374577   -5.6642778     1.152009   520538 
 1170000    1.0581613    -5.664333    -5.664333    -4.511991   0.10640147    -5.664333     1.152342   520538 
 1171000    1.0551781   -5.6619095   -5.6619095   -4.5128163   0.10110342   -5.6619095    1.1490933   520538 
 1172000    1.0557111   -5.6623428   -5.6623428    -4.512669  0.085822214   -5.6623428    1.1496737   520538 
 1173000    1.0559747   -5.6632607   -5.6632607      -4.5133  0.088183922   -5.6632607    1.1499607   520538 
 1174000    1.0559411   -5.6635949   -5.6635949   -4.5136707  0.084546286   -5.6635949    1.1499242   520538 
 1175000    1.0561962   -5.6635871   -5.6635871   -4.5133851   0.12385937   -5.6635871     1.150202   520538 
 1176000     1.057655   -5.6654163   -5.6654163   -4.5136256  0.079741599   -5.6654163    1.1517906   520538 
 1177000    1.0580001   -5.6657631   -5.6657631   -4.5135967  0.096700947   -5.6657631    1.1521664   520538 
 1178000    1.0561747   -5.6638003   -5.6638003   -4.5136217   0.10054968   -5.6638003    1.1501786   520538 
 1179000    1.0554096   -5.6636748   -5.6636748   -4.5143295  0.097213896   -5.6636748    1.1493453   520538 
 1180000    1.0573616   -5.6661564   -5.6661564   -4.5146853  0.085545779   -5.6661564    1.1514711   520538 
 1181000    1.0575515   -5.6668648   -5.6668648    -4.515187  0.096907645   -5.6668648    1.1516778   520538 
 1182000    1.0563184   -5.6658748   -5.6658748   -4.5155397  0.068216009   -5.6658748    1.1503351   520538 
 1183000    1.0551077   -5.6642317   -5.6642317   -4.5152152   0.10616382   -5.6642317    1.1490165   520538 
 1184000    1.0562524   -5.6652258   -5.6652258   -4.5149626  0.068923542   -5.6652258    1.1502632   520538 
 1185000    1.0565538   -5.6651915   -5.6651915   -4.5146001   0.10459588   -5.6651915    1.1505914   520538 
 1186000    1.0575427   -5.6665871   -5.6665871   -4.5149188  0.079071658   -5.6665871    1.1516683   520538 
 1187000    1.0582835   -5.6674423   -5.6674423   -4.5149673  0.092841276   -5.6674423     1.152475   520538 
 1188000    1.0580909   -5.6671033   -5.6671033    -4.514838   0.11084076   -5.6671033    1.1522653   520538 
 1189000    1.0585096   -5.6672476   -5.6672476   -4.5145263  0.076586998   -5.6672476    1.1527213   520538 
 1190000    1.0567502   -5.6657784   -5.6657784   -4.5149732  0.067156666   -5.6657784    1.1508053   520538 
 1191000    1.0588679   -5.6686714   -5.6686714   -4.5155599   0.10745681   -5.6686714    1.1531115   520538 
 1192000    1.0585727   -5.6692893   -5.6692893   -4.5164993   0.11815191   -5.6692893    1.1527899   520538 
 1193000    1.0578112   -5.6688738   -5.6688738   -4.5169131   0.10152264   -5.6688738    1.1519607   520538 
 1194000    1.0546366   -5.6659332   -5.6659332   -4.5174296  0.094047477   -5.6659332    1.1485036   520538 
 1195000    1.0536402   -5.6661043   -5.6661043   -4.5186858   0.08880228   -5.6661043    1.1474184   520538 
 1196000    1.0559329   -5.6676824   -5.6676824   -4.5177673  0.093028586   -5.6676824    1.1499152   520538 
 1197000    1.0559519   -5.6680391   -5.6680391   -4.5181032    0.0880413   -5.6680391    1.1499359   520538 
 1198000    1.0537025    -5.666195    -5.666195   -4.5187088   0.10568848    -5.666195    1.1474863   520538 
 1199000    1.0551093     -5.66777     -5.66777   -4.5187517  0.061083149     -5.66777    1.1490183   520538 
 1200000    1.0552223   -5.6682766   -5.6682766   -4.5191353  0.077431922   -5.6682766    1.1491414   520538 
 1201000    1.0553676   -5.6686637   -5.6686637   -4.5193641  0.084529821   -5.6686637    1.1492996   520538 
 1202000    1.0560151   -5.6691014   -5.6691014   -4.5190967  0.081871558   -5.6691014    1.1500047   520538 
 1203000    1.0549895   -5.6684165   -5.6684165   -4.5195287   0.10388186   -5.6684165    1.1488878   520538 
 1204000    1.0531039   -5.6675505   -5.6675505   -4.5207161   0.09966941   -5.6675505    1.1468344   520538 
 1205000     1.054743   -5.6698831   -5.6698831   -4.5212637  0.089639146   -5.6698831    1.1486194   520538 
 1206000    1.0548156     -5.66986     -5.66986   -4.5211616  0.080551611     -5.66986    1.1486984   520538 
 1207000    1.0539279   -5.6694976   -5.6694976   -4.5217659   0.10235772   -5.6694976    1.1477317   520538 
 1208000    1.0559693   -5.6720482   -5.6720482   -4.5220934  0.095566006   -5.6720482    1.1499548   520538 
 1209000    1.0553149   -5.6717907   -5.6717907   -4.5225484  0.082613213   -5.6717907    1.1492422   520538 
 1210000    1.0550477   -5.6717365   -5.6717365   -4.5227852   0.08912603   -5.6717365    1.1489513   520538 
 1211000    1.0548367   -5.6708488   -5.6708488   -4.5221273  0.088201866   -5.6708488    1.1487214   520538 
 1212000    1.0537954     -5.66951     -5.66951   -4.5219226  0.068110647     -5.66951    1.1475874   520538 
 1213000    1.0539994   -5.6710805   -5.6710805   -4.5232709  0.091117009   -5.6710805    1.1478096   520538 
 1214000    1.0535531   -5.6703336   -5.6703336     -4.52301  0.071058415   -5.6703336    1.1473236   520538 
 1215000    1.0552791    -5.672278    -5.672278   -4.5230747  0.071711289    -5.672278    1.1492033   520538 
 1216000     1.053556   -5.6699759   -5.6699759   -4.5226492  0.093094643   -5.6699759    1.1473268   520538 
 1217000    1.0561398   -5.6730635   -5.6730635    -4.522923  0.086863766   -5.6730635    1.1501405   520538 
 1218000    1.0550815   -5.6723793   -5.6723793   -4.5233912  0.096223738   -5.6723793    1.1489881   520538 
 1219000    1.0543769   -5.6719084   -5.6719084   -4.5236877  0.088445966   -5.6719084    1.1482207   520538 
 1220000    1.0560065   -5.6743353   -5.6743353   -4.5243399  0.098963776   -5.6743353    1.1499953   520538 
 1221000    1.0533758   -5.6711273   -5.6711273   -4.5239967  0.072671105   -5.6711273    1.1471306   520538 
 1222000    1.0554381   -5.6737349   -5.6737349   -4.5243585   0.07653473   -5.6737349    1.1493764   520538 
 1223000    1.0546475   -5.6724818   -5.6724818   -4.5239664  0.096323011   -5.6724818    1.1485154   520538 
 1224000    1.0543916   -5.6732368   -5.6732368       -4.525  0.077323019   -5.6732368    1.1482367   520538 
 1225000    1.0556775   -5.6754646   -5.6754646   -4.5258275  0.088097023   -5.6754646    1.1496371   520538 
 1226000     1.053388   -5.6734389   -5.6734389   -4.5262951  0.087127069   -5.6734389    1.1471439   520538 
 1227000    1.0559369   -5.6768997   -5.6768997   -4.5269801  0.085596511   -5.6768997    1.1499196   520538 
 1228000    1.0539691   -5.6758133   -5.6758133   -4.5280367  0.072364256   -5.6758133    1.1477767   520538 
 1229000    1.0528997   -5.6765825   -5.6765825   -4.5299705  0.071089315   -5.6765825     1.146612   520538 
 1230000    1.0535229   -5.6762673   -5.6762673   -4.5289766  0.072984519   -5.6762673    1.1472907   520538 
 1231000    1.0527103   -5.6744459   -5.6744459   -4.5280401  0.091774306   -5.6744459    1.1464058   520538 
 1232000     1.054176   -5.6760092   -5.6760092   -4.5280073  0.094986475   -5.6760092     1.148002   520538 
 1233000    1.0533307   -5.6744013   -5.6744013   -4.5273198   0.11163595   -5.6744013    1.1470815   520538 
 1234000    1.0552097    -5.676243    -5.676243   -4.5271154  0.094900749    -5.676243    1.1491276   520538 
 1235000    1.0564261   -5.6782314   -5.6782314   -4.5277791  0.085513498   -5.6782314    1.1504523   520538 
 1236000    1.0522458   -5.6741859   -5.6741859    -4.528286    0.1040246   -5.6741859    1.1458999   520538 
 1237000     1.055614   -5.6783208   -5.6783208   -4.5287528  0.083774851   -5.6783208     1.149568   520538 
 1238000    1.0536814   -5.6756101   -5.6756101   -4.5281467  0.091360824   -5.6756101    1.1474634   520538 
 1239000    1.0526891   -5.6754115   -5.6754115   -4.5290287   0.10474532   -5.6754115    1.1463827   520538 
 1240000    1.0562203   -5.6803362   -5.6803362    -4.530108    0.1022156   -5.6803362    1.1502282   520538 
 1241000     1.055866   -5.6790573   -5.6790573   -4.5292149   0.10761692   -5.6790573    1.1498424   520538 
 1242000    1.0514321   -5.6756013   -5.6756013   -4.5305875  0.088766746   -5.6756013    1.1450138   520538 
 1243000    1.0514186   -5.6754979   -5.6754979   -4.5304987   0.10411525   -5.6754979    1.1449992   520538 
 1244000    1.0529142   -5.6772103   -5.6772103   -4.5305825  0.087827451   -5.6772103    1.1466278   520538 
 1245000    1.0533295    -5.677409    -5.677409    -4.530329  0.084386661    -5.677409    1.1470801   520538 
 1246000    1.0510008   -5.6746655   -5.6746655   -4.5301213  0.079286498   -5.6746655    1.1445442   520538 
 1247000    1.0530757   -5.6774786   -5.6774786   -4.5306749  0.095713472   -5.6774786    1.1468037   520538 
 1248000    1.0527661   -5.6772759   -5.6772759   -4.5308093  0.098555745   -5.6772759    1.1464666   520538 
 1249000    1.0519582   -5.6764956   -5.6764956   -4.5309088  0.093073914   -5.6764956    1.1455867   520538 
 1250000    1.0521636   -5.6783503   -5.6783503   -4.5325399  0.081883414   -5.6783503    1.1458104   520538 
 1251000    1.0535901   -5.6793607   -5.6793607   -4.5319968  0.091620968   -5.6793607    1.1473639   520538 
 1252000    1.0511454   -5.6777872   -5.6777872   -4.5330855  0.079524614   -5.6777872    1.1447017   520538 
 1253000     1.052129   -5.6796889   -5.6796889   -4.5339162  0.097462537   -5.6796889    1.1457728   520538 
 1254000    1.0530097    -5.679896    -5.679896   -4.5331642  0.091322265    -5.679896    1.1467318   520538 
 1255000    1.0512597   -5.6788692   -5.6788692   -4.5340431  0.096805097   -5.6788692    1.1448261   520538 
 1256000    1.0512797   -5.6785837   -5.6785837   -4.5337358  0.079131849   -5.6785837    1.1448479   520538 
 1257000    1.0505946   -5.6777112   -5.6777112   -4.5336094  0.072619642   -5.6777112    1.1441018   520538 
 1258000    1.0505469   -5.6785242   -5.6785242   -4.5344744  0.077482873   -5.6785242    1.1440499   520538 
 1259000    1.0524219   -5.6804176   -5.6804176   -4.5343258  0.098709152   -5.6804176    1.1460918   520538 
 1260000    1.0536992   -5.6812342   -5.6812342   -4.5337515  0.077639748   -5.6812342    1.1474827   520538 
 1261000    1.0498101       -5.677       -5.677   -4.5337525  0.085755004       -5.677    1.1432475   520538 
 1262000    1.0524123   -5.6803803   -5.6803803   -4.5342991    0.1000823   -5.6803803    1.1460813   520538 
 1263000     1.051421   -5.6798668   -5.6798668    -4.534865   0.09146961   -5.6798668    1.1450018   520538 
 1264000    1.0530788   -5.6818946   -5.6818946   -4.5350875  0.093365685   -5.6818946    1.1468071   520538 
 1265000     1.052569   -5.6816217   -5.6816217   -4.5353697  0.071016499   -5.6816217     1.146252   520538 
 1266000    1.0521795    -5.680754    -5.680754   -4.5349262  0.089232686    -5.680754    1.1458278   520538 
 1267000     1.052912   -5.6811099   -5.6811099   -4.5344845  0.078621233   -5.6811099    1.1466254   520538 
 1268000    1.0514638   -5.6806714   -5.6806714   -4.5356231  0.091796652   -5.6806714    1.1450483   520538 
 1269000    1.0524699   -5.6817333   -5.6817333   -4.5355893  0.077148804   -5.6817333     1.146144   520538 
 1270000    1.0521367   -5.6814564   -5.6814564   -4.5356753  0.092189909   -5.6814564    1.1457811   520538 
 1271000    1.0507537   -5.6794113   -5.6794113   -4.5351362   0.09870919   -5.6794113     1.144275   520538 
 1272000    1.0509472   -5.6796122   -5.6796122   -4.5351264  0.090286271   -5.6796122    1.1444858   520538 
 1273000    1.0514267   -5.6816933   -5.6816933   -4.5366853  0.087084029   -5.6816933     1.145008   520538 
 1274000     1.052156   -5.6827903   -5.6827903   -4.5369881  0.084154689   -5.6827903    1.1458022   520538 
 1275000    1.0503029   -5.6810023   -5.6810023   -4.5372181  0.050752557   -5.6810023    1.1437842   520538 
 1276000    1.0497824   -5.6809866   -5.6809866   -4.5377693  0.068731776   -5.6809866    1.1432173   520538 
 1277000    1.0520003   -5.6831412   -5.6831412   -4.5375086  0.059878895   -5.6831412    1.1456326   520538 
 1278000    1.0489242    -5.680509    -5.680509   -4.5382263  0.095210463    -5.680509    1.1422827   520538 
 1279000     1.050877   -5.6819105   -5.6819105   -4.5375012  0.089644872   -5.6819105    1.1444093   520538 
 1280000    1.0499261   -5.6816087   -5.6816087   -4.5382348  0.083601944   -5.6816087    1.1433738   520538 
 1281000    1.0526548    -5.684478    -5.684478   -4.5381327   0.10539327    -5.684478    1.1463454   520538 
 1282000    1.0506485   -5.6829666   -5.6829666    -4.538806  0.083044471   -5.6829666    1.1441605   520538 
 1283000    1.0498543   -5.6824082   -5.6824082   -4.5391126  0.061187781   -5.6824082    1.1432957   520538 
 1284000    1.0522811   -5.6843348   -5.6843348   -4.5383965  0.066945035   -5.6843348    1.1459384   520538 
 1285000    1.0527981    -5.684146    -5.684146   -4.5376447  0.073498803    -5.684146    1.1465014   520538 
 1286000    1.0519511    -5.682854    -5.682854   -4.5372751  0.089639925    -5.682854     1.145579   520538 
 1287000    1.0531389   -5.6848505   -5.6848505    -4.537978  0.083524489   -5.6848505    1.1468725   520538 
 1288000    1.0527744   -5.6845852   -5.6845852   -4.5381096  0.073240989   -5.6845852    1.1464756   520538 
 1289000    1.0510133    -5.683154    -5.683154   -4.5385963   0.10581149    -5.683154    1.1445578   520538 
 1290000    1.0519801   -5.6846517   -5.6846517    -4.539041  0.084699491   -5.6846517    1.1456107   520538 
 1291000    1.0517157    -5.684081    -5.684081   -4.5387583  0.092037313    -5.684081    1.1453227   520538 
 1292000    1.0505827   -5.6829097   -5.6829097   -4.5388208  0.068732426   -5.6829097    1.1440889   520538 
 1293000    1.0511756   -5.6833979   -5.6833979   -4.5386634  0.071640265   -5.6833979    1.1447345   520538 
 1294000    1.0505843   -5.6837003   -5.6837003   -4.5396098  0.068012341   -5.6837003    1.1440905   520538 
 1295000    1.0511402   -5.6845014   -5.6845014   -4.5398054   0.10392146   -5.6845014     1.144696   520538 
 1296000    1.0497037   -5.6835888   -5.6835888   -4.5404573  0.066050778   -5.6835888    1.1431316   520538 
 1297000     1.051262   -5.6861992   -5.6861992   -4.5413706  0.082315361   -5.6861992    1.1448286   520538 
 1298000     1.051934   -5.6869593   -5.6869593   -4.5413989  0.079069642   -5.6869593    1.1455604   520538 
 1299000    1.0518138   -5.6869134   -5.6869134    -4.541484  0.090025488   -5.6869134    1.1454295   520538 
 1300000    1.0522635   -5.6873731   -5.6873731   -4.5414539  0.085485058   -5.6873731    1.1459192   520538 
 1301000    1.0512096   -5.6868996   -5.6868996   -4.5421281  0.090569116   -5.6868996    1.1447715   520538 
 1302000    1.0512899   -5.6876795   -5.6876795   -4.5428205   0.08209862   -5.6876795     1.144859   520538 
 1303000    1.0529413   -5.6901061   -5.6901061   -4.5434487  0.078905381   -5.6901061    1.1466574   520538 
 1304000    1.0502996   -5.6871862   -5.6871862   -4.5434056  0.092990498   -5.6871862    1.1437806   520538 
 1305000    1.0492573   -5.6866033   -5.6866033   -4.5439579  0.080362869   -5.6866033    1.1426455   520538 
 1306000    1.0515846   -5.6883415   -5.6883415   -4.5431617  0.083386664   -5.6883415    1.1451799   520538 
 1307000    1.0501056   -5.6866258   -5.6866258   -4.5430566  0.070157631   -5.6866258    1.1435693   520538 
 1308000    1.0477767   -5.6848652   -5.6848652   -4.5438321  0.088596828   -5.6848652    1.1410331   520538 
 1309000    1.0507247   -5.6883373   -5.6883373   -4.5440938  0.058971913   -5.6883373    1.1442434   520538 
 1310000    1.0484897    -5.686177    -5.686177   -4.5443675  0.092181383    -5.686177    1.1418096   520538 
 1311000    1.0513878   -5.6897235   -5.6897235   -4.5447579  0.070102061   -5.6897235    1.1449656   520538 
 1312000    1.0497505   -5.6882023   -5.6882023   -4.5450197  0.089039169   -5.6882023    1.1431826   520538 
 1313000     1.050981   -5.6894436   -5.6894436    -4.544921   0.10267376   -5.6894436    1.1445226   520538 
 1314000    1.0500589   -5.6883289   -5.6883289   -4.5448105  0.087583014   -5.6883289    1.1435184   520538 
 1315000    1.0503414   -5.6890662   -5.6890662   -4.5452401  0.084868502   -5.6890662    1.1438261   520538 
 1316000    1.0513069   -5.6896466   -5.6896466   -4.5447691   0.10157289   -5.6896466    1.1448775   520538 
 1317000    1.0498229   -5.6888972   -5.6888972   -4.5456358  0.083106841   -5.6888972    1.1432614   520538 
 1318000    1.0491197   -5.6896083   -5.6896083   -4.5471127  0.095341479   -5.6896083    1.1424956   520538 
 1319000    1.0499535   -5.6899602   -5.6899602   -4.5465566  0.086456387   -5.6899602    1.1434036   520538 
 1320000    1.0498831   -5.6900672   -5.6900672   -4.5467403  0.082492508   -5.6900672    1.1433269   520538 
 1321000    1.0506373   -5.6897327   -5.6897327   -4.5455844   0.11435092   -5.6897327    1.1441483   520538 
 1322000    1.0491946   -5.6885448   -5.6885448   -4.5459676  0.080294403   -5.6885448    1.1425772   520538 
 1323000    1.0519219   -5.6920835   -5.6920835   -4.5465363  0.080519965   -5.6920835    1.1455472   520538 
 1324000    1.0497216   -5.6902885   -5.6902885   -4.5471374  0.075231521   -5.6902885    1.1431511   520538 
 1325000    1.0491456   -5.6892845   -5.6892845   -4.5467607  0.082762376   -5.6892845    1.1425238   520538 
 1326000    1.0507546   -5.6914041   -5.6914041   -4.5471281  0.088400292   -5.6914041     1.144276   520538 
 1327000    1.0503493   -5.6915534   -5.6915534   -4.5477187  0.078835346   -5.6915534    1.1438346   520538 
 1328000    1.0490234   -5.6916049   -5.6916049   -4.5492141  0.083723264   -5.6916049    1.1423908   520538 
 1329000    1.0488824   -5.6920313   -5.6920313   -4.5497941  0.061771039   -5.6920313    1.1422372   520538 
 1330000    1.0488632    -5.691095    -5.691095   -4.5488787  0.067543391    -5.691095    1.1422163   520538 
 1331000    1.0498112   -5.6914803   -5.6914803   -4.5482316  0.099390037   -5.6914803    1.1432487   520538 
 1332000    1.0491172    -5.691526    -5.691526    -4.549033  0.059895919    -5.691526    1.1424929   520538 
 1333000    1.0499302   -5.6930793   -5.6930793    -4.549701  0.085720251   -5.6930793    1.1433782   520538 
 1334000    1.0505547   -5.6931727   -5.6931727   -4.5491144  0.076826029   -5.6931727    1.1440583   520538 
 1335000    1.0491526   -5.6922318   -5.6922318   -4.5497004  0.063165552   -5.6922318    1.1425315   520538 
 1336000    1.0499404   -5.6932495   -5.6932495   -4.5498602  0.090779486   -5.6932495    1.1433893   520538 
 1337000    1.0475684   -5.6911237   -5.6911237   -4.5503175  0.077411211   -5.6911237    1.1408062   520538 
 1338000    1.0500808   -5.6925943   -5.6925943    -4.549052  0.074436468   -5.6925943    1.1435423   520538 
 1339000    1.0488267   -5.6924663   -5.6924663   -4.5502897  0.088419453   -5.6924663    1.1421766   520538 
 1340000    1.0496792   -5.6931771   -5.6931771   -4.5500721   0.07889586   -5.6931771    1.1431049   520538 
 1341000    1.0482278   -5.6917668   -5.6917668   -4.5502426  0.087431617   -5.6917668    1.1415243   520538 
 1342000    1.0477887   -5.6921052   -5.6921052   -4.5510591  0.082958451   -5.6921052    1.1410461   520538 
 1343000    1.0480679   -5.6916773   -5.6916773   -4.5503271  0.089058265   -5.6916773    1.1413502   520538 
 1344000    1.0482145   -5.6925489   -5.6925489    -4.551039  0.083147856   -5.6925489    1.1415099   520538 
 1345000    1.0468365   -5.6918868   -5.6918868   -4.5518776  0.087001985   -5.6918868    1.1400092   520538 
 1346000    1.0487311   -5.6941691   -5.6941691   -4.5520967   0.06197161   -5.6941691    1.1420724   520538 
 1347000    1.0487572   -5.6943124   -5.6943124   -4.5522115  0.060889904   -5.6943124    1.1421008   520538 
 1348000    1.0483866   -5.6944023   -5.6944023   -4.5527051  0.066052756   -5.6944023    1.1416972   520538 
 1349000    1.0464036   -5.6917556   -5.6917556   -4.5522178  0.072476986   -5.6917556    1.1395378   520538 
 1350000     1.049741   -5.6955187   -5.6955187   -4.5523466  0.092049334   -5.6955187    1.1431722   520538 
 1351000    1.0474352   -5.6940507   -5.6940507   -4.5533895  0.094350257   -5.6940507    1.1406612   520538 
 1352000    1.0487471   -5.6960245   -5.6960245   -4.5539347   0.11099664   -5.6960245    1.1420898   520538 
 1353000    1.0475964   -5.6946911   -5.6946911   -4.5538543  0.092394634   -5.6946911    1.1408368   520538 
 1354000    1.0495585   -5.6980979   -5.6980979   -4.5551244  0.086521274   -5.6980979    1.1429735   520538 
 1355000    1.0479091   -5.6953795   -5.6953795   -4.5542022  0.090636118   -5.6953795    1.1411773   520538 
 1356000    1.0488229   -5.6964589   -5.6964589   -4.5542864  0.076210754   -5.6964589    1.1421724   520538 
 1357000    1.0481497   -5.6959781   -5.6959781   -4.5545388  0.094509497   -5.6959781    1.1414393   520538 
 1358000    1.0484739   -5.6964085   -5.6964085   -4.5546162  0.077769276   -5.6964085    1.1417924   520538 
 1359000    1.0500167   -5.6976223   -5.6976223   -4.5541498  0.062164082   -5.6976223    1.1434725   520538 
 1360000    1.0518343   -5.7000017   -5.7000017   -4.5545499  0.059301391   -5.7000017    1.1454518   520538 
 1361000    1.0493531   -5.6971419   -5.6971419   -4.5543922   0.07996824   -5.6971419    1.1427497   520538 
 1362000    1.0481096   -5.6971714   -5.6971714   -4.5557757  0.070239469   -5.6971714    1.1413956   520538 
 1363000    1.0485825     -5.69803     -5.69803   -4.5561194   0.07641146     -5.69803    1.1419106   520538 
 1364000    1.0488578   -5.6987049   -5.6987049   -4.5564945  0.080839862   -5.6987049    1.1422104   520538 
 1365000    1.0480497   -5.6987579   -5.6987579   -4.5574276  0.083048511   -5.6987579    1.1413304   520538 
 1366000    1.0478567   -5.6984728   -5.6984728   -4.5573525  0.071270611   -5.6984728    1.1411202   520538 
 1367000    1.0471639   -5.6982911   -5.6982911   -4.5579253  0.081126961   -5.6982911    1.1403658   520538 
 1368000    1.0480071   -5.6987814   -5.6987814   -4.5574974   0.08133421   -5.6987814     1.141284   520538 
 1369000    1.0478861   -5.6988363   -5.6988363   -4.5576841  0.079447035   -5.6988363    1.1411522   520538 
 1370000    1.0480395   -5.6984812   -5.6984812   -4.5571619  0.073498562   -5.6984812    1.1413193   520538 
 1371000    1.0498057   -5.7009555   -5.7009555   -4.5577128  0.075847341   -5.7009555    1.1432427   520538 
 1372000    1.0482034    -5.699859    -5.699859   -4.5583612  0.080025161    -5.699859    1.1414978   520538 
 1373000     1.046833   -5.6982234   -5.6982234   -4.5582181  0.067375744   -5.6982234    1.1400053   520538 
 1374000    1.0485202   -5.7003174   -5.7003174   -4.5584746  0.084476322   -5.7003174    1.1418428   520538 
 1375000    1.0455196   -5.6969168   -5.6969168   -4.5583417   0.07556147   -5.6969168    1.1385751   520538 
 1376000    1.0477382   -5.6998769   -5.6998769   -4.5588858  0.073333091   -5.6998769    1.1409911   520538 
 1377000    1.0474856   -5.7003499   -5.7003499   -4.5596339  0.072043774   -5.7003499    1.1407161   520538 
 1378000    1.0457764   -5.6986202   -5.6986202   -4.5597654  0.081330752   -5.6986202    1.1388548   520538 
 1379000    1.0480419   -5.7018282   -5.7018282   -4.5605063  0.079987208   -5.7018282    1.1413219   520538 
 1380000    1.0454942   -5.6992545   -5.6992545   -4.5607071  0.074744075   -5.6992545    1.1385474   520538 
 1381000    1.0459962   -5.6998195   -5.6998195   -4.5607254  0.071167579   -5.6998195    1.1390941   520538 
 1382000    1.0485724   -5.7019795   -5.7019795   -4.5600799   0.08888168   -5.7019795    1.1418996   520538 
 1383000    1.0454597   -5.6991893   -5.6991893   -4.5606795  0.087528655   -5.6991893    1.1385098   520538 
 1384000    1.0478456   -5.7014349   -5.7014349   -4.5603268  0.062476103   -5.7014349    1.1411081   520538 
 1385000    1.0461437   -5.6994441   -5.6994441   -4.5601893  0.092119706   -5.6994441    1.1392548   520538 
 1386000    1.0468112   -5.7004681   -5.7004681   -4.5604864  0.067766291   -5.7004681    1.1399816   520538 
 1387000    1.0461828   -5.6998552   -5.6998552   -4.5605579  0.082115666   -5.6998552    1.1392973   520538 
 1388000    1.0452761   -5.6998069   -5.6998069    -4.561497  0.093719146   -5.6998069    1.1383099   520538 
 1389000    1.0459348   -5.7012657   -5.7012657   -4.5622385  0.074571568   -5.7012657    1.1390272   520538 
 1390000     1.046377   -5.7019959   -5.7019959   -4.5624871  0.076090731   -5.7019959    1.1395088   520538 
 1391000    1.0464413    -5.702181    -5.702181   -4.5626022  0.071328354    -5.702181    1.1395788   520538 
 1392000    1.0472606   -5.7031122   -5.7031122   -4.5626411   0.05326916   -5.7031122    1.1404711   520538 
 1393000    1.0469333   -5.7022115   -5.7022115   -4.5620968  0.067395037   -5.7022115    1.1401147   520538 
 1394000    1.0486696   -5.7039747   -5.7039747   -4.5619693  0.091218139   -5.7039747    1.1420054   520538 
 1395000     1.046474    -5.701506    -5.701506   -4.5618916  0.090730313    -5.701506    1.1396144   520538 
 1396000    1.0478149   -5.7034574   -5.7034574   -4.5623827  0.071007342   -5.7034574    1.1410747   520538 
 1397000    1.0463067   -5.7015427   -5.7015427   -4.5621105  0.087800461   -5.7015427    1.1394323   520538 
 1398000    1.0455892   -5.7021033   -5.7021033   -4.5634524  0.090928079   -5.7021033    1.1386509   520538 
 1399000    1.0471134   -5.7036607   -5.7036607     -4.56335  0.076596307   -5.7036607    1.1403107   520538 
 1400000    1.0448193   -5.7026741   -5.7026741   -4.5648616   0.06628019   -5.7026741    1.1378125   520538 
 1401000    1.0454675   -5.7025743   -5.7025743   -4.5640559  0.072032322   -5.7025743    1.1385184   520538 
 1402000    1.0443988   -5.7015207   -5.7015207   -4.5641661  0.082690623   -5.7015207    1.1373545   520538 
 1403000    1.0463764   -5.7037592   -5.7037592   -4.5642511  0.075132878   -5.7037592    1.1395081   520538 
 1404000    1.0449948   -5.7021648   -5.7021648   -4.5641613  0.087967534   -5.7021648    1.1380036   520538 
 1405000    1.0453999   -5.7030218   -5.7030218    -4.564577  0.060071264   -5.7030218    1.1384448   520538 
 1406000    1.0467452   -5.7039261   -5.7039261   -4.5640163  0.088896385   -5.7039261    1.1399098   520538 
 1407000    1.0467332   -5.7036892   -5.7036892   -4.5637924  0.073982582   -5.7036892    1.1398967   520538 
 1408000    1.0461417   -5.7030406   -5.7030406    -4.563788  0.055593399   -5.7030406    1.1392526   520538 
 1409000    1.0466804   -5.7031533   -5.7031533    -4.563314  0.082626961   -5.7031533    1.1398392   520538 
 1410000    1.0467733   -5.7042073   -5.7042073   -4.5642669  0.082128967   -5.7042073    1.1399404   520538 
 1411000    1.0442689     -5.70142     -5.70142    -4.564207  0.098408316     -5.70142    1.1372131   520538 
 1412000    1.0476687   -5.7046963   -5.7046963   -4.5637809  0.085163343   -5.7046963    1.1409154   520538 
 1413000    1.0475786   -5.7054496   -5.7054496   -4.5646323  0.075103026   -5.7054496    1.1408173   520538 
 1414000    1.0486952   -5.7070957   -5.7070957   -4.5650623  0.078231324   -5.7070957    1.1420334   520538 
 1415000    1.0473008   -5.7057082   -5.7057082   -4.5651934  0.088783256   -5.7057082    1.1405148   520538 
 1416000    1.0484142   -5.7066844   -5.7066844   -4.5649571  0.073313508   -5.7066844    1.1417273   520538 
 1417000    1.0487722   -5.7071264   -5.7071264   -4.5650092  0.081155243   -5.7071264    1.1421171   520538 
 1418000     1.045329   -5.7036664   -5.7036664   -4.5652989  0.051687879   -5.7036664    1.1383675   520538 
 1419000    1.0473124   -5.7060142   -5.7060142   -4.5654868  0.077460988   -5.7060142    1.1405274   520538 
 1420000    1.0474283   -5.7073234   -5.7073234   -4.5666697   0.10068698   -5.7073234    1.1406537   520538 
 1421000    1.0470054   -5.7071698   -5.7071698   -4.5669767  0.083329713   -5.7071698    1.1401932   520538 
 1422000    1.0451091   -5.7049117   -5.7049117   -4.5667837  0.079564679   -5.7049117     1.138128   520538 
 1423000    1.0467809   -5.7067294   -5.7067294   -4.5667807  0.082615285   -5.7067294    1.1399487   520538 
 1424000     1.044564   -5.7057796   -5.7057796   -4.5682451  0.069524245   -5.7057796    1.1375345   520538 
 1425000    1.0460732   -5.7074076   -5.7074076   -4.5682296  0.057748075   -5.7074076     1.139178   520538 
 1426000    1.0452326   -5.7069718   -5.7069718   -4.5687093  0.093630085   -5.7069718    1.1382625   520538 
 1427000      1.04851   -5.7094811   -5.7094811   -4.5676495  0.087772299   -5.7094811    1.1418317   520538 
 1428000    1.0468486   -5.7073981   -5.7073981   -4.5673757  0.079749941   -5.7073981    1.1400224   520538 
 1429000    1.0453747   -5.7062009   -5.7062009   -4.5677836  0.079761987   -5.7062009    1.1384173   520538 
 1430000    1.0453923   -5.7070557   -5.7070557   -4.5686192  0.091420928   -5.7070557    1.1384364   520538 
 1431000    1.0448897   -5.7065157   -5.7065157   -4.5686266  0.079566418   -5.7065157    1.1378892   520538 
 1432000    1.0460181   -5.7079552   -5.7079552   -4.5688372  0.085457507   -5.7079552     1.139118   520538 
 1433000     1.044231   -5.7063277   -5.7063277   -4.5691559  0.066124572   -5.7063277    1.1371719   520538 
 1434000    1.0448176   -5.7075284   -5.7075284   -4.5697178  0.065556093   -5.7075284    1.1378106   520538 
 1435000    1.0440619    -5.706544    -5.706544   -4.5695563  0.087172758    -5.706544    1.1369876   520538 
 1436000    1.0457381   -5.7084516   -5.7084516   -4.5696386  0.079604104   -5.7084516     1.138813   520538 
 1437000    1.0443949   -5.7061656   -5.7061656   -4.5688153    0.1008328   -5.7061656    1.1373502   520538 
 1438000    1.0437797   -5.7057775   -5.7057775   -4.5690972  0.071471693   -5.7057775    1.1366804   520538 
 1439000    1.0471789   -5.7101637   -5.7101637   -4.5697816  0.056837952   -5.7101637    1.1403821   520538 
 1440000    1.0456385   -5.7085415   -5.7085415   -4.5698369  0.069891018   -5.7085415    1.1387046   520538 
 1441000    1.0462812   -5.7096569   -5.7096569   -4.5702524   0.06764257   -5.7096569    1.1394045   520538 
 1442000    1.0456119   -5.7093002   -5.7093002   -4.5706246   0.10085532   -5.7093002    1.1386757   520538 
 1443000    1.0466498   -5.7104584   -5.7104584   -4.5706526  0.084843751   -5.7104584    1.1398058   520538 
 1444000    1.0448016   -5.7088616   -5.7088616   -4.5710684  0.088712625   -5.7088616    1.1377932   520538 
 1445000     1.046467   -5.7107231   -5.7107231   -4.5711163  0.084366332   -5.7107231    1.1396068   520538 
 1446000    1.0459658   -5.7108528   -5.7108528   -4.5717918  0.063421309   -5.7108528     1.139061   520538 
 1447000    1.0453748   -5.7107139   -5.7107139   -4.5722965  0.087192423   -5.7107139    1.1384174   520538 
 1448000    1.0455832   -5.7097908   -5.7097908   -4.5711465  0.068871666   -5.7097908    1.1386443   520538 
 1449000    1.0450619   -5.7100634   -5.7100634   -4.5719867  0.078412883   -5.7100634    1.1380767   520538 
 1450000    1.0451454   -5.7103901   -5.7103901   -4.5722226  0.051549328   -5.7103901    1.1381675   520538 
 1451000    1.0459105   -5.7111667   -5.7111667   -4.5721659  0.096967906   -5.7111667    1.1390008   520538 
 1452000    1.0465729   -5.7123329   -5.7123329   -4.5726107  0.062413259   -5.7123329    1.1397222   520538 
 1453000    1.0462309   -5.7117965   -5.7117965   -4.5724467   0.07613581   -5.7117965    1.1393498   520538 
 1454000    1.0444268   -5.7101128   -5.7101128   -4.5727277  0.078900321   -5.7101128    1.1373851   520538 
 1455000    1.0439065   -5.7100914   -5.7100914    -4.573273  0.089029688   -5.7100914    1.1368184   520538 
 1456000    1.0438826   -5.7109025   -5.7109025   -4.5741101  0.053832149   -5.7109025    1.1367924   520538 
 1457000    1.0447983   -5.7108415   -5.7108415   -4.5730518  0.075197047   -5.7108415    1.1377896   520538 
 1458000    1.0435547   -5.7102426   -5.7102426   -4.5738072  0.076326611   -5.7102426    1.1364354   520538 
 1459000    1.0455791   -5.7126852   -5.7126852   -4.5740453   0.10127918   -5.7126852    1.1386399   520538 
 1460000    1.0456867   -5.7129324   -5.7129324   -4.5741753  0.072372302   -5.7129324    1.1387571   520538 
 1461000    1.0450739   -5.7116853   -5.7116853   -4.5735956    0.0744333   -5.7116853    1.1380897   520538 
 1462000    1.0474028    -5.714212    -5.714212   -4.5735862  0.078807283    -5.714212    1.1406259   520538 
 1463000    1.0459651   -5.7130096   -5.7130096   -4.5739494  0.094389416   -5.7130096    1.1390602   520538 
 1464000    1.0455482   -5.7122662   -5.7122662     -4.57366  0.091127393   -5.7122662    1.1386063   520538 
 1465000    1.0445587   -5.7123091   -5.7123091   -4.5747804  0.077234345   -5.7123091    1.1375287   520538 
 1466000    1.0462629   -5.7141419   -5.7141419   -4.5747573  0.066627736   -5.7141419    1.1393845   520538 
 1467000    1.0459926   -5.7143811   -5.7143811   -4.5752909  0.078444852   -5.7143811    1.1390902   520538 
 1468000    1.0455522    -5.714294    -5.714294   -4.5756834  0.096269674    -5.714294    1.1386106   520538 
 1469000    1.0442219   -5.7125714   -5.7125714   -4.5754095  0.073378413   -5.7125714    1.1371619   520538 
 1470000    1.0447168   -5.7133251   -5.7133251   -4.5756243  0.062987917   -5.7133251    1.1377008   520538 
 1471000    1.0458801   -5.7144818   -5.7144818   -4.5755142  0.092955005   -5.7144818    1.1389676   520538 
 1472000    1.0451817   -5.7137411   -5.7137411    -4.575534  0.077852268   -5.7137411    1.1382071   520538 
 1473000    1.0450423   -5.7138703   -5.7138703    -4.575815  0.094157331   -5.7138703    1.1380553   520538 
 1474000    1.0446888   -5.7141392   -5.7141392   -4.5764689  0.082463592   -5.7141392    1.1376703   520538 
 1475000    1.0443916   -5.7148696   -5.7148696   -4.5775229  0.084372791   -5.7148696    1.1373467   520538 
 1476000    1.0452383   -5.7151381   -5.7151381   -4.5768694  0.078948998   -5.7151381    1.1382688   520538 
 1477000    1.0456296   -5.7161519   -5.7161519    -4.577457  0.094388376   -5.7161519    1.1386949   520538 
 1478000     1.043756   -5.7137764   -5.7137764   -4.5771219  0.067442452   -5.7137764    1.1366545   520538 
 1479000    1.0430792   -5.7141298   -5.7141298   -4.5782123   0.05758112   -5.7141298    1.1359175   520538 
 1480000    1.0433498   -5.7146657   -5.7146657   -4.5784536  0.065157037   -5.7146657    1.1362122   520538 
 1481000    1.0452347   -5.7153551   -5.7153551   -4.5770903  0.074385981   -5.7153551    1.1382648   520538 
 1482000    1.0463193   -5.7159825   -5.7159825   -4.5765366  0.096458831   -5.7159825     1.139446   520538 
 1483000    1.0450534    -5.714609    -5.714609   -4.5765416  0.082073059    -5.714609    1.1380674   520538 
 1484000    1.0462446   -5.7161683   -5.7161683   -4.5768036  0.083282861   -5.7161683    1.1393646   520538 
 1485000     1.043912   -5.7144634   -5.7144634    -4.577639  0.088768611   -5.7144634    1.1368244   520538 
 1486000    1.0417071   -5.7128045   -5.7128045   -4.5783813   0.07269851   -5.7128045    1.1344232   520538 
 1487000    1.0452832   -5.7165633   -5.7165633   -4.5782456  0.072321845   -5.7165633    1.1383177   520538 
 1488000    1.0444743   -5.7159063   -5.7159063   -4.5784696  0.068408407   -5.7159063    1.1374368   520538 
 1489000    1.0467304   -5.7188518   -5.7188518   -4.5789581  0.073015243   -5.7188518    1.1398937   520538 
 1490000    1.0425941   -5.7140808   -5.7140808   -4.5786916  0.086405685   -5.7140808    1.1353892   520538 
 1491000     1.047194   -5.7190081   -5.7190081   -4.5786095  0.082974569   -5.7190081    1.1403985   520538 
 1492000    1.0440077   -5.7159763   -5.7159763   -4.5790477  0.075107947   -5.7159763    1.1369286   520538 
 1493000    1.0452743   -5.7172829   -5.7172829   -4.5789749  0.084393427   -5.7172829    1.1383079   520538 
 1494000    1.0457652   -5.7178893   -5.7178893   -4.5790467  0.076805846   -5.7178893    1.1388425   520538 
 1495000    1.0434207     -5.71608     -5.71608   -4.5797906  0.093262261     -5.71608    1.1362894   520538 
 1496000    1.0454692   -5.7175411   -5.7175411   -4.5790208    0.1033512   -5.7175411    1.1385202   520538 
 1497000    1.0456269   -5.7183854   -5.7183854   -4.5796935  0.065997004   -5.7183854    1.1386919   520538 
 1498000    1.0445679    -5.716309    -5.716309   -4.5787704   0.10328004    -5.716309    1.1375387   520538 
 1499000    1.0431935   -5.7154377   -5.7154377   -4.5793957  0.073800259   -5.7154377     1.136042   520538 
 1500000    1.0481786   -5.7215333   -5.7215333   -4.5800625   0.06226691   -5.7215333    1.1414708   520538 
 1501000    1.0454123   -5.7187377   -5.7187377   -4.5802795  0.077052723   -5.7187377    1.1384582   520538 
 1502000    1.0480839   -5.7216217   -5.7216217    -4.580254  0.086893272   -5.7216217    1.1413677   520538 
 1503000    1.0470808   -5.7210854   -5.7210854   -4.5808102  0.094758153   -5.7210854    1.1402752   520538 
 1504000     1.046925    -5.720914    -5.720914   -4.5808085  0.068335557    -5.720914    1.1401056   520538 
 1505000     1.047319   -5.7222613   -5.7222613   -4.5817267  0.087689351   -5.7222613    1.1405346   520538 
 1506000    1.0461284   -5.7220217   -5.7220217   -4.5827836  0.074373173   -5.7220217    1.1392381   520538 
 1507000    1.0458031   -5.7204474   -5.7204474   -4.5815636  0.089376325   -5.7204474    1.1388838   520538 
 1508000    1.0444485   -5.7199323   -5.7199323   -4.5825236  0.063507551   -5.7199323    1.1374087   520538 
 1509000    1.0442226   -5.7195952   -5.7195952   -4.5824326  0.083035613   -5.7195952    1.1371627   520538 
 1510000    1.0436261   -5.7194085   -5.7194085   -4.5828954  0.056452209   -5.7194085    1.1365131   520538 
 1511000    1.0438627   -5.7188756   -5.7188756   -4.5821048   0.07605394   -5.7188756    1.1367708   520538 
 1512000    1.0433611   -5.7187454   -5.7187454   -4.5825209  0.076087074   -5.7187454    1.1362245   520538 
 1513000    1.0444177   -5.7203412   -5.7203412   -4.5829661  0.073754594   -5.7203412    1.1373751   520538 
 1514000    1.0431801   -5.7189729   -5.7189729   -4.5829455  0.068452296   -5.7189729    1.1360274   520538 
 1515000    1.0447683   -5.7207939   -5.7207939   -4.5830369  0.067568336   -5.7207939    1.1377569   520538 
 1516000    1.0435122   -5.7199031   -5.7199031   -4.5835141  0.087134585   -5.7199031     1.136389   520538 
 1517000    1.0420807   -5.7186796   -5.7186796   -4.5838494  0.063284365   -5.7186796    1.1348301   520538 
 1518000    1.0440463   -5.7208251   -5.7208251   -4.5838544  0.052495704   -5.7208251    1.1369706   520538 
 1519000    1.0421083   -5.7188604   -5.7188604   -4.5840002  0.071934152   -5.7188604    1.1348602   520538 
 1520000    1.0432708   -5.7213619   -5.7213619   -4.5852358  0.051069153   -5.7213619    1.1361261   520538 
 1521000      1.04442   -5.7230032   -5.7230032   -4.5856256  0.067667185   -5.7230032    1.1373776   520538 
 1522000    1.0424389   -5.7203681   -5.7203681   -4.5851479  0.089064023   -5.7203681    1.1352202   520538 
 1523000    1.0429748   -5.7216882   -5.7216882   -4.5858844  0.075223768   -5.7216882    1.1358038   520538 
 1524000    1.0429078   -5.7216469   -5.7216469   -4.5859161  0.091544737   -5.7216469    1.1357308   520538 
 1525000     1.042205   -5.7211532   -5.7211532   -4.5861878  0.081285734   -5.7211532    1.1349654   520538 
 1526000    1.0458481    -5.725461    -5.725461   -4.5865282  0.083079217    -5.725461    1.1389328   520538 
 1527000    1.0429198   -5.7221212   -5.7221212   -4.5863773  0.072183334   -5.7221212    1.1357439   520538 
 1528000    1.0426497      -5.7226      -5.7226   -4.5871502  0.093733572      -5.7226    1.1354498   520538 
 1529000    1.0435109   -5.7231985   -5.7231985   -4.5868109  0.071463601   -5.7231985    1.1363876   520538 
 1530000    1.0429711   -5.7228068   -5.7228068    -4.587007  0.054423551   -5.7228068    1.1357998   520538 
 1531000    1.0413192   -5.7222901   -5.7222901   -4.5882892  0.075989344   -5.7222901    1.1340009   520538 
 1532000    1.0424603   -5.7223948   -5.7223948   -4.5871513  0.061618085   -5.7223948    1.1352435   520538 
 1533000    1.0414853   -5.7219497   -5.7219497    -4.587768  0.072523268   -5.7219497    1.1341817   520538 
 1534000    1.0427917   -5.7240943   -5.7240943   -4.5884899  0.065681881   -5.7240943    1.1356044   520538 
 1535000    1.0432978   -5.7245177   -5.7245177   -4.5883622  0.055205152   -5.7245177    1.1361555   520538 
 1536000     1.041514   -5.7223852   -5.7223852   -4.5881721  0.080995356   -5.7223852     1.134213   520538 
 1537000    1.0427344   -5.7239424   -5.7239424   -4.5884004  0.075922669   -5.7239424     1.135542   520538 
 1538000    1.0419853   -5.7227831   -5.7227831   -4.5880569  0.061460289   -5.7227831    1.1347263   520538 
 1539000     1.043114   -5.7247025   -5.7247025   -4.5887471  0.073809332   -5.7247025    1.1359554   520538 
 1540000    1.0406244   -5.7228289   -5.7228289   -4.5895847  0.065965663   -5.7228289    1.1332443   520538 
 1541000    1.0416938   -5.7252583   -5.7252583   -4.5908495  0.072408211   -5.7252583    1.1344087   520538 
 1542000    1.0407043   -5.7244832   -5.7244832   -4.5911519  0.064894178   -5.7244832    1.1333313   520538 
 1543000    1.0421896   -5.7257623   -5.7257623   -4.5908137  0.075828751   -5.7257623    1.1349487   520538 
 1544000    1.0421038   -5.7264304   -5.7264304   -4.5915751  0.072956179   -5.7264304    1.1348553   520538 
 1545000    1.0413688   -5.7262579   -5.7262579    -4.592203  0.068041082   -5.7262579    1.1340548   520538 
 1546000    1.0404693   -5.7237168   -5.7237168   -4.5906416  0.091694823   -5.7237168    1.1330753   520538 
 1547000    1.0411717   -5.7249746   -5.7249746   -4.5911344  0.074917551   -5.7249746    1.1338402   520538 
 1548000    1.0422172   -5.7270131   -5.7270131   -4.5920344  0.088009845   -5.7270131    1.1349787   520538 
 1549000    1.0422857   -5.7280308   -5.7280308   -4.5929775  0.077994235   -5.7280308    1.1350533   520538 
 1550000    1.0423477   -5.7273569   -5.7273569    -4.592236  0.062646801   -5.7273569    1.1351208   520538 
 1551000    1.0399351   -5.7251135   -5.7251135     -4.59262  0.097665437   -5.7251135    1.1324935   520538 
 1552000    1.0409654   -5.7259162   -5.7259162   -4.5923006   0.08401414   -5.7259162    1.1336155   520538 
 1553000    1.0409224   -5.7258773   -5.7258773   -4.5923085   0.07106414   -5.7258773    1.1335688   520538 
 1554000    1.0388633   -5.7248386   -5.7248386   -4.5935122  0.093899329   -5.7248386    1.1313264   520538 
 1555000    1.0395909   -5.7262015   -5.7262015   -4.5940828  0.053520655   -5.7262015    1.1321187   520538 
 1556000    1.0416791   -5.7284254   -5.7284254   -4.5940326  0.062580959   -5.7284254    1.1343928   520538 
 1557000    1.0430994   -5.7300894   -5.7300894   -4.5941499  0.079576727   -5.7300894    1.1359395   520538 
 1558000    1.0410522   -5.7276389   -5.7276389   -4.5939288  0.083388376   -5.7276389    1.1337101   520538 
 1559000     1.040205   -5.7261066   -5.7261066   -4.5933191  0.085165325   -5.7261066    1.1327874   520538 
 1560000    1.0408829    -5.726395    -5.726395   -4.5928693  0.094569172    -5.726395    1.1335257   520538 
 1561000    1.0407867   -5.7265972   -5.7265972   -4.5931762  0.061472972   -5.7265972     1.133421   520538 
 1562000    1.0404621   -5.7272507   -5.7272507   -4.5941832  0.078003011   -5.7272507    1.1330675   520538 
 1563000    1.0405521   -5.7288511   -5.7288511   -4.5956856  0.065318674   -5.7288511    1.1331655   520538 
 1564000    1.0392258   -5.7272752   -5.7272752    -4.595554  0.078619184   -5.7272752    1.1317212   520538 
 1565000    1.0422989   -5.7299737   -5.7299737    -4.594906  0.072143192   -5.7299737    1.1350678   520538 
 1566000    1.0396922   -5.7279249   -5.7279249   -4.5956959  0.099787899   -5.7279249     1.132229   520538 
 1567000     1.041221   -5.7288778   -5.7288778   -4.5949839  0.077535081   -5.7288778    1.1338939   520538 
 1568000    1.0415211   -5.7298759   -5.7298759   -4.5956551   0.10965859   -5.7298759    1.1342207   520538 
 1569000     1.040446   -5.7291482   -5.7291482   -4.5960982  0.081761617   -5.7291482      1.13305   520538 
 1570000    1.0399655   -5.7280073   -5.7280073   -4.5954807   0.08195022   -5.7280073    1.1325266   520538 
 1571000    1.0424633    -5.731352    -5.731352   -4.5961052  0.052090835    -5.731352    1.1352468   520538 
 1572000    1.0405383   -5.7295521   -5.7295521   -4.5964016  0.083047978   -5.7295521    1.1331505   520538 
 1573000    1.0410224   -5.7293762   -5.7293762   -4.5956986  0.071923625   -5.7293762    1.1336776   520538 
 1574000    1.0409879   -5.7290585   -5.7290585   -4.5954184  0.085819976   -5.7290585    1.1336401   520538 
 1575000    1.0409208   -5.7289175   -5.7289175   -4.5953505   0.07403138   -5.7289175     1.133567   520538 
 1576000    1.0402748   -5.7290949   -5.7290949   -4.5962315  0.075672006   -5.7290949    1.1328634   520538 
 1577000    1.0402417   -5.7283903   -5.7283903   -4.5955629   0.10461867   -5.7283903    1.1328274   520538 
 1578000    1.0415899   -5.7300879   -5.7300879   -4.5957923  0.081814235   -5.7300879    1.1342956   520538 
 1579000     1.039929   -5.7285622   -5.7285622   -4.5960753  0.071498464   -5.7285622    1.1324869   520538 
 1580000    1.0389774   -5.7285735   -5.7285735   -4.5971229  0.079410007   -5.7285735    1.1314506   520538 
 1581000    1.0392363   -5.7288688   -5.7288688   -4.5971362  0.063319343   -5.7288688    1.1317326   520538 
 1582000    1.0407382   -5.7297458   -5.7297458   -4.5963777  0.091924614   -5.7297458    1.1333681   520538 
 1583000    1.0415049   -5.7307746   -5.7307746   -4.5965716  0.078099079   -5.7307746     1.134203   520538 
 1584000    1.0400402   -5.7293441   -5.7293441   -4.5967361   0.10491063   -5.7293441     1.132608   520538 
 1585000    1.0393518   -5.7296806   -5.7296806   -4.5978222  0.070102148   -5.7296806    1.1318584   520538 
 1586000    1.0403014   -5.7305198   -5.7305198   -4.5976274  0.082800357   -5.7305198    1.1328925   520538 
 1587000    1.0402624   -5.7307021   -5.7307021   -4.5978522  0.063688376   -5.7307021    1.1328499   520538 
 1588000     1.039562    -5.728955    -5.728955   -4.5968678  0.077861427    -5.728955    1.1320872   520538 
 1589000    1.0427282   -5.7328849   -5.7328849   -4.5973497  0.056319732   -5.7328849    1.1355352   520538 
 1590000    1.0402584   -5.7303451   -5.7303451   -4.5974994   0.10601996   -5.7303451    1.1328457   520538 
 1591000    1.0417117   -5.7318236   -5.7318236   -4.5973953    0.0611927   -5.7318236    1.1344283   520538 
 1592000    1.0419213    -5.732942    -5.732942   -4.5982854   0.07511179    -5.732942    1.1346566   520538 
 1593000    1.0402063   -5.7315066   -5.7315066   -4.5987177  0.077731401   -5.7315066    1.1327889   520538 
 1594000    1.0395556   -5.7307512   -5.7307512    -4.598671  0.071840871   -5.7307512    1.1320803   520538 
 1595000    1.0410787   -5.7332405   -5.7332405   -4.5995016  0.080222538   -5.7332405    1.1337389   520538 
 1596000    1.0410667   -5.7330099   -5.7330099    -4.599284  0.059904077   -5.7330099    1.1337259   520538 
 1597000    1.0394233   -5.7326634   -5.7326634   -4.6007272  0.093412706   -5.7326634    1.1319362   520538 
 1598000    1.0411719   -5.7341832   -5.7341832   -4.6003427  0.084001256   -5.7341832    1.1338405   520538 
 1599000    1.0391111   -5.7315769   -5.7315769   -4.5999807  0.079144104   -5.7315769    1.1315962   520538 
 1600000    1.0402392   -5.7331968   -5.7331968   -4.6003721   0.04823846   -5.7331968    1.1328247   520538 
 1601000    1.0408879   -5.7342032   -5.7342032   -4.6006721  0.083761998   -5.7342032    1.1335311   520538 
 1602000    1.0407656   -5.7339795   -5.7339795   -4.6005815   0.05858932   -5.7339795     1.133398   520538 
 1603000    1.0406698   -5.7340328   -5.7340328   -4.6007392  0.070123144   -5.7340328    1.1332936   520538 
 1604000     1.040347   -5.7338054   -5.7338054   -4.6008633   0.05672714   -5.7338054    1.1329421   520538 
 1605000     1.038521   -5.7324558   -5.7324558   -4.6015022  0.077612819   -5.7324558    1.1309536   520538 
 1606000     1.038552   -5.7327838   -5.7327838   -4.6017965  0.063613685   -5.7327838    1.1309873   520538 
 1607000    1.0386635    -5.733192    -5.733192   -4.6020832  0.075312194    -5.733192    1.1311087   520538 
 1608000    1.0403264   -5.7339896   -5.7339896   -4.6010699  0.082691265   -5.7339896    1.1329197   520538 
 1609000    1.0391349   -5.7327437   -5.7327437   -4.6011216  0.055745859   -5.7327437    1.1316221   520538 
 1610000    1.0386939   -5.7340096   -5.7340096   -4.6028678  0.074936486   -5.7340096    1.1311419   520538 
 1611000    1.0388702   -5.7334433   -5.7334433   -4.6021095  0.071534458   -5.7334433    1.1313338   520538 
 1612000    1.0409556   -5.7352978   -5.7352978   -4.6016929  0.081074589   -5.7352978    1.1336049   520538 
 1613000    1.0415886   -5.7353312   -5.7353312    -4.601037  0.089108957   -5.7353312    1.1342942   520538 
 1614000    1.0421636   -5.7356599   -5.7356599   -4.6007395  0.089082676   -5.7356599    1.1349204   520538 
 1615000    1.0424622   -5.7362056   -5.7362056     -4.60096   0.10391743   -5.7362056    1.1352456   520538 
 1616000    1.0397392   -5.7335876   -5.7335876   -4.6013074  0.094526426   -5.7335876    1.1322802   520538 
 1617000    1.0408573   -5.7349834   -5.7349834   -4.6014855  0.087576089   -5.7349834    1.1334979   520538 
 1618000    1.0395823    -5.734655    -5.734655   -4.6025457  0.053578522    -5.734655    1.1321093   520538 
 1619000    1.0401882   -5.7354354   -5.7354354   -4.6026663   0.06967192   -5.7354354    1.1327691   520538 
 1620000    1.0383057   -5.7331815   -5.7331815   -4.6024624  0.063137036   -5.7331815    1.1307191   520538 
 1621000    1.0397898   -5.7351879   -5.7351879   -4.6028526  0.074178938   -5.7351879    1.1323353   520538 
 1622000    1.0391834    -5.735694    -5.735694   -4.6040191  0.068047094    -5.735694    1.1316749   520538 
 1623000    1.0412466   -5.7375995   -5.7375995   -4.6036778  0.071954735   -5.7375995    1.1339217   520538 
 1624000    1.0398299   -5.7356909   -5.7356909   -4.6033119  0.066724358   -5.7356909    1.1323789   520538 
 1625000     1.038755   -5.7348067   -5.7348067   -4.6035983  0.082062891   -5.7348067    1.1312084   520538 
 1626000    1.0392096    -5.735903    -5.735903   -4.6041996  0.084664964    -5.735903    1.1317034   520538 
 1627000    1.0404865   -5.7375804   -5.7375804   -4.6044863  0.064954454   -5.7375804    1.1330941   520538 
 1628000    1.0387645   -5.7373211   -5.7373211   -4.6061024  0.068273571   -5.7373211    1.1312187   520538 
 1629000    1.0386206   -5.7375834   -5.7375834   -4.6065214  0.071070859   -5.7375834     1.131062   520538 
 1630000    1.0391636   -5.7384847   -5.7384847   -4.6068313  0.073860598   -5.7384847    1.1316534   520538 
 1631000    1.0389172   -5.7380418   -5.7380418   -4.6066567  0.070243625   -5.7380418    1.1313851   520538 
 1632000    1.0394618   -5.7384586   -5.7384586   -4.6064805  0.063494333   -5.7384586    1.1319781   520538 
 1633000    1.0390896   -5.7377408   -5.7377408    -4.606168  0.072119586   -5.7377408    1.1315728   520538 
 1634000    1.0372609   -5.7362539   -5.7362539   -4.6066726  0.079488353   -5.7362539    1.1295813   520538 
 1635000    1.0413165   -5.7396759   -5.7396759    -4.605678  0.082016439   -5.7396759     1.133998   520538 
 1636000    1.0400764   -5.7377189   -5.7377189   -4.6050715  0.076228409   -5.7377189    1.1326474   520538 
 1637000    1.0390948   -5.7361747   -5.7361747   -4.6045963   0.06559072   -5.7361747    1.1315785   520538 
 1638000    1.0393973   -5.7369824   -5.7369824   -4.6050744  0.090432755   -5.7369824    1.1319079   520538 
 1639000    1.0380497   -5.7363049   -5.7363049   -4.6058646  0.061067482   -5.7363049    1.1304403   520538 
 1640000    1.0365169   -5.7353813   -5.7353813   -4.6066102  0.078426842   -5.7353813    1.1287711   520538 
 1641000    1.0379077   -5.7373347   -5.7373347    -4.607049  0.058593971   -5.7373347    1.1302857   520538 
 1642000    1.0379101    -5.737822    -5.737822   -4.6075337  0.056765431    -5.737822    1.1302883   520538 
 1643000    1.0381575   -5.7370844   -5.7370844   -4.6065267  0.078944498   -5.7370844    1.1305578   520538 
 1644000    1.0395333   -5.7389053   -5.7389053   -4.6068492  0.076907294   -5.7389053     1.132056   520538 
 1645000    1.0389212   -5.7387394   -5.7387394   -4.6073501  0.062472238   -5.7387394    1.1313894   520538 
 1646000    1.0387644   -5.7382458   -5.7382458   -4.6070271  0.090282415   -5.7382458    1.1312187   520538 
 1647000    1.0396205   -5.7401059   -5.7401059   -4.6079549  0.087740148   -5.7401059     1.132151   520538 
 1648000    1.0386291   -5.7396632   -5.7396632   -4.6085919  0.065374081   -5.7396632    1.1310713   520538 
 1649000    1.0408953   -5.7421295   -5.7421295   -4.6085903  0.083085775   -5.7421295    1.1335393   520538 
 1650000    1.0404369   -5.7407196   -5.7407196   -4.6076796  0.083310412   -5.7407196      1.13304   520538 
 1651000    1.0398167   -5.7397185   -5.7397185   -4.6073539  0.059846685   -5.7397185    1.1323646   520538 
 1652000    1.0381376   -5.7384568   -5.7384568   -4.6079207  0.068747389   -5.7384568    1.1305361   520538 
 1653000    1.0392109   -5.7395384   -5.7395384   -4.6078334  0.067120477   -5.7395384    1.1317049   520538 
 1654000    1.0394112   -5.7390884   -5.7390884   -4.6071654  0.059434575   -5.7390884    1.1319231   520538 
 1655000    1.0397663   -5.7398804   -5.7398804   -4.6075707  0.068081766   -5.7398804    1.1323097   520538 
 1656000    1.0383478    -5.738816    -5.738816    -4.608051  0.059835894    -5.738816     1.130765   520538 
 1657000    1.0389172    -5.738557    -5.738557   -4.6071719  0.082301643    -5.738557    1.1313851   520538 
 1658000    1.0376473   -5.7378063   -5.7378063   -4.6078042  0.051198977   -5.7378063    1.1300021   520538 
 1659000    1.0373148   -5.7373932   -5.7373932   -4.6077532  0.081471359   -5.7373932    1.1296401   520538 
 1660000    1.0421802   -5.7430237   -5.7430237   -4.6080852  0.059994133   -5.7430237    1.1349385   520538 
 1661000    1.0403503     -5.74126     -5.74126   -4.6083143    0.1008812     -5.74126    1.1329457   520538 
 1662000    1.0413137   -5.7425996   -5.7425996   -4.6086048   0.10449332   -5.7425996    1.1339948   520538 
 1663000    1.0410719   -5.7424903   -5.7424903   -4.6087587  0.078316901   -5.7424903    1.1337315   520538 
 1664000    1.0395819   -5.7402067   -5.7402067   -4.6080978  0.070070703   -5.7402067    1.1321089   520538 
 1665000     1.036102   -5.7375641   -5.7375641   -4.6092448  0.072383675   -5.7375641    1.1283192   520538 
 1666000    1.0379001   -5.7399568   -5.7399568   -4.6096793  0.068270389   -5.7399568    1.1302775   520538 
 1667000    1.0394201    -5.742019    -5.742019   -4.6100862  0.079152326    -5.742019    1.1319327   520538 
 1668000    1.0380627   -5.7408069   -5.7408069   -4.6103523  0.073782105   -5.7408069    1.1304545   520538 
 1669000    1.0385994   -5.7410524   -5.7410524   -4.6100135  0.074385826   -5.7410524     1.131039   520538 
 1670000    1.0374417   -5.7408576   -5.7408576   -4.6110793  0.069213771   -5.7408576    1.1297783   520538 
 1671000    1.0371269   -5.7407254   -5.7407254     -4.61129  0.076547933   -5.7407254    1.1294354   520538 
 1672000    1.0388158   -5.7425182   -5.7425182   -4.6112436  0.080215304   -5.7425182    1.1312747   520538 
 1673000    1.0383735   -5.7419798   -5.7419798   -4.6111868    0.0718166   -5.7419798     1.130793   520538 
 1674000    1.0382586   -5.7414388   -5.7414388    -4.610771  0.063705394   -5.7414388    1.1306678   520538 
 1675000    1.0393586   -5.7428975   -5.7428975   -4.6110317  0.066230589   -5.7428975    1.1318658   520538 
 1676000    1.0381655   -5.7418382   -5.7418382   -4.6112718  0.090978183   -5.7418382    1.1305664   520538 
 1677000    1.0369698   -5.7406229   -5.7406229   -4.6113586  0.089868737   -5.7406229    1.1292644   520538 
 1678000    1.0388457   -5.7429754   -5.7429754   -4.6116682  0.060392284   -5.7429754    1.1313072   520538 
 1679000    1.0379785   -5.7432452   -5.7432452   -4.6128823  0.063525155   -5.7432452    1.1303629   520538 
 1680000    1.0359163   -5.7404629   -5.7404629   -4.6123458  0.064710777   -5.7404629    1.1281171   520538 
 1681000    1.0371026   -5.7424772   -5.7424772   -4.6130683  0.090991076   -5.7424772    1.1294089   520538 
 1682000    1.0367383   -5.7419481   -5.7419481   -4.6129358    0.0648544   -5.7419481    1.1290122   520538 
 1683000    1.0351515   -5.7402362   -5.7402362   -4.6129521  0.081554737   -5.7402362    1.1272842   520538 
 1684000    1.0369179   -5.7419658   -5.7419658   -4.6127579  0.067026931   -5.7419658    1.1292079   520538 
 1685000     1.039306   -5.7442261   -5.7442261   -4.6124176  0.075315906   -5.7442261    1.1318085   520538 
 1686000    1.0389351   -5.7444372   -5.7444372   -4.6130326  0.075371548   -5.7444372    1.1314046   520538 
 1687000    1.0376949   -5.7436633   -5.7436633   -4.6136093  0.064874592   -5.7436633     1.130054   520538 
 1688000    1.0379768   -5.7443205   -5.7443205   -4.6139596     0.076658   -5.7443205    1.1303609   520538 
 1689000    1.0393537   -5.7454532   -5.7454532   -4.6135929  0.067523491   -5.7454532    1.1318604   520538 
 1690000    1.0368988   -5.7428629   -5.7428629   -4.6136759  0.069194545   -5.7428629     1.129187   520538 
 1691000    1.0386194   -5.7445317   -5.7445317    -4.613471  0.060199665   -5.7445317    1.1310608   520538 
 1692000    1.0375487   -5.7432345   -5.7432345   -4.6133397  0.070507744   -5.7432345    1.1298947   520538 
 1693000    1.0381581   -5.7433152   -5.7433152   -4.6127568  0.099492152   -5.7433152    1.1305584   520538 
 1694000    1.0400184   -5.7463003   -5.7463003   -4.6137161  0.064161488   -5.7463003    1.1325842   520538 
 1695000    1.0397835   -5.7460934   -5.7460934    -4.613765  0.098974933   -5.7460934    1.1323285   520538 
 1696000    1.0391303   -5.7461649   -5.7461649   -4.6145477   0.09260972   -5.7461649    1.1316172   520538 
 1697000    1.0382519   -5.7464192   -5.7464192   -4.6157587  0.068477338   -5.7464192    1.1306605   520538 
 1698000    1.0382072   -5.7461935   -5.7461935   -4.6155816  0.057900487   -5.7461935    1.1306119   520538 
 1699000    1.0377834   -5.7452137   -5.7452137   -4.6150634  0.082920598   -5.7452137    1.1301503   520538 
 1700000    1.0365712   -5.7440881   -5.7440881   -4.6152578  0.067161355   -5.7440881    1.1288302   520538 
 1701000    1.0388501   -5.7458382   -5.7458382   -4.6145262  0.075677941   -5.7458382     1.131312   520538 
 1702000    1.0377942   -5.7446128   -5.7446128   -4.6144507  0.067690561   -5.7446128    1.1301621   520538 
 1703000    1.0371226   -5.7429948   -5.7429948   -4.6135641  0.066716862   -5.7429948    1.1294307   520538 
 1704000    1.0401065   -5.7459188   -5.7459188   -4.6132385  0.083165694   -5.7459188    1.1326802   520538 
 1705000    1.0387741   -5.7449691   -5.7449691   -4.6137399  0.073637811   -5.7449691    1.1312292   520538 
 1706000    1.0395832   -5.7456969   -5.7456969   -4.6135865  0.082902558   -5.7456969    1.1321104   520538 
 1707000      1.03866   -5.7450907   -5.7450907   -4.6139857  0.073424834   -5.7450907    1.1311049   520538 
 1708000    1.0376568   -5.7458492   -5.7458492   -4.6158366  0.093212997   -5.7458492    1.1300125   520538 
 1709000    1.0377016    -5.746408    -5.746408   -4.6163467  0.060681782    -5.746408    1.1300613   520538 
 1710000    1.0372769   -5.7463035   -5.7463035   -4.6167048  0.071939727   -5.7463035    1.1295987   520538 
 1711000    1.0357935   -5.7452163   -5.7452163    -4.617233  0.060718991   -5.7452163    1.1279833   520538 
 1712000    1.0384746   -5.7483477   -5.7483477   -4.6174447  0.080782906   -5.7483477     1.130903   520538 
 1713000    1.0397068   -5.7496378   -5.7496378   -4.6173929  0.057885099   -5.7496378    1.1322449   520538 
 1714000    1.0396845   -5.7498532   -5.7498532   -4.6176325  0.085253324   -5.7498532    1.1322207   520538 
 1715000     1.037661   -5.7478355   -5.7478355   -4.6178184  0.080523014   -5.7478355    1.1300171   520538 
 1716000    1.0375588   -5.7479939   -5.7479939   -4.6180882  0.093879758   -5.7479939    1.1299057   520538 
 1717000      1.03829   -5.7496972   -5.7496972   -4.6189951  0.086125457   -5.7496972    1.1307021   520538 
 1718000     1.039816   -5.7508224   -5.7508224   -4.6184585  0.074566752   -5.7508224    1.1323639   520538 
 1719000    1.0404296   -5.7518493   -5.7518493   -4.6188173  0.053069229   -5.7518493     1.133032   520538 
 1720000    1.0396713   -5.7520954   -5.7520954   -4.6198891  0.088453983   -5.7520954    1.1322063   520538 
 1721000    1.0368631   -5.7495798   -5.7495798   -4.6204316  0.072409175   -5.7495798    1.1291481   520538 
 1722000    1.0379401   -5.7503088   -5.7503088   -4.6199878  0.056770428   -5.7503088     1.130321   520538 
 1723000    1.0385118   -5.7505984   -5.7505984   -4.6196549  0.071860019   -5.7505984    1.1309436   520538 
 1724000    1.0388107   -5.7509988   -5.7509988   -4.6197298  0.072212258   -5.7509988     1.131269   520538 
 1725000     1.037631   -5.7499645   -5.7499645   -4.6199801  0.064309197   -5.7499645    1.1299844   520538 
 1726000     1.037963    -5.751673    -5.751673   -4.6213271   0.06602389    -5.751673    1.1303459   520538 
 1727000    1.0400156   -5.7533402   -5.7533402   -4.6207589  0.070468165   -5.7533402    1.1325812   520538 
 1728000    1.0394576   -5.7536528   -5.7536528   -4.6216793  0.077742145   -5.7536528    1.1319735   520538 
 1729000    1.0379502   -5.7521555   -5.7521555   -4.6218235  0.058158188   -5.7521555     1.130332   520538 
 1730000    1.0365444   -5.7506119   -5.7506119   -4.6218109  0.085958136   -5.7506119    1.1288011   520538 
 1731000    1.0379018   -5.7524832   -5.7524832    -4.622204  0.060892876   -5.7524832    1.1302793   520538 
 1732000    1.0382326    -5.752243    -5.752243   -4.6216034   0.05884772    -5.752243    1.1306396   520538 
 1733000     1.035811   -5.7496793   -5.7496793   -4.6216769  0.071109271   -5.7496793    1.1280024   520538 
 1734000    1.0391336   -5.7527385   -5.7527385   -4.6211179  0.067099846   -5.7527385    1.1316207   520538 
 1735000    1.0388326   -5.7518444   -5.7518444   -4.6205516  0.082866385   -5.7518444    1.1312929   520538 
 1736000     1.037881   -5.7516575   -5.7516575   -4.6214009  0.067426025   -5.7516575    1.1302567   520538 
 1737000    1.0389266   -5.7529558   -5.7529558   -4.6215605   0.08685559   -5.7529558    1.1313953   520538 
 1738000    1.0379235   -5.7523912   -5.7523912   -4.6220883  0.081176139   -5.7523912    1.1303029   520538 
 1739000    1.0378715   -5.7524402   -5.7524402   -4.6221939  0.076825295   -5.7524402    1.1302463   520538 
 1740000    1.0394044   -5.7540048   -5.7540048   -4.6220892  0.070659467   -5.7540048    1.1319156   520538 
 1741000    1.0388988   -5.7528311   -5.7528311   -4.6214661  0.074143694   -5.7528311     1.131365   520538 
 1742000    1.0376358   -5.7510773   -5.7510773   -4.6210877   0.06461199   -5.7510773    1.1299896   520538 
 1743000    1.0369354   -5.7505276   -5.7505276   -4.6213007   0.10810962   -5.7505276    1.1292269   520538 
 1744000    1.0370635    -5.751722    -5.751722   -4.6223556  0.068814289    -5.751722    1.1293663   520538 
 1745000    1.0363677   -5.7505767   -5.7505767   -4.6219682   0.07967114   -5.7505767    1.1286086   520538 
 1746000    1.0367581   -5.7514436   -5.7514436   -4.6224098   0.08445277   -5.7514436    1.1290338   520538 
 1747000    1.0374182   -5.7528985   -5.7528985   -4.6231459  0.076892467   -5.7528985    1.1297526   520538 
 1748000    1.0355271   -5.7510533   -5.7510533     -4.62336  0.081220738   -5.7510533    1.1276932   520538 
 1749000    1.0352263   -5.7505668   -5.7505668   -4.6232012  0.082525502   -5.7505668    1.1273656   520538 
 1750000    1.0351936   -5.7516115   -5.7516115   -4.6242815  0.070908405   -5.7516115      1.12733   520538 
 1751000    1.0356247   -5.7526097   -5.7526097   -4.6248102  0.055737128   -5.7526097    1.1277996   520538 
 1752000    1.0363251   -5.7527956   -5.7527956   -4.6242333  0.055877062   -5.7527956    1.1285623   520538 
 1753000    1.0359724   -5.7522697   -5.7522697   -4.6240916  0.074537474   -5.7522697    1.1281781   520538 
 1754000     1.035044   -5.7516645   -5.7516645   -4.6244973  0.084791194   -5.7516645    1.1271672   520538 
 1755000    1.0355509   -5.7523095   -5.7523095   -4.6245903   0.05111857   -5.7523095    1.1277192   520538 
 1756000    1.0366548   -5.7532355   -5.7532355   -4.6243142  0.073305954   -5.7532355    1.1289213   520538 
 1757000    1.0352166   -5.7517745   -5.7517745   -4.6244194  0.092951672   -5.7517745    1.1273551   520538 
 1758000    1.0360517   -5.7527671   -5.7527671   -4.6245026  0.072587171   -5.7527671    1.1282645   520538 
 1759000    1.0380899   -5.7546035   -5.7546035   -4.6241194   0.06517489   -5.7546035    1.1304842   520538 
 1760000    1.0379075   -5.7547763   -5.7547763   -4.6244908  0.045265058   -5.7547763    1.1302855   520538 
 1761000     1.035856   -5.7536439   -5.7536439   -4.6255925  0.098973773   -5.7536439    1.1280514   520538 
 1762000    1.0374399   -5.7556345   -5.7556345   -4.6258583  0.068974979   -5.7556345    1.1297763   520538 
 1763000    1.0380704   -5.7556633   -5.7556633   -4.6252004  0.090737276   -5.7556633    1.1304629   520538 
 1764000     1.035622   -5.7537238   -5.7537238   -4.6259272  0.069917063   -5.7537238    1.1277966   520538 
 1765000    1.0379152   -5.7554541   -5.7554541   -4.6251602  0.060212379   -5.7554541    1.1302939   520538 
 1766000    1.0368174   -5.7551652   -5.7551652   -4.6260669  0.073111582   -5.7551652    1.1290983   520538 
 1767000    1.0363193    -5.754272    -5.754272    -4.625716  0.069256146    -5.754272     1.128556   520538 
 1768000    1.0363444   -5.7539948   -5.7539948   -4.6254115  0.080624226   -5.7539948    1.1285833   520538 
 1769000    1.0369438   -5.7549583   -5.7549583   -4.6257223  0.091973787   -5.7549583    1.1292361   520538 
 1770000    1.0357302   -5.7541584   -5.7541584    -4.626244  0.060032169   -5.7541584    1.1279144   520538 
 1771000    1.0361922   -5.7545305   -5.7545305   -4.6261129  0.069178712   -5.7545305    1.1284176   520538 
 1772000    1.0359845   -5.7546574   -5.7546574    -4.626466    0.0657807   -5.7546574    1.1281914   520538 
 1773000    1.0370015   -5.7560184   -5.7560184   -4.6267195  0.062464686   -5.7560184    1.1292989   520538 
 1774000    1.0367795   -5.7550377   -5.7550377   -4.6259806  0.093606264   -5.7550377    1.1290571   520538 
 1775000    1.0368256   -5.7543093   -5.7543093    -4.625202  0.058699707   -5.7543093    1.1291073   520538 
 1776000    1.0364324   -5.7541536   -5.7541536   -4.6254745  0.050895141   -5.7541536    1.1286791   520538 
 1777000    1.0360194   -5.7541913   -5.7541913    -4.625962  0.093732115   -5.7541913    1.1282293   520538 
 1778000    1.0361435   -5.7545319   -5.7545319   -4.6261674  0.073425554   -5.7545319    1.1283645   520538 
 1779000    1.0348688   -5.7540324   -5.7540324   -4.6270561  0.092160794   -5.7540324    1.1269764   520538 
 1780000    1.0348542   -5.7534665   -5.7534665   -4.6265061  0.063595827   -5.7534665    1.1269604   520538 
 1781000     1.033249   -5.7526156   -5.7526156   -4.6274033  0.073100733   -5.7526156    1.1252123   520538 
 1782000    1.0343967   -5.7530091   -5.7530091   -4.6265468   0.07021772   -5.7530091    1.1264622   520538 
 1783000    1.0362725   -5.7544798   -5.7544798   -4.6259748  0.088260244   -5.7544798     1.128505   520538 
 1784000    1.0362769   -5.7558822   -5.7558822   -4.6273723  0.092771638   -5.7558822    1.1285098   520538 
 1785000    1.0345365   -5.7546745   -5.7546745     -4.62806   0.07112581   -5.7546745    1.1266145   520538 
 1786000    1.0352529   -5.7556383   -5.7556383   -4.6282437  0.074563258   -5.7556383    1.1273946   520538 
 1787000    1.0364235   -5.7571881   -5.7571881   -4.6285187  0.087695323   -5.7571881    1.1286694   520538 
 1788000    1.0373172   -5.7580658   -5.7580658   -4.6284232  0.083205874   -5.7580658    1.1296426   520538 
 1789000    1.0362071   -5.7577561   -5.7577561   -4.6293223  0.075737374   -5.7577561    1.1284338   520538 
 1790000    1.0352732   -5.7567938   -5.7567938   -4.6293771  0.086505877   -5.7567938    1.1274167   520538 
 1791000    1.0347341   -5.7558231   -5.7558231   -4.6289934  0.069194175   -5.7558231    1.1268297   520538 
 1792000    1.0354215   -5.7583541   -5.7583541   -4.6307759  0.061195732   -5.7583541    1.1275782   520538 
 1793000    1.0370307   -5.7602138   -5.7602138   -4.6308832  0.077338547   -5.7602138    1.1293307   520538 
 1794000    1.0355411    -5.758199    -5.758199   -4.6304905  0.066984994    -5.758199    1.1277085   520538 
 1795000    1.0377941   -5.7604129   -5.7604129   -4.6302509  0.056807505   -5.7604129     1.130162   520538 
 1796000    1.0371559   -5.7600502   -5.7600502   -4.6305832  0.069751536   -5.7600502     1.129467   520538 
 1797000    1.0360902    -5.759295    -5.759295   -4.6309886  0.084302967    -5.759295    1.1283064   520538 
 1798000    1.0364485    -5.759298    -5.759298   -4.6306014  0.075619833    -5.759298    1.1286967   520538 
 1799000    1.0363352   -5.7594058   -5.7594058   -4.6308326  0.074625627   -5.7594058    1.1285732   520538 
 1800000    1.0370372   -5.7609159   -5.7609159   -4.6315782  0.066300966   -5.7609159    1.1293377   520538 
 1801000    1.0348213   -5.7591764   -5.7591764   -4.6322518  0.051708429   -5.7591764    1.1269247   520538 
 1802000    1.0357317   -5.7602906   -5.7602906   -4.6323745  0.072921316   -5.7602906    1.1279161   520538 
 1803000    1.0356776    -5.760431    -5.760431   -4.6325739  0.065246391    -5.760431    1.1278571   520538 
 1804000    1.0372699   -5.7625512   -5.7625512     -4.63296  0.081092817   -5.7625512    1.1295912   520538 
 1805000    1.0365962   -5.7618194   -5.7618194   -4.6329619  0.057530992   -5.7618194    1.1288575   520538 
 1806000     1.036501   -5.7620166   -5.7620166   -4.6332628  0.085686353   -5.7620166    1.1287538   520538 
 1807000     1.036148   -5.7619156   -5.7619156   -4.6335462  0.059350602   -5.7619156    1.1283694   520538 
 1808000    1.0355509   -5.7618938   -5.7618938   -4.6341747  0.092027755   -5.7618938    1.1277191   520538 
 1809000    1.0355851   -5.7620845   -5.7620845   -4.6343281  0.089290736   -5.7620845    1.1277564   520538 
 1810000    1.0356224   -5.7623528   -5.7623528   -4.6345558  0.078323883   -5.7623528     1.127797   520538 
 1811000    1.0358028   -5.7622134   -5.7622134   -4.6342199  0.087045982   -5.7622134    1.1279934   520538 
 1812000    1.0340834   -5.7602391   -5.7602391   -4.6341181  0.072675927   -5.7602391     1.126121   520538 
 1813000    1.0362326   -5.7620413   -5.7620413   -4.6335798   0.09954236   -5.7620413    1.1284615   520538 
 1814000    1.0351545   -5.7613093   -5.7613093   -4.6340219  0.063966771   -5.7613093    1.1272874   520538 
 1815000    1.0351979   -5.7605486   -5.7605486   -4.6332138  0.075582825   -5.7605486    1.1273348   520538 
 1816000    1.0356689   -5.7614313   -5.7614313   -4.6335837  0.073533117   -5.7614313    1.1278476   520538 
 1817000    1.0331347   -5.7589041   -5.7589041   -4.6338163  0.075101566   -5.7589041    1.1250879   520538 
 1818000    1.0346526   -5.7602352   -5.7602352   -4.6334943  0.053825112   -5.7602352    1.1267409   520538 
 1819000    1.0379482   -5.7642094   -5.7642094   -4.6338796  0.077255631   -5.7642094    1.1303298   520538 
 1820000    1.0355552   -5.7616749   -5.7616749   -4.6339511  0.076210203   -5.7616749    1.1277238   520538 
 1821000    1.0369035   -5.7636203   -5.7636203   -4.6344281  0.090277539   -5.7636203    1.1291921   520538 
 1822000    1.0362364   -5.7640579   -5.7640579   -4.6355922  0.072117023   -5.7640579    1.1284657   520538 
 1823000    1.0357815   -5.7634989   -5.7634989   -4.6355286  0.052135525   -5.7634989    1.1279703   520538 
 1824000    1.0367602   -5.7643584   -5.7643584   -4.6353223  0.059990757   -5.7643584    1.1290361   520538 
 1825000    1.0364448   -5.7637598   -5.7637598   -4.6350671   0.06424252   -5.7637598    1.1286926   520538 
 1826000    1.0358861   -5.7630681   -5.7630681   -4.6349839  0.068889914   -5.7630681    1.1280841   520538 
 1827000    1.0352247   -5.7625966   -5.7625966   -4.6352326  0.083274883   -5.7625966    1.1273639   520538 
 1828000    1.0355357   -5.7632705   -5.7632705   -4.6355679   0.06907589   -5.7632705    1.1277026   520538 
 1829000    1.0367634   -5.7646596   -5.7646596     -4.63562  0.071135746   -5.7646596    1.1290396   520538 
 1830000    1.0367609   -5.7636775   -5.7636775   -4.6346407   0.09637017   -5.7636775    1.1290368   520538 
 1831000     1.037011   -5.7636056   -5.7636056   -4.6342965  0.081513733   -5.7636056    1.1293092   520538 
 1832000    1.0372071   -5.7641119   -5.7641119   -4.6345892  0.077492567   -5.7641119    1.1295227   520538 
 1833000    1.0340042   -5.7611741   -5.7611741   -4.6351394  0.066616628   -5.7611741    1.1260347   520538 
 1834000    1.0367127   -5.7638899   -5.7638899   -4.6349056  0.067079211   -5.7638899    1.1289843   520538 
 1835000    1.0359039   -5.7635963   -5.7635963   -4.6354928  0.068554646   -5.7635963    1.1281035   520538 
 1836000    1.0353073    -5.763161    -5.763161   -4.6357071   0.07526746    -5.763161    1.1274539   520538 
 1837000    1.0328836   -5.7617322   -5.7617322   -4.6369177  0.082586188   -5.7617322    1.1248145   520538 
 1838000    1.0356947     -5.76516     -5.76516   -4.6372843  0.071346183     -5.76516    1.1278757   520538 
 1839000     1.034451   -5.7649034   -5.7649034    -4.638382  0.063303728   -5.7649034    1.1265214   520538 
 1840000    1.0332387   -5.7632399   -5.7632399   -4.6380388   0.07045113   -5.7632399    1.1252011   520538 
 1841000    1.0346695   -5.7645727   -5.7645727   -4.6378134  0.049476885   -5.7645727    1.1267593   520538 
 1842000     1.032574   -5.7613667   -5.7613667   -4.6368894  0.067334457   -5.7613667    1.1244773   520538 
 1843000    1.0335652   -5.7629972   -5.7629972   -4.6374405     0.068033   -5.7629972    1.1255567   520538 
 1844000    1.0347635   -5.7633587   -5.7633587   -4.6364971  0.070851235   -5.7633587    1.1268616   520538 
 1845000    1.0352303    -5.764859    -5.764859   -4.6374889  0.076517655    -5.764859    1.1273701   520538 
 1846000    1.0338307   -5.7625654   -5.7625654   -4.6367196  0.081352746   -5.7625654    1.1258458   520538 
 1847000    1.0346735   -5.7641156   -5.7641156   -4.6373519  0.056069215   -5.7641156    1.1267636   520538 
 1848000    1.0357291   -5.7658705   -5.7658705   -4.6379572  0.086607401   -5.7658705    1.1279132   520538 
 1849000    1.0340251   -5.7635479   -5.7635479   -4.6374904  0.084313534   -5.7635479    1.1260575   520538 
 1850000    1.0338241    -5.763516    -5.763516   -4.6376774  0.064970665    -5.763516    1.1258387   520538 
 1851000    1.0334019   -5.7638947   -5.7638947   -4.6385158  0.078482107   -5.7638947    1.1253789   520538 
 1852000    1.0365363   -5.7664744   -5.7664744   -4.6376822  0.054219726   -5.7664744    1.1287922   520538 
 1853000    1.0346654   -5.7659236   -5.7659236   -4.6391688  0.076862398   -5.7659236    1.1267548   520538 
 1854000    1.0352785   -5.7669426   -5.7669426   -4.6395201   0.04216558   -5.7669426    1.1274225   520538 
 1855000    1.0374067   -5.7699514   -5.7699514   -4.6402112  0.069781197   -5.7699514    1.1297402   520538 
 1856000    1.0364371   -5.7688951   -5.7688951   -4.6402108  0.073851582   -5.7688951    1.1286843   520538 
 1857000    1.0372728   -5.7691801   -5.7691801   -4.6395857  0.085190329   -5.7691801    1.1295944   520538 
 1858000    1.0367923    -5.769262    -5.769262   -4.6401909   0.07409016    -5.769262    1.1290711   520538 
 1859000    1.0345144   -5.7665179   -5.7665179   -4.6399275  0.067499125   -5.7665179    1.1265904   520538 
 1860000    1.0341807   -5.7665998   -5.7665998   -4.6403729  0.082974525   -5.7665998     1.126227   520538 
 1861000    1.0363289    -5.768475    -5.768475   -4.6399086  0.089005932    -5.768475    1.1285664   520538 
 1862000    1.0352395   -5.7676653   -5.7676653   -4.6402853  0.067614813   -5.7676653      1.12738   520538 
 1863000    1.0348941    -5.768078    -5.768078   -4.6410741  0.070219675    -5.768078    1.1270039   520538 
 1864000    1.0356003   -5.7686841   -5.7686841   -4.6409112  0.081638614   -5.7686841     1.127773   520538 
 1865000    1.0336047   -5.7678189   -5.7678189   -4.6422193  0.070324065   -5.7678189    1.1255997   520538 
 1866000    1.0346867   -5.7688902   -5.7688902   -4.6421122  0.075283927   -5.7688902     1.126778   520538 
 1867000    1.0333563   -5.7682294   -5.7682294   -4.6429001  0.068391785   -5.7682294    1.1253292   520538 
 1868000    1.0326679   -5.7674463   -5.7674463   -4.6428667  0.085840401   -5.7674463    1.1245796   520538 
 1869000    1.0334598   -5.7676663   -5.7676663   -4.6422244  0.071440272   -5.7676663    1.1254419   520538 
 1870000    1.0338753   -5.7685516   -5.7685516   -4.6426571  0.065120769   -5.7685516    1.1258945   520538 
 1871000    1.0337039   -5.7680885   -5.7680885   -4.6423807  0.088308152   -5.7680885    1.1257077   520538 
 1872000    1.0343005   -5.7684407   -5.7684407   -4.6420833  0.059237732   -5.7684407    1.1263574   520538 
 1873000    1.0364946   -5.7712673   -5.7712673   -4.6425205  0.075743101   -5.7712673    1.1287468   520538 
 1874000    1.0340244   -5.7688725   -5.7688725   -4.6428157  0.059723557   -5.7688725    1.1260567   520538 
 1875000    1.0356489    -5.770535    -5.770535   -4.6427091  0.085671634    -5.770535    1.1278258   520538 
 1876000    1.0340674    -5.769255    -5.769255   -4.6431514  0.099998799    -5.769255    1.1261036   520538 
 1877000     1.035804   -5.7703952   -5.7703952   -4.6424004  0.079364843   -5.7703952    1.1279948   520538 
 1878000     1.035868   -5.7705107   -5.7705107   -4.6424461  0.073105442   -5.7705107    1.1280645   520538 
 1879000    1.0346712    -5.769057    -5.769057   -4.6422958  0.054109018    -5.769057    1.1267612   520538 
 1880000    1.0358079   -5.7710474   -5.7710474   -4.6430484  0.066139664   -5.7710474     1.127999   520538 
 1881000    1.0337979   -5.7685525   -5.7685525   -4.6427423  0.081670707   -5.7685525    1.1258101   520538 
 1882000    1.0356954   -5.7710016   -5.7710016    -4.643125  0.059144808   -5.7710016    1.1278765   520538 
 1883000    1.0337457   -5.7696634   -5.7696634   -4.6439101  0.080677451   -5.7696634    1.1257533   520538 
 1884000     1.034133    -5.770649    -5.770649    -4.644474  0.068477739    -5.770649    1.1261751   520538 
 1885000    1.0341426   -5.7699171   -5.7699171   -4.6437316  0.065033581   -5.7699171    1.1261855   520538 
 1886000    1.0338056    -5.769511    -5.769511   -4.6436925   0.05952088    -5.769511    1.1258185   520538 
 1887000    1.0358501   -5.7727784   -5.7727784   -4.6447334  0.076940672   -5.7727784     1.128045   520538 
 1888000    1.0343667    -5.770927    -5.770927   -4.6444975  0.097142731    -5.770927    1.1264295   520538 
 1889000    1.0344254   -5.7718562   -5.7718562   -4.6453627  0.073066364   -5.7718562    1.1264935   520538 
 1890000     1.034112   -5.7720881   -5.7720881    -4.645936   0.10448505   -5.7720881    1.1261522   520538 
 1891000    1.0343969   -5.7721286   -5.7721286   -4.6456662  0.086821032   -5.7721286    1.1264624   520538 
 1892000    1.0333525   -5.7715357   -5.7715357   -4.6462107  0.076382366   -5.7715357    1.1253251   520538 
 1893000    1.0346075   -5.7730403   -5.7730403   -4.6463486  0.053259097   -5.7730403    1.1266917   520538 
 1894000    1.0341385   -5.7726721   -5.7726721   -4.6464911  0.072423691   -5.7726721     1.126181   520538 
 1895000     1.035928   -5.7743263   -5.7743263   -4.6461965  0.075125226   -5.7743263    1.1281298   520538 
 1896000    1.0348066   -5.7725476   -5.7725476    -4.645639  0.078264671   -5.7725476    1.1269086   520538 
 1897000    1.0344777   -5.7709259   -5.7709259   -4.6443755  0.090961251   -5.7709259    1.1265504   520538 
 1898000    1.0358378   -5.7726131   -5.7726131   -4.6445815  0.054277705   -5.7726131    1.1280316   520538 
 1899000    1.0317437   -5.7696473   -5.7696473   -4.6460742  0.097208079   -5.7696473    1.1235731   520538 
 1900000    1.0350628   -5.7730761   -5.7730761   -4.6458885  0.058446193   -5.7730761    1.1271876   520538 
 1901000    1.0346831   -5.7729109   -5.7729109   -4.6461368  0.082859309   -5.7729109    1.1267741   520538 
 1902000    1.0330591   -5.7710631   -5.7710631   -4.6460575  0.077136742   -5.7710631    1.1250056   520538 
 1903000     1.034614    -5.772917    -5.772917   -4.6462181  0.064181858    -5.772917    1.1266988   520538 
 1904000    1.0329737    -5.771081    -5.771081   -4.6461684  0.071768081    -5.771081    1.1249126   520538 
 1905000    1.0340414    -5.771647    -5.771647   -4.6455717  0.060264414    -5.771647    1.1260753   520538 
 1906000    1.0335009   -5.7713358   -5.7713358   -4.6458491  0.097098031   -5.7713358    1.1254867   520538 
 1907000    1.0354378   -5.7730988   -5.7730988   -4.6455029  0.084984633   -5.7730988    1.1275959   520538 
 1908000    1.0367272   -5.7750717   -5.7750717   -4.6460716  0.070407324   -5.7750717    1.1290002   520538 
 1909000    1.0349718   -5.7732128   -5.7732128   -4.6461242  0.084191593   -5.7732128    1.1270885   520538 
 1910000    1.0331507   -5.7707139   -5.7707139   -4.6456086  0.094465788   -5.7707139    1.1251053   520538 
 1911000    1.0334338   -5.7708313   -5.7708313   -4.6454177   0.08926115   -5.7708313    1.1254136   520538 
 1912000    1.0323811   -5.7703795   -5.7703795   -4.6461122  0.058153398   -5.7703795    1.1242672   520538 
 1913000    1.0370162   -5.7748948   -5.7748948   -4.6455799  0.064377049   -5.7748948    1.1293148   520538 
 1914000     1.036919   -5.7747498   -5.7747498   -4.6455408  0.062948107   -5.7747498     1.129209   520538 
 1915000    1.0338163   -5.7715529   -5.7715529   -4.6457228  0.074155761   -5.7715529    1.1258301   520538 
 1916000    1.0328311   -5.7708838   -5.7708838   -4.6461265  0.059831447   -5.7708838    1.1247573   520538 
 1917000    1.0328832   -5.7722634   -5.7722634   -4.6474494  0.068474461   -5.7722634     1.124814   520538 
 1918000    1.0342809   -5.7728756   -5.7728756   -4.6465395  0.095506217   -5.7728756    1.1263361   520538 
 1919000    1.0344983   -5.7728421   -5.7728421   -4.6462693  0.065694069   -5.7728421    1.1265728   520538 
 1920000    1.0364772   -5.7751729   -5.7751729   -4.6464449  0.078242632   -5.7751729    1.1287279   520538 
 1921000     1.033794   -5.7731874   -5.7731874   -4.6473815  0.059151341   -5.7731874    1.1258059   520538 
 1922000    1.0321214   -5.7714581   -5.7714581   -4.6474737  0.077583299   -5.7714581    1.1239844   520538 
 1923000    1.0329319   -5.7726836   -5.7726836   -4.6478165  0.093021294   -5.7726836    1.1248671   520538 
 1924000     1.034798   -5.7749411   -5.7749411   -4.6480419  0.074190801   -5.7749411    1.1268992   520538 
 1925000    1.0337095    -5.773425    -5.773425   -4.6477112  0.066440051    -5.773425    1.1257138   520538 
 1926000    1.0341694   -5.7731807   -5.7731807   -4.6469661  0.086648777   -5.7731807    1.1262146   520538 
 1927000    1.0335972   -5.7733562   -5.7733562   -4.6477647  0.080728449   -5.7733562    1.1255915   520538 
 1928000    1.0340559   -5.7745219   -5.7745219   -4.6484307  0.076520339   -5.7745219    1.1260911   520538 
 1929000    1.0324442   -5.7729284   -5.7729284   -4.6485925  0.069945761   -5.7729284    1.1243359   520538 
 1930000    1.0343677   -5.7759679   -5.7759679   -4.6495374   0.05243084   -5.7759679    1.1264306   520538 
 1931000    1.0334069   -5.7747085   -5.7747085   -4.6493241  0.066449521   -5.7747085    1.1253844   520538 
 1932000    1.0335828   -5.7753687   -5.7753687   -4.6497928  0.068815672   -5.7753687    1.1255759   520538 
 1933000    1.0332544   -5.7757575   -5.7757575   -4.6505392  0.053476749   -5.7757575    1.1252183   520538 
 1934000    1.0328643   -5.7747614   -5.7747614    -4.649968   0.07447887   -5.7747614    1.1247935   520538 
 1935000    1.0325219   -5.7741008   -5.7741008   -4.6496802  0.065151422   -5.7741008    1.1244206   520538 
 1936000    1.0353744   -5.7777601   -5.7777601   -4.6502332  0.071992896   -5.7777601     1.127527   520538 
 1937000    1.0339595   -5.7758104   -5.7758104   -4.6498243  0.072967781   -5.7758104    1.1259861   520538 
 1938000    1.0329725   -5.7745368   -5.7745368   -4.6496255  0.084549528   -5.7745368    1.1249112   520538 
 1939000    1.0334899   -5.7752919   -5.7752919   -4.6498172  0.054433875   -5.7752919    1.1254747   520538 
 1940000    1.0344454   -5.7757795   -5.7757795   -4.6492643  0.068444866   -5.7757795    1.1265152   520538 
 1941000    1.0342135   -5.7756416   -5.7756416   -4.6493789  0.078375623   -5.7756416    1.1262627   520538 
 1942000     1.034521   -5.7764923   -5.7764923   -4.6498948  0.072346551   -5.7764923    1.1265976   520538 
 1943000    1.0353082   -5.7761004   -5.7761004   -4.6486456    0.1000887   -5.7761004    1.1274548   520538 
 1944000    1.0357864   -5.7770587   -5.7770587    -4.649083  0.086727544   -5.7770587    1.1279757   520538 
 1945000    1.0350717   -5.7768501   -5.7768501   -4.6496527  0.080835153   -5.7768501    1.1271973   520538 
 1946000    1.0353363   -5.7773057   -5.7773057   -4.6498202  0.077347047   -5.7773057    1.1274854   520538 
 1947000    1.0367492    -5.778864    -5.778864   -4.6498399  0.073488813    -5.778864    1.1290241   520538 
 1948000    1.0360474   -5.7787952   -5.7787952   -4.6505353   0.05413593   -5.7787952    1.1282599   520538 
 1949000    1.0352498   -5.7776779   -5.7776779   -4.6502867  0.073576001   -5.7776779    1.1273912   520538 
 1950000    1.0344634   -5.7783554   -5.7783554   -4.6518206  0.081607207   -5.7783554    1.1265349   520538 
 1951000    1.0347328   -5.7777688   -5.7777688   -4.6509406  0.052659393   -5.7777688    1.1268282   520538 
 1952000    1.0325185   -5.7763755   -5.7763755   -4.6519587  0.076192987   -5.7763755    1.1244169   520538 
 1953000    1.0343596   -5.7798411   -5.7798411   -4.6534192  0.075507625   -5.7798411    1.1264219   520538 
 1954000    1.0329535    -5.778859    -5.778859   -4.6539685  0.063853196    -5.778859    1.1248905   520538 
 1955000    1.0331851   -5.7788099   -5.7788099   -4.6536671  0.070609016   -5.7788099    1.1251428   520538 
 1956000    1.0346874   -5.7804449   -5.7804449   -4.6536662  0.077200023   -5.7804449    1.1267788   520538 
 1957000    1.0338027    -5.779502    -5.779502   -4.6536866  0.073973926    -5.779502    1.1258154   520538 
 1958000    1.0332538   -5.7789909   -5.7789909   -4.6537734  0.057782836   -5.7789909    1.1252176   520538 
 1959000    1.0348068   -5.7813152   -5.7813152   -4.6544064  0.093144904   -5.7813152    1.1269088   520538 
 1960000    1.0321406   -5.7785733   -5.7785733    -4.654568  0.086011879   -5.7785733    1.1240053   520538 
 1961000    1.0340191   -5.7803845   -5.7803845   -4.6543336  0.058208208   -5.7803845     1.126051   520538 
 1962000    1.0345663   -5.7802837   -5.7802837   -4.6536369  0.061324808   -5.7802837    1.1266469   520538 
 1963000    1.0329782   -5.7787874   -5.7787874     -4.65387   0.05221749   -5.7787874    1.1249174   520538 
 1964000    1.0332139   -5.7795156   -5.7795156   -4.6543415  0.085443337   -5.7795156    1.1251741   520538 
 1965000    1.0333951   -5.7787595   -5.7787595    -4.653388    0.0731323   -5.7787595    1.1253715   520538 
 1966000    1.0315213   -5.7777406   -5.7777406   -4.6544098   0.05540956   -5.7777406    1.1233308   520538 
 1967000    1.0323621   -5.7786329   -5.7786329   -4.6543864  0.085249863   -5.7786329    1.1242465   520538 
 1968000    1.0337992   -5.7794628   -5.7794628   -4.6536513  0.056207915   -5.7794628    1.1258115   520538 
 1969000    1.0344988   -5.7792852   -5.7792852   -4.6527118   0.08002061   -5.7792852    1.1265734   520538 
 1970000    1.0348834   -5.7789988   -5.7789988   -4.6520066  0.077750207   -5.7789988    1.1269923   520538 
 1971000    1.0332155   -5.7781853   -5.7781853   -4.6530095  0.076043047   -5.7781853    1.1251758   520538 
 1972000    1.0329657   -5.7791516   -5.7791516   -4.6542478  0.066525726   -5.7791516    1.1249038   520538 
 1973000    1.0338473   -5.7802529   -5.7802529    -4.654389   0.09721061   -5.7802529    1.1258639   520538 
 1974000    1.0328622   -5.7787564   -5.7787564   -4.6539653  0.083662177   -5.7787564    1.1247911   520538 
 1975000    1.0320375   -5.7790671   -5.7790671    -4.655174  0.070503515   -5.7790671    1.1238931   520538 
 1976000    1.0350033   -5.7823677   -5.7823677   -4.6552449  0.067375774   -5.7823677    1.1271228   520538 
 1977000    1.0334819   -5.7814446   -5.7814446   -4.6559787  0.069771044   -5.7814446    1.1254659   520538 
 1978000    1.0330593   -5.7815361   -5.7815361   -4.6565303  0.042967779   -5.7815361    1.1250058   520538 
 1979000    1.0335766   -5.7818461   -5.7818461   -4.6562769   0.07653567   -5.7818461    1.1255691   520538 
 1980000     1.033945   -5.7826171   -5.7826171   -4.6566467  0.058420797   -5.7826171    1.1259704   520538 
 1981000    1.0317984     -5.78041     -5.78041   -4.6567773  0.066532854     -5.78041    1.1236327   520538 
 1982000      1.03305   -5.7816684   -5.7816684   -4.6566728  0.068477859   -5.7816684    1.1249956   520538 
 1983000    1.0338743    -5.782514    -5.782514   -4.6566207  0.061424561    -5.782514    1.1258933   520538 
 1984000    1.0328235    -5.781686    -5.781686    -4.656937  0.094080208    -5.781686     1.124749   520538 
 1985000    1.0331581    -5.782802    -5.782802   -4.6576887  0.066156002    -5.782802    1.1251134   520538 
 1986000    1.0330434   -5.7820969   -5.7820969   -4.6571084  0.086324659   -5.7820969    1.1249885   520538 
 1987000    1.0327596   -5.7822598   -5.7822598   -4.6575804  0.083069543   -5.7822598    1.1246794   520538 
 1988000    1.0343587   -5.7841963   -5.7841963   -4.6577755  0.082751901   -5.7841963    1.1264208   520538 
 1989000    1.0344314   -5.7846986   -5.7846986   -4.6581987  0.061910515   -5.7846986       1.1265   520538 
 1990000    1.0336035   -5.7837312   -5.7837312   -4.6581328  0.071429606   -5.7837312    1.1255984   520538 
 1991000    1.0329591    -5.784423    -5.784423   -4.6595264  0.080428733    -5.784423    1.1248966   520538 
 1992000    1.0325449   -5.7833831   -5.7833831   -4.6589375  0.067590406   -5.7833831    1.1244456   520538 
 1993000    1.0342442   -5.7859873   -5.7859873   -4.6596912  0.076950941   -5.7859873    1.1262961   520538 
 1994000      1.03203   -5.7834397   -5.7834397   -4.6595548    0.1056458   -5.7834397    1.1238849   520538 
 1995000    1.0336633   -5.7853677   -5.7853677   -4.6597042   0.10274582   -5.7853677    1.1256635   520538 
 1996000     1.034592   -5.7864294   -5.7864294   -4.6597546  0.064691743   -5.7864294    1.1266749   520538 
 1997000    1.0344359   -5.7862701   -5.7862701   -4.6597652  0.070406845   -5.7862701     1.126505   520538 
 1998000      1.03461    -5.786248    -5.786248   -4.6595535  0.074162882    -5.786248    1.1266945   520538 
 1999000    1.0341803   -5.7864096   -5.7864096    -4.660183  0.070303378   -5.7864096    1.1262266   520538 
 2000000    1.0333909   -5.7864159   -5.7864159    -4.661049  0.082693295   -5.7864159    1.1253669   520538 
 2001000    1.0343578   -5.7870957   -5.7870957   -4.6606758  0.095272333   -5.7870957    1.1264199   520538 
 2002000    1.0351823   -5.7880468   -5.7880468    -4.660729  0.079804345   -5.7880468    1.1273178   520538 
 2003000    1.0333106   -5.7860713   -5.7860713   -4.6607919  0.072423663   -5.7860713    1.1252794   520538 
 2004000    1.0338834   -5.7856286   -5.7856286   -4.6597253  0.065838191   -5.7856286    1.1259033   520538 
 2005000    1.0338978    -5.786482    -5.786482   -4.6605631  0.064764568    -5.786482    1.1259189   520538 
 2006000    1.0350009   -5.7875701   -5.7875701   -4.6604499  0.084300412   -5.7875701    1.1271202   520538 
 2007000    1.0345362   -5.7868669   -5.7868669   -4.6602528  0.076325678   -5.7868669    1.1266141   520538 
 2008000    1.0342788   -5.7863752   -5.7863752   -4.6600414  0.068561214   -5.7863752    1.1263338   520538 
 2009000    1.0343507   -5.7861187   -5.7861187   -4.6597066  0.052097789   -5.7861187    1.1264122   520538 
 2010000     1.033019   -5.7839039   -5.7839039    -4.658942  0.090156975   -5.7839039    1.1249619   520538 
 2011000    1.0361865   -5.7880467   -5.7880467   -4.6596353  0.059531606   -5.7880467    1.1284114   520538 
 2012000    1.0342409   -5.7868504   -5.7868504   -4.6605579  0.089301468   -5.7868504    1.1262925   520538 
 2013000    1.0351033   -5.7885244   -5.7885244   -4.6612928  0.078033426   -5.7885244    1.1272317   520538 
 2014000    1.0338613   -5.7879483   -5.7879483   -4.6620691   0.07307399   -5.7879483    1.1258792   520538 
 2015000    1.0342127   -5.7883246   -5.7883246   -4.6620628  0.072355357   -5.7883246    1.1262618   520538 
 2016000     1.031673   -5.7866051   -5.7866051    -4.663109  0.066808916   -5.7866051    1.1234961   520538 
 2017000     1.033116   -5.7890585   -5.7890585    -4.663991  0.068956561   -5.7890585    1.1250675   520538 
 2018000    1.0334002   -5.7891008   -5.7891008   -4.6637238  0.081921058   -5.7891008     1.125377   520538 
 2019000    1.0320435    -5.787554    -5.787554   -4.6636545  0.083879395    -5.787554    1.1238995   520538 
 2020000    1.0329602   -5.7876656   -5.7876656   -4.6627678  0.073309763   -5.7876656    1.1248979   520538 
 2021000      1.03272   -5.7881818   -5.7881818   -4.6635456  0.089145568   -5.7881818    1.1246363   520538 
 2022000    1.0319624   -5.7874184   -5.7874184   -4.6636072  0.061393791   -5.7874184    1.1238112   520538 
 2023000    1.0306178   -5.7862137   -5.7862137   -4.6638666  0.055474133   -5.7862137     1.122347   520538 
 2024000    1.0316968   -5.7877834   -5.7877834   -4.6642613  0.079975589   -5.7877834     1.123522   520538 
 2025000     1.031113   -5.7865191   -5.7865191   -4.6636328  0.068845658   -5.7865191    1.1228862   520538 
 2026000    1.0325423   -5.7879401   -5.7879401   -4.6634974  0.086145561   -5.7879401    1.1244427   520538 
 2027000    1.0334106   -5.7893122   -5.7893122   -4.6639238  0.060889448   -5.7893122    1.1253884   520538 
 2028000    1.0331054   -5.7897418   -5.7897418   -4.6646858   0.06229345   -5.7897418     1.125056   520538 
 2029000    1.0329145   -5.7893282   -5.7893282   -4.6644801  0.053623128   -5.7893282     1.124848   520538 
 2030000    1.0326446    -5.790089    -5.790089   -4.6655348  0.059469502    -5.790089    1.1245542   520538 
 2031000    1.0331386    -5.790892    -5.790892   -4.6657998   0.09611757    -5.790892    1.1250922   520538 
 2032000    1.0328617   -5.7902798   -5.7902798   -4.6654893  0.099338894   -5.7902798    1.1247906   520538 
 2033000    1.0303319   -5.7883464   -5.7883464   -4.6663108  0.055637171   -5.7883464    1.1220356   520538 
 2034000    1.0334931   -5.7919747   -5.7919747   -4.6664965   0.07089265   -5.7919747    1.1254782   520538 
 2035000    1.0307526   -5.7886329   -5.7886329   -4.6661392  0.084219814   -5.7886329    1.1224938   520538 
 2036000      1.03237   -5.7913964   -5.7913964   -4.6671414   0.08470545   -5.7913964    1.1242551   520538 
 2037000    1.0308327   -5.7888258   -5.7888258   -4.6662448  0.085015886   -5.7888258     1.122581   520538 
 2038000    1.0336528   -5.7912459   -5.7912459   -4.6655937   0.06897131   -5.7912459    1.1256521   520538 
 2039000    1.0316467    -5.788626    -5.788626   -4.6651586  0.079721307    -5.788626    1.1234674   520538 
 2040000     1.031334   -5.7892588   -5.7892588   -4.6661318   0.05679088   -5.7892588     1.123127   520538 
 2041000    1.0312095    -5.788841    -5.788841   -4.6658497  0.067970088    -5.788841    1.1229913   520538 
 2042000    1.0305537   -5.7887731   -5.7887731   -4.6664959  0.058760691   -5.7887731    1.1222772   520538 
 2043000    1.0298912    -5.788816    -5.788816   -4.6672603   0.04287891    -5.788816    1.1215557   520538 
 2044000    1.0287099   -5.7874847   -5.7874847   -4.6672154  0.062203041   -5.7874847    1.1202693   520538 
 2045000    1.0304674   -5.7896578   -5.7896578   -4.6674745   0.07199849   -5.7896578    1.1221832   520538 
 2046000    1.0297884   -5.7886339   -5.7886339   -4.6671901   0.06161792   -5.7886339    1.1214438   520538 
 2047000    1.0311855   -5.7905215   -5.7905215   -4.6675563  0.089230834   -5.7905215    1.1229652   520538 
 2048000     1.028678   -5.7874354   -5.7874354   -4.6672009  0.064538792   -5.7874354    1.1202345   520538 
 2049000    1.0312851   -5.7912806   -5.7912806    -4.668207  0.067871898   -5.7912806    1.1230737   520538 
 2050000    1.0310248   -5.7912981   -5.7912981    -4.668508  0.061410064   -5.7912981    1.1227902   520538 
 2051000    1.0317816   -5.7913255   -5.7913255   -4.6677112   0.07988904   -5.7913255    1.1236144   520538 
 2052000     1.031347    -5.791533    -5.791533   -4.6683919  0.073148526    -5.791533    1.1231411   520538 
 2053000    1.0310095   -5.7913304   -5.7913304   -4.6685569  0.081822653   -5.7913304    1.1227735   520538 
 2054000       1.0326   -5.7923782   -5.7923782   -4.6678725  0.087066566   -5.7923782    1.1245056   520538 
 2055000     1.032008   -5.7917125   -5.7917125   -4.6678516  0.085730486   -5.7917125    1.1238609   520538 
 2056000    1.0319655   -5.7915628   -5.7915628   -4.6677482  0.062980167   -5.7915628    1.1238146   520538 
 2057000    1.0341948   -5.7933842   -5.7933842   -4.6671418  0.048136855   -5.7933842    1.1262424   520538 
 2058000    1.0348187   -5.7944173   -5.7944173   -4.6674955  0.077403885   -5.7944173    1.1269217   520538 
 2059000    1.0324762    -5.791653    -5.791653   -4.6672822  0.085178567    -5.791653    1.1243708   520538 
 2060000    1.0331614   -5.7931352   -5.7931352   -4.6680183  0.083946292   -5.7931352    1.1251169   520538 
 2061000    1.0329494   -5.7942054   -5.7942054   -4.6693193   0.08556332   -5.7942054    1.1248861   520538 
 2062000    1.0335602   -5.7948327   -5.7948327   -4.6692815  0.092946627   -5.7948327    1.1255512   520538 
 2063000    1.0310397   -5.7916027   -5.7916027   -4.6687963  0.085286828   -5.7916027    1.1228064   520538 
 2064000    1.0334799   -5.7954762   -5.7954762   -4.6700124  0.065138854   -5.7954762    1.1254638   520538 
 2065000    1.0293628   -5.7908891   -5.7908891   -4.6699087  0.090236799   -5.7908891    1.1209803   520538 
 2066000    1.0291326   -5.7910082   -5.7910082   -4.6702786  0.061113037   -5.7910082    1.1207296   520538 
 2067000    1.0298122   -5.7921345   -5.7921345   -4.6706648  0.053723623   -5.7921345    1.1214696   520538 
 2068000    1.0302024   -5.7915409   -5.7915409   -4.6696462   0.10326994   -5.7915409    1.1218947   520538 
 2069000    1.0315963   -5.7926314   -5.7926314   -4.6692189   0.08555254   -5.7926314    1.1234126   520538 
 2070000    1.0304626   -5.7919615   -5.7919615   -4.6697835  0.074440969   -5.7919615     1.122178   520538 
 2071000    1.0314934   -5.7933539   -5.7933539   -4.6700534  0.093472718   -5.7933539    1.1233005   520538 
 2072000    1.0322293   -5.7933986   -5.7933986   -4.6692967  0.065857469   -5.7933986    1.1241019   520538 
 2073000    1.0316079   -5.7930057   -5.7930057   -4.6695805  0.067953417   -5.7930057    1.1234252   520538 
 2074000    1.0319096   -5.7940602   -5.7940602   -4.6703064  0.067210351   -5.7940602    1.1237538   520538 
 2075000    1.0315077   -5.7931152   -5.7931152   -4.6697991   0.04867299   -5.7931152    1.1233161   520538 
 2076000     1.031167   -5.7925892   -5.7925892   -4.6696441  0.065581953   -5.7925892    1.1229451   520538 
 2077000     1.033135   -5.7952207   -5.7952207   -4.6701325  0.082168093   -5.7952207    1.1250882   520538 
 2078000    1.0331135   -5.7957867   -5.7957867   -4.6707219   0.08033591   -5.7957867    1.1250648   520538 
 2079000    1.0323058   -5.7943723   -5.7943723    -4.670187  0.080084123   -5.7943723    1.1241852   520538 
 2080000    1.0332566   -5.7962154   -5.7962154   -4.6709947  0.079005696   -5.7962154    1.1252207   520538 
 2081000    1.0323869   -5.7957098   -5.7957098   -4.6714362  0.053285833   -5.7957098    1.1242736   520538 
 2082000    1.0328558    -5.797281    -5.797281   -4.6724969   0.06721598    -5.797281    1.1247842   520538 
 2083000    1.0339462   -5.7982876   -5.7982876   -4.6723159  0.085715192   -5.7982876    1.1259717   520538 
 2084000    1.0318763   -5.7955598   -5.7955598   -4.6718423  0.083533375   -5.7955598    1.1237175   520538 
 2085000    1.0319244   -5.7951028   -5.7951028    -4.671333  0.067407012   -5.7951028    1.1237699   520538 
 2086000    1.0321059   -5.7958506   -5.7958506   -4.6718832   0.08987434   -5.7958506    1.1239675   520538 
 2087000    1.0323996    -5.796288    -5.796288   -4.6720006   0.10416886    -5.796288    1.1242874   520538 
 2088000    1.0316774   -5.7952624   -5.7952624   -4.6717616  0.080483627   -5.7952624    1.1235009   520538 
 2089000    1.0326985   -5.7965544   -5.7965544   -4.6719416  0.068412155   -5.7965544    1.1246129   520538 
 2090000    1.0307287   -5.7944358   -5.7944358   -4.6719681  0.065347598   -5.7944358    1.1224677   520538 
 2091000    1.0317049   -5.7957351   -5.7957351   -4.6722043  0.094743851   -5.7957351    1.1235308   520538 
 2092000    1.0310231   -5.7949922   -5.7949922   -4.6722038  0.071573187   -5.7949922    1.1227884   520538 
 2093000    1.0302857   -5.7951902   -5.7951902   -4.6732048  0.088032969   -5.7951902    1.1219854   520538 
 2094000    1.0315265   -5.7962726   -5.7962726    -4.672936  0.050782782   -5.7962726    1.1233365   520538 
 2095000    1.0317605   -5.7953189   -5.7953189   -4.6717276  0.056386185   -5.7953189    1.1235913   520538 
 2096000     1.032302   -5.7961923   -5.7961923   -4.6720112  0.079925433   -5.7961923    1.1241811   520538 
 2097000    1.0323257   -5.7964434   -5.7964434   -4.6722365  0.067450344   -5.7964434    1.1242069   520538 
 2098000    1.0315636   -5.7952164   -5.7952164   -4.6718394  0.059402808   -5.7952164     1.123377   520538 
 2099000    1.0315598   -5.7947326   -5.7947326   -4.6713599  0.074807791   -5.7947326    1.1233728   520538 
 2100000    1.0308974   -5.7950212   -5.7950212   -4.6723698  0.067908552   -5.7950212    1.1226514   520538 
 2101000    1.0313979   -5.7960271   -5.7960271   -4.6728306  0.075450647   -5.7960271    1.1231966   520538 
 2102000    1.0318289   -5.7961248   -5.7961248   -4.6724589  0.088015082   -5.7961248    1.1236659   520538 
 2103000    1.0318358   -5.7965098   -5.7965098   -4.6728364  0.090120972   -5.7965098    1.1236734   520538 
 2104000    1.0308288   -5.7956269   -5.7956269   -4.6730502  0.062940771   -5.7956269    1.1225767   520538 
 2105000    1.0303354   -5.7945181   -5.7945181   -4.6724787  0.092400555   -5.7945181    1.1220395   520538 
 2106000    1.0344847   -5.7975869   -5.7975869   -4.6710289  0.076580827   -5.7975869     1.126558   520538 
 2107000     1.032529   -5.7961523   -5.7961523    -4.671724  0.070920388   -5.7961523    1.1244283   520538 
 2108000    1.0323627   -5.7969176   -5.7969176   -4.6726705  0.069473913   -5.7969176    1.1242472   520538 
 2109000    1.0323994   -5.7976581   -5.7976581   -4.6733709  0.049783736   -5.7976581    1.1242872   520538 
 2110000    1.0324101   -5.7981055   -5.7981055   -4.6738067  0.084829505   -5.7981055    1.1242988   520538 
 2111000    1.0306463    -5.796246    -5.796246    -4.673868  0.088685515    -5.796246     1.122378   520538 
 2112000    1.0335617   -5.7994111   -5.7994111   -4.6738581  0.081080036   -5.7994111    1.1255529   520538 
 2113000    1.0295742   -5.7952673   -5.7952673   -4.6740568  0.068430709   -5.7952673    1.1212105   520538 
 2114000    1.0316434   -5.7976985   -5.7976985   -4.6742346  0.061852909   -5.7976985    1.1234639   520538 
 2115000    1.0292528   -5.7952205   -5.7952205   -4.6743601  0.076677055   -5.7952205    1.1208604   520538 
 2116000    1.0299422   -5.7970585   -5.7970585   -4.6754473  0.070072516   -5.7970585    1.1216112   520538 
 2117000    1.0302995     -5.79722     -5.79722   -4.6752196  0.065498594     -5.79722    1.1220003   520538 
 2118000    1.0273588   -5.7947201   -5.7947201   -4.6759221   0.06217942   -5.7947201     1.118798   520538 
 2119000    1.0292854   -5.7964474   -5.7964474   -4.6755515  0.079862068   -5.7964474     1.120896   520538 
 2120000    1.0298514   -5.7966122   -5.7966122   -4.6750999  0.083868946   -5.7966122    1.1215123   520538 
 2121000    1.0305058   -5.7972619   -5.7972619   -4.6750369  0.084734997   -5.7972619     1.122225   520538 
 2122000    1.0321095   -5.7991159   -5.7991159   -4.6751445  0.076847214   -5.7991159    1.1239714   520538 
 2123000    1.0318748   -5.7984716   -5.7984716   -4.6747558  0.088227318   -5.7984716    1.1237158   520538 
 2124000    1.0292188   -5.7966774   -5.7966774   -4.6758539   0.09838806   -5.7966774    1.1208235   520538 
 2125000    1.0311695   -5.7985467   -5.7985467   -4.6755989  0.074344309   -5.7985467    1.1229478   520538 
 2126000    1.0310692   -5.7993174   -5.7993174   -4.6764789  0.044935379   -5.7993174    1.1228385   520538 
 2127000    1.0295427   -5.7982025   -5.7982025   -4.6770263  0.047714089   -5.7982025    1.1211762   520538 
 2128000     1.030325   -5.7988908   -5.7988908   -4.6768628  0.076775682   -5.7988908    1.1220281   520538 
 2129000     1.031273   -5.8000815   -5.8000815   -4.6770211   0.11194637   -5.8000815    1.1230605   520538 
 2130000    1.0315461   -5.7995822   -5.7995822   -4.6762243  0.073728625   -5.7995822    1.1233579   520538 
 2131000    1.0323306    -5.799902    -5.799902   -4.6756898  0.088217556    -5.799902    1.1242122   520538 
 2132000    1.0321097   -5.7998493   -5.7998493   -4.6758777   0.08441681   -5.7998493    1.1239716   520538 
 2133000    1.0318172   -5.7999178   -5.7999178   -4.6762647  0.085284363   -5.7999178    1.1236532   520538 
 2134000    1.0313043   -5.7998016   -5.7998016   -4.6767069  0.065136395   -5.7998016    1.1230946   520538 
 2135000    1.0293737   -5.7972049   -5.7972049   -4.6762128  0.055063823   -5.7972049    1.1209921   520538 
 2136000    1.0291611   -5.7966933   -5.7966933   -4.6759327  0.082092556   -5.7966933    1.1207606   520538 
 2137000    1.0321389   -5.8004002   -5.8004002   -4.6763967   0.06481443   -5.8004002    1.1240034   520538 
 2138000    1.0306107    -5.799854    -5.799854   -4.6775147  0.081147259    -5.799854    1.1223392   520538 
 2139000    1.0304851   -5.7991144   -5.7991144   -4.6769119  0.070808625   -5.7991144    1.1222025   520538 
 2140000    1.0288478   -5.7974602   -5.7974602   -4.6770408  0.084762696   -5.7974602    1.1204194   520538 
 2141000    1.0294567   -5.7977713   -5.7977713   -4.6766887  0.077983301   -5.7977713    1.1210826   520538 
 2142000    1.0320412   -5.8009859   -5.8009859   -4.6770889  0.071334587   -5.8009859    1.1238971   520538 
 2143000     1.031639   -5.8009514   -5.8009514   -4.6774922  0.076157427   -5.8009514    1.1234591   520538 
 2144000    1.0318352   -5.8016094   -5.8016094   -4.6779367  0.092178618   -5.8016094    1.1236727   520538 
 2145000    1.0311145   -5.7999432   -5.7999432   -4.6770553  0.060137452   -5.7999432    1.1228879   520538 
 2146000    1.0315634   -5.8009028   -5.8009028   -4.6775261   0.07191044   -5.8009028    1.1233767   520538 
 2147000    1.0305675   -5.7996185   -5.7996185   -4.6773263  0.080221554   -5.7996185    1.1222922   520538 
 2148000    1.0315772   -5.8006245   -5.8006245   -4.6772328  0.047268098   -5.8006245    1.1233917   520538 
 2149000    1.0314585   -5.8012167   -5.8012167   -4.6779542  0.063109535   -5.8012167    1.1232625   520538 
 2150000    1.0331998   -5.8022399   -5.8022399   -4.6770811  0.063444977   -5.8022399    1.1251588   520538 
 2151000    1.0309857   -5.8010929   -5.8010929   -4.6783453  0.063021617   -5.8010929    1.1227476   520538 
 2152000    1.0315314   -5.8017478   -5.8017478   -4.6784058  0.081163491   -5.8017478    1.1233419   520538 
 2153000    1.0307833   -5.8012124   -5.8012124   -4.6786852  0.048387597   -5.8012124    1.1225272   520538 
 2154000    1.0295451   -5.8002335   -5.8002335   -4.6790547  0.073372465   -5.8002335    1.1211788   520538 
 2155000     1.029458   -5.8002615   -5.8002615   -4.6791775  0.080310976   -5.8002615    1.1210839   520538 
 2156000    1.0295336   -5.7993307   -5.7993307   -4.6781644  0.072458365   -5.7993307    1.1211663   520538 
 2157000    1.0307289   -5.8018872   -5.8018872   -4.6794192  0.063435526   -5.8018872     1.122468   520538 
 2158000    1.0305157   -5.8012271   -5.8012271   -4.6789913  0.072161225   -5.8012271    1.1222358   520538 
 2159000    1.0294529   -5.8010994   -5.8010994    -4.680021  0.052648513   -5.8010994    1.1210784   520538 
 2160000    1.0305308   -5.8011135   -5.8011135   -4.6788613  0.050060716   -5.8011135    1.1222522   520538 
 2161000    1.0294733   -5.8011075   -5.8011075   -4.6800069  0.055761666   -5.8011075    1.1211006   520538 
 2162000    1.0290612   -5.8017902   -5.8017902   -4.6811384  0.065457199   -5.8017902    1.1206518   520538 
 2163000    1.0305162   -5.8035865   -5.8035865   -4.6813501  0.074609038   -5.8035865    1.1222364   520538 
 2164000    1.0318205   -5.8044619   -5.8044619   -4.6808052  0.080469882   -5.8044619    1.1236567   520538 
 2165000    1.0318455   -5.8036757   -5.8036757   -4.6799918   0.05542762   -5.8036757    1.1236839   520538 
 2166000    1.0314266   -5.8030184   -5.8030184   -4.6797907  0.067455374   -5.8030184    1.1232277   520538 
 2167000    1.0309607   -5.8025797   -5.8025797   -4.6798593   0.10125511   -5.8025797    1.1227204   520538 
 2168000    1.0307487   -5.8024423   -5.8024423   -4.6799527  0.061074618   -5.8024423    1.1224895   520538 
 2169000    1.0310914   -5.8033675   -5.8033675   -4.6805047  0.085108269   -5.8033675    1.1228628   520538 
 2170000    1.0302349   -5.8026835   -5.8026835   -4.6807535   0.05428228   -5.8026835    1.1219301   520538 
 2171000    1.0305656   -5.8044053   -5.8044053   -4.6821151  0.054518803   -5.8044053    1.1222902   520538 
 2172000     1.030571   -5.8049248   -5.8049248   -4.6826288  0.077496118   -5.8049248     1.122296   520538 
 2173000    1.0316211   -5.8051239   -5.8051239   -4.6816843  0.074679353   -5.8051239    1.1234396   520538 
 2174000    1.0310789   -5.8050523   -5.8050523   -4.6822032  0.074629011   -5.8050523    1.1228491   520538 
 2175000    1.0294561   -5.8035246   -5.8035246   -4.6824427  0.057816087   -5.8035246    1.1210819   520538 
 2176000    1.0284224   -5.8019544   -5.8019544   -4.6819983  0.079922397   -5.8019544    1.1199561   520538 
 2177000    1.0305861    -5.803924    -5.803924   -4.6816115  0.061952114    -5.803924    1.1223125   520538 
 2178000    1.0304963   -5.8036385   -5.8036385   -4.6814239   0.07075589   -5.8036385    1.1222146   520538 
 2179000    1.0317828   -5.8044552   -5.8044552   -4.6808396  0.076727251   -5.8044552    1.1236156   520538 
 2180000    1.0315567   -5.8039574   -5.8039574   -4.6805879  0.086882544   -5.8039574    1.1233695   520538 
 2181000    1.0308916   -5.8039549   -5.8039549   -4.6813097   0.08217433   -5.8039549    1.1226452   520538 
 2182000    1.0300703   -5.8032284   -5.8032284   -4.6814777  0.079391202   -5.8032284    1.1217507   520538 
 2183000    1.0301914    -5.803167    -5.803167   -4.6812843  0.077501506    -5.803167    1.1218827   520538 
 2184000    1.0302048    -5.803956    -5.803956   -4.6820587  0.059524135    -5.803956    1.1218972   520538 
 2185000    1.0309208   -5.8043998   -5.8043998   -4.6817228  0.061692221   -5.8043998     1.122677   520538 
 2186000    1.0309467   -5.8046873   -5.8046873   -4.6819821  0.097382679   -5.8046873    1.1227052   520538 
 2187000    1.0315074   -5.8055266   -5.8055266   -4.6822108  0.080326116   -5.8055266    1.1233157   520538 
 2188000    1.0307988    -5.804002    -5.804002   -4.6814579   0.07354133    -5.804002    1.1225441   520538 
 2189000    1.0309334   -5.8045053   -5.8045053   -4.6818146  0.058824387   -5.8045053    1.1226907   520538 
 2190000    1.0314395   -5.8056526   -5.8056526   -4.6824108   0.07430466   -5.8056526    1.1232418   520538 
 2191000    1.0306662   -5.8051225   -5.8051225   -4.6827229  0.080042967   -5.8051225    1.1223996   520538 
 2192000    1.0298473   -5.8042704   -5.8042704   -4.6827625  0.061501997   -5.8042704    1.1215079   520538 
 2193000    1.0301054   -5.8045063   -5.8045063   -4.6827173  0.084806616   -5.8045063     1.121789   520538 
 2194000    1.0313545   -5.8055993   -5.8055993     -4.68245  0.059553542   -5.8055993    1.1231493   520538 
 2195000    1.0291162   -5.8042514   -5.8042514   -4.6835397  0.071406621   -5.8042514    1.1207117   520538 
 2196000    1.0304227   -5.8057214   -5.8057214   -4.6835869  0.082754488   -5.8057214    1.1221345   520538 
 2197000    1.0296474   -5.8040238   -5.8040238   -4.6827336  0.076247987   -5.8040238    1.1212902   520538 
 2198000    1.0283946   -5.8027922   -5.8027922   -4.6828663  0.077625999   -5.8027922    1.1199259   520538 
 2199000    1.0292499   -5.8044471   -5.8044471   -4.6835897  0.051788038   -5.8044471    1.1208574   520538 
 2200000     1.028737    -5.804558    -5.804558   -4.6842591  0.081100471    -5.804558    1.1202988   520538 
 2201000    1.0300253   -5.8060712   -5.8060712   -4.6843694  0.050265453   -5.8060712    1.1217018   520538 
 2202000    1.0304505   -5.8065797   -5.8065797   -4.6844149  0.071419141   -5.8065797    1.1221648   520538 
 2203000    1.0280034   -5.8044881   -5.8044881   -4.6849882  0.056596263   -5.8044881    1.1194999   520538 
 2204000    1.0288065   -5.8054309   -5.8054309   -4.6850564  0.083143047   -5.8054309    1.1203745   520538 
 2205000    1.0306368   -5.8075173   -5.8075173   -4.6851496  0.048715442   -5.8075173    1.1223677   520538 
 2206000    1.0279464   -5.8045784   -5.8045784   -4.6851406  0.068627052   -5.8045784    1.1194378   520538 
 2207000     1.029675   -5.8068985   -5.8068985   -4.6855783  0.060256611   -5.8068985    1.1213202   520538 
 2208000    1.0310591   -5.8070151   -5.8070151   -4.6841875  0.069284538   -5.8070151    1.1228275   520538 
 2209000     1.029411   -5.8049528   -5.8049528     -4.68392   0.07183203   -5.8049528    1.1210328   520538 
 2210000    1.0286562   -5.8042306   -5.8042306   -4.6840198  0.077009912   -5.8042306    1.1202108   520538 
 2211000    1.0304887   -5.8064193   -5.8064193   -4.6842129  0.091935484   -5.8064193    1.1222064   520538 
 2212000     1.028669   -5.8047412   -5.8047412   -4.6845165  0.075975938   -5.8047412    1.1202247   520538 
 2213000    1.0285694   -5.8044119   -5.8044119   -4.6842956  0.080505618   -5.8044119    1.1201163   520538 
 2214000    1.0277224   -5.8037953   -5.8037953   -4.6846015  0.055895966   -5.8037953    1.1191938   520538 
 2215000    1.0283679   -5.8040861   -5.8040861   -4.6841893  0.064970754   -5.8040861    1.1198968   520538 
 2216000    1.0264135   -5.8025712   -5.8025712   -4.6848028  0.076820228   -5.8025712    1.1177684   520538 
 2217000    1.0291422   -5.8054802   -5.8054802   -4.6847402  0.057756651   -5.8054802      1.12074   520538 
 2218000    1.0289214   -5.8048322   -5.8048322   -4.6843326  0.064769602   -5.8048322    1.1204996   520538 
 2219000     1.028811    -5.804771    -5.804771   -4.6843916  0.061759523    -5.804771    1.1203794   520538 
 2220000    1.0282958   -5.8044729   -5.8044729   -4.6846546  0.095622746   -5.8044729    1.1198183   520538 
 2221000    1.0290772   -5.8050633   -5.8050633    -4.684394  0.081593454   -5.8050633    1.1206693   520538 
 2222000    1.0293489   -5.8055762   -5.8055762    -4.684611  0.080635342   -5.8055762    1.1209652   520538 
 2223000    1.0294499   -5.8061864   -5.8061864   -4.6851112  0.070428288   -5.8061864    1.1210752   520538 
 2224000    1.0280826   -5.8054717   -5.8054717   -4.6858856  0.067959477   -5.8054717    1.1195862   520538 
 2225000    1.0273619   -5.8054386   -5.8054386   -4.6866372  0.059866395   -5.8054386    1.1188013   520538 
 2226000    1.0270822   -5.8055375   -5.8055375   -4.6870407  0.068745608   -5.8055375    1.1184967   520538 
 2227000    1.0274089   -5.8069013   -5.8069013   -4.6880488  0.081936268   -5.8069013    1.1188525   520538 
 2228000    1.0274876   -5.8074013   -5.8074013   -4.6884631  0.068196662   -5.8074013    1.1189382   520538 
 2229000    1.0299591   -5.8103609   -5.8103609   -4.6887312   0.07088416   -5.8103609    1.1216297   520538 
 2230000    1.0297545   -5.8097782   -5.8097782   -4.6883713  0.068390625   -5.8097782    1.1214068   520538 
 2231000    1.0276024   -5.8064293   -5.8064293   -4.6873661  0.054454048   -5.8064293    1.1190632   520538 
 2232000     1.028724   -5.8076319   -5.8076319   -4.6873473  0.055827541   -5.8076319    1.1202846   520538 
 2233000    1.0315981   -5.8108547   -5.8108547   -4.6874401  0.071317879   -5.8108547    1.1234146   520538 
 2234000    1.0294815   -5.8085474   -5.8085474   -4.6874379  0.083236128   -5.8085474    1.1211095   520538 
 2235000    1.0306906   -5.8104246   -5.8104246   -4.6879984  0.057287823   -5.8104246    1.1224263   520538 
 2236000    1.0286323   -5.8079963   -5.8079963   -4.6878115   0.09167771   -5.8079963    1.1201848   520538 
 2237000    1.0298797   -5.8096306   -5.8096306   -4.6880874  0.071891619   -5.8096306    1.1215432   520538 
 2238000    1.0298401   -5.8088736   -5.8088736   -4.6873736  0.077741003   -5.8088736       1.1215   520538 
 2239000    1.0283571   -5.8080815   -5.8080815   -4.6881964  0.048218165   -5.8080815    1.1198851   520538 
 2240000    1.0303781   -5.8096984   -5.8096984   -4.6876125  0.065390795   -5.8096984    1.1220859   520538 
 2241000    1.0306959   -5.8110631   -5.8110631    -4.688631  0.071115256   -5.8110631     1.122432   520538 
 2242000    1.0288356   -5.8097336   -5.8097336   -4.6893274  0.073589144   -5.8097336    1.1204062   520538 
 2243000    1.0285233   -5.8091518   -5.8091518   -4.6890858  0.078577519   -5.8091518    1.1200661   520538 
 2244000    1.0324843    -5.812222    -5.812222   -4.6878424  0.072388843    -5.812222    1.1243796   520538 
 2245000    1.0323418    -5.812146    -5.812146   -4.6879215  0.081836909    -5.812146    1.1242245   520538 
 2246000    1.0281911   -5.8085706   -5.8085706   -4.6888662  0.085777288   -5.8085706    1.1197043   520538 
 2247000    1.0306523   -5.8104901   -5.8104901   -4.6881055  0.064773622   -5.8104901    1.1223846   520538 
 2248000    1.0298584   -5.8101511   -5.8101511   -4.6886311  0.076196483   -5.8101511      1.12152   520538 
 2249000    1.0302053   -5.8106635   -5.8106635   -4.6887658  0.059262711   -5.8106635    1.1218977   520538 
 2250000     1.029537   -5.8094329   -5.8094329   -4.6882629  0.062773274   -5.8094329      1.12117   520538 
 2251000     1.030832   -5.8093719   -5.8093719   -4.6867916  0.086638033   -5.8093719    1.1225802   520538 
 2252000    1.0311587   -5.8101097   -5.8101097   -4.6871736  0.044934097   -5.8101097     1.122936   520538 
 2253000     1.029456   -5.8085456   -5.8085456   -4.6874639  0.072277439   -5.8085456    1.1210817   520538 
 2254000    1.0302338   -5.8094396   -5.8094396   -4.6875108   0.06370864   -5.8094396    1.1219288   520538 
 2255000    1.0305355   -5.8103654   -5.8103654   -4.6881081  0.085446272   -5.8103654    1.1222573   520538 
 2256000     1.031222   -5.8111059   -5.8111059   -4.6881009  0.060422323   -5.8111059     1.123005   520538 
 2257000    1.0295184   -5.8107048   -5.8107048   -4.6895552  0.070834145   -5.8107048    1.1211497   520538 
 2258000    1.0310304   -5.8115549   -5.8115549   -4.6887585  0.050266054   -5.8115549    1.1227963   520538 
 2259000     1.030213   -5.8106012   -5.8106012   -4.6886951  0.084854978   -5.8106012    1.1219061   520538 
 2260000    1.0296687   -5.8099802   -5.8099802   -4.6886668  0.075073852   -5.8099802    1.1213134   520538 
 2261000    1.0310101   -5.8110922   -5.8110922    -4.688318  0.072106804   -5.8110922    1.1227742   520538 
 2262000    1.0302632   -5.8100859   -5.8100859   -4.6881251  0.060864878   -5.8100859    1.1219608   520538 
 2263000      1.02902   -5.8091114   -5.8091114   -4.6885044  0.085632446   -5.8091114    1.1206069   520538 
 2264000    1.0275551   -5.8083456   -5.8083456   -4.6893339  0.073940518   -5.8083456    1.1190117   520538 
 2265000     1.027329   -5.8088752   -5.8088752   -4.6901098  0.082570168   -5.8088752    1.1187654   520538 
 2266000    1.0284525   -5.8113495   -5.8113495   -4.6913606  0.041175427   -5.8113495    1.1199889   520538 
 2267000    1.0279129   -5.8110119   -5.8110119   -4.6916105  0.059756493   -5.8110119    1.1194013   520538 
 2268000    1.0291079   -5.8115993   -5.8115993   -4.6908966  0.059528553   -5.8115993    1.1207027   520538 
 2269000    1.0283164   -5.8112928   -5.8112928    -4.691452  0.067018706   -5.8112928    1.1198408   520538 
 2270000    1.0273406   -5.8105801   -5.8105801   -4.6918021  0.077519076   -5.8105801    1.1187781   520538 
 2271000    1.0294651   -5.8120003   -5.8120003   -4.6909086  0.064589571   -5.8120003    1.1210917   520538 
 2272000    1.0303865   -5.8126944   -5.8126944   -4.6905993  0.053327797   -5.8126944    1.1220951   520538 
 2273000    1.0294947     -5.81192     -5.81192    -4.690796  0.079516971     -5.81192    1.1211239   520538 
 2274000    1.0300102   -5.8122303   -5.8122303    -4.690545  0.068264365   -5.8122303    1.1216853   520538 
 2275000    1.0308537   -5.8124218   -5.8124218   -4.6898179  0.084684948   -5.8124218    1.1226039   520538 
 2276000    1.0300713   -5.8122497   -5.8122497   -4.6904979  0.069531838   -5.8122497    1.1217518   520538 
 2277000    1.0284131   -5.8113704   -5.8113704   -4.6914244  0.057095471   -5.8113704    1.1199461   520538 
 2278000    1.0283964   -5.8115969   -5.8115969   -4.6916691  0.085390998   -5.8115969    1.1199278   520538 
 2279000    1.0271739   -5.8094387   -5.8094387   -4.6908421  0.067898678   -5.8094387    1.1185966   520538 
 2280000    1.0278257   -5.8115031   -5.8115031   -4.6921967  0.039984367   -5.8115031    1.1193063   520538 
 2281000    1.0283636   -5.8116428   -5.8116428   -4.6917506  0.076150406   -5.8116428    1.1198921   520538 
 2282000    1.0264008   -5.8099982   -5.8099982   -4.6922435  0.067389338   -5.8099982    1.1177547   520538 
 2283000    1.0290985   -5.8124434   -5.8124434   -4.6917509  0.056410448   -5.8124434    1.1206925   520538 
 2284000    1.0283272   -5.8116395   -5.8116395    -4.691787  0.057231924   -5.8116395    1.1198525   520538 
 2285000    1.0283549   -5.8107437   -5.8107437    -4.690861  0.080745519   -5.8107437    1.1198827   520538 
 2286000    1.0282853   -5.8112806   -5.8112806   -4.6914738  0.052181969   -5.8112806    1.1198069   520538 
 2287000    1.0312828   -5.8140318   -5.8140318   -4.6909606   0.06150835   -5.8140318    1.1230711   520538 
 2288000    1.0303123   -5.8128043   -5.8128043   -4.6907901  0.076116717   -5.8128043    1.1220142   520538 
 2289000    1.0297821   -5.8133688   -5.8133688   -4.6919319  0.076240053   -5.8133688    1.1214369   520538 
 2290000    1.0313255   -5.8151213   -5.8151213   -4.6920036  0.065710663   -5.8151213    1.1231177   520538 
 2291000    1.0298803   -5.8141385   -5.8141385   -4.6925946   0.05853938   -5.8141385    1.1215438   520538 
 2292000    1.0286919   -5.8130729   -5.8130729   -4.6928232  0.075905649   -5.8130729    1.1202497   520538 
 2293000    1.0298338   -5.8140774   -5.8140774   -4.6925842  0.075227764   -5.8140774    1.1214932   520538 
 2294000    1.0294035    -5.813058    -5.813058   -4.6920334  0.045043692    -5.813058    1.1210246   520538 
 2295000    1.0283188   -5.8113134   -5.8113134   -4.6914701  0.044994987   -5.8113134    1.1198433   520538 
 2296000    1.0302602    -5.814099    -5.814099   -4.6921415  0.043354892    -5.814099    1.1219575   520538 
 2297000     1.029521   -5.8123967   -5.8123967   -4.6912441  0.061411042   -5.8123967    1.1211526   520538 
 2298000    1.0296188   -5.8134936   -5.8134936   -4.6922345  0.086658995   -5.8134936     1.121259   520538 
 2299000    1.0294642   -5.8136136   -5.8136136   -4.6925229  0.092357928   -5.8136136    1.1210907   520538 
 2300000    1.0286498   -5.8133401   -5.8133401   -4.6931363  0.068543688   -5.8133401    1.1202038   520538 
 2301000    1.0311516   -5.8153245   -5.8153245   -4.6923963  0.049264583   -5.8153245    1.1229283   520538 
 2302000    1.0294237   -5.8138585   -5.8138585   -4.6928119  0.071427629   -5.8138585    1.1210466   520538 
 2303000    1.0272319   -5.8108895   -5.8108895   -4.6922297  0.068302653   -5.8108895    1.1186597   520538 
 2304000    1.0292678   -5.8138176   -5.8138176   -4.6929408  0.061267695   -5.8138176    1.1208768   520538 
 2305000    1.0292979   -5.8141483   -5.8141483   -4.6932388  0.061047834   -5.8141483    1.1209096   520538 
 2306000    1.0289952   -5.8135795   -5.8135795   -4.6929996   0.07265843   -5.8135795    1.1205799   520538 
 2307000    1.0285574   -5.8133872   -5.8133872   -4.6932839  0.062254512   -5.8133872    1.1201032   520538 
 2308000    1.0291718   -5.8142284   -5.8142284   -4.6934561  0.067966445   -5.8142284    1.1207723   520538 
 2309000    1.0284341   -5.8138473   -5.8138473   -4.6938784   0.10486934   -5.8138473    1.1199689   520538 
 2310000    1.0313275   -5.8170553   -5.8170553   -4.6939354   0.08969646   -5.8170553    1.1231198   520538 
 2311000    1.0291813   -5.8163704   -5.8163704   -4.6955878  0.059980969   -5.8163704    1.1207826   520538 
 2312000    1.0302837   -5.8174665   -5.8174665   -4.6954834  0.039882061   -5.8174665    1.1219832   520538 
 2313000     1.028226   -5.8153786   -5.8153786   -4.6956363  0.072644712   -5.8153786    1.1197423   520538 
 2314000    1.0295432   -5.8169815   -5.8169815   -4.6958048    0.0805946   -5.8169815    1.1211767   520538 
 2315000    1.0300083   -5.8172484   -5.8172484   -4.6955652  0.050308042   -5.8172484    1.1216832   520538 
 2316000    1.0276439   -5.8147788   -5.8147788   -4.6956703  0.059576194   -5.8147788    1.1191084   520538 
 2317000    1.0282378   -5.8158718   -5.8158718   -4.6961167  0.065340703   -5.8158718    1.1197551   520538 
 2318000    1.0261593    -5.813517    -5.813517   -4.6960254  0.078447261    -5.813517    1.1174917   520538 
 2319000    1.0275157   -5.8156068   -5.8156068   -4.6966379  0.062028725   -5.8156068    1.1189688   520538 
 2320000    1.0298775   -5.8180107   -5.8180107   -4.6964699  0.072386426   -5.8180107    1.1215408   520538 
 2321000    1.0289681   -5.8172626   -5.8172626   -4.6967122  0.090258179   -5.8172626    1.1205504   520538 
 2322000    1.0304353   -5.8178016   -5.8178016   -4.6956534  0.076092738   -5.8178016    1.1221482   520538 
 2323000    1.0282608   -5.8151463   -5.8151463   -4.6953661  0.068726536   -5.8151463    1.1197802   520538 
 2324000    1.0313551    -5.818323    -5.818323   -4.6951731  0.076285615    -5.818323    1.1231499   520538 
 2325000    1.0295852   -5.8161031   -5.8161031   -4.6948806  0.071454692   -5.8161031    1.1212224   520538 
 2326000    1.0284113   -5.8161283   -5.8161283   -4.6961842  0.092409762   -5.8161283    1.1199441   520538 
 2327000    1.0272393   -5.8154686   -5.8154686   -4.6968008  0.079629114   -5.8154686    1.1186677   520538 
 2328000    1.0272882   -5.8163721   -5.8163721   -4.6976512  0.035275303   -5.8163721     1.118721   520538 
 2329000    1.0276733   -5.8178575   -5.8178575   -4.6987171  0.072189801   -5.8178575    1.1191404   520538 
 2330000     1.028152   -5.8180617   -5.8180617      -4.6984  0.074829527   -5.8180617    1.1196617   520538 
 2331000    1.0282093   -5.8183393   -5.8183393   -4.6986152  0.079022866   -5.8183393    1.1197241   520538 
 2332000    1.0265404   -5.8165271   -5.8165271   -4.6986204  0.071935422   -5.8165271    1.1179067   520538 
 2333000    1.0290898   -5.8193906   -5.8193906   -4.6987076  0.075722328   -5.8193906    1.1206829   520538 
 2334000    1.0266893   -5.8166852   -5.8166852   -4.6986163  0.067900608   -5.8166852    1.1180689   520538 
 2335000    1.0267275   -5.8167052   -5.8167052   -4.6985948   0.07537721   -5.8167052    1.1181105   520538 
 2336000    1.0255623   -5.8160977   -5.8160977   -4.6992561  0.044912786   -5.8160977    1.1168415   520538 
 2337000    1.0269716   -5.8176348   -5.8176348   -4.6992586  0.062532183   -5.8176348    1.1183762   520538 
 2338000    1.0255014   -5.8160708   -5.8160708   -4.6992956  0.070279069   -5.8160708    1.1167752   520538 
 2339000     1.028484   -5.8188212   -5.8188212   -4.6987979  0.059342219   -5.8188212    1.1200232   520538 
 2340000    1.0274721   -5.8179929   -5.8179929   -4.6990716  0.074830952   -5.8179929    1.1189212   520538 
 2341000    1.0260364   -5.8170736   -5.8170736   -4.6997159  0.065102365   -5.8170736    1.1173578   520538 
 2342000     1.027379   -5.8168891   -5.8168891   -4.6980692  0.075156523   -5.8168891    1.1188199   520538 
 2343000    1.0271291   -5.8166388   -5.8166388   -4.6980911  0.077218856   -5.8166388    1.1185477   520538 
 2344000    1.0287696   -5.8184757   -5.8184757   -4.6981414  0.072497244   -5.8184757    1.1203343   520538 
 2345000    1.0273405    -5.817249    -5.817249    -4.698471  0.063010443    -5.817249    1.1187779   520538 
 2346000    1.0282565   -5.8181162   -5.8181162   -4.6983407  0.071075576   -5.8181162    1.1197755   520538 
 2347000    1.0265851   -5.8165299   -5.8165299   -4.6985746  0.054841653   -5.8165299    1.1179553   520538 
 2348000    1.0281901   -5.8184223   -5.8184223   -4.6987191  0.048923572   -5.8184223    1.1197032   520538 
 2349000    1.0274024   -5.8175653   -5.8175653   -4.6987199  0.075736477   -5.8175653    1.1188454   520538 
 2350000    1.0273422   -5.8172512   -5.8172512   -4.6984714  0.066094923   -5.8172512    1.1187799   520538 
 2351000    1.0269968   -5.8176964   -5.8176964   -4.6992927  0.069218694   -5.8176964    1.1184037   520538 
 2352000     1.025539   -5.8161703   -5.8161703   -4.6993542  0.085676386   -5.8161703    1.1168161   520538 
 2353000    1.0276886     -5.81806     -5.81806   -4.6989029  0.075730239     -5.81806    1.1191571   520538 
 2354000    1.0276465   -5.8183221   -5.8183221    -4.699211  0.067223073   -5.8183221    1.1191112   520538 
 2355000     1.029236   -5.8203773   -5.8203773   -4.6995351   0.06684382   -5.8203773    1.1208422   520538 
 2356000    1.0293432   -5.8202273   -5.8202273   -4.6992683  0.081687621   -5.8202273    1.1209589   520538 
 2357000    1.0272006   -5.8173932   -5.8173932   -4.6987676   0.06932813   -5.8173932    1.1186256   520538 
 2358000    1.0282703   -5.8175634   -5.8175634   -4.6977729  0.069786139   -5.8175634    1.1197905   520538 
 2359000    1.0265141   -5.8165971   -5.8165971   -4.6987191  0.077890497   -5.8165971    1.1178781   520538 
 2360000    1.0271754   -5.8183094   -5.8183094   -4.6997112  0.058975076   -5.8183094    1.1185982   520538 
 2361000      1.02924   -5.8215549   -5.8215549   -4.7007084  0.093428532   -5.8215549    1.1208465   520538 
 2362000    1.0267953   -5.8187555   -5.8187555   -4.7005713  0.065025069   -5.8187555    1.1181843   520538 
 2363000     1.028974   -5.8205471   -5.8205471   -4.6999902  0.075935577   -5.8205471    1.1205569   520538 
 2364000    1.0258543   -5.8170591   -5.8170591   -4.6998996  0.044910292   -5.8170591    1.1171595   520538 
 2365000    1.0276722    -5.819535    -5.819535   -4.7003957  0.059092506    -5.819535    1.1191393   520538 
 2366000    1.0288548   -5.8209292   -5.8209292   -4.7005022   0.03291612   -5.8209292     1.120427   520538 
 2367000    1.0277276   -5.8191919   -5.8191919   -4.6999924  0.063287052   -5.8191919    1.1191995   520538 
 2368000    1.0250242   -5.8170438   -5.8170438   -4.7007884  0.080722909   -5.8170438    1.1162555   520538 
 2369000    1.0288425    -5.820705    -5.820705   -4.7002913  0.061031491    -5.820705    1.1204137   520538 
 2370000    1.0266135    -5.818093    -5.818093   -4.7001068  0.079204255    -5.818093    1.1179862   520538 
 2371000    1.0275721    -5.819656    -5.819656   -4.7006259  0.061581688    -5.819656    1.1190302   520538 
 2372000    1.0264961   -5.8188161   -5.8188161   -4.7009577  0.047565184   -5.8188161    1.1178584   520538 
 2373000    1.0264475   -5.8192698   -5.8192698   -4.7014643  0.075372687   -5.8192698    1.1178055   520538 
 2374000    1.0258637   -5.8185372   -5.8185372   -4.7013674  0.058438205   -5.8185372    1.1171698   520538 
 2375000    1.0279958   -5.8210862   -5.8210862   -4.7015945  0.055812779   -5.8210862    1.1194916   520538 
 2376000    1.0293306   -5.8226829   -5.8226829   -4.7017377   0.05849207   -5.8226829    1.1209452   520538 
 2377000    1.0282693   -5.8218056   -5.8218056   -4.7020162  0.064024742   -5.8218056    1.1197895   520538 
 2378000    1.0283022   -5.8219062   -5.8219062   -4.7020809  0.097564769   -5.8219062    1.1198253   520538 
 2379000    1.0283576   -5.8221474   -5.8221474   -4.7022618  0.069714742   -5.8221474    1.1198856   520538 
 2380000    1.0291173   -5.8225034   -5.8225034   -4.7017905   0.07234417   -5.8225034    1.1207129   520538 
 2381000    1.0284471   -5.8219614   -5.8219614   -4.7019783  0.048198659   -5.8219614    1.1199831   520538 
 2382000    1.0286041   -5.8222593   -5.8222593   -4.7021052  0.061577207   -5.8222593    1.1201541   520538 
 2383000    1.0276173    -5.820224    -5.820224   -4.7011446  0.053798708    -5.820224    1.1190794   520538 
 2384000    1.0290293   -5.8215537   -5.8215537   -4.7009366    0.0584109   -5.8215537    1.1206171   520538 
 2385000    1.0282287   -5.8214687   -5.8214687   -4.7017235  0.092711367   -5.8214687    1.1197452   520538 
 2386000    1.0271609   -5.8200706   -5.8200706   -4.7014882  0.061429689   -5.8200706    1.1185824   520538 
 2387000    1.0278308   -5.8209233   -5.8209233   -4.7016114  0.061409906   -5.8209233     1.119312   520538 
 2388000    1.0281478   -5.8211392   -5.8211392    -4.701482  0.072997315   -5.8211392    1.1196571   520538 
 2389000     1.029257   -5.8222583   -5.8222583   -4.7013933  0.057648866   -5.8222583     1.120865   520538 
 2390000    1.0288317    -5.822374    -5.822374    -4.701972  0.042628004    -5.822374    1.1204019   520538 
 2391000    1.0275041   -5.8202486   -5.8202486   -4.7012924  0.070294458   -5.8202486    1.1189562   520538 
 2392000    1.0269667   -5.8199248   -5.8199248   -4.7015539  0.078132828   -5.8199248    1.1183709   520538 
 2393000    1.0287101   -5.8220865   -5.8220865    -4.701817  0.061615985   -5.8220865    1.1202695   520538 
 2394000    1.0275946   -5.8210966   -5.8210966   -4.7020419  0.064862447   -5.8210966    1.1190547   520538 
 2395000    1.0269023   -5.8205391   -5.8205391   -4.7022383  0.075809195   -5.8205391    1.1183008   520538 
 2396000    1.0282786   -5.8230873   -5.8230873   -4.7032878  0.066682819   -5.8230873    1.1197995   520538 
 2397000    1.0261958   -5.8204081   -5.8204081   -4.7028767  0.060963062   -5.8204081    1.1175314   520538 
 2398000    1.0265294   -5.8213575   -5.8213575   -4.7034628  0.065642767   -5.8213575    1.1178947   520538 
 2399000    1.0265909   -5.8216195   -5.8216195   -4.7036578  0.089146771   -5.8216195    1.1179617   520538 
 2400000     1.026176   -5.8214898   -5.8214898   -4.7039799  0.074875701   -5.8214898    1.1175098   520538 
 2401000    1.0293369   -5.8241036   -5.8241036   -4.7031515  0.058509139   -5.8241036    1.1209521   520538 
 2402000    1.0284566   -5.8233502   -5.8233502   -4.7033568  0.042302815   -5.8233502    1.1199934   520538 
 2403000    1.0308441   -5.8263601   -5.8263601   -4.7037667   0.07206926   -5.8263601    1.1225934   520538 
 2404000    1.0279446    -5.823111    -5.823111   -4.7036751  0.071149127    -5.823111    1.1194359   520538 
 2405000    1.0304972   -5.8248597   -5.8248597   -4.7026441  0.074227609   -5.8248597    1.1222156   520538 
 2406000    1.0274211   -5.8218123   -5.8218123   -4.7029465  0.075154447   -5.8218123    1.1188657   520538 
 2407000    1.0276134    -5.822055    -5.822055   -4.7029798  0.062388641    -5.822055    1.1190752   520538 
 2408000    1.0255783   -5.8200066   -5.8200066   -4.7031476  0.067000394   -5.8200066     1.116859   520538 
 2409000    1.0270718   -5.8213465   -5.8213465   -4.7028611  0.060969688   -5.8213465    1.1184853   520538 
 2410000    1.0268547   -5.8216385   -5.8216385   -4.7033895  0.050127654   -5.8216385     1.118249   520538 
 2411000    1.0256838   -5.8205344   -5.8205344   -4.7035606  0.078228973   -5.8205344    1.1169738   520538 
 2412000     1.027185   -5.8237045   -5.8237045   -4.7050958  0.056694438   -5.8237045    1.1186086   520538 
 2413000    1.0257009     -5.82264     -5.82264   -4.7056476  0.080448081     -5.82264    1.1169924   520538 
 2414000    1.0258616   -5.8232396   -5.8232396   -4.7060721  0.093505214   -5.8232396    1.1171675   520538 
 2415000     1.027905   -5.8245665   -5.8245665   -4.7051738  0.052837167   -5.8245665    1.1193927   520538 
 2416000    1.0271839   -5.8238724   -5.8238724    -4.705265  0.084504872   -5.8238724    1.1186074   520538 
 2417000    1.0276416   -5.8254484   -5.8254484   -4.7063425  0.078453664   -5.8254484    1.1191058   520538 
 2418000    1.0256328    -5.822958    -5.822958   -4.7060398   0.09017394    -5.822958    1.1169183   520538 
 2419000     1.027361    -5.825244    -5.825244   -4.7064437  0.057253521    -5.825244    1.1188003   520538 
 2420000    1.0276216   -5.8251475   -5.8251475   -4.7060634  0.068784843   -5.8251475    1.1190841   520538 
 2421000    1.0281177   -5.8268755   -5.8268755   -4.7072511  0.068804767   -5.8268755    1.1196244   520538 
 2422000    1.0267665   -5.8247434   -5.8247434   -4.7065905  0.067923989   -5.8247434    1.1181529   520538 
 2423000    1.0281782   -5.8255445   -5.8255445   -4.7058543   0.07531885   -5.8255445    1.1196902   520538 
 2424000    1.0278322   -5.8243618   -5.8243618   -4.7050484  0.059709803   -5.8243618    1.1193134   520538 
 2425000    1.0269463    -5.823857    -5.823857   -4.7055082  0.080434771    -5.823857    1.1183487   520538 
 2426000      1.02705   -5.8242837   -5.8242837    -4.705822  0.067537669   -5.8242837    1.1184617   520538 
 2427000    1.0257532   -5.8240656   -5.8240656   -4.7070162  0.044022375   -5.8240656    1.1170495   520538 
 2428000    1.0236381   -5.8225595   -5.8225595   -4.7078134  0.039328856   -5.8225595    1.1147461   520538 
 2429000    1.0263253   -5.8251208   -5.8251208   -4.7074484   0.05617337   -5.8251208    1.1176724   520538 
 2430000    1.0248586   -5.8235663   -5.8235663   -4.7074911  0.064139875   -5.8235663    1.1160752   520538 
 2431000    1.0253139   -5.8237835   -5.8237835   -4.7072125  0.061282052   -5.8237835     1.116571   520538 
 2432000    1.0265839   -5.8256322   -5.8256322   -4.7076782  0.053577474   -5.8256322     1.117954   520538 
 2433000    1.0251309   -5.8238985   -5.8238985   -4.7075269  0.072420873   -5.8238985    1.1163717   520538 
 2434000    1.0270575   -5.8258553   -5.8258553   -4.7073855  0.096529522   -5.8258553    1.1184698   520538 
 2435000    1.0279891    -5.827352    -5.827352   -4.7078676  0.074423911    -5.827352    1.1194843   520538 
 2436000    1.0294149   -5.8285193   -5.8285193   -4.7074823  0.066598266   -5.8285193     1.121037   520538 
 2437000    1.0271479    -5.825971    -5.825971   -4.7074027  0.082174291    -5.825971    1.1185682   520538 
 2438000    1.0250087   -5.8242768   -5.8242768   -4.7080382  0.058259062   -5.8242768    1.1162386   520538 
 2439000    1.0268297   -5.8263971   -5.8263971   -4.7081754   0.07651492   -5.8263971    1.1182217   520538 
 2440000    1.0271001   -5.8266594   -5.8266594   -4.7081431  0.056723411   -5.8266594    1.1185162   520538 
 2441000    1.0262431   -5.8258529   -5.8258529   -4.7082701  0.074967297   -5.8258529    1.1175829   520538 
 2442000    1.0253749   -5.8242397   -5.8242397   -4.7076023  0.076846782   -5.8242397    1.1166374   520538 
 2443000    1.0238363   -5.8222986   -5.8222986   -4.7073367  0.071645002   -5.8222986    1.1149619   520538 
 2444000     1.027319   -5.8260287   -5.8260287   -4.7072741  0.085536895   -5.8260287    1.1187546   520538 
 2445000    1.0264601   -5.8251454   -5.8251454   -4.7073262  0.074767686   -5.8251454    1.1178192   520538 
 2446000    1.0253893   -5.8245398   -5.8245398   -4.7078867  0.059091286   -5.8245398    1.1166531   520538 
 2447000    1.0280489   -5.8274181   -5.8274181   -4.7078687  0.060390304   -5.8274181    1.1195495   520538 
 2448000    1.0265513   -5.8256791   -5.8256791   -4.7077606  0.071679138   -5.8256791    1.1179185   520538 
 2449000      1.02626   -5.8255872   -5.8255872   -4.7079859  0.075284051   -5.8255872    1.1176013   520538 
 2450000    1.0265982   -5.8256609   -5.8256609   -4.7076913  0.057477658   -5.8256609    1.1179696   520538 
 2451000    1.0247783    -5.824569    -5.824569   -4.7085813  0.070918969    -5.824569    1.1159877   520538 
 2452000    1.0263466   -5.8257603   -5.8257603   -4.7080647  0.071340544   -5.8257603    1.1176957   520538 
 2453000    1.0261959    -5.826027    -5.826027   -4.7084955  0.089487634    -5.826027    1.1175315   520538 
 2454000    1.0268962    -5.826836    -5.826836   -4.7085418  0.044385631    -5.826836    1.1182942   520538 
 2455000    1.0260059   -5.8258527   -5.8258527   -4.7085281  0.067787698   -5.8258527    1.1173246   520538 
 2456000    1.0263873   -5.8258489   -5.8258489   -4.7081089  0.067329359   -5.8258489    1.1177399   520538 
 2457000    1.0245866   -5.8236789   -5.8236789      -4.7079  0.096831267   -5.8236789     1.115779   520538 
 2458000    1.0251654   -5.8246426   -5.8246426   -4.7082333  0.084019801   -5.8246426    1.1164093   520538 
 2459000    1.0262597   -5.8261836   -5.8261836   -4.7085826  0.082742422   -5.8261836     1.117601   520538 
 2460000    1.0254628   -5.8260837   -5.8260837   -4.7093506  0.090135101   -5.8260837    1.1167331   520538 
 2461000    1.0248977   -5.8259181   -5.8259181   -4.7098003  0.069670857   -5.8259181    1.1161178   520538 
 2462000    1.0266767   -5.8270332   -5.8270332   -4.7089781  0.092407506   -5.8270332    1.1180551   520538 
 2463000    1.0268037   -5.8282304   -5.8282304   -4.7100369  0.081247024   -5.8282304    1.1181934   520538 
 2464000    1.0273613    -5.828619    -5.828619   -4.7098183  0.076048718    -5.828619    1.1188006   520538 
 2465000     1.026703    -5.828448    -5.828448   -4.7103643  0.075024012    -5.828448    1.1180837   520538 
 2466000    1.0259607   -5.8276695   -5.8276695   -4.7103941  0.050987526   -5.8276695    1.1172754   520538 
 2467000    1.0257386   -5.8281968   -5.8281968   -4.7111633  0.068572804   -5.8281968    1.1170335   520538 
 2468000    1.0252906   -5.8283382   -5.8283382   -4.7117925  0.051769579   -5.8283382    1.1165456   520538 
 2469000    1.0262016   -5.8289456   -5.8289456   -4.7114079  0.073958063   -5.8289456    1.1175377   520538 
 2470000    1.0251396   -5.8279337   -5.8279337   -4.7115525  0.060953082   -5.8279337    1.1163812   520538 
 2471000    1.0273823   -5.8301673   -5.8301673   -4.7113437  0.066627188   -5.8301673    1.1188235   520538 
 2472000    1.0232411   -5.8252241   -5.8252241   -4.7109104  0.064205107   -5.8252241    1.1143137   520538 
 2473000    1.0245374   -5.8264555   -5.8264555   -4.7107302  0.094014869   -5.8264555    1.1157253   520538 
 2474000    1.0258414   -5.8275096   -5.8275096   -4.7103641  0.085405077   -5.8275096    1.1171455   520538 
 2475000     1.027332   -5.8294132   -5.8294132   -4.7106445  0.062881326   -5.8294132    1.1187687   520538 
 2476000    1.0255367   -5.8275711   -5.8275711   -4.7107574  0.059266932   -5.8275711    1.1168136   520538 
 2477000    1.0245535   -5.8264012   -5.8264012   -4.7106583  0.070552126   -5.8264012    1.1157429   520538 
 2478000    1.0256644   -5.8269827   -5.8269827     -4.71003  0.058059397   -5.8269827    1.1169527   520538 
 2479000    1.0267383   -5.8285884   -5.8285884   -4.7104662  0.048179781   -5.8285884    1.1181222   520538 
 2480000     1.023335   -5.8257551   -5.8257551   -4.7113391  0.077666925   -5.8257551     1.114416   520538 
 2481000    1.0251419   -5.8264356   -5.8264356   -4.7100519  0.057429303   -5.8264356    1.1163837   520538 
 2482000    1.0280477   -5.8295203   -5.8295203   -4.7099721  0.053608764   -5.8295203    1.1195482   520538 
 2483000    1.0284162   -5.8295569   -5.8295569   -4.7096076  0.075789707   -5.8295569    1.1199494   520538 
 2484000    1.0249317   -5.8257986   -5.8257986   -4.7096439  0.087786515   -5.8257986    1.1161547   520538 
 2485000    1.0268459   -5.8275931   -5.8275931   -4.7093538  0.068786148   -5.8275931    1.1182393   520538 
 2486000    1.0257726   -5.8265608   -5.8265608   -4.7094903  0.077225139   -5.8265608    1.1170705   520538 
 2487000    1.0279645   -5.8300556   -5.8300556    -4.710598  0.068058554   -5.8300556    1.1194576   520538 
 2488000    1.0262128   -5.8278754   -5.8278754   -4.7103254  0.084420026   -5.8278754    1.1175499   520538 
 2489000    1.0260367   -5.8281733   -5.8281733   -4.7108151  0.096554236   -5.8281733    1.1173582   520538 
 2490000    1.0271532     -5.82875     -5.82875    -4.710176   0.07497204     -5.82875     1.118574   520538 
 2491000    1.0278654    -5.830178    -5.830178   -4.7108285  0.047337522    -5.830178    1.1193496   520538 
 2492000    1.0278203    -5.829889    -5.829889   -4.7105885  0.070303368    -5.829889    1.1193005   520538 
 2493000    1.0253513    -5.826867    -5.826867   -4.7102553  0.084505615    -5.826867    1.1166117   520538 
 2494000    1.0259564   -5.8276179   -5.8276179   -4.7103472  0.045631999   -5.8276179    1.1172707   520538 
 2495000    1.0254323   -5.8281039   -5.8281039   -4.7114039  0.071876627   -5.8281039       1.1167   520538 
 2496000     1.025467   -5.8278346   -5.8278346   -4.7110969   0.05693997   -5.8278346    1.1167377   520538 
 2497000     1.027004   -5.8295225   -5.8295225    -4.711111  0.042924397   -5.8295225    1.1184115   520538 
 2498000    1.0263921    -5.829446    -5.829446   -4.7117008  0.056713252    -5.829446    1.1177452   520538 
 2499000    1.0274691   -5.8310238   -5.8310238   -4.7121058  0.070186282   -5.8310238    1.1189181   520538 
 2500000    1.0260128   -5.8294212   -5.8294212   -4.7120891  0.079351364   -5.8294212    1.1173322   520538 
 2501000    1.0273491   -5.8304292   -5.8304292   -4.7116419  0.071485876   -5.8304292    1.1187874   520538 
 2502000    1.0261665   -5.8299655   -5.8299655    -4.712466  0.074326811   -5.8299655    1.1174995   520538 
 2503000    1.0261394   -5.8306315   -5.8306315   -4.7131615  0.071074113   -5.8306315      1.11747   520538 
 2504000    1.0263588   -5.8304725   -5.8304725   -4.7127635  0.077346346   -5.8304725    1.1177089   520538 
 2505000    1.0244136   -5.8292853   -5.8292853   -4.7136947   0.07076096   -5.8292853    1.1155906   520538 
 2506000    1.0255537   -5.8306219   -5.8306219   -4.7137898  0.082658161   -5.8306219    1.1168321   520538 
 2507000    1.0269368    -5.831382    -5.831382   -4.7130437   0.04589056    -5.831382    1.1183383   520538 
 2508000    1.0263384    -5.831422    -5.831422   -4.7137354  0.080663493    -5.831422    1.1176867   520538 
 2509000    1.0260274   -5.8307463   -5.8307463   -4.7133983   0.06908927   -5.8307463     1.117348   520538 
 2510000    1.0259719   -5.8308206   -5.8308206   -4.7135331  0.077443417   -5.8308206    1.1172875   520538 
 2511000    1.0243837   -5.8290505   -5.8290505   -4.7134924  0.067788918   -5.8290505    1.1155581   520538 
 2512000    1.0268511   -5.8322832   -5.8322832   -4.7140382  0.049558529   -5.8322832     1.118245   520538 
 2513000    1.0263368   -5.8315941   -5.8315941   -4.7139092  0.051329734   -5.8315941    1.1176849   520538 
 2514000    1.0268106   -5.8321877   -5.8321877   -4.7139869  0.086634785   -5.8321877    1.1182009   520538 
 2515000    1.0260985   -5.8305777   -5.8305777   -4.7131522  0.076214081   -5.8305777    1.1174255   520538 
 2516000    1.0287712   -5.8336759   -5.8336759     -4.71334  0.056097037   -5.8336759     1.120336   520538 
 2517000    1.0271457   -5.8326509   -5.8326509   -4.7140851  0.060481842   -5.8326509    1.1185658   520538 
 2518000    1.0252123   -5.8308728   -5.8308728   -4.7144124  0.093692991   -5.8308728    1.1164604   520538 
 2519000    1.0229331   -5.8292242   -5.8292242   -4.7152459  0.054718039   -5.8292242    1.1139783   520538 
 2520000     1.024921   -5.8308156   -5.8308156   -4.7146725  0.072288773   -5.8308156    1.1161432   520538 
 2521000    1.0258135   -5.8321155   -5.8321155   -4.7150004  0.061271265   -5.8321155     1.117115   520538 
 2522000    1.0243993   -5.8301169   -5.8301169   -4.7145419  0.037564797   -5.8301169     1.115575   520538 
 2523000    1.0250512   -5.8312823   -5.8312823   -4.7149974  0.059202539   -5.8312823    1.1162849   520538 
 2524000    1.0227466   -5.8284896   -5.8284896   -4.7147145  0.070768238   -5.8284896    1.1137752   520538 
 2525000    1.0271745   -5.8332365   -5.8332365   -4.7146393  0.063547976   -5.8332365    1.1185972   520538 
 2526000     1.025273   -5.8315445   -5.8315445    -4.715018  0.063345079   -5.8315445    1.1165264   520538 
 2527000    1.0273237   -5.8337926   -5.8337926   -4.7150328  0.048483392   -5.8337926    1.1187597   520538 
 2528000    1.0255809   -5.8328271   -5.8328271   -4.7159652   0.07059742   -5.8328271    1.1168618   520538 
 2529000    1.0248206    -5.832335    -5.832335   -4.7163012   0.07753216    -5.832335    1.1160338   520538 
 2530000    1.0255143   -5.8323096   -5.8323096   -4.7155204  0.072957321   -5.8323096    1.1167893   520538 
 2531000    1.0276846   -5.8342212   -5.8342212   -4.7150685  0.062749571   -5.8342212    1.1191527   520538 
 2532000    1.0245061   -5.8310348   -5.8310348   -4.7153436  0.057784838   -5.8310348    1.1156913   520538 
 2533000    1.0249735    -5.830668    -5.830668   -4.7144677  0.051155723    -5.830668    1.1162003   520538 
 2534000    1.0238114    -5.830002    -5.830002   -4.7150672   0.05456455    -5.830002    1.1149348   520538 
 2535000    1.0243515   -5.8310024   -5.8310024   -4.7154794  0.070705447   -5.8310024     1.115523   520538 
 2536000    1.0224789   -5.8289391   -5.8289391   -4.7154555  0.074314406   -5.8289391    1.1134837   520538 
 2537000    1.0243872   -5.8316981   -5.8316981   -4.7161362  0.062481286   -5.8316981    1.1155618   520538 
 2538000    1.0264307   -5.8345357   -5.8345357   -4.7167485  0.070778834   -5.8345357    1.1177872   520538 
 2539000    1.0240968   -5.8318077   -5.8318077   -4.7165621  0.044443518   -5.8318077    1.1152456   520538 
 2540000    1.0257122   -5.8329119   -5.8329119   -4.7159071  0.069535576   -5.8329119    1.1170047   520538 
 2541000    1.0251669   -5.8325407   -5.8325407   -4.7161298  0.071470974   -5.8325407    1.1164109   520538 
 2542000    1.0254212   -5.8328891   -5.8328891   -4.7162012  0.051898832   -5.8328891    1.1166879   520538 
 2543000    1.0254821   -5.8335367   -5.8335367   -4.7167826   0.05564296   -5.8335367    1.1167541   520538 
 2544000    1.0265938   -5.8355786   -5.8355786   -4.7176138  0.029804885   -5.8355786    1.1179648   520538 
 2545000    1.0230691   -5.8322322   -5.8322322   -4.7181057  0.060650097   -5.8322322    1.1141264   520538 
 2546000    1.0223907   -5.8321491   -5.8321491   -4.7187615  0.055694687   -5.8321491    1.1133876   520538 
 2547000    1.0233391   -5.8335511   -5.8335511   -4.7191307  0.085764694   -5.8335511    1.1144205   520538 
 2548000    1.0241559   -5.8337948   -5.8337948   -4.7184849  0.050850575   -5.8337948    1.1153099   520538 
 2549000    1.0245724   -5.8349508   -5.8349508   -4.7191872  0.098103237   -5.8349508    1.1157636   520538 
 2550000    1.0245924   -5.8352415   -5.8352415   -4.7194563  0.061748044   -5.8352415    1.1157853   520538 
 2551000    1.0233239   -5.8335911   -5.8335911   -4.7191872  0.072755115   -5.8335911    1.1144039   520538 
 2552000    1.0243631   -5.8351669   -5.8351669   -4.7196313  0.077739537   -5.8351669    1.1155356   520538 
 2553000    1.0236086   -5.8344957   -5.8344957   -4.7197818  0.058608469   -5.8344957    1.1147139   520538 
 2554000     1.021248   -5.8329086   -5.8329086   -4.7207653  0.079630739   -5.8329086    1.1121432   520538 
 2555000    1.0233016    -5.835146    -5.835146   -4.7207665  0.090811003    -5.835146    1.1143796   520538 
 2556000    1.0226359   -5.8337523   -5.8337523   -4.7200976  0.057763534   -5.8337523    1.1136547   520538 
 2557000    1.0236767   -5.8361178   -5.8361178   -4.7213297  0.080288278   -5.8361178    1.1147881   520538 
 2558000    1.0251722   -5.8363313   -5.8363313   -4.7199146   0.09904175   -5.8363313    1.1164167   520538 
 2559000    1.0236686   -5.8354336   -5.8354336   -4.7206544  0.060217992   -5.8354336    1.1147792   520538 
 2560000     1.023017   -5.8341587   -5.8341587    -4.720089  0.050843664   -5.8341587    1.1140697   520538 
 2561000    1.0254305    -5.836225    -5.836225    -4.719527  0.065675122    -5.836225     1.116698   520538 
 2562000    1.0250061   -5.8355103   -5.8355103   -4.7192745  0.075466629   -5.8355103    1.1162358   520538 
 2563000    1.0227857   -5.8332801   -5.8332801   -4.7194624  0.076782558   -5.8332801    1.1138178   520538 
 2564000    1.0234595   -5.8343317   -5.8343317   -4.7197802  0.062764021   -5.8343317    1.1145516   520538 
 2565000    1.0243632   -5.8355293   -5.8355293   -4.7199936  0.041463154   -5.8355293    1.1155357   520538 
 2566000    1.0236546   -5.8354455   -5.8354455   -4.7206815  0.061920008   -5.8354455     1.114764   520538 
 2567000      1.02469   -5.8363091   -5.8363091   -4.7204175  0.081535682   -5.8363091    1.1158916   520538 
 2568000    1.0244285   -5.8352299   -5.8352299   -4.7196231  0.072765076   -5.8352299    1.1156068   520538 
 2569000    1.0248544   -5.8351148   -5.8351148   -4.7190442  0.087927678   -5.8351148    1.1160706   520538 
 2570000    1.0243843   -5.8351957   -5.8351957    -4.719637  0.079156291   -5.8351957    1.1155587   520538 
 2571000    1.0238692   -5.8350435   -5.8350435   -4.7200458  0.076742078   -5.8350435    1.1149977   520538 
 2572000     1.025588   -5.8372556   -5.8372556   -4.7203862  0.045605769   -5.8372556    1.1168695   520538 
 2573000    1.0228089   -5.8349027   -5.8349027   -4.7210597  0.065043114   -5.8349027     1.113843   520538 
 2574000    1.0246393   -5.8376521   -5.8376521   -4.7218157    0.0402274   -5.8376521    1.1158364   520538 
 2575000     1.023074   -5.8346927   -5.8346927   -4.7205609  0.053597832   -5.8346927    1.1141318   520538 
 2576000    1.0248768   -5.8370976   -5.8370976   -4.7210027  0.059122532   -5.8370976     1.116095   520538 
 2577000    1.0251278   -5.8379526   -5.8379526   -4.7215843  0.056799017   -5.8379526    1.1163683   520538 
 2578000    1.0241672   -5.8364271   -5.8364271   -4.7211048  0.080204262   -5.8364271    1.1153223   520538 
 2579000       1.0232   -5.8347504   -5.8347504   -4.7204815  0.068016839   -5.8347504     1.114269   520538 
 2580000    1.0241722   -5.8358192   -5.8358192   -4.7204915  0.053151624   -5.8358192    1.1153277   520538 
 2581000    1.0242135   -5.8356149   -5.8356149   -4.7202422  0.055369068   -5.8356149    1.1153727   520538 
 2582000    1.0256498   -5.8373556   -5.8373556   -4.7204188  0.071622105   -5.8373556    1.1169368   520538 
 2583000    1.0251774   -5.8374592   -5.8374592   -4.7210369  0.060077782   -5.8374592    1.1164223   520538 
 2584000    1.0246215   -5.8373806   -5.8373806   -4.7215636  0.066199128   -5.8373806    1.1158169   520538 
 2585000    1.0216673   -5.8345081   -5.8345081   -4.7219083  0.062857897   -5.8345081    1.1125998   520538 
 2586000     1.023823   -5.8363896   -5.8363896   -4.7214422  0.075196046   -5.8363896    1.1149474   520538 
 2587000    1.0237623   -5.8370884   -5.8370884    -4.722207  0.057431074   -5.8370884    1.1148813   520538 
 2588000    1.0254515   -5.8386225   -5.8386225   -4.7219016   0.06064152   -5.8386225    1.1167209   520538 
 2589000    1.0224612   -5.8349798   -5.8349798   -4.7215154   0.06431807   -5.8349798    1.1134644   520538 
 2590000     1.023426   -5.8372904   -5.8372904   -4.7227753  0.053103778   -5.8372904    1.1145151   520538 
 2591000    1.0241984   -5.8379707   -5.8379707   -4.7226145  0.057050374   -5.8379707    1.1153562   520538 
 2592000    1.0232623   -5.8373143   -5.8373143   -4.7229775  0.045264601   -5.8373143    1.1143368   520538 
 2593000    1.0230627   -5.8379369   -5.8379369   -4.7238174  0.036738174   -5.8379369    1.1141195   520538 
 2594000    1.0232892   -5.8384342   -5.8384342   -4.7240681  0.052043064   -5.8384342    1.1143661   520538 
 2595000    1.0225449   -5.8370318   -5.8370318   -4.7234762  0.056500045   -5.8370318    1.1135556   520538 
 2596000    1.0235339   -5.8391977   -5.8391977   -4.7245651  0.062183936   -5.8391977    1.1146326   520538 
 2597000    1.0230966   -5.8389823   -5.8389823   -4.7248259  0.072911728   -5.8389823    1.1141563   520538 
 2598000    1.0259298   -5.8416199   -5.8416199   -4.7243782  0.028865688   -5.8416199    1.1172418   520538 
 2599000    1.0235627   -5.8385315   -5.8385315   -4.7238676  0.064168056   -5.8385315    1.1146639   520538 
 2600000    1.0242135   -5.8393287   -5.8393287    -4.723956  0.068522047   -5.8393287    1.1153727   520538 
 2601000    1.0247293    -5.839865    -5.839865   -4.7239306    0.0713045    -5.839865    1.1159344   520538 
 2602000    1.0217958    -5.836577    -5.836577   -4.7238373  0.069073216    -5.836577    1.1127397   520538 
 2603000    1.0239191   -5.8393304   -5.8393304   -4.7242783  0.075539742   -5.8393304    1.1150521   520538 
 2604000    1.0240049   -5.8395303   -5.8395303   -4.7243848  0.073526282   -5.8395303    1.1151455   520538 
 2605000    1.0243937   -5.8396662   -5.8396662   -4.7240973  0.065693529   -5.8396662     1.115569   520538 
 2606000    1.0240297   -5.8407089   -5.8407089   -4.7255364  0.068550087   -5.8407089    1.1151725   520538 
 2607000    1.0253323   -5.8411998   -5.8411998   -4.7246088  0.053083318   -5.8411998     1.116591   520538 
 2608000    1.0226028   -5.8377061   -5.8377061   -4.7240875  0.056169886   -5.8377061    1.1136186   520538 
 2609000    1.0219417   -5.8362497   -5.8362497   -4.7233511  0.073803154   -5.8362497    1.1128986   520538 
 2610000    1.0238795    -5.838017    -5.838017   -4.7230081  0.067050209    -5.838017    1.1150089   520538 
 2611000    1.0243266   -5.8381688   -5.8381688    -4.722673   0.05590269   -5.8381688    1.1154958   520538 
 2612000    1.0231933   -5.8369189   -5.8369189   -4.7226572  0.059889607   -5.8369189    1.1142617   520538 
 2613000    1.0235213   -5.8363898   -5.8363898   -4.7217709  0.058306037   -5.8363898    1.1146189   520538 
 2614000    1.0248942   -5.8371059   -5.8371059    -4.720992  0.050466761   -5.8371059    1.1161139   520538 
 2615000    1.0238087   -5.8364213   -5.8364213   -4.7214895  0.068618347   -5.8364213    1.1149318   520538 
 2616000    1.0236143   -5.8368615   -5.8368615   -4.7221414  0.067405332   -5.8368615    1.1147201   520538 
 2617000    1.0256886   -5.8390138   -5.8390138   -4.7220348  0.055959874   -5.8390138    1.1169791   520538 
 2618000    1.0232736   -5.8364947   -5.8364947   -4.7221455   0.05580645   -5.8364947    1.1143492   520538 
 2619000    1.0246698   -5.8381644   -5.8381644   -4.7222948   0.07588241   -5.8381644    1.1158696   520538 
 2620000    1.0236031   -5.8361194   -5.8361194   -4.7214115  0.061281806   -5.8361194    1.1147079   520538 
 2621000    1.0235703   -5.8364308   -5.8364308   -4.7217585  0.054022927   -5.8364308    1.1146722   520538 
 2622000    1.0250023   -5.8387432   -5.8387432   -4.7225116  0.054975333   -5.8387432    1.1162316   520538 
 2623000    1.0256473   -5.8397154   -5.8397154   -4.7227813  0.068595632   -5.8397154    1.1169341   520538 
 2624000    1.0261458   -5.8404563   -5.8404563   -4.7229794  0.075246439   -5.8404563     1.117477   520538 
 2625000    1.0251194   -5.8394594   -5.8394594   -4.7231003  0.034921488   -5.8394594    1.1163592   520538 
 2626000    1.0240611   -5.8387105   -5.8387105   -4.7235038  0.070033418   -5.8387105    1.1152067   520538 
 2627000    1.0233001   -5.8383005   -5.8383005   -4.7239226  0.077866159   -5.8383005     1.114378   520538 
 2628000    1.0246368   -5.8396802   -5.8396802   -4.7238466  0.067003628   -5.8396802    1.1158336   520538 
 2629000    1.0240876   -5.8383312   -5.8383312   -4.7230956  0.062347851   -5.8383312    1.1152355   520538 
 2630000    1.0239051   -5.8389667   -5.8389667   -4.7239298  0.054533466   -5.8389667    1.1150369   520538 
 2631000    1.0225563   -5.8377214   -5.8377214   -4.7241535  0.071319912   -5.8377214    1.1135679   520538 
 2632000    1.0252515   -5.8404306   -5.8404306   -4.7239276  0.054185005   -5.8404306     1.116503   520538 
 2633000    1.0225834   -5.8380024   -5.8380024   -4.7244049  0.073460307   -5.8380024    1.1135975   520538 
 2634000    1.0243293   -5.8403236   -5.8403236   -4.7248249  0.072481173   -5.8403236    1.1154987   520538 
 2635000    1.0230188   -5.8389592   -5.8389592   -4.7248876  0.083434144   -5.8389592    1.1140716   520538 
 2636000    1.0254693   -5.8420265   -5.8420265   -4.7252863  0.077649196   -5.8420265    1.1167402   520538 
 2637000     1.024194   -5.8404368   -5.8404368   -4.7250854  0.063702992   -5.8404368    1.1153514   520538 
 2638000    1.0255332   -5.8421573   -5.8421573   -4.7253475  0.072598187   -5.8421573    1.1168098   520538 
 2639000    1.0237414   -5.8405112   -5.8405112   -4.7256527  0.097587357   -5.8405112    1.1148585   520538 
 2640000      1.02544   -5.8422901   -5.8422901   -4.7255818  0.076508677   -5.8422901    1.1167083   520538 
 2641000    1.0216736   -5.8386669   -5.8386669   -4.7260603  0.064707267   -5.8386669    1.1126067   520538 
 2642000    1.0225653   -5.8399736   -5.8399736   -4.7263959  0.062497755   -5.8399736    1.1135778   520538 
 2643000    1.0206852   -5.8378188   -5.8378188   -4.7262884  0.048514674   -5.8378188    1.1115304   520538 
 2644000    1.0204248   -5.8374349   -5.8374349   -4.7261882  0.071061449   -5.8374349    1.1112468   520538 
 2645000    1.0210629   -5.8374928   -5.8374928   -4.7255511  0.067107984   -5.8374928    1.1119417   520538 
 2646000    1.0225456   -5.8387129   -5.8387129   -4.7251566  0.061013631   -5.8387129    1.1135563   520538 
 2647000    1.0218396    -5.837647    -5.837647   -4.7248595  0.065634608    -5.837647    1.1127875   520538 
 2648000    1.0240264   -5.8407323   -5.8407323   -4.7255634  0.070389244   -5.8407323    1.1151689   520538 
 2649000    1.0218626   -5.8384942   -5.8384942   -4.7256816  0.058107334   -5.8384942    1.1128126   520538 
 2650000    1.0227503   -5.8385398   -5.8385398   -4.7247606  0.050339919   -5.8385398    1.1137793   520538 
 2651000    1.0222786   -5.8386122   -5.8386122   -4.7253466  0.081098329   -5.8386122    1.1132656   520538 
 2652000    1.0229512   -5.8402986   -5.8402986   -4.7263006  0.044817399   -5.8402986     1.113998   520538 
 2653000    1.0240881   -5.8413279   -5.8413279   -4.7260918   0.08380957   -5.8413279    1.1152361   520538 
 2654000    1.0246507   -5.8414361   -5.8414361   -4.7255874  0.068361803   -5.8414361    1.1158488   520538 
 2655000    1.0239414    -5.840969    -5.840969   -4.7258927  0.071927069    -5.840969    1.1150763   520538 
 2656000    1.0243399   -5.8416854   -5.8416854    -4.726175  0.057245436   -5.8416854    1.1155103   520538 
 2657000    1.0245859   -5.8423654   -5.8423654   -4.7265871  0.056164996   -5.8423654    1.1157782   520538 
 2658000     1.024444   -5.8419782   -5.8419782   -4.7263545  0.092507138   -5.8419782    1.1156237   520538 
 2659000    1.0235406   -5.8415758   -5.8415758   -4.7269359  0.070236351   -5.8415758    1.1146399   520538 
 2660000    1.0235421   -5.8423021   -5.8423021   -4.7276607  0.061798685   -5.8423021    1.1146415   520538 
 2661000    1.0227245    -5.842266    -5.842266   -4.7285149  0.067239102    -5.842266    1.1137512   520538 
 2662000    1.0215676   -5.8403609   -5.8403609   -4.7278696   0.07884347   -5.8403609    1.1124913   520538 
 2663000    1.0221404   -5.8409644   -5.8409644   -4.7278494  0.063076989   -5.8409644     1.113115   520538 
 2664000    1.0222768   -5.8414188   -5.8414188   -4.7281551  0.068016233   -5.8414188    1.1132636   520538 
 2665000    1.0231435   -5.8420977   -5.8420977   -4.7278902  0.082921913   -5.8420977    1.1142075   520538 
 2666000     1.021448   -5.8412283   -5.8412283   -4.7288673  0.047347354   -5.8412283     1.112361   520538 
 2667000    1.0209076    -5.840802    -5.840802   -4.7290294  0.059903907    -5.840802    1.1117726   520538 
 2668000    1.0223956   -5.8416217   -5.8416217   -4.7282287  0.068727365   -5.8416217     1.113393   520538 
 2669000    1.0238114   -5.8431865   -5.8431865   -4.7282517  0.068689501   -5.8431865    1.1149347   520538 
 2670000    1.0223048   -5.8418669   -5.8418669   -4.7285728  0.058333676   -5.8418669    1.1132941   520538 
 2671000     1.023255    -5.841972    -5.841972   -4.7276432  0.081013736    -5.841972    1.1143288   520538 
 2672000    1.0228019   -5.8423431   -5.8423431   -4.7285077  0.062376642   -5.8423431    1.1138354   520538 
 2673000     1.022449   -5.8426948   -5.8426948   -4.7292437  0.071151307   -5.8426948    1.1134511   520538 
 2674000    1.0216491   -5.8418297   -5.8418297   -4.7292497  0.065765608   -5.8418297      1.11258   520538 
 2675000     1.022114   -5.8415344   -5.8415344   -4.7284481   0.04699239   -5.8415344    1.1130863   520538 
 2676000    1.0211565   -5.8409826   -5.8409826    -4.728939  0.051332673   -5.8409826    1.1120436   520538 
 2677000    1.0224867   -5.8420696   -5.8420696   -4.7285775  0.066842601   -5.8420696    1.1134921   520538 
 2678000     1.024292   -5.8446928   -5.8446928   -4.7292346  0.066783796   -5.8446928    1.1154582   520538 
 2679000    1.0234223   -5.8438227   -5.8438227   -4.7293117  0.065533689   -5.8438227    1.1145111   520538 
 2680000    1.0241293   -5.8442462   -5.8442462   -4.7289652  0.077343001   -5.8442462    1.1152809   520538 
 2681000    1.0229001   -5.8434091   -5.8434091   -4.7294667  0.057510566   -5.8434091    1.1139424   520538 
 2682000    1.0223718   -5.8422773   -5.8422773   -4.7289103  0.091194848   -5.8422773     1.113367   520538 
 2683000    1.0272571   -5.8472247   -5.8472247   -4.7285375  0.086054343   -5.8472247    1.1186872   520538 
 2684000    1.0262112   -5.8465283   -5.8465283   -4.7289801  0.085231488   -5.8465283    1.1175482   520538 
 2685000    1.0244481   -5.8449171   -5.8449171   -4.7292889    0.0885961   -5.8449171    1.1156281   520538 
 2686000    1.0240628   -5.8445155   -5.8445155   -4.7293069  0.070914185   -5.8445155    1.1152086   520538 
 2687000    1.0230713   -5.8431334   -5.8431334   -4.7290046  0.046877257   -5.8431334    1.1141289   520538 
 2688000    1.0214685    -5.841757    -5.841757   -4.7293736   0.06054723    -5.841757    1.1123834   520538 
 2689000     1.019647   -5.8404351   -5.8404351   -4.7300354  0.090209339   -5.8404351    1.1103997   520538 
 2690000    1.0223721   -5.8437081   -5.8437081   -4.7303407  0.062289438   -5.8437081    1.1133674   520538 
 2691000    1.0229744   -5.8442554   -5.8442554   -4.7302322  0.047521658   -5.8442554    1.1140233   520538 
 2692000    1.0233554   -5.8436437   -5.8436437   -4.7292055  0.044025131   -5.8436437    1.1144382   520538 
 2693000    1.0211757   -5.8407891   -5.8407891   -4.7287246  0.093967115   -5.8407891    1.1120645   520538 
 2694000    1.0230486    -5.842437    -5.842437   -4.7283329  0.063042089    -5.842437    1.1141041   520538 
 2695000    1.0229556   -5.8430425   -5.8430425   -4.7290397  0.099309131   -5.8430425    1.1140029   520538 
 2696000    1.0239875   -5.8446299   -5.8446299   -4.7295033  0.072079011   -5.8446299    1.1151266   520538 
 2697000    1.0237463   -5.8441967   -5.8441967   -4.7293328  0.064495834   -5.8441967    1.1148639   520538 
 2698000     1.023946   -5.8444744   -5.8444744   -4.7293931  0.076328825   -5.8444744    1.1150814   520538 
 2699000    1.0244117   -5.8458312   -5.8458312   -4.7302427  0.059512566   -5.8458312    1.1155885   520538 
 2700000    1.0232214   -5.8441991   -5.8441991   -4.7299068  0.061507606   -5.8441991    1.1142923   520538 
 2701000    1.0231313   -5.8447942   -5.8447942      -4.7306  0.081514978   -5.8447942    1.1141942   520538 
 2702000    1.0227876   -5.8451167   -5.8451167   -4.7312968  0.076375736   -5.8451167    1.1138198   520538 
 2703000    1.0229572   -5.8448421   -5.8448421   -4.7308375   0.07758674   -5.8448421    1.1140045   520538 
 2704000    1.0225844   -5.8447856   -5.8447856    -4.731187   0.08533452   -5.8447856    1.1135986   520538 
 2705000    1.0236087   -5.8455753   -5.8455753   -4.7308613  0.075740581   -5.8455753     1.114714   520538 
 2706000    1.0220573   -5.8441422   -5.8441422   -4.7311176  0.053960402   -5.8441422    1.1130246   520538 
 2707000    1.0221668   -5.8448217   -5.8448217    -4.731678  0.070352469   -5.8448217    1.1131438   520538 
 2708000    1.0225885   -5.8455258   -5.8455258   -4.7319228  0.054028018   -5.8455258     1.113603   520538 
 2709000    1.0223013   -5.8448674   -5.8448674   -4.7315772  0.042627669   -5.8448674    1.1132903   520538 
 2710000    1.0230484   -5.8462204   -5.8462204   -4.7321165  0.064350181   -5.8462204    1.1141038   520538 
 2711000    1.0238248   -5.8462529   -5.8462529   -4.7313035  0.067003967   -5.8462529    1.1149494   520538 
 2712000    1.0221265   -5.8446728   -5.8446728   -4.7315728  0.077388933   -5.8446728       1.1131   520538 
 2713000    1.0236084   -5.8468421   -5.8468421   -4.7321284  0.089207725   -5.8468421    1.1147137   520538 
 2714000    1.0248091   -5.8485844   -5.8485844   -4.7325631  0.052827577   -5.8485844    1.1160213   520538 
 2715000    1.0237712    -5.846758    -5.846758    -4.731867  0.068226208    -5.846758     1.114891   520538 
 2716000    1.0226111    -5.844581    -5.844581   -4.7309534  0.075320795    -5.844581    1.1136276   520538 
 2717000    1.0226435   -5.8452246   -5.8452246   -4.7315617  0.066933839   -5.8452246    1.1136629   520538 
 2718000    1.0218704   -5.8443626   -5.8443626   -4.7315416  0.066992292   -5.8443626     1.112821   520538 
 2719000    1.0234035   -5.8458768   -5.8458768   -4.7313862  0.065606557   -5.8458768    1.1144906   520538 
 2720000    1.0227824   -5.8453855   -5.8453855   -4.7315713  0.045434454   -5.8453855    1.1138142   520538 
 2721000    1.0226151   -5.8450515   -5.8450515   -4.7314196  0.072976371   -5.8450515     1.113632   520538 
 2722000    1.0215507   -5.8451394   -5.8451394   -4.7326665  0.060761765   -5.8451394    1.1124729   520538 
 2723000    1.0241951   -5.8477249   -5.8477249   -4.7323723  0.066318994   -5.8477249    1.1153526   520538 
 2724000    1.0206804   -5.8440377   -5.8440377   -4.7325125  0.076171706   -5.8440377    1.1115251   520538 
 2725000    1.0217787   -5.8457687   -5.8457687   -4.7330475  0.046757098   -5.8457687    1.1127212   520538 
 2726000    1.0194139   -5.8435759   -5.8435759   -4.7334301  0.046261079   -5.8435759    1.1101458   520538 
 2727000    1.0218491   -5.8455962   -5.8455962   -4.7327983  0.058686859   -5.8455962    1.1127979   520538 
 2728000    1.0227035   -5.8468008   -5.8468008   -4.7330725  0.071774689   -5.8468008    1.1137283   520538 
 2729000    1.0225503   -5.8471663   -5.8471663   -4.7336048  0.050050837   -5.8471663    1.1135615   520538 
 2730000    1.0208764   -5.8453488   -5.8453488   -4.7336102  0.037510899   -5.8453488    1.1117386   520538 
 2731000    1.0199773   -5.8450189   -5.8450189   -4.7342595  0.082395981   -5.8450189    1.1107594   520538 
 2732000    1.0211721   -5.8462223   -5.8462223   -4.7341617  0.073392303   -5.8462223    1.1120605   520538 
 2733000    1.0220543   -5.8471499   -5.8471499   -4.7341286  0.067615147   -5.8471499    1.1130213   520538 
 2734000    1.0203014   -5.8458463   -5.8458463    -4.734734  0.060932691   -5.8458463    1.1111123   520538 
 2735000    1.0239478   -5.8495657   -5.8495657   -4.7344825   0.08493658   -5.8495657    1.1150833   520538 
 2736000      1.02233   -5.8478069   -5.8478069   -4.7344853  0.069974409   -5.8478069    1.1133216   520538 
 2737000    1.0222582   -5.8481324   -5.8481324   -4.7348891  0.094794451   -5.8481324    1.1132433   520538 
 2738000    1.0232517   -5.8487311   -5.8487311   -4.7344058  0.070522819   -5.8487311    1.1143252   520538 
 2739000    1.0232892   -5.8489013   -5.8489013   -4.7345353    0.1003162   -5.8489013    1.1143661   520538 
 2740000    1.0248297    -5.849796    -5.849796   -4.7337523   0.08656642    -5.849796    1.1160437   520538 
 2741000    1.0220096   -5.8477252   -5.8477252   -4.7347526  0.076318409   -5.8477252    1.1129726   520538 
 2742000    1.0226831   -5.8477874   -5.8477874   -4.7340813  0.063072507   -5.8477874    1.1137061   520538 
 2743000    1.0218498   -5.8466613   -5.8466613   -4.7338628  0.062675175   -5.8466613    1.1127986   520538 
 2744000    1.0212037    -5.845253    -5.845253    -4.733158  0.047693298    -5.845253     1.112095   520538 
 2745000    1.0222931   -5.8469033   -5.8469033    -4.733622  0.041550027   -5.8469033    1.1132813   520538 
 2746000    1.0223965   -5.8466916   -5.8466916   -4.7332976  0.061169907   -5.8466916     1.113394   520538 
 2747000    1.0219688   -5.8473335   -5.8473335   -4.7344053  0.056107253   -5.8473335    1.1129282   520538 
 2748000    1.0205648   -5.8459696   -5.8459696   -4.7345704   0.09544833   -5.8459696    1.1113992   520538 
 2749000    1.0200269   -5.8454759   -5.8454759   -4.7346625  0.094872062   -5.8454759    1.1108135   520538 
 2750000    1.0224661   -5.8488554   -5.8488554   -4.7353857  0.073730941   -5.8488554    1.1134697   520538 
 2751000    1.0204898   -5.8467712   -5.8467712   -4.7354536  0.047012498   -5.8467712    1.1113176   520538 
 2752000    1.0219578   -5.8486866   -5.8486866   -4.7357703  0.067430999   -5.8486866    1.1129163   520538 
 2753000    1.0217508   -5.8479163   -5.8479163   -4.7352255  0.063999029   -5.8479163    1.1126908   520538 
 2754000    1.0230864   -5.8490287   -5.8490287   -4.7348834  0.072842952   -5.8490287    1.1141453   520538 
 2755000      1.02149   -5.8469159   -5.8469159   -4.7345091  0.078667631   -5.8469159    1.1124068   520538 
 2756000    1.0199724    -5.845366    -5.845366   -4.7346119  0.075747443    -5.845366    1.1107541   520538 
 2757000    1.0214426   -5.8480234   -5.8480234   -4.7356682  0.087334586   -5.8480234    1.1123552   520538 
 2758000    1.0260605   -5.8528738   -5.8528738   -4.7354898  0.085227818   -5.8528738     1.117384   520538 
 2759000    1.0221795   -5.8484094   -5.8484094   -4.7352519   0.06618137   -5.8484094    1.1131576   520538 
 2760000     1.023633   -5.8492926   -5.8492926   -4.7345521  0.065839422   -5.8492926    1.1147405   520538 
 2761000     1.023255   -5.8498207   -5.8498207   -4.7354919  0.089019287   -5.8498207    1.1143288   520538 
 2762000    1.0226747   -5.8489939   -5.8489939   -4.7352969  0.064104576   -5.8489939    1.1136969   520538 
 2763000    1.0219138   -5.8485756   -5.8485756   -4.7357073  0.051428004   -5.8485756    1.1128683   520538 
 2764000    1.0212528   -5.8480164   -5.8480164    -4.735868  0.063472489   -5.8480164    1.1121484   520538 
 2765000    1.0218798   -5.8492227   -5.8492227   -4.7363914  0.083943511   -5.8492227    1.1128313   520538 
 2766000    1.0231076   -5.8505912   -5.8505912   -4.7364228  0.046101585   -5.8505912    1.1141684   520538 
 2767000    1.0235297   -5.8501788   -5.8501788   -4.7355508  0.071616409   -5.8501788     1.114628   520538 
 2768000    1.0228472    -5.850124    -5.850124   -4.7362392  0.075472152    -5.850124    1.1138848   520538 
 2769000    1.0224215   -5.8494532   -5.8494532    -4.736032   0.07248395   -5.8494532    1.1134211   520538 
 2770000     1.023221   -5.8491079   -5.8491079   -4.7348161  0.058867989   -5.8491079    1.1142918   520538 
 2771000    1.0215663   -5.8474869   -5.8474869   -4.7349971  0.064591601   -5.8474869    1.1124898   520538 
 2772000    1.0228964   -5.8488626   -5.8488626   -4.7349243  0.053577875   -5.8488626    1.1139383   520538 
 2773000    1.0230833   -5.8489286   -5.8489286   -4.7347867  0.058090808   -5.8489286    1.1141419   520538 
 2774000    1.0208169   -5.8467131   -5.8467131   -4.7350393  0.037928577   -5.8467131    1.1116738   520538 
 2775000    1.0218655   -5.8480285   -5.8480285   -4.7352129  0.054305312   -5.8480285    1.1128156   520538 
 2776000    1.0224745   -5.8478618   -5.8478618   -4.7343829  0.070613996   -5.8478618    1.1134789   520538 
 2777000    1.0221489   -5.8473427   -5.8473427   -4.7342183  0.070378354   -5.8473427    1.1131243   520538 
 2778000    1.0221749   -5.8465715   -5.8465715   -4.7334189  0.057303286   -5.8465715    1.1131526   520538 
 2779000    1.0206581   -5.8455615   -5.8455615   -4.7340607  0.066285451   -5.8455615    1.1115008   520538 
 2780000    1.0210079   -5.8478423   -5.8478423   -4.7359605  0.053001937   -5.8478423    1.1118818   520538 
 2781000    1.0215024   -5.8485957   -5.8485957   -4.7361755  0.068222054   -5.8485957    1.1124203   520538 
 2782000    1.0220199   -5.8496059   -5.8496059   -4.7366221  0.054840066   -5.8496059    1.1129838   520538 
 2783000    1.0231147   -5.8497482   -5.8497482   -4.7355721  0.057263507   -5.8497482    1.1141761   520538 
 2784000      1.02363    -5.850683    -5.850683   -4.7359458  0.061393608    -5.850683    1.1147372   520538 
 2785000    1.0235083    -5.850647    -5.850647   -4.7360423  0.057075049    -5.850647    1.1146047   520538 
 2786000    1.0210736   -5.8475156   -5.8475156   -4.7355623   0.06466009   -5.8475156    1.1119533   520538 
 2787000    1.0210222   -5.8476737   -5.8476737   -4.7357764   0.03167746   -5.8476737    1.1118973   520538 
 2788000    1.0211579   -5.8466079   -5.8466079   -4.7345627  0.077836945   -5.8466079    1.1120451   520538 
 2789000     1.021479   -5.8465588   -5.8465588    -4.734164   0.04918102   -5.8465588    1.1123948   520538 
 2790000    1.0212804   -5.8469518   -5.8469518   -4.7347733  0.052779074   -5.8469518    1.1121785   520538 
 2791000    1.0219935   -5.8475865   -5.8475865   -4.7346314  0.059489626   -5.8475865    1.1129551   520538 
 2792000    1.0223929   -5.8479101   -5.8479101   -4.7345201  0.084412053   -5.8479101      1.11339   520538 
 2793000    1.0218001   -5.8475355   -5.8475355    -4.734791  0.064597589   -5.8475355    1.1127445   520538 
 2794000    1.0220013   -5.8479174   -5.8479174   -4.7349538   0.08037035   -5.8479174    1.1129635   520538 
 2795000    1.0200612   -5.8461076   -5.8461076   -4.7352568   0.05513125   -5.8461076    1.1108508   520538 
 2796000    1.0219366   -5.8481915   -5.8481915   -4.7352984  0.088704813   -5.8481915    1.1128931   520538 
 2797000    1.0215603   -5.8483809   -5.8483809   -4.7358975  0.075505791   -5.8483809    1.1124833   520538 
 2798000    1.0217376   -5.8482186   -5.8482186   -4.7355422  0.056369216   -5.8482186    1.1126764   520538 
 2799000    1.0219266   -5.8486054   -5.8486054   -4.7357232  0.072556231   -5.8486054    1.1128822   520538 
 2800000    1.0219199   -5.8491594   -5.8491594   -4.7362844  0.069824035   -5.8491594     1.112875   520538 
 2801000    1.0221514   -5.8492077   -5.8492077   -4.7360807  0.069427018   -5.8492077     1.113127   520538 
 2802000    1.0223079    -5.848832    -5.848832   -4.7355346  0.087358185    -5.848832    1.1132974   520538 
 2803000    1.0203913    -5.846499    -5.846499   -4.7352887  0.057970413    -5.846499    1.1112103   520538 
 2804000    1.0205559   -5.8474609   -5.8474609   -4.7360713   0.08041947   -5.8474609    1.1113896   520538 
 2805000    1.0214113     -5.84691     -5.84691   -4.7345889  0.067713217     -5.84691    1.1123211   520538 
 2806000    1.0223421   -5.8473177   -5.8473177    -4.733983  0.060707154   -5.8473177    1.1133347   520538 
 2807000    1.0222011   -5.8470216   -5.8470216   -4.7338404  0.077694512   -5.8470216    1.1131812   520538 
 2808000    1.0230154   -5.8477585   -5.8477585   -4.7336906  0.064855913   -5.8477585    1.1140679   520538 
 2809000    1.0215026   -5.8473578   -5.8473578   -4.7349374  0.041305563   -5.8473578    1.1124204   520538 
 2810000    1.0210278   -5.8471846   -5.8471846   -4.7352812  0.070070897   -5.8471846    1.1119034   520538 
 2811000    1.0224595   -5.8479691   -5.8479691   -4.7345065  0.054715986   -5.8479691    1.1134626   520538 
 2812000    1.0230652   -5.8483748   -5.8483748   -4.7342526  0.061390368   -5.8483748    1.1141222   520538 
 2813000    1.0220655   -5.8479838   -5.8479838   -4.7349503  0.056666063   -5.8479838    1.1130335   520538 
 2814000    1.0225769    -5.849175    -5.849175   -4.7355845  0.044690919    -5.849175    1.1135904   520538 
 2815000    1.0224641   -5.8490734   -5.8490734   -4.7356058  0.059345313   -5.8490734    1.1134676   520538 
 2816000    1.0222686   -5.8483885   -5.8483885   -4.7351338  0.092252485   -5.8483885    1.1132547   520538 
 2817000    1.0213015   -5.8474808   -5.8474808   -4.7352794   0.07405818   -5.8474808    1.1122015   520538 
 2818000    1.0200045   -5.8468012   -5.8468012   -4.7360121  0.073420411   -5.8468012    1.1107891   520538 
 2819000    1.0203533   -5.8465607   -5.8465607   -4.7353918  0.083914285   -5.8465607    1.1111689   520538 
 2820000     1.021636   -5.8479651   -5.8479651   -4.7353993  0.068330122   -5.8479651    1.1125658   520538 
 2821000     1.021918   -5.8481644   -5.8481644   -4.7352916  0.072232724   -5.8481644    1.1128728   520538 
 2822000    1.0208316   -5.8471562   -5.8471562   -4.7354665  0.060045172   -5.8471562    1.1116897   520538 
 2823000    1.0208334   -5.8472189   -5.8472189   -4.7355272  0.051760719   -5.8472189    1.1116917   520538 
 2824000    1.0205796   -5.8460334   -5.8460334   -4.7346181  0.070471354   -5.8460334    1.1114153   520538 
 2825000    1.0212055   -5.8468742   -5.8468742   -4.7347772  0.044457974   -5.8468742     1.112097   520538 
 2826000    1.0206264   -5.8470885   -5.8470885   -4.7356221  0.070479963   -5.8470885    1.1114663   520538 
 2827000    1.0198489   -5.8460839   -5.8460839   -4.7354643   0.09205237   -5.8460839    1.1106196   520538 
 2828000    1.0212695   -5.8483295   -5.8483295   -4.7361629  0.058841524   -5.8483295    1.1121666   520538 
 2829000      1.01856   -5.8452372   -5.8452372   -4.7360212   0.09320223   -5.8452372     1.109216   520538 
 2830000    1.0182975   -5.8454695   -5.8454695   -4.7365394  0.063580402   -5.8454695    1.1089301   520538 
 2831000    1.0197666   -5.8477265   -5.8477265   -4.7371965  0.053953551   -5.8477265      1.11053   520538 
 2832000    1.0183013   -5.8459428   -5.8459428   -4.7370086  0.045293816   -5.8459428    1.1089342   520538 
 2833000    1.0191992   -5.8463498   -5.8463498   -4.7364378  0.054101946   -5.8463498    1.1099121   520538 
 2834000    1.0214318   -5.8479655   -5.8479655   -4.7356221  0.048764307   -5.8479655    1.1123434   520538 
 2835000    1.0206865   -5.8483151   -5.8483151   -4.7367833  0.064315246   -5.8483151    1.1115318   520538 
 2836000    1.0223846   -5.8502048   -5.8502048   -4.7368239  0.070019246   -5.8502048     1.113381   520538 
 2837000    1.0181086   -5.8455553   -5.8455553   -4.7368309  0.061307513   -5.8455553    1.1087244   520538 
 2838000    1.0183869   -5.8462989   -5.8462989   -4.7372715  0.077746963   -5.8462989    1.1090274   520538 
 2839000    1.0234061   -5.8522168   -5.8522168   -4.7377235  0.052643687   -5.8522168    1.1144934   520538 
 2840000    1.0217392    -5.850697    -5.850697   -4.7380189   0.03627079    -5.850697    1.1126781   520538 
 2841000    1.0222842   -5.8503125   -5.8503125   -4.7370409  0.092178842   -5.8503125    1.1132716   520538 
 2842000    1.0220989   -5.8502195   -5.8502195   -4.7371496   0.06526404   -5.8502195    1.1130698   520538 
 2843000    1.0214672   -5.8493868   -5.8493868   -4.7370049  0.049955917   -5.8493868    1.1123819   520538 
 2844000    1.0225166   -5.8510553   -5.8510553   -4.7375307  0.078780014   -5.8510553    1.1135247   520538 
 2845000    1.0227751   -5.8512082   -5.8512082    -4.737402  0.081287795   -5.8512082    1.1138062   520538 
 2846000    1.0217894   -5.8499587   -5.8499587   -4.7372259  0.077530677   -5.8499587    1.1127328   520538 
 2847000    1.0214885   -5.8497079   -5.8497079   -4.7373028  0.076712328   -5.8497079    1.1124051   520538 
 2848000     1.021958   -5.8495076   -5.8495076   -4.7365912  0.062214367   -5.8495076    1.1129164   520538 
 2849000    1.0215489   -5.8497887   -5.8497887   -4.7373178  0.065338723   -5.8497887    1.1124709   520538 
 2850000    1.0217664   -5.8503817   -5.8503817    -4.737674  0.051958751   -5.8503817    1.1127077   520538 
 2851000     1.021276   -5.8485279   -5.8485279   -4.7363541  0.051458655   -5.8485279    1.1121737   520538 
 2852000    1.0206238   -5.8478878   -5.8478878   -4.7364244   0.06422851   -5.8478878    1.1114635   520538 
 2853000    1.0220594    -5.850237    -5.850237   -4.7372102  0.060331697    -5.850237    1.1130268   520538 
 2854000    1.0192488   -5.8468006   -5.8468006   -4.7368345  0.039710344   -5.8468006    1.1099661   520538 
 2855000    1.0206743   -5.8490533   -5.8490533   -4.7375349  0.066981161   -5.8490533    1.1115184   520538 
 2856000    1.0222125    -5.849727    -5.849727   -4.7365335  0.063925606    -5.849727    1.1131935   520538 
 2857000     1.021434   -5.8487459   -5.8487459      -4.7364   0.07254247   -5.8487459    1.1123458   520538 
 2858000    1.0221315   -5.8500926   -5.8500926   -4.7369873  0.049708076   -5.8500926    1.1131053   520538 
 2859000    1.0192559   -5.8483988   -5.8483988   -4.7384249  0.058920351   -5.8483988    1.1099738   520538 
 2860000    1.0194437   -5.8488555   -5.8488555   -4.7386772  0.070302458   -5.8488555    1.1101783   520538 
 2861000    1.0192313   -5.8488859   -5.8488859   -4.7389389   0.06712767   -5.8488859    1.1099471   520538 
 2862000    1.0216431   -5.8519929   -5.8519929   -4.7394194  0.069011344   -5.8519929    1.1125735   520538 
 2863000    1.0209021   -5.8511552   -5.8511552   -4.7393887  0.092907457   -5.8511552    1.1117666   520538 
 2864000    1.0210325   -5.8513416   -5.8513416   -4.7394331  0.084203386   -5.8513416    1.1119085   520538 
 2865000    1.0197036    -5.849653    -5.849653   -4.7391916  0.048805316    -5.849653    1.1104613   520538 
 2866000    1.0194803   -5.8499683   -5.8499683   -4.7397501  0.070343682   -5.8499683    1.1102182   520538 
 2867000     1.019501   -5.8503629   -5.8503629   -4.7401222  0.076268078   -5.8503629    1.1102407   520538 
 2868000    1.0214657   -5.8517494   -5.8517494   -4.7393691  0.066879169   -5.8517494    1.1123803   520538 
 2869000    1.0203087   -5.8509224   -5.8509224   -4.7398021   0.05808459   -5.8509224    1.1111204   520538 
 2870000    1.0214991   -5.8515257   -5.8515257    -4.739109  0.067562453   -5.8515257    1.1124167   520538 
 2871000    1.0212066    -5.852065    -5.852065   -4.7399669  0.064134198    -5.852065    1.1120982   520538 
 2872000    1.0216237   -5.8525399   -5.8525399   -4.7399876  0.062303622   -5.8525399    1.1125524   520538 
 2873000    1.0213935   -5.8517167   -5.8517167   -4.7394151  0.068978453   -5.8517167    1.1123017   520538 
 2874000    1.0197652   -5.8505325   -5.8505325    -4.740004  0.077748201   -5.8505325    1.1105285   520538 
 2875000    1.0217246   -5.8531893   -5.8531893   -4.7405271     0.053509   -5.8531893    1.1126622   520538 
 2876000    1.0186202   -5.8491509   -5.8491509   -4.7398694   0.05855299   -5.8491509    1.1092815   520538 
 2877000    1.0199181   -5.8505238   -5.8505238   -4.7398288  0.065108369   -5.8505238     1.110695   520538 
 2878000    1.0198928   -5.8497649   -5.8497649   -4.7390975  0.070484864   -5.8497649    1.1106675   520538 
 2879000    1.0208148   -5.8514122   -5.8514122   -4.7397407   0.05955584   -5.8514122    1.1116715   520538 
 2880000    1.0203063   -5.8514075   -5.8514075   -4.7402898  0.047476106   -5.8514075    1.1111177   520538 
 2881000    1.0194463   -5.8499229   -5.8499229   -4.7397418  0.062257383   -5.8499229    1.1101812   520538 
 2882000     1.021164   -5.8521769   -5.8521769   -4.7401251  0.051190509   -5.8521769    1.1120518   520538 
 2883000    1.0208007   -5.8522251   -5.8522251    -4.740569  0.091676228   -5.8522251    1.1116561   520538 
 2884000    1.0224967   -5.8548206   -5.8548206   -4.7413176  0.087582048   -5.8548206     1.113503   520538 
 2885000    1.0212511   -5.8534795   -5.8534795   -4.7413329  0.065615723   -5.8534795    1.1121466   520538 
 2886000    1.0222499   -5.8542641   -5.8542641   -4.7410299  0.060171332   -5.8542641    1.1132342   520538 
 2887000    1.0201356   -5.8517938   -5.8517938    -4.740862  0.075813467   -5.8517938    1.1109318   520538 
 2888000    1.0184197   -5.8500376   -5.8500376   -4.7409744   0.07359091   -5.8500376    1.1090632   520538 
 2889000    1.0189556   -5.8516914   -5.8516914   -4.7420447  0.063439188   -5.8516914    1.1096467   520538 
 2890000    1.0192007   -5.8515484   -5.8515484   -4.7416346  0.067023123   -5.8515484    1.1099137   520538 
 2891000    1.0168903    -5.848497    -5.848497   -4.7410993  0.046228788    -5.848497    1.1073976   520538 
 2892000    1.0184915   -5.8516926   -5.8516926   -4.7425513  0.042698097   -5.8516926    1.1091413   520538 
 2893000    1.0199747   -5.8531539   -5.8531539   -4.7423973  0.051741288   -5.8531539    1.1107566   520538 
 2894000    1.0201393   -5.8534201   -5.8534201   -4.7424843  0.058306626   -5.8534201    1.1109358   520538 
 2895000    1.0183135   -5.8521395   -5.8521395   -4.7431919  0.065141541   -5.8521395    1.1089476   520538 
 2896000    1.0189108   -5.8524081   -5.8524081     -4.74281  0.051075133   -5.8524081     1.109598   520538 
 2897000    1.0197756    -5.853174    -5.853174   -4.7426342  0.039580965    -5.853174    1.1105398   520538 
 2898000    1.0181547   -5.8513107   -5.8513107   -4.7425362  0.056917411   -5.8513107    1.1087746   520538 
 2899000    1.0194679   -5.8519761   -5.8519761   -4.7417715  0.043482791   -5.8519761    1.1102047   520538 
 2900000    1.0200119   -5.8528471   -5.8528471     -4.74205  0.076253406   -5.8528471    1.1107971   520538 
 2901000     1.020355   -5.8538569   -5.8538569   -4.7426861  0.065648117   -5.8538569    1.1111707   520538 
 2902000     1.020721   -5.8548116   -5.8548116   -4.7432422  0.071629491   -5.8548116    1.1115693   520538 
 2903000     1.020531   -5.8536604   -5.8536604   -4.7422979  0.043580938   -5.8536604    1.1113624   520538 
 2904000    1.0214995   -5.8541202   -5.8541202    -4.741703  0.048874178   -5.8541202    1.1124171   520538 
 2905000    1.0205052   -5.8541423   -5.8541423   -4.7428079  0.058699612   -5.8541423    1.1113344   520538 
 2906000    1.0238818   -5.8577287   -5.8577287   -4.7427173    0.0527903   -5.8577287    1.1150115   520538 
 2907000    1.0222895   -5.8554173   -5.8554173   -4.7421399  0.062540944   -5.8554173    1.1132775   520538 
 2908000    1.0220505    -5.854908    -5.854908   -4.7418908  0.051951887    -5.854908    1.1130172   520538 
 2909000    1.0221966   -5.8545225   -5.8545225   -4.7413462  0.059818524   -5.8545225    1.1131762   520538 
 2910000    1.0221187   -5.8551826   -5.8551826   -4.7420912  0.060050707   -5.8551826    1.1130914   520538 
 2911000    1.0221673   -5.8553537   -5.8553537   -4.7422094    0.0629694   -5.8553537    1.1131443   520538 
 2912000    1.0197262   -5.8526712   -5.8526712   -4.7421852  0.064190146   -5.8526712     1.110486   520538 
 2913000    1.0199908    -5.852583    -5.852583   -4.7418089  0.095483425    -5.852583    1.1107741   520538 
 2914000    1.0204187     -5.85413     -5.85413   -4.7428899  0.052671605     -5.85413    1.1112401   520538 
 2915000    1.0186347   -5.8528605   -5.8528605   -4.7435631  0.042432666   -5.8528605    1.1092973   520538 
 2916000    1.0219226   -5.8557303   -5.8557303   -4.7428523  0.049958553   -5.8557303    1.1128779   520538 
 2917000      1.02061   -5.8542403   -5.8542403   -4.7427919   0.06940133   -5.8542403    1.1114484   520538 
 2918000    1.0206632    -5.855085    -5.855085   -4.7435786  0.084702239    -5.855085    1.1115064   520538 
 2919000    1.0213867   -5.8549616   -5.8549616   -4.7426674  0.067174712   -5.8549616    1.1122943   520538 
 2920000    1.0219294   -5.8562748   -5.8562748   -4.7433895  0.062498784   -5.8562748    1.1128853   520538 
 2921000    1.0212809   -5.8551194   -5.8551194   -4.7429404  0.060953726   -5.8551194    1.1121791   520538 
 2922000    1.0194059   -5.8529308   -5.8529308   -4.7427936  0.066672948   -5.8529308    1.1101371   520538 
 2923000    1.0200087   -5.8536442   -5.8536442   -4.7428505  0.059764728   -5.8536442    1.1107937   520538 
 2924000    1.0189267   -5.8526153   -5.8526153       -4.743   0.05436124   -5.8526153    1.1096153   520538 
 2925000    1.0183173    -5.853163    -5.853163   -4.7442113  0.069143149    -5.853163    1.1089517   520538 
 2926000    1.0175342   -5.8513573   -5.8513573   -4.7432584  0.056645136   -5.8513573    1.1080989   520538 
 2927000     1.020697   -5.8539007   -5.8539007   -4.7423575  0.075918998   -5.8539007    1.1115432   520538 
 2928000     1.019037   -5.8524461   -5.8524461   -4.7427107   0.05335431   -5.8524461    1.1097354   520538 
 2929000    1.0188759   -5.8525488   -5.8525488   -4.7429888  0.044415182   -5.8525488      1.10956   520538 
 2930000     1.020048   -5.8531623   -5.8531623   -4.7423259  0.077642665   -5.8531623    1.1108364   520538 
 2931000    1.0195231   -5.8533291   -5.8533291   -4.7430643  0.057850032   -5.8533291    1.1102648   520538 
 2932000    1.0222694   -5.8566336   -5.8566336   -4.7433781  0.048365566   -5.8566336    1.1132555   520538 
 2933000    1.0197799   -5.8540531   -5.8540531   -4.7435086   0.07038191   -5.8540531    1.1105445   520538 
 2934000    1.0206482   -5.8553324   -5.8553324   -4.7438423  0.064230655   -5.8553324    1.1114901   520538 
 2935000    1.0198635   -5.8541453   -5.8541453   -4.7435098  0.057655622   -5.8541453    1.1106355   520538 
 2936000    1.0188568   -5.8535089   -5.8535089   -4.7439697  0.065985023   -5.8535089    1.1095392   520538 
 2937000    1.0178531   -5.8532479   -5.8532479   -4.7448018  0.071385329   -5.8532479    1.1084462   520538 
 2938000    1.0190861   -5.8547546   -5.8547546   -4.7449657  0.059120715   -5.8547546    1.1097889   520538 
 2939000    1.0193973   -5.8544656   -5.8544656   -4.7443378  0.062060675   -5.8544656    1.1101279   520538 
 2940000    1.0180827   -5.8539044   -5.8539044   -4.7452082  0.079348217   -5.8539044    1.1086962   520538 
 2941000    1.0202569   -5.8557142   -5.8557142   -4.7446502  0.080006941   -5.8557142     1.111064   520538 
 2942000     1.019122   -5.8545597   -5.8545597   -4.7447317  0.089697056   -5.8545597     1.109828   520538 
 2943000    1.0200889   -5.8546908   -5.8546908   -4.7438099  0.077445758   -5.8546908    1.1108809   520538 
 2944000    1.0190056   -5.8536626   -5.8536626   -4.7439614  0.048553896   -5.8536626    1.1097012   520538 
 2945000    1.0197588   -5.8547912   -5.8547912   -4.7442697  0.073330342   -5.8547912    1.1105214   520538 
 2946000    1.0200434   -5.8549788   -5.8549788   -4.7441474  0.031127608   -5.8549788    1.1108314   520538 
 2947000    1.0193577   -5.8555699   -5.8555699   -4.7454852  0.058312405   -5.8555699    1.1100847   520538 
 2948000     1.020221    -5.856844    -5.856844   -4.7458192  0.077734568    -5.856844    1.1110248   520538 
 2949000     1.020684   -5.8572586   -5.8572586   -4.7457295  0.043566996   -5.8572586    1.1115291   520538 
 2950000    1.0217573   -5.8578676   -5.8578676   -4.7451697  0.055194396   -5.8578676    1.1126979   520538 
 2951000    1.0196332   -5.8561278   -5.8561278   -4.7457432  0.067915353   -5.8561278    1.1103846   520538 
 2952000    1.0198541   -5.8573357   -5.8573357   -4.7467105  0.072138342   -5.8573357    1.1106253   520538 
 2953000      1.02115   -5.8591451   -5.8591451   -4.7471085  0.080637441   -5.8591451    1.1120365   520538 
 2954000    1.0198525   -5.8582192   -5.8582192   -4.7475957  0.064322923   -5.8582192    1.1106235   520538 
 2955000    1.0206472   -5.8584103   -5.8584103   -4.7469213  0.082753122   -5.8584103    1.1114889   520538 
 2956000     1.020501   -5.8583724   -5.8583724   -4.7470427  0.058193653   -5.8583724    1.1113297   520538 
 2957000    1.0211771   -5.8584745   -5.8584745   -4.7464085  0.066862742   -5.8584745     1.112066   520538 
 2958000    1.0206256   -5.8571518   -5.8571518   -4.7456865  0.070417281   -5.8571518    1.1114654   520538 
 2959000    1.0198813   -5.8567606   -5.8567606   -4.7461057  0.074443296   -5.8567606    1.1106549   520538 
 2960000    1.0211855   -5.8586495   -5.8586495   -4.7465744   0.05130267   -5.8586495    1.1120751   520538 
 2961000    1.0187917   -5.8563883   -5.8563883     -4.74692  0.067439989   -5.8563883    1.1094683   520538 
 2962000     1.018947   -5.8555892   -5.8555892   -4.7459517  0.066139172   -5.8555892    1.1096375   520538 
 2963000    1.0200183   -5.8569795   -5.8569795   -4.7461755  0.065645304   -5.8569795    1.1108041   520538 
 2964000    1.0191245   -5.8565167   -5.8565167    -4.746686  0.067580886   -5.8565167    1.1098307   520538 
 2965000    1.0193141   -5.8567978   -5.8567978   -4.7467606  0.034197764   -5.8567978    1.1100372   520538 
 2966000    1.0197156   -5.8575059   -5.8575059   -4.7470314  0.073233571   -5.8575059    1.1104745   520538 
 2967000    1.0179646   -5.8559791   -5.8559791   -4.7474115   0.08161342   -5.8559791    1.1085676   520538 
 2968000     1.020228   -5.8583882   -5.8583882   -4.7473558  0.050867035   -5.8583882    1.1110324   520538 
 2969000    1.0188628     -5.85688     -5.85688   -4.7473342  0.057774415     -5.85688    1.1095457   520538 
 2970000    1.0209872   -5.8590042   -5.8590042    -4.747145  0.081304091   -5.8590042    1.1118592   520538 
 2971000    1.0210424   -5.8591882   -5.8591882   -4.7472688  0.068289047   -5.8591882    1.1119194   520538 
 2972000    1.0201886   -5.8580101   -5.8580101   -4.7470206  0.071746458   -5.8580101    1.1109895   520538 
 2973000    1.0193612   -5.8571919   -5.8571919   -4.7471034  0.081866862   -5.8571919    1.1100885   520538 
 2974000    1.0207745    -5.859705    -5.859705   -4.7480774  0.070334995    -5.859705    1.1116276   520538 
 2975000    1.0184838   -5.8564168   -5.8564168   -4.7472837  0.044540669   -5.8564168     1.109133   520538 
 2976000    1.0220988   -5.8604128   -5.8604128    -4.747343  0.065094787   -5.8604128    1.1130698   520538 
 2977000    1.0200091   -5.8580063   -5.8580063   -4.7472123  0.061016546   -5.8580063     1.110794   520538 
 2978000    1.0192456   -5.8570675   -5.8570675    -4.747105  0.072591584   -5.8570675    1.1099626   520538 
 2979000     1.018525   -5.8570839   -5.8570839   -4.7479061  0.069944059   -5.8570839    1.1091778   520538 
 2980000    1.0191402   -5.8581887   -5.8581887   -4.7483409  0.061538303   -5.8581887    1.1098478   520538 
 2981000     1.018132   -5.8578515   -5.8578515   -4.7491016  0.061448545   -5.8578515    1.1087499   520538 
 2982000    1.0191748   -5.8589113   -5.8589113   -4.7490258  0.057564191   -5.8589113    1.1098856   520538 
 2983000     1.020491   -5.8603075   -5.8603075   -4.7489886   0.04431415   -5.8603075    1.1113188   520538 
 2984000    1.0185357   -5.8578357   -5.8578357   -4.7486462  0.075028016   -5.8578357    1.1091896   520538 
 2985000    1.0190197   -5.8586503   -5.8586503   -4.7489336  0.059734592   -5.8586503    1.1097166   520538 
 2986000    1.0184676   -5.8580013   -5.8580013    -4.748886   0.06846525   -5.8580013    1.1091153   520538 
 2987000    1.0186966   -5.8584069   -5.8584069   -4.7490422   0.05747291   -5.8584069    1.1093647   520538 
 2988000    1.0198088   -5.8590351   -5.8590351   -4.7484592  0.062522056   -5.8590351    1.1105759   520538 
 2989000    1.0189329   -5.8580189   -5.8580189   -4.7483968  0.069584291   -5.8580189     1.109622   520538 
 2990000    1.0197743   -5.8589787   -5.8589787   -4.7484404    0.0861946   -5.8589787    1.1105383   520538 
 2991000    1.0182168   -5.8564882   -5.8564882    -4.747646  0.072756086   -5.8564882    1.1088422   520538 
 2992000    1.0184045   -5.8575559   -5.8575559   -4.7485093  0.064062264   -5.8575559    1.1090466   520538 
 2993000     1.020521   -5.8599014   -5.8599014   -4.7485498  0.072508771   -5.8599014    1.1113515   520538 
 2994000    1.0183877   -5.8580064   -5.8580064   -4.7489781   0.07283256   -5.8580064    1.1090283   520538 
 2995000    1.0202811    -5.858768    -5.858768   -4.7476778  0.054495378    -5.858768    1.1110903   520538 
 2996000    1.0182343   -5.8571601   -5.8571601   -4.7482988   0.06702609   -5.8571601    1.1088613   520538 
 2997000    1.0193544   -5.8584425   -5.8584425   -4.7483614  0.045279676   -5.8584425    1.1100811   520538 
 2998000    1.0195006   -5.8582256   -5.8582256   -4.7479853  0.082817995   -5.8582256    1.1102403   520538 
 2999000    1.0198923   -5.8580879   -5.8580879    -4.747421  0.071274095   -5.8580879    1.1106669   520538 
 3000000    1.0192981   -5.8584541   -5.8584541   -4.7484343  0.075581867   -5.8584541    1.1100198   520538 
 3001000    1.0194754   -5.8583231   -5.8583231   -4.7481102  0.047235762   -5.8583231    1.1102129   520538 
 3002000    1.0203329   -5.8586286   -5.8586286   -4.7474819  0.047025191   -5.8586286    1.1111466   520538 
 3003000    1.0189484   -5.8571548   -5.8571548   -4.7475159  0.082432465   -5.8571548    1.1096389   520538 
 3004000    1.0208341   -5.8596206   -5.8596206   -4.7479281  0.072242829   -5.8596206    1.1116925   520538 
 3005000    1.0193329   -5.8585124   -5.8585124   -4.7484548  0.058944922   -5.8585124    1.1100576   520538 
 3006000    1.0214373   -5.8605159   -5.8605159   -4.7481665  0.068712459   -5.8605159    1.1123494   520538 
 3007000    1.0194452   -5.8584594   -5.8584594   -4.7482795  0.065990975   -5.8584594      1.11018   520538 
 3008000    1.0202048   -5.8604483   -5.8604483   -4.7494411  0.043521311   -5.8604483    1.1110072   520538 
 3009000    1.0207817   -5.8618058   -5.8618058   -4.7501703  0.069068187   -5.8618058    1.1116355   520538 
 3010000    1.0198274   -5.8600314   -5.8600314   -4.7494352  0.075916417   -5.8600314    1.1105961   520538 
 3011000    1.0194446   -5.8601121   -5.8601121   -4.7499327   0.06472465   -5.8601121    1.1101794   520538 
 3012000    1.0189704   -5.8595465   -5.8595465   -4.7498836  0.063932307   -5.8595465    1.1096629   520538 
 3013000    1.0183931   -5.8582062   -5.8582062   -4.7491721  0.056619247   -5.8582062    1.1090342   520538 
 3014000    1.0193866   -5.8602656   -5.8602656   -4.7501495  0.070899729   -5.8602656    1.1101161   520538 
 3015000    1.0189141   -5.8593618   -5.8593618   -4.7497602  0.053692241   -5.8593618    1.1096016   520538 
 3016000    1.0174227   -5.8574448   -5.8574448   -4.7494674  0.079204742   -5.8574448    1.1079774   520538 
 3017000    1.0193483   -5.8587638   -5.8587638   -4.7486893   0.05247737   -5.8587638    1.1100745   520538 
 3018000    1.0167574   -5.8561403   -5.8561403   -4.7488873  0.060498699   -5.8561403     1.107253   520538 
 3019000    1.0178184   -5.8572643   -5.8572643   -4.7488559  0.046291417   -5.8572643    1.1084084   520538 
 3020000    1.0207842   -5.8603766   -5.8603766   -4.7487385  0.039886289   -5.8603766    1.1116381   520538 
 3021000     1.019577   -5.8595375   -5.8595375    -4.749214  0.064755794   -5.8595375    1.1103235   520538 
 3022000    1.0189183   -5.8594155   -5.8594155   -4.7498093  0.080147634   -5.8594155    1.1096062   520538 
 3023000    1.0189342   -5.8592982   -5.8592982   -4.7496748  0.066666643   -5.8592982    1.1096235   520538 
 3024000    1.0196895   -5.8591674   -5.8591674   -4.7487214  0.056574664   -5.8591674     1.110446   520538 
 3025000    1.0195878    -5.859351    -5.859351   -4.7490157  0.069225796    -5.859351    1.1103353   520538 
 3026000    1.0208869   -5.8605612   -5.8605612   -4.7488112  0.022168993   -5.8605612      1.11175   520538 
 3027000    1.0197629   -5.8594498   -5.8594498   -4.7489239  0.066131386   -5.8594498    1.1105259   520538 
 3028000    1.0194839    -5.859779    -5.859779   -4.7495568  0.059500987    -5.859779    1.1102221   520538 
 3029000    1.0182176   -5.8589096   -5.8589096   -4.7500664  0.073876741   -5.8589096    1.1088431   520538 
 3030000    1.0197695   -5.8599843   -5.8599843   -4.7494511  0.050745386   -5.8599843    1.1105332   520538 
 3031000    1.0185445    -5.859091    -5.859091   -4.7498919  0.039808751    -5.859091    1.1091991   520538 
 3032000     1.019123   -5.8592756   -5.8592756   -4.7494465  0.048209043   -5.8592756    1.1098291   520538 
 3033000    1.0175196   -5.8581272   -5.8581272   -4.7500442  0.049443156   -5.8581272     1.108083   520538 
 3034000    1.0192721   -5.8607972   -5.8607972   -4.7508057  0.037746616   -5.8607972    1.1099915   520538 
 3035000    1.0192247   -5.8609249   -5.8609249   -4.7509851  0.063963085   -5.8609249    1.1099398   520538 
 3036000    1.0202311   -5.8619721   -5.8619721   -4.7509363  0.076864944   -5.8619721    1.1110358   520538 
 3037000    1.0204676   -5.8616403   -5.8616403   -4.7503469  0.068820022   -5.8616403    1.1112934   520538 
 3038000    1.0198472   -5.8607292   -5.8607292   -4.7501114   0.07851109   -5.8607292    1.1106178   520538 
 3039000    1.0183147   -5.8584651   -5.8584651   -4.7495162  0.061132778   -5.8584651    1.1089489   520538 
 3040000    1.0207567   -5.8617333   -5.8617333   -4.7501251  0.094631018   -5.8617333    1.1116082   520538 
 3041000    1.0170109   -5.8579585   -5.8579585   -4.7504294   0.05195006   -5.8579585    1.1075291   520538 
 3042000     1.019053   -5.8607646   -5.8607646   -4.7510117  0.065004203   -5.8607646    1.1097528   520538 
 3043000    1.0192748   -5.8605527   -5.8605527   -4.7505583  0.076688259   -5.8605527    1.1099944   520538 
 3044000    1.0203242   -5.8623785   -5.8623785   -4.7512413  0.047959061   -5.8623785    1.1111372   520538 
 3045000    1.0192885    -5.861859    -5.861859   -4.7518496   0.04984471    -5.861859    1.1100094   520538 
 3046000    1.0194295   -5.8611554   -5.8611554   -4.7509925  0.073369828   -5.8611554    1.1101629   520538 
 3047000     1.017901   -5.8596773   -5.8596773   -4.7511789  0.059546141   -5.8596773    1.1084984   520538 
 3048000    1.0185289    -5.860709    -5.860709   -4.7515269  0.063878073    -5.860709    1.1091821   520538 
 3049000    1.0191733   -5.8616392   -5.8616392   -4.7517554  0.055676247   -5.8616392    1.1098838   520538 
 3050000    1.0168948   -5.8588904   -5.8588904   -4.7514878  0.053900653   -5.8588904    1.1074026   520538 
 3051000    1.0185637   -5.8607959   -5.8607959   -4.7515759  0.071634356   -5.8607959    1.1092201   520538 
 3052000    1.0185462    -5.860777    -5.860777    -4.751576   0.05052996    -5.860777     1.109201   520538 
 3053000    1.0194703   -5.8620113   -5.8620113    -4.751804  0.052887299   -5.8620113    1.1102073   520538 
 3054000    1.0203913   -5.8623506   -5.8623506   -4.7511403  0.067086317   -5.8623506    1.1112102   520538 
 3055000    1.0195886   -5.8608427   -5.8608427   -4.7505066  0.094242399   -5.8608427    1.1103361   520538 
 3056000    1.0186124   -5.8598082   -5.8598082   -4.7505351  0.050936309   -5.8598082    1.1092731   520538 
 3057000    1.0199143    -5.861696    -5.861696   -4.7510051  0.050796334    -5.861696    1.1106908   520538 
 3058000    1.0203101   -5.8616583   -5.8616583   -4.7505364  0.050896273   -5.8616583    1.1111219   520538 
 3059000    1.0196852   -5.8612409   -5.8612409   -4.7507996  0.066662334   -5.8612409    1.1104413   520538 
 3060000    1.0205836   -5.8619357   -5.8619357    -4.750516  0.085472791   -5.8619357    1.1114197   520538 
 3061000    1.0192399   -5.8621943   -5.8621943    -4.752238  0.076482027   -5.8621943    1.1099564   520538 
 3062000    1.0185107   -5.8612621   -5.8612621   -4.7520998  0.085618879   -5.8612621    1.1091623   520538 
 3063000    1.0181777   -5.8610436   -5.8610436   -4.7522439   0.08334232   -5.8610436    1.1087997   520538 
 3064000     1.018657   -5.8619626   -5.8619626    -4.752641  0.042355095   -5.8619626    1.1093216   520538 
 3065000    1.0173364   -5.8601698   -5.8601698   -4.7522863  0.085371266   -5.8601698    1.1078835   520538 
 3066000    1.0183272   -5.8611546   -5.8611546   -4.7521921   0.05020576   -5.8611546    1.1089624   520538 
 3067000     1.018022   -5.8615102   -5.8615102   -4.7528802  0.038464399   -5.8615102    1.1086301   520538 
 3068000    1.0181577   -5.8622317   -5.8622317   -4.7534539  0.072089157   -5.8622317    1.1087779   520538 
 3069000    1.0160507   -5.8612018   -5.8612018   -4.7547184  0.072970786   -5.8612018    1.1064834   520538 
 3070000    1.0171835   -5.8624351   -5.8624351   -4.7547182  0.077785231   -5.8624351     1.107717   520538 
 3071000    1.0183257   -5.8628251   -5.8628251   -4.7538643  0.078449185   -5.8628251    1.1089609   520538 
 3072000      1.02114   -5.8666459   -5.8666459   -4.7546203  0.050992136   -5.8666459    1.1120256   520538 
 3073000    1.0196188   -5.8642301   -5.8642301   -4.7538611  0.056366912   -5.8642301    1.1103691   520538 
 3074000     1.018018   -5.8618029   -5.8618029   -4.7531772  0.063321986   -5.8618029    1.1086258   520538 
 3075000    1.0198724   -5.8640035   -5.8640035   -4.7533583  0.048006093   -5.8640035    1.1106452   520538 
 3076000     1.019533   -5.8632862   -5.8632862   -4.7530106  0.054300287   -5.8632862    1.1102756   520538 
 3077000    1.0192746   -5.8647089   -5.8647089   -4.7547146  0.043364674   -5.8647089    1.1099942   520538 
 3078000    1.0195323    -5.865803    -5.865803   -4.7555283  0.061335522    -5.865803    1.1102748   520538 
 3079000    1.0171174   -5.8630519   -5.8630519   -4.7554069   0.04744979   -5.8630519     1.107645   520538 
 3080000    1.0188614   -5.8650097   -5.8650097   -4.7554655   0.07102607   -5.8650097    1.1095442   520538 
 3081000    1.0168024   -5.8627918   -5.8627918   -4.7554898  0.062245343   -5.8627918     1.107302   520538 
 3082000     1.018622    -5.865645    -5.865645   -4.7563616  0.073463928    -5.865645    1.1092835   520538 
 3083000    1.0174225   -5.8642458   -5.8642458   -4.7562686  0.052860803   -5.8642458    1.1079772   520538 
 3084000    1.0190217   -5.8659107   -5.8659107   -4.7561919  0.060134859   -5.8659107    1.1097188   520538 
 3085000     1.019194   -5.8654999   -5.8654999   -4.7555936  0.050150759   -5.8654999    1.1099064   520538 
 3086000    1.0175079   -5.8645346   -5.8645346   -4.7564644  0.064121831   -5.8645346    1.1080702   520538 
 3087000    1.0178793   -5.8653146   -5.8653146   -4.7568399  0.060553255   -5.8653146    1.1084748   520538 
 3088000    1.0173577   -5.8649443   -5.8649443   -4.7570376  0.054617973   -5.8649443    1.1079067   520538 
 3089000    1.0173791    -5.865248    -5.865248    -4.757318  0.075854614    -5.865248      1.10793   520538 
 3090000    1.0188182   -5.8666481   -5.8666481    -4.757151  0.049107176   -5.8666481    1.1094971   520538 
 3091000    1.0173253   -5.8642444   -5.8642444    -4.756373  0.050135585   -5.8642444    1.1078714   520538 
 3092000    1.0166974   -5.8637756   -5.8637756    -4.756588  0.066492223   -5.8637756    1.1071876   520538 
 3093000    1.0179258   -5.8654047   -5.8654047   -4.7568794  0.067606237   -5.8654047    1.1085254   520538 
 3094000    1.0183143   -5.8649013   -5.8649013    -4.755953  0.057591612   -5.8649013    1.1089484   520538 
 3095000    1.0176296   -5.8638905   -5.8638905   -4.7556877  0.067728559   -5.8638905    1.1082028   520538 
 3096000    1.0182081   -5.8643155   -5.8643155   -4.7554827  0.063471365   -5.8643155    1.1088328   520538 
 3097000    1.0180419   -5.8646991   -5.8646991   -4.7560473  0.069901318   -5.8646991    1.1086518   520538 
 3098000    1.0175265   -5.8647701   -5.8647701   -4.7566797  0.049346851   -5.8647701    1.1080905   520538 
 3099000     1.019694   -5.8667295   -5.8667295   -4.7562786  0.073123142   -5.8667295    1.1104509   520538 
 3100000    1.0190736   -5.8659884   -5.8659884    -4.756213  0.039944351   -5.8659884    1.1097753   520538 
 3101000    1.0186581   -5.8647736   -5.8647736   -4.7554508  0.067912822   -5.8647736    1.1093228   520538 
 3102000    1.0208801   -5.8666984   -5.8666984   -4.7549559  0.055757777   -5.8666984    1.1117425   520538 
 3103000    1.0192982    -5.865239    -5.865239   -4.7552191  0.061669639    -5.865239    1.1100199   520538 
 3104000    1.0197366   -5.8655176   -5.8655176   -4.7550203  0.081129658   -5.8655176    1.1104973   520538 
 3105000    1.0197016   -5.8665442   -5.8665442    -4.756085   0.06111079   -5.8665442    1.1104592   520538 
 3106000    1.0182827   -5.8648716   -5.8648716   -4.7559576  0.059340854   -5.8648716     1.108914   520538 
 3107000    1.0189133   -5.8656157   -5.8656157    -4.756015  0.057114439   -5.8656157    1.1096007   520538 
 3108000    1.0190262   -5.8646345   -5.8646345   -4.7549109  0.062619167   -5.8646345    1.1097237   520538 
 3109000    1.0182672   -5.8640927   -5.8640927   -4.7551956  0.069015298   -5.8640927    1.1088972   520538 
 3110000    1.0192038   -5.8651235   -5.8651235   -4.7552063  0.067744286   -5.8651235    1.1099171   520538 
 3111000    1.0204046   -5.8661013   -5.8661013   -4.7548765  0.050086113   -5.8661013    1.1112248   520538 
 3112000    1.0203116   -5.8661057   -5.8661057   -4.7549823  0.057299453   -5.8661057    1.1111235   520538 
 3113000    1.0190823   -5.8654054   -5.8654054   -4.7556207  0.061990979   -5.8654054    1.1097848   520538 
 3114000    1.0212527   -5.8680497   -5.8680497   -4.7559014  0.083747811   -5.8680497    1.1121483   520538 
 3115000    1.0207324   -5.8676372   -5.8676372   -4.7560555  0.059786898   -5.8676372    1.1115817   520538 
 3116000    1.0214502   -5.8669999   -5.8669999   -4.7546364  0.071692846   -5.8669999    1.1123635   520538 
 3117000    1.0210831   -5.8659457   -5.8659457    -4.753982  0.062552779   -5.8659457    1.1119637   520538 
 3118000    1.0205664   -5.8663679   -5.8663679    -4.754967  0.064990268   -5.8663679     1.111401   520538 
 3119000    1.0218985   -5.8680463   -5.8680463   -4.7551947  0.054668513   -5.8680463    1.1128516   520538 
 3120000    1.0209137   -5.8676083   -5.8676083   -4.7558292  0.053565788   -5.8676083    1.1117792   520538 
 3121000    1.0192371   -5.8656617   -5.8656617   -4.7557084  0.081958977   -5.8656617    1.1099533   520538 
 3122000     1.019137   -5.8659859   -5.8659859   -4.7561415   0.05132757   -5.8659859    1.1098444   520538 
 3123000    1.0207428   -5.8683535   -5.8683535   -4.7567604  0.059559612   -5.8683535    1.1115931   520538 
 3124000    1.0200701   -5.8683028   -5.8683028   -4.7574423  0.060272197   -5.8683028    1.1108605   520538 
 3125000    1.0203046   -5.8679391   -5.8679391   -4.7568232  0.070733008   -5.8679391    1.1111159   520538 
 3126000    1.0207898   -5.8685719   -5.8685719   -4.7569276   0.07279814   -5.8685719    1.1116443   520538 
 3127000    1.0204606   -5.8670614   -5.8670614   -4.7557757   0.06767871   -5.8670614    1.1112857   520538 
 3128000    1.0188217   -5.8667301   -5.8667301   -4.7572291  0.076705821   -5.8667301     1.109501   520538 
 3129000    1.0194062   -5.8671143   -5.8671143   -4.7569769  0.047538354   -5.8671143    1.1101375   520538 
 3130000    1.0192306   -5.8671289   -5.8671289   -4.7571826  0.079211915   -5.8671289    1.1099463   520538 
 3131000    1.0214266   -5.8692014   -5.8692014   -4.7568637  0.051260128   -5.8692014    1.1123377   520538 
 3132000    1.0188546   -5.8664762   -5.8664762   -4.7569394  0.067933306   -5.8664762    1.1095368   520538 
 3133000    1.0181013   -5.8652322   -5.8652322   -4.7565158  0.056162473   -5.8652322    1.1087165   520538 
 3134000    1.0201714   -5.8670774   -5.8670774   -4.7561066   0.06383387   -5.8670774    1.1109708   520538 
 3135000    1.0196839   -5.8661982   -5.8661982   -4.7557583  0.048471425   -5.8661982    1.1104399   520538 
 3136000    1.0183416   -5.8648265   -5.8648265   -4.7558484  0.066828704   -5.8648265    1.1089781   520538 
 3137000    1.0220393   -5.8694998   -5.8694998   -4.7564948  0.064135096   -5.8694998     1.113005   520538 
 3138000    1.0186608   -5.8653912   -5.8653912   -4.7560654  0.053236076   -5.8653912    1.1093258   520538 
 3139000    1.0216993   -5.8691603   -5.8691603   -4.7565256  0.049353805   -5.8691603    1.1126347   520538 
 3140000    1.0200448   -5.8670929   -5.8670929   -4.7562601  0.062006026   -5.8670929    1.1108329   520538 
 3141000    1.0210064    -5.868544    -5.868544   -4.7566639  0.068490695    -5.868544    1.1118801   520538 
 3142000    1.0200317   -5.8681239   -5.8681239   -4.7573052  0.092447016   -5.8681239    1.1108187   520538 
 3143000    1.0207298   -5.8691279   -5.8691279   -4.7575489  0.062379275   -5.8691279    1.1115789   520538 
 3144000    1.0216679   -5.8697823   -5.8697823   -4.7571819  0.069773908   -5.8697823    1.1126005   520538 
 3145000    1.0218155   -5.8704105   -5.8704105   -4.7576492  0.063808419   -5.8704105    1.1127612   520538 
 3146000    1.0204577   -5.8687652   -5.8687652   -4.7574826   0.10593581   -5.8687652    1.1112826   520538 
 3147000    1.0202907   -5.8679061   -5.8679061   -4.7568054  0.065469689   -5.8679061    1.1111007   520538 
 3148000     1.020397   -5.8685807   -5.8685807   -4.7573643  0.069649122   -5.8685807    1.1112165   520538 
 3149000    1.0198584   -5.8685161   -5.8685161   -4.7578862  0.052714459   -5.8685161    1.1106299   520538 
 3150000    1.0205019    -5.870162    -5.870162   -4.7588313  0.072972686    -5.870162    1.1113307   520538 
 3151000    1.0176084   -5.8673468   -5.8673468   -4.7591671  0.045375013   -5.8673468    1.1081796   520538 
 3152000    1.0185453   -5.8679258   -5.8679258   -4.7587258  0.081654386   -5.8679258       1.1092   520538 
 3153000    1.0192916   -5.8682695   -5.8682695   -4.7582568  0.066431745   -5.8682695    1.1100127   520538 
 3154000    1.0199829   -5.8693426   -5.8693426    -4.758577  0.067810812   -5.8693426    1.1107656   520538 
 3155000    1.0192941   -5.8686482   -5.8686482   -4.7586327   0.08213036   -5.8686482    1.1100155   520538 
 3156000    1.0201818   -5.8695488   -5.8695488   -4.7585667  0.050954593   -5.8695488    1.1109821   520538 
 3157000    1.0188559   -5.8693381   -5.8693381   -4.7597998  0.073643575   -5.8693381    1.1095383   520538 
 3158000    1.0178058   -5.8697788   -5.8697788   -4.7613841  0.058961285   -5.8697788    1.1083947   520538 
 3159000    1.0178836   -5.8693109   -5.8693109   -4.7608316  0.046968749   -5.8693109    1.1084793   520538 
 3160000    1.0185031   -5.8691204   -5.8691204   -4.7599664  0.056799742   -5.8691204    1.1091541   520538 
 3161000    1.0186742   -5.8695535   -5.8695535   -4.7602131   0.07577936   -5.8695535    1.1093403   520538 
 3162000    1.0176105   -5.8691976   -5.8691976   -4.7610156  0.048360941   -5.8691976    1.1081819   520538 
 3163000    1.0181295   -5.8687611   -5.8687611    -4.760014  0.071826843   -5.8687611    1.1087471   520538 
 3164000    1.0193038   -5.8706414   -5.8706414   -4.7606154   0.07278151   -5.8706414    1.1100259   520538 
 3165000    1.0207209   -5.8711936   -5.8711936   -4.7596243  0.066103621   -5.8711936    1.1115693   520538 
 3166000    1.0202805   -5.8722214   -5.8722214   -4.7611318  0.095204741   -5.8722214    1.1110896   520538 
 3167000    1.0196116   -5.8713537   -5.8713537   -4.7609925  0.064286555   -5.8713537    1.1103612   520538 
 3168000    1.0192772   -5.8700702   -5.8700702   -4.7600731  0.074546506   -5.8700702    1.1099971   520538 
 3169000    1.0204976    -5.871553    -5.871553    -4.760227  0.079417765    -5.871553     1.111326   520538 
 3170000    1.0192986   -5.8710738   -5.8710738   -4.7610535  0.061225236   -5.8710738    1.1100203   520538 
 3171000     1.018899   -5.8698855   -5.8698855   -4.7603004  0.063953459   -5.8698855    1.1095851   520538 
 3172000    1.0185512   -5.8687409   -5.8687409   -4.7595345  0.061646912   -5.8687409    1.1092065   520538 
 3173000    1.0170823   -5.8681997   -5.8681997   -4.7605929  0.066460486   -5.8681997    1.1076068   520538 
 3174000    1.0201876   -5.8706512   -5.8706512   -4.7596627  0.072626477   -5.8706512    1.1109885   520538 
 3175000     1.018706    -5.869332    -5.869332    -4.759957  0.072943044    -5.869332     1.109375   520538 
 3176000    1.0190916   -5.8694893   -5.8694893   -4.7596943  0.075442561   -5.8694893    1.1097949   520538 
 3177000    1.0185931   -5.8692455   -5.8692455   -4.7599935  0.051234823   -5.8692455    1.1092521   520538 
 3178000    1.0198329   -5.8707348   -5.8707348   -4.7601327  0.069262086   -5.8707348    1.1106022   520538 
 3179000    1.0177498   -5.8681827   -5.8681827    -4.759849  0.079032381   -5.8681827    1.1083337   520538 
 3180000    1.0175698   -5.8687015   -5.8687015   -4.7605638  0.060376419   -5.8687015    1.1081377   520538 
 3181000    1.0181419   -5.8691056   -5.8691056   -4.7603449  0.060559924   -5.8691056    1.1087607   520538 
 3182000    1.0185528   -5.8710048   -5.8710048   -4.7617967  0.060209777   -5.8710048    1.1092081   520538 
 3183000    1.0170862   -5.8694694   -5.8694694   -4.7618585    0.0679749   -5.8694694     1.107611   520538 
 3184000    1.0189738   -5.8708778   -5.8708778   -4.7612111  0.075069603   -5.8708778    1.1096667   520538 
 3185000    1.0200645   -5.8719224   -5.8719224    -4.761068  0.069096068   -5.8719224    1.1108544   520538 
 3186000    1.0188466   -5.8700562   -5.8700562   -4.7605281  0.058083975   -5.8700562    1.1095281   520538 
 3187000    1.0182227   -5.8683975   -5.8683975   -4.7595488  0.069288466   -5.8683975    1.1088487   520538 
 3188000    1.0186735   -5.8686746   -5.8686746   -4.7593351  0.076155888   -5.8686746    1.1093395   520538 
 3189000     1.019848   -5.8709843   -5.8709843   -4.7603656  0.063239991   -5.8709843    1.1106187   520538 
 3190000    1.0166915   -5.8679207   -5.8679207   -4.7607395  0.076281789   -5.8679207    1.1071811   520538 
 3191000    1.0196411   -5.8708458   -5.8708458   -4.7604525  0.061652671   -5.8708458    1.1103933   520538 
 3192000    1.0196325   -5.8704155   -5.8704155   -4.7600316  0.067537657   -5.8704155    1.1103839   520538 
 3193000    1.0209144   -5.8718945   -5.8718945   -4.7601145  0.070782495   -5.8718945      1.11178   520538 
 3194000    1.0193153   -5.8704885   -5.8704885     -4.76045  0.081048182   -5.8704885    1.1100385   520538 
 3195000    1.0194298   -5.8712711   -5.8712711   -4.7611079  0.077186659   -5.8712711    1.1101632   520538 
 3196000    1.0188596    -5.871149    -5.871149   -4.7616068  0.052168844    -5.871149    1.1095422   520538 
 3197000    1.0190829   -5.8714093   -5.8714093   -4.7616239  0.079775392   -5.8714093    1.1097854   520538 
 3198000    1.0185418   -5.8715589   -5.8715589   -4.7623628  0.076393115   -5.8715589    1.1091961   520538 
 3199000    1.0192617   -5.8729232   -5.8729232    -4.762943  0.070539876   -5.8729232    1.1099801   520538 
 3200000    1.0186375   -5.8723616   -5.8723616   -4.7630612  0.086700959   -5.8723616    1.1093003   520538 
 3201000    1.0203465   -5.8742828   -5.8742828   -4.7631213  0.078493877   -5.8742828    1.1111614   520538 
 3202000    1.0200877   -5.8742231   -5.8742231   -4.7633434  0.050442421   -5.8742231    1.1108797   520538 
 3203000    1.0187736   -5.8726865   -5.8726865   -4.7632378  0.052286251   -5.8726865    1.1094486   520538 
 3204000    1.0168372    -5.869622    -5.869622   -4.7622821   0.06794576    -5.869622    1.1073399   520538 
 3205000    1.0191167   -5.8726143   -5.8726143   -4.7627921  0.061082224   -5.8726143    1.1098222   520538 
 3206000    1.0157392   -5.8684395   -5.8684395   -4.7622954  0.046648523   -5.8684395    1.1061441   520538 
 3207000    1.0170049   -5.8703753   -5.8703753   -4.7628528  0.070614307   -5.8703753    1.1075225   520538 
 3208000    1.0176021   -5.8706878   -5.8706878    -4.762515  0.065471259   -5.8706878    1.1081729   520538 
 3209000    1.0178183    -5.871317    -5.871317   -4.7629087   0.04273399    -5.871317    1.1084083   520538 
 3210000    1.0196181   -5.8727347   -5.8727347   -4.7623665  0.046890192   -5.8727347    1.1103682   520538 
 3211000    1.0169151   -5.8706495   -5.8706495   -4.7632248  0.062693477   -5.8706495    1.1074247   520538 
 3212000    1.0182938   -5.8729043   -5.8729043   -4.7639782  0.038203249   -5.8729043    1.1089261   520538 
 3213000    1.0163517   -5.8712342   -5.8712342   -4.7644231  0.047568644   -5.8712342    1.1068111   520538 
 3214000    1.0162926   -5.8717682   -5.8717682   -4.7650214  0.066189716   -5.8717682    1.1067468   520538 
 3215000    1.0180849   -5.8728746   -5.8728746    -4.764176  0.057732569   -5.8728746    1.1086986   520538 
 3216000    1.0182071   -5.8727165   -5.8727165   -4.7638848  0.051941858   -5.8727165    1.1088317   520538 
 3217000    1.0178383   -5.8719634   -5.8719634   -4.7635333  0.076230657   -5.8719634      1.10843   520538 
 3218000    1.0177436   -5.8731024   -5.8731024   -4.7647756  0.049040519   -5.8731024    1.1083269   520538 
 3219000    1.0185427    -5.874277    -5.874277   -4.7650799  0.036125567    -5.874277    1.1091971   520538 
 3220000    1.0186799   -5.8737194   -5.8737194   -4.7643728  0.086628816   -5.8737194    1.1093466   520538 
 3221000    1.0170016   -5.8727387   -5.8727387   -4.7652198  0.054833784   -5.8727387    1.1075189   520538 
 3222000    1.0188852   -5.8753385   -5.8753385   -4.7657683  0.061385865   -5.8753385    1.1095701   520538 
 3223000    1.0173393   -5.8739143   -5.8739143   -4.7660277   0.07229975   -5.8739143    1.1078866   520538 
 3224000    1.0155915   -5.8726831   -5.8726831   -4.7666998   0.05349435   -5.8726831    1.1059832   520538 
 3225000    1.0171661   -5.8733344   -5.8733344   -4.7656364  0.068270139   -5.8733344     1.107698   520538 
 3226000     1.017555   -5.8738625   -5.8738625   -4.7657409    0.0660926   -5.8738625    1.1081216   520538 
 3227000    1.0166657   -5.8725107   -5.8725107   -4.7653577  0.073137574   -5.8725107    1.1071531   520538 
 3228000    1.0189271   -5.8748806   -5.8748806   -4.7652649  0.057977382   -5.8748806    1.1096158   520538 
 3229000    1.0169607   -5.8723652   -5.8723652   -4.7648909  0.046000404   -5.8723652    1.1074743   520538 
 3230000    1.0187635   -5.8744221   -5.8744221   -4.7649846  0.063227141   -5.8744221    1.1094375   520538 
 3231000    1.0162543   -5.8723562   -5.8723562   -4.7656511  0.049592183   -5.8723562    1.1067051   520538 
 3232000    1.0174246    -5.874073    -5.874073   -4.7660934  0.046572952    -5.874073    1.1079796   520538 
 3233000    1.0187098   -5.8753289   -5.8753289   -4.7659498  0.054757915   -5.8753289    1.1093791   520538 
 3234000    1.0172786   -5.8734026   -5.8734026   -4.7655821  0.078732135   -5.8734026    1.1078205   520538 
 3235000    1.0189073   -5.8755098   -5.8755098   -4.7659155  0.063788773   -5.8755098    1.1095942   520538 
 3236000    1.0183426   -5.8748118   -5.8748118   -4.7658325  0.082478545   -5.8748118    1.1089793   520538 
 3237000    1.0176639   -5.8735659   -5.8735659   -4.7653258  0.074552176   -5.8735659    1.1082401   520538 
 3238000    1.0182145   -5.8748451   -5.8748451   -4.7660054  0.068919076   -5.8748451    1.1088397   520538 
 3239000    1.0191161   -5.8756473   -5.8756473   -4.7658256  0.061077606   -5.8756473    1.1098216   520538 
 3240000    1.0191513   -5.8763058   -5.8763058    -4.766446  0.026285114   -5.8763058    1.1098599   520538 
 3241000    1.0180774   -5.8754983   -5.8754983   -4.7668079  0.081167499   -5.8754983    1.1086904   520538 
 3242000    1.0186703   -5.8757263   -5.8757263   -4.7663902  0.072681587   -5.8757263    1.1093361   520538 
 3243000    1.0184073   -5.8757114   -5.8757114   -4.7666617  0.066684188   -5.8757114    1.1090497   520538 
 3244000    1.0176053   -5.8742736   -5.8742736   -4.7660973  0.065811024   -5.8742736    1.1081763   520538 
 3245000    1.0162649   -5.8749083   -5.8749083   -4.7681916  0.074236898   -5.8749083    1.1067166   520538 
 3246000    1.0149412   -5.8733788   -5.8733788   -4.7681036  0.059328238   -5.8733788    1.1052751   520538 
 3247000    1.0148383   -5.8737716   -5.8737716   -4.7686086  0.060196599   -5.8737716     1.105163   520538 
 3248000    1.0179332   -5.8765034   -5.8765034     -4.76797  0.067969067   -5.8765034    1.1085334   520538 
 3249000    1.0169853   -5.8750819   -5.8750819   -4.7675807  0.063459418   -5.8750819    1.1075011   520538 
 3250000    1.0193253   -5.8776288   -5.8776288   -4.7675794  0.077408254   -5.8776288    1.1100494   520538 
 3251000     1.018193   -5.8764405   -5.8764405   -4.7676242  0.051896504   -5.8764405    1.1088163   520538 
 3252000    1.0190692   -5.8772191   -5.8772191   -4.7674486  0.061037858   -5.8772191    1.1097705   520538 
 3253000    1.0183179   -5.8776937   -5.8776937   -4.7687413  0.059023827   -5.8776937    1.1089524   520538 
 3254000    1.0174132   -5.8767618   -5.8767618   -4.7687946  0.051939422   -5.8767618    1.1079671   520538 
 3255000    1.0169724   -5.8763922   -5.8763922   -4.7689051  0.067156664   -5.8763922    1.1074871   520538 
 3256000     1.017695   -5.8760125   -5.8760125   -4.7677384  0.093742438   -5.8760125     1.108274   520538 
 3257000     1.018363    -5.876447    -5.876447   -4.7674455  0.092252311    -5.876447    1.1090014   520538 
 3258000    1.0180858   -5.8754131   -5.8754131   -4.7667135  0.087348305   -5.8754131    1.1086996   520538 
 3259000    1.0187988   -5.8761744   -5.8761744   -4.7666983  0.040761644   -5.8761744    1.1094761   520538 
 3260000    1.0167439   -5.8726367   -5.8726367   -4.7653985   0.06159672   -5.8726367    1.1072382   520538 
 3261000    1.0167257    -5.873198    -5.873198   -4.7659795  0.040614692    -5.873198    1.1072185   520538 
 3262000    1.0156304   -5.8722615   -5.8722615   -4.7662359  0.053692054   -5.8722615    1.1060256   520538 
 3263000    1.0176284   -5.8738228   -5.8738228   -4.7656212  0.063385084   -5.8738228    1.1082015   520538 
 3264000    1.0159808   -5.8728147   -5.8728147   -4.7664075  0.047547143   -5.8728147    1.1064072   520538 
 3265000    1.0175255   -5.8748157   -5.8748157   -4.7667263  0.063921019   -5.8748157    1.1080894   520538 
 3266000    1.0171201   -5.8739849   -5.8739849   -4.7663369  0.050773704   -5.8739849     1.107648   520538 
 3267000    1.0181425   -5.8741568   -5.8741568   -4.7653954  0.085629005   -5.8741568    1.1087614   520538 
 3268000    1.0175375   -5.8736032   -5.8736032   -4.7655008  0.064000742   -5.8736032    1.1081025   520538 
 3269000      1.01636   -5.8731185   -5.8731185   -4.7662983   0.04529264   -5.8731185    1.1068201   520538 
 3270000    1.0170531   -5.8736166   -5.8736166   -4.7660417  0.069454765   -5.8736166     1.107575   520538 
 3271000    1.0185098   -5.8750035   -5.8750035   -4.7658422  0.050551225   -5.8750035    1.1091613   520538 
 3272000    1.0177075   -5.8731684   -5.8731684   -4.7648807  0.051270955   -5.8731684    1.1082876   520538 
 3273000    1.0166966     -5.87244     -5.87244   -4.7652532  0.051982509     -5.87244    1.1071867   520538 
 3274000    1.0169522   -5.8731451   -5.8731451     -4.76568  0.065175092   -5.8731451    1.1074651   520538 
 3275000     1.016338   -5.8722361   -5.8722361   -4.7654399  0.057556902   -5.8722361    1.1067962   520538 
 3276000    1.0174105   -5.8743265   -5.8743265   -4.7663624  0.068590204   -5.8743265    1.1079642   520538 
 3277000      1.01832   -5.8756139   -5.8756139   -4.7666592  0.070214428   -5.8756139    1.1089547   520538 
 3278000    1.0186987   -5.8755162   -5.8755162   -4.7661491  0.066274257   -5.8755162     1.109367   520538 
 3279000    1.0182049   -5.8752782   -5.8752782   -4.7664489  0.050085298   -5.8752782    1.1088292   520538 
 3280000    1.0172948   -5.8745151   -5.8745151    -4.766677  0.072644402   -5.8745151    1.1078382   520538 
 3281000    1.0165778   -5.8730608   -5.8730608   -4.7660035  0.072986605   -5.8730608    1.1070573   520538 
 3282000    1.0183236   -5.8742169   -5.8742169   -4.7652584  0.055171014   -5.8742169    1.1089585   520538 
 3283000    1.0173936   -5.8731534   -5.8731534   -4.7652077  0.061190337   -5.8731534    1.1079458   520538 
 3284000    1.0176625   -5.8739457   -5.8739457    -4.765707  0.088214189   -5.8739457    1.1082386   520538 
 3285000     1.018146   -5.8742252   -5.8742252   -4.7654601  0.051702866   -5.8742252    1.1087652   520538 
 3286000    1.0157115   -5.8712498   -5.8712498   -4.7651358  0.077042527   -5.8712498     1.106114   520538 
 3287000    1.0182229    -5.874346    -5.874346    -4.765497  0.056048055    -5.874346    1.1088489   520538 
 3288000    1.0176897   -5.8739595   -5.8739595   -4.7656914  0.071465553   -5.8739595    1.1082682   520538 
 3289000    1.0168909   -5.8731636   -5.8731636   -4.7657652  0.050751247   -5.8731636    1.1073983   520538 
 3290000    1.0177033   -5.8739834   -5.8739834   -4.7657004  0.068172046   -5.8739834    1.1082831   520538 
 3291000    1.0186566   -5.8740395   -5.8740395   -4.7647183  0.061522664   -5.8740395    1.1093212   520538 
 3292000    1.0180411   -5.8746186   -5.8746186   -4.7659677  0.063585346   -5.8746186    1.1086508   520538 
 3293000    1.0163571   -5.8727152   -5.8727152   -4.7658981    0.0899517   -5.8727152    1.1068171   520538 
 3294000    1.0178645   -5.8751639   -5.8751639   -4.7667053  0.062980401   -5.8751639    1.1084586   520538 
 3295000    1.0164316   -5.8730969   -5.8730969   -4.7661987  0.074596092   -5.8730969    1.1068982   520538 
 3296000    1.0172468   -5.8739442   -5.8739442   -4.7661583  0.056737672   -5.8739442    1.1077859   520538 
 3297000     1.016327   -5.8731496   -5.8731496   -4.7663654  0.039117604   -5.8731496    1.1067842   520538 
 3298000    1.0157626   -5.8718485   -5.8718485   -4.7656788    0.0714941   -5.8718485    1.1061696   520538 
 3299000    1.0168266   -5.8730226   -5.8730226   -4.7656943  0.051083654   -5.8730226    1.1073283   520538 
 3300000    1.0173907   -5.8745919   -5.8745919   -4.7666492  0.039338917   -5.8745919    1.1079426   520538 
 3301000    1.0158826   -5.8734789   -5.8734789   -4.7671786  0.078568297   -5.8734789    1.1063003   520538 
 3302000    1.0157277   -5.8741414   -5.8741414   -4.7680098  0.065933017   -5.8741414    1.1061316   520538 
 3303000    1.0182632   -5.8764353   -5.8764353   -4.7675425  0.051111915   -5.8764353    1.1088928   520538 
 3304000    1.0164159   -5.8739641   -5.8739641    -4.767083  0.080129168   -5.8739641    1.1068811   520538 
 3305000    1.0179222   -5.8746023   -5.8746023   -4.7660808  0.064567938   -5.8746023    1.1085214   520538 
 3306000    1.0164467    -5.873528    -5.873528   -4.7666134    0.0986744    -5.873528    1.1069146   520538 
 3307000    1.0151186   -5.8725787   -5.8725787   -4.7671105  0.052516868   -5.8725787    1.1054683   520538 
 3308000    1.0165978   -5.8742618   -5.8742618   -4.7671827  0.068285108   -5.8742618    1.1070791   520538 
 3309000    1.0149242   -5.8734342   -5.8734342   -4.7681775  0.040268109   -5.8734342    1.1052566   520538 
 3310000    1.0159306   -5.8737414   -5.8737414   -4.7673889  0.049509325   -5.8737414    1.1063525   520538 
 3311000    1.0176606   -5.8755617   -5.8755617   -4.7673252  0.062292626   -5.8755617    1.1082365   520538 
 3312000    1.0172901   -5.8750982   -5.8750982   -4.7672652  0.046375764   -5.8750982    1.1078331   520538 
 3313000    1.0178078   -5.8754985   -5.8754985   -4.7671016  0.055132799   -5.8754985    1.1083969   520538 
 3314000    1.0175643    -5.875641    -5.875641   -4.7675094  0.066019246    -5.875641    1.1081317   520538 
 3315000    1.0176391   -5.8761841   -5.8761841    -4.767971  0.059711163   -5.8761841    1.1082131   520538 
 3316000    1.0183839   -5.8763784   -5.8763784   -4.7673542  0.054566733   -5.8763784    1.1090242   520538 
 3317000    1.0163627   -5.8750081   -5.8750081    -4.768185  0.066458889   -5.8750081    1.1068232   520538 
 3318000    1.0168255   -5.8760572   -5.8760572   -4.7687301  0.059754142   -5.8760572    1.1073271   520538 
 3319000     1.015975   -5.8742093   -5.8742093   -4.7678083  0.076476558   -5.8742093    1.1064009   520538 
 3320000    1.0176588    -5.876182    -5.876182   -4.7679474  0.064071665    -5.876182    1.1082346   520538 
 3321000    1.0168081    -5.875124    -5.875124   -4.7678158  0.077097831    -5.875124    1.1073082   520538 
 3322000    1.0155948   -5.8738417   -5.8738417   -4.7678549   0.07504591   -5.8738417    1.1059868   520538 
 3323000     1.016335   -5.8745057   -5.8745057   -4.7677127  0.073993187   -5.8745057     1.106793   520538 
 3324000    1.0183521   -5.8770685   -5.8770685   -4.7680788   0.07516396   -5.8770685    1.1089896   520538 
 3325000    1.0184459   -5.8763485   -5.8763485   -4.7672568   0.06935148   -5.8763485    1.1090917   520538 
 3326000    1.0167002   -5.8745722   -5.8745722   -4.7673815  0.060268676   -5.8745722    1.1071906   520538 
 3327000    1.0170596   -5.8748669   -5.8748669   -4.7672848  0.059104963   -5.8748669    1.1075821   520538 
 3328000    1.0160274   -5.8748024   -5.8748024   -4.7683444  0.067824854   -5.8748024     1.106458   520538 
 3329000    1.0161462   -5.8740468   -5.8740468   -4.7674594  0.044368733   -5.8740468    1.1065874   520538 
 3330000    1.0173019   -5.8755468   -5.8755468   -4.7677009  0.048640926   -5.8755468    1.1078459   520538 
 3331000    1.0168303   -5.8752674   -5.8752674    -4.767935  0.073867522   -5.8752674    1.1073324   520538 
 3332000    1.0186966   -5.8770279   -5.8770279   -4.7676632  0.052227819   -5.8770279    1.1093648   520538 
 3333000     1.015432   -5.8737426   -5.8737426   -4.7679331  0.066757761   -5.8737426    1.1058095   520538 
 3334000    1.0175719   -5.8749846   -5.8749846   -4.7668447  0.074432277   -5.8749846    1.1081399   520538 
 3335000    1.0193792   -5.8769176   -5.8769176   -4.7668094  0.036426371   -5.8769176    1.1101081   520538 
 3336000    1.0181495   -5.8752233   -5.8752233   -4.7664544  0.063438672   -5.8752233     1.108769   520538 
 3337000    1.0182865   -5.8758869   -5.8758869   -4.7669688   0.05436726   -5.8758869    1.1089181   520538 
 3338000    1.0178676   -5.8754807   -5.8754807   -4.7670188  0.072912891   -5.8754807     1.108462   520538 
 3339000    1.0191636   -5.8781404   -5.8781404   -4.7682671  0.062508536   -5.8781404    1.1098733   520538 
 3340000    1.0178073   -5.8772937   -5.8772937   -4.7688974  0.064611845   -5.8772937    1.1083963   520538 
 3341000     1.018573   -5.8787619   -5.8787619   -4.7695317  0.070229681   -5.8787619    1.1092302   520538 
 3342000    1.0189326   -5.8781537   -5.8781537    -4.768532   0.06497806   -5.8781537    1.1096217   520538 
 3343000    1.0179777   -5.8766916   -5.8766916   -4.7681097  0.050844944   -5.8766916    1.1085819   520538 
 3344000    1.0166452    -5.875686    -5.875686   -4.7685553   0.07756965    -5.875686    1.1071307   520538 
 3345000    1.0183968   -5.8784649   -5.8784649   -4.7694267  0.066704249   -5.8784649    1.1090383   520538 
 3346000    1.0181672   -5.8783673   -5.8783673    -4.769579  0.055631267   -5.8783673    1.1087883   520538 
 3347000     1.017139   -5.8771835   -5.8771835    -4.769515  0.075493866   -5.8771835    1.1076685   520538 
 3348000    1.0164108    -5.875721    -5.875721   -4.7688454  0.074457109    -5.875721    1.1068755   520538 
 3349000    1.0155101   -5.8755234   -5.8755234   -4.7696288  0.073902945   -5.8755234    1.1058946   520538 
 3350000    1.0158225   -5.8771525   -5.8771525   -4.7709177  0.059756019   -5.8771525    1.1062348   520538 
 3351000    1.0157789   -5.8773811   -5.8773811   -4.7711937  0.055816645   -5.8773811    1.1061874   520538 
 3352000    1.0156392   -5.8768157   -5.8768157   -4.7707806  0.047622717   -5.8768157    1.1060352   520538 
 3353000     1.017134   -5.8786581   -5.8786581    -4.770995  0.053826762   -5.8786581    1.1076631   520538 
 3354000    1.0170485   -5.8780738   -5.8780738   -4.7705038  0.069288053   -5.8780738    1.1075699   520538 
 3355000    1.0168008   -5.8775596   -5.8775596   -4.7702594  0.065986846   -5.8775596    1.1073002   520538 
 3356000    1.0154252   -5.8756413   -5.8756413    -4.769839   0.03813951   -5.8756413    1.1058022   520538 
 3357000    1.0159633   -5.8769272   -5.8769272   -4.7705391  0.058382676   -5.8769272    1.1063882   520538 
 3358000    1.0161625   -5.8766561   -5.8766561   -4.7700509  0.060058442   -5.8766561    1.1066051   520538 
 3359000    1.0182138   -5.8782968   -5.8782968   -4.7694579  0.059068252   -5.8782968    1.1088389   520538 
 3360000    1.0153434   -5.8757613   -5.8757613   -4.7700482  0.067901101   -5.8757613    1.1057131   520538 
 3361000    1.0167014   -5.8780684   -5.8780684   -4.7708765  0.059283836   -5.8780684     1.107192   520538 
 3362000    1.0184583    -5.879188    -5.879188   -4.7700828  0.070480323    -5.879188    1.1091053   520538 
 3363000    1.0156332   -5.8764763   -5.8764763   -4.7704476  0.055143576   -5.8764763    1.1060287   520538 
 3364000    1.0147881   -5.8759958   -5.8759958   -4.7708874  0.059721925   -5.8759958    1.1051084   520538 
 3365000    1.0161095   -5.8766791   -5.8766791   -4.7701317  0.053754087   -5.8766791    1.1065474   520538 
 3366000    1.0175722   -5.8778917   -5.8778917   -4.7697515  0.071120189   -5.8778917    1.1081402   520538 
 3367000    1.0163043   -5.8762492   -5.8762492   -4.7694897   0.07598096   -5.8762492    1.1067595   520538 
 3368000    1.0185052     -5.87935     -5.87935   -4.7701936  0.061643348     -5.87935    1.1091563   520538 
 3369000    1.0175475   -5.8786975   -5.8786975   -4.7705841  0.044802716   -5.8786975    1.1081134   520538 
 3370000     1.016995   -5.8784291   -5.8784291   -4.7709174  0.065310623   -5.8784291    1.1075117   520538 
 3371000    1.0165473   -5.8785191   -5.8785191   -4.7714949  0.043147518   -5.8785191    1.1070241   520538 
 3372000    1.0177209   -5.8790762   -5.8790762    -4.770774  0.046854823   -5.8790762    1.1083023   520538 
 3373000    1.0157844   -5.8758385   -5.8758385   -4.7696451  0.077125917   -5.8758385    1.1061934   520538 
 3374000    1.0174793   -5.8781848   -5.8781848   -4.7701457  0.066336829   -5.8781848    1.1080391   520538 
 3375000     1.016094   -5.8766249   -5.8766249   -4.7700944  0.081900692   -5.8766249    1.1065305   520538 
 3376000    1.0162827   -5.8786443   -5.8786443   -4.7719083  0.075686344   -5.8786443     1.106736   520538 
 3377000    1.0163217   -5.8779456   -5.8779456   -4.7711672  0.043743634   -5.8779456    1.1067784   520538 
 3378000    1.0148406   -5.8770489   -5.8770489   -4.7718834  0.085955638   -5.8770489    1.1051655   520538 
 3379000    1.0153438   -5.8780645   -5.8780645   -4.7723511  0.050606473   -5.8780645    1.1057135   520538 
 3380000    1.0164241   -5.8784048   -5.8784048   -4.7715148  0.070093462   -5.8784048      1.10689   520538 
 3381000    1.0150921   -5.8771623   -5.8771623   -4.7717229  0.077684746   -5.8771623    1.1054394   520538 
 3382000    1.0143435   -5.8771113   -5.8771113   -4.7724871   0.05878825   -5.8771113    1.1046242   520538 
 3383000     1.016116   -5.8785048   -5.8785048   -4.7719504  0.049448325   -5.8785048    1.1065545   520538 
 3384000     1.016116    -5.878374    -5.878374   -4.7718196  0.073792522    -5.878374    1.1065544   520538 
 3385000    1.0165923   -5.8785565   -5.8785565   -4.7714834  0.071983881   -5.8785565    1.1070732   520538 
 3386000     1.018287   -5.8801533   -5.8801533   -4.7712346  0.064646557   -5.8801533    1.1089187   520538 
 3387000    1.0161938   -5.8773057   -5.8773057   -4.7706666  0.073260266   -5.8773057    1.1066392   520538 
 3388000    1.0174383   -5.8789896   -5.8789896   -4.7709952  0.067188282   -5.8789896    1.1079945   520538 
 3389000     1.016052   -5.8773931   -5.8773931   -4.7709084  0.068081426   -5.8773931    1.1064847   520538 
 3390000    1.0158763   -5.8775307   -5.8775307   -4.7712373  0.070122121   -5.8775307    1.1062935   520538 
 3391000    1.0146175   -5.8754566   -5.8754566   -4.7705341  0.060098321   -5.8754566    1.1049225   520538 
 3392000    1.0167765   -5.8779627   -5.8779627    -4.770689  0.050338107   -5.8779627    1.1072737   520538 
 3393000    1.0164912    -5.878345    -5.878345    -4.771382  0.038775135    -5.878345     1.106963   520538 
 3394000    1.0167175   -5.8791018   -5.8791018   -4.7718922  0.046740843   -5.8791018    1.1072095   520538 
 3395000    1.0157543   -5.8777687   -5.8777687   -4.7716082  0.056989671   -5.8777687    1.1061605   520538 
 3396000     1.016204    -5.878243    -5.878243   -4.7715927  0.064652188    -5.878243    1.1066503   520538 
 3397000     1.016247   -5.8784495   -5.8784495   -4.7717524  0.032580279   -5.8784495    1.1066971   520538 
 3398000     1.017643   -5.8805116   -5.8805116   -4.7722943  0.056931686   -5.8805116    1.1082173   520538 
 3399000    1.0187154   -5.8813434   -5.8813434   -4.7719583  0.056687656   -5.8813434    1.1093852   520538 
 3400000    1.0175922    -5.880245    -5.880245   -4.7720829  0.059367953    -5.880245    1.1081621   520538 
 3401000    1.0175733   -5.8805612   -5.8805612   -4.7724197  0.057524541   -5.8805612    1.1081415   520538 
 3402000    1.0179517   -5.8816046   -5.8816046    -4.773051  0.071891832   -5.8816046    1.1085536   520538 
 3403000    1.0177098   -5.8804229   -5.8804229   -4.7721329  0.054921143   -5.8804229    1.1082901   520538 
 3404000    1.0161365   -5.8795012   -5.8795012   -4.7729244  0.083408189   -5.8795012    1.1065768   520538 
 3405000    1.0161607   -5.8794533   -5.8794533   -4.7728502  0.059701855   -5.8794533    1.1066031   520538 
 3406000    1.0160451   -5.8790952   -5.8790952   -4.7726179  0.055383016   -5.8790952    1.1064772   520538 
 3407000    1.0168662   -5.8804506   -5.8804506   -4.7730792  0.070575978   -5.8804506    1.1073714   520538 
 3408000    1.0170781   -5.8807635   -5.8807635   -4.7731613  0.070753623   -5.8807635    1.1076022   520538 
 3409000     1.015239   -5.8787392   -5.8787392   -4.7731398  0.057989952   -5.8787392    1.1055994   520538 
 3410000    1.0154908   -5.8783839   -5.8783839   -4.7725103  0.071871816   -5.8783839    1.1058736   520538 
 3411000    1.0149364   -5.8778133   -5.8778133   -4.7725434  0.075390734   -5.8778133    1.1052698   520538 
 3412000    1.0173657    -5.880803    -5.880803   -4.7728876  0.066988945    -5.880803    1.1079154   520538 
 3413000    1.0154335   -5.8789934   -5.8789934   -4.7731822   0.07545256   -5.8789934    1.1058112   520538 
 3414000    1.0163704   -5.8804611   -5.8804611   -4.7736297  0.052088953   -5.8804611    1.1068315   520538 
 3415000     1.015707   -5.8796211   -5.8796211    -4.773512  0.054249461   -5.8796211     1.106109   520538 
 3416000    1.0155286   -5.8785408   -5.8785408    -4.772626  0.073254189   -5.8785408    1.1059148   520538 
 3417000    1.0153723    -5.877583    -5.877583   -4.7718385  0.049783861    -5.877583    1.1057445   520538 
 3418000    1.0191881   -5.8818481   -5.8818481   -4.7719481  0.064388118   -5.8818481       1.1099   520538 
 3419000    1.0172317   -5.8803874   -5.8803874    -4.772618  0.074095381   -5.8803874    1.1077695   520538 
 3420000    1.0177815   -5.8794166   -5.8794166   -4.7710484  0.056690309   -5.8794166    1.1083682   520538 
 3421000    1.0167151   -5.8795668   -5.8795668   -4.7723599  0.068890715   -5.8795668    1.1072069   520538 
 3422000    1.0187695   -5.8820776   -5.8820776   -4.7726334  0.047779258   -5.8820776    1.1094442   520538 
 3423000    1.0159339   -5.8795425   -5.8795425   -4.7731863   0.05469561   -5.8795425    1.1063561   520538 
 3424000    1.0165292   -5.8802976   -5.8802976   -4.7732932  0.063848677   -5.8802976    1.1070044   520538 
 3425000    1.0167941   -5.8803153   -5.8803153   -4.7730224  0.051564739   -5.8803153    1.1072929   520538 
 3426000    1.0165098   -5.8797557   -5.8797557   -4.7727724  0.067851405   -5.8797557    1.1069833   520538 
 3427000     1.016538   -5.8802998   -5.8802998   -4.7732858  0.061741894   -5.8802998     1.107014   520538 
 3428000    1.0177223    -5.881651    -5.881651   -4.7733473  0.039444353    -5.881651    1.1083037   520538 
 3429000    1.0160706   -5.8790598   -5.8790598   -4.7725548  0.050362711   -5.8790598     1.106505   520538 
 3430000    1.0167743    -5.879515    -5.879515   -4.7722436  0.061556586    -5.879515    1.1072714   520538 
 3431000     1.015392   -5.8785132   -5.8785132   -4.7727472  0.054924391   -5.8785132     1.105766   520538 
 3432000    1.0171352   -5.8800813   -5.8800813   -4.7724169  0.068795255   -5.8800813    1.1076643   520538 
 3433000    1.0182744   -5.8809073   -5.8809073   -4.7720023  0.071878738   -5.8809073     1.108905   520538 
 3434000    1.0176044   -5.8797576   -5.8797576   -4.7715823  0.054541055   -5.8797576    1.1081753   520538 
 3435000     1.017516   -5.8806523   -5.8806523   -4.7725732  0.046257811   -5.8806523    1.1080791   520538 
 3436000    1.0176558   -5.8818275   -5.8818275   -4.7735961  0.064599168   -5.8818275    1.1082313   520538 
 3437000    1.0151608   -5.8790968   -5.8790968   -4.7735826  0.044076828   -5.8790968    1.1055142   520538 
 3438000    1.0172032   -5.8809439   -5.8809439   -4.7732055  0.069394462   -5.8809439    1.1077384   520538 
 3439000    1.0145933   -5.8783409   -5.8783409   -4.7734446  0.066782533   -5.8783409    1.1048963   520538 
 3440000    1.0163279   -5.8809206   -5.8809206   -4.7741354  0.063249629   -5.8809206    1.1067852   520538 
 3441000    1.0167613   -5.8811517   -5.8811517   -4.7738945  0.050122259   -5.8811517    1.1072572   520538 
 3442000    1.0164985   -5.8810317   -5.8810317   -4.7740608  0.039351686   -5.8810317     1.106971   520538 
 3443000    1.0156801     -5.87874     -5.87874   -4.7726602  0.061322948     -5.87874    1.1060797   520538 
 3444000    1.0175922   -5.8812689   -5.8812689   -4.7731068  0.068154258   -5.8812689    1.1081621   520538 
 3445000    1.0168395   -5.8801859   -5.8801859   -4.7728436  0.053112319   -5.8801859    1.1073423   520538 
 3446000    1.0154615   -5.8793656   -5.8793656    -4.773524  0.044686188   -5.8793656    1.1058417   520538 
 3447000    1.0153217    -5.879737    -5.879737   -4.7740476  0.082982392    -5.879737    1.1056894   520538 
 3448000    1.0157843   -5.8806586   -5.8806586   -4.7744653  0.062898747   -5.8806586    1.1061932   520538 
 3449000    1.0159453   -5.8804009   -5.8804009   -4.7740324  0.060025115   -5.8804009    1.1063686   520538 
 3450000    1.0170326   -5.8809156   -5.8809156   -4.7733629  0.058143625   -5.8809156    1.1075527   520538 
 3451000    1.0147669   -5.8785542   -5.8785542   -4.7734689  0.079209506   -5.8785542    1.1050853   520538 
 3452000    1.0153818    -5.879863    -5.879863    -4.774108  0.055681493    -5.879863    1.1057549   520538 
 3453000    1.0166524    -5.881859    -5.881859   -4.7747204  0.058533244    -5.881859    1.1071386   520538 
 3454000    1.0163546   -5.8795152   -5.8795152    -4.772701  0.055499454   -5.8795152    1.1068143   520538 
 3455000    1.0155415   -5.8793414   -5.8793414   -4.7734126  0.050302897   -5.8793414    1.1059288   520538 
 3456000    1.0163735   -5.8805522   -5.8805522   -4.7737174  0.065715272   -5.8805522    1.1068349   520538 
 3457000    1.0153406    -5.880103    -5.880103   -4.7743929   0.04104176    -5.880103    1.1057101   520538 
 3458000    1.0162437    -5.881256    -5.881256   -4.7745625  0.047492221    -5.881256    1.1066936   520538 
 3459000    1.0157709    -5.880234    -5.880234   -4.7740553   0.04157304    -5.880234    1.1061786   520538 
 3460000    1.0158918   -5.8804572   -5.8804572   -4.7741469  0.056219799   -5.8804572    1.1063103   520538 
 3461000    1.0162766   -5.8811561   -5.8811561   -4.7744268  0.059942639   -5.8811561    1.1067293   520538 
 3462000    1.0156445   -5.8806107   -5.8806107   -4.7745698  0.062787557   -5.8806107     1.106041   520538 
 3463000    1.0168239    -5.882172    -5.882172   -4.7748467  0.042574946    -5.882172    1.1073253   520538 
 3464000    1.0157595   -5.8823016   -5.8823016   -4.7761354  0.077021861   -5.8823016    1.1061663   520538 
 3465000     1.015472   -5.8824107   -5.8824107   -4.7765575  0.075969598   -5.8824107    1.1058532   520538 
 3466000    1.0171451   -5.8840874   -5.8840874   -4.7764123  0.077333772   -5.8840874    1.1076751   520538 
 3467000    1.0157215   -5.8814969   -5.8814969    -4.775372  0.059721607   -5.8814969    1.1061249   520538 
 3468000    1.0164963   -5.8828117   -5.8828117   -4.7758431  0.045607366   -5.8828117    1.1069686   520538 
 3469000    1.0169364   -5.8831747   -5.8831747   -4.7757268  0.057820613   -5.8831747    1.1074479   520538 
 3470000    1.0160321   -5.8816858   -5.8816858   -4.7752227  0.033843065   -5.8816858    1.1064631   520538 
 3471000    1.0162833   -5.8800746   -5.8800746   -4.7733379  0.050693654   -5.8800746    1.1067367   520538 
 3472000    1.0166679   -5.8824072   -5.8824072   -4.7752517  0.025462834   -5.8824072    1.1071555   520538 
 3473000    1.0163218   -5.8820434   -5.8820434   -4.7752648  0.071666357   -5.8820434    1.1067786   520538 
 3474000    1.0170507   -5.8832388   -5.8832388   -4.7756665  0.055392731   -5.8832388    1.1075723   520538 
 3475000    1.0178757   -5.8838162   -5.8838162   -4.7753454  0.048964543   -5.8838162    1.1084708   520538 
 3476000    1.0170908   -5.8824337   -5.8824337   -4.7748176  0.070505249   -5.8824337    1.1076161   520538 
 3477000    1.0169609   -5.8834746   -5.8834746   -4.7760001   0.05839794   -5.8834746    1.1074745   520538 
 3478000    1.0173073   -5.8821707   -5.8821707   -4.7743189  0.048506659   -5.8821707    1.1078518   520538 
 3479000    1.0157967   -5.8803616   -5.8803616   -4.7741548  0.068865609   -5.8803616    1.1062068   520538 
 3480000    1.0147542   -5.8787449   -5.8787449   -4.7736735  0.064504853   -5.8787449    1.1050714   520538 
 3481000    1.0161455   -5.8802336   -5.8802336   -4.7736471  0.054448087   -5.8802336    1.1065866   520538 
 3482000    1.0159065   -5.8801759   -5.8801759   -4.7738495  0.068246801   -5.8801759    1.1063264   520538 
 3483000    1.0146989   -5.8784929   -5.8784929   -4.7734816  0.047951864   -5.8784929    1.1050112   520538 
 3484000    1.0162619   -5.8808242   -5.8808242   -4.7741108  0.074184299   -5.8808242    1.1067133   520538 
 3485000    1.0155376   -5.8803192   -5.8803192   -4.7743946  0.063223447   -5.8803192    1.1059246   520538 
 3486000    1.0167742   -5.8810087   -5.8810087   -4.7737374  0.056720063   -5.8810087    1.1072713   520538 
 3487000    1.0168652   -5.8807837   -5.8807837   -4.7734134  0.056123669   -5.8807837    1.1073703   520538 
 3488000    1.0179465    -5.882134    -5.882134   -4.7735861  0.065021763    -5.882134    1.1085479   520538 
 3489000    1.0175696   -5.8820428   -5.8820428   -4.7739055  0.043338941   -5.8820428    1.1081374   520538 
 3490000    1.0177536   -5.8824958   -5.8824958   -4.7741581  0.044917261   -5.8824958    1.1083378   520538 
 3491000    1.0147548   -5.8788688   -5.8788688   -4.7737967  0.072274939   -5.8788688    1.1050721   520538 
 3492000    1.0152733   -5.8800964   -5.8800964   -4.7744596  0.056598672   -5.8800964    1.1056368   520538 
 3493000    1.0183808   -5.8847288   -5.8847288   -4.7757079  0.036902812   -5.8847288    1.1090208   520538 
 3494000    1.0172607   -5.8830776   -5.8830776   -4.7752766  0.065736776   -5.8830776    1.1078011   520538 
 3495000    1.0174491    -5.882881    -5.882881   -4.7748747   0.04740778    -5.882881    1.1080062   520538 
 3496000    1.0152689   -5.8802961   -5.8802961   -4.7746641  0.078317566   -5.8802961     1.105632   520538 
 3497000    1.0178022   -5.8815726   -5.8815726   -4.7731819  0.084537861   -5.8815726    1.1083907   520538 
 3498000    1.0173835   -5.8822587   -5.8822587   -4.7743239  0.058388774   -5.8822587    1.1079348   520538 
 3499000    1.0146708   -5.8789583   -5.8789583   -4.7739776  0.062526121   -5.8789583    1.1049806   520538 
 3500000    1.0166358   -5.8806349   -5.8806349   -4.7735144  0.071519706   -5.8806349    1.1071205   520538 
 3501000    1.0175546   -5.8815093   -5.8815093   -4.7733883  0.061115234   -5.8815093    1.1081211   520538 
 3502000    1.0165852   -5.8810042   -5.8810042   -4.7739388  0.048902281   -5.8810042    1.1070654   520538 
 3503000    1.0160886   -5.8813245   -5.8813245   -4.7747999  0.057453989   -5.8813245    1.1065246   520538 
 3504000    1.0155468   -5.8806295   -5.8806295   -4.7746949  0.088323158   -5.8806295    1.1059345   520538 
 3505000    1.0167736   -5.8814225   -5.8814225   -4.7741519  0.047985008   -5.8814225    1.1072706   520538 
 3506000    1.0155392   -5.8810423   -5.8810423   -4.7751159  0.068404068   -5.8810423    1.1059264   520538 
 3507000    1.0149738   -5.8809255   -5.8809255   -4.7756149  0.054077407   -5.8809255    1.1053106   520538 
 3508000    1.0151069   -5.8821503   -5.8821503   -4.7766947  0.049252359   -5.8821503    1.1054556   520538 
 3509000    1.0171128   -5.8837554   -5.8837554   -4.7761155  0.062644888   -5.8837554      1.10764   520538 
 3510000    1.0175106   -5.8838916   -5.8838916   -4.7758184  0.066943774   -5.8838916    1.1080732   520538 
 3511000    1.0171708   -5.8828585   -5.8828585   -4.7751554  0.075317015   -5.8828585    1.1077031   520538 
 3512000    1.0169524   -5.8841382   -5.8841382   -4.7766729  0.051352674   -5.8841382    1.1074653   520538 
 3513000    1.0156191   -5.8815864   -5.8815864    -4.775573   0.05873716   -5.8815864    1.1060133   520538 
 3514000    1.0159992   -5.8829796   -5.8829796   -4.7765524  0.064389017   -5.8829796    1.1064272   520538 
 3515000    1.0162294   -5.8829677   -5.8829677   -4.7762897  0.067042827   -5.8829677    1.1066779   520538 
 3516000    1.0153873    -5.881907    -5.881907   -4.7761461  0.071799608    -5.881907    1.1057609   520538 
 3517000    1.0148236   -5.8821448   -5.8821448   -4.7769977  0.062974217   -5.8821448    1.1051471   520538 
 3518000    1.0157618   -5.8833896   -5.8833896   -4.7772209  0.073306947   -5.8833896    1.1061687   520538 
 3519000    1.0160146   -5.8835862   -5.8835862   -4.7771422  0.043228663   -5.8835862     1.106444   520538 
 3520000    1.0163154   -5.8837557   -5.8837557   -4.7769841   0.03594333   -5.8837557    1.1067717   520538 
 3521000    1.0147423   -5.8818188   -5.8818188   -4.7767603  0.055230216   -5.8818188    1.1050585   520538 
 3522000    1.0158977   -5.8834247   -5.8834247    -4.777108  0.047246871   -5.8834247    1.1063167   520538 
 3523000    1.0158248   -5.8834099   -5.8834099   -4.7771725  0.084210879   -5.8834099    1.1062374   520538 
 3524000    1.0133325   -5.8804472   -5.8804472   -4.7769239  0.048827109   -5.8804472    1.1035232   520538 
 3525000     1.013882   -5.8816541   -5.8816541   -4.7775326  0.048604974   -5.8816541    1.1041216   520538 
 3526000    1.0147799   -5.8815981   -5.8815981   -4.7764987  0.068405796   -5.8815981    1.1050994   520538 
 3527000    1.0158358   -5.8826183   -5.8826183   -4.7763691  0.071220923   -5.8826183    1.1062493   520538 
 3528000    1.0162743   -5.8828239   -5.8828239   -4.7760971  0.075548998   -5.8828239    1.1067268   520538 
 3529000    1.0153848   -5.8826043   -5.8826043   -4.7768461  0.044302471   -5.8826043    1.1057582   520538 
 3530000    1.0150278   -5.8827395   -5.8827395   -4.7773701  0.059133742   -5.8827395    1.1053694   520538 
 3531000    1.0170796   -5.8856185   -5.8856185   -4.7780147  0.067250083   -5.8856185    1.1076038   520538 
 3532000    1.0157013   -5.8842939   -5.8842939   -4.7781911  0.053619365   -5.8842939    1.1061028   520538 
 3533000    1.0146212   -5.8833016   -5.8833016    -4.778375  0.063137794   -5.8833016    1.1049266   520538 
 3534000    1.0157859   -5.8839488   -5.8839488   -4.7777538  0.060723552   -5.8839488     1.106195   520538 
 3535000    1.0159668   -5.8835328   -5.8835328   -4.7771408  0.076745871   -5.8835328    1.1063919   520538 
 3536000    1.0163752    -5.884479    -5.884479   -4.7776423  0.067281194    -5.884479    1.1068367   520538 
 3537000    1.0149606   -5.8836643   -5.8836643   -4.7783681  0.058551227   -5.8836643    1.1052962   520538 
 3538000    1.0167293   -5.8854701   -5.8854701   -4.7782477  0.069925088   -5.8854701    1.1072224   520538 
 3539000     1.015764   -5.8850656   -5.8850656   -4.7788945  0.066070983   -5.8850656    1.1061711   520538 
 3540000    1.0161531   -5.8859091   -5.8859091   -4.7793143  0.047889614   -5.8859091    1.1065948   520538 
 3541000     1.015783   -5.8855991   -5.8855991   -4.7794073  0.076499776   -5.8855991    1.1061919   520538 
 3542000    1.0152563   -5.8851966   -5.8851966   -4.7795783  0.071112116   -5.8851966    1.1056183   520538 
 3543000    1.0159981   -5.8854935   -5.8854935   -4.7790674  0.074668536   -5.8854935    1.1064261   520538 
 3544000    1.0159316   -5.8849804   -5.8849804   -4.7786267   0.03832534   -5.8849804    1.1063537   520538 
 3545000    1.0137311   -5.8821882   -5.8821882   -4.7782309  0.047664495   -5.8821882    1.1039572   520538 
 3546000    1.0151052   -5.8846395   -5.8846395   -4.7791858  0.051916442   -5.8846395    1.1054537   520538 
 3547000    1.0148443   -5.8841735   -5.8841735    -4.779004  0.050885283   -5.8841735    1.1051695   520538 
 3548000    1.0159481   -5.8854784   -5.8854784   -4.7791068   0.05450749   -5.8854784    1.1063716   520538 
 3549000    1.0148866    -5.884901    -5.884901   -4.7796854  0.073673815    -5.884901    1.1052157   520538 
 3550000    1.0143927   -5.8831788   -5.8831788    -4.778501  0.065003221   -5.8831788    1.1046778   520538 
 3551000    1.0143115   -5.8830728   -5.8830728   -4.7784834  0.049309416   -5.8830728    1.1045894   520538 
 3552000    1.0160277   -5.8849577   -5.8849577   -4.7784994  0.065626936   -5.8849577    1.1064583   520538 
 3553000    1.0154656   -5.8845304   -5.8845304   -4.7786842  0.077123016   -5.8845304    1.1058462   520538 
 3554000    1.0164139   -5.8855247   -5.8855247   -4.7786457  0.044339552   -5.8855247    1.1068789   520538 
 3555000    1.0171262   -5.8872928   -5.8872928   -4.7796381  0.051512777   -5.8872928    1.1076546   520538 
 3556000     1.016533   -5.8872203   -5.8872203   -4.7802117  0.055615009   -5.8872203    1.1070086   520538 
 3557000    1.0168595   -5.8876563   -5.8876563   -4.7802922  0.078324845   -5.8876563    1.1073641   520538 
 3558000     1.014431   -5.8858489   -5.8858489   -4.7811295  0.083315549   -5.8858489    1.1047195   520538 
 3559000    1.0148036   -5.8861936   -5.8861936   -4.7810683   0.08500568   -5.8861936    1.1051253   520538 
 3560000     1.015996   -5.8876951   -5.8876951   -4.7812713  0.064902826   -5.8876951    1.1064238   520538 
 3561000    1.0150152   -5.8868101   -5.8868101   -4.7814544  0.053372261   -5.8868101    1.1053557   520538 
 3562000    1.0148282   -5.8860642   -5.8860642   -4.7809122  0.043841594   -5.8860642     1.105152   520538 
 3563000    1.0169438   -5.8889872   -5.8889872   -4.7815313  0.083034845   -5.8889872     1.107456   520538 
 3564000    1.0159211   -5.8874698   -5.8874698   -4.7811275  0.040689291   -5.8874698    1.1063422   520538 
 3565000    1.0145671   -5.8856765   -5.8856765   -4.7808087  0.069557785   -5.8856765    1.1048677   520538 
 3566000    1.0151536   -5.8860244   -5.8860244   -4.7805179  0.076067274   -5.8860244    1.1055064   520538 
 3567000    1.0161954   -5.8864891   -5.8864891   -4.7798481   0.05352297   -5.8864891    1.1066409   520538 
 3568000    1.0166097   -5.8874351   -5.8874351    -4.780343  0.038239325   -5.8874351    1.1070921   520538 
 3569000    1.0154152   -5.8863596   -5.8863596   -4.7805683  0.067635475   -5.8863596    1.1057913   520538 
 3570000    1.0154256   -5.8864969   -5.8864969   -4.7806943  0.072697048   -5.8864969    1.1058026   520538 
 3571000    1.0166824   -5.8874017   -5.8874017   -4.7802304  0.089062604   -5.8874017    1.1071713   520538 
 3572000    1.0164619   -5.8871161   -5.8871161    -4.780185  0.054749372   -5.8871161    1.1069311   520538 
 3573000    1.0149159   -5.8852243   -5.8852243   -4.7799768  0.066494511   -5.8852243    1.1052475   520538 
 3574000    1.0161632    -5.887169    -5.887169   -4.7805631  0.055402446    -5.887169    1.1066058   520538 
 3575000    1.0154461   -5.8861933   -5.8861933   -4.7803684  0.067726256   -5.8861933     1.105825   520538 
 3576000    1.0172143    -5.888556    -5.888556   -4.7808055  0.078050707    -5.888556    1.1077505   520538 
 3577000    1.0136183   -5.8849493   -5.8849493   -4.7811149  0.064843899   -5.8849493    1.1038344   520538 
 3578000    1.0150969   -5.8863757   -5.8863757    -4.780931  0.066986284   -5.8863757    1.1054447   520538 
 3579000    1.0168011   -5.8888631   -5.8888631   -4.7815626  0.067755486   -5.8888631    1.1073005   520538 
 3580000    1.0150137   -5.8872226   -5.8872226   -4.7818686  0.055474399   -5.8872226     1.105354   520538 
 3581000    1.0159541   -5.8884494   -5.8884494   -4.7820713  0.064920949   -5.8884494    1.1063782   520538 
 3582000    1.0159767   -5.8889879   -5.8889879   -4.7825851    0.0402417   -5.8889879    1.1064027   520538 
 3583000    1.0170616   -5.8906252   -5.8906252    -4.783041  0.068570646   -5.8906252    1.1075842   520538 
 3584000    1.0164849   -5.8894294   -5.8894294   -4.7824732  0.052994671   -5.8894294    1.1069562   520538 
 3585000    1.0143859   -5.8876781   -5.8876781   -4.7830078  0.087981268   -5.8876781    1.1046703   520538 
 3586000    1.0137795   -5.8861454   -5.8861454   -4.7821354  0.064944629   -5.8861454      1.10401   520538 
 3587000    1.0147112   -5.8873489   -5.8873489   -4.7823243   0.05947715   -5.8873489    1.1050246   520538 
 3588000    1.0144889    -5.887821    -5.887821   -4.7830385  0.053417237    -5.887821    1.1047825   520538 
 3589000    1.0143022   -5.8879142   -5.8879142   -4.7833349  0.058538075   -5.8879142    1.1045792   520538 
 3590000    1.0162327   -5.8901772   -5.8901772   -4.7834956  0.080760532   -5.8901772    1.1066816   520538 
 3591000    1.0179877   -5.8914024   -5.8914024   -4.7828097  0.043076063   -5.8914024    1.1085927   520538 
 3592000    1.0174449   -5.8911884   -5.8911884   -4.7831868  0.073581533   -5.8911884    1.1080017   520538 
 3593000    1.0164152   -5.8891879   -5.8891879   -4.7823076  0.063369412   -5.8891879    1.1068803   520538 
 3594000    1.0162429   -5.8902245   -5.8902245   -4.7835318  0.079418774   -5.8902245    1.1066927   520538 
 3595000    1.0142668   -5.8888546   -5.8888546   -4.7843139  0.043458464   -5.8888546    1.1045407   520538 
 3596000     1.014833   -5.8903675   -5.8903675   -4.7852103  0.074396397   -5.8903675    1.1051572   520538 
 3597000    1.0150177    -5.890076    -5.890076   -4.7847176  0.052677004    -5.890076    1.1053584   520538 
 3598000    1.0144399   -5.8888749   -5.8888749   -4.7841457  0.066129654   -5.8888749    1.1047292   520538 
 3599000    1.0160294   -5.8918856   -5.8918856   -4.7854255  0.052822222   -5.8918856    1.1064601   520538 
 3600000    1.0143545   -5.8898394   -5.8898394   -4.7852032    0.0690916   -5.8898394    1.1046361   520538 
 3601000    1.0145351    -5.889725    -5.889725   -4.7848922   0.06885154    -5.889725    1.1048329   520538 
 3602000    1.0151221   -5.8909091   -5.8909091   -4.7854371   0.05382889   -5.8909091    1.1054721   520538 
 3603000    1.0135944   -5.8889951   -5.8889951   -4.7851867   0.06994421   -5.8889951    1.1038084   520538 
 3604000    1.0159563   -5.8910429   -5.8910429   -4.7846624  0.061844663   -5.8910429    1.1063805   520538 
 3605000    1.0159799   -5.8912365   -5.8912365   -4.7848303  0.047652977   -5.8912365    1.1064062   520538 
 3606000    1.0159722   -5.8902502   -5.8902502   -4.7838524  0.061985944   -5.8902502    1.1063978   520538 
 3607000    1.0171972   -5.8902987   -5.8902987   -4.7825669  0.065895287   -5.8902987    1.1077319   520538 
 3608000    1.0149337   -5.8881503   -5.8881503   -4.7828834  0.053977917   -5.8881503     1.105267   520538 
 3609000    1.0147994   -5.8887274   -5.8887274   -4.7836067  0.059672308   -5.8887274    1.1051207   520538 
 3610000    1.0137129   -5.8871469   -5.8871469   -4.7832094  0.062582089   -5.8871469    1.1039375   520538 
 3611000    1.0160107   -5.8901887   -5.8901887   -4.7837489  0.046241076   -5.8901887    1.1064398   520538 
 3612000    1.0150178   -5.8892155   -5.8892155   -4.7838569  0.058456173   -5.8892155    1.1053586   520538 
 3613000    1.0152276   -5.8901515   -5.8901515   -4.7845645  0.045908373   -5.8901515     1.105587   520538 
 3614000    1.0151409   -5.8902848   -5.8902848   -4.7847923    0.0708047   -5.8902848    1.1054925   520538 
 3615000    1.0137382   -5.8888478   -5.8888478   -4.7848828  0.047055293   -5.8888478     1.103965   520538 
 3616000    1.0147082    -5.890203    -5.890203   -4.7851816  0.079127612    -5.890203    1.1050214   520538 
 3617000    1.0155575   -5.8908448   -5.8908448   -4.7848986  0.057717654   -5.8908448    1.1059462   520538 
 3618000     1.013775   -5.8889726   -5.8889726   -4.7849675  0.057906118   -5.8889726    1.1040051   520538 
 3619000    1.0133912   -5.8887136   -5.8887136   -4.7851264   0.07746079   -5.8887136    1.1035872   520538 
 3620000    1.0162085   -5.8909557   -5.8909557   -4.7843005  0.068589375   -5.8909557    1.1066552   520538 
 3621000    1.0145063   -5.8890602   -5.8890602   -4.7842586  0.075578717   -5.8890602    1.1048015   520538 
 3622000    1.0161565   -5.8911251   -5.8911251   -4.7845266   0.09137907   -5.8911251    1.1065985   520538 
 3623000    1.0162348   -5.8908553   -5.8908553   -4.7841715  0.073139159   -5.8908553    1.1066838   520538 
 3624000    1.0153203   -5.8899338   -5.8899338   -4.7842459  0.046267843   -5.8899338     1.105688   520538 
 3625000    1.0142049   -5.8901715   -5.8901715   -4.7856983   0.05597122   -5.8901715    1.1044732   520538 
 3626000    1.0146463   -5.8905836   -5.8905836   -4.7856297  0.042862244   -5.8905836    1.1049539   520538 
 3627000    1.0138166    -5.889491    -5.889491   -4.7854406  0.048329856    -5.889491    1.1040504   520538 
 3628000    1.0146327    -5.889994    -5.889994   -4.7850549  0.068129589    -5.889994    1.1049391   520538 
 3629000    1.0149241   -5.8902953   -5.8902953   -4.7850387   0.05450045   -5.8902953    1.1052565   520538 
 3630000    1.0167689   -5.8926541   -5.8926541   -4.7853886   0.06400165   -5.8926541    1.1072654   520538 
 3631000    1.0165668   -5.8927287   -5.8927287   -4.7856833  0.049265856   -5.8927287    1.1070454   520538 
 3632000    1.0158143   -5.8915502   -5.8915502   -4.7853243  0.048036943   -5.8915502     1.106226   520538 
 3633000    1.0145032   -5.8904928   -5.8904928   -4.7856946  0.069484801   -5.8904928    1.1047982   520538 
 3634000    1.0157967   -5.8919948   -5.8919948    -4.785788  0.048696678   -5.8919948    1.1062067   520538 
 3635000    1.0132304   -5.8892384   -5.8892384   -4.7858263  0.051756593   -5.8892384    1.1034121   520538 
 3636000    1.0131548   -5.8898171   -5.8898171   -4.7864874  0.064316457   -5.8898171    1.1033297   520538 
 3637000    1.0134084   -5.8905353   -5.8905353   -4.7869294   0.05497839   -5.8905353    1.1036059   520538 
 3638000    1.0127378   -5.8881304   -5.8881304   -4.7852548  0.068677255   -5.8881304    1.1028756   520538 
 3639000    1.0145037    -5.890239    -5.890239   -4.7854403   0.06736983    -5.890239    1.1047987   520538 
 3640000    1.0155899   -5.8924108   -5.8924108   -4.7864293  0.045254086   -5.8924108    1.1059815   520538 
 3641000       1.0164    -5.892952    -5.892952   -4.7860883  0.072590982    -5.892952    1.1068638   520538 
 3642000    1.0157918   -5.8924434   -5.8924434    -4.786242  0.092357817   -5.8924434    1.1062014   520538 
 3643000    1.0164322   -5.8925198   -5.8925198    -4.785621   0.06986376   -5.8925198    1.1068988   520538 
 3644000     1.018115   -5.8940105   -5.8940105   -4.7852791  0.083799208   -5.8940105    1.1087314   520538 
 3645000     1.017372   -5.8930325   -5.8930325   -4.7851103  0.046462635   -5.8930325    1.1079222   520538 
 3646000    1.0178063   -5.8928984   -5.8928984   -4.7845032  0.080447143   -5.8928984    1.1083953   520538 
 3647000    1.0149994   -5.8898295   -5.8898295    -4.784491  0.069543314   -5.8898295    1.1053385   520538 
 3648000    1.0156261   -5.8915574   -5.8915574   -4.7855365   0.10047581   -5.8915574     1.106021   520538 
 3649000    1.0173043   -5.8932459   -5.8932459   -4.7853973  0.060348361   -5.8932459    1.1078486   520538 
 3650000    1.0148677   -5.8910765   -5.8910765   -4.7858815  0.046737633   -5.8910765     1.105195   520538 
 3651000    1.0151822    -5.892494    -5.892494   -4.7869564  0.047909561    -5.892494    1.1055376   520538 
 3652000    1.0140896    -5.891207    -5.891207   -4.7868593  0.077726714    -5.891207    1.1043477   520538 
 3653000    1.0153789   -5.8922209   -5.8922209   -4.7864692  0.057759694   -5.8922209    1.1057518   520538 
 3654000    1.0158975   -5.8925036   -5.8925036   -4.7861871  0.065217041   -5.8925036    1.1063165   520538 
 3655000    1.0158438   -5.8921797   -5.8921797   -4.7859217  0.072524263   -5.8921797     1.106258   520538 
 3656000    1.0149427   -5.8927639   -5.8927639   -4.7874872  0.085016611   -5.8927639    1.1052768   520538 
 3657000    1.0159865   -5.8930002   -5.8930002   -4.7865868  0.047935643   -5.8930002    1.1064134   520538 
 3658000    1.0158786   -5.8928649   -5.8928649    -4.786569  0.069634613   -5.8928649     1.106296   520538 
 3659000    1.0152409    -5.891738    -5.891738   -4.7861365  0.067880656    -5.891738    1.1056015   520538 
 3660000    1.0163261   -5.8928208   -5.8928208   -4.7860375  0.060038272   -5.8928208    1.1067833   520538 
 3661000    1.0168418   -5.8938179   -5.8938179   -4.7864731  0.073743765   -5.8938179    1.1073448   520538 
 3662000    1.0159647    -5.892102    -5.892102   -4.7857123  0.080447212    -5.892102    1.1063897   520538 
 3663000     1.013905   -5.8893479   -5.8893479   -4.7852013  0.044182091   -5.8893479    1.1041466   520538 
 3664000     1.014047   -5.8899133   -5.8899133    -4.785612  0.064774626   -5.8899133    1.1043013   520538 
 3665000    1.0145063   -5.8907506   -5.8907506   -4.7859491  0.061277081   -5.8907506    1.1048015   520538 
 3666000    1.0138145    -5.889773    -5.889773   -4.7857248   0.05438477    -5.889773    1.1040482   520538 
 3667000    1.0153145   -5.8908711   -5.8908711   -4.7851895  0.065912264   -5.8908711    1.1056816   520538 
 3668000    1.0161289   -5.8918843   -5.8918843   -4.7853157  0.043971361   -5.8918843    1.1065685   520538 
 3669000    1.0154597   -5.8900976   -5.8900976   -4.7842578   0.06308302   -5.8900976    1.1058398   520538 
 3670000     1.015139   -5.8904025   -5.8904025    -4.784912   0.06200669   -5.8904025    1.1054905   520538 
 3671000    1.0155152   -5.8921174   -5.8921174   -4.7862173    0.0646532   -5.8921174    1.1059002   520538 
 3672000    1.0147433   -5.8904486   -5.8904486    -4.785389  0.036978288   -5.8904486    1.1050596   520538 
 3673000    1.0155957   -5.8907846   -5.8907846   -4.7847968  0.046576122   -5.8907846    1.1059878   520538 
 3674000    1.0125878   -5.8878966   -5.8878966   -4.7851843  0.068273016   -5.8878966    1.1027122   520538 
 3675000    1.0150107   -5.8892141   -5.8892141   -4.7838634   0.06787785   -5.8892141    1.1053507   520538 
 3676000    1.0146031    -5.890049    -5.890049   -4.7851421   0.07402404    -5.890049    1.1049069   520538 
 3677000    1.0139282   -5.8895524   -5.8895524   -4.7853804  0.060021971   -5.8895524    1.1041719   520538 
 3678000    1.0148001   -5.8896514   -5.8896514     -4.78453  0.046290511   -5.8896514    1.1051214   520538 
 3679000    1.0142767   -5.8894129   -5.8894129   -4.7848615  0.061263691   -5.8894129    1.1045514   520538 
 3680000     1.014453   -5.8901267   -5.8901267   -4.7853832  0.080730496   -5.8901267    1.1047435   520538 
 3681000    1.0136056   -5.8882335   -5.8882335   -4.7844129   0.05453372   -5.8882335    1.1038206   520538 
 3682000     1.014482   -5.8894089   -5.8894089   -4.7846339  0.053626376   -5.8894089     1.104775   520538 
 3683000    1.0158848   -5.8904311   -5.8904311   -4.7841284  0.062003477   -5.8904311    1.1063027   520538 
 3684000    1.0157185   -5.8905132   -5.8905132   -4.7843916  0.065990961   -5.8905132    1.1061216   520538 
 3685000    1.0157975   -5.8910319   -5.8910319   -4.7848243   0.06805369   -5.8910319    1.1062076   520538 
 3686000    1.0168627   -5.8923758   -5.8923758   -4.7850082  0.051425056   -5.8923758    1.1073676   520538 
 3687000    1.0153553   -5.8904863   -5.8904863   -4.7847603  0.074703693   -5.8904863    1.1057261   520538 
 3688000    1.0152056   -5.8903528   -5.8903528   -4.7847898  0.060258649   -5.8903528     1.105563   520538 
 3689000    1.0135695   -5.8893615   -5.8893615   -4.7855802  0.053813797   -5.8893615    1.1037813   520538 
 3690000    1.0170907   -5.8934793   -5.8934793   -4.7858634  0.058585075   -5.8934793    1.1076159   520538 
 3691000    1.0140997   -5.8905034   -5.8905034   -4.7861447  0.054357939   -5.8905034    1.1043587   520538 
 3692000    1.0144446   -5.8907747   -5.8907747   -4.7860404  0.095827045   -5.8907747    1.1047343   520538 
 3693000    1.0174927   -5.8951727   -5.8951727    -4.787119  0.062089896   -5.8951727    1.1080537   520538 
 3694000    1.0170218   -5.8944103   -5.8944103   -4.7868694  0.056255782   -5.8944103    1.1075409   520538 
 3695000    1.0137611   -5.8906947   -5.8906947   -4.7867047  0.057229927   -5.8906947      1.10399   520538 
 3696000    1.0145139   -5.8916675   -5.8916675   -4.7868578  0.042603916   -5.8916675    1.1048098   520538 
 3697000    1.0134144   -5.8903683   -5.8903683    -4.786756  0.054703679   -5.8903683    1.1036124   520538 
 3698000    1.0157842   -5.8925027   -5.8925027   -4.7863096  0.049302147   -5.8925027    1.1061931   520538 
 3699000    1.0147715   -5.8906986   -5.8906986   -4.7856083  0.066216033   -5.8906986    1.1050903   520538 
 3700000    1.0153024    -5.891104    -5.891104   -4.7854356  0.056784925    -5.891104    1.1056684   520538 
 3701000     1.015703   -5.8912971   -5.8912971   -4.7851924   0.04693052   -5.8912971    1.1061047   520538 
 3702000    1.0161771   -5.8921948   -5.8921948   -4.7855738  0.087174039   -5.8921948     1.106621   520538 
 3703000    1.0154892   -5.8920411   -5.8920411   -4.7861692  0.069860314   -5.8920411    1.1058719   520538 
 3704000    1.0142003   -5.8910527   -5.8910527   -4.7865845  0.066472016   -5.8910527    1.1044682   520538 
 3705000    1.0144059   -5.8916321   -5.8916321     -4.78694  0.074889031   -5.8916321    1.1046922   520538 
 3706000    1.0163398   -5.8937939   -5.8937939   -4.7869957  0.047856059   -5.8937939    1.1067981   520538 
 3707000    1.0158397   -5.8933359   -5.8933359   -4.7870823  0.051993291   -5.8933359    1.1062536   520538 
 3708000     1.016071   -5.8932262   -5.8932262   -4.7867207  0.079296931   -5.8932262    1.1065055   520538 
 3709000    1.0142967   -5.8905472   -5.8905472    -4.785974  0.069244602   -5.8905472    1.1045733   520538 
 3710000    1.0155023   -5.8923342   -5.8923342   -4.7864481  0.047264313   -5.8923342    1.1058861   520538 
 3711000    1.0152796   -5.8921202   -5.8921202   -4.7864766   0.04166333   -5.8921202    1.1056436   520538 
 3712000    1.0150806   -5.8910997   -5.8910997   -4.7856728  0.074630455   -5.8910997    1.1054269   520538 
 3713000    1.0134222   -5.8899723   -5.8899723   -4.7863513  0.053258155   -5.8899723    1.1036209   520538 
 3714000    1.0138648   -5.8906241   -5.8906241   -4.7865212  0.087174427   -5.8906241    1.1041029   520538 
 3715000    1.0145747    -5.891738    -5.891738    -4.786862   0.06102208    -5.891738     1.104876   520538 
 3716000    1.0123193   -5.8893653   -5.8893653   -4.7869455   0.05847027   -5.8893653    1.1024198   520538 
 3717000    1.0142776   -5.8907542   -5.8907542   -4.7862017  0.060376422   -5.8907542    1.1045525   520538 
 3718000     1.015736   -5.8916726   -5.8916726    -4.785532  0.067757238   -5.8916726    1.1061406   520538 
 3719000    1.0183276   -5.8944558   -5.8944558   -4.7854929  0.052566474   -5.8944558    1.1089629   520538 
 3720000    1.0154152   -5.8921831   -5.8921831   -4.7863918  0.059064366   -5.8921831    1.1057913   520538 
 3721000    1.0159039    -5.892693    -5.892693   -4.7863696  0.067242657    -5.892693    1.1063235   520538 
 3722000    1.0145692   -5.8927625   -5.8927625   -4.7878925  0.061000838   -5.8927625      1.10487   520538 
 3723000    1.0135549   -5.8912914   -5.8912914   -4.7875261  0.052514504   -5.8912914    1.1037654   520538 
 3724000    1.0152821   -5.8931668   -5.8931668   -4.7875204  0.076204263   -5.8931668    1.1056464   520538 
 3725000    1.0109072   -5.8884557   -5.8884557   -4.7875736  0.044624976   -5.8884557     1.100882   520538 
 3726000    1.0138122   -5.8915834   -5.8915834   -4.7875377  0.049181334   -5.8915834    1.1040456   520538 
 3727000    1.0147955   -5.8927185   -5.8927185   -4.7876021  0.049755761   -5.8927185    1.1051164   520538 
 3728000    1.0153858   -5.8919632   -5.8919632   -4.7862039  0.042367813   -5.8919632    1.1057593   520538 
 3729000    1.0149831   -5.8914659   -5.8914659   -4.7861452  0.065991871   -5.8914659    1.1053207   520538 
 3730000    1.0144711   -5.8919694   -5.8919694   -4.7872063  0.057478709   -5.8919694    1.1047631   520538 
 3731000    1.0141036   -5.8916797   -5.8916797   -4.7873167  0.060377235   -5.8916797     1.104363   520538 
 3732000    1.0151653   -5.8925746   -5.8925746   -4.7870556  0.044918408   -5.8925746    1.1055191   520538 
 3733000    1.0156078   -5.8929074   -5.8929074   -4.7869065  0.058576449   -5.8929074     1.106001   520538 
 3734000    1.0145085   -5.8916373   -5.8916373   -4.7868335  0.035982103   -5.8916373    1.1048038   520538 
 3735000    1.0124115   -5.8895848   -5.8895848   -4.7870645  0.047130907   -5.8895848    1.1025203   520538 
 3736000    1.0145752   -5.8913972   -5.8913972   -4.7865207  0.058211469   -5.8913972    1.1048765   520538 
 3737000    1.0120516   -5.8895653   -5.8895653   -4.7874369  0.046442691   -5.8895653    1.1021284   520538 
 3738000    1.0150859   -5.8920666   -5.8920666   -4.7866339  0.056139499   -5.8920666    1.1054327   520538 
 3739000    1.0161505   -5.8939871   -5.8939871   -4.7873951  0.068900578   -5.8939871     1.106592   520538 
 3740000    1.0150062    -5.892667    -5.892667   -4.7873211  0.082050434    -5.892667    1.1053459   520538 
 3741000    1.0134545   -5.8905167   -5.8905167   -4.7868607  0.057242473   -5.8905167     1.103656   520538 
 3742000    1.0138684   -5.8919025   -5.8919025   -4.7877956  0.062044453   -5.8919025    1.1041069   520538 
 3743000    1.0147102   -5.8920083   -5.8920083   -4.7869848  0.038427912   -5.8920083    1.1050235   520538 
 3744000    1.0142235   -5.8911793   -5.8911793   -4.7866858  0.060129513   -5.8911793    1.1044935   520538 
 3745000    1.0136295   -5.8908102   -5.8908102   -4.7869635  0.046044707   -5.8908102    1.1038467   520538 
 3746000    1.0159891   -5.8929928   -5.8929928   -4.7865765  0.038509681   -5.8929928    1.1064162   520538 
 3747000    1.0148182   -5.8922762   -5.8922762   -4.7871351  0.069735989   -5.8922762    1.1051411   520538 
 3748000     1.012959   -5.8905725   -5.8905725    -4.787456  0.065626832   -5.8905725    1.1031165   520538 
 3749000    1.0151803    -5.892037    -5.892037   -4.7865015  0.056512048    -5.892037    1.1055355   520538 
 3750000     1.014767   -5.8927503   -5.8927503   -4.7876649  0.073226728   -5.8927503    1.1050854   520538 
 3751000    1.0162276   -5.8934828   -5.8934828   -4.7868068   0.05986841   -5.8934828     1.106676   520538 
 3752000    1.0162771   -5.8935455   -5.8935455   -4.7868157  0.064388264   -5.8935455    1.1067298   520538 
 3753000    1.0162153   -5.8936427   -5.8936427   -4.7869801  0.073958239   -5.8936427    1.1066626   520538 
 3754000    1.0160568   -5.8945938   -5.8945938   -4.7881038  0.058075605   -5.8945938      1.10649   520538 
 3755000    1.0169037   -5.8959061   -5.8959061   -4.7884939  0.058254507   -5.8959061    1.1074123   520538 
 3756000     1.014979   -5.8942322   -5.8942322    -4.788916  0.059941227   -5.8942322    1.1053162   520538 
 3757000       1.0156   -5.8951385   -5.8951385    -4.789146  0.050374263   -5.8951385    1.1059925   520538 
 3758000    1.0150191   -5.8942104   -5.8942104   -4.7888505  0.075398676   -5.8942104    1.1053599   520538 
 3759000    1.0150256   -5.8938306   -5.8938306   -4.7884636  0.076778119   -5.8938306     1.105367   520538 
 3760000    1.0162445   -5.8954323   -5.8954323   -4.7887379   0.06750302   -5.8954323    1.1066943   520538 
 3761000    1.0145227   -5.8933357   -5.8933357   -4.7885164  0.045618908   -5.8933357    1.1048193   520538 
 3762000     1.015037   -5.8940045   -5.8940045   -4.7886251  0.066025142   -5.8940045    1.1053794   520538 
 3763000    1.0135397   -5.8928243   -5.8928243   -4.7890754  0.048015639   -5.8928243    1.1037489   520538 
 3764000    1.0160325   -5.8956272   -5.8956272   -4.7891637  0.052927843   -5.8956272    1.1064635   520538 
 3765000    1.0163348   -5.8946294   -5.8946294   -4.7878367   0.04452441   -5.8946294    1.1067928   520538 
 3766000    1.0152802   -5.8943144   -5.8943144   -4.7886702  0.062415309   -5.8943144    1.1056442   520538 
 3767000    1.0152851   -5.8933108   -5.8933108   -4.7876612  0.074972131   -5.8933108    1.1056496   520538 
 3768000     1.013832    -5.891942    -5.891942   -4.7878748  0.072433382    -5.891942    1.1040672   520538 
 3769000    1.0153007   -5.8931151   -5.8931151   -4.7874486  0.074225255   -5.8931151    1.1056665   520538 
 3770000     1.014452   -5.8922641   -5.8922641   -4.7875218  0.062448376   -5.8922641    1.1047424   520538 
 3771000     1.014132   -5.8919715   -5.8919715   -4.7875776  0.058662981   -5.8919715    1.1043939   520538 
 3772000    1.0149043   -5.8928752   -5.8928752   -4.7876402  0.072092187   -5.8928752    1.1052349   520538 
 3773000    1.0151406   -5.8932822   -5.8932822     -4.78779  0.051829994   -5.8932822    1.1054922   520538 
 3774000    1.0151938   -5.8941186   -5.8941186   -4.7885683  0.099581045   -5.8941186    1.1055502   520538 
 3775000    1.0152249   -5.8944206   -5.8944206   -4.7888366  0.046229782   -5.8944206     1.105584   520538 
 3776000     1.015336    -5.894055    -5.894055   -4.7883499  0.069381215    -5.894055     1.105705   520538 
 3777000    1.0145249   -5.8937694   -5.8937694   -4.7889476  0.050484178   -5.8937694    1.1048217   520538 
 3778000    1.0129718   -5.8912869   -5.8912869   -4.7881565  0.059431024   -5.8912869    1.1031304   520538 
 3779000    1.0155996    -5.895053    -5.895053   -4.7890609  0.058379684    -5.895053    1.1059921   520538 
 3780000    1.0151323   -5.8938735   -5.8938735   -4.7883903  0.040868603   -5.8938735    1.1054832   520538 
 3781000    1.0145784   -5.8935361   -5.8935361   -4.7886561   0.06500146   -5.8935361      1.10488   520538 
 3782000    1.0162363   -5.8953725   -5.8953725    -4.788687  0.072140789   -5.8953725    1.1066855   520538 
 3783000    1.0137758   -5.8930337   -5.8930337   -4.7890276  0.081551052   -5.8930337     1.104006   520538 
 3784000    1.0143585   -5.8929781   -5.8929781   -4.7883376  0.063461989   -5.8929781    1.1046405   520538 
 3785000    1.0138187   -5.8918828   -5.8918828     -4.78783  0.066329935   -5.8918828    1.1040527   520538 
 3786000    1.0142112   -5.8926044   -5.8926044   -4.7881243  0.073763248   -5.8926044    1.1044801   520538 
 3787000    1.0150724   -5.8939671   -5.8939671    -4.788549  0.043307833   -5.8939671     1.105418   520538 
 3788000     1.015268   -5.8934525   -5.8934525   -4.7878215  0.075137003   -5.8934525     1.105631   520538 
 3789000    1.0147138   -5.8930039   -5.8930039   -4.7879764   0.05566943   -5.8930039    1.1050275   520538 
 3790000     1.016669     -5.89611     -5.89611   -4.7889533  0.053372458     -5.89611    1.1071567   520538 
 3791000    1.0143729   -5.8942034   -5.8942034   -4.7895472  0.075306657   -5.8942034    1.1046562   520538 
 3792000    1.0125636   -5.8923044   -5.8923044   -4.7896185  0.082563243   -5.8923044    1.1026858   520538 
 3793000    1.0149767   -5.8957954   -5.8957954   -4.7904816  0.051004947   -5.8957954    1.1053138   520538 
 3794000    1.0129681   -5.8942993   -5.8942993    -4.791173  0.079374062   -5.8942993    1.1031263   520538 
 3795000    1.0127702    -5.894796    -5.894796   -4.7918851  0.046863106    -5.894796    1.1029109   520538 
 3796000    1.0133102   -5.8948657   -5.8948657   -4.7913668  0.044620993   -5.8948657    1.1034989   520538 
 3797000     1.012597   -5.8941721   -5.8941721   -4.7914499  0.068232299   -5.8941721    1.1027222   520538 
 3798000     1.014102   -5.8952092   -5.8952092    -4.790848  0.076375541   -5.8952092    1.1043612   520538 
 3799000    1.0130026    -5.894695    -5.894695    -4.791531  0.077237355    -5.894695     1.103164   520538 
 3800000    1.0108113   -5.8927179   -5.8927179   -4.7919402   0.06838301   -5.8927179    1.1007777   520538 
 3801000    1.0131008   -5.8949719   -5.8949719   -4.7917011  0.065180044   -5.8949719    1.1032708   520538 
 3802000    1.0135784   -5.8950581   -5.8950581   -4.7912671  0.060860838   -5.8950581     1.103791   520538 
 3803000    1.0160224   -5.8979563   -5.8979563   -4.7915037  0.065797974   -5.8979563    1.1064525   520538 
 3804000    1.0155271   -5.8975882   -5.8975882   -4.7916751  0.068219441   -5.8975882    1.1059131   520538 
 3805000    1.0167468   -5.8983275   -5.8983275    -4.791086  0.082850593   -5.8983275    1.1072415   520538 
 3806000    1.0131985    -5.894608    -5.894608   -4.7912307  0.078666907    -5.894608    1.1033773   520538 
 3807000    1.0140134   -5.8954995   -5.8954995   -4.7912349  0.067931223   -5.8954995    1.1042647   520538 
 3808000    1.0154165   -5.8966437   -5.8966437    -4.790851  0.033567243   -5.8966437    1.1057927   520538 
 3809000    1.0139941   -5.8948573   -5.8948573   -4.7906137  0.051128558   -5.8948573    1.1042436   520538 
 3810000    1.0139081   -5.8940185   -5.8940185   -4.7898685  0.068976706   -5.8940185      1.10415   520538 
 3811000    1.0124227   -5.8919526   -5.8919526   -4.7894201   0.04051973   -5.8919526    1.1025325   520538 
 3812000    1.0135193   -5.8935733   -5.8935733   -4.7898466  0.047464849   -5.8935733    1.1037266   520538 
 3813000    1.0121259   -5.8920908   -5.8920908   -4.7898816  0.071132493   -5.8920908    1.1022092   520538 
 3814000    1.0141032   -5.8942838   -5.8942838   -4.7899213  0.062470567   -5.8942838    1.1043625   520538 
 3815000    1.0135292   -5.8936013   -5.8936013   -4.7898639  0.052626098   -5.8936013    1.1037374   520538 
 3816000    1.0140267   -5.8943227   -5.8943227   -4.7900435  0.049921712   -5.8943227    1.1042792   520538 
 3817000    1.0142225    -5.894377    -5.894377   -4.7898846  0.081296205    -5.894377    1.1044925   520538 
 3818000    1.0143936   -5.8954377   -5.8954377   -4.7907589  0.063034613   -5.8954377    1.1046788   520538 
 3819000    1.0127848   -5.8938597   -5.8938597   -4.7909329  0.071547186   -5.8938597    1.1029268   520538 
 3820000     1.014962   -5.8959398   -5.8959398    -4.790642  0.059822767   -5.8959398    1.1052978   520538 
 3821000    1.0124955   -5.8941004   -5.8941004   -4.7914888  0.044560749   -5.8941004    1.1026117   520538 
 3822000    1.0131933   -5.8955529   -5.8955529   -4.7921814  0.060236347   -5.8955529    1.1033716   520538 
 3823000    1.0120937   -5.8939246   -5.8939246   -4.7917505  0.060915958   -5.8939246    1.1021742   520538 
 3824000    1.0143487    -5.896637    -5.896637   -4.7920072  0.046036601    -5.896637    1.1046298   520538 
 3825000    1.0161599   -5.8977053   -5.8977053   -4.7911031  0.056375871   -5.8977053    1.1066023   520538 
 3826000    1.0145296   -5.8956097   -5.8956097   -4.7907829  0.043607872   -5.8956097    1.1048268   520538 
 3827000     1.012101   -5.8929414   -5.8929414   -4.7907593  0.052869674   -5.8929414    1.1021821   520538 
 3828000     1.013971    -5.894643    -5.894643   -4.7904245  0.054486367    -5.894643    1.1042186   520538 
 3829000    1.0155138   -5.8960687   -5.8960687   -4.7901701  0.056494428   -5.8960687    1.1058986   520538 
 3830000    1.0152347   -5.8959808   -5.8959808    -4.790386  0.051063608   -5.8959808    1.1055948   520538 
 3831000    1.0136187    -5.894396    -5.894396   -4.7905611  0.061090762    -5.894396    1.1038349   520538 
 3832000    1.0159354   -5.8971352   -5.8971352   -4.7907774  0.058298007   -5.8971352    1.1063578   520538 
 3833000    1.0126958   -5.8935278   -5.8935278   -4.7906979  0.065299339   -5.8935278    1.1028299   520538 
 3834000    1.0131554   -5.8944889   -5.8944889   -4.7911585  0.053625359   -5.8944889    1.1033304   520538 
 3835000    1.0138388    -5.895505    -5.895505   -4.7914303  0.066610774    -5.895505    1.1040746   520538 
 3836000    1.0130765   -5.8959232   -5.8959232   -4.7926788  0.054511125   -5.8959232    1.1032444   520538 
 3837000    1.0139607   -5.8970173   -5.8970173     -4.79281  0.066857541   -5.8970173    1.1042073   520538 
 3838000    1.0125556   -5.8946224   -5.8946224   -4.7919452  0.064202569   -5.8946224    1.1026772   520538 
 3839000    1.0121093    -5.894187    -5.894187   -4.7919958  0.039797538    -5.894187    1.1021911   520538 
 3840000    1.0133555   -5.8952638   -5.8952638   -4.7917156  0.053398886   -5.8952638    1.1035482   520538 
 3841000    1.0147486   -5.8967326   -5.8967326   -4.7916672  0.082536342   -5.8967326    1.1050654   520538 
 3842000    1.0143424   -5.8970341   -5.8970341   -4.7924111  0.074292541   -5.8970341     1.104623   520538 
 3843000    1.0130366   -5.8960808   -5.8960808   -4.7928799  0.051670205   -5.8960808    1.1032009   520538 
 3844000    1.0125388   -5.8947337   -5.8947337   -4.7920748   0.05650806   -5.8947337    1.1026588   520538 
 3845000    1.0139149   -5.8959585   -5.8959585    -4.791801  0.071853964   -5.8959585    1.1041575   520538 
 3846000    1.0161386   -5.8968072   -5.8968072   -4.7902281  0.055367848   -5.8968072    1.1065791   520538 
 3847000    1.0150561   -5.8959997   -5.8959997   -4.7905995  0.049735706   -5.8959997    1.1054002   520538 
 3848000    1.0150927   -5.8961821   -5.8961821    -4.790742  0.062054218   -5.8961821    1.1054401   520538 
 3849000    1.0144189    -5.896018    -5.896018   -4.7913117  0.076353865    -5.896018    1.1047063   520538 
 3850000    1.0154145   -5.8969456   -5.8969456   -4.7911551  0.062397919   -5.8969456    1.1057906   520538 
 3851000    1.0137042   -5.8962004   -5.8962004   -4.7922725   0.04900837   -5.8962004     1.103928   520538 
 3852000    1.0127656   -5.8965706   -5.8965706   -4.7936647  0.045725464   -5.8965706    1.1029059   520538 
 3853000    1.0138655   -5.8967173   -5.8967173   -4.7926136  0.056666998   -5.8967173    1.1041037   520538 
 3854000    1.0136928   -5.8966034   -5.8966034   -4.7926879  0.063759315   -5.8966034    1.1039156   520538 
 3855000    1.0151553   -5.8984693   -5.8984693    -4.792961  0.049801243   -5.8984693    1.1055083   520538 
 3856000    1.0135668   -5.8966525   -5.8966525   -4.7928741  0.057957892   -5.8966525    1.1037783   520538 
 3857000    1.0143108   -5.8974966   -5.8974966    -4.792908    0.0446599   -5.8974966    1.1045886   520538 
 3858000     1.013507   -5.8963857   -5.8963857   -4.7926725  0.035675734   -5.8963857    1.1037132   520538 
 3859000    1.0127096   -5.8957308   -5.8957308   -4.7928859  0.055790252   -5.8957308    1.1028449   520538 
 3860000    1.0130037   -5.8959612   -5.8959612   -4.7927961   0.06002467   -5.8959612    1.1031652   520538 
 3861000    1.0126508   -5.8959648   -5.8959648   -4.7931839   0.07165126   -5.8959648    1.1027808   520538 
 3862000    1.0140748   -5.8965661   -5.8965661   -4.7922345  0.059164001   -5.8965661    1.1043316   520538 
 3863000    1.0130097   -5.8950207   -5.8950207    -4.791849  0.065218508   -5.8950207    1.1031717   520538 
 3864000    1.0137384   -5.8968823   -5.8968823   -4.7929171  0.047746724   -5.8968823    1.1039652   520538 
 3865000    1.0133344    -5.896089    -5.896089   -4.7925637  0.067691846    -5.896089    1.1035253   520538 
 3866000    1.0121323    -5.895391    -5.895391   -4.7931748  0.055854743    -5.895391    1.1022162   520538 
 3867000    1.0121401   -5.8946725   -5.8946725   -4.7924478  0.067906345   -5.8946725    1.1022247   520538 
 3868000    1.0109237   -5.8933699   -5.8933699   -4.7924699   0.06337161   -5.8933699       1.1009   520538 
 3869000    1.0127993   -5.8944946   -5.8944946   -4.7915521  0.057274305   -5.8944946    1.1029425   520538 
 3870000    1.0117662   -5.8933955   -5.8933955   -4.7915781  0.053411837   -5.8933955    1.1018175   520538 
 3871000    1.0140752   -5.8960408   -5.8960408   -4.7917087  0.070558193   -5.8960408     1.104332   520538 
 3872000     1.013888   -5.8956303   -5.8956303   -4.7915021  0.061797724   -5.8956303    1.1041282   520538 
 3873000    1.0134106    -5.895289    -5.895289   -4.7916807   0.04799153    -5.895289    1.1036083   520538 
 3874000    1.0144186   -5.8974299   -5.8974299    -4.792724   0.04990293   -5.8974299    1.1047059   520538 
 3875000    1.0145661   -5.8980724   -5.8980724   -4.7932058  0.045594831   -5.8980724    1.1048666   520538 
 3876000    1.0132115   -5.8956288   -5.8956288   -4.7922373  0.054246931   -5.8956288    1.1033915   520538 
 3877000    1.0137959   -5.8962983   -5.8962983   -4.7922704  0.033511165   -5.8962983    1.1040279   520538 
 3878000    1.0126774   -5.8953474   -5.8953474   -4.7925376  0.087431948   -5.8953474    1.1028098   520538 
 3879000    1.0133489    -5.895591    -5.895591   -4.7920499  0.064818279    -5.895591    1.1035411   520538 
 3880000    1.0139332   -5.8971521   -5.8971521   -4.7929747  0.059227142   -5.8971521    1.1041774   520538 
 3881000    1.0142875   -5.8970507   -5.8970507   -4.7924875  0.069298192   -5.8970507    1.1045632   520538 
 3882000    1.0145152   -5.8972853   -5.8972853   -4.7924741  0.046750355   -5.8972853    1.1048112   520538 
 3883000    1.0155842   -5.8985638   -5.8985638   -4.7925885  0.071522862   -5.8985638    1.1059753   520538 
 3884000    1.0128607   -5.8964104   -5.8964104    -4.793401  0.064327716   -5.8964104    1.1030094   520538 
 3885000    1.0125449    -5.896948    -5.896948   -4.7942825  0.072121126    -5.896948    1.1026655   520538 
 3886000     1.013505   -5.8978022   -5.8978022   -4.7940911  0.049863386   -5.8978022    1.1037111   520538 
 3887000    1.0128621   -5.8968191   -5.8968191   -4.7938082  0.066747049   -5.8968191    1.1030109   520538 
 3888000    1.0124062   -5.8956964   -5.8956964    -4.793182  0.039890042   -5.8956964    1.1025145   520538 
 3889000    1.0107318   -5.8936414   -5.8936414   -4.7929504  0.060159889   -5.8936414     1.100691   520538 
 3890000    1.0125832   -5.8955197   -5.8955197   -4.7928125  0.060892151   -5.8955197    1.1027072   520538 
 3891000     1.012308   -5.8953818   -5.8953818   -4.7929743  0.071659773   -5.8953818    1.1024075   520538 
 3892000    1.0145022   -5.8967204   -5.8967204   -4.7919234  0.061721146   -5.8967204    1.1047971   520538 
 3893000    1.0145006   -5.8970046   -5.8970046   -4.7922093  0.052631607   -5.8970046    1.1047953   520538 
 3894000    1.0132983   -5.8959554   -5.8959554   -4.7924694  0.056070817   -5.8959554     1.103486   520538 
 3895000    1.0136084   -5.8966847   -5.8966847    -4.792861  0.046087428   -5.8966847    1.1038237   520538 
 3896000    1.0123524   -5.8961276   -5.8961276   -4.7936717  0.054024867   -5.8961276    1.1024559   520538 
 3897000    1.0129808   -5.8976044   -5.8976044   -4.7944643  0.069766386   -5.8976044    1.1031402   520538 
 3898000    1.0142881   -5.8983357   -5.8983357   -4.7937719  0.058703167   -5.8983357    1.1045638   520538 
 3899000    1.0137463   -5.8966329   -5.8966329   -4.7926591  0.063536275   -5.8966329    1.1039738   520538 
 3900000    1.0148824   -5.8984489   -5.8984489   -4.7932378  0.064938085   -5.8984489    1.1052111   520538 
 3901000    1.0163786    -5.899747    -5.899747   -4.7929066   0.08014556    -5.899747    1.1068404   520538 
 3902000    1.0133744   -5.8967159   -5.8967159   -4.7931471  0.069408191   -5.8967159    1.1035688   520538 
 3903000    1.0148845    -5.898759    -5.898759   -4.7935456  0.059942862    -5.898759    1.1052134   520538 
 3904000    1.0153391   -5.8994457   -5.8994457   -4.7937373   0.08608021   -5.8994457    1.1057084   520538 
 3905000    1.0145015   -5.8977374   -5.8977374   -4.7929411  0.072917807   -5.8977374    1.1047963   520538 
 3906000    1.0166798   -5.8991648   -5.8991648   -4.7919964  0.052537177   -5.8991648    1.1071684   520538 
 3907000    1.0144038   -5.8965454   -5.8965454   -4.7918556   0.06777167   -5.8965454    1.1046899   520538 
 3908000    1.0142404   -5.8964353   -5.8964353   -4.7919234  0.068371039   -5.8964353    1.1045119   520538 
 3909000    1.0146982    -5.897052    -5.897052   -4.7920415  0.066724327    -5.897052    1.1050105   520538 
 3910000    1.0152789   -5.8990529   -5.8990529     -4.79341  0.083560741   -5.8990529    1.1056428   520538 
 3911000    1.0148609   -5.8988401   -5.8988401   -4.7936525  0.057551985   -5.8988401    1.1051876   520538 
 3912000    1.0153381   -5.9001243   -5.9001243    -4.794417  0.040700548   -5.9001243    1.1057073   520538 
 3913000     1.013674   -5.8985507   -5.8985507   -4.7946556  0.068484293   -5.8985507    1.1038951   520538 
 3914000    1.0103047   -5.8951305   -5.8951305   -4.7949045  0.066291343   -5.8951305     1.100226   520538 
 3915000    1.0134228   -5.8985195   -5.8985195   -4.7948979   0.06761029   -5.8985195    1.1036216   520538 
 3916000    1.0150442   -5.9000638   -5.9000638   -4.7946765  0.076303831   -5.9000638    1.1053873   520538 
 3917000    1.0152969   -5.9003903   -5.9003903   -4.7947278  0.081109266   -5.9003903    1.1056624   520538 
 3918000    1.0133736   -5.8974333   -5.8974333   -4.7938654  0.049818508   -5.8974333     1.103568   520538 
 3919000    1.0146225   -5.8988864   -5.8988864   -4.7939584  0.063592951   -5.8988864     1.104928   520538 
 3920000    1.0141397   -5.8993641   -5.8993641   -4.7949618  0.065743417   -5.8993641    1.1044023   520538 
 3921000    1.0130593   -5.8977911   -5.8977911   -4.7945654  0.058929494   -5.8977911    1.1032257   520538 
 3922000    1.0125755   -5.8972761   -5.8972761   -4.7945772  0.068876652   -5.8972761    1.1026989   520538 
 3923000     1.015979   -5.8996926   -5.8996926   -4.7932873  0.055462985   -5.8996926    1.1064052   520538 
 3924000    1.0147281   -5.8981134   -5.8981134   -4.7930703  0.068815185   -5.8981134    1.1050431   520538 
 3925000    1.0152568   -5.8991409   -5.8991409   -4.7935222  0.061886073   -5.8991409    1.1056187   520538 
 3926000    1.0158202   -5.9005681   -5.9005681   -4.7943358  0.067962939   -5.9005681    1.1062323   520538 
 3927000    1.0132755   -5.8975937   -5.8975937   -4.7941326  0.055996503   -5.8975937    1.1034611   520538 
 3928000    1.0130769   -5.8969019   -5.8969019   -4.7936571  0.062897098   -5.8969019    1.1032448   520538 
 3929000    1.0155065   -5.9000308   -5.9000308   -4.7941401  0.061531094   -5.9000308    1.1058907   520538 
 3930000     1.014317   -5.8991064   -5.8991064    -4.794511  0.067333664   -5.8991064    1.1045953   520538 
 3931000    1.0139741   -5.8991648   -5.8991648   -4.7949428  0.062115628   -5.8991648    1.1042219   520538 
 3932000    1.0126816   -5.8986215   -5.8986215    -4.795807  0.061837211   -5.8986215    1.1028144   520538 
 3933000    1.0110914   -5.8970446   -5.8970446    -4.795962  0.054372233   -5.8970446    1.1010826   520538 
 3934000    1.0136996   -5.8996998   -5.8996998   -4.7957768  0.046945007   -5.8996998     1.103923   520538 
 3935000    1.0126762   -5.8983946   -5.8983946   -4.7955861  0.082017002   -5.8983946    1.1028085   520538 
 3936000    1.0124354   -5.8973148   -5.8973148   -4.7947685  0.056070629   -5.8973148    1.1025462   520538 
 3937000    1.0157958   -5.9008819   -5.9008819   -4.7946762  0.050957994   -5.9008819    1.1062058   520538 
 3938000    1.0123186   -5.8977853   -5.8977853   -4.7953662  0.047332402   -5.8977853    1.1024191   520538 
 3939000    1.0120053   -5.8972458   -5.8972458   -4.7951678  0.058589303   -5.8972458    1.1020779   520538 
 3940000    1.0150403    -5.900927    -5.900927    -4.795544  0.046788171    -5.900927    1.1053831   520538 
 3941000    1.0126528   -5.8980756   -5.8980756   -4.7952926  0.056304891   -5.8980756     1.102783   520538 
 3942000    1.0144141   -5.8995811   -5.8995811   -4.7948801  0.052452451   -5.8995811    1.1047011   520538 
 3943000    1.0143736   -5.8993018   -5.8993018   -4.7946448  0.061379249   -5.8993018    1.1046569   520538 
 3944000    1.0135944   -5.8997138   -5.8997138   -4.7959054  0.060962644   -5.8997138    1.1038084   520538 
 3945000    1.0118967   -5.8974984   -5.8974984   -4.7955388  0.050270564   -5.8974984    1.1019597   520538 
 3946000    1.0130635   -5.8994425   -5.8994425   -4.7962122  0.046177876   -5.8994425    1.1032303   520538 
 3947000    1.0115487   -5.8972039   -5.8972039   -4.7956233  0.041967241   -5.8972039    1.1015807   520538 
 3948000    1.0128929   -5.8983051   -5.8983051   -4.7952605  0.057686251   -5.8983051    1.1030445   520538 
 3949000    1.0130382    -5.898522    -5.898522   -4.7953193   0.06550477    -5.898522    1.1032028   520538 
 3950000    1.0137252   -5.8992778   -5.8992778    -4.795327  0.043052576   -5.8992778    1.1039509   520538 
 3951000    1.0129957   -5.8984923   -5.8984923   -4.7953359  0.082715544   -5.8984923    1.1031564   520538 
 3952000    1.0148392   -5.8998619   -5.8998619   -4.7946978   0.06237804   -5.8998619    1.1051641   520538 
 3953000    1.0125884   -5.8971529   -5.8971529     -4.79444  0.058092202   -5.8971529    1.1027129   520538 
 3954000    1.0143295   -5.8996632   -5.8996632   -4.7950541  0.044991793   -5.8996632     1.104609   520538 
 3955000    1.0153017   -5.9002142   -5.9002142   -4.7945465   0.05544058   -5.9002142    1.1056677   520538 
 3956000    1.0121395   -5.8976858   -5.8976858   -4.7954617  0.056961885   -5.8976858     1.102224   520538 
 3957000    1.0126477   -5.8970043   -5.8970043   -4.7942269  0.055913835   -5.8970043    1.1027775   520538 
 3958000    1.0144059   -5.8995651   -5.8995651    -4.794873  0.060017752   -5.8995651    1.1046921   520538 
 3959000    1.0124136   -5.8977809   -5.8977809   -4.7952584  0.068821723   -5.8977809    1.1025225   520538 
 3960000    1.0134584   -5.8990699   -5.8990699   -4.7954096  0.043809052   -5.8990699    1.1036603   520538 
 3961000    1.0134475    -5.898792    -5.898792   -4.7951435  0.058386314    -5.898792    1.1036485   520538 
 3962000    1.0151161   -5.9002019   -5.9002019   -4.7947363  0.059052147   -5.9002019    1.1054656   520538 
 3963000    1.0144626   -5.8996036   -5.8996036   -4.7948497  0.044865103   -5.8996036    1.1047539   520538 
 3964000    1.0137691   -5.8991576   -5.8991576    -4.795159  0.072502859   -5.8991576    1.1039987   520538 
 3965000    1.0124987   -5.8988297   -5.8988297   -4.7962145  0.053318678   -5.8988297    1.1026152   520538 
 3966000    1.0128957   -5.8993997   -5.8993997   -4.7963522   0.05645842   -5.8993997    1.1030476   520538 
 3967000    1.0124186   -5.8976389   -5.8976389    -4.795111   0.04315191   -5.8976389    1.1025279   520538 
 3968000    1.0131388   -5.8993319   -5.8993319   -4.7960197  0.030311366   -5.8993319    1.1033122   520538 
 3969000    1.0137885   -5.8996405   -5.8996405   -4.7956207  0.070771814   -5.8996405    1.1040198   520538 
 3970000    1.0150409   -5.9000114   -5.9000114   -4.7946277  0.081352327   -5.9000114    1.1053837   520538 
 3971000    1.0146287   -5.8997481   -5.8997481   -4.7948133  0.053136195   -5.8997481    1.1049348   520538 
 3972000    1.0127631    -5.897574    -5.897574   -4.7946709  0.053197513    -5.897574    1.1029031   520538 
 3973000    1.0149618   -5.8991764   -5.8991764   -4.7938789  0.047421069   -5.8991764    1.1052975   520538 
 3974000    1.0151076   -5.8990133   -5.8990133   -4.7935569  0.043112282   -5.8990133    1.1054564   520538 
 3975000    1.0141951   -5.8979646   -5.8979646    -4.793502  0.057232021   -5.8979646    1.1044626   520538 
 3976000    1.0123409   -5.8961136   -5.8961136   -4.7936702  0.064240493   -5.8961136    1.1024434   520538 
 3977000    1.0146084   -5.8989602   -5.8989602   -4.7940475  0.041861123   -5.8989602    1.1049127   520538 
 3978000     1.014436   -5.8986496   -5.8986496   -4.7939247  0.053249001   -5.8986496    1.1047249   520538 
 3979000    1.0148563   -5.8991612   -5.8991612   -4.7939786  0.074376516   -5.8991612    1.1051826   520538 
 3980000    1.0141377   -5.8984609   -5.8984609   -4.7940607  0.055496374   -5.8984609    1.1044001   520538 
 3981000    1.0146299   -5.9001216   -5.9001216   -4.7951855  0.055644973   -5.9001216     1.104936   520538 
 3982000    1.0125523   -5.8974803   -5.8974803   -4.7948067  0.042385669   -5.8974803    1.1026736   520538 
 3983000    1.0127906   -5.8974492   -5.8974492   -4.7945161  0.059229038   -5.8974492    1.1029331   520538 
 3984000    1.0139647   -5.8987258   -5.8987258   -4.7945141  0.049515142   -5.8987258    1.1042117   520538 
 3985000    1.0135152   -5.8984639   -5.8984639   -4.7947417  0.053876982   -5.8984639    1.1037222   520538 
 3986000    1.0148964   -5.8993368   -5.8993368   -4.7941105  0.057795975   -5.8993368    1.1052263   520538 
 3987000    1.0119034   -5.8974067   -5.8974067   -4.7954398   0.06229693   -5.8974067    1.1019669   520538 
 3988000    1.0134169   -5.8996139   -5.8996139   -4.7959988  0.066442591   -5.8996139    1.1036151   520538 
 3989000    1.0143796   -5.9006252   -5.9006252   -4.7959616  0.085660246   -5.9006252    1.1046635   520538 
 3990000    1.0133016   -5.8989668   -5.8989668   -4.7954773  0.081674596   -5.8989668    1.1034896   520538 
 3991000     1.013283   -5.8993487   -5.8993487   -4.7958794  0.067896572   -5.8993487    1.1034693   520538 
 3992000    1.0144066    -5.899883    -5.899883   -4.7951902   0.05721738    -5.899883    1.1046929   520538 
 3993000    1.0139218   -5.8992663   -5.8992663   -4.7951013  0.070485972   -5.8992663     1.104165   520538 
 3994000    1.0117139   -5.8979315   -5.8979315    -4.796171  0.082852678   -5.8979315    1.1017605   520538 
 3995000    1.0122166   -5.8991564   -5.8991564   -4.7968484  0.055250088   -5.8991564     1.102308   520538 
 3996000    1.0138517   -5.8996549   -5.8996549   -4.7955663  0.055357411   -5.8996549    1.1040886   520538 
 3997000    1.0146223   -5.8995684   -5.8995684   -4.7946406  0.056684827   -5.8995684    1.1049278   520538 
 3998000    1.0122116   -5.8971745   -5.8971745    -4.794872  0.054514445   -5.8971745    1.1023025   520538 
 3999000    1.0133275   -5.8988723   -5.8988723   -4.7953545  0.063831547   -5.8988723    1.1035178   520538 
 4000000    1.0134447   -5.8987837   -5.8987837   -4.7951383  0.062766361   -5.8987837    1.1036454   520538 
Loop time of 12205.3 on 288 procs for 4000000 steps with 520538 atoms

Performance: 141577.973 tau/day, 327.727 timesteps/s
98.5% CPU use with 288 MPI tasks x 1 OpenMP threads

MPI task timing breakdown:
Section |  min time  |  avg time  |  max time  |%varavg|  %CPU | %total
-----------------------------------------------------------------------
Pair    | 859.55     | 2231       | 3174       |1209.5 |  98.7 | 18.28
Bond    | 2.6549     | 2.8019     | 2.9854     |   4.1 | 100.0 |  0.02
Neigh   | 1374       | 3353.2     | 4895.7     |1478.8 |  99.5 | 27.47
Comm    | 2401       | 4297.3     | 7537.2     |1772.7 |  98.3 | 35.21
Output  | 143.61     | 150.37     | 158.22     |  43.7 |  97.0 |  1.23
Modify  | 743.79     | 2068.3     | 5095.5     |1505.9 |  98.4 | 16.95
Other   |            | 102.3      |            |       |       |  0.84

Nlocal:        1807.42 ave        2641 max        1422 min
Histogram: 17 34 80 88 48 11 7 1 1 1
Nghost:        7000.65 ave        9599 max        3038 min
Histogram: 8 11 13 29 25 27 48 75 42 10
Neighs:        57952.6 ave       80539 max        9647 min
Histogram: 13 6 2 4 18 26 43 87 73 16

Total # of neighbors = 16690360
Ave neighs/atom = 32.063673
Ave special neighs/atom = 0.0000000
Neighbor list builds = 400000
Dangerous builds = 396000

Total wall time: 3:23:29
