LAMMPS (24 Dec 2020)
OMP_NUM_THREADS environment is not set. Defaulting to 1 thread. (src/comm.cpp:94)
  using 1 OpenMP thread(s) per MPI task
# Simple rigid body system
# needed variables:

units		lj
atom_style	full
dimension 	3
boundary	p p f
pair_style	lj/cut/opt 2.5


variable 	sigma		equal 1.0
variable 	epsilon 	equal 1.0


region		box block 0 80 0 80 0 80
create_box 	3 box
Created orthogonal box = (0.0000000 0.0000000 0.0000000) to (80.000000 80.000000 80.000000)
  2 by 4 by 4 MPI processor grid
lattice 	sc 1.0
Lattice spacing in x,y,z = 1.0000000 1.0000000 1.0000000

create_atoms 	1 region box
Created 512000 atoms
  create_atoms CPU = 0.024 seconds

mass		1 1.0
mass		2 1.0
mass		3 1.0


group		solvent type 1
512000 atoms in group solvent


velocity 	solvent create ${startTemp} 563435 loop geom
velocity 	solvent create 0.5 563435 loop geom

read_data	data.vac add append
Reading data file ...
  orthogonal box = (0.0000000 0.0000000 0.0000000) to (80.000000 80.000000 160.00000)
  2 by 2 by 8 MPI processor grid
Finding 1-2 1-3 1-4 neighbors ...
  special bond factors lj:    0        0        0       
  special bond factors coul:  0        0        0       
     0 = max # of 1-2 neighbors
     0 = max # of 1-3 neighbors
     0 = max # of 1-4 neighbors
     1 = max # of special neighbors
  special bonds CPU = 0.081 seconds
  read_data CPU = 0.090 seconds

neighbor 	0.4 bin

pair_coeff	1 1 1.0 1.0
pair_coeff	2 2 0.0 0.0
pair_coeff	3 3 0.0 0.0
pair_coeff	2 3 0.0 0.0
pair_coeff	1 2*3 0.0 0.0

pair_modify 	shift yes


balance 	1.05 shift z 10 1.05
Balancing ...
Neighbor list info ...
  update every 1 steps, delay 10 steps, check yes
  max neighbors/atom: 2000, page size: 100000
  master list distance cutoff = 2.9
  ghost atom cutoff = 2.9
  binsize = 1.45, bins = 56 56 111
  1 neighbor lists, perpetual/occasional/extra = 1 0 0
  (1) pair lj/cut/opt, perpetual
      attributes: half, newton on
      pair build: half/bin/newton
      stencil: half/bin/3d/newton
      bin: standard
 rebalancing time: 0.016 seconds
  iteration count = 5
  initial/final maximal load/proc = 32000.000 19200.000
  initial/final imbalance factor  = 2.0000000 1.2000000
  x cuts: 0.0000000 0.50000000 1.0000000
  y cuts: 0.0000000 0.50000000 1.0000000
  z cuts: 0.0000000 0.062500000 0.12890625 0.18750000 0.25781250 0.30859375 0.38671875 0.43750000 1.0000000


####################### WALLS ###########################


region	       low block  EDGE EDGE EDGE EDGE 0 2

region 	       top block  EDGE EDGE EDGE EDGE 159 160


delete_atoms   region low
WARNING: Ignoring 'compress yes' for molecular system (src/delete_atoms.cpp:125)
Deleted 19200 atoms, new total = 492800

delete_atoms   region top
WARNING: Ignoring 'compress yes' for molecular system (src/delete_atoms.cpp:125)
Deleted 0 atoms, new total = 492800


variable       epsilonWall equal 2*${epsilon}
variable       epsilonWall equal 2*1

variable       cutoffTop   equal   0.7147*${sigma}
variable       cutoffTop   equal   0.7147*1

variable       cutoffLow   equal   3*${sigma}
variable       cutoffLow   equal   3*1


fix            topWall all wall/lj93 zhi EDGE                ${epsilonWall} ${sigma} ${cutoffTop} units box
fix            topWall all wall/lj93 zhi EDGE                2 ${sigma} ${cutoffTop} units box
fix            topWall all wall/lj93 zhi EDGE                2 1 ${cutoffTop} units box
fix            topWall all wall/lj93 zhi EDGE                2 1 0.7147 units box

fix            lowWall all wall/lj93 zlo EDGE                ${epsilonWall} ${sigma} ${cutoffLow} units box
fix            lowWall all wall/lj93 zlo EDGE                2 ${sigma} ${cutoffLow} units box
fix            lowWall all wall/lj93 zlo EDGE                2 1 ${cutoffLow} units box
fix            lowWall all wall/lj93 zlo EDGE                2 1 3 units box


###################### COMPUTES ##########################

compute        bin1 solvent chunk/atom bin/1d z upper 1.0



######################	FIXES ############################


fix 		peclet solvent ave/chunk 1000 1 1000 bin1 density/number norm 		 none ave one file density.profile

fix 		2 solvent nve

## Thermostat


region		regthermo block EDGE EDGE EDGE EDGE 0 20

group 		thermo dynamic solvent region regthermo every 1000
dynamic group thermo defined

fix 		3 thermo langevin ${startTemp} ${temp} 10 156453
fix 		3 thermo langevin 0.5 ${temp} 10 156453
fix 		3 thermo langevin 0.5 1.1 10 156453



#### Load balancing


fix 		bal all balance 1000 1.05 shift z 10 1.05


############### Diagnostics and computes ###################
#compute 	com cube	  rigid/local	1 mol x y z
#compute 	quat cube	  rigid/local	1 mol quatw quati quatj quatk

thermo 		1000
thermo_style 	custom step temp epair evdwl etotal press pe ke vol

dump		1 all custom 100000 dump.lammpstrj id mol type x y z
dump 		2 all image 10000 image.*.png type type
dump 		3 all movie 1000 movie.avi type type
#dump 		com cube local 1000 dump.*.xyz c_com[*]
#dump		quat cube      local 1000 dump.*.quat c_quat[*]


restart 	500000 restart.dat
timestep 	0.0025
timer 		full
New timer settings: style=full  mode=nosync  timeout=off


run		1000000
Per MPI rank memory allocation (min/avg/max) = 21.45 | 22.19 | 22.73 Mbytes
Step Temp E_pair E_vdwl TotEng Press PotEng KinEng Volume 
       0   0.49998514   -3.2974116   -3.2974116   -2.5474355    8.3319627   -3.2974116   0.74997619      1024000 
    1000    1.4271251   -4.8132397   -4.8132397   -2.6725564    3.6886596   -4.8132397    2.1406833      1024000 
    2000    1.3670065   -4.8637985   -4.8637985   -2.8132929    2.4653353   -4.8637985    2.0505056      1024000 
    3000    1.2648359   -4.8392712   -4.8392712   -2.9420212    1.6241028   -4.8392712      1.89725      1024000 
    4000    1.2125305   -4.8483052   -4.8483052   -3.0295131   0.72355381   -4.8483052    1.8187921      1024000 
    5000    1.1419024   -4.7865453   -4.7865453   -3.0736952   0.08490683   -4.7865453    1.7128501      1024000 
    6000    1.0641662   -4.6849536   -4.6849536   -3.0887076    -0.253025   -4.6849536     1.596246      1024000 
    7000    1.0041403   -4.5968072   -4.5968072   -3.0905998  -0.35321917   -4.5968072    1.5062074      1024000 
    8000   0.98825465     -4.57268     -4.57268   -3.0903011  -0.24371592     -4.57268     1.482379      1024000 
    9000    1.0017171   -4.5973952   -4.5973952   -3.0948226   -0.1034269   -4.5973952    1.5025726      1024000 
   10000    1.0068659   -4.6161538   -4.6161538    -3.105858  -0.02108017   -4.6161538    1.5102958      1024000 
   11000    1.0082615   -4.6298534   -4.6298534   -3.1174643 0.0095884586   -4.6298534    1.5123892      1024000 
   12000    1.0103091    -4.643317    -4.643317   -3.1278564  0.043694584    -4.643317    1.5154606      1024000 
   13000    1.0122998   -4.6551329   -4.6551329   -3.1366863  0.075163387   -4.6551329    1.5184466      1024000 
   14000    1.0118873   -4.6629588   -4.6629588    -3.145131  0.087417659   -4.6629588    1.5178279      1024000 
   15000    1.0096446   -4.6659452   -4.6659452   -3.1514814   0.08753148   -4.6659452    1.5144638      1024000 
   16000    1.0070619   -4.6681409   -4.6681409    -3.157551  0.089758589   -4.6681409    1.5105898      1024000 
   17000     1.004863   -4.6700726   -4.6700726   -3.1627811  0.092815901   -4.6700726    1.5072915      1024000 
   18000    1.0064305   -4.6769295   -4.6769295   -3.1672868   0.10209395   -4.6769295    1.5096427      1024000 
   19000    1.0061627   -4.6807703   -4.6807703   -3.1715294   0.10826692   -4.6807703     1.509241      1024000 
   20000    1.0064094   -4.6851202   -4.6851202   -3.1755091   0.11988417   -4.6851202     1.509611      1024000 
   21000    1.0061984   -4.6887044   -4.6887044   -3.1794099   0.11491911   -4.6887044    1.5092945      1024000 
   22000    1.0052806   -4.6904184   -4.6904184   -3.1825005   0.11454793   -4.6904184    1.5079179      1024000 
   23000    1.0050996   -4.6933823   -4.6933823   -3.1857359   0.12450896   -4.6933823    1.5076463      1024000 
   24000    1.0126525   -4.7078048   -4.7078048   -3.1888291   0.26923405   -4.7078048    1.5189757      1024000 
   25000    1.0265582   -4.7313051   -4.7313051    -3.191471   0.74288276   -4.7313051    1.5398341      1024000 
   26000      1.03952    -4.753149    -4.753149   -3.1938722   0.97637836    -4.753149    1.5592768      1024000 
   27000    1.0477923   -4.7675099   -4.7675099   -3.1958246    1.2535029   -4.7675099    1.5716852      1024000 
   28000    1.0500141   -4.7724703   -4.7724703   -3.1974523     1.620918   -4.7724703     1.575018      1024000 
   29000    1.0365732   -4.7545022   -4.7545022   -3.1996455    1.3812725   -4.7545022    1.5548567      1024000 
   30000    1.0067966   -4.7113824   -4.7113824   -3.2011905    1.0761873   -4.7113824    1.5101919      1024000 
   31000   0.98772094   -4.6841231   -4.6841231   -3.2025447   0.74852324   -4.6841231    1.4815784      1024000 
   32000   0.96901227   -4.6569953   -4.6569953   -3.2034799   0.48963736   -4.6569953    1.4535155      1024000 
   33000   0.93825263   -4.6127337   -4.6127337   -3.2053577   0.29734923   -4.6127337    1.4073761      1024000 
   34000   0.89854117   -4.5548924   -4.5548924   -3.2070834   0.10752959   -4.5548924     1.347809      1024000 
   35000   0.85828155   -4.4956202   -4.4956202   -3.2082005 -0.041363446   -4.4956202    1.2874197      1024000 
   36000   0.82898492   -4.4531324   -4.4531324   -3.2096576  -0.11494506   -4.4531324    1.2434749      1024000 
   37000   0.81333562   -4.4310036   -4.4310036   -3.2110027  -0.13063462   -4.4310036    1.2200009      1024000 
   38000   0.80988513   -4.4273556   -4.4273556   -3.2125304  -0.12569383   -4.4273556    1.2148252      1024000 
   39000   0.81719239   -4.4391188   -4.4391188   -3.2133327 -0.083983224   -4.4391188    1.2257861      1024000 
   40000   0.83022687   -4.4597813   -4.4597813   -3.2144435 -0.044940351   -4.4597813    1.2453378      1024000 
   41000   0.84263867    -4.480011    -4.480011   -3.2160555 0.0068063858    -4.480011    1.2639554      1024000 
   42000   0.85369759   -4.4983385   -4.4983385   -3.2177947   0.05078437   -4.4983385    1.2805438      1024000 
   43000   0.85903673   -4.5078616   -4.5078616   -3.2193091  0.076343578   -4.5078616    1.2885525      1024000 
   44000   0.86027408   -4.5104682   -4.5104682   -3.2200597  0.090491213   -4.5104682    1.2904085      1024000 
   45000   0.86056256   -4.5120855   -4.5120855   -3.2212443   0.08554143   -4.5120855    1.2908412      1024000 
   46000   0.85827452   -4.5101958   -4.5101958   -3.2227867  0.072714913   -4.5101958    1.2874092      1024000 
   47000   0.85472648   -4.5065114   -4.5065114   -3.2244243  0.060414553   -4.5065114    1.2820871      1024000 
   48000   0.85241215   -4.5043124   -4.5043124   -3.2256967  0.052196198   -4.5043124    1.2786156      1024000 
   49000   0.85103084   -4.5031999   -4.5031999   -3.2266562  0.042084295   -4.5031999    1.2765437      1024000 
   50000   0.84873676   -4.5010394   -4.5010394   -3.2279369  0.039265026   -4.5010394    1.2731026      1024000 
   51000   0.84967869   -4.5044289   -4.5044289   -3.2299134  0.040847885   -4.5044289    1.2745155      1024000 
   52000   0.85214354   -4.5092916   -4.5092916   -3.2310789  0.045387724   -4.5092916    1.2782127      1024000 
   53000   0.85405123   -4.5137581   -4.5137581   -3.2326839  0.051392818   -4.5137581    1.2810742      1024000 
   54000   0.85668988   -4.5187967   -4.5187967   -3.2337645  0.057938308   -4.5187967    1.2850322      1024000 
   55000   0.85737221   -4.5220664   -4.5220664   -3.2360107  0.071292655   -4.5220664    1.2860557      1024000 
   56000    0.8585042   -4.5256369   -4.5256369   -3.2378832  0.073989166   -4.5256369    1.2877537      1024000 
   57000   0.85887593   -4.5284429   -4.5284429   -3.2401316  0.080118371   -4.5284429    1.2883113      1024000 
   58000   0.85927984   -4.5310332   -4.5310332   -3.2421161  0.079464646   -4.5310332    1.2889171      1024000 
   59000   0.86043599    -4.534573    -4.534573   -3.2439216  0.089685702    -4.534573    1.2906514      1024000 
   60000   0.86181334   -4.5392741   -4.5392741   -3.2465568  0.093468615   -4.5392741    1.2927174      1024000 
   61000   0.86247589   -4.5427815   -4.5427815   -3.2490703   0.10693733   -4.5427815    1.2937112      1024000 
   62000   0.86581744   -4.5510979   -4.5510979   -3.2523744   0.12152494   -4.5510979    1.2987235      1024000 
   63000   0.86862899   -4.5587792   -4.5587792   -3.2558383   0.14893924   -4.5587792    1.3029408      1024000 
   64000   0.87253486   -4.5682093   -4.5682093   -3.2594097   0.17531934   -4.5682093    1.3087996      1024000 
   65000   0.87613713   -4.5788802   -4.5788802   -3.2646771   0.20563148   -4.5788802     1.314203      1024000 
   66000   0.87926005   -4.5891863   -4.5891863   -3.2702989   0.22688415   -4.5891863    1.3188874      1024000 
   67000   0.88322822   -4.6016661   -4.6016661   -3.2768264   0.26288921   -4.6016661    1.3248396      1024000 
   68000   0.88706006    -4.615088    -4.615088   -3.2845006   0.32276633    -4.615088    1.3305874      1024000 
   69000   0.88958956    -4.628812    -4.628812   -3.2944303   0.36528859    -4.628812    1.3343816      1024000 
   70000   0.88786637   -4.6365834   -4.6365834   -3.3047865   0.37697652   -4.6365834    1.3317968      1024000 
   71000    0.8820283    -4.636836    -4.636836   -3.3137962    0.3770828    -4.636836    1.3230398      1024000 
   72000   0.87320752   -4.6381144   -4.6381144   -3.3283058   0.43272565   -4.6381144    1.3098086      1024000 
   73000   0.86415017    -4.650044    -4.650044   -3.3538214   0.50974684    -4.650044    1.2962226      1024000 
   74000   0.85505751    -4.663651    -4.663651   -3.3810673   0.53549045    -4.663651    1.2825837      1024000 
   75000   0.84960698    -4.678932    -4.678932   -3.4045241   0.53039528    -4.678932    1.2744079      1024000 
   76000   0.84902629   -4.6962611   -4.6962611   -3.4227243   0.52076137   -4.6962611    1.2735368      1024000 
   77000       0.8506   -4.7137766   -4.7137766   -3.4378792   0.51607772   -4.7137766    1.2758974      1024000 
   78000   0.85256387   -4.7282099   -4.7282099   -3.4493667   0.53007975   -4.7282099    1.2788432      1024000 
   79000   0.85427317   -4.7401676   -4.7401676   -3.4587604   0.52564321   -4.7401676    1.2814071      1024000 
   80000   0.84099862   -4.7266376   -4.7266376   -3.4651422   0.41850606   -4.7266376    1.2614954      1024000 
   81000   0.81799549   -4.6970985   -4.6970985   -3.4701078   0.29970096   -4.6970985    1.2269907      1024000 
   82000   0.79815106   -4.6711133   -4.6711133   -3.4738891   0.19465839   -4.6711133    1.1972242      1024000 
   83000   0.77964212   -4.6467478   -4.6467478    -3.477287   0.12055303   -4.6467478    1.1694608      1024000 
   84000   0.76247031   -4.6243059   -4.6243059   -3.4806028  0.056848429   -4.6243059    1.1437031      1024000 
   85000   0.74736671   -4.6052904   -4.6052904   -3.4842426 0.0034000324   -4.6052904    1.1210478      1024000 
   86000   0.73421003    -4.588202    -4.588202   -3.4868892 -0.060548497    -4.588202    1.1013128      1024000 
   87000   0.72242766   -4.5716156   -4.5716156   -3.4879763   -0.1211812   -4.5716156    1.0836393      1024000 
   88000    0.7129697    -4.555419    -4.555419   -3.4859666  -0.17475211    -4.555419    1.0694524      1024000 
   89000   0.70459069   -4.5395152   -4.5395152   -3.4826313  -0.21169334   -4.5395152    1.0568839      1024000 
   90000   0.69944442   -4.5269275   -4.5269275    -3.477763  -0.24120242   -4.5269275    1.0491645      1024000 
   91000   0.69611928   -4.5162091   -4.5162091   -3.4720323  -0.24958067   -4.5162091    1.0441768      1024000 
   92000   0.69666181   -4.5117149   -4.5117149   -3.4667243  -0.24766285   -4.5117149    1.0449906      1024000 
   93000   0.69927499   -4.5106738   -4.5106738   -3.4617634  -0.23514178   -4.5106738    1.0489104      1024000 
   94000   0.70499876   -4.5155595   -4.5155595   -3.4580635  -0.20280485   -4.5155595     1.057496      1024000 
   95000   0.71190899   -4.5234249   -4.5234249   -3.4555636  -0.15744069   -4.5234249    1.0678613      1024000 
   96000   0.72068772   -4.5362191   -4.5362191   -3.4551897  -0.11950656   -4.5362191    1.0810294      1024000 
   97000   0.72978465     -4.55151     -4.55151   -3.4568352 -0.078299829     -4.55151    1.0946748      1024000 
   98000   0.73536209   -4.5643001   -4.5643001   -3.4612592 -0.036279171   -4.5643001    1.1030409      1024000 
   99000   0.74116207   -4.5775714   -4.5775714   -3.4658306 -0.0041138138   -4.5775714    1.1117408      1024000 
  100000   0.74513829   -4.5888157   -4.5888157   -3.4711105  0.020139467   -4.5888157    1.1177052      1024000 
  101000   0.74564448    -4.595389    -4.595389   -3.4769245  0.029407387    -4.595389    1.1184645      1024000 
  102000   0.74439629   -4.5980532   -4.5980532   -3.4814611  0.030071924   -4.5980532    1.1165922      1024000 
  103000   0.74399802   -4.6011761   -4.6011761   -3.4851813 0.0080123961   -4.6011761    1.1159948      1024000 
  104000   0.74034546   -4.5985915   -4.5985915   -3.4880755 -0.0022000025   -4.5985915    1.1105159      1024000 
  105000   0.73818763   -4.5972394   -4.5972394   -3.4899602 -0.015432463   -4.5972394    1.1072792      1024000 
  106000   0.73712486    -4.597091    -4.597091   -3.4914059 -0.021430508    -4.597091     1.105685      1024000 
  107000   0.73482917   -4.5950812   -4.5950812   -3.4928397 -0.025582696   -4.5950812    1.1022415      1024000 
  108000   0.73503516   -4.5968489   -4.5968489   -3.4942984 -0.020916354   -4.5968489    1.1025505      1024000 
  109000   0.73605168    -4.599291    -4.599291   -3.4952157 -0.021391057    -4.599291    1.1040753      1024000 
  110000   0.73621507   -4.6012246   -4.6012246   -3.4969043 -0.014377867   -4.6012246    1.1043204      1024000 
  111000   0.73766625   -4.6059482   -4.6059482   -3.4994511 -0.011183411   -4.6059482    1.1064971      1024000 
  112000   0.73724636   -4.6068721   -4.6068721   -3.5010048 -0.0019220278   -4.6068721    1.1058673      1024000 
  113000   0.73718397   -4.6089893   -4.6089893   -3.5032156 0.0037403035   -4.6089893    1.1057737      1024000 
  114000   0.73777604   -4.6109086   -4.6109086   -3.5042467 -0.00049745621   -4.6109086    1.1066618      1024000 
  115000   0.73742024    -4.613015    -4.613015   -3.5068869 -0.00090296702    -4.613015    1.1061281      1024000 
  116000   0.73802491   -4.6163454   -4.6163454   -3.5093103 -0.0026542464   -4.6163454    1.1070351      1024000 
  117000   0.73653938   -4.6159938   -4.6159938    -3.511187 -0.0024396978   -4.6159938    1.1048068      1024000 
  118000   0.73454187   -4.6147972   -4.6147972   -3.5129866 -0.0027861266   -4.6147972    1.1018106      1024000 
  119000   0.73502682   -4.6170416   -4.6170416   -3.5145036 -0.010681663   -4.6170416     1.102538      1024000 
  120000   0.73325505   -4.6159761   -4.6159761   -3.5160957 -0.0076052951   -4.6159761    1.0998803      1024000 
  121000   0.73318835   -4.6172652   -4.6172652   -3.5174849 -0.0084918026   -4.6172652    1.0997803      1024000 
  122000   0.73376621   -4.6194861   -4.6194861    -3.518839 -0.0095728574   -4.6194861    1.1006471      1024000 
  123000   0.73277823   -4.6199591   -4.6199591   -3.5207939 -0.0036073711   -4.6199591    1.0991651      1024000 
  124000   0.73470738   -4.6241613   -4.6241613   -3.5221025 -0.0084961144   -4.6241613    1.1020588      1024000 
  125000    0.7346098    -4.625075    -4.625075   -3.5231626 -0.0024249584    -4.625075    1.1019125      1024000 
  126000   0.73499044   -4.6272018   -4.6272018   -3.5247184 -0.000404846   -4.6272018    1.1024834      1024000 
  127000   0.73493736   -4.6280089   -4.6280089   -3.5256051 0.00095348639   -4.6280089    1.1024038      1024000 
  128000   0.73452113   -4.6291059   -4.6291059   -3.5273264 0.0038089289   -4.6291059    1.1017795      1024000 
  129000   0.73405574   -4.6299706   -4.6299706   -3.5288892 -0.0021766654   -4.6299706    1.1010814      1024000 
  130000   0.73309504   -4.6301153   -4.6301153    -3.530475 0.0027602799   -4.6301153    1.0996403      1024000 
  131000   0.73304517   -4.6306124   -4.6306124   -3.5310469 -0.0034721131   -4.6306124    1.0995655      1024000 
  132000   0.73211241   -4.6305823   -4.6305823   -3.5324159 -0.0036519786   -4.6305823    1.0981664      1024000 
  133000   0.73092528    -4.630573    -4.630573   -3.5341873 -0.0042194341    -4.630573    1.0963857      1024000 
  134000   0.73184768   -4.6323354   -4.6323354   -3.5345661  -0.01049187   -4.6323354    1.0977693      1024000 
  135000   0.73133595   -4.6324836   -4.6324836   -3.5354819 -0.0061368574   -4.6324836    1.0970017      1024000 
  136000   0.73221541   -4.6348277   -4.6348277   -3.5365068 -0.0043301014   -4.6348277    1.0983209      1024000 
  137000   0.73223293   -4.6356209   -4.6356209   -3.5372737 -0.001377037   -4.6356209    1.0983472      1024000 
  138000   0.73313009   -4.6368694   -4.6368694   -3.5371765 -0.0051341339   -4.6368694    1.0996929      1024000 
  139000   0.73263666   -4.6366761   -4.6366761   -3.5377233 0.0025095971   -4.6366761    1.0989528      1024000 
  140000   0.73364395   -4.6389552   -4.6389552   -3.5384915 0.0029376458   -4.6389552    1.1004637      1024000 
  141000   0.73305376   -4.6393074   -4.6393074   -3.5397289 0.0022710457   -4.6393074    1.0995784      1024000 
  142000   0.73361537   -4.6411522   -4.6411522   -3.5407314 0.0027500262   -4.6411522    1.1004208      1024000 
  143000   0.73183362   -4.6403679   -4.6403679   -3.5426197 0.00093900878   -4.6403679    1.0977482      1024000 
  144000   0.73100414   -4.6403875   -4.6403875   -3.5438835 -2.8507619e-05   -4.6403875     1.096504      1024000 
  145000   0.73005612   -4.6394296   -4.6394296   -3.5443477 -0.00084124402   -4.6394296     1.095082      1024000 
  146000   0.73131985   -4.6423605   -4.6423605   -3.5453829 -0.0038096066   -4.6423605    1.0969776      1024000 
  147000   0.73205388   -4.6435255   -4.6435255   -3.5454469 -0.0066085713   -4.6435255    1.0980786      1024000 
  148000   0.73154547   -4.6432872   -4.6432872   -3.5459712 0.0020201722   -4.6432872     1.097316      1024000 
  149000   0.73271969   -4.6463954   -4.6463954   -3.5473181 0.0036646389   -4.6463954    1.0990773      1024000 
  150000   0.73274253   -4.6467511   -4.6467511   -3.5476396 -0.00045029862   -4.6467511    1.0991116      1024000 
  151000   0.73204403   -4.6465119   -4.6465119   -3.5484481 0.0041124623   -4.6465119    1.0980638      1024000 
  152000   0.73209802   -4.6476964   -4.6476964   -3.5495515 0.00058908222   -4.6476964    1.0981448      1024000 
  153000   0.73196341   -4.6477636   -4.6477636   -3.5498207 0.00034007603   -4.6477636    1.0979429      1024000 
  154000   0.73152408   -4.6479882   -4.6479882   -3.5507043 0.0014958927   -4.6479882    1.0972839      1024000 
  155000   0.73209638   -4.6494369   -4.6494369   -3.5512946 -0.0010784602   -4.6494369    1.0981423      1024000 
  156000    0.7318757    -4.650042    -4.650042   -3.5522307  0.007639946    -4.650042    1.0978113      1024000 
  157000   0.73267917   -4.6526484   -4.6526484   -3.5536319 0.0035039254   -4.6526484    1.0990165      1024000 
  158000   0.73264257   -4.6533398   -4.6533398   -3.5543782 0.0054288207   -4.6533398    1.0989616      1024000 
  159000   0.73221082    -4.652487    -4.652487    -3.554173 0.0089646068    -4.652487     1.098314      1024000 
  160000   0.73254678    -4.653824    -4.653824    -3.555006 0.0020236612    -4.653824    1.0988179      1024000 
  161000   0.73293734   -4.6547756   -4.6547756   -3.5553719 0.0054247208   -4.6547756    1.0994038      1024000 
  162000   0.73138674   -4.6526699   -4.6526699   -3.5555921 0.0059703724   -4.6526699    1.0970779      1024000 
  163000   0.73350224   -4.6562765   -4.6562765   -3.5560254 -0.00078870254   -4.6562765    1.1002511      1024000 
  164000   0.73091338   -4.6535052   -4.6535052   -3.5571374 0.0086705754   -4.6535052    1.0963679      1024000 
  165000   0.73191627   -4.6559609   -4.6559609   -3.5580887 0.0065291357   -4.6559609    1.0978722      1024000 
  166000   0.73223543   -4.6575403   -4.6575403   -3.5591893 0.0063357427   -4.6575403    1.0983509      1024000 
  167000   0.73256378   -4.6589449   -4.6589449   -3.5601014 0.0088622229   -4.6589449    1.0988434      1024000 
  168000     0.733463   -4.6604109   -4.6604109   -3.5602186 0.0099807199   -4.6604109    1.1001923      1024000 
  169000   0.73433546    -4.662145    -4.662145   -3.5606441 0.0099170068    -4.662145    1.1015009      1024000 
  170000   0.73361397   -4.6622751   -4.6622751   -3.5618563  0.014286287   -4.6622751    1.1004187      1024000 
  171000   0.73488646   -4.6644034   -4.6644034    -3.562076  0.015244854   -4.6644034    1.1023275      1024000 
  172000   0.73538492   -4.6658294   -4.6658294   -3.5627543  0.017304606   -4.6658294    1.1030751      1024000 
  173000   0.73427721     -4.66437     -4.66437   -3.5629564  0.025636685     -4.66437    1.1014136      1024000 
  174000   0.73579354   -4.6677869   -4.6677869   -3.5640988  0.018077618   -4.6677869    1.1036881      1024000 
  175000   0.73446974   -4.6671481   -4.6671481   -3.5654458  0.025588376   -4.6671481    1.1017024      1024000 
  176000   0.73432753   -4.6675221   -4.6675221    -3.566033  0.030356231   -4.6675221    1.1014891      1024000 
  177000   0.73498679   -4.6680479   -4.6680479     -3.56557  0.026980454   -4.6680479    1.1024779      1024000 
  178000   0.73571236    -4.670198    -4.670198   -3.5666317  0.030487942    -4.670198    1.1035663      1024000 
  179000    0.7354479   -4.6706705   -4.6706705   -3.5675009  0.030998866   -4.6706705    1.1031696      1024000 
  180000     0.735944   -4.6719415   -4.6719415   -3.5680277  0.028278589   -4.6719415    1.1039138      1024000 
  181000   0.73635154   -4.6730844   -4.6730844   -3.5685593  0.034376045   -4.6730844    1.1045251      1024000 
  182000   0.73736842   -4.6743162   -4.6743162   -3.5682658  0.031650728   -4.6743162    1.1060504      1024000 
  183000   0.73758435   -4.6743965   -4.6743965   -3.5680222    0.0362884   -4.6743965    1.1063743      1024000 
  184000   0.73716858   -4.6756187   -4.6756187   -3.5698681  0.037036446   -4.6756187    1.1057506      1024000 
  185000   0.73857841     -4.67838     -4.67838   -3.5705146  0.037508089     -4.67838    1.1078654      1024000 
  186000   0.73915342   -4.6789554   -4.6789554   -3.5702275  0.044208849   -4.6789554    1.1087279      1024000 
  187000   0.73954363   -4.6798842   -4.6798842    -3.570571  0.052192879   -4.6798842    1.1093132      1024000 
  188000   0.74032585   -4.6824137   -4.6824137   -3.5719272  0.050442576   -4.6824137    1.1104865      1024000 
  189000   0.73947215   -4.6821828   -4.6821828   -3.5729768  0.050917643   -4.6821828     1.109206      1024000 
  190000    0.7392553   -4.6822519   -4.6822519   -3.5733712  0.052515323   -4.6822519    1.1088807      1024000 
  191000   0.74081336   -4.6851919   -4.6851919   -3.5739741  0.050483337   -4.6851919    1.1112178      1024000 
  192000   0.73938298   -4.6846271   -4.6846271   -3.5755548  0.051781098   -4.6846271    1.1090722      1024000 
  193000   0.73793126   -4.6831412   -4.6831412   -3.5762466   0.04830785   -4.6831412    1.1068946      1024000 
  194000   0.73720458   -4.6821055   -4.6821055   -3.5763008  0.046369683   -4.6821055    1.1058046      1024000 
  195000   0.73691488   -4.6824812   -4.6824812   -3.5771111  0.040279753   -4.6824812    1.1053701      1024000 
  196000   0.73538442   -4.6807292   -4.6807292   -3.5776548   0.03357669   -4.6807292    1.1030744      1024000 
  197000   0.73394688    -4.678915    -4.678915   -3.5779969  0.029609944    -4.678915    1.1009181      1024000 
  198000   0.73345289   -4.6775666   -4.6775666   -3.5773895  0.017010016   -4.6775666    1.1001771      1024000 
  199000   0.73240628   -4.6756256   -4.6756256   -3.5770184  0.014843268   -4.6756256    1.0986072      1024000 
  200000   0.73113162   -4.6733722   -4.6733722    -3.576677  0.011617565   -4.6733722    1.0966952      1024000 
  201000   0.73045681   -4.6719188   -4.6719188   -3.5762358 0.0069019374   -4.6719188     1.095683      1024000 
  202000    0.7295999   -4.6701962   -4.6701962   -3.5757986 -0.0026436969   -4.6701962    1.0943976      1024000 
  203000   0.72842225   -4.6677826   -4.6677826   -3.5751514 -0.0036413408   -4.6677826    1.0926312      1024000 
  204000   0.72761281   -4.6662849   -4.6662849   -3.5748679 -0.0062278816   -4.6662849     1.091417      1024000 
  205000   0.72667212   -4.6645862   -4.6645862   -3.5745803 -0.012579413   -4.6645862     1.090006      1024000 
  206000   0.72751887   -4.6651063   -4.6651063   -3.5738302 -0.023151452   -4.6651063    1.0912761      1024000 
  207000    0.7264651   -4.6625897   -4.6625897   -3.5728942 -0.018923544   -4.6625897    1.0896954      1024000 
  208000   0.72684199   -4.6632356   -4.6632356   -3.5729748 -0.020760017   -4.6632356    1.0902608      1024000 
  209000   0.72639035   -4.6619648   -4.6619648   -3.5723815 -0.012571661   -4.6619648    1.0895833      1024000 
  210000   0.72762611   -4.6637315   -4.6637315   -3.5722946 -0.015137739   -4.6637315    1.0914369      1024000 
  211000   0.72827929   -4.6636783   -4.6636783   -3.5712615 -0.011532217   -4.6636783    1.0924167      1024000 
  212000    0.7293118   -4.6657004   -4.6657004    -3.571735  -0.01177741   -4.6657004    1.0939655      1024000 
  213000   0.72913697   -4.6645909   -4.6645909   -3.5708877 -0.005718191   -4.6645909    1.0937032      1024000 
  214000   0.73076866   -4.6671531   -4.6671531   -3.5710023 -0.005020462   -4.6671531    1.0961508      1024000 
  215000   0.73090241   -4.6673538   -4.6673538   -3.5710024 0.0033025123   -4.6673538    1.0963514      1024000 
  216000    0.7311273   -4.6674222   -4.6674222   -3.5707335 0.0096783019   -4.6674222    1.0966887      1024000 
  217000   0.73292722   -4.6705049   -4.6705049   -3.5711163  0.011923351   -4.6705049    1.0993886      1024000 
  218000   0.73472174   -4.6733743   -4.6733743   -3.5712939  0.012117931   -4.6733743    1.1020804      1024000 
  219000   0.73422234   -4.6730138   -4.6730138   -3.5716826  0.020534739   -4.6730138    1.1013313      1024000 
  220000   0.73507138   -4.6744823   -4.6744823   -3.5718775   0.02544471   -4.6744823    1.1026048      1024000 
  221000   0.73450033   -4.6748717   -4.6748717   -3.5731234  0.031555709   -4.6748717    1.1017483      1024000 
  222000     0.735667   -4.6782412   -4.6782412    -3.574743   0.03125362   -4.6782412    1.1034983      1024000 
  223000   0.73647632   -4.6797682   -4.6797682    -3.575056  0.028104933   -4.6797682    1.1047122      1024000 
  224000   0.73545111    -4.678994    -4.678994   -3.5758195  0.031726803    -4.678994    1.1031744      1024000 
  225000   0.73452369   -4.6783728   -4.6783728   -3.5765896  0.034989823   -4.6783728    1.1017833      1024000 
  226000   0.73427207   -4.6792533   -4.6792533   -3.5778474  0.035421152   -4.6792533    1.1014059      1024000 
  227000   0.73470698   -4.6803265   -4.6803265   -3.5782683   0.03359097   -4.6803265    1.1020582      1024000 
  228000    0.7336933    -4.678921    -4.678921   -3.5783833  0.035068119    -4.678921    1.1005377      1024000 
  229000   0.73301663   -4.6786197   -4.6786197    -3.579097  0.035269303   -4.6786197    1.0995227      1024000 
  230000   0.73415636   -4.6796098   -4.6796098   -3.5783775  0.026645854   -4.6796098    1.1012323      1024000 
  231000   0.73311244   -4.6781411   -4.6781411   -3.5784746  0.027103077   -4.6781411    1.0996664      1024000 
  232000   0.73307252   -4.6783999   -4.6783999   -3.5787933  0.021195299   -4.6783999    1.0996065      1024000 
  233000   0.73220483   -4.6769255   -4.6769255   -3.5786205  0.014301645   -4.6769255     1.098305      1024000 
  234000   0.73094507   -4.6753919   -4.6753919   -3.5789765  0.012370665   -4.6753919    1.0964154      1024000 
  235000   0.73109542   -4.6747249   -4.6747249    -3.578084 0.0095816171   -4.6747249    1.0966409      1024000 
  236000   0.73181073   -4.6750935   -4.6750935   -3.5773796 0.0048050012   -4.6750935    1.0977139      1024000 
  237000   0.73122337   -4.6732246   -4.6732246   -3.5763918 0.0028380817   -4.6732246    1.0968328      1024000 
  238000   0.73023898   -4.6716871   -4.6716871   -3.5763309 0.0035241063   -4.6716871    1.0953562      1024000 
  239000   0.73002066    -4.670651    -4.670651   -3.5756223 -0.0039795845    -4.670651    1.0950288      1024000 
  240000   0.72961969   -4.6699872   -4.6699872   -3.5755599 -0.0064418578   -4.6699872    1.0944273      1024000 
  241000   0.72802637    -4.666729    -4.666729   -3.5746916 -0.0012689115    -4.666729    1.0920373      1024000 
  242000   0.72899164   -4.6672858   -4.6672858   -3.5738005 0.0013660775   -4.6672858    1.0934852      1024000 
  243000   0.72972471   -4.6686371   -4.6686371   -3.5740523 -0.0020010744   -4.6686371    1.0945848      1024000 
  244000    0.7293196   -4.6672548   -4.6672548   -3.5732776 0.0015761484   -4.6672548    1.0939772      1024000 
  245000   0.73031013   -4.6686572   -4.6686572   -3.5731942 -0.0030426884   -4.6686572     1.095463      1024000 
  246000   0.72978621   -4.6672141   -4.6672141    -3.572537 0.0011550524   -4.6672141    1.0946771      1024000 
  247000   0.73007523   -4.6679989   -4.6679989   -3.5728883 0.0015448727   -4.6679989    1.0951106      1024000 
  248000   0.73160547   -4.6703336   -4.6703336   -3.5729276 0.0046390338   -4.6703336     1.097406      1024000 
  249000   0.73157227   -4.6698444   -4.6698444   -3.5724882 0.0054516871   -4.6698444    1.0973562      1024000 
  250000   0.73228773   -4.6710153   -4.6710153   -3.5725859  0.010430023   -4.6710153    1.0984294      1024000 
  251000   0.73321572   -4.6728513   -4.6728513     -3.57303 0.0085386021   -4.6728513    1.0998214      1024000 
  252000   0.73216948   -4.6711919   -4.6711919   -3.5729399  0.016069156   -4.6711919     1.098252      1024000 
  253000   0.73282412   -4.6728797   -4.6728797   -3.5736458  0.017789348   -4.6728797     1.099234      1024000 
  254000   0.73276745   -4.6731852   -4.6731852   -3.5740362  0.020703711   -4.6731852    1.0991489      1024000 
  255000   0.73344549   -4.6739768   -4.6739768   -3.5738108  0.018384989   -4.6739768     1.100166      1024000 
  256000   0.73335007   -4.6743215   -4.6743215   -3.5742986  0.023879793   -4.6743215    1.1000229      1024000 
  257000   0.73473255   -4.6763387   -4.6763387   -3.5742421  0.018819921   -4.6763387    1.1020966      1024000 
  258000   0.73349637   -4.6747626   -4.6747626   -3.5745203  0.026136651   -4.6747626    1.1002423      1024000 
  259000   0.73443731   -4.6749702   -4.6749702   -3.5733165    0.0210471   -4.6749702    1.1016537      1024000 
  260000   0.73469864   -4.6756175   -4.6756175   -3.5735718  0.025097882   -4.6756175    1.1020457      1024000 
  261000   0.73422144   -4.6750629   -4.6750629    -3.573733   0.02881944   -4.6750629    1.1013299      1024000 
  262000   0.73368302   -4.6746364   -4.6746364   -3.5741141  0.026710003   -4.6746364    1.1005223      1024000 
  263000    0.7346496   -4.6760385   -4.6760385   -3.5740663  0.026825956   -4.6760385    1.1019722      1024000 
  264000   0.73372982   -4.6741709   -4.6741709   -3.5735784  0.025852761   -4.6741709    1.1005925      1024000 
  265000   0.73502574     -4.67603     -4.67603   -3.5734937  0.016985394     -4.67603    1.1025364      1024000 
  266000    0.7330808   -4.6724863   -4.6724863   -3.5728673  0.021888769   -4.6724863     1.099619      1024000 
  267000   0.73491576   -4.6744619   -4.6744619   -3.5720905  0.010709791   -4.6744619    1.1023714      1024000 
  268000   0.73218982   -4.6703036   -4.6703036   -3.5720211  0.016737904   -4.6703036    1.0982825      1024000 
  269000   0.73268975   -4.6706781   -4.6706781   -3.5716457  0.012549766   -4.6706781    1.0990324      1024000 
  270000   0.73238906   -4.6703236   -4.6703236   -3.5717422  0.013760992   -4.6703236    1.0985814      1024000 
  271000   0.73180137   -4.6689959   -4.6689959   -3.5712961 0.0090781566   -4.6689959    1.0976998      1024000 
  272000    0.7320164   -4.6684554   -4.6684554    -3.570433 0.0049590785   -4.6684554    1.0980224      1024000 
  273000   0.73204075   -4.6679013   -4.6679013   -3.5698424 0.0040796812   -4.6679013    1.0980589      1024000 
  274000   0.73119443   -4.6664332   -4.6664332   -3.5696438  0.006183859   -4.6664332    1.0967894      1024000 
  275000    0.7313971   -4.6654338   -4.6654338   -3.5683404 0.0045317972   -4.6654338    1.0970934      1024000 
  276000   0.73267133   -4.6659841   -4.6659841   -3.5669793 0.0025378339   -4.6659841    1.0990048      1024000 
  277000   0.73002604   -4.6624992   -4.6624992   -3.5674623 0.0066515815   -4.6624992    1.0950368      1024000 
  278000   0.73017236   -4.6624707   -4.6624707   -3.5672144  0.008056109   -4.6624707    1.0952563      1024000 
  279000   0.73095809   -4.6628334   -4.6628334   -3.5663985 0.0047858929   -4.6628334    1.0964349      1024000 
  280000   0.73148017   -4.6626696   -4.6626696   -3.5654516 0.0045707928   -4.6626696     1.097218      1024000 
  281000   0.73278741   -4.6642273   -4.6642273   -3.5650484 0.0028550282   -4.6642273    1.0991789      1024000 
  282000   0.73241588   -4.6640327   -4.6640327   -3.5654111 0.0049674339   -4.6640327    1.0986216      1024000 
  283000   0.73303097    -4.664847    -4.664847   -3.5653027 0.0084856372    -4.664847    1.0995442      1024000 
  284000   0.73323774   -4.6646861   -4.6646861   -3.5648317 0.0073628436   -4.6646861    1.0998544      1024000 
  285000   0.73372361   -4.6637897   -4.6637897   -3.5632065  0.011070905   -4.6637897    1.1005832      1024000 
  286000   0.73317682   -4.6626392   -4.6626392   -3.5628761  0.014205073   -4.6626392     1.099763      1024000 
  287000   0.73428091   -4.6636196   -4.6636196   -3.5622005  0.017253381   -4.6636196    1.1014191      1024000 
  288000   0.73411056   -4.6640025   -4.6640025   -3.5628389  0.017945203   -4.6640025    1.1011636      1024000 
  289000   0.73389979   -4.6633531   -4.6633531   -3.5625057  0.021439307   -4.6633531    1.1008475      1024000 
  290000    0.7352121   -4.6654857   -4.6654857   -3.5626698  0.019050245   -4.6654857    1.1028159      1024000 
  291000   0.73458536    -4.664571    -4.664571   -3.5626952   0.01983792    -4.664571    1.1018758      1024000 
  292000   0.73486156   -4.6648977   -4.6648977   -3.5626076  0.017300365   -4.6648977    1.1022901      1024000 
  293000   0.73522454   -4.6650152   -4.6650152   -3.5621807  0.019208196   -4.6650152    1.1028346      1024000 
  294000    0.7356729    -4.665665    -4.665665   -3.5621578  0.019023651    -4.665665    1.1035071      1024000 
  295000   0.73563136   -4.6657458   -4.6657458    -3.562301  0.018996407   -4.6657458    1.1034448      1024000 
  296000   0.73525041   -4.6653098   -4.6653098   -3.5624365  0.020344302   -4.6653098    1.1028734      1024000 
  297000   0.73514864   -4.6652212   -4.6652212   -3.5625005  0.018543011   -4.6652212    1.1027207      1024000 
  298000   0.73381678   -4.6629638   -4.6629638   -3.5622409  0.022187123   -4.6629638    1.1007229      1024000 
  299000   0.73488049   -4.6644052   -4.6644052   -3.5620867  0.016566844   -4.6644052    1.1023185      1024000 
  300000   0.73537792   -4.6637099   -4.6637099   -3.5606453  0.012820577   -4.6637099    1.1030646      1024000 
  301000   0.73561882   -4.6627658   -4.6627658   -3.5593398   0.01480516   -4.6627658     1.103426      1024000 
  302000   0.73500823    -4.662149    -4.662149   -3.5596389  0.018270933    -4.662149    1.1025101      1024000 
  303000   0.73470123   -4.6607921   -4.6607921   -3.5587425  0.017631016   -4.6607921    1.1020496      1024000 
  304000   0.73577911   -4.6619399   -4.6619399   -3.5582735 0.0084789617   -4.6619399    1.1036664      1024000 
  305000   0.73627129   -4.6616354   -4.6616354   -3.5572307  0.014375902   -4.6616354    1.1044047      1024000 
  306000   0.73566318    -4.660571    -4.660571   -3.5570785  0.015161625    -4.660571    1.1034925      1024000 
  307000   0.73509097   -4.6589839   -4.6589839   -3.5563497  0.014813674   -4.6589839    1.1026342      1024000 
  308000    0.7342853    -4.657674    -4.657674   -3.5562483  0.013845124    -4.657674    1.1014257      1024000 
  309000     0.734244   -4.6569889   -4.6569889   -3.5556251  0.012069215   -4.6569889    1.1013638      1024000 
  310000   0.73548665   -4.6577232   -4.6577232   -3.5544954  0.010171343   -4.6577232    1.1032277      1024000 
  311000    0.7350107   -4.6564491   -4.6564491   -3.5539353 0.0092573974   -4.6564491    1.1025138      1024000 
  312000   0.73428531   -4.6543752   -4.6543752   -3.5529495  0.012474294   -4.6543752    1.1014257      1024000 
  313000   0.73437759   -4.6539389   -4.6539389   -3.5523747  0.011791492   -4.6539389    1.1015641      1024000 
  314000   0.73435456   -4.6529012   -4.6529012   -3.5513716  0.011546211   -4.6529012    1.1015296      1024000 
  315000   0.73486757    -4.653152    -4.653152   -3.5508529 0.0095311765    -4.653152    1.1022991      1024000 
  316000   0.73554536   -4.6528095   -4.6528095   -3.5494937  0.008034786   -4.6528095    1.1033158      1024000 
  317000   0.73598362   -4.6527627   -4.6527627   -3.5487895  0.011807095   -4.6527627    1.1039732      1024000 
  318000   0.73577717   -4.6516965   -4.6516965    -3.548033   0.01352378   -4.6516965    1.1036635      1024000 
  319000    0.7367805   -4.6522504   -4.6522504   -3.5470819  0.012438812   -4.6522504    1.1051685      1024000 
  320000   0.73689342   -4.6520954   -4.6520954   -3.5467575  0.010906809   -4.6520954    1.1053379      1024000 
  321000   0.73602664   -4.6506966   -4.6506966   -3.5466589   0.01190649   -4.6506966    1.1040377      1024000 
  322000   0.73559159   -4.6488779   -4.6488779   -3.5454928  0.017231261   -4.6488779    1.1033852      1024000 
  323000   0.73664802   -4.6493097   -4.6493097   -3.5443399  0.015856539   -4.6493097    1.1049698      1024000 
  324000   0.73668931   -4.6495459   -4.6495459   -3.5445141  0.015261118   -4.6495459    1.1050317      1024000 
  325000   0.73826301   -4.6515759   -4.6515759   -3.5441837 0.0092532684   -4.6515759    1.1073923      1024000 
  326000   0.73849906   -4.6504761   -4.6504761   -3.5427297  0.015072292   -4.6504761    1.1077463      1024000 
  327000   0.73833639    -4.650114    -4.650114   -3.5426117  0.015369268    -4.650114    1.1075023      1024000 
  328000   0.73829603   -4.6501935   -4.6501935   -3.5427517  0.011625163   -4.6501935    1.1074418      1024000 
  329000    0.7372445   -4.6476453   -4.6476453   -3.5417808  0.019395449   -4.6476453    1.1058645      1024000 
  330000   0.73733568   -4.6472742   -4.6472742    -3.541273  0.016719753   -4.6472742    1.1060013      1024000 
  331000   0.73832575   -4.6484917   -4.6484917   -3.5410053  0.017298989   -4.6484917    1.1074864      1024000 
  332000   0.73932768   -4.6491585   -4.6491585   -3.5401692  0.015152116   -4.6491585    1.1089893      1024000 
  333000   0.73895703   -4.6485052   -4.6485052   -3.5400719   0.01628377   -4.6485052    1.1084333      1024000 
  334000   0.73892174   -4.6475014   -4.6475014    -3.539121  0.016519452   -4.6475014    1.1083804      1024000 
  335000   0.73826742   -4.6459795   -4.6459795   -3.5385807  0.014232637   -4.6459795    1.1073989      1024000 
  336000   0.73959211    -4.647056    -4.647056   -3.5376701  0.014304874    -4.647056    1.1093859      1024000 
  337000    0.7388654   -4.6458946   -4.6458946   -3.5375987  0.016959208   -4.6458946    1.1082959      1024000 
  338000   0.73956484   -4.6454023   -4.6454023   -3.5360573  0.019421196   -4.6454023     1.109345      1024000 
  339000   0.73934928    -4.645662    -4.645662   -3.5366403  0.016214277    -4.645662    1.1090217      1024000 
  340000   0.73901037   -4.6441553   -4.6441553    -3.535642  0.019163766   -4.6441553    1.1085133      1024000 
  341000   0.73925266   -4.6437048   -4.6437048   -3.5348281  0.018735265   -4.6437048    1.1088767      1024000 
  342000    0.7387769   -4.6427036   -4.6427036   -3.5345405  0.017390246   -4.6427036    1.1081631      1024000 
  343000   0.73894697    -4.642507    -4.642507   -3.5340888  0.014704908    -4.642507    1.1084182      1024000 
  344000   0.73917275   -4.6416452   -4.6416452   -3.5328883  0.014776155   -4.6416452    1.1087569      1024000 
  345000   0.73981848   -4.6409103   -4.6409103   -3.5311848  0.015187987   -4.6409103    1.1097255      1024000 
  346000   0.73950922   -4.6400787   -4.6400787   -3.5308171  0.015403972   -4.6400787    1.1092616      1024000 
  347000   0.73954997    -4.639175    -4.639175   -3.5298523  0.013013672    -4.639175    1.1093227      1024000 
  348000   0.74048609    -4.639839    -4.639839   -3.5291121 0.0071503605    -4.639839    1.1107269      1024000 
  349000   0.73950635    -4.637407    -4.637407   -3.5281497  0.011706029    -4.637407    1.1092573      1024000 
  350000   0.74044547   -4.6392395   -4.6392395   -3.5285736 0.0093232472   -4.6392395    1.1106659      1024000 
  351000   0.73986658   -4.6372014   -4.6372014   -3.5274038 0.0096173836   -4.6372014    1.1097976      1024000 
  352000   0.74069282   -4.6372449   -4.6372449   -3.5262079  0.010992523   -4.6372449     1.111037      1024000 
  353000    0.7401704   -4.6363542   -4.6363542   -3.5261008  0.012974422   -4.6363542    1.1102533      1024000 
  354000   0.73992537   -4.6358394   -4.6358394   -3.5259536 0.0092541143   -4.6358394    1.1098858      1024000 
  355000   0.73982403   -4.6353215   -4.6353215   -3.5255878 0.0050736907   -4.6353215    1.1097338      1024000 
  356000   0.73986054   -4.6347165   -4.6347165    -3.524928 0.0068689835   -4.6347165    1.1097886      1024000 
  357000    0.7403857   -4.6346244   -4.6346244   -3.5240481 0.0034969849   -4.6346244    1.1105763      1024000 
  358000   0.73997708   -4.6324395   -4.6324395   -3.5224761 0.0062216644   -4.6324395    1.1099634      1024000 
  359000   0.74038618   -4.6323617   -4.6323617   -3.5217847    0.0104987   -4.6323617     1.110577      1024000 
  360000   0.74099292   -4.6326897   -4.6326897   -3.5212026  0.014571135   -4.6326897    1.1114871      1024000 
  361000   0.74115351   -4.6319431   -4.6319431   -3.5202151  0.014382621   -4.6319431     1.111728      1024000 
  362000   0.74170203   -4.6320009   -4.6320009   -3.5194501   0.01066595   -4.6320009    1.1125508      1024000 
  363000   0.74192268   -4.6315218   -4.6315218   -3.5186401  0.011351313   -4.6315218    1.1128818      1024000 
  364000   0.74122656   -4.6309058   -4.6309058   -3.5190682  0.014400315   -4.6309058    1.1118376      1024000 
  365000   0.74218738   -4.6313914   -4.6313914   -3.5181126  0.015783305   -4.6313914    1.1132788      1024000 
  366000    0.7434169   -4.6319493   -4.6319493   -3.5168262  0.015997693   -4.6319493    1.1151231      1024000 
  367000   0.74167839   -4.6283923   -4.6283923    -3.515877  0.020444341   -4.6283923    1.1125153      1024000 
  368000   0.74270268   -4.6304248   -4.6304248    -3.516373   0.01586838   -4.6304248    1.1140518      1024000 
  369000   0.74382189   -4.6313702   -4.6313702   -3.5156397  0.012585839   -4.6313702    1.1157306      1024000 
  370000   0.74340055   -4.6299046   -4.6299046    -3.514806  0.019161279   -4.6299046    1.1150986      1024000 
  371000   0.74398278   -4.6300576   -4.6300576   -3.5140857  0.016304622   -4.6300576    1.1159719      1024000 
  372000   0.74507014   -4.6308485   -4.6308485   -3.5132456  0.014181926   -4.6308485    1.1176029      1024000 
  373000   0.74361258   -4.6283378   -4.6283378   -3.5129212  0.022345625   -4.6283378    1.1154166      1024000 
  374000   0.74380228   -4.6276041   -4.6276041   -3.5119029  0.019740641   -4.6276041    1.1157012      1024000 
  375000   0.74468928   -4.6291486   -4.6291486    -3.512117  0.018477803   -4.6291486    1.1170317      1024000 
  376000   0.74425303   -4.6274557   -4.6274557   -3.5110784  0.023131078   -4.6274557    1.1163773      1024000 
  377000   0.74324396   -4.6256012   -4.6256012   -3.5107376  0.021869587   -4.6256012    1.1148637      1024000 
  378000   0.74344303   -4.6257683   -4.6257683    -3.510606  0.010267478   -4.6257683    1.1151623      1024000 
  379000   0.74438807    -4.625682    -4.625682   -3.5091021  0.012741202    -4.625682    1.1165798      1024000 
  380000   0.74358552   -4.6238516   -4.6238516   -3.5084756  0.016994014   -4.6238516     1.115376      1024000 
  381000   0.74589544   -4.6251854   -4.6251854   -3.5063445  0.011563468   -4.6251854    1.1188409      1024000 
  382000   0.74509693   -4.6236196   -4.6236196   -3.5059765  0.014271702   -4.6236196    1.1176431      1024000 
  383000   0.74487822   -4.6227783   -4.6227783   -3.5054632  0.013874916   -4.6227783    1.1173151      1024000 
  384000   0.74437803   -4.6210189   -4.6210189   -3.5044541  0.015058098   -4.6210189    1.1165648      1024000 
  385000   0.74529866   -4.6215586   -4.6215586   -3.5036129  0.014043193   -4.6215586    1.1179457      1024000 
  386000   0.74504826   -4.6200826   -4.6200826   -3.5025125  0.012312857   -4.6200826    1.1175701      1024000 
  387000   0.74511695   -4.6195211   -4.6195211    -3.501848  0.013310502   -4.6195211    1.1176732      1024000 
  388000   0.74537908   -4.6190796   -4.6190796   -3.5010132 0.0092710196   -4.6190796    1.1180664      1024000 
  389000   0.74495126   -4.6179414   -4.6179414   -3.5005167  0.011138698   -4.6179414    1.1174246      1024000 
  390000   0.74526761   -4.6170728   -4.6170728   -3.4991737 0.0071779479   -4.6170728    1.1178991      1024000 
  391000   0.74428439   -4.6138581   -4.6138581   -3.4974338  0.017108979   -4.6138581    1.1164243      1024000 
  392000   0.74474054   -4.6142515   -4.6142515    -3.497143  0.010305613   -4.6142515    1.1171086      1024000 
  393000   0.74557616   -4.6141579   -4.6141579   -3.4957959  0.012910039   -4.6141579     1.118362      1024000 
  394000   0.74729709   -4.6151574   -4.6151574   -3.4942141 0.0076640352   -4.6151574    1.1209434      1024000 
  395000   0.74582483   -4.6128667   -4.6128667   -3.4941317  0.010215073   -4.6128667     1.118735      1024000 
  396000   0.74710979    -4.613991    -4.613991   -3.4933286  0.015073286    -4.613991    1.1206624      1024000 
  397000   0.74567062   -4.6116432   -4.6116432   -3.4931395  0.012705206   -4.6116432    1.1185037      1024000 
  398000   0.74602615   -4.6106776   -4.6106776   -3.4916406  0.011794599   -4.6106776     1.119037      1024000 
  399000   0.74643999   -4.6101111   -4.6101111   -3.4904534  0.013703595   -4.6101111    1.1196577      1024000 
  400000   0.74769735   -4.6125048   -4.6125048    -3.490961 0.0055429994   -4.6125048    1.1215437      1024000 
  401000   0.74676526   -4.6092421   -4.6092421   -3.4890965  0.010207423   -4.6092421    1.1201456      1024000 
  402000   0.74728321   -4.6090161   -4.6090161   -3.4880936  0.016521948   -4.6090161    1.1209225      1024000 
  403000   0.74749722   -4.6091337   -4.6091337   -3.4878902  0.010946167   -4.6091337    1.1212436      1024000 
  404000   0.74795222   -4.6086496   -4.6086496   -3.4867236  0.012475492   -4.6086496    1.1219261      1024000 
  405000   0.74841372   -4.6077975   -4.6077975   -3.4851792  0.011286544   -4.6077975    1.1226183      1024000 
  406000   0.74883859   -4.6077209   -4.6077209   -3.4844653  0.014515017   -4.6077209    1.1232556      1024000 
  407000   0.74853361   -4.6076254   -4.6076254   -3.4848273  0.012291347   -4.6076254    1.1227981      1024000 
  408000    0.7490286    -4.608675    -4.608675   -3.4851343  0.011587514    -4.608675    1.1235406      1024000 
  409000   0.74937461   -4.6076342   -4.6076342   -3.4835746   0.01357247   -4.6076342    1.1240596      1024000 
  410000   0.74784122   -4.6047129   -4.6047129   -3.4829534  0.015570358   -4.6047129    1.1217595      1024000 
  411000   0.74881299    -4.605152    -4.605152   -3.4819348   0.01102282    -4.605152    1.1232172      1024000 
  412000   0.74787225   -4.6036613   -4.6036613   -3.4818552  0.014985812   -4.6036613    1.1218061      1024000 
  413000   0.74835532   -4.6039754   -4.6039754   -3.4814447  0.011392065   -4.6039754    1.1225307      1024000 
  414000    0.7491052   -4.6033593   -4.6033593   -3.4797038  0.010450873   -4.6033593    1.1236555      1024000 
  415000   0.74845568   -4.6016994   -4.6016994   -3.4790182  0.012656226   -4.6016994    1.1226812      1024000 
  416000   0.74953505   -4.6027237   -4.6027237   -3.4784234  0.011704274   -4.6027237    1.1243003      1024000 
  417000   0.74917712   -4.6019926   -4.6019926   -3.4782292  0.013069896   -4.6019926    1.1237634      1024000 
  418000   0.74975995   -4.6011598   -4.6011598   -3.4765222  0.016354911   -4.6011598    1.1246377      1024000 
  419000   0.75059444   -4.6007895   -4.6007895   -3.4749002  0.018071289   -4.6007895    1.1258894      1024000 
  420000   0.74916899   -4.5986409   -4.5986409   -3.4748897  0.018040421   -4.5986409    1.1237512      1024000 
  421000   0.75071484    -4.599324    -4.599324    -3.473254  0.019617474    -4.599324      1.12607      1024000 
  422000   0.75227537    -4.600548    -4.600548   -3.4721372  0.018711192    -4.600548    1.1284108      1024000 
  423000   0.75125568   -4.5975976   -4.5975976   -3.4707164  0.021994186   -4.5975976    1.1268812      1024000 
  424000   0.75060451   -4.5958532   -4.5958532   -3.4699488  0.020135473   -4.5958532    1.1259045      1024000 
  425000    0.7511391   -4.5963846   -4.5963846   -3.4696782  0.019516567   -4.5963846    1.1267064      1024000 
  426000    0.7524268   -4.5976202   -4.5976202   -3.4689823  0.009308108   -4.5976202    1.1286379      1024000 
  427000   0.75186343    -4.596066    -4.596066   -3.4682732  0.012805983    -4.596066    1.1277929      1024000 
  428000   0.75171814   -4.5950652   -4.5950652   -3.4674902   0.01122054   -4.5950652    1.1275749      1024000 
  429000   0.75136298   -4.5941966   -4.5941966   -3.4671544   0.00972514   -4.5941966    1.1270422      1024000 
  430000   0.75194816    -4.593483    -4.593483    -3.465563 0.0095500202    -4.593483    1.1279199      1024000 
  431000   0.75179622   -4.5924167   -4.5924167   -3.4647246  0.014345764   -4.5924167     1.127692      1024000 
  432000   0.75133838   -4.5910337   -4.5910337   -3.4640284  0.015474336   -4.5910337    1.1270053      1024000 
  433000    0.7519146   -4.5915819   -4.5915819   -3.4637123  0.010873591   -4.5915819    1.1278696      1024000 
  434000   0.75246858   -4.5914331   -4.5914331   -3.4627325  0.010024382   -4.5914331    1.1287006      1024000 
  435000   0.75198393   -4.5884891   -4.5884891   -3.4605155  0.011112937   -4.5884891    1.1279736      1024000 
  436000   0.75262897   -4.5877708   -4.5877708   -3.4588296  0.011478604   -4.5877708    1.1289412      1024000 
  437000   0.75307129   -4.5880663   -4.5880663   -3.4584617  0.008675668   -4.5880663    1.1296046      1024000 
  438000   0.75316882   -4.5862947   -4.5862947   -3.4565438  0.014639912   -4.5862947    1.1297509      1024000 
  439000   0.75354804   -4.5860053   -4.5860053   -3.4556855  0.010537297   -4.5860053    1.1303198      1024000 
  440000   0.75330523   -4.5845535   -4.5845535    -3.454598  0.013372011   -4.5845535    1.1299555      1024000 
  441000   0.75328474   -4.5834381   -4.5834381   -3.4535133  0.014864232   -4.5834381    1.1299248      1024000 
  442000    0.7531769   -4.5819457   -4.5819457   -3.4521826  0.016609806   -4.5819457    1.1297631      1024000 
  443000   0.75548235   -4.5840654   -4.5840654   -3.4508441  0.012550318   -4.5840654    1.1332212      1024000 
  444000   0.75513147   -4.5829466   -4.5829466   -3.4502517   0.01059143   -4.5829466    1.1326949      1024000 
  445000   0.75408315   -4.5803335   -4.5803335   -3.4492111  0.012675739   -4.5803335    1.1311224      1024000 
  446000   0.75477094   -4.5797262   -4.5797262   -3.4475721  0.012505143   -4.5797262    1.1321541      1024000 
  447000   0.75417771    -4.579719    -4.579719   -3.4484547 0.0082510116    -4.579719    1.1312643      1024000 
  448000   0.75402108   -4.5790953   -4.5790953    -3.448066 0.0073447966   -4.5790953    1.1310293      1024000 
  449000   0.75495327   -4.5786834   -4.5786834   -3.4462558 0.0040380541   -4.5786834    1.1324276      1024000 
  450000   0.75547201   -4.5781671   -4.5781671   -3.4449614 0.0059485155   -4.5781671    1.1332057      1024000 
  451000   0.75414115   -4.5749674   -4.5749674    -3.443758  0.014188801   -4.5749674    1.1312094      1024000 
  452000   0.75557535   -4.5761643   -4.5761643   -3.4428035  0.014653754   -4.5761643    1.1333607      1024000 
  453000   0.75499721   -4.5740711   -4.5740711   -3.4415775  0.017278922   -4.5740711    1.1324935      1024000 
  454000   0.75581594   -4.5739859   -4.5739859   -3.4402643  0.013562028   -4.5739859    1.1337216      1024000 
  455000   0.75717022   -4.5743087   -4.5743087   -3.4385557  0.012960467   -4.5743087     1.135753      1024000 
  456000   0.75707501   -4.5734341   -4.5734341   -3.4378239  0.012588397   -4.5734341    1.1356102      1024000 
  457000   0.75631156   -4.5716066   -4.5716066   -3.4371415  0.017750076   -4.5716066     1.134465      1024000 
  458000    0.7580767   -4.5725013   -4.5725013   -3.4353885  0.016242622   -4.5725013    1.1371127      1024000 
  459000   0.75764368   -4.5713191   -4.5713191   -3.4348559  0.015716158   -4.5713191    1.1364632      1024000 
  460000   0.75732012   -4.5699993   -4.5699993   -3.4340215   0.01067196   -4.5699993    1.1359779      1024000 
  461000   0.75744727   -4.5700179   -4.5700179   -3.4338493  0.011719834   -4.5700179    1.1361686      1024000 
  462000    0.7572068    -4.568372    -4.568372   -3.4325641  0.011732614    -4.568372    1.1358079      1024000 
  463000   0.75769913   -4.5680904   -4.5680904    -3.431544  0.010337761   -4.5680904    1.1365464      1024000 
  464000   0.75776768    -4.566972    -4.566972   -3.4303228  0.011274854    -4.566972    1.1366492      1024000 
  465000   0.75698958   -4.5648749   -4.5648749   -3.4293928  0.016544364   -4.5648749    1.1354821      1024000 
  466000   0.75777827   -4.5657366   -4.5657366   -3.4290715  0.010482095   -4.5657366    1.1366651      1024000 
  467000   0.75797894    -4.564648    -4.564648   -3.4276819  0.012997508    -4.564648    1.1369661      1024000 
  468000   0.75763543   -4.5642345   -4.5642345   -3.4277837  0.011731224   -4.5642345    1.1364508      1024000 
  469000   0.75814441   -4.5641116   -4.5641116   -3.4268973  0.013401665   -4.5641116    1.1372143      1024000 
  470000   0.75738409   -4.5631379   -4.5631379   -3.4270641  0.010547919   -4.5631379    1.1360738      1024000 
  471000   0.75839278   -4.5632524   -4.5632524   -3.4256655  0.010337804   -4.5632524    1.1375869      1024000 
  472000    0.7581784   -4.5617648   -4.5617648   -3.4244995   0.01675706   -4.5617648    1.1372653      1024000 
  473000   0.75866562   -4.5604166   -4.5604166   -3.4224205  0.012527672   -4.5604166    1.1379961      1024000 
  474000   0.75862454   -4.5593198   -4.5593198   -3.4213853  0.013031149   -4.5593198    1.1379345      1024000 
  475000   0.75972566   -4.5593502   -4.5593502    -3.419764  0.018547871   -4.5593502    1.1395862      1024000 
  476000   0.76143018   -4.5603667   -4.5603667   -3.4182237  0.013519943   -4.5603667    1.1421429      1024000 
  477000   0.76089899   -4.5589917   -4.5589917   -3.4176455  0.014514799   -4.5589917    1.1413462      1024000 
  478000   0.76075212   -4.5576232   -4.5576232   -3.4164974  0.016174901   -4.5576232    1.1411259      1024000 
  479000   0.76090546   -4.5565884   -4.5565884   -3.4152325  0.018321506   -4.5565884    1.1413559      1024000 
  480000   0.76170978   -4.5572652   -4.5572652   -3.4147028  0.014799165   -4.5572652    1.1425623      1024000 
  481000   0.76028733   -4.5538474   -4.5538474   -3.4134187  0.015956763   -4.5538474    1.1404287      1024000 
  482000   0.76136267   -4.5550319   -4.5550319   -3.4129902  0.012839546   -4.5550319    1.1420417      1024000 
  483000   0.76079557   -4.5531106   -4.5531106   -3.4119196  0.012633442   -4.5531106     1.141191      1024000 
  484000   0.76171573   -4.5525888   -4.5525888   -3.4100175  0.014623197   -4.5525888    1.1425713      1024000 
  485000    0.7616022   -4.5508601   -4.5508601   -3.4084591  0.015687413   -4.5508601     1.142401      1024000 
  486000   0.76203204   -4.5504089   -4.5504089   -3.4073632  0.018210268   -4.5504089    1.1430457      1024000 
  487000   0.76268441   -4.5503906   -4.5503906   -3.4063663  0.012032696   -4.5503906    1.1440243      1024000 
  488000   0.76259027    -4.548559    -4.548559   -3.4046759  0.010945704    -4.548559    1.1438831      1024000 
  489000   0.76356003   -4.5487047   -4.5487047    -3.403367  0.011398623   -4.5487047    1.1453377      1024000 
  490000   0.76247739   -4.5462631   -4.5462631   -3.4025493  0.014427074   -4.5462631    1.1437138      1024000 
  491000    0.7628328   -4.5455993   -4.5455993   -3.4013524  0.013953472   -4.5455993    1.1442469      1024000 
  492000   0.76273983   -4.5450917   -4.5450917   -3.4009843  0.014405385   -4.5450917    1.1441074      1024000 
  493000   0.76222808   -4.5439033   -4.5439033   -3.4005635  0.010051862   -4.5439033    1.1433398      1024000 
  494000    0.7635136   -4.5433442   -4.5433442   -3.3980761 0.0092694981   -4.5433442    1.1452681      1024000 
  495000   0.76313718   -4.5413483   -4.5413483   -3.3966449  0.012739565   -4.5413483    1.1447034      1024000 
  496000   0.76375474   -4.5419406   -4.5419406   -3.3963108 0.0082575632   -4.5419406    1.1456298      1024000 
  497000   0.76333682   -4.5403529   -4.5403529     -3.39535 0.0098148621   -4.5403529    1.1450029      1024000 
  498000   0.76286506    -4.538837    -4.538837   -3.3945417  0.007337232    -4.538837    1.1442953      1024000 
  499000   0.76349374   -4.5387938   -4.5387938   -3.3935555 0.0086486738   -4.5387938    1.1452383      1024000 
  500000   0.76409313   -4.5386229   -4.5386229   -3.3924855 0.0075626417   -4.5386229    1.1461374      1024000 
  501000   0.76491872   -4.5387076   -4.5387076   -3.3913318 0.0082108213   -4.5387076    1.1473757      1024000 
  502000   0.76406481   -4.5358948   -4.5358948   -3.3897999 0.0097309927   -4.5358948    1.1460949      1024000 
  503000   0.76360619      -4.5339      -4.5339   -3.3884931  0.014414457      -4.5339     1.145407      1024000 
  504000   0.76400861   -4.5341328   -4.5341328   -3.3881222 0.0093587248   -4.5341328    1.1460106      1024000 
  505000    0.7652903   -4.5348154   -4.5348154   -3.3868823 0.0062074067   -4.5348154    1.1479331      1024000 
  506000   0.76424158   -4.5313098   -4.5313098   -3.3849498  0.012854806   -4.5313098      1.14636      1024000 
  507000   0.76551048   -4.5326335   -4.5326335   -3.3843701 0.0099707605   -4.5326335    1.1482634      1024000 
  508000    0.7652771   -4.5309937   -4.5309937   -3.3830803   0.01511072   -4.5309937    1.1479133      1024000 
  509000    0.7655006   -4.5304149   -4.5304149   -3.3821664   0.01316557   -4.5304149    1.1482486      1024000 
  510000   0.76770404   -4.5318685   -4.5318685   -3.3803148 0.0081100072   -4.5318685    1.1515537      1024000 
  511000   0.76754203   -4.5301565   -4.5301565   -3.3788458  0.012355202   -4.5301565    1.1513107      1024000 
  512000   0.76722716   -4.5278284   -4.5278284     -3.37699  0.017973215   -4.5278284    1.1508384      1024000 
  513000   0.76708615   -4.5261892   -4.5261892   -3.3755623  0.020982463   -4.5261892    1.1506269      1024000 
  514000   0.76823693   -4.5267597   -4.5267597   -3.3744066  0.017398454   -4.5267597    1.1523531      1024000 
  515000   0.76975367   -4.5273447   -4.5273447   -3.3727166  0.018435686   -4.5273447    1.1546282      1024000 
  516000   0.76944148   -4.5262765   -4.5262765   -3.3721166  0.018043836   -4.5262765    1.1541599      1024000 
  517000   0.76890174   -4.5244221   -4.5244221   -3.3710719  0.017978936   -4.5244221    1.1533503      1024000 
  518000   0.77028869   -4.5261157   -4.5261157    -3.370685  0.016619881   -4.5261157    1.1554307      1024000 
  519000   0.76938367   -4.5239209   -4.5239209   -3.3698477   0.01526968   -4.5239209    1.1540732      1024000 
  520000   0.76899739    -4.521711    -4.521711   -3.3682172   0.01572739    -4.521711    1.1534937      1024000 
  521000   0.76955528   -4.5214684   -4.5214684   -3.3671378   0.01430367   -4.5214684    1.1543306      1024000 
  522000    0.7702754   -4.5220037   -4.5220037   -3.3665929  0.014007743   -4.5220037    1.1554108      1024000 
  523000   0.77013624   -4.5199971   -4.5199971   -3.3647951 0.0077607029   -4.5199971     1.155202      1024000 
  524000   0.76971417   -4.5183253   -4.5183253   -3.3637564 0.0091425913   -4.5183253    1.1545689      1024000 
  525000    0.7686731   -4.5161687   -4.5161687   -3.3631613  0.013428867   -4.5161687    1.1530073      1024000 
  526000    0.7691038   -4.5167952   -4.5167952   -3.3631418 0.0097997544   -4.5167952    1.1536534      1024000 
  527000    0.7696114   -4.5164845   -4.5164845   -3.3620697  0.010246305   -4.5164845    1.1544148      1024000 
  528000   0.76907044   -4.5145092   -4.5145092   -3.3609059  0.012741834   -4.5145092    1.1536033      1024000 
  529000   0.76913655   -4.5133215   -4.5133215    -3.359619  0.015247486   -4.5133215    1.1537025      1024000 
  530000   0.76946957   -4.5126064   -4.5126064   -3.3584044  0.011293272   -4.5126064     1.154202      1024000 
  531000     0.769945   -4.5110465   -4.5110465   -3.3561313   0.01120667   -4.5110465    1.1549152      1024000 
  532000   0.77030335   -4.5100686   -4.5100686   -3.3546159  0.012487024   -4.5100686    1.1554527      1024000 
  533000   0.77150957   -4.5106698   -4.5106698   -3.3534078  0.010470344   -4.5106698     1.157262      1024000 
  534000   0.77065754   -4.5082082   -4.5082082   -3.3522242   0.01160243   -4.5082082     1.155984      1024000 
  535000   0.77123415   -4.5081932   -4.5081932   -3.3513444 0.0079014475   -4.5081932    1.1568489      1024000 
  536000    0.7708274   -4.5064513   -4.5064513   -3.3502125 0.0039877897   -4.5064513    1.1562388      1024000 
  537000   0.77102733   -4.5049899   -4.5049899   -3.3484512  0.010257509   -4.5049899    1.1565386      1024000 
  538000   0.77203011   -4.5048356   -4.5048356   -3.3467928 0.0086463403   -4.5048356    1.1580428      1024000 
  539000   0.77102837   -4.5022338   -4.5022338   -3.3456936  0.013325411   -4.5022338    1.1565402      1024000 
  540000   0.77155312   -4.5018658   -4.5018658   -3.3445385  0.013478898   -4.5018658    1.1573273      1024000 
  541000   0.77269534   -4.5016413   -4.5016413   -3.3426007  0.014661475   -4.5016413    1.1590407      1024000 
  542000   0.77418761   -4.5030411   -4.5030411   -3.3417621  0.013519601   -4.5030411    1.1612791      1024000 
  543000    0.7732619   -4.5009201   -4.5009201   -3.3410296  0.020835355   -4.5009201    1.1598905      1024000 
  544000   0.77489612   -4.5023745   -4.5023745   -3.3400327  0.018774944   -4.5023745    1.1623418      1024000 
  545000   0.77469749   -4.5013795   -4.5013795   -3.3393356  0.017461924   -4.5013795    1.1620439      1024000 
  546000   0.77408507   -4.4992223   -4.4992223   -3.3380971  0.015858779   -4.4992223    1.1611252      1024000 
  547000   0.77411439   -4.4987622   -4.4987622   -3.3375929   0.01531876   -4.4987622    1.1611692      1024000 
  548000   0.77509371   -4.4990178   -4.4990178   -3.3363796  0.015408451   -4.4990178    1.1626382      1024000 
  549000   0.77380708   -4.4962433   -4.4962433    -3.335535  0.013617719   -4.4962433    1.1607083      1024000 
  550000   0.77411025   -4.4950818   -4.4950818   -3.3339188  0.013347559   -4.4950818     1.161163      1024000 
  551000   0.77557131   -4.4966815   -4.4966815   -3.3333269 0.0098462385   -4.4966815    1.1633546      1024000 
  552000   0.77629582    -4.495727    -4.495727   -3.3312856 0.0076904745    -4.495727    1.1644414      1024000 
  553000    0.7750268   -4.4935182   -4.4935182   -3.3309803  0.012963959   -4.4935182    1.1625378      1024000 
  554000   0.77572903   -4.4931099   -4.4931099   -3.3295188  0.012852908   -4.4931099    1.1635912      1024000 
  555000   0.77616782   -4.4927249   -4.4927249   -3.3284755  0.011215769   -4.4927249    1.1642494      1024000 
  556000   0.77609973   -4.4921703   -4.4921703   -3.3280231  0.012287838   -4.4921703    1.1641472      1024000 
  557000   0.77661614   -4.4903993   -4.4903993   -3.3254775  0.014266669   -4.4903993    1.1649218      1024000 
  558000   0.77654651    -4.488824    -4.488824   -3.3240066  0.021884593    -4.488824    1.1648174      1024000 
  559000   0.77620245   -4.4877815   -4.4877815   -3.3234801  0.021251492   -4.4877815    1.1643013      1024000 
  560000   0.77692412   -4.4872585   -4.4872585   -3.3218746  0.016921652   -4.4872585    1.1653838      1024000 
  561000   0.77675857    -4.485841    -4.485841   -3.3207055  0.012993188    -4.485841    1.1651355      1024000 
  562000    0.7770689   -4.4860094   -4.4860094   -3.3204085  0.010253928   -4.4860094     1.165601      1024000 
  563000   0.77679584   -4.4850894   -4.4850894    -3.319898  0.011570192   -4.4850894    1.1651914      1024000 
  564000   0.77681784   -4.4839573   -4.4839573   -3.3187329  0.012023833   -4.4839573    1.1652244      1024000 
  565000   0.77768892   -4.4822795   -4.4822795   -3.3157484  0.012968177   -4.4822795     1.166531      1024000 
  566000   0.77799834   -4.4812864   -4.4812864   -3.3142913  0.012723625   -4.4812864    1.1669951      1024000 
  567000   0.77775368   -4.4795343   -4.4795343   -3.3129061  0.018045477   -4.4795343    1.1666281      1024000 
  568000   0.77725077   -4.4787516   -4.4787516   -3.3128778  0.014047988   -4.4787516    1.1658738      1024000 
  569000   0.77761885   -4.4780767   -4.4780767   -3.3116508  0.013223815   -4.4780767    1.1664259      1024000 
  570000   0.77834614   -4.4789343   -4.4789343   -3.3114175  0.011271483   -4.4789343    1.1675168      1024000 
  571000   0.77765024   -4.4766239   -4.4766239   -3.3101509  0.010957673   -4.4766239     1.166473      1024000 
  572000   0.77874401   -4.4769595   -4.4769595   -3.3088458 0.0098838984   -4.4769595    1.1681136      1024000 
  573000   0.77861438   -4.4749075   -4.4749075   -3.3069883 0.0095475015   -4.4749075    1.1679192      1024000 
  574000   0.77863963    -4.474756    -4.474756    -3.306799  0.011387325    -4.474756    1.1679571      1024000 
  575000   0.77873284   -4.4734243   -4.4734243   -3.3053274  0.009244647   -4.4734243    1.1680969      1024000 
  576000    0.7789981   -4.4722024   -4.4722024   -3.3037076 0.0094853684   -4.4722024    1.1684948      1024000 
  577000   0.78018682   -4.4724633   -4.4724633   -3.3021854 0.0048699096   -4.4724633    1.1702779      1024000 
  578000    0.7796458   -4.4693462   -4.4693462   -3.2998798  0.011800036   -4.4693462    1.1694663      1024000 
  579000   0.77949813   -4.4681514   -4.4681514   -3.2989066  0.010278198   -4.4681514    1.1692448      1024000 
  580000   0.78128597   -4.4683846   -4.4683846    -3.296458  0.013302464   -4.4683846    1.1719266      1024000 
  581000   0.78169987   -4.4682658   -4.4682658   -3.2957184  0.011836924   -4.4682658    1.1725474      1024000 
  582000   0.78093248   -4.4666936   -4.4666936   -3.2952973  0.014885524   -4.4666936    1.1713963      1024000 
  583000   0.78245694      -4.4672      -4.4672   -3.2935169  0.014373598      -4.4672     1.173683      1024000 
  584000   0.78171995    -4.465105    -4.465105   -3.2925275  0.015724197    -4.465105    1.1725775      1024000 
  585000    0.7817938   -4.4625802   -4.4625802   -3.2898919  0.018379916   -4.4625802    1.1726883      1024000 
  586000   0.78359758   -4.4641121   -4.4641121   -3.2887181  0.013797124   -4.4641121     1.175394      1024000 
  587000   0.78290394   -4.4619005   -4.4619005    -3.287547  0.015026075   -4.4619005    1.1743535      1024000 
  588000   0.78391128   -4.4615638   -4.4615638   -3.2856993  0.015088452   -4.4615638    1.1758645      1024000 
  589000   0.78189563   -4.4584573   -4.4584573   -3.2856163  0.023315408   -4.4584573    1.1728411      1024000 
  590000   0.78311165   -4.4599987   -4.4599987   -3.2853336  0.014897746   -4.4599987    1.1746651      1024000 
  591000   0.78403392   -4.4598914   -4.4598914   -3.2838429  0.013714189   -4.4598914    1.1760485      1024000 
  592000   0.78330338   -4.4575571   -4.4575571   -3.2826044  0.012970717   -4.4575571    1.1749527      1024000 
  593000   0.78388562   -4.4578465   -4.4578465   -3.2820205 0.0070648688   -4.4578465     1.175826      1024000 
  594000   0.78394219   -4.4566478   -4.4566478   -3.2807369  0.012643333   -4.4566478    1.1759109      1024000 
  595000   0.78489372   -4.4563331   -4.4563331   -3.2789949  0.011941402   -4.4563331    1.1773382      1024000 
  596000   0.78531211   -4.4547941   -4.4547941   -3.2768284   0.01273862   -4.4547941    1.1779658      1024000 
  597000   0.78498766   -4.4534739   -4.4534739   -3.2759948  0.014288396   -4.4534739    1.1774791      1024000 
  598000   0.78513464   -4.4524065   -4.4524065   -3.2747069  0.011663633   -4.4524065    1.1776996      1024000 
  599000    0.7851733   -4.4513644   -4.4513644   -3.2736068  0.011785322   -4.4513644    1.1777576      1024000 
  600000   0.78596487    -4.450649    -4.450649   -3.2717041 0.0089500545    -4.450649    1.1789449      1024000 
  601000   0.78612606   -4.4493367   -4.4493367     -3.27015  0.012491156   -4.4493367    1.1791867      1024000 
  602000   0.78677053   -4.4478441   -4.4478441   -3.2676907  0.012777982   -4.4478441    1.1801534      1024000 
  603000   0.78762168   -4.4481709   -4.4481709   -3.2667408    0.0110937   -4.4481709    1.1814301      1024000 
  604000   0.78658156   -4.4460634   -4.4460634   -3.2661934  0.019252741   -4.4460634      1.17987      1024000 
  605000   0.78575215   -4.4441838   -4.4441838    -3.265558  0.016530448   -4.4441838    1.1786258      1024000 
  606000   0.78686954   -4.4446541   -4.4446541   -3.2643522  0.010875406   -4.4446541    1.1803019      1024000 
  607000   0.78585485   -4.4409288   -4.4409288   -3.2621489  0.019924488   -4.4409288    1.1787799      1024000 
  608000   0.78651139   -4.4397518   -4.4397518   -3.2599871   0.01682393   -4.4397518    1.1797647      1024000 
  609000   0.78767629   -4.4409417   -4.4409417   -3.2594296  0.010018358   -4.4409417     1.181512      1024000 
  610000   0.78651917   -4.4374856   -4.4374856   -3.2577093   0.01513997   -4.4374856    1.1797764      1024000 
  611000   0.78845913   -4.4385556   -4.4385556   -3.2558693 0.0095413593   -4.4385556    1.1826863      1024000 
  612000   0.78769775   -4.4348449   -4.4348449   -3.2533006  0.015695054   -4.4348449    1.1815442      1024000 
  613000   0.78832681   -4.4349093   -4.4349093   -3.2524215  0.011415585   -4.4349093    1.1824878      1024000 
  614000   0.78760482   -4.4332714   -4.4332714   -3.2518665  0.012689797   -4.4332714    1.1814048      1024000 
  615000   0.78847865   -4.4326167   -4.4326167   -3.2499011  0.015324757   -4.4326167    1.1827156      1024000 
  616000   0.78963948   -4.4331893   -4.4331893   -3.2487325  0.015472455   -4.4331893    1.1844568      1024000 
  617000   0.79040318   -4.4331049   -4.4331049   -3.2475025  0.010181686   -4.4331049    1.1856024      1024000 
  618000   0.78971681   -4.4304519   -4.4304519   -3.2458791  0.013004741   -4.4304519    1.1845728      1024000 
  619000   0.78993322   -4.4301961   -4.4301961   -3.2452986 0.0072245512   -4.4301961    1.1848974      1024000 
  620000   0.78958587   -4.4277224   -4.4277224    -3.243346 0.0090675191   -4.4277224    1.1843764      1024000 
  621000    0.7904343   -4.4276811   -4.4276811   -3.2420321 0.0083632344   -4.4276811     1.185649      1024000 
  622000   0.78945698   -4.4253093   -4.4253093   -3.2411262 0.0087380444   -4.4253093    1.1841831      1024000 
  623000   0.79010216   -4.4248891   -4.4248891   -3.2397383  0.004557046   -4.4248891    1.1851508      1024000 
  624000   0.78927413   -4.4228485   -4.4228485   -3.2389397 0.0056773898   -4.4228485    1.1839088      1024000 
  625000   0.78948008   -4.4227405   -4.4227405   -3.2385228 0.0045412167   -4.4227405    1.1842177      1024000 
  626000    0.7889758    -4.420128    -4.420128   -3.2366667 0.0070505038    -4.420128    1.1834613      1024000 
  627000   0.79038765   -4.4213603   -4.4213603   -3.2357813 0.0035889292   -4.4213603    1.1855791      1024000 
  628000   0.79234906   -4.4223505   -4.4223505   -3.2338293 0.0049842222   -4.4223505    1.1885212      1024000 
  629000   0.79081924   -4.4177633   -4.4177633   -3.2315369  0.013975167   -4.4177633    1.1862265      1024000 
  630000   0.79240146   -4.4184203   -4.4184203   -3.2298205  0.014594789   -4.4184203    1.1885998      1024000 
  631000   0.79301312   -4.4185253   -4.4185253   -3.2290081  0.011512728   -4.4185253    1.1895173      1024000 
  632000   0.79200642   -4.4168081   -4.4168081   -3.2288009  0.011138931   -4.4168081    1.1880072      1024000 
  633000   0.79403392   -4.4176849   -4.4176849   -3.2266364  0.011863757   -4.4176849    1.1910485      1024000 
  634000   0.79245782   -4.4141011   -4.4141011   -3.2254168  0.018448101   -4.4141011    1.1886843      1024000 
  635000   0.79366833   -4.4149272   -4.4149272   -3.2244271  0.013790633   -4.4149272    1.1905001      1024000 
  636000   0.79318732   -4.4125794   -4.4125794   -3.2228008  0.017918641   -4.4125794    1.1897786      1024000 
  637000   0.79433711   -4.4124657   -4.4124657   -3.2209624  0.020939674   -4.4124657    1.1915032      1024000 
  638000   0.79462649   -4.4112309   -4.4112309   -3.2192936  0.019371011   -4.4112309    1.1919373      1024000 
  639000   0.79568997   -4.4113856   -4.4113856   -3.2178531  0.010642209   -4.4113856    1.1935325      1024000 
  640000   0.79571647   -4.4102058   -4.4102058   -3.2166335  0.014118792   -4.4102058    1.1935723      1024000 
  641000   0.79512486   -4.4085085   -4.4085085   -3.2158237  0.014797801   -4.4085085    1.1926849      1024000 
  642000   0.79663919   -4.4084582   -4.4084582   -3.2135019   0.01452214   -4.4084582    1.1949564      1024000 
  643000   0.79616779   -4.4067269   -4.4067269   -3.2124776  0.019941752   -4.4067269    1.1942493      1024000 
  644000   0.79765697   -4.4080372   -4.4080372   -3.2115542  0.016362119   -4.4080372     1.196483      1024000 
  645000   0.79702871   -4.4054094   -4.4054094   -3.2098687  0.019622121   -4.4054094    1.1955406      1024000 
  646000   0.79722065   -4.4048765   -4.4048765   -3.2090479  0.018117121   -4.4048765    1.1958285      1024000 
  647000   0.79720688   -4.4038294   -4.4038294   -3.2080215  0.018358979   -4.4038294    1.1958079      1024000 
  648000   0.79763113    -4.402045    -4.402045   -3.2056007  0.016238998    -4.402045    1.1964443      1024000 
  649000   0.79753176   -4.4010833   -4.4010833   -3.2047881  0.012979765   -4.4010833    1.1962952      1024000 
  650000   0.79809255    -4.399249    -4.399249   -3.2021126  0.012292141    -4.399249    1.1971364      1024000 
  651000   0.79680038   -4.3965606   -4.3965606   -3.2013624  0.016180385   -4.3965606    1.1951981      1024000 
  652000   0.79745165   -4.3960132   -4.3960132   -3.1998381  0.013067227   -4.3960132     1.196175      1024000 
  653000   0.79802354     -4.39502     -4.39502   -3.1979871  0.013577703     -4.39502    1.1970329      1024000 
  654000   0.79784041   -4.3945643   -4.3945643   -3.1978061  0.013644581   -4.3945643    1.1967582      1024000 
  655000   0.79870465   -4.3941248   -4.3941248   -3.1960703  0.014154897   -4.3941248    1.1980545      1024000 
  656000   0.79818889   -4.3916646   -4.3916646   -3.1943837  0.010770967   -4.3916646    1.1972809      1024000 
  657000   0.79768923    -4.390353    -4.390353   -3.1938215  0.012553576    -4.390353    1.1965314      1024000 
  658000   0.79854946   -4.3908919   -4.3908919   -3.1930701  0.010898486   -4.3908919    1.1978218      1024000 
  659000   0.79872217   -4.3885229   -4.3885229   -3.1904421  0.010676019   -4.3885229    1.1980808      1024000 
  660000   0.80035945   -4.3885907   -4.3885907   -3.1880539 0.0050295522   -4.3885907    1.2005367      1024000 
  661000   0.79956549   -4.3857529   -4.3857529   -3.1864071 0.0075069309   -4.3857529    1.1993458      1024000 
  662000    0.7994357   -4.3838732   -4.3838732   -3.1847221  0.009315348   -4.3838732    1.1991511      1024000 
  663000   0.80010529   -4.3839611   -4.3839611   -3.1838056 0.0086224825   -4.3839611    1.2001555      1024000 
  664000   0.79896628   -4.3813364   -4.3813364   -3.1828894  0.011801191   -4.3813364     1.198447      1024000 
  665000   0.79878504   -4.3804595   -4.3804595   -3.1822843 0.0094124259   -4.3804595    1.1981751      1024000 
  666000   0.79913049   -4.3789778   -4.3789778   -3.1802845  0.011935597   -4.3789778    1.1986933      1024000 
  667000   0.80023095   -4.3792005   -4.3792005   -3.1788565  0.010334353   -4.3792005     1.200344      1024000 
  668000   0.79967726   -4.3764838   -4.3764838   -3.1769703  0.010463292   -4.3764838    1.1995135      1024000 
  669000   0.80092437   -4.3766453   -4.3766453   -3.1752612  0.015301209   -4.3766453    1.2013841      1024000 
  670000   0.80082377   -4.3753378   -4.3753378   -3.1741046 0.0080052855   -4.3753378    1.2012332      1024000 
  671000   0.80154963   -4.3744581   -4.3744581   -3.1721361  0.010275385   -4.3744581     1.202322      1024000 
  672000   0.80152487   -4.3736263   -4.3736263   -3.1713415   0.01050232   -4.3736263    1.2022849      1024000 
  673000   0.80184113    -4.372773    -4.372773   -3.1700137  0.013701182    -4.372773    1.2027593      1024000 
  674000   0.80220076    -4.372299    -4.372299   -3.1690003  0.010237299    -4.372299    1.2032987      1024000 
  675000   0.80257791    -4.370237    -4.370237   -3.1663726  0.010461168    -4.370237    1.2038644      1024000 
  676000   0.80294493   -4.3699836   -4.3699836   -3.1655687  0.011103204   -4.3699836     1.204415      1024000 
  677000   0.80137442   -4.3662226   -4.3662226   -3.1641634  0.016726897   -4.3662226    1.2020592      1024000 
  678000    0.8029571   -4.3671087   -4.3671087   -3.1626755  0.014164799   -4.3671087    1.2044332      1024000 
  679000    0.8037664   -4.3667678   -4.3667678   -3.1611206  0.010705094   -4.3667678    1.2056472      1024000 
  680000   0.80340434   -4.3651283   -4.3651283   -3.1600242  0.013388882   -4.3651283    1.2051041      1024000 
  681000    0.8041216   -4.3641714   -4.3641714   -3.1579915   0.01703498   -4.3641714      1.20618      1024000 
  682000   0.80428813   -4.3635329   -4.3635329   -3.1571032  0.014215748   -4.3635329    1.2064298      1024000 
  683000   0.80426377   -4.3613317   -4.3613317   -3.1549385  0.018474325   -4.3613317    1.2063932      1024000 
  684000   0.80575898   -4.3622671   -4.3622671   -3.1536311  0.010994901   -4.3622671     1.208636      1024000 
  685000    0.8046485   -4.3598307   -4.3598307   -3.1528604  0.015991007   -4.3598307    1.2069703      1024000 
  686000   0.80575893   -4.3597621   -4.3597621   -3.1511262  0.017353956   -4.3597621    1.2086359      1024000 
  687000   0.80460975   -4.3574618   -4.3574618   -3.1505496  0.016249972   -4.3574618    1.2069122      1024000 
  688000   0.80599156   -4.3577005   -4.3577005   -3.1487156  0.015486744   -4.3577005    1.2089849      1024000 
  689000   0.80697323   -4.3573242   -4.3573242   -3.1468668  0.018871147   -4.3573242    1.2104574      1024000 
  690000   0.80609034   -4.3555972   -4.3555972   -3.1464641   0.01682742   -4.3555972    1.2091331      1024000 
  691000   0.80658526   -4.3553712   -4.3553712   -3.1454957  0.015459697   -4.3553712    1.2098754      1024000 
  692000   0.80679316   -4.3541851   -4.3541851   -3.1439978 0.0098997458   -4.3541851    1.2101873      1024000 
  693000   0.80691655   -4.3530057   -4.3530057   -3.1426334  0.011121419   -4.3530057    1.2103724      1024000 
  694000   0.80657067   -4.3515191   -4.3515191   -3.1416656  0.014645202   -4.3515191    1.2098536      1024000 
  695000    0.8058957   -4.3489973   -4.3489973   -3.1401562  0.015673589   -4.3489973    1.2088411      1024000 
  696000   0.80760655   -4.3497994   -4.3497994    -3.138392 0.0091100691   -4.3497994    1.2114074      1024000 
  697000   0.80819706    -4.349038    -4.349038   -3.1367448 0.0090514832    -4.349038    1.2122931      1024000 
  698000   0.80793987   -4.3472731   -4.3472731   -3.1353658  0.009763625   -4.3472731    1.2119074      1024000 
  699000   0.80860376   -4.3470922   -4.3470922    -3.134189 0.0087026681   -4.3470922    1.2129032      1024000 
  700000     0.808653   -4.3450634   -4.3450634   -3.1320863  0.013243307   -4.3450634     1.212977      1024000 
  701000   0.80844205   -4.3431637   -4.3431637    -3.130503  0.014126812   -4.3431637    1.2126606      1024000 
  702000   0.80910438   -4.3430787   -4.3430787   -3.1294246 0.0094145581   -4.3430787    1.2136541      1024000 
  703000   0.80823383   -4.3400355   -4.3400355   -3.1276872  0.015456409   -4.3400355    1.2123483      1024000 
  704000   0.81021343   -4.3414372   -4.3414372   -3.1261196  0.014189225   -4.3414372    1.2153177      1024000 
  705000   0.81058636   -4.3396797   -4.3396797   -3.1238026  0.018506083   -4.3396797    1.2158771      1024000 
  706000   0.80985382   -4.3366186   -4.3366186   -3.1218404  0.020513669   -4.3366186    1.2147783      1024000 
  707000   0.81025584   -4.3362728   -4.3362728   -3.1208915  0.015998143   -4.3362728    1.2153813      1024000 
  708000   0.81082452    -4.335511    -4.335511   -3.1192767  0.012665581    -4.335511    1.2162343      1024000 
  709000    0.8119861   -4.3353088   -4.3353088   -3.1173321  0.011636739   -4.3353088    1.2179767      1024000 
  710000   0.81027912   -4.3316615   -4.3316615   -3.1162453  0.017643111   -4.3316615    1.2154162      1024000 
  711000   0.81071889   -4.3305397   -4.3305397   -3.1144638  0.016549728   -4.3305397    1.2160759      1024000 
  712000   0.81083102   -4.3300441   -4.3300441      -3.1138 0.0086664047   -4.3300441    1.2162441      1024000 
  713000   0.81070943   -4.3285213   -4.3285213   -3.1124596   0.00713536   -4.3285213    1.2160617      1024000 
  714000   0.80844332   -4.3238661   -4.3238661   -3.1112035  0.014367604   -4.3238661    1.2126625      1024000 
  715000   0.81008732   -4.3244326   -4.3244326   -3.1093041   0.01038086   -4.3244326    1.2151285      1024000 
  716000   0.81087445   -4.3246594   -4.3246594   -3.1083502 0.0079124584   -4.3246594    1.2163092      1024000 
  717000   0.81125945   -4.3235046   -4.3235046   -3.1066179 0.0069726953   -4.3235046    1.2168867      1024000 
  718000   0.81048207   -4.3205614   -4.3205614   -3.1048407  0.011214579   -4.3205614    1.2157206      1024000 
  719000   0.81237622   -4.3217463   -4.3217463   -3.1031845 0.0040121236   -4.3217463    1.2185619      1024000 
  720000   0.81167965   -4.3187698   -4.3187698   -3.1012528  0.016046988   -4.3187698     1.217517      1024000 
  721000   0.81275548   -4.3189566   -4.3189566   -3.0998259 0.0090943313   -4.3189566    1.2191307      1024000 
  722000   0.81363351   -4.3183341   -4.3183341   -3.0978863 0.0098263092   -4.3183341    1.2204478      1024000 
  723000   0.81309953   -4.3161266   -4.3161266   -3.0964797  0.012460244   -4.3161266    1.2196468      1024000 
  724000   0.81325189    -4.314997    -4.314997   -3.0951216  0.015620126    -4.314997    1.2198754      1024000 
  725000   0.81543792   -4.3157342   -4.3157342   -3.0925798  0.011401485   -4.3157342    1.2231544      1024000 
  726000   0.81439316   -4.3128623   -4.3128623    -3.091275  0.015192705   -4.3128623    1.2215873      1024000 
  727000   0.81541377    -4.312838    -4.312838   -3.0897199   0.01702538    -4.312838    1.2231182      1024000 
  728000   0.81475772   -4.3109854   -4.3109854   -3.0888513  0.016327278   -4.3109854    1.2221341      1024000 
  729000     0.816245   -4.3110728   -4.3110728   -3.0867078   0.01875213   -4.3110728     1.224365      1024000 
  730000   0.81477304   -4.3088043   -4.3088043   -3.0866472  0.016258999   -4.3088043    1.2221571      1024000 
  731000   0.81534816    -4.306925    -4.306925   -3.0839052  0.014935056    -4.306925    1.2230198      1024000 
  732000   0.81597288   -4.3070995   -4.3070995   -3.0831427  0.006348297   -4.3070995    1.2239568      1024000 
  733000   0.81651015   -4.3061629   -4.3061629   -3.0814002   0.01227698   -4.3061629    1.2247627      1024000 
  734000   0.81527121   -4.3039378   -4.3039378   -3.0810334   0.01430611   -4.3039378    1.2229043      1024000 
  735000   0.81597594   -4.3030439   -4.3030439   -3.0790825  0.012714833   -4.3030439    1.2239614      1024000 
  736000   0.81635851    -4.301565    -4.301565   -3.0770297  0.012494331    -4.301565    1.2245353      1024000 
  737000   0.81757019     -4.30307     -4.30307   -3.0767172 0.0041765383     -4.30307    1.2263528      1024000 
  738000   0.81712653   -4.3005275   -4.3005275   -3.0748402 0.0096969013   -4.3005275    1.2256873      1024000 
  739000   0.81690524   -4.2989393   -4.2989393   -3.0735839  0.011272221   -4.2989393    1.2253554      1024000 
  740000   0.81601383   -4.2960192   -4.2960192   -3.0720009  0.012211267   -4.2960192    1.2240183      1024000 
  741000    0.8167967   -4.2955571   -4.2955571   -3.0703645  0.013099829   -4.2955571    1.2251926      1024000 
  742000   0.81642315   -4.2946351   -4.2946351   -3.0700029  0.013613409   -4.2946351    1.2246322      1024000 
  743000   0.81872577   -4.2959115   -4.2959115   -3.0678253 0.0088259765   -4.2959115    1.2280862      1024000 
  744000   0.81810065   -4.2936271   -4.2936271   -3.0664786 0.0098614017   -4.2936271    1.2271485      1024000 
  745000   0.81826936   -4.2924639   -4.2924639   -3.0650623  0.014634248   -4.2924639    1.2274016      1024000 
  746000   0.82026379   -4.2943392   -4.2943392    -3.063946  0.013008621   -4.2943392    1.2303932      1024000 
  747000   0.81943689   -4.2912392   -4.2912392   -3.0620864  0.017938261   -4.2912392    1.2291528      1024000 
  748000   0.81967065   -4.2899246   -4.2899246   -3.0604211  0.014738649   -4.2899246    1.2295035      1024000 
  749000   0.81824512    -4.286438    -4.286438   -3.0590728  0.018465292    -4.286438    1.2273652      1024000 
  750000   0.82097661   -4.2884302   -4.2884302   -3.0569678  0.014476424   -4.2884302    1.2314624      1024000 
  751000   0.82069484   -4.2870097   -4.2870097   -3.0559699  0.016974986   -4.2870097    1.2310398      1024000 
  752000   0.82138145   -4.2862714   -4.2862714   -3.0542017   0.01933882   -4.2862714    1.2320697      1024000 
  753000    0.8216817   -4.2842424   -4.2842424   -3.0517223  0.019659586   -4.2842424      1.23252      1024000 
  754000   0.82106654   -4.2826782   -4.2826782   -3.0510809  0.020482936   -4.2826782    1.2315973      1024000 
  755000    0.8217729   -4.2817359   -4.2817359   -3.0490791  0.011660409   -4.2817359    1.2326568      1024000 
  756000   0.82057001   -4.2797887   -4.2797887   -3.0489362  0.011393799   -4.2797887    1.2308525      1024000 
  757000   0.82121074   -4.2789556   -4.2789556    -3.047142  0.013969745   -4.2789556    1.2318136      1024000 
  758000   0.82097545   -4.2766447   -4.2766447    -3.045184   0.01559273   -4.2766447    1.2314607      1024000 
  759000   0.82151897   -4.2762636   -4.2762636   -3.0439876  0.010171244   -4.2762636     1.232276      1024000 
  760000   0.82120439   -4.2740502   -4.2740502   -3.0422461  0.010879487   -4.2740502    1.2318041      1024000 
  761000   0.82251868   -4.2738674   -4.2738674   -3.0400919  0.013380929   -4.2738674    1.2337755      1024000 
  762000   0.82226994   -4.2734408   -4.2734408   -3.0400384  0.013451207   -4.2734408    1.2334024      1024000 
  763000   0.82242085   -4.2713223   -4.2713223   -3.0376935  0.017448161   -4.2713223    1.2336288      1024000 
  764000   0.82365712   -4.2717733   -4.2717733   -3.0362901 0.0087796227   -4.2717733    1.2354832      1024000 
  765000   0.82244199   -4.2684169   -4.2684169   -3.0347564  0.019866918   -4.2684169    1.2336605      1024000 
  766000   0.82268776   -4.2660404   -4.2660404   -3.0320113  0.020275227   -4.2660404    1.2340291      1024000 
  767000   0.82406719    -4.266725    -4.266725   -3.0306267  0.014795247    -4.266725    1.2360983      1024000 
  768000   0.82443839   -4.2651738   -4.2651738   -3.0285187  0.016061691   -4.2651738    1.2366551      1024000 
  769000    0.8243701   -4.2632478   -4.2632478   -3.0266952  0.019109619   -4.2632478    1.2365526      1024000 
  770000   0.82472612   -4.2627114   -4.2627114   -3.0256247  0.010509607   -4.2627114    1.2370867      1024000 
  771000   0.82503286   -4.2613609   -4.2613609   -3.0238141  0.016033995   -4.2613609    1.2375468      1024000 
  772000   0.82544024   -4.2612325   -4.2612325   -3.0230746   0.01224355   -4.2612325    1.2381578      1024000 
  773000   0.82336257   -4.2573903   -4.2573903    -3.022349  0.013446072   -4.2573903    1.2350414      1024000 
  774000   0.82450053   -4.2567907   -4.2567907   -3.0200424  0.011951409   -4.2567907    1.2367483      1024000 
  775000   0.82608177   -4.2569884   -4.2569884   -3.0178682  0.011020898   -4.2569884    1.2391201      1024000 
  776000    0.8254578   -4.2556402   -4.2556402    -3.017456  0.011757104   -4.2556402    1.2381842      1024000 
  777000   0.82476857   -4.2525944   -4.2525944   -3.0154441  0.011558701   -4.2525944    1.2371503      1024000 
  778000   0.82634053   -4.2532103   -4.2532103    -3.013702  0.011329124   -4.2532103    1.2395083      1024000 
  779000   0.82638577   -4.2507447   -4.2507447   -3.0111686  0.012519035   -4.2507447    1.2395761      1024000 
  780000   0.82647054   -4.2498081   -4.2498081   -3.0101048  0.017322067   -4.2498081    1.2397033      1024000 
  781000   0.82699975   -4.2493928   -4.2493928   -3.0088957  0.017199121   -4.2493928    1.2404971      1024000 
  782000   0.82701521   -4.2479433   -4.2479433    -3.007423  0.015944635   -4.2479433    1.2405203      1024000 
  783000   0.82620005   -4.2451662   -4.2451662   -3.0058687  0.019314362   -4.2451662    1.2392976      1024000 
  784000   0.82603087   -4.2436673   -4.2436673   -3.0046235  0.014302215   -4.2436673    1.2390438      1024000 
  785000   0.82714368   -4.2440342   -4.2440342   -3.0033212  0.006803045   -4.2440342     1.240713      1024000 
  786000   0.82765672   -4.2429102   -4.2429102   -3.0014276  0.012379544   -4.2429102    1.2414826      1024000 
  787000   0.82716273   -4.2403128   -4.2403128   -2.9995713  0.012580678   -4.2403128    1.2407416      1024000 
  788000   0.82690593   -4.2389448   -4.2389448   -2.9985884  0.010337581   -4.2389448    1.2403564      1024000 
  789000   0.82705145   -4.2372518   -4.2372518   -2.9966771 0.0094909746   -4.2372518    1.2405747      1024000 
  790000   0.82748544   -4.2368558   -4.2368558   -2.9956302 0.0093389396   -4.2368558    1.2412256      1024000 
  791000    0.8273803   -4.2359199   -4.2359199   -2.9948519  0.013001785   -4.2359199    1.2410679      1024000 
  792000   0.82839162   -4.2357209   -4.2357209    -2.993136  0.010678657   -4.2357209    1.2425849      1024000 
  793000   0.82887394   -4.2347206   -4.2347206   -2.9914122 0.0085951984   -4.2347206    1.2433084      1024000 
  794000   0.82698522   -4.2308413   -4.2308413    -2.990366 0.0094161963   -4.2308413    1.2404753      1024000 
  795000   0.82808961   -4.2309701   -4.2309701   -2.9888382  0.014279771   -4.2309701    1.2421319      1024000 
  796000   0.82837826   -4.2305218   -4.2305218   -2.9879569 0.0028748569   -4.2305218    1.2425649      1024000 
  797000   0.82833155   -4.2287019   -4.2287019   -2.9862071 0.0079695059   -4.2287019    1.2424948      1024000 
  798000   0.82831721   -4.2269958   -4.2269958   -2.9845225 0.0047946997   -4.2269958    1.2424733      1024000 
  799000    0.8291658   -4.2257279   -4.2257279   -2.9819817  0.005057017   -4.2257279    1.2437462      1024000 
  800000   0.82927929   -4.2247261   -4.2247261   -2.9808097 0.0045716928   -4.2247261    1.2439164      1024000 
  801000   0.82833433   -4.2222463   -4.2222463   -2.9797473 0.0049540932   -4.2222463     1.242499      1024000 
  802000   0.83106517   -4.2240071   -4.2240071   -2.9774119  0.009376844   -4.2240071    1.2465952      1024000 
  803000   0.83068455   -4.2220004   -4.2220004   -2.9759761  0.016320803   -4.2220004    1.2460243      1024000 
  804000   0.83224237   -4.2224245   -4.2224245   -2.9740635 0.0058416864   -4.2224245     1.248361      1024000 
  805000   0.83249364   -4.2216119   -4.2216119    -2.972874  0.017512663   -4.2216119    1.2487379      1024000 
  806000   0.83295562    -4.220148    -4.220148   -2.9707171  0.017352843    -4.220148    1.2494309      1024000 
  807000   0.83345695    -4.219264    -4.219264   -2.9690812  0.015813304    -4.219264    1.2501829      1024000 
  808000   0.83320075    -4.217306    -4.217306   -2.9675074  0.021304263    -4.217306    1.2497986      1024000 
  809000   0.83450285   -4.2179869   -4.2179869   -2.9662352  0.019971283   -4.2179869    1.2517517      1024000 
  810000   0.83405403   -4.2156126   -4.2156126   -2.9645341  0.015412545   -4.2156126    1.2510785      1024000 
  811000   0.83359675   -4.2144291   -4.2144291   -2.9640365  0.012758215   -4.2144291    1.2503926      1024000 
  812000   0.83436151   -4.2138334   -4.2138334   -2.9622936  0.017072203   -4.2138334    1.2515397      1024000 
  813000   0.83401864   -4.2125022   -4.2125022   -2.9614768 0.0095981117   -4.2125022    1.2510254      1024000 
  814000   0.83304552   -4.2096035   -4.2096035   -2.9600378  0.010345978   -4.2096035    1.2495657      1024000 
  815000   0.83394241   -4.2089404   -4.2089404   -2.9580293  0.012819004   -4.2089404    1.2509111      1024000 
  816000   0.83350596   -4.2073428   -4.2073428   -2.9570864 0.0070900832   -4.2073428    1.2502564      1024000 
  817000   0.83268406   -4.2047302   -4.2047302   -2.9557066 0.0085388854   -4.2047302    1.2490236      1024000 
  818000   0.83391193   -4.2054579   -4.2054579   -2.9545926 0.0037457049   -4.2054579    1.2508654      1024000 
  819000   0.83415593   -4.2048043   -4.2048043   -2.9535729  0.010424007   -4.2048043    1.2512314      1024000 
  820000   0.83334354   -4.2012295   -4.2012295   -2.9512167  0.016805378   -4.2012295    1.2500128      1024000 
  821000    0.8355978    -4.202424    -4.202424   -2.9490298  0.011603631    -4.202424    1.2533942      1024000 
  822000    0.8350824   -4.2004877   -4.2004877   -2.9478666 0.0098252844   -4.2004877    1.2526211      1024000 
  823000   0.83575645   -4.2003535   -4.2003535   -2.9467214  0.012295848   -4.2003535    1.2536321      1024000 
  824000   0.83636336   -4.1992688   -4.1992688   -2.9447263  0.015037117   -4.1992688    1.2545425      1024000 
  825000    0.8368025   -4.1979132   -4.1979132    -2.942712  0.018601911   -4.1979132    1.2552012      1024000 
  826000   0.83708229   -4.1982418   -4.1982418   -2.9426209  0.019541822   -4.1982418    1.2556209      1024000 
  827000   0.83801823    -4.197704    -4.197704   -2.9406792   0.01428835    -4.197704    1.2570248      1024000 
  828000   0.83789676   -4.1959627   -4.1959627   -2.9391201  0.016603273   -4.1959627    1.2568426      1024000 
  829000   0.83723224   -4.1935936   -4.1935936   -2.9377477  0.019800297   -4.1935936    1.2558458      1024000 
  830000   0.83771837   -4.1930172   -4.1930172   -2.9364421  0.017112013   -4.1930172     1.256575      1024000 
  831000   0.83739831   -4.1914459   -4.1914459    -2.935351  0.021391434   -4.1914459    1.2560949      1024000 
  832000   0.83756318   -4.1903263   -4.1903263    -2.933984  0.021238916   -4.1903263    1.2563422      1024000 
  833000   0.83773078   -4.1894215   -4.1894215   -2.9328279  0.019326695   -4.1894215    1.2565936      1024000 
  834000   0.83815831   -4.1872446   -4.1872446   -2.9300097  0.021252572   -4.1872446    1.2572349      1024000 
  835000   0.84021819   -4.1883348   -4.1883348     -2.92801  0.016833546   -4.1883348    1.2603247      1024000 
  836000   0.83864114   -4.1843976   -4.1843976   -2.9264384  0.019700673   -4.1843976    1.2579592      1024000 
  837000   0.83940609   -4.1836423   -4.1836423   -2.9245357  0.014498284   -4.1836423    1.2591066      1024000 
  838000   0.83902695   -4.1816872   -4.1816872   -2.9231493  0.011686344   -4.1816872    1.2585379      1024000 
  839000   0.83807262   -4.1792051   -4.1792051   -2.9220987  0.013391454   -4.1792051    1.2571064      1024000 
  840000    0.8391383   -4.1789516   -4.1789516   -2.9202467  0.013277006   -4.1789516    1.2587049      1024000 
  841000   0.84014535   -4.1793877   -4.1793877   -2.9191722 0.0094953723   -4.1793877    1.2602155      1024000 
  842000   0.83923619   -4.1770013   -4.1770013   -2.9181496 0.0079024002   -4.1770013    1.2588517      1024000 
  843000   0.83935982   -4.1755172   -4.1755172     -2.91648  0.017772229   -4.1755172    1.2590372      1024000 
  844000   0.83956147   -4.1742389   -4.1742389   -2.9148992  0.014585398   -4.1742389    1.2593397      1024000 
  845000   0.84040879   -4.1739594   -4.1739594   -2.9133488  0.014968428   -4.1739594    1.2606106      1024000 
  846000    0.8417712   -4.1738082   -4.1738082    -2.911154  0.019729087   -4.1738082    1.2626542      1024000 
  847000    0.8410678   -4.1714804   -4.1714804   -2.9098813  0.017712787   -4.1714804    1.2615991      1024000 
  848000   0.84164525   -4.1701593   -4.1701593    -2.907694  0.013717706   -4.1701593    1.2624653      1024000 
  849000   0.84107895   -4.1676105   -4.1676105   -2.9059947  0.025824667   -4.1676105    1.2616159      1024000 
  850000   0.84161723   -4.1671682   -4.1671682   -2.9047449  0.018525896   -4.1671682    1.2624233      1024000 
  851000   0.84204381   -4.1653595   -4.1653595   -2.9022963  0.021172448   -4.1653595    1.2630631      1024000 
  852000   0.84307795   -4.1647581   -4.1647581   -2.9001437  0.021868668   -4.1647581    1.2646144      1024000 
  853000   0.84427409   -4.1648554   -4.1648554   -2.8984468  0.020541826   -4.1648554    1.2664086      1024000 
  854000   0.84361056   -4.1622611   -4.1622611   -2.8968478  0.018001072   -4.1622611    1.2654133      1024000 
  855000   0.84341361   -4.1600016   -4.1600016   -2.8948837  0.019024205   -4.1600016    1.2651178      1024000 
  856000   0.84376583   -4.1596234   -4.1596234   -2.8939773  0.015538722   -4.1596234    1.2656462      1024000 
  857000   0.84396707   -4.1583736   -4.1583736   -2.8924256  0.016784378   -4.1583736     1.265948      1024000 
  858000   0.84429777   -4.1576348   -4.1576348   -2.8911907  0.014736675   -4.1576348    1.2664441      1024000 
  859000   0.84405558   -4.1553424   -4.1553424   -2.8892616  0.018219632   -4.1553424    1.2660808      1024000 
  860000   0.84357495   -4.1535813   -4.1535813   -2.8882215  0.016388724   -4.1535813    1.2653599      1024000 
  861000   0.84359021   -4.1511722   -4.1511722   -2.8857894  0.015095983   -4.1511722    1.2653827      1024000 
  862000   0.84380748   -4.1494959   -4.1494959   -2.8837873  0.014135007   -4.1494959    1.2657087      1024000 
  863000   0.84470536   -4.1486476   -4.1486476   -2.8815921  0.013133052   -4.1486476    1.2670555      1024000 
  864000   0.84392765   -4.1462922   -4.1462922   -2.8804033  0.014135835   -4.1462922    1.2658889      1024000 
  865000   0.84424396   -4.1455553   -4.1455553   -2.8791919  0.013440637   -4.1455553    1.2663634      1024000 
  866000   0.84477615   -4.1441114   -4.1441114   -2.8769498  0.015630363   -4.1441114    1.2671617      1024000 
  867000   0.84492412   -4.1436248   -4.1436248   -2.8762412  0.011507294   -4.1436248    1.2673836      1024000 
  868000   0.84386402   -4.1400171   -4.1400171   -2.8742236  0.020882919   -4.1400171    1.2657935      1024000 
  869000   0.84532774   -4.1403081   -4.1403081   -2.8723191  0.018881524   -4.1403081     1.267989      1024000 
  870000   0.84592015    -4.139805    -4.139805   -2.8709273   0.02387053    -4.139805    1.2688777      1024000 
  871000   0.84614459   -4.1377744   -4.1377744   -2.8685601  0.018971217   -4.1377744    1.2692143      1024000 
  872000   0.84640721    -4.136694    -4.136694   -2.8670858  0.014498774    -4.136694    1.2696082      1024000 
  873000   0.84607115   -4.1346785   -4.1346785   -2.8655744  0.010859574   -4.1346785    1.2691041      1024000 
  874000   0.84571272   -4.1316038   -4.1316038   -2.8630373  0.019149871   -4.1316038    1.2685665      1024000 
  875000   0.84575233   -4.1312514   -4.1312514   -2.8626255  0.016431261   -4.1312514    1.2686259      1024000 
  876000   0.84609569   -4.1306284   -4.1306284   -2.8614874  0.011084998   -4.1306284     1.269141      1024000 
  877000    0.8456538   -4.1270975   -4.1270975   -2.8586194  0.016021418   -4.1270975    1.2684781      1024000 
  878000   0.84628091   -4.1261254   -4.1261254   -2.8567066  0.015823588   -4.1261254    1.2694188      1024000 
  879000     0.847112   -4.1257023   -4.1257023   -2.8550369  0.021508294   -4.1257023    1.2706654      1024000 
  880000    0.8472061   -4.1244457   -4.1244457   -2.8536391  0.014145222   -4.1244457    1.2708066      1024000 
  881000   0.84666081    -4.122517    -4.122517   -2.8525283  0.015114165    -4.122517    1.2699886      1024000 
  882000   0.84826976   -4.1230976   -4.1230976   -2.8506955  0.011176898   -4.1230976    1.2724021      1024000 
  883000   0.84783045   -4.1200629   -4.1200629   -2.8483198  0.016497288   -4.1200629    1.2717431      1024000 
  884000   0.84767805   -4.1177399   -4.1177399   -2.8462254  0.018041266   -4.1177399    1.2715145      1024000 
  885000   0.84823378   -4.1170015   -4.1170015   -2.8446534  0.019032534   -4.1170015    1.2723481      1024000 
  886000   0.84830782   -4.1152723   -4.1152723   -2.8428132   0.01364905   -4.1152723    1.2724592      1024000 
  887000     0.847384   -4.1116719   -4.1116719   -2.8405985  0.019475095   -4.1116719    1.2710734      1024000 
  888000   0.84824002   -4.1112728   -4.1112728   -2.8389153   0.01918919   -4.1112728    1.2723574      1024000 
  889000    0.8494059   -4.1113345   -4.1113345   -2.8372283   0.02094529   -4.1113345    1.2741063      1024000 
  890000   0.85080702   -4.1122691   -4.1122691   -2.8360612  0.021762883   -4.1122691    1.2762079      1024000 
  891000   0.84986022   -4.1101728   -4.1101728    -2.835385  0.019024555   -4.1101728    1.2747877      1024000 
  892000    0.8498461   -4.1084786   -4.1084786   -2.8337121  0.017743685   -4.1084786    1.2747666      1024000 
  893000   0.84893675   -4.1056423   -4.1056423   -2.8322398  0.021647755   -4.1056423    1.2734025      1024000 
  894000   0.84968555   -4.1046463   -4.1046463   -2.8301206  0.016619253   -4.1046463    1.2745257      1024000 
  895000   0.85096472   -4.1039728   -4.1039728   -2.8275283  0.019244614   -4.1039728    1.2764445      1024000 
  896000   0.85131995    -4.102154    -4.102154   -2.8251767  0.022497766    -4.102154    1.2769773      1024000 
  897000   0.85033061    -4.098553    -4.098553   -2.8230597  0.020063646    -4.098553    1.2754933      1024000 
  898000   0.85249949   -4.1008802   -4.1008802   -2.8221335  0.014671976   -4.1008802    1.2787466      1024000 
  899000    0.8509311   -4.0965764   -4.0965764   -2.8201823  0.019086679   -4.0965764    1.2763941      1024000 
  900000   0.85250648   -4.0975891   -4.0975891    -2.818832  0.013180457   -4.0975891    1.2787571      1024000 
  901000   0.85236477   -4.0946444   -4.0946444   -2.8160998  0.019376506   -4.0946444    1.2785446      1024000 
  902000   0.85053728   -4.0907652   -4.0907652   -2.8149619  0.021784543   -4.0907652    1.2758033      1024000 
  903000   0.85217425   -4.0912335   -4.0912335   -2.8129747  0.016022836   -4.0912335    1.2782588      1024000 
  904000   0.85290599    -4.091102    -4.091102   -2.8117456  0.021738994    -4.091102    1.2793564      1024000 
  905000   0.85217364   -4.0890678   -4.0890678     -2.81081  0.020573558   -4.0890678    1.2782579      1024000 
  906000   0.85345914   -4.0890743   -4.0890743   -2.8088882  0.019654437   -4.0890743    1.2801861      1024000 
  907000   0.85367038   -4.0875318   -4.0875318   -2.8070288  0.015403455   -4.0875318     1.280503      1024000 
  908000   0.85315915   -4.0846282   -4.0846282    -2.804892  0.021131309   -4.0846282    1.2797361      1024000 
  909000   0.85456003   -4.0836716   -4.0836716   -2.8018341  0.018434182   -4.0836716    1.2818375      1024000 
  910000   0.85477968   -4.0826298   -4.0826298   -2.8004628  0.021613187   -4.0826298    1.2821669      1024000 
  911000   0.85431922    -4.080211    -4.080211   -2.7987348  0.021904241    -4.080211    1.2814762      1024000 
  912000   0.85484874    -4.079093    -4.079093   -2.7968224  0.020855296    -4.079093    1.2822705      1024000 
  913000    0.8542828   -4.0763963   -4.0763963   -2.7949747  0.022530505   -4.0763963    1.2814216      1024000 
  914000   0.85549008    -4.076479    -4.076479   -2.7932465  0.020381518    -4.076479    1.2832325      1024000 
  915000   0.85461734   -4.0727139   -4.0727139   -2.7907904  0.027469014   -4.0727139    1.2819234      1024000 
  916000   0.85482488   -4.0712383   -4.0712383   -2.7890036  0.028285931   -4.0712383    1.2822347      1024000 
  917000   0.85561647   -4.0711331   -4.0711331    -2.787711   0.02428172   -4.0711331    1.2834221      1024000 
  918000   0.85521039   -4.0689964   -4.0689964   -2.7861834  0.030818569   -4.0689964     1.282813      1024000 
  919000   0.85489096    -4.066976    -4.066976   -2.7846422  0.023304919    -4.066976    1.2823338      1024000 
  920000   0.85665671   -4.0686686   -4.0686686   -2.7836862   0.02439659   -4.0686686    1.2849825      1024000 
  921000   0.85594768   -4.0659923   -4.0659923   -2.7820734  0.024629674   -4.0659923    1.2839189      1024000 
  922000   0.85624111   -4.0645038   -4.0645038   -2.7801447  0.022060728   -4.0645038    1.2843591      1024000 
  923000   0.85613905   -4.0624328   -4.0624328   -2.7782269  0.027818802   -4.0624328     1.284206      1024000 
  924000   0.85733257    -4.061362    -4.061362   -2.7753658  0.021145229    -4.061362    1.2859963      1024000 
  925000   0.85721755    -4.059854    -4.059854   -2.7740302  0.020264813    -4.059854    1.2858237      1024000 
  926000   0.85605197   -4.0575664   -4.0575664    -2.773491  0.025170104   -4.0575664    1.2840753      1024000 
  927000   0.85670069     -4.05725     -4.05725   -2.7722016   0.02786551     -4.05725    1.2850484      1024000 
  928000   0.85680311    -4.055936    -4.055936    -2.770734  0.021479778    -4.055936    1.2852021      1024000 
  929000   0.85654681   -4.0537322   -4.0537322   -2.7689146  0.023423729   -4.0537322    1.2848176      1024000 
  930000   0.85657133    -4.052766    -4.052766   -2.7679116  0.025561452    -4.052766    1.2848544      1024000 
  931000   0.85750199   -4.0524623   -4.0524623   -2.7662119  0.028593651   -4.0524623    1.2862504      1024000 
  932000    0.8581636   -4.0503936   -4.0503936   -2.7631508  0.027226268   -4.0503936    1.2872428      1024000 
  933000   0.85853251   -4.0499832   -4.0499832    -2.762187  0.030912573   -4.0499832    1.2877962      1024000 
  934000   0.86076291   -4.0512917   -4.0512917     -2.76015  0.025711621   -4.0512917    1.2911417      1024000 
  935000   0.85852482   -4.0464447   -4.0464447   -2.7586601   0.03427597   -4.0464447    1.2877846      1024000 
  936000   0.85937285   -4.0470943   -4.0470943   -2.7580376  0.027281097   -4.0470943    1.2890567      1024000 
  937000   0.85894347   -4.0445646   -4.0445646    -2.756152  0.024814675   -4.0445646    1.2884126      1024000 
  938000   0.86042403    -4.045471    -4.045471   -2.7548376   0.02820252    -4.045471    1.2906334      1024000 
  939000   0.86063517   -4.0444115   -4.0444115   -2.7534613  0.031754139   -4.0444115    1.2909501      1024000 
  940000   0.86143332    -4.043995    -4.043995   -2.7518477  0.031238163    -4.043995    1.2921474      1024000 
  941000   0.86013018   -4.0406715   -4.0406715   -2.7504789   0.03878404   -4.0406715    1.2901927      1024000 
  942000   0.86029021   -4.0395523   -4.0395523   -2.7491196  0.033618747   -4.0395523    1.2904327      1024000 
  943000   0.86144962   -4.0399439   -4.0399439   -2.7477721  0.025940696   -4.0399439    1.2921718      1024000 
  944000   0.86074824   -4.0376262   -4.0376262   -2.7465065  0.029499761   -4.0376262    1.2911197      1024000 
  945000   0.86254124   -4.0387513   -4.0387513   -2.7449421  0.032914529   -4.0387513    1.2938092      1024000 
  946000   0.86129248   -4.0356512   -4.0356512   -2.7437151  0.036000933   -4.0356512    1.2919361      1024000 
  947000   0.86082992    -4.032899    -4.032899   -2.7416567  0.034256682    -4.032899    1.2912423      1024000 
  948000   0.86279727   -4.0343503   -4.0343503    -2.740157   0.02922503   -4.0343503    1.2941933      1024000 
  949000   0.86091958   -4.0298048   -4.0298048   -2.7384281  0.036995232   -4.0298048    1.2913767      1024000 
  950000   0.86144483   -4.0289006   -4.0289006   -2.7367359  0.035854486   -4.0289006    1.2921646      1024000 
  951000   0.86237088   -4.0293439   -4.0293439   -2.7357902  0.035458474   -4.0293439    1.2935537      1024000 
  952000   0.86292857   -4.0278742   -4.0278742   -2.7334839  0.036686341   -4.0278742    1.2943902      1024000 
  953000   0.86399816   -4.0278505   -4.0278505   -2.7318558  0.033688784   -4.0278505    1.2959946      1024000 
  954000   0.86313313   -4.0250755   -4.0250755   -2.7303785  0.038159417   -4.0250755    1.2946971      1024000 
  955000   0.86413333   -4.0260882   -4.0260882   -2.7298909  0.035653289   -4.0260882    1.2961974      1024000 
  956000   0.86455935   -4.0248094   -4.0248094    -2.727973    0.0349759   -4.0248094    1.2968364      1024000 
  957000   0.86494603   -4.0233633   -4.0233633   -2.7259469  0.033769997   -4.0233633    1.2974164      1024000 
  958000    0.8653547   -4.0217475   -4.0217475   -2.7237181  0.038489817   -4.0217475    1.2980294      1024000 
  959000   0.86490181    -4.019011    -4.019011   -2.7216609  0.034660932    -4.019011    1.2973501      1024000 
  960000   0.86320447   -4.0153503   -4.0153503   -2.7205462  0.041861708   -4.0153503    1.2948041      1024000 
  961000   0.86431816    -4.015734    -4.015734   -2.7192594  0.038000426    -4.015734    1.2964746      1024000 
  962000   0.86341899   -4.0135247   -4.0135247   -2.7183988  0.038646037   -4.0135247    1.2951259      1024000 
  963000   0.86483339   -4.0149919   -4.0149919   -2.7177445  0.035870976   -4.0149919    1.2972474      1024000 
  964000   0.86516872   -4.0136703   -4.0136703   -2.7159199  0.036514388   -4.0136703    1.2977504      1024000 
  965000   0.86444817   -4.0111317   -4.0111317   -2.7144621  0.040891014   -4.0111317    1.2966696      1024000 
  966000   0.86678036   -4.0124197   -4.0124197   -2.7122518  0.031019581   -4.0124197    1.3001679      1024000 
  967000   0.86729862   -4.0117203   -4.0117203    -2.710775  0.037207863   -4.0117203    1.3009453      1024000 
  968000   0.86718358   -4.0098087   -4.0098087    -2.709036  0.037993555   -4.0098087    1.3007727      1024000 
  969000   0.86664238   -4.0079593   -4.0079593   -2.7079983  0.038845742   -4.0079593    1.2999609      1024000 
  970000    0.8668788   -4.0065039   -4.0065039   -2.7061883  0.044844799   -4.0065039    1.3003156      1024000 
  971000   0.86763009   -4.0069493   -4.0069493   -2.7055068  0.039408217   -4.0069493    1.3014425      1024000 
  972000   0.86718942   -4.0047674   -4.0047674   -2.7039859  0.047805513   -4.0047674    1.3007815      1024000 
  973000   0.86758079   -4.0039851   -4.0039851   -2.7026165  0.042724916   -4.0039851    1.3013685      1024000 
  974000   0.86827871   -4.0032757   -4.0032757   -2.7008603  0.040791644   -4.0032757    1.3024154      1024000 
  975000   0.86848337    -4.003293    -4.003293   -2.7005706  0.044632936    -4.003293    1.3027224      1024000 
  976000   0.86838093     -4.00143     -4.00143   -2.6988613  0.044283154     -4.00143    1.3025688      1024000 
  977000   0.86865974   -4.0009268   -4.0009268   -2.6979398  0.043203517   -4.0009268     1.302987      1024000 
  978000   0.86905508   -4.0001731   -4.0001731   -2.6965931  0.049514933   -4.0001731      1.30358      1024000 
  979000   0.87004726   -4.0009413   -4.0009413   -2.6958731  0.045885931   -4.0009413    1.3050682      1024000 
  980000   0.86995331   -3.9993017   -3.9993017   -2.6943744  0.042162114   -3.9993017    1.3049273      1024000 
  981000   0.87005861   -3.9982356   -3.9982356   -2.6931503  0.039081463   -3.9982356    1.3050853      1024000 
  982000    0.8696261   -3.9963477   -3.9963477   -2.6919112  0.039959801   -3.9963477    1.3044365      1024000 
  983000   0.87019331    -3.994901    -3.994901   -2.6896137  0.038177359    -3.994901    1.3052873      1024000 
  984000   0.86920736   -3.9920582   -3.9920582   -2.6882498  0.045384963   -3.9920582    1.3038084      1024000 
  985000    0.8695642   -3.9920313   -3.9920313   -2.6876876  0.032379717   -3.9920313    1.3043437      1024000 
  986000   0.86914169    -3.989922    -3.989922   -2.6862121  0.042715101    -3.989922    1.3037099      1024000 
  987000   0.87001373   -3.9900173   -3.9900173   -2.6849994  0.039925396   -3.9900173     1.305018      1024000 
  988000   0.87005978   -3.9881611   -3.9881611   -2.6830741  0.042945409   -3.9881611     1.305087      1024000 
  989000    0.8703394   -3.9878348   -3.9878348   -2.6823284  0.042917259   -3.9878348    1.3055065      1024000 
  990000   0.87032124    -3.986812    -3.986812   -2.6813328  0.040249708    -3.986812    1.3054792      1024000 
  991000    0.8707142   -3.9857775   -3.9857775   -2.6797088  0.047299456   -3.9857775    1.3060687      1024000 
  992000   0.87238822   -3.9866776   -3.9866776   -2.6780979  0.040004427   -3.9866776    1.3085797      1024000 
  993000   0.87268768   -3.9856953   -3.9856953   -2.6766664  0.043475076   -3.9856953    1.3090289      1024000 
  994000   0.87318813   -3.9847971   -3.9847971   -2.6750176  0.047721031   -3.9847971    1.3097795      1024000 
  995000   0.87364265   -3.9834667   -3.9834667   -2.6730054  0.045600939   -3.9834667    1.3104613      1024000 
  996000   0.87417908   -3.9825895   -3.9825895   -2.6713236   0.04913482   -3.9825895     1.311266      1024000 
  997000   0.87378414   -3.9810171   -3.9810171   -2.6703435  0.053057012   -3.9810171    1.3106736      1024000 
  998000   0.87295972   -3.9781931   -3.9781931   -2.6687562  0.054378692   -3.9781931    1.3094369      1024000 
  999000   0.87513481   -3.9804487   -3.9804487   -2.6677491  0.046386319   -3.9804487    1.3126996      1024000 
 1000000    0.8744121    -3.977938    -3.977938   -2.6663225  0.043876313    -3.977938    1.3116155      1024000 
Loop time of 7517.24 on 32 procs for 1000000 steps with 492800 atoms

Performance: 28733.935 tau/day, 133.027 timesteps/s
99.7% CPU use with 32 MPI tasks x 1 OpenMP threads

MPI task timing breakdown:
Section |  min time  |  avg time  |  max time  |%varavg|  %CPU | %total
-----------------------------------------------------------------------
Pair    | 4115       | 4861.3     | 5147.1     | 446.0 |  99.7 | 64.67
Bond    | 0.63346    | 0.65274    | 0.69624    |   1.8 | 100.0 |  0.01
Neigh   | 1060.3     | 1231.5     | 1291.9     | 191.4 |  99.8 | 16.38
Comm    | 670.84     | 935.24     | 1874.7     |1184.0 |  99.5 | 12.44
Output  | 22.759     | 22.944     | 22.951     |   0.7 |  98.3 |  0.31
Modify  | 155.04     | 253.3      | 686.4      |1118.9 |  99.2 |  3.37
Other   |            | 212.3      |            |       |       |  2.82

Nlocal:        15400.0 ave       17528 max       13876 min
Histogram: 2 0 4 4 17 0 4 0 0 1
Nghost:        12174.3 ave       14041 max        8004 min
Histogram: 2 6 0 0 0 0 2 2 8 12
Neighs:        501348.0 ave      599111 max      247051 min
Histogram: 2 1 0 1 0 1 6 4 11 6

Total # of neighbors = 16043145
Ave neighs/atom = 32.555083
Ave special neighs/atom = 0.0000000
Neighbor list builds = 60624
Dangerous builds = 589
Total wall time: 2:05:18
