LAMMPS (24 Dec 2020)
OMP_NUM_THREADS environment is not set. Defaulting to 1 thread. (src/comm.cpp:94)
  using 1 OpenMP thread(s) per MPI task
#Read the equilibrated lj fluid and add nanocubes

units           lj
atom_style      full
#atom_modify     map array first cubes
dimension       3
boundary        p p f
pair_style      lj/smooth/linear 2.0

variable        sigma           equal 1.0
variable        epsilon         equal 1.0
read_restart	restart.dat.30000000
Reading restart file ...
  restart file = 24 Dec 2020, LAMMPS = 24 Dec 2020
  restoring atom style full from restart
  orthogonal box = (0.0000000 0.0000000 0.0000000) to (80.000000 80.000000 160.00000)
  6 by 4 by 14 MPI processor grid
  restoring pair style lj/smooth/linear from restart
  264187 atoms
Finding 1-2 1-3 1-4 neighbors ...
  special bond factors lj:    0        0        0       
  special bond factors coul:  0        0        0       
     0 = max # of 1-2 neighbors
     0 = max # of 1-3 neighbors
     0 = max # of 1-4 neighbors
     1 = max # of special neighbors
  special bonds CPU = 2.645 seconds
  read_restart CPU = 2.998 seconds

group		solvent type 1
191035 atoms in group solvent
group 		hull  type 2
28544 atoms in group hull
group 		dummy type 3
44608 atoms in group dummy

neighbor      0.4 bin
neigh_modify  exclude molecule/intra cubes


pair_modify   shift yes

pair_coeff    1 1 1.0 1.0 #solvent
pair_coeff    2 2 1.0 1.0 1.12 #np
pair_coeff    3 3 0.0 0.0 0.0 #dummy
pair_coeff    2 3 0.0 0.0 0.0 #np dummy
pair_coeff    1 2 ${eps} ${sig} ${nscut} #np solvent
pair_coeff    1 2 2.0 ${sig} ${nscut} 
pair_coeff    1 2 2.0 1.0 ${nscut} 
pair_coeff    1 2 2.0 1.0 4.0 
pair_coeff    1 3 0.0 0.0 0.0 #dummy solvent


comm_modify   mode multi cutoff/multi 1 2.0 cutoff/multi 2 2.0 cutoff/multi 3 6.95

reset_timestep 	0

balance 	1.05 shift z 10 1.05
Balancing ...
Unused restart file global fix info:
  fix style: STORE, fix ID: msd_COMPUTE_STORE
Neighbor list info ...
  update every 1 steps, delay 10 steps, check yes
  max neighbors/atom: 2000, page size: 100000
  master list distance cutoff = 4.4
  ghost atom cutoff = 6.95
  binsize = 2.2, bins = 37 37 73
  1 neighbor lists, perpetual/occasional/extra = 1 0 0
  (1) pair lj/smooth/linear, perpetual
      attributes: half, newton on
      pair build: half/bin/newton
      stencil: half/bin/3d/newton
      bin: standard
 rebalancing time: 0.109 seconds
  iteration count = 5
  initial/final maximal load/proc = 2812.0000 1650.0000
  initial/final imbalance factor  = 3.5763758 2.0985136
  x cuts: 0.0000000 0.16666667 0.33333333 0.50000000 0.66666667 0.83333333 1.0000000
  y cuts: 0.0000000 0.25000000 0.50000000 0.75000000 1.0000000
  z cuts: 0.0000000 0.029017857 0.058035714 0.084821429 0.10491071 0.13392857 0.15178571 0.17633929 0.20982143 0.22767857 0.26116071 0.30133929 0.33928571 0.62723214 1.0000000

####################### WALLS ###########################

variable       epsilonWall equal 2*${epsilon}
variable       epsilonWall equal 2*1
variable       repulsive   equal   0.7147*${sigma}
variable       repulsive   equal   0.7147*1
variable       full	   equal   3*${sigma}
variable       full	   equal   3*1
#region         lowWall block EDGE EDGE EDGE EDGE EDGE 2

fix            topWall all wall/lj93 zhi EDGE 	       ${epsilonWall} ${sigma} ${repulsive} units box
fix            topWall all wall/lj93 zhi EDGE 	       2 ${sigma} ${repulsive} units box
fix            topWall all wall/lj93 zhi EDGE 	       2 1 ${repulsive} units box
fix            topWall all wall/lj93 zhi EDGE 	       2 1 0.7147 units box
fix            lowSol solvent wall/lj93 zlo EDGE                ${epsilonWall} ${sigma} ${full} units box
fix            lowSol solvent wall/lj93 zlo EDGE                2 ${sigma} ${full} units box
fix            lowSol solvent wall/lj93 zlo EDGE                2 1 ${full} units box
fix            lowSol solvent wall/lj93 zlo EDGE                2 1 3 units box
fix 	       lowCub cubes wall/lj93 zlo EDGE                ${epsilonWall} ${sigma} ${repulsive} units box
fix 	       lowCub cubes wall/lj93 zlo EDGE                2 ${sigma} ${repulsive} units box
fix 	       lowCub cubes wall/lj93 zlo EDGE                2 1 ${repulsive} units box
fix 	       lowCub cubes wall/lj93 zlo EDGE                2 1 0.7147 units box


###################### COMPUTES ##########################

compute        bin1 solvent chunk/atom bin/1d z lower 1.0 units box


######################  FIXES ############################


fix             peclet solvent ave/chunk 100 1 10000 bin1 density/number norm                  none ave one file density.profile

fix              temp solvent ave/chunk 100 1 10000 bin1 temp norm                  none ave one file temp.profile

fix             1 cubes rigid/nve/small molecule
  create bodies CPU = 0.058 seconds
  64 rigid bodies with 73152 atoms
  6.9282032 = max distance from body owner to body atom

fix             2 solvent nve


## Thermostat
region          regthermo block EDGE EDGE EDGE EDGE 0 15
group           thermo dynamic solvent region regthermo every 1000
dynamic group thermo defined
fix             3 thermo langevin ${start_temp} ${stop_temp} 10 156453
fix             3 thermo langevin 0.6 ${stop_temp} 10 156453
fix             3 thermo langevin 0.6 1.0 10 156453

## Evaporation
#region		regevap block EDGE EDGE EDGE EDGE 140 EDGE
#fix		4 solvent evaporate ${evap} 1 regevap 156415


#### Load balancing

fix             bal all balance 1000 1.05 shift z 10 1.05

############### Diagnostics and computes ###################

compute          cluster all cluster/atom 1.5
compute          cc1 all chunk/atom c_cluster compress yes
compute          size all property/chunk cc1 count
compute          myChunk all temp/chunk cc1 temp
fix              tempe all ave/time 5000 1 5000 c_myChunk file tmp.out mode scalar
compute          comChunk all com/chunk cc1
fix              com all ave/time 10000 1 10000 c_size c_comChunk[*] file com.xyz mode vector


compute        	com cubes          rigid/local   1 mol x y z
compute        	quat cubes         rigid/local   1 mol quatw quati quatj quatk

compute 	cc2 cubes 	   chunk/atom 	 molecule
compute 	msd cubes 	   msd/chunk 	 cc2

fix 		msd all ave/time  1 1 10000 c_msd[*] file dump.msd ave one mode vector

dump            1 all custom 100000 dump.lammpstrj id mol type x y z c_cluster c_cc1
dump		hulltrj hull custom 100000 hull.lammpstrj id mol type x y z
dump		cubestrj cubes custom 100000 cubes.lammpstrj id mol type x y z

dump            com cubes local 100000 dump.*.xyz c_com[*]
dump	        xyz cubes xyz 100000 cubes.*.xyz
dump            quat cubes      local 100000 dump.*.quat c_quat[*]


dump            2 all image 10000 image.*.png type type zoom 1.5 size 1280 720
dump_modify     2 pad 8
dump		image cubes image 10000 image_cubes.*.png type type zoom 1.5 size 1280 720
dump_modify	image pad 8
dump            3 all movie 5000 movie.avi type type zoom 1.5 size 1280 720
dump		4 cubes movie 5000 movie_cubes.avi type type zoom 1.5 size 1280 720


thermo          10000
thermo_style    custom step temp epair evdwl etotal press pe ke atoms

restart         1000000 restart.dat
timestep        0.005
timer           full
New timer settings: style=full  mode=nosync  timeout=off

run 		5000000
Neighbor list info ...
  update every 1 steps, delay 10 steps, check yes
  max neighbors/atom: 2000, page size: 100000
  master list distance cutoff = 4.4
  ghost atom cutoff = 6.95
  binsize = 2.2, bins = 37 37 73
  2 neighbor lists, perpetual/occasional/extra = 1 1 0
  (1) pair lj/smooth/linear, perpetual
      attributes: half, newton on
      pair build: half/bin/newton
      stencil: half/bin/3d/newton
      bin: standard
  (2) compute cluster/atom, occasional
      attributes: full, newton on
      pair build: full/bin
      stencil: full/bin/3d
      bin: standard
Per MPI rank memory allocation (min/avg/max) = 25.94 | 32.19 | 36.95 Mbytes
Step Temp E_pair E_vdwl TotEng Press PotEng KinEng Atoms 
       0    0.6013489   -2.6076745   -2.6076745   -1.9549831 -0.0045052919   -2.6076745   0.65269142   264187 
   10000   0.60189381   -2.6057318   -2.6057318   -1.9524489  0.030533201   -2.6057318   0.65328285   264187 
   20000   0.60271446   -2.6070082   -2.6070082   -1.9528347  0.028682765   -2.6070082   0.65417357   264187 
   30000   0.60218362    -2.605017    -2.605017   -1.9514196  0.019121592    -2.605017   0.65359741   264187 
   40000   0.60464907      -2.6062      -2.6062   -1.9499266   0.03272328      -2.6062   0.65627336   264187 
   50000   0.60435184   -2.6061505   -2.6061505   -1.9501997  0.024487414   -2.6061505   0.65595074   264187 
   60000   0.60513449   -2.6032586   -2.6032586   -1.9464584  0.033233335   -2.6032586   0.65680022   264187 
   70000   0.60516124   -2.6012655   -2.6012655   -1.9444362  0.027574002   -2.6012655   0.65682925   264187 
   80000   0.60497976   -2.5976648   -2.5976648   -1.9410326  0.034148213   -2.5976648   0.65663228   264187 
   90000   0.60615661   -2.5976498   -2.5976498   -1.9397402  0.023333283   -2.5976498    0.6579096   264187 
  100000    0.6065553   -2.5922291   -2.5922291   -1.9338868  0.032425165   -2.5922291   0.65834233   264187 
  110000   0.60700812   -2.5889167   -2.5889167   -1.9300829  0.036288232   -2.5889167   0.65883382   264187 
  120000   0.60847725   -2.5861054   -2.5861054    -1.925677  0.022310608   -2.5861054   0.66042838   264187 
  130000   0.60810965   -2.5859078   -2.5859078   -1.9258784  0.032233659   -2.5859078   0.66002939   264187 
  140000   0.60629133   -2.5842834   -2.5842834   -1.9262276  0.030705552   -2.5842834   0.65805583   264187 
  150000   0.60810302   -2.5813691   -2.5813691   -1.9213469  0.028031793   -2.5813691    0.6600222   264187 
  160000   0.60953899   -2.5780495   -2.5780495   -1.9164688  0.021633135   -2.5780495   0.66158077   264187 
  170000   0.61128746   -2.5762029   -2.5762029   -1.9127244  0.031554714   -2.5762029   0.66347852   264187 
  180000   0.61110878   -2.5723444   -2.5723444   -1.9090598  0.031337437   -2.5723444   0.66328459   264187 
  190000   0.61033773   -2.5669697   -2.5669697    -1.904522  0.030997109   -2.5669697    0.6624477   264187 
  200000   0.61003254   -2.5640685   -2.5640685   -1.9019521  0.030201315   -2.5640685   0.66211646   264187 
  210000   0.61204476    -2.559951    -2.559951   -1.8956505  0.029569053    -2.559951   0.66430048   264187 
  220000   0.61283357   -2.5593212   -2.5593212   -1.8941645  0.023573085   -2.5593212   0.66515664   264187 
  230000   0.61449787    -2.555685    -2.555685    -1.888722   0.02707639    -2.555685   0.66696303   264187 
  240000   0.61374855   -2.5539255   -2.5539255   -1.8877757  0.029620152   -2.5539255   0.66614974   264187 
  250000    0.6143405   -2.5486694   -2.5486694   -1.8818772  0.026192665   -2.5486694   0.66679222   264187 
  260000   0.61311327   -2.5456875   -2.5456875   -1.8802273  0.032746933   -2.5456875   0.66546022   264187 
  270000   0.61469292   -2.5417947   -2.5417947     -1.87462  0.016252274   -2.5417947   0.66717474   264187 
  280000   0.61578725   -2.5353435   -2.5353435    -1.866981  0.035292586   -2.5353435    0.6683625   264187 
  290000   0.61734885   -2.5321719   -2.5321719   -1.8621144  0.034202399   -2.5321719   0.67005742   264187 
  300000   0.61809158   -2.5303528   -2.5303528   -1.8594892  0.028095693   -2.5303528   0.67086357   264187 
  310000    0.6185349   -2.5274867   -2.5274867   -1.8561419  0.034962877   -2.5274867   0.67134474   264187 
  320000   0.61788601   -2.5233547   -2.5233547   -1.8527143  0.028683181   -2.5233547   0.67064045   264187 
  330000   0.62024111   -2.5228223   -2.5228223   -1.8496257   0.03308112   -2.5228223   0.67319663   264187 
  340000   0.61976296   -2.5187582   -2.5187582   -1.8460806  0.026389768   -2.5187582   0.67267766   264187 
  350000   0.62247396   -2.5152973   -2.5152973   -1.8396772  0.032580985   -2.5152973   0.67562012   264187 
  360000   0.62116784   -2.5101391   -2.5101391   -1.8359366  0.036042006   -2.5101391   0.67420248   264187 
  370000   0.62109253    -2.507281    -2.507281   -1.8331603  0.033031132    -2.507281   0.67412074   264187 
  380000   0.62273895   -2.5053698   -2.5053698   -1.8294621  0.034618372   -2.5053698   0.67590773   264187 
  390000   0.62634604    -2.501603    -2.501603   -1.8217802  0.042793162    -2.501603   0.67982279   264187 
  400000   0.62416795   -2.4971503   -2.4971503   -1.8196916  0.027823719   -2.4971503   0.67745873   264187 
  410000   0.62397779   -2.4981828   -2.4981828   -1.8209304  0.033000241   -2.4981828   0.67725234   264187 
  420000   0.62485922   -2.4941593   -2.4941593   -1.8159503  0.030846729   -2.4941593   0.67820903   264187 
  430000   0.62561407   -2.4899958   -2.4899958   -1.8109675  0.031654303   -2.4899958   0.67902832   264187 
  440000   0.62755564   -2.4855979   -2.4855979   -1.8044623  0.024810558   -2.4855979   0.68113566   264187 
  450000   0.62845914   -2.4830219   -2.4830219   -1.8009056  0.033039655   -2.4830219    0.6821163   264187 
  460000   0.62841257   -2.4770796   -2.4770796   -1.7950139   0.03598784   -2.4770796   0.68206575   264187 
  470000   0.62685095   -2.4729179   -2.4729179   -1.7925471  0.038994984   -2.4729179   0.68037081   264187 
  480000   0.62829767   -2.4732709   -2.4732709   -1.7913298  0.024064344   -2.4732709   0.68194105   264187 
  490000    0.6300607   -2.4684399   -2.4684399   -1.7845853  0.034220929   -2.4684399    0.6838546   264187 
  500000   0.63185567   -2.4660483   -2.4660483   -1.7802455  0.035641056   -2.4660483   0.68580283   264187 
  510000   0.63059075   -2.4615493   -2.4615493   -1.7771194  0.036850617   -2.4615493    0.6844299   264187 
  520000    0.6315503   -2.4575535   -2.4575535   -1.7720821  0.035441502   -2.4575535   0.68547138   264187 
  530000   0.63156477   -2.4517379   -2.4517379   -1.7662508  0.030118036   -2.4517379   0.68548708   264187 
  540000   0.63297626   -2.4493437   -2.4493437   -1.7623246  0.039525167   -2.4493437   0.68701909   264187 
  550000    0.6347661   -2.4439786   -2.4439786   -1.7550169  0.041268871   -2.4439786   0.68896175   264187 
  560000   0.63453424   -2.4425107   -2.4425107   -1.7538006  0.036445855   -2.4425107   0.68871009   264187 
  570000   0.63527267   -2.4347171   -2.4347171   -1.7452055  0.034396626   -2.4347171   0.68951156   264187 
  580000   0.63678592   -2.4333076   -2.4333076   -1.7421536  0.038575543   -2.4333076   0.69115401   264187 
  590000   0.63593086   -2.4302013   -2.4302013   -1.7399754  0.040133802   -2.4302013   0.69022595   264187 
  600000   0.63767022   -2.4249301   -2.4249301   -1.7328163  0.031164215   -2.4249301   0.69211381   264187 
  610000   0.63873788   -2.4242594   -2.4242594   -1.7309868  0.042528134   -2.4242594   0.69327263   264187 
  620000   0.63833177    -2.417406    -2.417406   -1.7245742  0.038261851    -2.417406   0.69283184   264187 
  630000   0.63939313   -2.4132216   -2.4132216   -1.7192378  0.029807528   -2.4132216   0.69398382   264187 
  640000   0.64090076   -2.4079181   -2.4079181    -1.712298  0.036221439   -2.4079181   0.69562017   264187 
  650000   0.64241695     -2.40695     -2.40695   -1.7096842  0.042032987     -2.40695   0.69726581   264187 
  660000   0.64162814   -2.3993129   -2.3993129   -1.7029032  0.032287044   -2.3993129   0.69640965   264187 
  670000   0.64094161    -2.395158    -2.395158   -1.6994935  0.035351085    -2.395158   0.69566451   264187 
  680000   0.64332231   -2.3898028   -2.3898028   -1.6915543  0.040306834   -2.3898028   0.69824847   264187 
  690000   0.64490046   -2.3851794   -2.3851794   -1.6852181  0.027416359   -2.3851794   0.69996136   264187 
  700000   0.64487762   -2.3816235   -2.3816235   -1.6816869  0.032176405   -2.3816235   0.69993658   264187 
  710000    0.6485016   -2.3809418   -2.3809418   -1.6770718  0.032363993   -2.3809418   0.70386997   264187 
  720000   0.64862218   -2.3724509   -2.3724509     -1.66845  0.040251367   -2.3724509   0.70400084   264187 
  730000   0.64833009   -2.3676482   -2.3676482   -1.6639644  0.039206635   -2.3676482   0.70368382   264187 
  740000   0.64907797   -2.3638379   -2.3638379   -1.6593424  0.041204419   -2.3638379   0.70449555   264187 
  750000    0.6476011   -2.3591935   -2.3591935   -1.6563009  0.034776685   -2.3591935   0.70289258   264187 
  760000   0.64997162   -2.3550005   -2.3550005    -1.649535  0.030685609   -2.3550005    0.7054655   264187 
  770000   0.65098619   -2.3527241   -2.3527241   -1.6461575  0.040697541   -2.3527241   0.70656668   264187 
  780000   0.65178641   -2.3495704   -2.3495704   -1.6421352  0.041994883   -2.3495704   0.70743523   264187 
  790000    0.6503832   -2.3429023   -2.3429023   -1.6369901  0.045362732   -2.3429023   0.70591221   264187 
  800000   0.65182774    -2.339678    -2.339678   -1.6321979  0.043658685    -2.339678   0.70748008   264187 
  810000   0.65192755   -2.3336987   -2.3336987   -1.6261103  0.045053031   -2.3336987   0.70758841   264187 
  820000   0.65269309   -2.3329021   -2.3329021   -1.6244828  0.048213821   -2.3329021   0.70841932   264187 
  830000   0.65382092   -2.3294136   -2.3294136   -1.6197702   0.04000051   -2.3294136   0.70964344   264187 
  840000   0.65635283   -2.3252582   -2.3252582   -1.6128667  0.047394674   -2.3252582   0.71239153   264187 
  850000   0.65536417   -2.3213045   -2.3213045   -1.6099861  0.038063605   -2.3213045   0.71131846   264187 
  860000   0.65453133   -2.3173756   -2.3173756   -1.6069611  0.046217436   -2.3173756   0.71041451   264187 
  870000   0.65723294   -2.3116203   -2.3116203   -1.5982735  0.037559663   -2.3116203   0.71334678   264187 
  880000   0.65694142   -2.3081355   -2.3081355   -1.5951051  0.028346922   -2.3081355   0.71303037   264187 
  890000   0.65882909   -2.3037915   -2.3037915   -1.5887123  0.040176406   -2.3037915    0.7150792   264187 
  900000   0.65971467   -2.3009892   -2.3009892   -1.5849488  0.037671651   -2.3009892    0.7160404   264187 
  910000   0.66103685   -2.2975432   -2.2975432   -1.5800677  0.040232705   -2.2975432   0.71747546   264187 
  920000   0.66210076   -2.2920641   -2.2920641   -1.5734339  0.056269774   -2.2920641    0.7186302   264187 
  930000    0.6612734   -2.2867338   -2.2867338   -1.5690016  0.043122034   -2.2867338    0.7177322   264187 
  940000   0.66068549   -2.2819178   -2.2819178   -1.5648237  0.050611403   -2.2819178    0.7170941   264187 
  950000   0.66268909   -2.2760688   -2.2760688      -1.5568  0.038247112   -2.2760688   0.71926876   264187 
  960000   0.66500892   -2.2742108   -2.2742108   -1.5524241  0.039005519   -2.2742108   0.72178666   264187 
  970000   0.66585913   -2.2713122   -2.2713122   -1.5486028  0.045596311   -2.2713122   0.72270946   264187 
  980000   0.66252365   -2.2655903   -2.2655903   -1.5465011   0.04582297   -2.2655903    0.7190892   264187 
  990000    0.6658176   -2.2643548   -2.2643548   -1.5416904  0.050528459   -2.2643548   0.72266439   264187 
 1000000   0.66613635   -2.2608681   -2.2608681   -1.5378577  0.049892981   -2.2608681   0.72301035   264187 
 1010000   0.66757153   -2.2549683   -2.2549683   -1.5304002   0.04475697   -2.2549683   0.72456807   264187 
 1020000   0.66803617   -2.2498087   -2.2498087   -1.5247363  0.046350648   -2.2498087   0.72507237   264187 
 1030000    0.6694659    -2.247901    -2.247901   -1.5212768   0.04192305    -2.247901   0.72662418   264187 
 1040000   0.66932503    -2.245313    -2.245313   -1.5188417  0.035049847    -2.245313   0.72647128   264187 
 1050000   0.67156185   -2.2433875   -2.2433875   -1.5144885   0.04229137   -2.2433875   0.72889908   264187 
 1060000   0.67099349   -2.2371767   -2.2371767   -1.5088945  0.045005092   -2.2371767   0.72828219   264187 
 1070000   0.67104256   -2.2307967   -2.2307967   -1.5024612  0.048221586   -2.2307967   0.72833545   264187 
 1080000   0.67368281   -2.2296261   -2.2296261    -1.498425  0.044763192   -2.2296261   0.73120112   264187 
 1090000   0.67397284   -2.2250335   -2.2250335   -1.4935176  0.047026668   -2.2250335   0.73151591   264187 
 1100000   0.67213388    -2.220326    -2.220326    -1.490806  0.047913631    -2.220326   0.72951994   264187 
 1110000   0.67420291   -2.2176135   -2.2176135   -1.4858479  0.058095646   -2.2176135   0.73176562   264187 
 1120000   0.67345183   -2.2118706   -2.2118706   -1.4809202  0.047572131   -2.2118706   0.73095041   264187 
 1130000   0.67459822   -2.2072692   -2.2072692   -1.4750745  0.046157665   -2.2072692   0.73219468   264187 
 1140000    0.6765346   -2.2056048   -2.2056048   -1.4713085   0.05115618   -2.2056048   0.73429639   264187 
 1150000   0.67602176   -2.1999696   -2.1999696   -1.4662298  0.045813585   -2.1999696   0.73373977   264187 
 1160000   0.67904349      -2.1991      -2.1991   -1.4620805  0.038596621      -2.1991   0.73701949   264187 
 1170000   0.67811175   -2.1968547   -2.1968547   -1.4608465  0.049997949   -2.1968547    0.7360082   264187 
 1180000   0.67825125   -2.1931956   -2.1931956    -1.457036   0.04451062   -2.1931956   0.73615961   264187 
 1190000   0.68002992   -2.1895528   -2.1895528   -1.4514627  0.049911188   -2.1895528   0.73809014   264187 
 1200000   0.68097613   -2.1854038   -2.1854038   -1.4462867  0.048927223   -2.1854038   0.73911714   264187 
 1210000    0.6812235   -2.1831598   -2.1831598   -1.4437742  0.042093383   -2.1831598   0.73938562   264187 
 1220000   0.68274834   -2.1792751   -2.1792751   -1.4382344  0.046852102   -2.1792751   0.74104065   264187 
 1230000   0.68317295   -2.1735343   -2.1735343   -1.4320328  0.041496246   -2.1735343   0.74150152   264187 
 1240000   0.68405317   -2.1737327   -2.1737327   -1.4312758  0.058941694   -2.1737327   0.74245689   264187 
 1250000   0.68411112   -2.1675342   -2.1675342   -1.4250144  0.054041793   -2.1675342   0.74251978   264187 
 1260000   0.68609718   -2.1650954   -2.1650954     -1.42042  0.055627098   -2.1650954   0.74467541   264187 
 1270000    0.6863674   -2.1623313   -2.1623313   -1.4173626  0.053562136   -2.1623313   0.74496871   264187 
 1280000   0.68806138   -2.1588554   -2.1588554   -1.4120481  0.049705813   -2.1588554   0.74680732   264187 
 1290000   0.68684286   -2.1524252   -2.1524252   -1.4069404  0.044926042   -2.1524252   0.74548476   264187 
 1300000   0.68881128   -2.1520009   -2.1520009   -1.4043797  0.058539897   -2.1520009   0.74762124   264187 
 1310000   0.68995956   -2.1489881   -2.1489881   -1.4001205  0.051654145   -2.1489881   0.74886756   264187 
 1320000   0.69115665   -2.1445205   -2.1445205   -1.3943537  0.059895989   -2.1445205   0.75016686   264187 
 1330000   0.68907059   -2.1374574   -2.1374574   -1.3895547  0.045383357   -2.1374574   0.74790269   264187 
 1340000     0.691847   -2.1379411   -2.1379411   -1.3870249  0.054449997   -2.1379411   0.75091615   264187 
 1350000   0.69215203    -2.136062    -2.136062   -1.3848148  0.051033488    -2.136062   0.75124722   264187 
 1360000   0.69438191    -2.131092    -2.131092   -1.3774245  0.051791698    -2.131092   0.75366748   264187 
 1370000   0.69521311   -2.1272847   -2.1272847    -1.372715  0.056172471   -2.1272847   0.75456966   264187 
 1380000   0.69434489   -2.1220259   -2.1220259   -1.3683986  0.057886617   -2.1220259   0.75362731   264187 
 1390000   0.69332172   -2.1155235   -2.1155235   -1.3630067  0.054046634   -2.1155235   0.75251678   264187 
 1400000     0.695922   -2.1114657   -2.1114657   -1.3561266  0.056701474   -2.1114657   0.75533906   264187 
 1410000   0.69821559   -2.1119406   -2.1119406   -1.3541122  0.055747137   -2.1119406   0.75782848   264187 
 1420000   0.69813472   -2.1088107   -2.1088107     -1.35107  0.054467919   -2.1088107   0.75774071   264187 
 1430000    0.6991336   -2.1038898   -2.1038898   -1.3450649   0.04959686   -2.1038898   0.75882487   264187 
 1440000   0.69968429   -2.0982982   -2.0982982   -1.3388756  0.052118994   -2.0982982   0.75942257   264187 
 1450000   0.70001323   -2.0937562   -2.0937562   -1.3339766  0.069361584   -2.0937562    0.7597796   264187 
 1460000   0.70194712   -2.0920265   -2.0920265   -1.3301479  0.049006305   -2.0920265   0.76187861   264187 
 1470000   0.70213413   -2.0873499   -2.0873499   -1.3252683  0.047283147   -2.0873499   0.76208158   264187 
 1480000   0.70219279   -2.0849059   -2.0849059   -1.3227607  0.054550394   -2.0849059   0.76214525   264187 
 1490000   0.70109929   -2.0807197   -2.0807197   -1.3197613  0.062517862   -2.0807197   0.76095839   264187 
 1500000   0.70642928   -2.0815177   -2.0815177   -1.3147743  0.055651112   -2.0815177   0.76674345   264187 
 1510000   0.70376113    -2.074955    -2.074955   -1.3111075  0.059553276    -2.074955    0.7638475   264187 
 1520000   0.70445013   -2.0725411   -2.0725411   -1.3079457  0.060095091   -2.0725411   0.76459532   264187 
 1530000   0.70481467   -2.0698142   -2.0698142   -1.3048232  0.052877189   -2.0698142   0.76499099   264187 
 1540000   0.70787514    -2.067436    -2.067436   -1.2991232  0.063889306    -2.067436   0.76831275   264187 
 1550000   0.70766879   -2.0606988   -2.0606988     -1.29261  0.060466626   -2.0606988   0.76808878   264187 
 1560000   0.71025205   -2.0614836   -2.0614836    -1.290591  0.057256497   -2.0614836   0.77089261   264187 
 1570000   0.71031095   -2.0558684   -2.0558684   -1.2849118  0.048770629   -2.0558684   0.77095653   264187 
 1580000   0.71118175        -2.05        -2.05   -1.2780983   0.05337656        -2.05   0.77190168   264187 
 1590000   0.71076277   -2.0444744   -2.0444744   -1.2730274  0.053473767   -2.0444744   0.77144692   264187 
 1600000   0.71165524   -2.0437417   -2.0437417   -1.2713261  0.057191726   -2.0437417   0.77241559   264187 
 1610000   0.71501352   -2.0402289   -2.0402289   -1.2641683    0.0719765   -2.0402289    0.7760606   264187 
 1620000   0.71478377   -2.0386735   -2.0386735   -1.2628622  0.065359949   -2.0386735   0.77581124   264187 
 1630000   0.71714132   -2.0341872   -2.0341872   -1.2558171  0.062119277   -2.0341872   0.77837007   264187 
 1640000   0.71592128     -2.03254     -2.03254   -1.2554941   0.05316986     -2.03254   0.77704587   264187 
 1650000   0.71657462   -2.0286826   -2.0286826   -1.2509276  0.057649977   -2.0286826   0.77775498   264187 
 1660000   0.71894345   -2.0296717   -2.0296717   -1.2493456  0.068921194   -2.0296717   0.78032607   264187 
 1670000   0.71722838   -2.0230162   -2.0230162   -1.2445516  0.063465637   -2.0230162   0.77846457   264187 
 1680000   0.71851247     -2.02154     -2.02154   -1.2416817  0.063004535     -2.02154   0.77985828   264187 
 1690000   0.72019143   -2.0200405   -2.0200405   -1.2383599  0.063813847   -2.0200405    0.7816806   264187 
 1700000   0.72086648   -2.0153679   -2.0153679   -1.2329546  0.059775805   -2.0153679   0.78241328   264187 
 1710000   0.72150915   -2.0124424   -2.0124424   -1.2293316  0.060226055   -2.0124424   0.78311082   264187 
 1720000   0.72520673   -2.0122226   -2.0122226   -1.2250985  0.057963748   -2.0122226    0.7871241   264187 
 1730000   0.72276679   -2.0047855   -2.0047855   -1.2203097   0.06711719   -2.0047855   0.78447584   264187 
 1740000   0.72521161   -2.0055694   -2.0055694     -1.21844  0.065652017   -2.0055694   0.78712939   264187 
 1750000   0.72554916    -2.000661    -2.000661   -1.2131653  0.056807578    -2.000661   0.78749576   264187 
 1760000   0.72536491   -1.9965364   -1.9965364   -1.2092406  0.065030712   -1.9965364   0.78729578   264187 
 1770000   0.72832654    -1.994957    -1.994957   -1.2044467  0.063514051    -1.994957   0.79051027   264187 
 1780000   0.72817362     -1.99006     -1.99006   -1.1997157  0.067623021     -1.99006    0.7903443   264187 
 1790000    0.7268178   -1.9877515   -1.9877515   -1.1988787   0.05427619   -1.9877515   0.78887271   264187 
 1800000   0.73012281   -1.9880103   -1.9880103   -1.1955504   0.06665468   -1.9880103   0.79245991   264187 
 1810000   0.72939153   -1.9831717   -1.9831717   -1.1915055  0.064189981   -1.9831717   0.79166619   264187 
 1820000   0.73035875   -1.9818691   -1.9818691   -1.1891531  0.064760534   -1.9818691   0.79271599   264187 
 1830000   0.73312324   -1.9789536   -1.9789536   -1.1832371  0.063447818   -1.9789536   0.79571651   264187 
 1840000   0.73279967   -1.9758603   -1.9758603    -1.180495  0.059895494   -1.9758603   0.79536531   264187 
 1850000   0.73350539   -1.9737833   -1.9737833    -1.177652  0.075165579   -1.9737833   0.79613129   264187 
 1860000   0.73591591   -1.9751249   -1.9751249   -1.1763773  0.076403179   -1.9751249   0.79874762   264187 
 1870000   0.73497237     -1.96631     -1.96631   -1.1685865  0.065582996     -1.96631   0.79772351   264187 
 1880000    0.7354775   -1.9653382   -1.9653382   -1.1670664  0.071337939   -1.9653382   0.79827177   264187 
 1890000   0.73623562   -1.9619799   -1.9619799   -1.1628853  0.068372853   -1.9619799   0.79909462   264187 
 1900000   0.73767775   -1.9604857   -1.9604857   -1.1598258   0.07590011   -1.9604857   0.80065987   264187 
 1910000   0.73732509   -1.9580791   -1.9580791    -1.157802  0.062535649   -1.9580791   0.80027711   264187 
 1920000   0.73978479   -1.9584182   -1.9584182   -1.1554714  0.057369693   -1.9584182   0.80294682   264187 
 1930000   0.74077146   -1.9548498   -1.9548498   -1.1508321  0.070802195   -1.9548498   0.80401773   264187 
 1940000    0.7414865   -1.9521599   -1.9521599   -1.1473661  0.065928741   -1.9521599   0.80479382   264187 
 1950000   0.74246815   -1.9486525   -1.9486525   -1.1427933  0.063216024   -1.9486525   0.80585927   264187 
 1960000   0.74062549    -1.945185    -1.945185   -1.1413257  0.069688221    -1.945185   0.80385929   264187 
 1970000   0.74259884   -1.9434601   -1.9434601    -1.137459  0.062112545   -1.9434601   0.80600113   264187 
 1980000   0.74486024   -1.9425166   -1.9425166    -1.134061   0.06616781   -1.9425166    0.8084556   264187 
 1990000   0.74502674   -1.9420305   -1.9420305   -1.1333942  0.070519415   -1.9420305   0.80863632   264187 
 2000000   0.74521244   -1.9402501   -1.9402501   -1.1314122  0.065657834   -1.9402501   0.80883788   264187 
 2010000   0.74614392   -1.9377014   -1.9377014   -1.1278525  0.071666847   -1.9377014   0.80984888   264187 
 2020000   0.74673361   -1.9359743   -1.9359743   -1.1254854  0.072688901   -1.9359743   0.81048891   264187 
 2030000    0.7453551   -1.9325912   -1.9325912   -1.1235985  0.064973851   -1.9325912   0.80899271   264187 
 2040000   0.74850302   -1.9321936   -1.9321936   -1.1197842  0.070900399   -1.9321936    0.8124094   264187 
 2050000   0.74820499   -1.9285014   -1.9285014   -1.1164155  0.067316029   -1.9285014   0.81208592   264187 
 2060000    0.7502895   -1.9271204   -1.9271204    -1.112772  0.070482666   -1.9271204    0.8143484   264187 
 2070000   0.74955282   -1.9235932   -1.9235932   -1.1100444  0.066252646   -1.9235932   0.81354883   264187 
 2080000   0.75024166   -1.9242173   -1.9242173   -1.1099208  0.071205885   -1.9242173   0.81429648   264187 
 2090000   0.74942101   -1.9183927   -1.9183927   -1.1049869  0.068535129   -1.9183927   0.81340577   264187 
 2100000    0.7516425   -1.9173357   -1.9173357   -1.1015188  0.069353172   -1.9173357   0.81581692   264187 
 2110000   0.75200054   -1.9154087   -1.9154087   -1.0992032  0.064068024   -1.9154087   0.81620553   264187 
 2120000   0.75455997   -1.9118209   -1.9118209   -1.0928375  0.070396755   -1.9118209   0.81898349   264187 
 2130000     0.756447   -1.9107522   -1.9107522   -1.0897206   0.07293879   -1.9107522   0.82103163   264187 
 2140000   0.75477557   -1.9070663   -1.9070663   -1.0878488  0.071953761   -1.9070663   0.81921749   264187 
 2150000   0.75554975   -1.9061968   -1.9061968    -1.086139  0.064241099   -1.9061968   0.82005777   264187 
 2160000   0.75773287   -1.9060006   -1.9060006   -1.0835733   0.07873732   -1.9060006   0.82242729   264187 
 2170000   0.75626459   -1.9017909   -1.9017909   -1.0809572  0.078879931   -1.9017909   0.82083364   264187 
 2180000   0.75790635   -1.8989872   -1.8989872   -1.0763716  0.073031911   -1.8989872   0.82261558   264187 
 2190000   0.75940069    -1.897691    -1.897691   -1.0734535  0.088169722    -1.897691    0.8242375   264187 
 2200000   0.76119282   -1.8978614   -1.8978614   -1.0716788  0.075663963   -1.8978614   0.82618263   264187 
 2210000   0.75839916   -1.8931867   -1.8931867   -1.0700362  0.064909789   -1.8931867   0.82315046   264187 
 2220000   0.76124346    -1.892917    -1.892917   -1.0666794  0.065579287    -1.892917    0.8262376   264187 
 2230000   0.76269343   -1.8899362   -1.8899362   -1.0621249  0.072056818   -1.8899362   0.82781137   264187 
 2240000   0.76264538   -1.8870213   -1.8870213   -1.0592621  0.078452082   -1.8870213   0.82775922   264187 
 2250000   0.76427265   -1.8867718   -1.8867718   -1.0572463  0.086497126   -1.8867718   0.82952542   264187 
 2260000   0.76475624   -1.8840955   -1.8840955   -1.0540452  0.069749939   -1.8840955    0.8300503   264187 
 2270000   0.76643447   -1.8831273   -1.8831273   -1.0512555  0.074039575   -1.8831273   0.83187182   264187 
 2280000   0.76689342   -1.8787356   -1.8787356   -1.0463656  0.081340003   -1.8787356   0.83236995   264187 
 2290000    0.7655827   -1.8750922   -1.8750922   -1.0441449   0.07498273   -1.8750922   0.83094732   264187 
 2300000   0.76802036   -1.8757082   -1.8757082   -1.0421151   0.07345942   -1.8757082    0.8335931   264187 
 2310000   0.76752179   -1.8739293   -1.8739293   -1.0408773  0.081919133   -1.8739293   0.83305197   264187 
 2320000   0.76914719   -1.8719382   -1.8719382    -1.037122  0.075280694   -1.8719382   0.83481615   264187 
 2330000   0.77043449   -1.8686178   -1.8686178   -1.0324044  0.070499053   -1.8686178   0.83621335   264187 
 2340000   0.77248362   -1.8678241   -1.8678241   -1.0293867   0.07927935   -1.8678241   0.83843744   264187 
 2350000   0.77087391   -1.8638444   -1.8638444   -1.0271541  0.075066018   -1.8638444   0.83669029   264187 
 2360000   0.77320703   -1.8645571   -1.8645571   -1.0253344  0.074157077   -1.8645571   0.83922261   264187 
 2370000   0.77532327   -1.8626719   -1.8626719   -1.0211523  0.080466712   -1.8626719   0.84151953   264187 
 2380000   0.77440838   -1.8593412   -1.8593412   -1.0188147  0.081117968   -1.8593412   0.84052653   264187 
 2390000   0.77419135   -1.8552271   -1.8552271   -1.0149361  0.076369403   -1.8552271   0.84029097   264187 
 2400000   0.77646186   -1.8559006   -1.8559006   -1.0131452  0.077614547   -1.8559006   0.84275533   264187 
 2410000   0.77676717   -1.8523618   -1.8523618   -1.0092751  0.077702871   -1.8523618   0.84308671   264187 
 2420000     0.777768    -1.850701    -1.850701    -1.006528  0.079955831    -1.850701   0.84417299   264187 
 2430000   0.77906782    -1.848758    -1.848758   -1.0031742  0.089214145    -1.848758   0.84558379   264187 
 2440000   0.77968924   -1.8485539   -1.8485539   -1.0022957   0.08356655   -1.8485539   0.84625827   264187 
 2450000   0.77936843   -1.8438656   -1.8438656  -0.99795554  0.080543964   -1.8438656   0.84591006   264187 
 2460000    0.7841438   -1.8453047   -1.8453047  -0.99421151  0.077696217   -1.8453047   0.85109315   264187 
 2470000   0.78384513   -1.8430588   -1.8430588  -0.99228988  0.077830833   -1.8430588   0.85076897   264187 
 2480000   0.78272917   -1.8410885   -1.8410885  -0.99153074  0.082035179   -1.8410885   0.84955774   264187 
 2490000   0.78191757   -1.8367526   -1.8367526  -0.98807574  0.079343774   -1.8367526   0.84867684   264187 
 2500000   0.78652849   -1.8374434   -1.8374434    -0.983762  0.071158465   -1.8374434   0.85368144   264187 
 2510000    0.7841318   -1.8333997   -1.8333997  -0.98231958  0.076649868   -1.8333997   0.85108012   264187 
 2520000   0.78494996   -1.8309391   -1.8309391  -0.97897095  0.078425309   -1.8309391   0.85196813   264187 
 2530000   0.78573232   -1.8297814   -1.8297814  -0.97696412  0.081737379   -1.8297814    0.8528173   264187 
 2540000   0.79020243   -1.8286105   -1.8286105  -0.97094143  0.077922875   -1.8286105   0.85766905   264187 
 2550000   0.78988307    -1.827257    -1.827257   -0.9699346  0.083379407    -1.827257   0.85732243   264187 
 2560000   0.78859281   -1.8253234   -1.8253234  -0.96940135  0.074353338   -1.8253234   0.85592201   264187 
 2570000   0.78896166   -1.8221068   -1.8221068  -0.96578442  0.084729349   -1.8221068   0.85632236   264187 
 2580000   0.79177303   -1.8241326   -1.8241326  -0.96475879  0.089276426   -1.8241326   0.85937376   264187 
 2590000   0.79119541   -1.8226316   -1.8226316   -0.9638848  0.082184717   -1.8226316   0.85874681   264187 
 2600000   0.79231148   -1.8200267   -1.8200267   -0.9600685  0.073527465   -1.8200267   0.85995818   264187 
 2610000   0.79494416   -1.8158897   -1.8158897  -0.95307406    0.0860831   -1.8158897   0.86281563   264187 
 2620000   0.79393055   -1.8149547   -1.8149547  -0.95323926  0.077058052   -1.8149547   0.86171548   264187 
 2630000   0.79536135   -1.8139895   -1.8139895  -0.95072107  0.077798435   -1.8139895   0.86326844   264187 
 2640000   0.79557551   -1.8110551   -1.8110551   -0.9475542  0.077775888   -1.8110551   0.86350088   264187 
 2650000   0.79676255   -1.8104107   -1.8104107  -0.94562147  0.083705109   -1.8104107   0.86478928   264187 
 2660000   0.79663576   -1.8096858   -1.8096858  -0.94503409  0.079717812   -1.8096858   0.86465166   264187 
 2670000   0.79923569   -1.8088132   -1.8088132  -0.94133967  0.080924397   -1.8088132   0.86747357   264187 
 2680000    0.7985971   -1.8054397   -1.8054397  -0.93865926  0.075811618   -1.8054397   0.86678045   264187 
 2690000   0.79801425   -1.8036665   -1.8036665  -0.93751862  0.082901978   -1.8036665   0.86614785   264187 
 2700000   0.80138408   -1.8053409   -1.8053409  -0.93553555  0.081993321   -1.8053409   0.86980539   264187 
 2710000   0.80268658   -1.8014975   -1.8014975  -0.93027846  0.077687476   -1.8014975   0.87121909   264187 
 2720000    0.8013466   -1.7983921   -1.7983921  -0.92862735  0.089014166   -1.7983921   0.86976471   264187 
 2730000   0.80278663   -1.7979535   -1.7979535  -0.92662584  0.072873679   -1.7979535   0.87132769   264187 
 2740000    0.8049304   -1.7984254   -1.7984254  -0.92477091  0.089446898   -1.7984254   0.87365449   264187 
 2750000   0.80355143    -1.793487    -1.793487  -0.92132923  0.082751814    -1.793487   0.87215778   264187 
 2760000   0.80520637   -1.7930522   -1.7930522  -0.91909813  0.086811343   -1.7930522   0.87395402   264187 
 2770000   0.80620004   -1.7913713   -1.7913713  -0.91633876  0.082204558   -1.7913713   0.87503252   264187 
 2780000   0.80717607   -1.7903016   -1.7903016  -0.91420974  0.086283854   -1.7903016   0.87609189   264187 
 2790000   0.80797856   -1.7890363   -1.7890363  -0.91207344  0.076094353   -1.7890363   0.87696289   264187 
 2800000   0.80837209    -1.785871    -1.785871  -0.90848097  0.081363823    -1.785871   0.87739002   264187 
 2810000   0.81006593   -1.7848037   -1.7848037  -0.90557522  0.087800013   -1.7848037   0.87922848   264187 
 2820000   0.81268692   -1.7838041   -1.7838041  -0.90173083  0.087973699   -1.7838041   0.88207325   264187 
 2830000   0.81249673    -1.780762    -1.780762   -0.8988952   0.08699333    -1.780762   0.88186682   264187 
 2840000   0.81519244   -1.7792769   -1.7792769  -0.89448424  0.091700986   -1.7792769   0.88479269   264187 
 2850000   0.81466175   -1.7794914   -1.7794914  -0.89527472  0.096352222   -1.7794914   0.88421669   264187 
 2860000    0.8126778    -1.777626    -1.777626  -0.89556264  0.081500911    -1.777626   0.88206336   264187 
 2870000   0.81599385   -1.7769229   -1.7769229   -0.8912604    0.0879631   -1.7769229   0.88566252   264187 
 2880000   0.81664967   -1.7756836   -1.7756836  -0.88930932  0.092941287   -1.7756836   0.88637433   264187 
 2890000    0.8179242   -1.7744343   -1.7744343  -0.88667662  0.088720118   -1.7744343   0.88775769   264187 
 2900000   0.81701242   -1.7692009   -1.7692009  -0.88243284  0.086990378   -1.7692009   0.88676805   264187 
 2910000   0.81714307    -1.766366    -1.766366  -0.87945611  0.091499476    -1.766366   0.88690986   264187 
 2920000    0.8193624    -1.767276    -1.767276  -0.87795727  0.090179851    -1.767276   0.88931868   264187 
 2930000   0.82117584   -1.7652896   -1.7652896  -0.87400262  0.087082278   -1.7652896   0.89128694   264187 
 2940000   0.82220913   -1.7648031   -1.7648031  -0.87239466  0.093412366   -1.7648031   0.89240845   264187 
 2950000   0.82203923   -1.7660281   -1.7660281  -0.87380406  0.084351237   -1.7660281   0.89222404   264187 
 2960000   0.82069708    -1.761992    -1.761992  -0.87122466  0.088615003    -1.761992   0.89076731   264187 
 2970000   0.82545125   -1.7655699   -1.7655699  -0.86964247  0.088485707   -1.7655699   0.89592738   264187 
 2980000   0.82344459   -1.7621454   -1.7621454  -0.86839599   0.08862043   -1.7621454   0.89374939   264187 
 2990000   0.82357636   -1.7583695   -1.7583695   -0.8644771  0.082489736   -1.7583695   0.89389241   264187 
 3000000   0.82717175   -1.7587371   -1.7587371   -0.8609423  0.092818494   -1.7587371   0.89779478   264187 
 3010000   0.82678044   -1.7573439   -1.7573439  -0.85997382   0.10038149   -1.7573439   0.89737006   264187 
 3020000   0.82642326   -1.7555515   -1.7555515   -0.8585691  0.096492137   -1.7555515   0.89698239   264187 
 3030000   0.82780341   -1.7532586   -1.7532586  -0.85477822  0.090893398   -1.7532586   0.89848036   264187 
 3040000    0.8297934   -1.7523812   -1.7523812  -0.85174096  0.089703256   -1.7523812   0.90064026   264187 
 3050000   0.83061047   -1.7500777   -1.7500777  -0.84855063  0.096715383   -1.7500777   0.90152709   264187 
 3060000   0.83099391   -1.7524567   -1.7524567  -0.85051339  0.095768798   -1.7524567   0.90194327   264187 
 3070000   0.83245885   -1.7500371   -1.7500371  -0.84650378   0.10351867   -1.7500371   0.90353329   264187 
 3080000   0.83327565   -1.7470517   -1.7470517  -0.84263185  0.096578263   -1.7470517   0.90441982   264187 
 3090000   0.83143486   -1.7418103   -1.7418103  -0.83938839  0.096574237   -1.7418103   0.90242187   264187 
 3100000   0.83831892   -1.7454035   -1.7454035  -0.83550983  0.094116177   -1.7454035   0.90989368   264187 
 3110000   0.83679071   -1.7402723   -1.7402723  -0.83203729  0.092052523   -1.7402723   0.90823499   264187 
 3120000   0.83798956   -1.7391635   -1.7391635  -0.82962728  0.090064757   -1.7391635    0.9095362   264187 
 3130000   0.83714961    -1.734399    -1.734399  -0.82577442  0.090263357    -1.734399   0.90862454   264187 
 3140000   0.83933027   -1.7375304   -1.7375304  -0.82653902   0.09096314   -1.7375304   0.91099138   264187 
 3150000   0.83874482   -1.7370634   -1.7370634  -0.82670746   0.10034001   -1.7370634   0.91035594   264187 
 3160000    0.8399243   -1.7345937   -1.7345937   -0.8229576   0.10046603   -1.7345937   0.91163612   264187 
 3170000   0.84178707   -1.7365769   -1.7365769  -0.82291893  0.082817092   -1.7365769   0.91365794   264187 
 3180000   0.84246599   -1.7347527   -1.7347527  -0.82035787  0.096167917   -1.7347527   0.91439483   264187 
 3190000   0.84283654   -1.7341281   -1.7341281  -0.81933111  0.093908896   -1.7341281   0.91479701   264187 
 3200000   0.84551523   -1.7351116   -1.7351116  -0.81740721   0.09448389   -1.7351116   0.91770441   264187 
 3210000   0.84455729   -1.7316123   -1.7316123  -0.81494767  0.094395738   -1.7316123   0.91666467   264187 
 3220000   0.84643461   -1.7296364   -1.7296364  -0.81093412   0.10257109   -1.7296364   0.91870228   264187 
 3230000   0.84448917   -1.7265128   -1.7265128   -0.8099221   0.10221278   -1.7265128   0.91659074   264187 
 3240000    0.8481289   -1.7264136   -1.7264136  -0.80587242  0.098521599   -1.7264136   0.92054123   264187 
 3250000    0.8476919   -1.7242726   -1.7242726  -0.80420564  0.096518403   -1.7242726   0.92006691   264187 
 3260000   0.85142194   -1.7262028   -1.7262028  -0.80208738   0.10529392   -1.7262028   0.92411542   264187 
 3270000   0.85042234   -1.7234567   -1.7234567  -0.80042624  0.092326516   -1.7234567   0.92303047   264187 
 3280000   0.85142395   -1.7237751   -1.7237751  -0.79965747  0.097587199   -1.7237751   0.92411761   264187 
 3290000   0.85312557    -1.719159    -1.719159  -0.79319446  0.087411435    -1.719159   0.92596451   264187 
 3300000   0.85482785   -1.7167428   -1.7167428  -0.78893068  0.093370466   -1.7167428   0.92781213   264187 
 3310000    0.8517982   -1.7127962   -1.7127962  -0.78827241   0.09209309   -1.7127962   0.92452381   264187 
 3320000   0.85454796   -1.7154897   -1.7154897  -0.78798137   0.10550591   -1.7154897   0.92750834   264187 
 3330000   0.85507853   -1.7133937   -1.7133937  -0.78530951   0.10099867   -1.7133937   0.92808421   264187 
 3340000   0.85736944   -1.7152645   -1.7152645  -0.78469381   0.10607941   -1.7152645   0.93057072   264187 
 3350000   0.85659269    -1.713039    -1.713039   -0.7833113  0.094933128    -1.713039   0.92972765   264187 
 3360000   0.85676168     -1.71055     -1.71055  -0.78063893   0.10898812     -1.71055   0.92991107   264187 
 3370000   0.85662073   -1.7086169   -1.7086169  -0.77885879   0.10072697   -1.7086169   0.92975809   264187 
 3380000   0.85685804   -1.7060634   -1.7060634  -0.77604777   0.10196316   -1.7060634   0.93001566   264187 
 3390000    0.8597802   -1.7070713   -1.7070713  -0.77388403   0.10004841   -1.7070713   0.93318731   264187 
 3400000      0.86003    -1.707179    -1.707179  -0.77372059  0.097268484    -1.707179   0.93345843   264187 
 3410000   0.86203262   -1.7060054   -1.7060054  -0.77037334  0.096468086   -1.7060054   0.93563203   264187 
 3420000   0.86311187   -1.7069247   -1.7069247  -0.77012132    0.1055339   -1.7069247   0.93680342   264187 
 3430000   0.86120679    -1.700461    -1.700461  -0.76572528   0.10607786    -1.700461    0.9347357   264187 
 3440000   0.86223568   -1.7000326   -1.7000326  -0.76418018   0.11346461   -1.7000326   0.93585243   264187 
 3450000   0.86208536   -1.6994545   -1.6994545  -0.76376522  0.092422213   -1.6994545   0.93568928   264187 
 3460000   0.86374923    -1.698502    -1.698502  -0.76100679  0.096074881    -1.698502   0.93749521   264187 
 3470000   0.86586901    -1.699417    -1.699417  -0.75962105    0.1005337    -1.699417   0.93979597   264187 
 3480000   0.86580889    -1.697205    -1.697205  -0.75747425   0.10496862    -1.697205   0.93973072   264187 
 3490000   0.86693407   -1.6971007   -1.6971007  -0.75614877   0.10337663   -1.6971007   0.94095196   264187 
 3500000   0.86871683   -1.6956922   -1.6956922  -0.75280531   0.10854526   -1.6956922   0.94288693   264187 
 3510000   0.86836996   -1.6935989   -1.6935989   -0.7510884   0.10559322   -1.6935989   0.94251045   264187 
 3520000   0.87137031   -1.6946343   -1.6946343  -0.74886736   0.10121528   -1.6946343   0.94576696   264187 
 3530000   0.87112192   -1.6916657   -1.6916657  -0.74616833   0.10551795   -1.6916657   0.94549737   264187 
 3540000   0.87149971   -1.6911119   -1.6911119  -0.74520452  0.099554768   -1.6911119   0.94590741   264187 
 3550000   0.87216869   -1.6896013   -1.6896013  -0.74296777   0.10019836   -1.6896013   0.94663351   264187 
 3560000   0.87295214   -1.6869523   -1.6869523  -0.73946844   0.10824359   -1.6869523   0.94748385   264187 
 3570000   0.87514852   -1.6875861   -1.6875861  -0.73771837   0.10156858   -1.6875861   0.94986776   264187 
 3580000   0.87615368   -1.6848578   -1.6848578   -0.7338991   0.10036409   -1.6848578   0.95095873   264187 
 3590000   0.87347415   -1.6834317   -1.6834317  -0.73538124   0.10872172   -1.6834317   0.94805043   264187 
 3600000   0.87724593   -1.6843033   -1.6843033  -0.73215911   0.10713335   -1.6843033   0.95214423   264187 
 3610000   0.87915406   -1.6847939   -1.6847939   -0.7305786     0.095515   -1.6847939   0.95421528   264187 
 3620000   0.87724006   -1.6802128   -1.6802128  -0.72807494   0.10187612   -1.6802128   0.95213787   264187 
 3630000   0.87835563   -1.6786164   -1.6786164  -0.72526774   0.10437048   -1.6786164   0.95334868   264187 
 3640000   0.87868989   -1.6786178   -1.6786178  -0.72490636  0.097706719   -1.6786178   0.95371148   264187 
 3650000   0.88085126   -1.6757829   -1.6757829  -0.71972549   0.11876058   -1.6757829   0.95605739   264187 
 3660000   0.88182713   -1.6745579   -1.6745579  -0.71744137   0.10151191   -1.6745579   0.95711658   264187 
 3670000   0.88208502   -1.6741055   -1.6741055  -0.71670899    0.1042296   -1.6741055   0.95739648   264187 
 3680000   0.88428093   -1.6746917   -1.6746917  -0.71491181   0.10101115   -1.6746917   0.95977988   264187 
 3690000   0.88409727   -1.6734075   -1.6734075  -0.71382693    0.1059039   -1.6734075   0.95958054   264187 
 3700000   0.88250704   -1.6695399   -1.6695399  -0.71168534   0.10407839   -1.6695399   0.95785453   264187 
 3710000   0.88440794   -1.6690732   -1.6690732  -0.70915549   0.11422196   -1.6690732   0.95991774   264187 
 3720000   0.88701482   -1.6703403   -1.6703403  -0.70759309  0.096660518   -1.6703403   0.96274719   264187 
 3730000    0.8874268   -1.6673731   -1.6673731   -0.7041788   0.10355634   -1.6673731   0.96319433   264187 
 3740000   0.88805486    -1.667798    -1.667798  -0.70392193    0.1059326    -1.667798   0.96387602   264187 
 3750000   0.88528778   -1.6632259   -1.6632259  -0.70235324  0.099400529   -1.6632259    0.9608727   264187 
 3760000   0.88707102   -1.6630911   -1.6630911  -0.70028297   0.11457636   -1.6630911   0.96280818   264187 
 3770000   0.89235003   -1.6648891   -1.6648891   -0.6963512  0.098174245   -1.6648891    0.9685379   264187 
 3780000   0.88967142   -1.6623919   -1.6623919  -0.69676131   0.10124299   -1.6623919   0.96563061   264187 
 3790000   0.89185277   -1.6613083   -1.6613083  -0.69331009   0.11136285   -1.6613083   0.96799819   264187 
 3800000   0.89171586   -1.6597542   -1.6597542  -0.69190457   0.10020915   -1.6597542    0.9678496   264187 
 3810000   0.89349388   -1.6602429   -1.6602429  -0.69046351   0.11368722   -1.6602429   0.96977942   264187 
 3820000   0.89482763    -1.657792    -1.657792  -0.68656496     0.101964    -1.657792   0.97122704   264187 
 3830000   0.89369044   -1.6552886   -1.6552886  -0.68529581   0.11276811   -1.6552886   0.96999276   264187 
 3840000   0.89572717   -1.6589246   -1.6589246  -0.68672125   0.10216912   -1.6589246   0.97220339   264187 
 3850000   0.89813572    -1.655836    -1.655836  -0.68101841   0.10950638    -1.655836   0.97481757   264187 
 3860000   0.89751073   -1.6544046   -1.6544046  -0.68026532   0.10600106   -1.6544046   0.97413923   264187 
 3870000   0.89460079   -1.6529825   -1.6529825  -0.68200166   0.10644399   -1.6529825   0.97098083   264187 
 3880000   0.89965037   -1.6505426   -1.6505426  -0.67408101   0.12010822   -1.6505426   0.97646155   264187 
 3890000   0.89996832    -1.651363    -1.651363  -0.67455638   0.10822903    -1.651363   0.97680664   264187 
 3900000   0.89973434   -1.6501612   -1.6501612  -0.67360848   0.11240072   -1.6501612   0.97655268   264187 
 3910000   0.90272334   -1.6505407   -1.6505407   -0.6707438   0.11585275   -1.6505407   0.97979688   264187 
 3920000   0.90011174   -1.6484272   -1.6484272  -0.67146486   0.11692384   -1.6484272    0.9769623   264187 
 3930000   0.90288326   -1.6480734   -1.6480734  -0.66810299   0.11085736   -1.6480734   0.97997046   264187 
 3940000    0.9037216   -1.6494534   -1.6494534  -0.66857299   0.10640065   -1.6494534   0.98088037   264187 
 3950000   0.90213931   -1.6466304   -1.6466304  -0.66746738   0.10995298   -1.6466304   0.97916299   264187 
 3960000   0.90488747   -1.6486571   -1.6486571  -0.66651132   0.11253734   -1.6486571   0.98214578   264187 
 3970000   0.90560649   -1.6468654   -1.6468654   -0.6639392   0.10759156   -1.6468654   0.98292619   264187 
 3980000   0.90538963   -1.6423732   -1.6423732  -0.65968234   0.11311492   -1.6423732   0.98269082   264187 
 3990000   0.90641187   -1.6416357   -1.6416357  -0.65783539   0.11099196   -1.6416357   0.98380033   264187 
 4000000   0.90954946   -1.6439785   -1.6439785  -0.65677268   0.10317102   -1.6439785   0.98720581   264187 
 4010000   0.90826509    -1.638559    -1.638559   -0.6527472   0.11064153    -1.638559   0.98581178   264187 
 4020000   0.90939615   -1.6379799   -1.6379799  -0.65094049   0.11709738   -1.6379799   0.98703941   264187 
 4030000   0.90848121   -1.6364591   -1.6364591  -0.65041271   0.10897381   -1.6364591   0.98604635   264187 
 4040000   0.91065561   -1.6362912   -1.6362912  -0.64788484   0.12037759   -1.6362912    0.9884064   264187 
 4050000   0.91060307   -1.6342006   -1.6342006  -0.64585121    0.1236926   -1.6342006   0.98834937   264187 
 4060000    0.9147661   -1.6370286   -1.6370286  -0.64416073   0.11622909   -1.6370286   0.99286784   264187 
 4070000   0.91268834   -1.6355156   -1.6355156  -0.64490288   0.11194034   -1.6355156   0.99061268   264187 
 4080000   0.91460511   -1.6351615   -1.6351615   -0.6424684   0.10961208   -1.6351615   0.99269311   264187 
 4090000   0.91386872   -1.6330676   -1.6330676  -0.64117379   0.11191728   -1.6330676   0.99189384   264187 
 4100000   0.91670594   -1.6333604   -1.6333604  -0.63838707   0.11915574   -1.6333604    0.9949733   264187 
 4110000   0.91704273   -1.6295029   -1.6295029  -0.63416403   0.11850847   -1.6295029   0.99533885   264187 
 4120000   0.91836568   -1.6278648   -1.6278648  -0.63109002   0.10956794   -1.6278648   0.99677475   264187 
 4130000   0.91832032   -1.6253744   -1.6253744  -0.62864891   0.11846826   -1.6253744   0.99672551   264187 
 4140000   0.92228749   -1.6258261   -1.6258261  -0.62479471   0.11975414   -1.6258261    1.0010314   264187 
 4150000   0.92006877   -1.6227173   -1.6227173  -0.62409408   0.11328263   -1.6227173   0.99862324   264187 
 4160000   0.92402388   -1.6226352   -1.6226352  -0.61971914   0.11820059   -1.6226352     1.002916   264187 
 4170000   0.92292891   -1.6208763   -1.6208763   -0.6191487     0.111434   -1.6208763    1.0017276   264187 
 4180000   0.92333994   -1.6196468   -1.6196468  -0.61747311   0.12068898   -1.6196468    1.0021737   264187 
 4190000   0.92427549    -1.618711    -1.618711   -0.6155219   0.11700577    -1.618711    1.0031891   264187 
 4200000   0.92450156    -1.621323    -1.621323  -0.61788847   0.12217913    -1.621323    1.0034345   264187 
 4210000   0.92401039   -1.6159295   -1.6159295  -0.61302807   0.11639558   -1.6159295    1.0029014   264187 
 4220000   0.92641367   -1.6181816   -1.6181816  -0.61267171   0.12106525   -1.6181816    1.0055099   264187 
 4230000   0.93035336   -1.6189523   -1.6189523  -0.60916638   0.11895731   -1.6189523    1.0097859   264187 
 4240000   0.92958528   -1.6181287   -1.6181287  -0.60917648   0.12871868   -1.6181287    1.0089523   264187 
 4250000   0.92744074   -1.6158304   -1.6158304  -0.60920581   0.11628285   -1.6158304    1.0066246   264187 
 4260000   0.92736029   -1.6147597   -1.6147597  -0.60822244   0.12896023   -1.6147597    1.0065373   264187 
 4270000   0.92851686   -1.6126445   -1.6126445  -0.60485186   0.12124761   -1.6126445    1.0077926   264187 
 4280000   0.92872334   -1.6116221   -1.6116221  -0.60360541   0.10966156   -1.6116221    1.0080167   264187 
 4290000   0.92970981     -1.61306     -1.61306   -0.6039726   0.12439399     -1.61306    1.0090874   264187 
 4300000   0.93245665   -1.6115162   -1.6115162  -0.59944739   0.11750188   -1.6115162    1.0120688   264187 
 4310000   0.93189026   -1.6110627   -1.6110627  -0.59960863   0.12158055   -1.6110627     1.011454   264187 
 4320000   0.93575534   -1.6094101   -1.6094101  -0.59376097   0.13672774   -1.6094101    1.0156491   264187 
 4330000   0.93473627   -1.6083735   -1.6083735  -0.59383048   0.11489617   -1.6083735     1.014543   264187 
 4340000   0.93384242   -1.6059507   -1.6059507  -0.59237779   0.12271064   -1.6059507    1.0135729   264187 
 4350000   0.93662723   -1.6034935   -1.6034935  -0.58689808   0.12049623   -1.6034935    1.0165954   264187 
 4360000   0.93845058   -1.6045221   -1.6045221  -0.58594764   0.12946821   -1.6045221    1.0185745   264187 
 4370000   0.93939588    -1.605385    -1.605385  -0.58578448   0.12224561    -1.605385    1.0196005   264187 
 4380000   0.94277946   -1.6044612   -1.6044612  -0.58118823   0.12092531   -1.6044612     1.023273   264187 
 4390000   0.93896017   -1.6000472   -1.6000472  -0.58091959   0.12371359   -1.6000472    1.0191276   264187 
 4400000   0.94150329   -1.6006448   -1.6006448  -0.57875693   0.12064711   -1.6006448    1.0218878   264187 
 4410000   0.94332161   -1.5996729   -1.5996729  -0.57581149   0.12314493   -1.5996729    1.0238614   264187 
 4420000   0.94552783   -1.6013746   -1.6013746  -0.57511867   0.13810102   -1.6013746     1.026256   264187 
 4430000   0.94476503   -1.5969745   -1.5969745  -0.57154645   0.12508011   -1.5969745     1.025428   264187 
 4440000   0.94741054   -1.5977204   -1.5977204  -0.56942102   0.14054324   -1.5977204    1.0282994   264187 
 4450000   0.94596697   -1.5952598   -1.5952598  -0.56852723   0.12185008   -1.5952598    1.0267326   264187 
 4460000   0.94575992   -1.5937244   -1.5937244   -0.5672165   0.12055144   -1.5937244    1.0265079   264187 
 4470000   0.94800108   -1.5949332   -1.5949332  -0.56599286   0.12095686   -1.5949332    1.0289404   264187 
 4480000   0.94827252    -1.593446    -1.593446  -0.56421101   0.12261491    -1.593446     1.029235   264187 
 4490000   0.95025075   -1.5929443   -1.5929443  -0.56156222     0.120963   -1.5929443    1.0313821   264187 
 4500000   0.94905416   -1.5923561   -1.5923561  -0.56227268     0.123672   -1.5923561    1.0300834   264187 
 4510000   0.95047607   -1.5954136   -1.5954136  -0.56378694   0.13440941   -1.5954136    1.0316267   264187 
 4520000   0.94908733   -1.5906186   -1.5906186  -0.56049924   0.13002021   -1.5906186    1.0301194   264187 
 4530000   0.95046833   -1.5918729   -1.5918729  -0.56025465     0.132869   -1.5918729    1.0316183   264187 
 4540000   0.95212267   -1.5902804   -1.5902804  -0.55686651   0.12836677   -1.5902804    1.0334139   264187 
 4550000   0.95308927    -1.590438    -1.590438  -0.55597502   0.13122707    -1.590438     1.034463   264187 
 4560000   0.95265723   -1.5880336   -1.5880336  -0.55403952   0.12982867   -1.5880336    1.0339941   264187 
 4570000   0.95475609   -1.5894096   -1.5894096  -0.55313743   0.12647541   -1.5894096    1.0362721   264187 
 4580000   0.95352272   -1.5853999   -1.5853999  -0.55046645    0.1253854   -1.5853999    1.0349335   264187 
 4590000   0.95682695   -1.5868684   -1.5868684   -0.5483486   0.12297382   -1.5868684    1.0385198   264187 
 4600000    0.9581342   -1.5852907   -1.5852907  -0.54535208   0.12619788   -1.5852907    1.0399387   264187 
 4610000   0.95941226   -1.5826968   -1.5826968  -0.54137098   0.12531823   -1.5826968    1.0413258   264187 
 4620000   0.95883463   -1.5824209   -1.5824209  -0.54172199   0.13328714   -1.5824209    1.0406989   264187 
 4630000   0.95938333   -1.5813587   -1.5813587  -0.54006427   0.13384474   -1.5813587    1.0412944   264187 
 4640000   0.95994853   -1.5783654   -1.5783654  -0.53645747   0.12398637   -1.5783654    1.0419079   264187 
 4650000   0.96167956   -1.5811416   -1.5811416   -0.5373549    0.1345054   -1.5811416    1.0437867   264187 
 4660000   0.96500998   -1.5808371   -1.5808371  -0.53343562   0.12264002   -1.5808371    1.0474015   264187 
 4670000    0.9611289   -1.5755072   -1.5755072  -0.53231816   0.12380763   -1.5755072     1.043189   264187 
 4680000   0.96228524   -1.5760984   -1.5760984  -0.53165428   0.13640275   -1.5760984    1.0444441   264187 
 4690000   0.96462144    -1.579318    -1.579318  -0.53233821   0.13300378    -1.579318    1.0469798   264187 
 4700000   0.96484475   -1.5750592   -1.5750592  -0.52783709   0.12089594   -1.5750592    1.0472222   264187 
 4710000    0.9663501   -1.5763443   -1.5763443  -0.52748825   0.13824916   -1.5763443     1.048856   264187 
 4720000   0.96663069   -1.5735706   -1.5735706  -0.52440998   0.13598678   -1.5735706    1.0491606   264187 
 4730000   0.96809829   -1.5741905   -1.5741905  -0.52343698   0.13585991   -1.5741905    1.0507535   264187 
 4740000   0.96701835   -1.5708683   -1.5708683  -0.52128696   0.13094545   -1.5708683    1.0495813   264187 
 4750000   0.97173126   -1.5712007   -1.5712007  -0.51650411   0.12653855   -1.5712007    1.0546966   264187 
 4760000   0.97241974   -1.5707702   -1.5707702   -0.5153263   0.13026949   -1.5707702    1.0554439   264187 
 4770000   0.97154983    -1.564881    -1.564881  -0.51038131   0.12660341    -1.564881    1.0544997   264187 
 4780000   0.97173067   -1.5683845   -1.5683845  -0.51368854   0.12623374   -1.5683845     1.054696   264187 
 4790000   0.97475376    -1.569489    -1.569489  -0.51151183   0.12756099    -1.569489    1.0579772   264187 
 4800000    0.9762332   -1.5711323   -1.5711323  -0.51154937   0.12828742   -1.5711323    1.0595829   264187 
 4810000    0.9744702   -1.5693563   -1.5693563  -0.51168686   0.13867658   -1.5693563    1.0576694   264187 
 4820000   0.97661117    -1.566427    -1.566427  -0.50643385   0.14414481    -1.566427    1.0599932   264187 
 4830000   0.97423531   -1.5653792   -1.5653792  -0.50796473   0.13343587   -1.5653792    1.0574145   264187 
 4840000    0.9784046   -1.5672767   -1.5672767  -0.50533696    0.1302451   -1.5672767    1.0619397   264187 
 4850000   0.97646154   -1.5633918   -1.5633918  -0.50356105   0.14015543   -1.5633918    1.0598308   264187 
 4860000   0.97819223   -1.5616598   -1.5616598   -0.4999506     0.133324   -1.5616598    1.0617092   264187 
 4870000   0.98024905   -1.5618731   -1.5618731  -0.49793148   0.13846995   -1.5618731    1.0639416   264187 
 4880000    0.9810686    -1.563189    -1.563189  -0.49835784   0.13308055    -1.563189    1.0648312   264187 
 4890000   0.97785044   -1.5602737   -1.5602737  -0.49893542   0.12041916   -1.5602737    1.0613383   264187 
 4900000   0.98498166   -1.5622745   -1.5622745  -0.49319615   0.13546884   -1.5622745    1.0690783   264187 
 4910000   0.98182419   -1.5572024   -1.5572024  -0.49155111   0.12943183   -1.5572024    1.0656513   264187 
 4920000    0.9819106   -1.5576271   -1.5576271  -0.49188205   0.13243751   -1.5576271    1.0657451   264187 
 4930000   0.98325837   -1.5558805   -1.5558805  -0.48867264   0.13727325   -1.5558805    1.0672079   264187 
 4940000   0.98468566   -1.5565913   -1.5565913   -0.4878343     0.140044   -1.5565913    1.0687571   264187 
 4950000   0.98590724   -1.5551614   -1.5551614  -0.48507847   0.13112065   -1.5551614    1.0700829   264187 
 4960000   0.98676983   -1.5584896   -1.5584896  -0.48747047   0.13703142   -1.5584896    1.0710192   264187 
 4970000   0.98570376   -1.5542464   -1.5542464  -0.48438431    0.1357575   -1.5542464    1.0698621   264187 
 4980000   0.98412941   -1.5517595   -1.5517595  -0.48360621   0.14489294   -1.5517595    1.0681533   264187 
 4990000   0.98864735   -1.5568174   -1.5568174  -0.48376038    0.1338872   -1.5568174     1.073057   264187 
 5000000   0.98728044    -1.552375    -1.552375  -0.48080161   0.13186257    -1.552375    1.0715734   264187 
Loop time of 11964.9 on 336 procs for 5000000 steps with 264187 atoms

Performance: 180527.678 tau/day, 417.888 timesteps/s
80.9% CPU use with 336 MPI tasks x 1 OpenMP threads

MPI task timing breakdown:
Section |  min time  |  avg time  |  max time  |%varavg|  %CPU | %total
-----------------------------------------------------------------------
Pair    | 167.67     | 998.9      | 2889.4     |2224.5 |  86.8 |  8.35
Bond    | 3.1382     | 3.3149     | 3.5459     |   4.1 | 100.0 |  0.03
Neigh   | 316.51     | 1468.7     | 4182.6     |2420.5 |  96.9 | 12.27
Comm    | 2264.6     | 5403.8     | 8837.5     |2069.7 |  79.0 | 45.16
Output  | 492.52     | 571.37     | 656.16     | 143.3 |  74.3 |  4.78
Modify  | 1477.1     | 3409.7     | 7752.2     |3190.2 |  78.4 | 28.50
Other   |            | 109.2      |            |       |       |  0.91

Nlocal:        786.271 ave        1769 max         245 min
Histogram: 27 28 33 169 32 21 9 11 3 3
Nghost:        3741.30 ave        8697 max        1312 min
Histogram: 119 37 33 29 24 18 23 22 24 7
Neighs:        12347.2 ave       52103 max        1255 min
Histogram: 182 25 24 23 33 25 8 10 4 2
FullNghs:      24694.4 ave      103728 max        2552 min
Histogram: 181 26 24 19 37 23 14 6 3 3

Total # of neighbors = 8297318
Ave neighs/atom = 31.406988
Ave special neighs/atom = 0.0000000
Neighbor list builds = 498866
Dangerous builds = 478299

unfix 		3
fix             3 thermo langevin ${stop_temp} ${start_temp} 10 156453
fix             3 thermo langevin 1.0 ${start_temp} 10 156453
fix             3 thermo langevin 1.0 0.6 10 156453
run		5000000
Per MPI rank memory allocation (min/avg/max) = 26.32 | 33.78 | 37.32 Mbytes
Step Temp E_pair E_vdwl TotEng Press PotEng KinEng Atoms 
 5000000   0.98728044    -1.552375    -1.552375  -0.48080161   0.13272742    -1.552375    1.0715734   264187 
 5010000   0.99052024   -1.5518404   -1.5518404  -0.47675061   0.14622255   -1.5518404    1.0750898   264187 
 5020000    0.9930454   -1.5530276   -1.5530276  -0.47519704   0.13226015   -1.5530276    1.0778305   264187 
 5030000   0.99063478   -1.5524247   -1.5524247  -0.47721056   0.13774783   -1.5524247    1.0752141   264187 
 5040000    0.9907694    -1.552298    -1.552298  -0.47693777   0.13305436    -1.552298    1.0753602   264187 
 5050000   0.99090275   -1.5523274   -1.5523274   -0.4768224   0.14453535   -1.5523274     1.075505   264187 
 5060000   0.99189118    -1.550303    -1.550303  -0.47372523   0.13938884    -1.550303    1.0765778   264187 
 5070000   0.99049762   -1.5494546   -1.5494546  -0.47438933   0.14214407   -1.5494546    1.0750652   264187 
 5080000   0.99373723   -1.5516972   -1.5516972  -0.47311581     0.131267   -1.5516972    1.0785814   264187 
 5090000   0.99283855   -1.5507224   -1.5507224  -0.47311637   0.14289763   -1.5507224     1.077606   264187 
 5100000   0.99316387   -1.5498033   -1.5498033  -0.47184412   0.14057727   -1.5498033    1.0779591   264187 
 5110000    0.9940112   -1.5500864   -1.5500864  -0.47120757   0.13479053   -1.5500864    1.0788788   264187 
 5120000   0.99096615   -1.5496033   -1.5496033  -0.47402954   0.14198573   -1.5496033    1.0755738   264187 
 5130000   0.99336231   -1.5520248   -1.5520248  -0.47385025   0.12565518   -1.5520248    1.0781745   264187 
 5140000   0.99400655   -1.5517404   -1.5517404  -0.47286659   0.13817888   -1.5517404    1.0788738   264187 
 5150000   0.99300527   -1.5498713   -1.5498713  -0.47208432   0.13622351   -1.5498713     1.077787   264187 
 5160000   0.99345143   -1.5518772   -1.5518772    -0.473606   0.13871971   -1.5518772    1.0782712   264187 
 5170000   0.99450034   -1.5531104   -1.5531104  -0.47370071   0.13937561   -1.5531104    1.0794097   264187 
 5180000   0.99212102   -1.5524312   -1.5524312  -0.47560392   0.12700766   -1.5524312    1.0768272   264187 
 5190000    0.9934222   -1.5536016   -1.5536016  -0.47536208   0.13551437   -1.5536016    1.0782395   264187 
 5200000   0.99542917   -1.5543263   -1.5543263  -0.47390846   0.13956195   -1.5543263    1.0804178   264187 
 5210000    0.9955068   -1.5558302   -1.5558302  -0.47532812   0.13228935   -1.5558302    1.0805021   264187 
 5220000   0.99291123   -1.5542267   -1.5542267  -0.47654178   0.14392637   -1.5542267    1.0776849   264187 
 5230000     0.992293   -1.5549296   -1.5549296  -0.47791575   0.12829733   -1.5549296    1.0770139   264187 
 5240000   0.99272399   -1.5569147   -1.5569147  -0.47943304   0.14433092   -1.5569147    1.0774817   264187 
 5250000   0.99092812   -1.5562501   -1.5562501  -0.48071758   0.14067785   -1.5562501    1.0755325   264187 
 5260000   0.99095425   -1.5577036   -1.5577036  -0.48214277   0.13869677   -1.5577036    1.0755608   264187 
 5270000   0.98878844   -1.5572805   -1.5572805   -0.4840704   0.13436611   -1.5572805    1.0732101   264187 
 5280000   0.99015637   -1.5581679   -1.5581679  -0.48347305   0.13253862   -1.5581679    1.0746948   264187 
 5290000   0.98990791    -1.556245    -1.556245  -0.48181981   0.13967556    -1.556245    1.0744252   264187 
 5300000   0.98933565   -1.5553327   -1.5553327  -0.48152866   0.13577204   -1.5553327    1.0738041   264187 
 5310000   0.98821955   -1.5578146   -1.5578146  -0.48522197   0.13177032   -1.5578146    1.0725927   264187 
 5320000   0.99264728   -1.5613406   -1.5613406  -0.48394214   0.13711318   -1.5613406    1.0773984   264187 
 5330000    0.9939378   -1.5634647   -1.5634647  -0.48466562    0.1258468   -1.5634647    1.0787991   264187 
 5340000    0.9893943   -1.5595742   -1.5595742   -0.4857065     0.132789   -1.5595742    1.0738677   264187 
 5350000   0.99203181   -1.5635099   -1.5635099  -0.48677948   0.13673405   -1.5635099    1.0767304   264187 
 5360000   0.98959089   -1.5603691   -1.5603691  -0.48628797   0.13231085   -1.5603691    1.0740811   264187 
 5370000   0.99112036   -1.5643881   -1.5643881  -0.48864697   0.15132092   -1.5643881    1.0757411   264187 
 5380000   0.98720644   -1.5638144   -1.5638144  -0.49232136   0.13721894   -1.5638144    1.0714931   264187 
 5390000   0.98774977   -1.5640277   -1.5640277  -0.49194492   0.13941992   -1.5640277    1.0720828   264187 
 5400000   0.98911795   -1.5647727   -1.5647727  -0.49120497    0.1436638   -1.5647727    1.0735678   264187 
 5410000   0.98714287   -1.5659981   -1.5659981  -0.49457401   0.13472883   -1.5659981    1.0714241   264187 
 5420000   0.98762238   -1.5648189   -1.5648189  -0.49287438   0.13340722   -1.5648189    1.0719445   264187 
 5430000   0.98662996   -1.5640106   -1.5640106  -0.49314322   0.14145514   -1.5640106    1.0708674   264187 
 5440000   0.98940025    -1.568984    -1.568984  -0.49510987   0.12901109    -1.568984    1.0738742   264187 
 5450000   0.98628298   -1.5673526   -1.5673526  -0.49686184   0.12613032   -1.5673526    1.0704908   264187 
 5460000   0.98857189   -1.5727074   -1.5727074  -0.49973228   0.12451939   -1.5727074    1.0729751   264187 
 5470000   0.98739027   -1.5713239   -1.5713239  -0.49963129   0.13484711   -1.5713239    1.0716926   264187 
 5480000   0.98489646   -1.5717651   -1.5717651  -0.50277923     0.134011   -1.5717651    1.0689859   264187 
 5490000   0.98562072   -1.5715542   -1.5715542  -0.50178229   0.14193369   -1.5715542     1.069772   264187 
 5500000   0.98613693   -1.5740578   -1.5740578  -0.50372554   0.13425294   -1.5740578    1.0703322   264187 
 5510000   0.98320488   -1.5709806   -1.5709806  -0.50383074   0.13045044   -1.5709806    1.0671498   264187 
 5520000    0.9863038   -1.5755783   -1.5755783  -0.50506497    0.1404135   -1.5755783    1.0705134   264187 
 5530000   0.98230924   -1.5749066   -1.5749066  -0.50872889   0.13249407   -1.5749066    1.0661777   264187 
 5540000   0.98155793   -1.5768667   -1.5768667  -0.51150446    0.1275813   -1.5768667    1.0653623   264187 
 5550000   0.98061456   -1.5778208   -1.5778208  -0.51348239   0.13430275   -1.5778208    1.0643384   264187 
 5560000   0.98121455   -1.5774084   -1.5774084  -0.51241886    0.1329774   -1.5774084    1.0649896   264187 
 5570000   0.98253086   -1.5793749   -1.5793749  -0.51295664   0.13303911   -1.5793749    1.0664183   264187 
 5580000    0.9822242   -1.5804779   -1.5804779  -0.51439241   0.14597301   -1.5804779    1.0660854   264187 
 5590000   0.98097334   -1.5787993   -1.5787993  -0.51407154   0.13628723   -1.5787993    1.0647278   264187 
 5600000   0.98320956   -1.5807524   -1.5807524  -0.51359744   0.13345871   -1.5807524    1.0671549   264187 
 5610000   0.98154664   -1.5801285   -1.5801285  -0.51477843   0.13659649   -1.5801285      1.06535   264187 
 5620000   0.97950716   -1.5797778   -1.5797778  -0.51664134   0.13899001   -1.5797778    1.0631364   264187 
 5630000   0.97987524   -1.5791909   -1.5791909  -0.51565493   0.14510044   -1.5791909    1.0635359   264187 
 5640000   0.97764695   -1.5802852   -1.5802852  -0.51916783   0.13127171   -1.5802852    1.0611174   264187 
 5650000   0.97822444   -1.5809144   -1.5809144  -0.51917021   0.12820814   -1.5809144    1.0617442   264187 
 5660000   0.97789614   -1.5835543   -1.5835543  -0.52216646   0.13580196   -1.5835543    1.0613879   264187 
 5670000   0.97936971   -1.5862188   -1.5862188  -0.52323159   0.14194089   -1.5862188    1.0629872   264187 
 5680000   0.97764891    -1.587441    -1.587441  -0.52632145   0.14140875    -1.587441    1.0611195   264187 
 5690000    0.9772073   -1.5879128   -1.5879128  -0.52727259   0.13102406   -1.5879128    1.0606402   264187 
 5700000    0.9750552   -1.5864825   -1.5864825  -0.52817817   0.13691502   -1.5864825    1.0583044   264187 
 5710000   0.97543674   -1.5906371   -1.5906371  -0.53191862   0.12797781   -1.5906371    1.0587185   264187 
 5720000   0.97439139   -1.5887884   -1.5887884  -0.53120453   0.13280612   -1.5887884    1.0575839   264187 
 5730000   0.97377624   -1.5905768   -1.5905768  -0.53366056   0.12207998   -1.5905768    1.0569162   264187 
 5740000   0.97211529   -1.5929495   -1.5929495  -0.53783608   0.13953967   -1.5929495    1.0551134   264187 
 5750000   0.97075011   -1.5932566   -1.5932566  -0.53962489   0.13312442   -1.5932566    1.0536317   264187 
 5760000   0.97124554   -1.5985816   -1.5985816  -0.54441216    0.1251233   -1.5985816    1.0541694   264187 
 5770000   0.97009867   -1.5942019   -1.5942019  -0.54127728   0.14405577   -1.5942019    1.0529246   264187 
 5780000   0.97151768   -1.5969282   -1.5969282  -0.54246342   0.14081721   -1.5969282    1.0544648   264187 
 5790000   0.97078017   -1.5975868   -1.5975868  -0.54392246   0.12100444   -1.5975868    1.0536643   264187 
 5800000   0.96976841   -1.5968727   -1.5968727  -0.54430649   0.13362604   -1.5968727    1.0525662   264187 
 5810000   0.96717313   -1.5965896   -1.5965896  -0.54684023   0.13306818   -1.5965896    1.0497493   264187 
 5820000   0.96835492   -1.6016373   -1.6016373  -0.55060531   0.13800579   -1.6016373     1.051032   264187 
 5830000   0.96721447    -1.599588    -1.599588  -0.54979381   0.12869551    -1.599588    1.0497942   264187 
 5840000    0.9653091   -1.6007506   -1.6007506  -0.55302441   0.13197948   -1.6007506    1.0477261   264187 
 5850000   0.96788493   -1.6027045   -1.6027045  -0.55218262   0.13025949   -1.6027045    1.0505219   264187 
 5860000   0.96574202   -1.6043376   -1.6043376  -0.55614161   0.13401268   -1.6043376     1.048196   264187 
 5870000   0.96813898   -1.6037302   -1.6037302  -0.55293261   0.13164544   -1.6037302    1.0507976   264187 
 5880000   0.96721015   -1.6055508   -1.6055508  -0.55576131   0.13652321   -1.6055508    1.0497895   264187 
 5890000   0.96352118   -1.6048741   -1.6048741  -0.55908853   0.12751556   -1.6048741    1.0457856   264187 
 5900000   0.96444827   -1.6070342   -1.6070342  -0.56024242   0.14007577   -1.6070342    1.0467918   264187 
 5910000   0.96069652   -1.6057836   -1.6057836   -0.5630639   0.12493632   -1.6057836    1.0427198   264187 
 5920000    0.9628766   -1.6115438   -1.6115438  -0.56645786   0.12786608   -1.6115438     1.045086   264187 
 5930000   0.96085584   -1.6082186   -1.6082186  -0.56532588   0.13385358   -1.6082186    1.0428927   264187 
 5940000    0.9620499   -1.6108806   -1.6108806  -0.56669189   0.13268078   -1.6108806    1.0441887   264187 
 5950000   0.95962783   -1.6087274   -1.6087274  -0.56716753   0.12044244   -1.6087274    1.0415598   264187 
 5960000   0.95961878   -1.6105609   -1.6105609  -0.56901093   0.11835527   -1.6105609      1.04155   264187 
 5970000   0.96067134   -1.6115437   -1.6115437  -0.56885131   0.12124192   -1.6115437    1.0426924   264187 
 5980000   0.96141086    -1.611497    -1.611497  -0.56800191   0.12719341    -1.611497    1.0434951   264187 
 5990000   0.95902652   -1.6115104   -1.6115104  -0.57060322   0.12808072   -1.6115104    1.0409072   264187 
 6000000   0.95875148   -1.6137593   -1.6137593  -0.57315061   0.12740339   -1.6137593    1.0406086   264187 
 6010000   0.95781018   -1.6140703   -1.6140703  -0.57448333   0.12978576   -1.6140703     1.039587   264187 
 6020000    0.9591635   -1.6164123   -1.6164123  -0.57535647   0.12344309   -1.6164123    1.0410558   264187 
 6030000   0.95810666   -1.6150672   -1.6150672  -0.57515839   0.13720479   -1.6150672    1.0399088   264187 
 6040000   0.95486288   -1.6136363   -1.6136363   -0.5772483   0.13739747   -1.6136363     1.036388   264187 
 6050000   0.95630539   -1.6153652   -1.6153652  -0.57741144   0.12114415   -1.6153652    1.0379537   264187 
 6060000   0.95768922   -1.6191319   -1.6191319  -0.57967617   0.12147776   -1.6191319    1.0394557   264187 
 6070000   0.95213428   -1.6154393   -1.6154393   -0.5820128   0.12930157   -1.6154393    1.0334265   264187 
 6080000   0.95289152   -1.6189421   -1.6189421  -0.58469368   0.13252502   -1.6189421    1.0342484   264187 
 6090000   0.95274939     -1.62078     -1.62078  -0.58668588    0.1258429     -1.62078    1.0340941   264187 
 6100000   0.95158351   -1.6216481   -1.6216481  -0.58881944   0.12245462   -1.6216481    1.0328287   264187 
 6110000   0.95208886   -1.6223146   -1.6223146  -0.58893745   0.13318997   -1.6223146    1.0333772   264187 
 6120000   0.94989794   -1.6252363   -1.6252363  -0.59423715   0.12135887   -1.6252363    1.0309992   264187 
 6130000   0.94841481   -1.6238993   -1.6238993  -0.59450983   0.13575939   -1.6238993    1.0293894   264187 
 6140000   0.94888561    -1.624339    -1.624339  -0.59443861    0.1246317    -1.624339    1.0299004   264187 
 6150000   0.94758481   -1.6254625   -1.6254625  -0.59697389   0.12425004   -1.6254625    1.0284886   264187 
 6160000   0.94795484   -1.6239787   -1.6239787  -0.59508846   0.12126109   -1.6239787    1.0288902   264187 
 6170000   0.94779141   -1.6250956   -1.6250956  -0.59638281   0.12841904   -1.6250956    1.0287128   264187 
 6180000   0.94616613   -1.6274614   -1.6274614  -0.60051259   0.13071676   -1.6274614    1.0269488   264187 
 6190000   0.94614258   -1.6283374   -1.6283374  -0.60141418   0.12458549   -1.6283374    1.0269232   264187 
 6200000   0.94321323   -1.6273308   -1.6273308  -0.60358705   0.12305669   -1.6273308    1.0237438   264187 
 6210000   0.94303749   -1.6285977   -1.6285977  -0.60504465   0.13046171   -1.6285977     1.023553   264187 
 6220000   0.94097684   -1.6282927   -1.6282927  -0.60697629   0.13024703   -1.6282927    1.0213164   264187 
 6230000   0.94313457   -1.6322432   -1.6322432  -0.60858481   0.12305303   -1.6322432    1.0236584   264187 
 6240000   0.94217314    -1.634141    -1.634141  -0.61152616   0.11557737    -1.634141    1.0226149   264187 
 6250000   0.94107638   -1.6332307   -1.6332307  -0.61180628   0.10802373   -1.6332307    1.0214245   264187 
 6260000   0.94102644   -1.6338232   -1.6338232  -0.61245299   0.12483018   -1.6338232    1.0213703   264187 
 6270000   0.94045135   -1.6359447   -1.6359447  -0.61519859   0.12958157   -1.6359447    1.0207461   264187 
 6280000   0.93898389   -1.6343656   -1.6343656  -0.61521232   0.12713039   -1.6343656    1.0191533   264187 
 6290000   0.93929192   -1.6372647   -1.6372647  -0.61777707   0.12048071   -1.6372647    1.0194876   264187 
 6300000   0.94045228   -1.6379814   -1.6379814  -0.61723432   0.12619528   -1.6379814    1.0207471   264187 
 6310000    0.9400599    -1.640065    -1.640065  -0.61974385   0.12677169    -1.640065    1.0203212   264187 
 6320000   0.93858193   -1.6396115   -1.6396115  -0.62089444   0.12219346   -1.6396115     1.018717   264187 
 6330000   0.93828761    -1.642626    -1.642626   -0.6242284   0.12510015    -1.642626    1.0183976   264187 
 6340000    0.9360909   -1.6429799   -1.6429799  -0.62696661   0.12716175   -1.6429799    1.0160133   264187 
 6350000   0.93419749   -1.6439324   -1.6439324  -0.62997413   0.10040371   -1.6439324    1.0139583   264187 
 6360000   0.93581077   -1.6463769   -1.6463769  -0.63066759   0.12743416   -1.6463769    1.0157093   264187 
 6370000   0.93255336   -1.6471004   -1.6471004  -0.63492668   0.12585652   -1.6471004    1.0121738   264187 
 6380000   0.93335764   -1.6470362   -1.6470362  -0.63398946   0.11704048   -1.6470362    1.0130467   264187 
 6390000   0.93215749   -1.6466527   -1.6466527  -0.63490857     0.121442   -1.6466527    1.0117441   264187 
 6400000   0.93022193   -1.6469888   -1.6469888  -0.63734551   0.11977134   -1.6469888    1.0096433   264187 
 6410000   0.93032516   -1.6448003   -1.6448003    -0.635045   0.12729443   -1.6448003    1.0097553   264187 
 6420000    0.9315527   -1.6501672   -1.6501672  -0.63907949   0.12124731   -1.6501672    1.0110877   264187 
 6430000   0.92961408   -1.6509018   -1.6509018  -0.64191828   0.12728333   -1.6509018    1.0089835   264187 
 6440000   0.93079568   -1.6513235   -1.6513235  -0.64105748   0.11948753   -1.6513235     1.010266   264187 
 6450000   0.92863409   -1.6513821   -1.6513821  -0.64346225   0.12665169   -1.6513821    1.0079199   264187 
 6460000   0.92755386   -1.6544404   -1.6544404  -0.64769299     0.115181   -1.6544404    1.0067474   264187 
 6470000   0.92538405   -1.6537907   -1.6537907  -0.64939831    0.1181819   -1.6537907    1.0043923   264187 
 6480000   0.92622495   -1.6536869   -1.6536869  -0.64838187   0.11944151   -1.6536869     1.005305   264187 
 6490000   0.92659131   -1.6554157   -1.6554157  -0.64971301   0.12107639   -1.6554157    1.0057027   264187 
 6500000   0.92953065   -1.6588608   -1.6588608  -0.64996785   0.11565626   -1.6588608     1.008893   264187 
 6510000   0.92699794    -1.656917    -1.656917  -0.65077301   0.10793537    -1.656917     1.006144   264187 
 6520000   0.92428156    -1.658069    -1.658069  -0.65487328   0.12066775    -1.658069    1.0031957   264187 
 6530000   0.92402119    -1.660255    -1.660255  -0.65734185   0.11790861    -1.660255    1.0029131   264187 
 6540000   0.92312151   -1.6614429   -1.6614429  -0.65950629   0.11987209   -1.6614429    1.0019366   264187 
 6550000   0.92132426   -1.6629069   -1.6629069  -0.66292099   0.12022578   -1.6629069   0.99998592   264187 
 6560000   0.92031256    -1.663745    -1.663745  -0.66485717   0.11758669    -1.663745   0.99888785   264187 
 6570000   0.92104779   -1.6656002   -1.6656002  -0.66591436   0.11292301   -1.6656002   0.99968585   264187 
 6580000   0.91897472   -1.6649221   -1.6649221  -0.66748628   0.11341379   -1.6649221   0.99743579   264187 
 6590000   0.91695423   -1.6649576   -1.6649576  -0.66971484   0.11187785   -1.6649576   0.99524279   264187 
 6600000   0.91535368   -1.6662765   -1.6662765  -0.67277091   0.12169907   -1.6662765   0.99350558   264187 
 6610000   0.91650164   -1.6655325   -1.6655325   -0.6707809   0.11594853   -1.6655325   0.99475155   264187 
 6620000   0.91698347   -1.6673598   -1.6673598  -0.67208527   0.10819089   -1.6673598   0.99527452   264187 
 6630000   0.91667204   -1.6693938   -1.6693938  -0.67445732   0.12169806   -1.6693938   0.99493651   264187 
 6640000     0.915094   -1.6707094   -1.6707094  -0.67748566   0.11580568   -1.6707094   0.99322374   264187 
 6650000   0.91495636   -1.6732666   -1.6732666  -0.68019223   0.11702422   -1.6732666   0.99307435   264187 
 6660000   0.91346869   -1.6736366   -1.6736366  -0.68217689   0.11487012   -1.6736366   0.99145966   264187 
 6670000    0.9108283   -1.6741176   -1.6741176  -0.68552381   0.11192675   -1.6741176   0.98859383   264187 
 6680000   0.91111947   -1.6736244   -1.6736244  -0.68471454   0.10856402   -1.6736244   0.98890987   264187 
 6690000   0.91359877   -1.6794549   -1.6794549  -0.68785401   0.12069148   -1.6794549   0.99160084   264187 
 6700000   0.91047189   -1.6790576   -1.6790576  -0.69085064   0.10457283   -1.6790576     0.988207   264187 
 6710000   0.90907699   -1.6786916   -1.6786916  -0.69199863   0.12131322   -1.6786916     0.986693   264187 
 6720000   0.90962428   -1.6821003   -1.6821003  -0.69481329   0.11803626   -1.6821003   0.98728702   264187 
 6730000   0.90636777   -1.6818762   -1.6818762  -0.69812373   0.11605854   -1.6818762   0.98375247   264187 
 6740000   0.90710449   -1.6834784   -1.6834784  -0.69892628    0.1163005   -1.6834784   0.98455209   264187 
 6750000   0.90586114   -1.6856195   -1.6856195  -0.70241694   0.11085277   -1.6856195   0.98320258   264187 
 6760000    0.9063555   -1.6870741   -1.6870741  -0.70333499   0.12823464   -1.6870741   0.98373915   264187 
 6770000   0.90403507   -1.6877428   -1.6877428  -0.70652223   0.11407905   -1.6877428    0.9812206   264187 
 6780000    0.9019925   -1.6870522   -1.6870522  -0.70804856   0.11366426   -1.6870522   0.97900364   264187 
 6790000   0.90038253   -1.6876912   -1.6876912  -0.71043495   0.11285641   -1.6876912   0.97725622   264187 
 6800000   0.90003474   -1.6876727   -1.6876727  -0.71079393   0.12004466   -1.6876727   0.97687873   264187 
 6810000   0.89881343    -1.690733    -1.690733  -0.71517986   0.11229381    -1.690733   0.97555314   264187 
 6820000   0.89955889   -1.6906235   -1.6906235   -0.7142613   0.11515707   -1.6906235   0.97636225   264187 
 6830000   0.89903212   -1.6918804   -1.6918804  -0.71608987   0.11147642   -1.6918804   0.97579051   264187 
 6840000   0.89739806     -1.69082     -1.69082  -0.71680309   0.11476612     -1.69082   0.97401693   264187 
 6850000   0.89737025   -1.6927951   -1.6927951  -0.71880837    0.1115375   -1.6927951   0.97398675   264187 
 6860000   0.89849368   -1.6950299   -1.6950299  -0.71982383   0.12249038   -1.6950299    0.9752061   264187 
 6870000   0.89580686   -1.6964342   -1.6964342  -0.72414429   0.10495516   -1.6964342   0.97228988   264187 
 6880000   0.89577077   -1.6983123   -1.6983123  -0.72606162   0.10920811   -1.6983123    0.9722507   264187 
 6890000   0.89301505   -1.6973054   -1.6973054  -0.72804568   0.12217892   -1.6973054   0.96925971   264187 
 6900000   0.89456773   -1.7009371   -1.7009371  -0.72999219   0.11854883   -1.7009371   0.97094496   264187 
 6910000   0.89463799    -1.704923    -1.704923  -0.73390183   0.11107843    -1.704923   0.97102121   264187 
 6920000   0.89060513   -1.7025568   -1.7025568  -0.73591281    0.1098356   -1.7025568   0.96664403   264187 
 6930000   0.88998421    -1.703592    -1.703592   -0.7376219   0.10667259    -1.703592    0.9659701   264187 
 6940000   0.88829342   -1.7042863   -1.7042863  -0.74015131   0.11594741   -1.7042863   0.96413495   264187 
 6950000   0.88865639   -1.7085788   -1.7085788  -0.74404992   0.11055908   -1.7085788   0.96452891   264187 
 6960000   0.88720902   -1.7102623   -1.7102623  -0.74730436   0.10137958   -1.7102623   0.96295796   264187 
 6970000   0.88588386    -1.710214    -1.710214  -0.74869431   0.10542429    -1.710214   0.96151966   264187 
 6980000   0.88824004    -1.710567    -1.710567  -0.74649003   0.11072936    -1.710567   0.96407702   264187 
 6990000   0.88659802   -1.7122679   -1.7122679  -0.74997313   0.11944124   -1.7122679    0.9622948   264187 
 7000000   0.88346394    -1.712778    -1.712778  -0.75388488   0.10682236    -1.712778   0.95889313   264187 
 7010000   0.88266673   -1.7145897   -1.7145897  -0.75656182   0.10997832   -1.7145897   0.95802786   264187 
 7020000   0.88108389    -1.713764    -1.713764  -0.75745412   0.10870623    -1.713764   0.95630988   264187 
 7030000   0.88235298   -1.7182078   -1.7182078  -0.76052046   0.10474057   -1.7182078   0.95768732   264187 
 7040000   0.88001729   -1.7197071   -1.7197071   -0.7645549   0.10607131   -1.7197071   0.95515221   264187 
 7050000   0.87962288   -1.7193173   -1.7193173  -0.76459314   0.12331032   -1.7193173   0.95472413   264187 
 7060000   0.87933267   -1.7214579   -1.7214579  -0.76704879   0.11432101   -1.7214579   0.95440914   264187 
 7070000   0.87802732   -1.7219955   -1.7219955   -0.7690032   0.11215352   -1.7219955   0.95299234   264187 
 7080000   0.88019378   -1.7253207   -1.7253207  -0.76997694   0.10274416   -1.7253207   0.95534377   264187 
 7090000   0.87611498   -1.7239662   -1.7239662  -0.77304952   0.10853111   -1.7239662   0.95091673   264187 
 7100000   0.87577693   -1.7256398   -1.7256398     -0.77509   0.10179669   -1.7256398   0.95054982   264187 
 7110000   0.87491043   -1.7279726   -1.7279726  -0.77836322   0.10984153   -1.7279726   0.94960934   264187 
 7120000   0.87484767   -1.7287398   -1.7287398  -0.77919855   0.11756391   -1.7287398   0.94954122   264187 
 7130000    0.8731279    -1.729931    -1.729931  -0.78225641   0.11088326    -1.729931   0.94767462   264187 
 7140000   0.87146464    -1.728392    -1.728392  -0.78252261   0.10556965    -1.728392   0.94586934   264187 
 7150000   0.87145818   -1.7314725   -1.7314725  -0.78561021   0.09592655   -1.7314725   0.94586234   264187 
 7160000   0.87280603   -1.7327968   -1.7327968  -0.78547156   0.10386712   -1.7327968   0.94732526   264187 
 7170000   0.87091008   -1.7326245   -1.7326245  -0.78735704   0.10763361   -1.7326245   0.94526743   264187 
 7180000   0.87059358   -1.7344339   -1.7344339  -0.78950995   0.10516483   -1.7344339   0.94492392   264187 
 7190000   0.87119926   -1.7370241   -1.7370241  -0.79144277   0.10716098   -1.7370241   0.94558131   264187 
 7200000   0.86782386   -1.7371339   -1.7371339  -0.79521619   0.10727737   -1.7371339   0.94191772   264187 
 7210000   0.86775637   -1.7404405   -1.7404405  -0.79859607   0.11209379   -1.7404405   0.94184447   264187 
 7220000   0.86545624   -1.7394399   -1.7394399  -0.80009191   0.10921349   -1.7394399   0.93934796   264187 
 7230000   0.86694034   -1.7410116   -1.7410116  -0.80005282   0.10651608   -1.7410116   0.94095876   264187 
 7240000   0.86412049   -1.7413601   -1.7413601  -0.80346193  0.099114337   -1.7413601   0.93789817   264187 
 7250000    0.8640667   -1.7456447   -1.7456447  -0.80780494   0.10449276   -1.7456447   0.93783978   264187 
 7260000   0.86220468   -1.7432968   -1.7432968  -0.80747803   0.10313179   -1.7432968   0.93581878   264187 
 7270000    0.8613544   -1.7469493   -1.7469493  -0.81205342   0.10046293   -1.7469493   0.93489591   264187 
 7280000   0.86053273   -1.7457316   -1.7457316  -0.81172756   0.11038409   -1.7457316   0.93400408   264187 
 7290000   0.85711043   -1.7455386   -1.7455386  -0.81524899    0.1003331   -1.7455386   0.93028959   264187 
 7300000   0.85866027   -1.7480077   -1.7480077   -0.8160359   0.10921993   -1.7480077   0.93197176   264187 
 7310000   0.85724959   -1.7489278   -1.7489278  -0.81848712   0.11162466   -1.7489278   0.93044063   264187 
 7320000   0.85662002   -1.7516514   -1.7516514  -0.82189412  0.095034193   -1.7516514   0.92975731   264187 
 7330000   0.85446385   -1.7493077   -1.7493077  -0.82189061   0.10516797   -1.7493077   0.92741705   264187 
 7340000   0.85700678   -1.7555307   -1.7555307  -0.82535363  0.098641513   -1.7555307    0.9301771   264187 
 7350000   0.85584116   -1.7557663   -1.7557663  -0.82685435  0.091609969   -1.7557663   0.92891195   264187 
 7360000   0.85365875   -1.7558133   -1.7558133  -0.82927012  0.096635447   -1.7558133   0.92654321   264187 
 7370000   0.85383693   -1.7576816   -1.7576816  -0.83094496   0.10161833   -1.7576816    0.9267366   264187 
 7380000   0.85363713   -1.7586508   -1.7586508  -0.83213102  0.098107958   -1.7586508   0.92651975   264187 
 7390000   0.84947739   -1.7588622   -1.7588622  -0.83685737   0.10179971   -1.7588622   0.92200485   264187 
 7400000   0.85223131   -1.7609946   -1.7609946  -0.83600067     0.102389   -1.7609946    0.9249939   264187 
 7410000   0.85045442   -1.7614592   -1.7614592  -0.83839392  0.094698316   -1.7614592   0.92306529   264187 
 7420000   0.84874728   -1.7601218   -1.7601218  -0.83890941   0.10138878   -1.7601218    0.9212124   264187 
 7430000   0.84503266   -1.7611559   -1.7611559  -0.84397526  0.089590515   -1.7611559   0.91718063   264187 
 7440000   0.84850296   -1.7649805   -1.7649805  -0.84403324  0.098840471   -1.7649805   0.92094723   264187 
 7450000   0.84409309   -1.7626375   -1.7626375  -0.84647669   0.09234854   -1.7626375   0.91616084   264187 
 7460000   0.84512251    -1.764822    -1.764822  -0.84754384  0.093205618    -1.764822   0.91727816   264187 
 7470000   0.84526932   -1.7658793   -1.7658793  -0.84844179   0.10606359   -1.7658793    0.9174375   264187 
 7480000   0.84458436   -1.7667793   -1.7667793  -0.85008525   0.10498081   -1.7667793   0.91669406   264187 
 7490000   0.84337461   -1.7692223   -1.7692223  -0.85384123   0.10043246   -1.7692223   0.91538102   264187 
 7500000   0.84312025   -1.7710902   -1.7710902   -0.8559853   0.10151365   -1.7710902   0.91510495   264187 
 7510000   0.84383537   -1.7716699   -1.7716699  -0.85578878    0.1056782   -1.7716699   0.91588112   264187 
 7520000   0.84164125   -1.7727698   -1.7727698  -0.85927013  0.098233605   -1.7727698   0.91349967   264187 
 7530000   0.83877912   -1.7714557   -1.7714557  -0.86106254  0.094471566   -1.7714557   0.91039317   264187 
 7540000   0.84064382   -1.7753413   -1.7753413  -0.86292424  0.092350342   -1.7753413   0.91241708   264187 
 7550000   0.84097644    -1.776001    -1.776001  -0.86322286  0.086511906    -1.776001   0.91277809   264187 
 7560000   0.83856006   -1.7778332   -1.7778332  -0.86767778  0.087586179   -1.7778332   0.91015541   264187 
 7570000    0.8375322    -1.777937    -1.777937  -0.86889725  0.096341568    -1.777937    0.9090398   264187 
 7580000   0.83828854   -1.7784124   -1.7784124  -0.86855169  0.097172498   -1.7784124   0.90986071   264187 
 7590000   0.83764961   -1.7776602   -1.7776602  -0.86849302  0.094969606   -1.7776602   0.90916722   264187 
 7600000   0.83717244   -1.7808774   -1.7808774  -0.87222811  0.091051166   -1.7808774   0.90864931   264187 
 7610000   0.83479637   -1.7822806   -1.7822806  -0.87621023   0.10166088   -1.7822806   0.90607038   264187 
 7620000   0.83562582   -1.7844012   -1.7844012  -0.87743056  0.096504603   -1.7844012   0.90697064   264187 
 7630000   0.83418928   -1.7831746   -1.7831746  -0.87776314  0.098354654   -1.7831746   0.90541146   264187 
 7640000   0.83256982   -1.7856227   -1.7856227  -0.88196893   0.10590463   -1.7856227   0.90365372   264187 
 7650000   0.83279213   -1.7884848   -1.7884848   -0.8845898  0.087213505   -1.7884848   0.90389502   264187 
 7660000   0.83119529   -1.7875286   -1.7875286  -0.88536671  0.097559181   -1.7875286   0.90216185   264187 
 7670000   0.82966676   -1.7900618   -1.7900618  -0.88955898  0.094312261   -1.7900618   0.90050281   264187 
 7680000   0.82854948   -1.7926391   -1.7926391  -0.89334892  0.096657942   -1.7926391   0.89929014   264187 
 7690000   0.82827094   -1.7931611   -1.7931611  -0.89417333  0.097917679   -1.7931611   0.89898782   264187 
 7700000   0.82577861   -1.7932535   -1.7932535  -0.89697078   0.10082567   -1.7932535   0.89628269   264187 
 7710000   0.82273034   -1.7928539   -1.7928539  -0.89987969  0.096674316   -1.7928539   0.89297417   264187 
 7720000   0.82476096   -1.7964127   -1.7964127   -0.9012346  0.096101352   -1.7964127   0.89517815   264187 
 7730000   0.82269888   -1.7984145   -1.7984145  -0.90547444   0.08941065   -1.7984145   0.89294002   264187 
 7740000   0.82376771   -1.7997932   -1.7997932  -0.90569308  0.083076426   -1.7997932    0.8941001   264187 
 7750000   0.82364018    -1.799883    -1.799883  -0.90592129  0.091908999    -1.799883   0.89396168   264187 
 7760000    0.8217308   -1.8037419   -1.8037419  -0.91185263  0.088373505   -1.8037419   0.89188928   264187 
 7770000   0.81958546   -1.8014888   -1.8014888    -0.911928  0.097211137   -1.8014888   0.88956078   264187 
 7780000   0.81964399   -1.8062951   -1.8062951  -0.91667079  0.097377968   -1.8062951    0.8896243   264187 
 7790000   0.82082728   -1.8062149   -1.8062149  -0.91530626  0.091590058   -1.8062149   0.89090862   264187 
 7800000   0.82013422   -1.8085257   -1.8085257  -0.91836925  0.089397612   -1.8085257    0.8901564   264187 
 7810000   0.81811265   -1.8079842   -1.8079842  -0.92002197  0.080582108   -1.8079842   0.88796222   264187 
 7820000   0.81752185   -1.8101816   -1.8101816  -0.92286063   0.09579721   -1.8101816   0.88732098   264187 
 7830000   0.81434303   -1.8103868   -1.8103868  -0.92651605  0.098804768   -1.8103868   0.88387076   264187 
 7840000    0.8143465   -1.8142243   -1.8142243  -0.93034973  0.090588508   -1.8142243   0.88387452   264187 
 7850000   0.81495377   -1.8149132   -1.8149132  -0.93037958  0.088654726   -1.8149132   0.88453364   264187 
 7860000   0.81268769   -1.8164977   -1.8164977  -0.93442365  0.086723298   -1.8164977   0.88207408   264187 
 7870000   0.81187871   -1.8162183   -1.8162183  -0.93502227  0.093825471   -1.8162183   0.88119604   264187 
 7880000   0.81056253   -1.8186264   -1.8186264  -0.93885896  0.087558638   -1.8186264   0.87976748   264187 
 7890000   0.80969748   -1.8190351   -1.8190351  -0.94020653  0.089958415   -1.8190351   0.87882858   264187 
 7900000   0.80867497   -1.8203421   -1.8203421  -0.94262338  0.081586212   -1.8203421   0.87771876   264187 
 7910000   0.80762256   -1.8221844   -1.8221844  -0.94560787  0.085790274   -1.8221844    0.8765765   264187 
 7920000   0.80762985   -1.8250628   -1.8250628  -0.94847838  0.095486363   -1.8250628   0.87658442   264187 
 7930000   0.80477897   -1.8237905   -1.8237905  -0.95030037  0.093564292   -1.8237905   0.87349013   264187 
 7940000     0.805469   -1.8255484   -1.8255484  -0.95130937  0.084025476   -1.8255484   0.87423907   264187 
 7950000   0.80404268   -1.8283544   -1.8283544  -0.95566347  0.095344133   -1.8283544   0.87269097   264187 
 7960000    0.8024033   -1.8303888   -1.8303888  -0.95947714  0.082905675   -1.8303888   0.87091162   264187 
 7970000   0.80227103   -1.8313712   -1.8313712   -0.9606031   0.08733172   -1.8313712   0.87076806   264187 
 7980000   0.80136747   -1.8351126   -1.8351126  -0.96532526  0.094051175   -1.8351126   0.86978735   264187 
 7990000   0.80175559   -1.8366829   -1.8366829  -0.96647428   0.09135827   -1.8366829   0.87020862   264187 
 8000000   0.80131098   -1.8371334   -1.8371334  -0.96740733  0.088721855   -1.8371334   0.86972604   264187 
 8010000   0.80073605   -1.8416876   -1.8416876  -0.97258555  0.084904301   -1.8416876   0.86910203   264187 
 8020000   0.79858974   -1.8416862   -1.8416862  -0.97491372  0.081840909   -1.8416862   0.86677246   264187 
 8030000   0.79903718   -1.8439349   -1.8439349  -0.97667677  0.083928663   -1.8439349   0.86725811   264187 
 8040000   0.79622871   -1.8424756   -1.8424756  -0.97826575  0.088942326   -1.8424756   0.86420986   264187 
 8050000   0.79716071   -1.8450611   -1.8450611   -0.9798397  0.077866602   -1.8450611   0.86522143   264187 
 8060000   0.79504156   -1.8469802   -1.8469802  -0.98405885  0.084105651   -1.8469802   0.86292134   264187 
 8070000   0.79477128   -1.8468063   -1.8468063  -0.98417834  0.083116702   -1.8468063     0.862628   264187 
 8080000    0.7935813   -1.8512855   -1.8512855  -0.98994904  0.082374031   -1.8512855   0.86133641   264187 
 8090000   0.79263234   -1.8506824   -1.8506824  -0.99037596  0.085792442   -1.8506824   0.86030643   264187 
 8100000   0.79067755   -1.8539533   -1.8539533  -0.99576856  0.082450383   -1.8539533   0.85818475   264187 
 8110000   0.79116341    -1.856722    -1.856722  -0.99800994   0.08798974    -1.856722   0.85871209   264187 
 8120000   0.79188967   -1.8607845   -1.8607845   -1.0012841  0.079031935   -1.8607845   0.85950036   264187 
 8130000   0.78990879   -1.8612732   -1.8612732   -1.0039228  0.085474635   -1.8612732   0.85735034   264187 
 8140000   0.78817818   -1.8650548   -1.8650548   -1.0095828  0.079730896   -1.8650548   0.85547198   264187 
 8150000   0.78331049   -1.8642714   -1.8642714   -1.0140827  0.083041698   -1.8642714   0.85018869   264187 
 8160000   0.78419104    -1.866827    -1.866827   -1.0156826   0.08364543    -1.866827   0.85114442   264187 
 8170000   0.78499291   -1.8703469   -1.8703469   -1.0183322  0.080245584   -1.8703469   0.85201476   264187 
 8180000   0.78298756   -1.8712581   -1.8712581   -1.0214199  0.078956888   -1.8712581   0.84983819   264187 
 8190000     0.782268   -1.8727545   -1.8727545   -1.0236973  0.088519377   -1.8727545    0.8490572   264187 
 8200000   0.78254322   -1.8752713   -1.8752713   -1.0259154  0.080979998   -1.8752713   0.84935592   264187 
 8210000   0.77881797   -1.8723554   -1.8723554   -1.0270428  0.077099904   -1.8723554    0.8453126   264187 
 8220000   0.77839071   -1.8761269   -1.8761269    -1.031278  0.078533785   -1.8761269   0.84484886   264187 
 8230000   0.77858339   -1.8756598   -1.8756598   -1.0306018  0.078078167   -1.8756598   0.84505799   264187 
 8240000   0.77881552   -1.8777836   -1.8777836   -1.0324737  0.081571379   -1.8777836   0.84530994   264187 
 8250000   0.77843865   -1.8793737   -1.8793737   -1.0344728  0.080586968   -1.8793737    0.8449009   264187 
 8260000   0.77530093    -1.879987    -1.879987   -1.0384918  0.078140375    -1.879987   0.84149528   264187 
 8270000   0.77365311   -1.8809792   -1.8809792   -1.0412724  0.082364549   -1.8809792   0.83970678   264187 
 8280000   0.77455124   -1.8829582   -1.8829582   -1.0422766  0.084166486   -1.8829582   0.84068159   264187 
 8290000   0.77427604   -1.8848775   -1.8848775   -1.0444946  0.076837589   -1.8848775   0.84038289   264187 
 8300000   0.77330329   -1.8875634   -1.8875634   -1.0482364  0.078039665   -1.8875634   0.83932708   264187 
 8310000   0.77433705   -1.8907441   -1.8907441    -1.050295  0.082761034   -1.8907441    0.8404491   264187 
 8320000   0.77235143    -1.890946    -1.890946   -1.0526521  0.088246948    -1.890946   0.83829396   264187 
 8330000   0.76992856   -1.8900805   -1.8900805   -1.0544163  0.079931687   -1.8900805   0.83566422   264187 
 8340000   0.77054056   -1.8953361   -1.8953361   -1.0590076   0.07511233   -1.8953361   0.83632848   264187 
 8350000   0.76703817   -1.8950531   -1.8950531    -1.062526  0.076533112   -1.8950531   0.83252706   264187 
 8360000   0.76903035   -1.8971543   -1.8971543    -1.062465  0.077716825   -1.8971543   0.83468932   264187 
 8370000    0.7665789   -1.9004922   -1.9004922   -1.0684636  0.078114395   -1.9004922   0.83202858   264187 
 8380000   0.76728189   -1.9033223   -1.9033223   -1.0705307   0.07113182   -1.9033223   0.83279159   264187 
 8390000   0.76521017   -1.9050646   -1.9050646   -1.0745216  0.081296036   -1.9050646   0.83054299   264187 
 8400000   0.76103416   -1.9056946   -1.9056946   -1.0796841  0.079183763   -1.9056946   0.82601043   264187 
 8410000   0.76288367   -1.9109694   -1.9109694   -1.0829516  0.079073607   -1.9109694   0.82801785   264187 
 8420000    0.7609076   -1.9111096   -1.9111096   -1.0852366  0.070403689   -1.9111096   0.82587306   264187 
 8430000   0.76065836   -1.9134923   -1.9134923   -1.0878897  0.070943379   -1.9134923   0.82560255   264187 
 8440000   0.75874832   -1.9136786   -1.9136786   -1.0901492  0.077232897   -1.9136786   0.82352943   264187 
 8450000   0.75841496   -1.9153432   -1.9153432   -1.0921756  0.070027699   -1.9153432   0.82316761   264187 
 8460000   0.75875245   -1.9181597   -1.9181597   -1.0946258  0.073890902   -1.9181597   0.82353391   264187 
 8470000   0.75918453   -1.9219144   -1.9219144   -1.0979115  0.072108109   -1.9219144   0.82400288   264187 
 8480000   0.75695785   -1.9206576   -1.9206576   -1.0990715  0.071620748   -1.9206576   0.82158609   264187 
 8490000   0.75455641   -1.9234157   -1.9234157   -1.1044361  0.076150414   -1.9234157   0.81897962   264187 
 8500000   0.75512707   -1.9268325   -1.9268325   -1.1072335  0.063022603   -1.9268325     0.819599   264187 
 8510000   0.75460747   -1.9266603   -1.9266603   -1.1076252  0.070996663   -1.9266603   0.81903504   264187 
 8520000     0.755374   -1.9279184   -1.9279184   -1.1080514  0.075855115   -1.9279184   0.81986701   264187 
 8530000   0.75374276   -1.9290448   -1.9290448   -1.1109484  0.070903975   -1.9290448    0.8180965   264187 
 8540000   0.75276126   -1.9317137   -1.9317137   -1.1146825  0.067971125   -1.9317137    0.8170312   264187 
 8550000   0.75288099   -1.9324832   -1.9324832    -1.115322  0.070547535   -1.9324832   0.81716115   264187 
 8560000     0.751729    -1.931335    -1.931335   -1.1154242  0.072005322    -1.931335   0.81591081   264187 
 8570000   0.75035516   -1.9334867   -1.9334867   -1.1190671  0.090501726   -1.9334867   0.81441967   264187 
 8580000   0.74983868   -1.9370892   -1.9370892   -1.1232302  0.073939938   -1.9370892    0.8138591   264187 
 8590000   0.74952655   -1.9409552   -1.9409552   -1.1274349    0.0606566   -1.9409552   0.81352031   264187 
 8600000   0.74742133   -1.9418626   -1.9418626   -1.1306272  0.070430826   -1.9418626   0.81123535   264187 
 8610000   0.74603368   -1.9451459   -1.9451459   -1.1354167  0.065999387   -1.9451459   0.80972923   264187 
 8620000   0.74534772   -1.9468187   -1.9468187    -1.137834  0.071532645   -1.9468187   0.80898471   264187 
 8630000   0.74701645   -1.9503222   -1.9503222   -1.1395263  0.080834427   -1.9503222   0.81079591   264187 
 8640000   0.74285551   -1.9498796   -1.9498796   -1.1435998  0.075077219   -1.9498796   0.80627971   264187 
 8650000   0.74388128   -1.9521346   -1.9521346   -1.1447416  0.066447114   -1.9521346   0.80739306   264187 
 8660000   0.74225179    -1.954636    -1.954636   -1.1490115  0.065851232    -1.954636   0.80562445   264187 
 8670000   0.74189274   -1.9566046   -1.9566046   -1.1513698  0.078079478   -1.9566046   0.80523474   264187 
 8680000   0.74192142   -1.9576206   -1.9576206   -1.1523547  0.070098797   -1.9576206   0.80526587   264187 
 8690000   0.73950436   -1.9595841   -1.9595841   -1.1569417  0.072032527   -1.9595841   0.80264244   264187 
 8700000   0.73907641   -1.9618922   -1.9618922   -1.1597143  0.073127191   -1.9618922   0.80217795   264187 
 8710000   0.73887442   -1.9660639   -1.9660639   -1.1641052  0.071505769   -1.9660639   0.80195871   264187 
 8720000   0.73827539   -1.9685083   -1.9685083   -1.1671997  0.069739101   -1.9685083   0.80130854   264187 
 8730000   0.73453601    -1.966921    -1.966921   -1.1696711   0.06997065    -1.966921    0.7972499   264187 
 8740000   0.73337451   -1.9712691   -1.9712691   -1.1752799  0.069349773   -1.9712691   0.79598923   264187 
 8750000    0.7345505   -1.9736606   -1.9736606    -1.176395  0.068722912   -1.9736606   0.79726563   264187 
 8760000   0.73473873   -1.9756743   -1.9756743   -1.1782044  0.066492202   -1.9756743   0.79746993   264187 
 8770000   0.73219317   -1.9776324   -1.9776324   -1.1829253  0.069837276   -1.9776324   0.79470703   264187 
 8780000   0.72913545    -1.980249    -1.980249   -1.1888608  0.073634729    -1.980249   0.79138825   264187 
 8790000   0.73048694   -1.9826579   -1.9826579   -1.1898028  0.066254072   -1.9826579   0.79285512   264187 
 8800000   0.72934012   -1.9857845   -1.9857845   -1.1941741  0.062767572   -1.9857845   0.79161039   264187 
 8810000   0.72867535   -1.9856483   -1.9856483   -1.1947594  0.074146992   -1.9856483   0.79088887   264187 
 8820000   0.72674612   -1.9881519   -1.9881519    -1.199357  0.069854887   -1.9881519   0.78879492   264187 
 8830000   0.72654302   -1.9923484   -1.9923484   -1.2037739  0.072050851   -1.9923484   0.78857448   264187 
 8840000   0.72640501   -1.9945157   -1.9945157    -1.206091  0.070090769   -1.9945157   0.78842468   264187 
 8850000    0.7239348   -1.9973136   -1.9973136     -1.21157  0.065123774   -1.9973136   0.78574357   264187 
 8860000   0.72538774   -1.9982141   -1.9982141   -1.2108936   0.07205451   -1.9982141   0.78732056   264187 
 8870000   0.72329017   -2.0001725   -2.0001725   -1.2151286  0.071484639   -2.0001725    0.7850439   264187 
 8880000   0.72457988   -2.0036736   -2.0036736   -1.2172299   0.06945415   -2.0036736   0.78644372   264187 
 8890000   0.72234201   -2.0025499   -2.0025499   -1.2185351  0.063191305   -2.0025499   0.78401479   264187 
 8900000   0.72126438   -2.0028226   -2.0028226   -1.2199775  0.073109383   -2.0028226   0.78284515   264187 
 8910000   0.72112355   -2.0078667   -2.0078667   -1.2251744  0.067406738   -2.0078667    0.7826923   264187 
 8920000   0.71820381   -2.0114933   -2.0114933     -1.23197  0.060661171   -2.0114933   0.77952328   264187 
 8930000   0.71659869   -2.0112176   -2.0112176   -1.2334365  0.070674412   -2.0112176   0.77778111   264187 
 8940000   0.71799215   -2.0188781   -2.0188781   -1.2395846  0.060290815   -2.0188781   0.77929354   264187 
 8950000   0.71656518   -2.0200238   -2.0200238   -1.2422791   0.06920935   -2.0200238   0.77774474   264187 
 8960000    0.7157529   -2.0214096   -2.0214096   -1.2445465  0.059472901   -2.0214096   0.77686311   264187 
 8970000   0.71540538   -2.0265584   -2.0265584   -1.2500725  0.065407514   -2.0265584   0.77648591   264187 
 8980000   0.71347846   -2.0291868   -2.0291868   -1.2547923  0.055378929   -2.0291868   0.77439448   264187 
 8990000   0.71282205   -2.0300422   -2.0300422   -1.2563602  0.062645331   -2.0300422   0.77368203   264187 
 9000000   0.71018658   -2.0304949   -2.0304949   -1.2596734  0.061501426   -2.0304949   0.77082154   264187 
 9010000   0.71164993   -2.0346216   -2.0346216   -1.2622118  0.057442802   -2.0346216   0.77240983   264187 
 9020000   0.71046913   -2.0354633   -2.0354633    -1.264335  0.062596306   -2.0354633   0.77112822   264187 
 9030000   0.70952497   -2.0380566   -2.0380566   -1.2679531  0.062941141   -2.0380566   0.77010344   264187 
 9040000   0.70688761   -2.0410743   -2.0410743   -1.2738334  0.064588904   -2.0410743   0.76724091   264187 
 9050000   0.70580905   -2.0430129   -2.0430129   -1.2769426  0.070772461   -2.0430129   0.76607027   264187 
 9060000   0.70604016   -2.0494765   -2.0494765   -1.2831554  0.057062597   -2.0494765    0.7663211   264187 
 9070000   0.70497497   -2.0513989   -2.0513989   -1.2862339  0.061512785   -2.0513989   0.76516497   264187 
 9080000    0.7043032   -2.0559425   -2.0559425   -1.2915066  0.064216276   -2.0559425   0.76443584   264187 
 9090000   0.70358203   -2.0607409   -2.0607409   -1.2970878    0.0553302   -2.0607409   0.76365311   264187 
 9100000   0.70114634   -2.0629897   -2.0629897   -1.3019803   0.05954513   -2.0629897   0.76100945   264187 
 9110000   0.69988501   -2.0635924   -2.0635924    -1.303952  0.060168309   -2.0635924   0.75964044   264187 
 9120000   0.69974297   -2.0674267   -2.0674267   -1.3079404  0.056264955   -2.0674267   0.75948626   264187 
 9130000   0.69771811   -2.0712776   -2.0712776   -1.3139891  0.062243242   -2.0712776   0.75728853   264187 
 9140000   0.69734466   -2.0732591   -2.0732591   -1.3163759  0.060023577   -2.0732591   0.75688319   264187 
 9150000    0.6965928   -2.0753077   -2.0753077   -1.3192406  0.049584358   -2.0753077   0.75606714   264187 
 9160000   0.69668484   -2.0765886   -2.0765886   -1.3204216  0.063684548   -2.0765886   0.75616704   264187 
 9170000   0.69326004    -2.077114    -2.077114   -1.3246641  0.056689819    -2.077114   0.75244983   264187 
 9180000   0.69236969   -2.0806952   -2.0806952   -1.3292117  0.060178644   -2.0806952   0.75148346   264187 
 9190000    0.6919692   -2.0837781   -2.0837781   -1.3327293  0.058640421   -2.0837781   0.75104878   264187 
 9200000    0.6906376   -2.0869869   -2.0869869   -1.3373834  0.055758153   -2.0869869   0.74960349   264187 
 9210000    0.6923416   -2.0882312   -2.0882312   -1.3367782  0.052283319   -2.0882312   0.75145297   264187 
 9220000   0.68742661   -2.0917878   -2.0917878   -1.3456695  0.054758215   -2.0917878   0.74611835   264187 
 9230000   0.69135077   -2.0991285   -2.0991285    -1.348751  0.052857359   -2.0991285   0.75037755   264187 
 9240000   0.68815361   -2.1033263   -2.1033263   -1.3564189  0.055847111   -2.1033263   0.74690742   264187 
 9250000      0.68657   -2.1024748   -2.1024748   -1.3572862  0.056435793   -2.1024748   0.74518861   264187 
 9260000   0.68740072   -2.1077003   -2.1077003   -1.3616101  0.050237299   -2.1077003   0.74609025   264187 
 9270000   0.68581692   -2.1111174   -2.1111174   -1.3667461  0.053822173   -2.1111174   0.74437122   264187 
 9280000   0.68223883   -2.1131536   -2.1131536   -1.3726659  0.059437229   -2.1131536   0.74048764   264187 
 9290000   0.68313559   -2.1174642   -2.1174642   -1.3760032  0.055398006   -2.1174642   0.74146097   264187 
 9300000   0.68118261   -2.1191823   -2.1191823   -1.3798411  0.061392866   -2.1191823   0.73934124   264187 
 9310000   0.68037047     -2.12238     -2.12238   -1.3839202  0.054455896     -2.12238   0.73845977   264187 
 9320000   0.68000073    -2.126425    -2.126425   -1.3883666  0.042581611    -2.126425   0.73805845   264187 
 9330000   0.67885189   -2.1280593   -2.1280593   -1.3912478  0.049728327   -2.1280593   0.73681153   264187 
 9340000   0.67788136   -2.1298656   -2.1298656   -1.3941075  0.052885089   -2.1298656   0.73575813   264187 
 9350000   0.67729658   -2.1355542   -2.1355542   -1.4004308  0.051583571   -2.1355542   0.73512343   264187 
 9360000   0.67628009   -2.1379602   -2.1379602     -1.40394  0.051845272   -2.1379602   0.73402015   264187 
 9370000   0.67410938   -2.1423587   -2.1423587   -1.4106946  0.054106746   -2.1423587   0.73166411   264187 
 9380000   0.67444253   -2.1462989   -2.1462989   -1.4142732  0.051085602   -2.1462989    0.7320257   264187 
 9390000   0.67277852   -2.1492761   -2.1492761   -1.4190565  0.057849373   -2.1492761   0.73021962   264187 
 9400000   0.67188432   -2.1530662   -2.1530662   -1.4238172  0.055783077   -2.1530662   0.72924908   264187 
 9410000   0.67181192   -2.1579846   -2.1579846   -1.4288141  0.060894269   -2.1579846   0.72917049   264187 
 9420000   0.67069225   -2.1612776   -2.1612776   -1.4333224  0.050930274   -2.1612776   0.72795523   264187 
 9430000   0.66866687   -2.1614205   -2.1614205   -1.4356636  0.052373074   -2.1614205   0.72575693   264187 
 9440000   0.66936578    -2.166669    -2.166669   -1.4401535  0.051900511    -2.166669    0.7265155   264187 
 9450000   0.66499093   -2.1668292   -2.1668292   -1.4450621  0.054423822   -2.1668292   0.72176713   264187 
 9460000   0.66648783   -2.1714429   -2.1714429    -1.448051  0.047399647   -2.1714429   0.72339184   264187 
 9470000    0.6642394   -2.1767358   -2.1767358   -1.4557844  0.039415307   -2.1767358   0.72095144   264187 
 9480000   0.66307682   -2.1807063   -2.1807063   -1.4610167   0.04934549   -2.1807063    0.7196896   264187 
 9490000   0.66376911   -2.1851543   -2.1851543   -1.4647133  0.052625653   -2.1851543     0.720441   264187 
 9500000   0.66210058   -2.1882876   -2.1882876   -1.4696576  0.049043963   -2.1882876   0.71863001   264187 
 9510000   0.66054213   -2.1944321   -2.1944321   -1.4774936  0.055175142   -2.1944321    0.7169385   264187 
 9520000   0.66170325   -2.1964955   -2.1964955   -1.4782968  0.048059335   -2.1964955   0.71819875   264187 
 9530000   0.66049507   -2.1990775   -2.1990775   -1.4821901  0.059344298   -2.1990775   0.71688742   264187 
 9540000   0.65845755   -2.2044618   -2.2044618   -1.4897858   0.04960076   -2.2044618   0.71467595   264187 
 9550000   0.65618885    -2.208129    -2.208129   -1.4959155  0.039595308    -2.208129   0.71221355   264187 
 9560000   0.65685678   -2.2128087   -2.2128087   -1.4998702  0.047641787   -2.2128087    0.7129385   264187 
 9570000   0.65575573   -2.2170781   -2.2170781   -1.5053346  0.045622319   -2.2170781   0.71174345   264187 
 9580000   0.65452944   -2.2199684   -2.2199684    -1.509556  0.042853218   -2.2199684   0.71041246   264187 
 9590000   0.65292024   -2.2258138   -2.2258138   -1.5171479  0.043005252   -2.2258138   0.70866586   264187 
 9600000   0.65487468   -2.2296761   -2.2296761   -1.5188889   0.04805463   -2.2296761   0.71078717   264187 
 9610000   0.65190034   -2.2325135   -2.2325135   -1.5249546  0.044604689   -2.2325135   0.70755889   264187 
 9620000   0.64885324   -2.2326289   -2.2326289   -1.5283773  0.043515716   -2.2326289   0.70425162   264187 
 9630000    0.6500244   -2.2367767   -2.2367767    -1.531254  0.036395289   -2.2367767   0.70552277   264187 
 9640000    0.6492047   -2.2392648   -2.2392648   -1.5346317  0.045921071   -2.2392648    0.7046331   264187 
 9650000   0.64846571   -2.2441036   -2.2441036   -1.5402726  0.043949291   -2.2441036   0.70383101   264187 
 9660000   0.64721191   -2.2467125   -2.2467125   -1.5442423  0.050881146   -2.2467125   0.70247017   264187 
 9670000   0.64643967   -2.2510869   -2.2510869   -1.5494549  0.049047608   -2.2510869   0.70163199   264187 
 9680000    0.6480872   -2.2586628   -2.2586628   -1.5552426  0.049108056   -2.2586628   0.70342019   264187 
 9690000   0.64540018   -2.2587198   -2.2587198    -1.558216  0.050739707   -2.2587198   0.70050374   264187 
 9700000   0.64421463   -2.2625196   -2.2625196   -1.5633026  0.047528925   -2.2625196   0.69921698   264187 
 9710000   0.64221984   -2.2687125   -2.2687125   -1.5716607  0.039138005   -2.2687125   0.69705188   264187 
 9720000   0.64270238   -2.2750449   -2.2750449   -1.5774693  0.045386483   -2.2750449   0.69757562   264187 
 9730000   0.64117678   -2.2743299   -2.2743299   -1.5784101   0.04710653   -2.2743299   0.69591976   264187 
 9740000   0.64010058   -2.2799399   -2.2799399   -1.5851882  0.052433203   -2.2799399   0.69475167   264187 
 9750000    0.6399513    -2.285817    -2.285817   -1.5912274  0.045950744    -2.285817   0.69458965   264187 
 9760000   0.63723279   -2.2885729   -2.2885729   -1.5969339  0.050450445   -2.2885729   0.69163904   264187 
 9770000   0.63808676   -2.2950303   -2.2950303   -1.6024644   0.04276116   -2.2950303   0.69256592   264187 
 9780000   0.63600499    -2.299752    -2.299752   -1.6094456   0.04067832    -2.299752   0.69030641   264187 
 9790000   0.63691593   -2.3047769   -2.3047769   -1.6134818   0.04241647   -2.3047769   0.69129512   264187 
 9800000   0.63475071   -2.3077504   -2.3077504   -1.6188054  0.036472683   -2.3077504   0.68894503   264187 
 9810000   0.63391919   -2.3143077   -2.3143077   -1.6262651  0.041737337   -2.3143077   0.68804253   264187 
 9820000   0.63127097   -2.3154403   -2.3154403   -1.6302721  0.036918002   -2.3154403   0.68516821   264187 
 9830000   0.63103096   -2.3198232   -2.3198232   -1.6349155  0.043346539   -2.3198232    0.6849077   264187 
 9840000   0.63217684   -2.3248002   -2.3248002   -1.6386488  0.042690471   -2.3248002   0.68615141   264187 
 9850000   0.63150885    -2.330211    -2.330211   -1.6447846   0.04286917    -2.330211   0.68542639   264187 
 9860000   0.62810942   -2.3320793   -2.3320793   -1.6503426  0.033314498   -2.3320793   0.68173672   264187 
 9870000   0.62720541   -2.3376376   -2.3376376    -1.656882  0.041514192   -2.3376376   0.68075553   264187 
 9880000   0.62782129   -2.3437681   -2.3437681   -1.6623441  0.048337659   -2.3437681   0.68142399   264187 
 9890000   0.62706926   -2.3494424   -2.3494424   -1.6688346  0.033474833   -2.3494424   0.68060776   264187 
 9900000   0.62666602   -2.3503317   -2.3503317   -1.6701616  0.033860525   -2.3503317   0.68017008   264187 
 9910000   0.62486216   -2.3531649   -2.3531649   -1.6749527  0.040491448   -2.3531649   0.67821221   264187 
 9920000   0.62441725   -2.3612019   -2.3612019   -1.6834726  0.047594302   -2.3612019   0.67772932   264187 
 9930000   0.62498898   -2.3670987   -2.3670987   -1.6887488  0.041573298   -2.3670987   0.67834986   264187 
 9940000   0.62289074    -2.368534    -2.368534   -1.6924615  0.035003873    -2.368534   0.67607247   264187 
 9950000   0.62124367   -2.3710514   -2.3710514   -1.6967667    0.0422898   -2.3710514   0.67428478   264187 
 9960000    0.6204498   -2.3768525   -2.3768525   -1.7034293  0.030229241   -2.3768525   0.67342313   264187 
 9970000   0.61885485   -2.3802538   -2.3802538   -1.7085618  0.045787132   -2.3802538   0.67169201   264187 
 9980000   0.61619358   -2.3857218   -2.3857218   -1.7169183  0.039457268   -2.3857218   0.66880352   264187 
 9990000   0.61702026   -2.3910119   -2.3910119   -1.7213111  0.023735823   -2.3910119   0.66970078   264187 
10000000   0.61558205   -2.3936739   -2.3936739   -1.7255341  0.041847511   -2.3936739   0.66813978   264187 
Loop time of 12385.5 on 336 procs for 5000000 steps with 264187 atoms

Performance: 174397.000 tau/day, 403.697 timesteps/s
80.2% CPU use with 336 MPI tasks x 1 OpenMP threads

MPI task timing breakdown:
Section |  min time  |  avg time  |  max time  |%varavg|  %CPU | %total
-----------------------------------------------------------------------
Pair    | 93.161     | 929.65     | 2985.6     |2454.4 |  85.9 |  7.51
Bond    | 3.121      | 3.3034     | 3.5356     |   4.2 | 100.0 |  0.03
Neigh   | 238.98     | 1425.8     | 4421.8     |2686.6 |  96.4 | 11.51
Comm    | 1592.2     | 5523.6     | 9233.9     |2646.0 |  78.8 | 44.60
Output  | 458.21     | 540.25     | 630.55     | 159.5 |  74.0 |  4.36
Modify  | 1416.5     | 3847.8     | 9223.7     |3931.5 |  77.9 | 31.07
Other   |            | 115.1      |            |       |       |  0.93

Nlocal:        786.271 ave        2024 max         100 min
Histogram: 26 18 30 148 81 20 6 5 1 1
Nghost:        4712.40 ave        9162 max         835 min
Histogram: 59 26 34 29 30 37 31 25 40 25
Neighs:        18883.4 ave       63699 max         267 min
Histogram: 106 28 44 41 40 47 16 8 4 2
FullNghs:      37766.8 ave      130138 max         537 min
Histogram: 104 42 36 41 44 42 12 10 2 3

Total # of neighbors = 12689654
Ave neighs/atom = 48.032848
Ave special neighs/atom = 0.0000000
Neighbor list builds = 499694
Dangerous builds = 489467
Total wall time: 6:45:56
