LAMMPS (24 Dec 2020)
OMP_NUM_THREADS environment is not set. Defaulting to 1 thread. (src/comm.cpp:94)
  using 1 OpenMP thread(s) per MPI task
#Read the equilibrated lj fluid and add nanocubes

units           lj
atom_style      full
atom_modify     map array first cubes
dimension       3
boundary        p p f
pair_style      lj/cut/opt 2.5

variable        sigma           equal 1.0
variable        epsilon         equal 1.0
read_restart	restart.dat.3000000
Reading restart file ...
  restart file = 24 Dec 2020, LAMMPS = 24 Dec 2020
WARNING: Restart file used different # of processors: 48 vs. 240 (src/read_restart.cpp:697)
  restoring atom style full from restart
  orthogonal box = (0.0000000 0.0000000 0.0000000) to (80.000000 80.000000 160.00000)
  5 by 4 by 12 MPI processor grid
  restoring pair style lj/cut/opt from restart
  518400 atoms
Finding 1-2 1-3 1-4 neighbors ...
  special bond factors lj:    0        0        0       
  special bond factors coul:  0        0        0       
     0 = max # of 1-2 neighbors
     0 = max # of 1-3 neighbors
     0 = max # of 1-4 neighbors
     1 = max # of special neighbors
  special bonds CPU = 1.958 seconds
  read_restart CPU = 2.283 seconds

group		solvent type 1
518400 atoms in group solvent

read_data	data_96.cubes group cubes add append
Reading data file ...
  orthogonal box = (0.0000000 0.0000000 0.0000000) to (80.000000 80.000000 160.00000)
  5 by 4 by 12 MPI processor grid
  reading atoms ...
  109728 atoms
  reading velocities ...
  109728 velocities
Finding 1-2 1-3 1-4 neighbors ...
  special bond factors lj:    0        0        0       
  special bond factors coul:  0        0        0       
     0 = max # of 1-2 neighbors
     0 = max # of 1-3 neighbors
     0 = max # of 1-4 neighbors
     1 = max # of special neighbors
  special bonds CPU = 0.031 seconds
  read_data CPU = 0.274 seconds

group 		hull  type 2
42816 atoms in group hull
group 		dummy type 3
66912 atoms in group dummy

neighbor      0.4 bin
neigh_modify  exclude molecule/intra cubes


pair_modify   shift yes

pair_coeff    1 1 1.0 1.0 #solvent
pair_coeff    2 2 1.0 1.0 1.12 #np
pair_coeff    3 3 0.0 0.0 0.0 #dummy
pair_coeff    2 3 0.0 0.0 0.0 #np dummy
pair_coeff    1 2 ${sol} 1.0 #np solvent
pair_coeff    1 2 1.0 1.0 
pair_coeff    1 3 0.0 0.0 2.5 #dummy solvent

# delete solvent where the cubes are
delete_atoms  overlap 1.0 solvent cubes
System init for delete_atoms ...
Neighbor list info ...
  update every 1 steps, delay 10 steps, check yes
  max neighbors/atom: 2000, page size: 100000
  master list distance cutoff = 2.9
  ghost atom cutoff = 2.9
  binsize = 1.45, bins = 56 56 111
  2 neighbor lists, perpetual/occasional/extra = 1 1 0
  (1) command delete_atoms, occasional
      attributes: full, newton on
      pair build: full/bin
      stencil: full/bin/3d
      bin: standard
  (2) pair lj/cut/opt, perpetual
      attributes: half, newton on
      pair build: half/bin/newton
      stencil: half/bin/3d/newton
      bin: standard
WARNING: Delete_atoms cutoff > minimum neighbor cutoff (src/delete_atoms.cpp:307)
WARNING: Ignoring 'compress yes' for molecular system (src/delete_atoms.cpp:125)
Deleted 69788 atoms, new total = 558340



pair_coeff    1 1 1.0 1.0 #solvent
pair_coeff    2 2 1.0 1.0 1.12 #np
pair_coeff    3 3 0.0 0.0 0.0 #dummy
pair_coeff    2 3 0.0 0.0 0.0 #np dummy
pair_coeff    1 2 ${sol} 1.0 #np solvent
pair_coeff    1 2 1.0 1.0 
pair_coeff    1 3 0.0 0.0 0.0 #dummy solvent


comm_modify   mode multi cutoff/multi 1 2.5 cutoff/multi 2 2.5 cutoff/multi 3 6.95

reset_timestep 	0

balance 	1.05 shift z 10 1.05
Balancing ...
Neighbor list info ...
  update every 1 steps, delay 10 steps, check yes
  max neighbors/atom: 2000, page size: 100000
  master list distance cutoff = 2.9
  ghost atom cutoff = 6.95
  binsize = 1.45, bins = 56 56 111
  1 neighbor lists, perpetual/occasional/extra = 1 0 0
  (1) pair lj/cut/opt, perpetual
      attributes: half, newton on
      pair build: half/bin/newton
      stencil: half/bin/3d/newton
      bin: standard
 rebalancing time: 0.005 seconds
  iteration count = 4
  initial/final maximal load/proc = 3038.0000 3379.0000
  initial/final imbalance factor  = 1.3058710 1.4524483
  x cuts: 0.0000000 0.20000000 0.40000000 0.60000000 0.80000000 1.0000000
  y cuts: 0.0000000 0.25000000 0.50000000 0.75000000 1.0000000
  z cuts: 0.0000000 0.078125000 0.16145833 0.25520833 0.33854167 0.41145833 0.48437500 0.55729167 0.63020833 0.70312500 0.77604167 0.85937500 1.0000000

####################### WALLS ###########################

variable       epsilonWall equal 2*${epsilon}
variable       epsilonWall equal 2*1
variable       repulsive   equal   0.7147*${sigma}
variable       repulsive   equal   0.7147*1
variable       full	   equal   3*${sigma}
variable       full	   equal   3*1
region         lowWall block EDGE EDGE EDGE EDGE EDGE 2

fix            topWall all wall/lj93 zhi EDGE 	       ${epsilonWall} ${sigma} ${repulsive} units box
fix            topWall all wall/lj93 zhi EDGE 	       2 ${sigma} ${repulsive} units box
fix            topWall all wall/lj93 zhi EDGE 	       2 1 ${repulsive} units box
fix            topWall all wall/lj93 zhi EDGE 	       2 1 0.7147 units box
fix            lowSol solvent wall/lj93 zlo EDGE                ${epsilonWall} ${sigma} ${full} units box
fix            lowSol solvent wall/lj93 zlo EDGE                2 ${sigma} ${full} units box
fix            lowSol solvent wall/lj93 zlo EDGE                2 1 ${full} units box
fix            lowSol solvent wall/lj93 zlo EDGE                2 1 3 units box
fix 	       lowCub cubes wall/lj93 zlo EDGE                ${epsilonWall} ${sigma} ${repulsive} units box
fix 	       lowCub cubes wall/lj93 zlo EDGE                2 ${sigma} ${repulsive} units box
fix 	       lowCub cubes wall/lj93 zlo EDGE                2 1 ${repulsive} units box
fix 	       lowCub cubes wall/lj93 zlo EDGE                2 1 0.7147 units box


###################### COMPUTES ##########################

compute        bin1 solvent chunk/atom bin/1d z lower 1.0 units box


######################  FIXES ############################


fix             peclet solvent ave/chunk 10 10 10000 bin1 density/number norm                  none ave one file density.profile

fix              temp solvent ave/chunk 10 10 10000 bin1 temp norm                  none ave one file temp.profile

fix             1 cubes rigid/nve/small molecule
  create bodies CPU = 0.002 seconds
  96 rigid bodies with 109728 atoms
  6.9282032 = max distance from body owner to body atom

fix             2 solvent nve# temp ${temp} ${temp} 10


## Thermostat
region          regthermo block EDGE EDGE EDGE EDGE 0 15
group           thermo dynamic solvent region regthermo every 1000
dynamic group thermo defined
fix             3 thermo langevin ${temp} ${temp} 10 156453
fix             3 thermo langevin 1.0 ${temp} 10 156453
fix             3 thermo langevin 1.0 1.0 10 156453


#### Load balancing

fix             bal all balance 1000 1.05 shift z 10 1.05

############### Diagnostics and computes ###################

compute        	com cubes          rigid/local   1 mol x y z
compute        	quat cubes         rigid/local   1 mol quatw quati quatj quatk

compute 	cc2 cubes 	   chunk/atom 	 molecule
compute 	msd cubes 	   msd/chunk 	 cc2

fix 		msd all ave/time  1 1 10000 c_msd[*] file dump.msd ave one mode vector

dump            1 all custom 500000 dump.lammpstrj id mol type x y z
dump		cubetrj hull custom 500000 cubes.lammpstrj id mol type x y z
dump            com cubes local 10000 dump.*.xyz c_com[*]
dump	        xyz hull xyz 100000 cubes.xyz
dump            quat cubes      local 10000 dump.*.quat c_quat[*]
#dump		mol cubes molfile 10000 mol.xyz xyz


dump            2 all image 10000 image.*.png type type
dump_modify     2 pad 8
dump		image cubes image 10000 image_cubes.*.png type type
dump_modify	image pad 8
dump            3 all movie 5000 movie.avi type type
dump		4 cubes movie 5000 movie_cubes.avi type type


thermo          1000
thermo_style    custom step temp epair evdwl etotal press pe ke atoms

restart         1000000 restart.dat
timestep        0.005
timer           full
New timer settings: style=full  mode=nosync  timeout=off

run 		4000000
Per MPI rank memory allocation (min/avg/max) = 15.01 | 19.68 | 23.21 Mbytes
Step Temp E_pair E_vdwl TotEng Press PotEng KinEng Atoms 
       0   0.99169629   -2.7238916   -2.7238916   -1.5281786  -0.10981648   -2.7238916     1.195713   558340 
    1000    1.0085226   -2.7457322   -2.7457322   -1.5297313  0.056469406   -2.7457322     1.216001   558340 
    2000    1.0117769   -2.7511059   -2.7511059   -1.5311813  0.055981364   -2.7511059    1.2199247   558340 
    3000    1.0109505   -2.7524172   -2.7524172    -1.533489  0.058431314   -2.7524172    1.2189283   558340 
    4000    1.0111874   -2.7543151   -2.7543151   -1.5351011   0.05874266   -2.7543151     1.219214   558340 
    5000     1.012286   -2.7571796   -2.7571796   -1.5366411  0.061623076   -2.7571796    1.2205385   558340 
    6000    1.0115466   -2.7571032   -2.7571032   -1.5374561  0.066026557   -2.7571032     1.219647   558340 
    7000    1.0107782   -2.7575747   -2.7575747   -1.5388541  0.073138984   -2.7575747    1.2187206   558340 
    8000    1.0107837   -2.7595396   -2.7595396   -1.5408124  0.065248582   -2.7595396    1.2187272   558340 
    9000    1.0072906   -2.7572719   -2.7572719   -1.5427564  0.057860236   -2.7572719    1.2145155   558340 
   10000    1.0078669   -2.7576275   -2.7576275   -1.5424171  0.057284765   -2.7576275    1.2152103   558340 
   11000    1.0094877   -2.7604485   -2.7604485   -1.5432839  0.052754058   -2.7604485    1.2171646   558340 
   12000    1.0060324   -2.7563824   -2.7563824   -1.5433839  0.062224621   -2.7563824    1.2129985   558340 
   13000     1.006533   -2.7579288   -2.7579288   -1.5443268  0.053101574   -2.7579288     1.213602   558340 
   14000    1.0055003   -2.7581791   -2.7581791   -1.5458222  0.049548652   -2.7581791    1.2123569   558340 
   15000     1.006778   -2.7598421   -2.7598421   -1.5459447  0.053412063   -2.7598421    1.2138974   558340 
   16000    1.0055668   -2.7589205   -2.7589205   -1.5464834  0.062325553   -2.7589205    1.2124371   558340 
   17000    1.0054815   -2.7590068   -2.7590068   -1.5466726  0.062400619   -2.7590068    1.2123341   558340 
   18000    1.0060888   -2.7600475   -2.7600475   -1.5469811   0.06045303   -2.7600475    1.2130664   558340 
   19000    1.0076929   -2.7632891   -2.7632891   -1.5482886  0.055636153   -2.7632891    1.2150005   558340 
   20000    1.0052802    -2.761108    -2.761108   -1.5490165   0.06064598    -2.761108    1.2120915   558340 
   21000    1.0081565   -2.7655874   -2.7655874   -1.5500278  0.062205747   -2.7655874    1.2155595   558340 
   22000    1.0064085   -2.7636966   -2.7636966   -1.5502447  0.055557259   -2.7636966    1.2134519   558340 
   23000    1.0066838   -2.7645611   -2.7645611   -1.5507773  0.053176707   -2.7645611    1.2137838   558340 
   24000    1.0069654   -2.7654073   -2.7654073   -1.5512839  0.065905656   -2.7654073    1.2141234   558340 
   25000    1.0067501   -2.7651115   -2.7651115   -1.5512477  0.063672649   -2.7651115    1.2138638   558340 
   26000    1.0050955   -2.7634169   -2.7634169   -1.5515481  0.051186601   -2.7634169    1.2118688   558340 
   27000    1.0076451    -2.766067    -2.766067   -1.5511242  0.059051599    -2.766067    1.2149428   558340 
   28000    1.0060243   -2.7645457   -2.7645457   -1.5515571  0.063235378   -2.7645457    1.2129886   558340 
   29000     1.007755   -2.7664493   -2.7664493   -1.5513739  0.055242717   -2.7664493    1.2150754   558340 
   30000    1.0072843   -2.7664106   -2.7664106   -1.5519027  0.059166255   -2.7664106    1.2145079   558340 
   31000    1.0059092   -2.7658859   -2.7658859    -1.553036   0.05912493   -2.7658859    1.2128499   558340 
   32000    1.0056892   -2.7653274   -2.7653274   -1.5527427  0.049858236   -2.7653274    1.2125846   558340 
   33000    1.0064792   -2.7660456   -2.7660456   -1.5525084  0.066699708   -2.7660456    1.2135372   558340 
   34000     1.005957   -2.7658737   -2.7658737   -1.5529662  0.055272511   -2.7658737    1.2129075   558340 
   35000    1.0061479   -2.7655841   -2.7655841   -1.5524464  0.045278969   -2.7655841    1.2131377   558340 
   36000    1.0053273   -2.7647079   -2.7647079   -1.5525596   0.06216527   -2.7647079    1.2121483   558340 
   37000    1.0069306   -2.7675045   -2.7675045   -1.5534231  0.055771752   -2.7675045    1.2140814   558340 
   38000    1.0069807    -2.767377    -2.767377   -1.5532352  0.056031095    -2.767377    1.2141418   558340 
   39000    1.0055841   -2.7660704   -2.7660704   -1.5536125  0.064651761   -2.7660704    1.2124579   558340 
   40000    1.0071123   -2.7689292   -2.7689292   -1.5546287   0.06578255   -2.7689292    1.2143005   558340 
   41000    1.0089635   -2.7711873   -2.7711873   -1.5546548   0.06364753   -2.7711873    1.2165325   558340 
   42000    1.0091169   -2.7709842   -2.7709842   -1.5542667   0.06031215   -2.7709842    1.2167175   558340 
   43000     1.007746   -2.7703079   -2.7703079   -1.5552433  0.050171521   -2.7703079    1.2150645   558340 
   44000    1.0060466   -2.7688949   -2.7688949   -1.5558794  0.061402727   -2.7688949    1.2130155   558340 
   45000    1.0064494   -2.7692792   -2.7692792    -1.555778  0.057935932   -2.7692792    1.2135012   558340 
   46000    1.0051086   -2.7674919   -2.7674919   -1.5556074  0.060527594   -2.7674919    1.2118845   558340 
   47000    1.0071502      -2.7707      -2.7707   -1.5563538  0.056062079      -2.7707    1.2143462   558340 
   48000    1.0068641   -2.7710473   -2.7710473   -1.5570461  0.058093213   -2.7710473    1.2140012   558340 
   49000    1.0046777   -2.7679559   -2.7679559   -1.5565909  0.062079195   -2.7679559     1.211365   558340 
   50000    1.0057942   -2.7693996   -2.7693996   -1.5566884  0.066564699   -2.7693996    1.2127113   558340 
   51000    1.0048884   -2.7684808   -2.7684808   -1.5568617  0.062289273   -2.7684808    1.2116191   558340 
   52000    1.0059715   -2.7706737   -2.7706737   -1.5577487   0.05427096   -2.7706737     1.212925   558340 
   53000    1.0057496    -2.770202    -2.770202   -1.5575446  0.060792153    -2.770202    1.2126574   558340 
   54000    1.0042264   -2.7688413   -2.7688413   -1.5580205  0.053685955   -2.7688413    1.2108208   558340 
   55000    1.0059475   -2.7709042   -2.7709042   -1.5580082  0.062439529   -2.7709042     1.212896   558340 
   56000    1.0055031   -2.7695931   -2.7695931   -1.5572328  0.065349108   -2.7695931    1.2123603   558340 
   57000     1.004186   -2.7683872   -2.7683872   -1.5576151  0.055858361   -2.7683872    1.2107721   558340 
   58000    1.0061387   -2.7706014   -2.7706014   -1.5574748  0.053964463   -2.7706014    1.2131266   558340 
   59000    1.0037127   -2.7670202   -2.7670202   -1.5568187  0.060540465   -2.7670202    1.2102014   558340 
   60000    1.0045364   -2.7684827   -2.7684827   -1.5572881  0.062494554   -2.7684827    1.2111946   558340 
   61000    1.0057679   -2.7697562   -2.7697562   -1.5570767  0.046534294   -2.7697562    1.2126795   558340 
   62000    1.0069777   -2.7714738   -2.7714738   -1.5573355  0.064727799   -2.7714738    1.2141382   558340 
   63000     1.006599   -2.7718629   -2.7718629   -1.5581814  0.059538776   -2.7718629    1.2136816   558340 
   64000    1.0066541   -2.7714475   -2.7714475   -1.5576995  0.058525822   -2.7714475    1.2137481   558340 
   65000    1.0061577   -2.7713236   -2.7713236   -1.5581741  0.056087936   -2.7713236    1.2131495   558340 
   66000    1.0052851   -2.7712637   -2.7712637   -1.5591663  0.058299356   -2.7712637    1.2120974   558340 
   67000    1.0066657   -2.7725172   -2.7725172   -1.5587552  0.058006719   -2.7725172     1.213762   558340 
   68000    1.0050937   -2.7701755   -2.7701755   -1.5583089  0.052432044   -2.7701755    1.2118666   558340 
   69000    1.0040458   -2.7688613   -2.7688613   -1.5582583  0.056544359   -2.7688613    1.2106031   558340 
   70000    1.0074035   -2.7731279   -2.7731279   -1.5584763  0.059576138   -2.7731279    1.2146515   558340 
   71000    1.0048358   -2.7692925   -2.7692925   -1.5577369  0.055245657   -2.7692925    1.2115556   558340 
   72000    1.0069712   -2.7713783   -2.7713783   -1.5572479   0.06072057   -2.7713783    1.2141304   558340 
   73000    1.0063655   -2.7712879   -2.7712879   -1.5578879  0.051668259   -2.7712879       1.2134   558340 
   74000    1.0051992   -2.7697997   -2.7697997   -1.5578059   0.05411044   -2.7697997    1.2119938   558340 
   75000    1.0053558   -2.7704684   -2.7704684   -1.5582858  0.060893178   -2.7704684    1.2121827   558340 
   76000     1.005534   -2.7710257   -2.7710257   -1.5586282   0.06268519   -2.7710257    1.2123975   558340 
   77000    1.0063698   -2.7720068   -2.7720068   -1.5586017  0.055790561   -2.7720068    1.2134052   558340 
   78000    1.0057639   -2.7717806   -2.7717806   -1.5591059  0.065486461   -2.7717806    1.2126747   558340 
   79000    1.0055985   -2.7722183   -2.7722183    -1.559743  0.069020823   -2.7722183    1.2124753   558340 
   80000    1.0054532   -2.7716274   -2.7716274   -1.5593273  0.066915915   -2.7716274    1.2123001   558340 
   81000    1.0051728   -2.7708673   -2.7708673   -1.5589054  0.060188148   -2.7708673    1.2119619   558340 
   82000    1.0041957   -2.7704287   -2.7704287   -1.5596449  0.061940814   -2.7704287    1.2107838   558340 
   83000    1.0044859   -2.7705985   -2.7705985   -1.5594648  0.060274562   -2.7705985    1.2111338   558340 
   84000    1.0059071   -2.7725145   -2.7725145   -1.5596672  0.060492255   -2.7725145    1.2128473   558340 
   85000    1.0046241   -2.7711028   -2.7711028   -1.5598025  0.060060407   -2.7711028    1.2113003   558340 
   86000     1.005513   -2.7720889   -2.7720889   -1.5597168  0.055793901   -2.7720889    1.2123721   558340 
   87000    1.0065639   -2.7734452   -2.7734452    -1.559806  0.067444179   -2.7734452    1.2136392   558340 
   88000    1.0034174   -2.7690505   -2.7690505   -1.5592051  0.056439628   -2.7690505    1.2098455   558340 
   89000    1.0046046   -2.7699093   -2.7699093   -1.5586325  0.055568829   -2.7699093    1.2112768   558340 
   90000    1.0066406   -2.7726527   -2.7726527    -1.558921  0.059141628   -2.7726527    1.2137317   558340 
   91000    1.0052719   -2.7714133   -2.7714133   -1.5593318  0.060320851   -2.7714133    1.2120815   558340 
   92000    1.0061163   -2.7721614   -2.7721614   -1.5590617   0.05079457   -2.7721614    1.2130996   558340 
   93000    1.0059509   -2.7718005   -2.7718005   -1.5589004  0.055812123   -2.7718005    1.2129001   558340 
   94000    1.0056629   -2.7716224   -2.7716224   -1.5590695  0.064759955   -2.7716224    1.2125529   558340 
   95000    1.0047082   -2.7700198   -2.7700198    -1.558618  0.071753798   -2.7700198    1.2114018   558340 
   96000    1.0059602   -2.7706964   -2.7706964    -1.557785   0.06379509   -2.7706964    1.2129114   558340 
   97000    1.0041074   -2.7685244   -2.7685244   -1.5578471  0.053054549   -2.7685244    1.2106774   558340 
   98000    1.0050559    -2.769615    -2.769615    -1.557794   0.05791009    -2.769615     1.211821   558340 
   99000     1.004462     -2.76979     -2.76979   -1.5586851  0.060547459     -2.76979    1.2111049   558340 
  100000    1.0047209   -2.7704995   -2.7704995   -1.5590824  0.055554649   -2.7704995    1.2114171   558340 
  101000    1.0057951   -2.7726296   -2.7726296   -1.5599173  0.058327041   -2.7726296    1.2127123   558340 
  102000     1.004571   -2.7711568   -2.7711568   -1.5599204  0.055645985   -2.7711568    1.2112364   558340 
  103000    1.0060061    -2.774377    -2.774377   -1.5614103  0.051465172    -2.774377    1.2129667   558340 
  104000    1.0059433   -2.7748047   -2.7748047   -1.5619137  0.060204148   -2.7748047     1.212891   558340 
  105000    1.0051213   -2.7734621   -2.7734621   -1.5615622  0.058480951   -2.7734621    1.2118999   558340 
  106000    1.0051208   -2.7747156   -2.7747156   -1.5628163  0.058068495   -2.7747156    1.2118993   558340 
  107000    1.0064274   -2.7759084   -2.7759084   -1.5624337  0.066875269   -2.7759084    1.2134747   558340 
  108000     1.004356   -2.7749096   -2.7749096   -1.5639324  0.057124732   -2.7749096    1.2109772   558340 
  109000    1.0046828   -2.7744368   -2.7744368   -1.5630656  0.058738126   -2.7744368    1.2113712   558340 
  110000    1.0053509   -2.7760384   -2.7760384   -1.5638617  0.065474778   -2.7760384    1.2121767   558340 
  111000    1.0056805    -2.777245    -2.777245   -1.5646708   0.05948782    -2.777245    1.2125742   558340 
  112000    1.0045874    -2.775439    -2.775439   -1.5641828  0.060977939    -2.775439    1.2112562   558340 
  113000    1.0054996   -2.7752911   -2.7752911   -1.5629351  0.058278256   -2.7752911     1.212356   558340 
  114000    1.0046166   -2.7743301   -2.7743301   -1.5630387  0.062292572   -2.7743301    1.2112913   558340 
  115000    1.0047425   -2.7741856   -2.7741856   -1.5627424  0.062848482   -2.7741856    1.2114432   558340 
  116000    1.0044404    -2.774238    -2.774238    -1.563159  0.059029288    -2.774238    1.2110789   558340 
  117000    1.0046266   -2.7749211   -2.7749211   -1.5636177  0.069006147   -2.7749211    1.2113034   558340 
  118000    1.0055926    -2.775261    -2.775261   -1.5627928  0.058448321    -2.775261    1.2124681   558340 
  119000    1.0049415   -2.7748893   -2.7748893   -1.5632062  0.058295771   -2.7748893    1.2116831   558340 
  120000     1.004139   -2.7745744   -2.7745744   -1.5638589  0.066962784   -2.7745744    1.2107155   558340 
  121000    1.0042263   -2.7754164   -2.7754164   -1.5645956  0.057944111   -2.7754164    1.2108208   558340 
  122000    1.0038856   -2.7741254   -2.7741254   -1.5637154   0.05979285   -2.7741254      1.21041   558340 
  123000    1.0052369   -2.7768047   -2.7768047   -1.5647654   0.06036156   -2.7768047    1.2120393   558340 
  124000    1.0045602   -2.7762608   -2.7762608   -1.5650375  0.057290773   -2.7762608    1.2112233   558340 
  125000    1.0055229   -2.7769492   -2.7769492    -1.564565  0.055613198   -2.7769492    1.2123842   558340 
  126000    1.0059316   -2.7772222   -2.7772222   -1.5643453  0.064085692   -2.7772222    1.2128769   558340 
  127000    1.0048428   -2.7770166   -2.7770166   -1.5654525  0.059112252   -2.7770166    1.2115641   558340 
  128000    1.0043932   -2.7775775   -2.7775775   -1.5665555  0.062773735   -2.7775775     1.211022   558340 
  129000    1.0048065   -2.7777716   -2.7777716   -1.5662513  0.063936584   -2.7777716    1.2115203   558340 
  130000    1.0054718   -2.7790168   -2.7790168   -1.5666944  0.050467689   -2.7790168    1.2123225   558340 
  131000    1.0060468   -2.7792256   -2.7792256   -1.5662098   0.05578297   -2.7792256    1.2130158   558340 
  132000     1.005706   -2.7786723   -2.7786723   -1.5660674  0.058640153   -2.7786723    1.2126049   558340 
  133000    1.0068273   -2.7798712   -2.7798712   -1.5659143   0.05831082   -2.7798712    1.2139569   558340 
  134000    1.0058936   -2.7783711   -2.7783711   -1.5655401  0.060065887   -2.7783711     1.212831   558340 
  135000    1.0066222   -2.7788803   -2.7788803   -1.5651707  0.064709636   -2.7788803    1.2137096   558340 
  136000    1.0040304   -2.7761805   -2.7761805    -1.565596  0.058448569   -2.7761805    1.2105845   558340 
  137000    1.0045681   -2.7767171   -2.7767171   -1.5654842  0.058948736   -2.7767171    1.2112329   558340 
  138000    1.0053312   -2.7781953   -2.7781953   -1.5660423  0.059665028   -2.7781953    1.2121529   558340 
  139000    1.0054074   -2.7778897   -2.7778897   -1.5656449  0.048492814   -2.7778897    1.2122448   558340 
  140000    1.0058119    -2.777689    -2.777689   -1.5649564  0.054694637    -2.777689    1.2127326   558340 
  141000     1.004319   -2.7758048   -2.7758048   -1.5648723  0.056472479   -2.7758048    1.2109325   558340 
  142000    1.0043801   -2.7766247   -2.7766247   -1.5656185  0.065410242   -2.7766247    1.2110062   558340 
  143000    1.0053393   -2.7783336   -2.7783336   -1.5661709  0.058617041   -2.7783336    1.2121627   558340 
  144000    1.0040279    -2.776239    -2.776239   -1.5656574  0.064524047    -2.776239    1.2105816   558340 
  145000    1.0054698    -2.777181    -2.777181   -1.5648609  0.060647533    -2.777181    1.2123201   558340 
  146000    1.0045218   -2.7767969   -2.7767969   -1.5656198  0.062517663   -2.7767969    1.2111771   558340 
  147000    1.0049873   -2.7777778   -2.7777778   -1.5660395  0.062990283   -2.7777778    1.2117383   558340 
  148000    1.0054914   -2.7787466   -2.7787466   -1.5664005  0.058587654   -2.7787466    1.2123461   558340 
  149000     1.004925   -2.7777001   -2.7777001   -1.5660368   0.06177692   -2.7777001    1.2116632   558340 
  150000    1.0050915   -2.7786682   -2.7786682   -1.5668043  0.056019432   -2.7786682    1.2118639   558340 
  151000    1.0042076   -2.7784163   -2.7784163   -1.5676181  0.061382879   -2.7784163    1.2107982   558340 
  152000    1.0053776   -2.7797556   -2.7797556   -1.5675467  0.056744319   -2.7797556     1.212209   558340 
  153000     1.003031   -2.7776669   -2.7776669   -1.5682873  0.067344118   -2.7776669    1.2093796   558340 
  154000    1.0023228   -2.7774009   -2.7774009   -1.5688752  0.060251565   -2.7774009    1.2085256   558340 
  155000    1.0045912   -2.7795408   -2.7795408     -1.56828  0.056879071   -2.7795408    1.2112607   558340 
  156000    1.0044049   -2.7793945   -2.7793945   -1.5683584  0.064668419   -2.7793945    1.2110361   558340 
  157000    1.0018754   -2.7770726   -2.7770726   -1.5690864  0.055590573   -2.7770726    1.2079862   558340 
  158000    1.0025613   -2.7776383   -2.7776383   -1.5688251  0.053020569   -2.7776383    1.2088132   558340 
  159000    1.0018781   -2.7768764   -2.7768764   -1.5688869  0.058327671   -2.7768764    1.2079895   558340 
  160000     1.003258   -2.7779232   -2.7779232   -1.5682699  0.050441543   -2.7779232    1.2096533   558340 
  161000    1.0038391   -2.7785303   -2.7785303   -1.5681765  0.060582011   -2.7785303    1.2103539   558340 
  162000    1.0056696   -2.7807677   -2.7807677   -1.5682067   0.05729245   -2.7807677     1.212561   558340 
  163000    1.0033612   -2.7779768   -2.7779768   -1.5681991  0.066145012   -2.7779768    1.2097777   558340 
  164000    1.0053388   -2.7814127   -2.7814127   -1.5692505   0.06119135   -2.7814127    1.2121622   558340 
  165000    1.0071878   -2.7839197   -2.7839197   -1.5695282  0.061239236   -2.7839197    1.2143916   558340 
  166000    1.0057904   -2.7815649   -2.7815649   -1.5688583  0.067364277   -2.7815649    1.2127066   558340 
  167000     1.005798   -2.7819286   -2.7819286   -1.5692128  0.066487089   -2.7819286    1.2127158   558340 
  168000    1.0050044   -2.7810864   -2.7810864   -1.5693275  0.066178496   -2.7810864    1.2117589   558340 
  169000    1.0041369   -2.7813196   -2.7813196   -1.5706067  0.062155184   -2.7813196     1.210713   558340 
  170000    1.0027325   -2.7793643   -2.7793643   -1.5703446  0.060905251   -2.7793643    1.2090197   558340 
  171000    1.0051667    -2.781689    -2.781689   -1.5697344  0.050692427    -2.781689    1.2119546   558340 
  172000    1.0026723   -2.7788166   -2.7788166   -1.5698695  0.048789069   -2.7788166    1.2089471   558340 
  173000    1.0018848    -2.776835    -2.776835   -1.5688375  0.058492237    -2.776835    1.2079975   558340 
  174000    1.0035405   -2.7781228   -2.7781228   -1.5681289  0.058611282   -2.7781228    1.2099938   558340 
  175000     1.004318    -2.780199    -2.780199   -1.5692677  0.060254136    -2.780199    1.2109313   558340 
  176000    1.0038772   -2.7799822   -2.7799822   -1.5695824  0.066475468   -2.7799822    1.2103998   558340 
  177000    1.0062306   -2.7819565   -2.7819565   -1.5687191  0.055319491   -2.7819565    1.2132374   558340 
  178000    1.0057203   -2.7815714   -2.7815714   -1.5689493  0.057297798   -2.7815714    1.2126221   558340 
  179000     1.005562   -2.7818716   -2.7818716   -1.5694404  0.061231495   -2.7818716    1.2124312   558340 
  180000    1.0070084   -2.7837551   -2.7837551   -1.5695799  0.064949323   -2.7837551    1.2141752   558340 
  181000      1.00504    -2.782249    -2.782249   -1.5704471  0.050010779    -2.782249    1.2118019   558340 
  182000    1.0054857   -2.7830557   -2.7830557   -1.5707165  0.059143584   -2.7830557    1.2123392   558340 
  183000    1.0048579   -2.7829901   -2.7829901   -1.5714078  0.060877065   -2.7829901    1.2115823   558340 
  184000    1.0051246   -2.7837781   -2.7837781   -1.5718743  0.050168161   -2.7837781    1.2119038   558340 
  185000    1.0037475   -2.7825256   -2.7825256   -1.5722822  0.065899894   -2.7825256    1.2102435   558340 
  186000    1.0030711   -2.7823177   -2.7823177   -1.5728899  0.057387521   -2.7823177    1.2094279   558340 
  187000    1.0047208   -2.7838101   -2.7838101   -1.5723932  0.052509509   -2.7838101    1.2114169   558340 
  188000    1.0045775   -2.7837525   -2.7837525   -1.5725084  0.054845818   -2.7837525    1.2112442   558340 
  189000    1.0025159   -2.7812149   -2.7812149   -1.5724564  0.063957189   -2.7812149    1.2087585   558340 
  190000    1.0046924   -2.7843276   -2.7843276   -1.5729449  0.058356577   -2.7843276    1.2113827   558340 
  191000    1.0042371   -2.7831071   -2.7831071   -1.5722733  0.055297162   -2.7831071    1.2108338   558340 
  192000    1.0055056   -2.7851377   -2.7851377   -1.5727744  0.051323744   -2.7851377    1.2123633   558340 
  193000    1.0034739   -2.7840094   -2.7840094   -1.5740958  0.057074129   -2.7840094    1.2099136   558340 
  194000    1.0046958   -2.7853469   -2.7853469     -1.57396  0.057846143   -2.7853469    1.2113868   558340 
  195000    1.0038296   -2.7841456   -2.7841456   -1.5738032  0.063312041   -2.7841456    1.2103424   558340 
  196000    1.0048354   -2.7850594   -2.7850594   -1.5735042  0.058014255   -2.7850594    1.2115552   558340 
  197000     1.003951   -2.7843056   -2.7843056   -1.5738168  0.064476581   -2.7843056    1.2104889   558340 
  198000    1.0038166   -2.7836457   -2.7836457    -1.573319  0.058190664   -2.7836457    1.2103267   558340 
  199000    1.0044725   -2.7841851   -2.7841851   -1.5730675  0.053325417   -2.7841851    1.2111176   558340 
  200000    1.0023997   -2.7817142   -2.7817142   -1.5730958  0.067888062   -2.7817142    1.2086184   558340 
  201000    1.0029469   -2.7832122   -2.7832122    -1.573934  0.056014053   -2.7832122    1.2092782   558340 
  202000    1.0025309   -2.7829977   -2.7829977   -1.5742211  0.061850814   -2.7829977    1.2087766   558340 
  203000    1.0028148   -2.7825583   -2.7825583   -1.5734394  0.061283906   -2.7825583    1.2091189   558340 
  204000    1.0036361   -2.7831222   -2.7831222   -1.5730131  0.057145677   -2.7831222    1.2101091   558340 
  205000    1.0042174    -2.783758    -2.783758    -1.572948  0.063677919    -2.783758      1.21081   558340 
  206000    1.0022665   -2.7811049   -2.7811049   -1.5726471  0.061183678   -2.7811049    1.2084578   558340 
  207000    1.0034031   -2.7819592   -2.7819592   -1.5721311  0.056177987   -2.7819592    1.2098282   558340 
  208000    1.0048634   -2.7832214   -2.7832214   -1.5716325  0.057274488   -2.7832214     1.211589   558340 
  209000    1.0043359   -2.7835693   -2.7835693   -1.5726163  0.057624636   -2.7835693    1.2109529   558340 
  210000    1.0041645   -2.7835726   -2.7835726   -1.5728264  0.053872555   -2.7835726    1.2107463   558340 
  211000    1.0042789   -2.7839229   -2.7839229   -1.5730388  0.046793526   -2.7839229    1.2108842   558340 
  212000     1.004201   -2.7845939   -2.7845939   -1.5738037   0.06148584   -2.7845939    1.2107903   558340 
  213000    1.0076723   -2.7887295   -2.7887295   -1.5737538  0.057108268   -2.7887295    1.2149757   558340 
  214000     1.006656   -2.7866699   -2.7866699   -1.5729196  0.069508044   -2.7866699    1.2137503   558340 
  215000    1.0051859   -2.7860737   -2.7860737   -1.5740959  0.064125292   -2.7860737    1.2119777   558340 
  216000    1.0041796   -2.7865333   -2.7865333   -1.5757688  0.061872494   -2.7865333    1.2107645   558340 
  217000    1.0042351   -2.7859603   -2.7859603   -1.5751289  0.066259869   -2.7859603    1.2108314   558340 
  218000    1.0038793   -2.7858798   -2.7858798   -1.5754774  0.064111806   -2.7858798    1.2104024   558340 
  219000    1.0042446   -2.7865398   -2.7865398   -1.5756969  0.066200834   -2.7865398    1.2108428   558340 
  220000    1.0046617   -2.7859965   -2.7859965   -1.5746508  0.051171209   -2.7859965    1.2113457   558340 
  221000    1.0047952   -2.7865581   -2.7865581   -1.5750514  0.048333883   -2.7865581    1.2115067   558340 
  222000    1.0038681   -2.7862334   -2.7862334   -1.5758445  0.060371445   -2.7862334    1.2103888   558340 
  223000    1.0029648   -2.7854214   -2.7854214   -1.5761217   0.05770371   -2.7854214    1.2092997   558340 
  224000    1.0042474   -2.7862328   -2.7862328   -1.5753866  0.064211795   -2.7862328    1.2108462   558340 
  225000    1.0041084     -2.78644     -2.78644   -1.5757614  0.065545483     -2.78644    1.2106786   558340 
  226000    1.0050338   -2.7877123   -2.7877123    -1.575918  0.061376088   -2.7877123    1.2117943   558340 
  227000    1.0034368   -2.7859183   -2.7859183   -1.5760495  0.053958241   -2.7859183    1.2098688   558340 
  228000     1.003499   -2.7867619   -2.7867619   -1.5768181  0.059373273   -2.7867619    1.2099438   558340 
  229000    1.0041556   -2.7871215   -2.7871215   -1.5763859   0.05634189   -2.7871215    1.2107355   558340 
  230000    1.0034823    -2.786222    -2.786222   -1.5762983  0.064371021    -2.786222    1.2099237   558340 
  231000    1.0036487   -2.7860816   -2.7860816   -1.5759573  0.059232532   -2.7860816    1.2101243   558340 
  232000    1.0038339   -2.7869152   -2.7869152   -1.5765676   0.06090549   -2.7869152    1.2103476   558340 
  233000     1.002321   -2.7845304   -2.7845304   -1.5760069  0.062687245   -2.7845304    1.2085235   558340 
  234000    1.0020633   -2.7838621   -2.7838621   -1.5756493   0.05296194   -2.7838621    1.2082128   558340 
  235000    1.0023158   -2.7851858   -2.7851858   -1.5766685  0.052719203   -2.7851858    1.2085173   558340 
  236000    1.0034279   -2.7863033   -2.7863033   -1.5764451  0.058453584   -2.7863033    1.2098582   558340 
  237000    1.0043892   -2.7872053   -2.7872053   -1.5761881  0.064541928   -2.7872053    1.2110172   558340 
  238000    1.0032969   -2.7861111   -2.7861111   -1.5764109  0.067801529   -2.7861111    1.2097002   558340 
  239000    1.0021775   -2.7850703   -2.7850703   -1.5767199  0.057438617   -2.7850703    1.2083505   558340 
  240000    1.0028424   -2.7857542   -2.7857542    -1.576602  0.062293488   -2.7857542    1.2091522   558340 
  241000     1.000846   -2.7828931   -2.7828931   -1.5761481  0.064123244   -2.7828931     1.206745   558340 
  242000    1.0045614   -2.7865732   -2.7865732   -1.5753484  0.057264408   -2.7865732    1.2112248   558340 
  243000    1.0042091    -2.785759    -2.785759   -1.5749591  0.065677315    -2.785759       1.2108   558340 
  244000    1.0037146   -2.7853281   -2.7853281   -1.5751243  0.074301122   -2.7853281    1.2102038   558340 
  245000    1.0032944   -2.7846103   -2.7846103   -1.5749131  0.055782492   -2.7846103    1.2096972   558340 
  246000    1.0043497   -2.7866578   -2.7866578   -1.5756883  0.072397593   -2.7866578    1.2109695   558340 
  247000    1.0050481   -2.7875581   -2.7875581   -1.5757465  0.062468948   -2.7875581    1.2118116   558340 
  248000    1.0037672   -2.7867371   -2.7867371   -1.5764698  0.061932952   -2.7867371    1.2102673   558340 
  249000    1.0040701    -2.787377    -2.787377   -1.5767446  0.062929625    -2.787377    1.2106324   558340 
  250000    1.0029321   -2.7861384   -2.7861384   -1.5768781   0.06625809   -2.7861384    1.2092603   558340 
  251000    1.0021949   -2.7859708   -2.7859708   -1.5775993  0.062833019   -2.7859708    1.2083715   558340 
  252000    1.0032419   -2.7875553   -2.7875553   -1.5779215  0.046454548   -2.7875553    1.2096339   558340 
  253000      1.00313   -2.7868325   -2.7868325   -1.5773336  0.054432918   -2.7868325     1.209499   558340 
  254000    1.0033297   -2.7879521   -2.7879521   -1.5782123  0.059609227   -2.7879521    1.2097398   558340 
  255000    1.0029782   -2.7869792   -2.7869792   -1.5776634  0.073238206   -2.7869792    1.2093158   558340 
  256000    1.0034743   -2.7872058   -2.7872058   -1.5772918  0.050625506   -2.7872058    1.2099141   558340 
  257000    1.0012691   -2.7855156   -2.7855156   -1.5782603  0.060132572   -2.7855156    1.2072552   558340 
  258000     1.002848   -2.7867289   -2.7867289     -1.57757  0.057346955   -2.7867289    1.2091589   558340 
  259000    1.0026781   -2.7858766   -2.7858766   -1.5769225  0.054746813   -2.7858766    1.2089541   558340 
  260000    1.0032995   -2.7869068   -2.7869068   -1.5772035   0.05617713   -2.7869068    1.2097033   558340 
  261000    1.0024966   -2.7854751   -2.7854751   -1.5767399  0.059213531   -2.7854751    1.2087353   558340 
  262000    1.0035821    -2.786757    -2.786757    -1.576713  0.053238044    -2.786757    1.2100441   558340 
  263000     1.005989   -2.7891286   -2.7891286   -1.5761824  0.057369407   -2.7891286    1.2129462   558340 
  264000    1.0047367   -2.7882829   -2.7882829   -1.5768467    0.0560435   -2.7882829    1.2114362   558340 
  265000    1.0061867   -2.7896109   -2.7896109   -1.5764264  0.059913268   -2.7896109    1.2131844   558340 
  266000    1.0040706   -2.7862706   -2.7862706   -1.5756376  0.061202593   -2.7862706    1.2106331   558340 
  267000    1.0032193   -2.7860555   -2.7860555   -1.5764489  0.056436793   -2.7860555    1.2096066   558340 
  268000    1.0055672   -2.7888207   -2.7888207   -1.5763833  0.059939631   -2.7888207    1.2124375   558340 
  269000    1.0035541   -2.7865887   -2.7865887   -1.5765784  0.061633392   -2.7865887    1.2100103   558340 
  270000    1.0040157   -2.7872665   -2.7872665   -1.5766997  0.063300659   -2.7872665    1.2105668   558340 
  271000    1.0030068   -2.7864526   -2.7864526   -1.5771023  0.056999459   -2.7864526    1.2093504   558340 
  272000    1.0029925   -2.7860171   -2.7860171   -1.5766839  0.063257657   -2.7860171    1.2093331   558340 
  273000    1.0035102   -2.7877271   -2.7877271   -1.5777697  0.051638231   -2.7877271    1.2099574   558340 
  274000    1.0019195   -2.7862869   -2.7862869   -1.5782475   0.05135238   -2.7862869    1.2080394   558340 
  275000    1.0041224   -2.7879262   -2.7879262   -1.5772307   0.05012453   -2.7879262    1.2106955   558340 
  276000    1.0036221   -2.7869558   -2.7869558   -1.5768635  0.065768207   -2.7869558    1.2100922   558340 
  277000    1.0046708   -2.7884888   -2.7884888   -1.5771321  0.059196189   -2.7884888    1.2113567   558340 
  278000    1.0040313   -2.7878006   -2.7878006    -1.577215  0.058587114   -2.7878006    1.2105857   558340 
  279000    1.0014135   -2.7851184   -2.7851184   -1.5776891  0.057803026   -2.7851184    1.2074293   558340 
  280000    1.0017226   -2.7857751   -2.7857751   -1.5779731  0.056417082   -2.7857751     1.207802   558340 
  281000    1.0032931   -2.7869129   -2.7869129   -1.5772174  0.055782524   -2.7869129    1.2096956   558340 
  282000    1.0032709   -2.7875969   -2.7875969   -1.5779281  0.053787123   -2.7875969    1.2096688   558340 
  283000     1.003339   -2.7881084   -2.7881084   -1.5783575  0.068558759   -2.7881084    1.2097509   558340 
  284000    1.0042277   -2.7889643   -2.7889643   -1.5781418  0.054548424   -2.7889643    1.2108224   558340 
  285000    1.0048351   -2.7893164   -2.7893164   -1.5777616  0.060467353   -2.7893164    1.2115548   558340 
  286000    1.0054739   -2.7904676   -2.7904676   -1.5781427  0.064026496   -2.7904676     1.212325   558340 
  287000    1.0062306   -2.7923229   -2.7923229   -1.5790855  0.063436275   -2.7923229    1.2132374   558340 
  288000     1.007801   -2.7941495   -2.7941495   -1.5790186  0.057773402   -2.7941495    1.2151308   558340 
  289000    1.0064539   -2.7919153   -2.7919153   -1.5784086  0.066540418   -2.7919153    1.2135067   558340 
  290000    1.0038159   -2.7898442   -2.7898442   -1.5795182  0.055831321   -2.7898442     1.210326   558340 
  291000    1.0038071   -2.7902024   -2.7902024   -1.5798871  0.062491876   -2.7902024    1.2103153   558340 
  292000    1.0046596   -2.7909331   -2.7909331   -1.5795899  0.051003666   -2.7909331    1.2113432   558340 
  293000    1.0037206   -2.7911272   -2.7911272   -1.5809162  0.052887207   -2.7911272     1.210211   558340 
  294000    1.0026081   -2.7904657   -2.7904657   -1.5815961  0.061265022   -2.7904657    1.2088696   558340 
  295000    1.0008463   -2.7890233   -2.7890233   -1.5822779  0.051382995   -2.7890233    1.2067454   558340 
  296000    1.0032358    -2.790175    -2.790175   -1.5805485  0.056059019    -2.790175    1.2096265   558340 
  297000    1.0025254   -2.7899514   -2.7899514   -1.5811814  0.056113502   -2.7899514      1.20877   558340 
  298000    1.0010711   -2.7883827   -2.7883827   -1.5813662  0.056624315   -2.7883827    1.2070165   558340 
  299000    1.0033237   -2.7905037   -2.7905037   -1.5807713   0.04496245   -2.7905037    1.2097324   558340 
  300000    1.0039418   -2.7916523   -2.7916523   -1.5811746  0.063507489   -2.7916523    1.2104777   558340 
  301000    1.0048733   -2.7935849   -2.7935849    -1.581984  0.054533082   -2.7935849    1.2116009   558340 
  302000    1.0042429   -2.7908475   -2.7908475   -1.5800067   0.06780055   -2.7908475    1.2108408   558340 
  303000    1.0044163   -2.7911599   -2.7911599   -1.5801101  0.064304717   -2.7911599    1.2110498   558340 
  304000    1.0046726   -2.7923568   -2.7923568    -1.580998  0.052477983   -2.7923568    1.2113588   558340 
  305000    1.0060429   -2.7936136   -2.7936136   -1.5806025  0.064374609   -2.7936136    1.2130111   558340 
  306000    1.0050007   -2.7928057   -2.7928057   -1.5810511  0.058293156   -2.7928057    1.2117545   558340 
  307000    1.0029056   -2.7911752   -2.7911752   -1.5819468  0.064240413   -2.7911752    1.2092284   558340 
  308000    1.0028078   -2.7907758   -2.7907758   -1.5816654  0.051550182   -2.7907758    1.2091104   558340 
  309000     1.004011    -2.791851    -2.791851   -1.5812898  0.055903825    -2.791851    1.2105612   558340 
  310000    1.0034542   -2.7911849   -2.7911849    -1.581295  0.064034912   -2.7911849    1.2098899   558340 
  311000    1.0031614   -2.7920112   -2.7920112   -1.5824744  0.049654753   -2.7920112    1.2095367   558340 
  312000    1.0028921   -2.7927816   -2.7927816   -1.5835695  0.059843417   -2.7927816     1.209212   558340 
  313000    1.0007453   -2.7906789   -2.7906789   -1.5840553  0.061345284   -2.7906789    1.2066236   558340 
  314000    1.0007931   -2.7910394   -2.7910394   -1.5843581  0.059322935   -2.7910394    1.2066813   558340 
  315000    1.0022176   -2.7915717   -2.7915717   -1.5831728  0.072636074   -2.7915717    1.2083989   558340 
  316000    1.0045622   -2.7942992   -2.7942992   -1.5830734  0.069750618   -2.7942992    1.2112258   558340 
  317000    1.0030823    -2.793298    -2.793298   -1.5838566  0.066311281    -2.793298    1.2094414   558340 
  318000    1.0049767   -2.7962422   -2.7962422   -1.5845167  0.073348211   -2.7962422    1.2117255   558340 
  319000    1.0068245   -2.7976894   -2.7976894   -1.5837359  0.062326423   -2.7976894    1.2139535   558340 
  320000     1.002737   -2.7932869   -2.7932869   -1.5842618  0.064287083   -2.7932869    1.2090251   558340 
  321000    1.0026029   -2.7935548   -2.7935548   -1.5846914  0.055965121   -2.7935548    1.2088634   558340 
  322000    1.0010851    -2.791349    -2.791349   -1.5843156  0.059580641    -2.791349    1.2070334   558340 
  323000    1.0027674   -2.7927326   -2.7927326   -1.5836708  0.058752563   -2.7927326    1.2090618   558340 
  324000    1.0032203   -2.7937369   -2.7937369   -1.5841292  0.057177031   -2.7937369    1.2096077   558340 
  325000    1.0018566   -2.7918004   -2.7918004   -1.5838368  0.056006184   -2.7918004    1.2079636   558340 
  326000    1.0017149   -2.7914964   -2.7914964   -1.5837038  0.065017076   -2.7914964    1.2077927   558340 
  327000     1.003032   -2.7928388   -2.7928388   -1.5834581  0.056703548   -2.7928388    1.2093808   558340 
  328000    1.0038429   -2.7929712   -2.7929712   -1.5826128  0.059942397   -2.7929712    1.2103585   558340 
  329000    1.0044426   -2.7941113   -2.7941113   -1.5830297  0.057825273   -2.7941113    1.2110816   558340 
  330000    1.0012502   -2.7899192   -2.7899192   -1.5826868   0.06050519   -2.7899192    1.2072324   558340 
  331000    1.0019542   -2.7901973   -2.7901973    -1.582116  0.061101086   -2.7901973    1.2080812   558340 
  332000    1.0026881   -2.7913353   -2.7913353   -1.5823692  0.066601491   -2.7913353    1.2089661   558340 
  333000    1.0038281   -2.7927166   -2.7927166   -1.5823759  0.067899345   -2.7927166    1.2103407   558340 
  334000    1.0046454   -2.7933218   -2.7933218   -1.5819957   0.06171145   -2.7933218     1.211326   558340 
  335000    1.0057085    -2.794901    -2.794901   -1.5822931    0.0600436    -2.794901    1.2126079   558340 
  336000    1.0039437   -2.7925904   -2.7925904   -1.5821104  0.064410108   -2.7925904      1.21048   558340 
  337000    1.0021837   -2.7908892   -2.7908892   -1.5825313  0.063827992   -2.7908892    1.2083579   558340 
  338000    1.0011915   -2.7899994   -2.7899994   -1.5828377  0.058163577   -2.7899994    1.2071617   558340 
  339000    1.0031168   -2.7925331   -2.7925331   -1.5830501  0.074448434   -2.7925331     1.209483   558340 
  340000    1.0034441   -2.7923361   -2.7923361   -1.5824585  0.065303582   -2.7923361    1.2098777   558340 
  341000    1.0041801   -2.7935559   -2.7935559   -1.5827909  0.064340218   -2.7935559    1.2107651   558340 
  342000    1.0029298    -2.791713    -2.791713   -1.5824555  0.061648966    -2.791713    1.2092575   558340 
  343000    1.0033701   -2.7918679   -2.7918679   -1.5820794   0.06083723   -2.7918679    1.2097884   558340 
  344000    1.0021422   -2.7911982   -2.7911982   -1.5828904  0.055843601   -2.7911982    1.2083079   558340 
  345000    1.0020013   -2.7904969   -2.7904969   -1.5823589  0.058851564   -2.7904969     1.208138   558340 
  346000    1.0027429   -2.7915801   -2.7915801   -1.5825479  0.061884995   -2.7915801    1.2090322   558340 
  347000    1.0029239    -2.792427    -2.792427   -1.5831766  0.063539854    -2.792427    1.2092504   558340 
  348000     1.002649   -2.7919812   -2.7919812   -1.5830622  0.056553935   -2.7919812     1.208919   558340 
  349000    1.0027166   -2.7930407   -2.7930407   -1.5840402  0.055936544   -2.7930407    1.2090005   558340 
  350000    1.0034709   -2.7937703   -2.7937703   -1.5838603  0.068492153   -2.7937703      1.20991   558340 
  351000    1.0053666   -2.7953424   -2.7953424   -1.5831468   0.05708944   -2.7953424    1.2121956   558340 
  352000    1.0030239   -2.7935982   -2.7935982   -1.5842271  0.071727552   -2.7935982     1.209371   558340 
  353000    1.0041891   -2.7951248   -2.7951248   -1.5843488  0.069205742   -2.7951248    1.2107759   558340 
  354000    1.0030538   -2.7931597   -2.7931597   -1.5837526  0.071049236   -2.7931597    1.2094071   558340 
  355000    1.0029403    -2.794243    -2.794243   -1.5849728  0.061652067    -2.794243    1.2092703   558340 
  356000    1.0023799   -2.7941261   -2.7941261   -1.5855316  0.060776349   -2.7941261    1.2085945   558340 
  357000    1.0014344   -2.7930823   -2.7930823   -1.5856277  0.057411682   -2.7930823    1.2074545   558340 
  358000    1.0007645   -2.7934874   -2.7934874   -1.5868406  0.058959039   -2.7934874    1.2066468   558340 
  359000    1.0023386   -2.7948502   -2.7948502   -1.5863055  0.052158135   -2.7948502    1.2085447   558340 
  360000    1.0025661   -2.7944745   -2.7944745   -1.5856555  0.067708411   -2.7944745     1.208819   558340 
  361000    1.0041285   -2.7967604   -2.7967604   -1.5860575  0.059942954   -2.7967604    1.2107028   558340 
  362000    1.0022533   -2.7948761   -2.7948761   -1.5864342  0.055984715   -2.7948761    1.2084419   558340 
  363000    1.0025135   -2.7938809   -2.7938809   -1.5851254   0.05486124   -2.7938809    1.2087556   558340 
  364000    1.0036403   -2.7951635   -2.7951635   -1.5850492  0.068494355   -2.7951635    1.2101142   558340 
  365000    1.0024437   -2.7940436   -2.7940436   -1.5853721  0.062088887   -2.7940436    1.2086715   558340 
  366000    1.0023458   -2.7944291   -2.7944291   -1.5858757  0.071786448   -2.7944291    1.2085534   558340 
  367000    1.0030686   -2.7943789   -2.7943789   -1.5849539  0.065648848   -2.7943789     1.209425   558340 
  368000    1.0034864    -2.794522    -2.794522   -1.5845934  0.064792299    -2.794522    1.2099286   558340 
  369000    1.0030688   -2.7940551   -2.7940551     -1.58463  0.064402579   -2.7940551    1.2094251   558340 
  370000    1.0037703   -2.7951461   -2.7951461   -1.5848751  0.069293943   -2.7951461     1.210271   558340 
  371000    1.0036214   -2.7953639   -2.7953639   -1.5852725  0.063716694   -2.7953639    1.2100914   558340 
  372000    1.0023136   -2.7943554   -2.7943554   -1.5858408  0.069888315   -2.7943554    1.2085146   558340 
  373000    1.0024024   -2.7939009   -2.7939009   -1.5852793   0.06328362   -2.7939009    1.2086216   558340 
  374000    1.0037523   -2.7952503   -2.7952503    -1.585001  0.058265878   -2.7952503    1.2102493   558340 
  375000    1.0026608   -2.7944418   -2.7944418   -1.5855086  0.055255916   -2.7944418    1.2089332   558340 
  376000    1.0047466   -2.7969662   -2.7969662   -1.5855181  0.056346821   -2.7969662    1.2114481   558340 
  377000    1.0053403   -2.7969175   -2.7969175   -1.5847536  0.066772755   -2.7969175    1.2121639   558340 
  378000    1.0034584   -2.7941074   -2.7941074   -1.5842125  0.058002251   -2.7941074    1.2098949   558340 
  379000    1.0031171   -2.7941526   -2.7941526   -1.5846692  0.058457636   -2.7941526    1.2094834   558340 
  380000    1.0028398   -2.7937809   -2.7937809   -1.5846319  0.061289786   -2.7937809     1.209149   558340 
  381000     1.002633   -2.7932609   -2.7932609   -1.5843612  0.056610288   -2.7932609    1.2088997   558340 
  382000    1.0039714   -2.7941837   -2.7941837   -1.5836703  0.052685067   -2.7941837    1.2105134   558340 
  383000    1.0003061   -2.7904216   -2.7904216   -1.5843276  0.061634659   -2.7904216     1.206094   558340 
  384000     1.000201   -2.7903329   -2.7903329   -1.5843655  0.053645844   -2.7903329    1.2059674   558340 
  385000    1.0017232   -2.7928119   -2.7928119   -1.5850092   0.06245821   -2.7928119    1.2078027   558340 
  386000     1.001574   -2.7922684   -2.7922684   -1.5846455  0.061503078   -2.7922684    1.2076229   558340 
  387000    1.0015536   -2.7931895   -2.7931895   -1.5855912  0.060546839   -2.7931895    1.2075983   558340 
  388000    1.0034793   -2.7953238   -2.7953238   -1.5854037  0.059327709   -2.7953238    1.2099201   558340 
  389000     1.002348   -2.7954909   -2.7954909   -1.5869349  0.072233673   -2.7954909     1.208556   558340 
  390000    1.0024029   -2.7955527   -2.7955527   -1.5869305  0.056223537   -2.7955527    1.2086222   558340 
  391000    1.0020734   -2.7946485   -2.7946485   -1.5864236  0.062091884   -2.7946485     1.208225   558340 
  392000    1.0033815   -2.7956084   -2.7956084   -1.5858062  0.066039954   -2.7956084    1.2098022   558340 
  393000    1.0026778   -2.7946351   -2.7946351   -1.5856814  0.058418896   -2.7946351    1.2089537   558340 
  394000    1.0015881   -2.7934538   -2.7934538   -1.5858139  0.064278342   -2.7934538    1.2076398   558340 
  395000    1.0012544   -2.7936303   -2.7936303   -1.5863928  0.056917666   -2.7936303    1.2072375   558340 
  396000    1.0021809   -2.7944249   -2.7944249   -1.5860704  0.058560595   -2.7944249    1.2083545   558340 
  397000     1.002776   -2.7953356   -2.7953356   -1.5862635  0.070133121   -2.7953356    1.2090721   558340 
  398000    1.0038296   -2.7969099   -2.7969099   -1.5865675  0.056977057   -2.7969099    1.2103424   558340 
  399000    1.0025555   -2.7962424   -2.7962424   -1.5874361  0.067087587   -2.7962424    1.2088062   558340 
  400000    1.0024729   -2.7960617   -2.7960617   -1.5873551  0.057261983   -2.7960617    1.2087066   558340 
  401000     1.001582   -2.7953403   -2.7953403   -1.5877079  0.060760359   -2.7953403    1.2076325   558340 
  402000    1.0023056   -2.7961795   -2.7961795   -1.5876746  0.059612463   -2.7961795    1.2085049   558340 
  403000    1.0022345   -2.7955445   -2.7955445   -1.5871252   0.06439766   -2.7955445    1.2084192   558340 
  404000    1.0027624    -2.795589    -2.795589   -1.5865332  0.060899917    -2.795589    1.2090557   558340 
  405000    1.0024619   -2.7952008   -2.7952008   -1.5865074  0.064709576   -2.7952008    1.2086933   558340 
  406000    1.0027468   -2.7957298   -2.7957298   -1.5866929  0.064775001   -2.7957298    1.2090369   558340 
  407000    1.0016643   -2.7947661   -2.7947661   -1.5870344  0.058628474   -2.7947661    1.2077317   558340 
  408000    1.0048121   -2.7986116   -2.7986116   -1.5870845  0.057324405   -2.7986116    1.2115271   558340 
  409000    1.0028492    -2.796119    -2.796119   -1.5869587   0.06187364    -2.796119    1.2091603   558340 
  410000    1.0041958   -2.7979487   -2.7979487   -1.5871647  0.064651964   -2.7979487     1.210784   558340 
  411000    1.0032247   -2.7961509   -2.7961509   -1.5865378  0.060919086   -2.7961509    1.2096131   558340 
  412000    1.0065944   -2.8004598   -2.8004598   -1.5867837  0.060377757   -2.8004598    1.2136761   558340 
  413000    1.0050335   -2.7981468   -2.7981468   -1.5863527  0.066471059   -2.7981468    1.2117941   558340 
  414000    1.0038533   -2.7970982   -2.7970982   -1.5867271  0.065204303   -2.7970982    1.2103711   558340 
  415000    1.0020454   -2.7954568   -2.7954568   -1.5872655  0.060826346   -2.7954568    1.2081912   558340 
  416000    1.0027291   -2.7951653   -2.7951653   -1.5861497  0.073510096   -2.7951653    1.2090155   558340 
  417000    1.0030466   -2.7969969   -2.7969969   -1.5875986  0.056043657   -2.7969969    1.2093983   558340 
  418000    1.0014304   -2.7954062   -2.7954062   -1.5879565  0.056671297   -2.7954062    1.2074497   558340 
  419000    1.0003403   -2.7939503   -2.7939503    -1.587815   0.06733948   -2.7939503    1.2061353   558340 
  420000    1.0029053   -2.7968718   -2.7968718   -1.5876439  0.058203117   -2.7968718     1.209228   558340 
  421000    1.0005135   -2.7941827   -2.7941827   -1.5878386  0.055842112   -2.7941827    1.2063441   558340 
  422000    1.0013985   -2.7961621   -2.7961621   -1.5887509  0.057085984   -2.7961621    1.2074112   558340 
  423000    1.0012153    -2.795895    -2.795895   -1.5887047  0.057007053    -2.795895    1.2071903   558340 
  424000    1.0008167    -2.796065    -2.796065   -1.5893554  0.062208735    -2.796065    1.2067097   558340 
  425000    1.0021249   -2.7975692   -2.7975692   -1.5892822  0.061734835   -2.7975692    1.2082871   558340 
  426000    1.0040562   -2.7987895   -2.7987895   -1.5881738  0.068458526   -2.7987895    1.2106157   558340 
  427000    1.0040958    -2.799431    -2.799431   -1.5887677  0.065041432    -2.799431    1.2106634   558340 
  428000    1.0032548   -2.7989937   -2.7989937   -1.5893443  0.064033519   -2.7989937    1.2096494   558340 
  429000    1.0027336   -2.7983931   -2.7983931   -1.5893721  0.057326294   -2.7983931     1.209021   558340 
  430000    1.0042955   -2.8005887   -2.8005887   -1.5896845  0.059014745   -2.8005887    1.2109041   558340 
  431000    1.0040961   -2.8001723   -2.8001723   -1.5895085  0.055170519   -2.8001723    1.2106638   558340 
  432000    1.0036461   -2.7988831   -2.7988831   -1.5887619  0.068295769   -2.7988831    1.2101212   558340 
  433000    1.0038865   -2.7993557   -2.7993557   -1.5889446  0.062790867   -2.7993557    1.2104111   558340 
  434000    1.0048063    -2.800921    -2.800921    -1.589401  0.060563681    -2.800921      1.21152   558340 
  435000    1.0039291   -2.7991861   -2.7991861   -1.5887237  0.049888817   -2.7991861    1.2104624   558340 
  436000    1.0033148   -2.7982192   -2.7982192   -1.5884975  0.057868698   -2.7982192    1.2097217   558340 
  437000    1.0017649   -2.7963909   -2.7963909   -1.5885379  0.069559609   -2.7963909     1.207853   558340 
  438000    1.0022405   -2.7971986   -2.7971986   -1.5887722  0.057774268   -2.7971986    1.2084264   558340 
  439000   0.99911735   -2.7927203   -2.7927203   -1.5880596  0.063784679   -2.7927203    1.2046608   558340 
  440000      1.00124   -2.7952003   -2.7952003   -1.5879802  0.067054516   -2.7952003    1.2072201   558340 
  441000     1.000449   -2.7949636   -2.7949636   -1.5886972  0.055513612   -2.7949636    1.2062664   558340 
  442000    1.0034063   -2.7977147   -2.7977147   -1.5878827  0.049220094   -2.7977147     1.209832   558340 
  443000    1.0014936   -2.7954097   -2.7954097   -1.5878838  0.069033471   -2.7954097    1.2075259   558340 
  444000    1.0032395   -2.7968796   -2.7968796   -1.5872487  0.056213403   -2.7968796     1.209631   558340 
  445000    1.0031673   -2.7965643   -2.7965643   -1.5870204  0.063318472   -2.7965643    1.2095439   558340 
  446000    1.0030013     -2.79706     -2.79706   -1.5877163  0.065713118     -2.79706    1.2093437   558340 
  447000    1.0024042   -2.7961515   -2.7961515   -1.5875277  0.067395807   -2.7961515    1.2086238   558340 
  448000    1.0030678    -2.798071    -2.798071    -1.588647  0.060082518    -2.798071    1.2094239   558340 
  449000     1.002674   -2.7975876   -2.7975876   -1.5886385  0.062551553   -2.7975876    1.2089491   558340 
  450000    1.0015317    -2.795849    -2.795849   -1.5882772  0.062324109    -2.795849    1.2075719   558340 
  451000    1.0028795   -2.7966438   -2.7966438   -1.5874469  0.057063857   -2.7966438    1.2091969   558340 
  452000    1.0014149   -2.7949527   -2.7949527   -1.5875216   0.07353398   -2.7949527     1.207431   558340 
  453000    1.0023278   -2.7967975   -2.7967975   -1.5882658  0.059295665   -2.7967975    1.2085317   558340 
  454000    1.0017485   -2.7952412   -2.7952412    -1.587408  0.058741466   -2.7952412    1.2078332   558340 
  455000    1.0003248   -2.7945428   -2.7945428   -1.5884261  0.058700552   -2.7945428    1.2061166   558340 
  456000    1.0011877   -2.7955975   -2.7955975   -1.5884405  0.061883314   -2.7955975     1.207157   558340 
  457000    1.0011936   -2.7950784   -2.7950784   -1.5879142  0.059719699   -2.7950784    1.2071641   558340 
  458000    1.0017742   -2.7959332   -2.7959332   -1.5880689  0.057850644   -2.7959332    1.2078643   558340 
  459000    1.0007661   -2.7948546   -2.7948546   -1.5882058   0.05870242   -2.7948546    1.2066488   558340 
  460000    1.0018465   -2.7967071   -2.7967071   -1.5887557   0.06689046   -2.7967071    1.2079514   558340 
  461000    1.0039183   -2.7999371   -2.7999371   -1.5894877  0.065212667   -2.7999371    1.2104494   558340 
  462000    1.0020548   -2.7979631   -2.7979631   -1.5897606  0.065347708   -2.7979631    1.2082025   558340 
  463000    1.0000328   -2.7968554   -2.7968554   -1.5910908  0.058327045   -2.7968554    1.2057645   558340 
  464000    1.0039099   -2.8005886   -2.8005886   -1.5901493  0.062962375   -2.8005886    1.2104393   558340 
  465000    1.0017684    -2.798467    -2.798467   -1.5906098  0.076962432    -2.798467    1.2078572   558340 
  466000    1.0032359   -2.8006455   -2.8006455   -1.5910188  0.056513463   -2.8006455    1.2096267   558340 
  467000    1.0011639    -2.797769    -2.797769   -1.5906407  0.061666802    -2.797769    1.2071283   558340 
  468000    1.0000497   -2.7966471   -2.7966471   -1.5908621   0.05833395   -2.7966471     1.205785   558340 
  469000    1.0012804   -2.7970933   -2.7970933   -1.5898244  0.064918723   -2.7970933    1.2072688   558340 
  470000    1.0012483   -2.7962458   -2.7962458   -1.5890157  0.062105967   -2.7962458    1.2072301   558340 
  471000     1.001791   -2.7977627   -2.7977627   -1.5898783  0.059234206   -2.7977627    1.2078844   558340 
  472000     1.001647   -2.7973617   -2.7973617   -1.5896508    0.0511801   -2.7973617    1.2077108   558340 
  473000    1.0020564   -2.7978287   -2.7978287   -1.5896243  0.060154664   -2.7978287    1.2082044   558340 
  474000    1.0046344   -2.8000402   -2.8000402   -1.5887274  0.055931035   -2.8000402    1.2113128   558340 
  475000    1.0021897   -2.7970094   -2.7970094   -1.5886442  0.066473124   -2.7970094    1.2083652   558340 
  476000    1.0022567   -2.7976391   -2.7976391   -1.5891931  0.055069076   -2.7976391     1.208446   558340 
  477000    1.0015493   -2.7963801   -2.7963801   -1.5887871  0.056125129   -2.7963801    1.2075931   558340 
  478000    1.0028077     -2.79741     -2.79741   -1.5882997  0.057319984     -2.79741    1.2091103   558340 
  479000    1.0019443   -2.7973823   -2.7973823    -1.589313  0.061131442   -2.7973823    1.2080693   558340 
  480000    1.0038924   -2.7997493   -2.7997493   -1.5893311  0.055152349   -2.7997493    1.2104182   558340 
  481000    1.0023954   -2.7984361   -2.7984361   -1.5898229  0.054663511   -2.7984361    1.2086132   558340 
  482000     1.003225   -2.7998086   -2.7998086   -1.5901952  0.066854917   -2.7998086    1.2096134   558340 
  483000    1.0022618   -2.7985096   -2.7985096   -1.5900574  0.061543696   -2.7985096    1.2084521   558340 
  484000     1.003756   -2.8005011   -2.8005011   -1.5902474  0.064037392   -2.8005011    1.2102537   558340 
  485000    1.0031928   -2.7999698   -2.7999698   -1.5903952  0.058885556   -2.7999698    1.2095746   558340 
  486000    1.0034548   -2.8014259   -2.8014259   -1.5915353  0.057824914   -2.8014259    1.2098906   558340 
  487000    1.0023582    -2.800029    -2.800029   -1.5914607  0.061704091    -2.800029    1.2085683   558340 
  488000    1.0034991   -2.8010968   -2.8010968   -1.5911528  0.065584931   -2.8010968     1.209944   558340 
  489000    1.0018724   -2.7993196   -2.7993196    -1.591337  0.058512331   -2.7993196    1.2079826   558340 
  490000    1.0028142   -2.8007792   -2.8007792    -1.591661  0.064291628   -2.8007792    1.2091182   558340 
  491000    1.0018535   -2.8005045   -2.8005045   -1.5925448  0.062520772   -2.8005045    1.2079598   558340 
  492000    1.0029092   -2.8014106   -2.8014106   -1.5921778  0.054435732   -2.8014106    1.2092327   558340 
  493000    1.0025124    -2.799991    -2.799991   -1.5912367  0.053904084    -2.799991    1.2087543   558340 
  494000    1.0032267   -2.7995374   -2.7995374   -1.5899219  0.058307846   -2.7995374    1.2096155   558340 
  495000    1.0024225   -2.7985736   -2.7985736   -1.5899277  0.059948248   -2.7985736    1.2086459   558340 
  496000    1.0020914   -2.7993835   -2.7993835   -1.5911368   0.06126293   -2.7993835    1.2082467   558340 
  497000    1.0019818   -2.7991317   -2.7991317   -1.5910172  0.055815203   -2.7991317    1.2081145   558340 
  498000    1.0024013   -2.7993782   -2.7993782   -1.5907579  0.060887401   -2.7993782    1.2086203   558340 
  499000    1.0015821    -2.798855    -2.798855   -1.5912225  0.064682315    -2.798855    1.2076326   558340 
  500000    1.0026236   -2.7999382   -2.7999382   -1.5910499  0.062951931   -2.7999382    1.2088883   558340 
  501000    1.0014451   -2.7991676   -2.7991676   -1.5917002  0.056384139   -2.7991676    1.2074674   558340 
  502000    1.0013284    -2.798452    -2.798452   -1.5911254   0.06243811    -2.798452    1.2073267   558340 
  503000    1.0026114   -2.7997231   -2.7997231   -1.5908494  0.066520265   -2.7997231    1.2088737   558340 
  504000    1.0033535   -2.8004075   -2.8004075    -1.590639  0.059450175   -2.8004075    1.2097684   558340 
  505000    1.0018175   -2.7990847   -2.7990847   -1.5911682  0.060010153   -2.7990847    1.2079165   558340 
  506000    1.0013813   -2.7980898   -2.7980898   -1.5906994  0.060205062   -2.7980898    1.2073905   558340 
  507000     1.001314   -2.7986634   -2.7986634   -1.5913542  0.066820766   -2.7986634    1.2073093   558340 
  508000     1.000163   -2.7971336   -2.7971336   -1.5912121  0.069424626   -2.7971336    1.2059215   558340 
  509000    1.0011228    -2.798636    -2.798636   -1.5915572  0.050131235    -2.798636    1.2070788   558340 
  510000    1.0009691   -2.7977264   -2.7977264   -1.5908329  0.042179225   -2.7977264    1.2068935   558340 
  511000    1.0022457   -2.7993747   -2.7993747    -1.590942  0.062511379   -2.7993747    1.2084327   558340 
  512000    1.0035545   -2.8008279   -2.8008279   -1.5908172  0.052911602   -2.8008279    1.2100107   558340 
  513000    1.0031911   -2.8009142   -2.8009142   -1.5913416  0.055434097   -2.8009142    1.2095726   558340 
  514000    1.0012707   -2.7989961   -2.7989961    -1.591739  0.053980805   -2.7989961    1.2072571   558340 
  515000    1.0026054   -2.7998039   -2.7998039   -1.5909375  0.056536893   -2.7998039    1.2088664   558340 
  516000    1.0024131   -2.7998967   -2.7998967   -1.5912622  0.059838754   -2.7998967    1.2086345   558340 
  517000    1.0019795   -2.7997633   -2.7997633   -1.5916516  0.065953276   -2.7997633    1.2081118   558340 
  518000    1.0026299   -2.7998509   -2.7998509    -1.590955  0.055817536   -2.7998509    1.2088959   558340 
  519000    1.0044568    -2.802724    -2.802724   -1.5916254   0.06609986    -2.802724    1.2110987   558340 
  520000     1.002297    -2.800696    -2.800696   -1.5922015  0.065574736    -2.800696    1.2084946   558340 
  521000    1.0025035   -2.8002276   -2.8002276    -1.591484  0.064319232   -2.8002276    1.2087436   558340 
  522000    1.0025004   -2.7995838   -2.7995838    -1.590844  0.064791577   -2.7995838    1.2087398   558340 
  523000    1.0036109   -2.8008076   -2.8008076   -1.5907288  0.060553904   -2.8008076    1.2100788   558340 
  524000     1.001682   -2.7983992   -2.7983992   -1.5906461  0.061656237   -2.7983992     1.207753   558340 
  525000    1.0014182   -2.7975191   -2.7975191   -1.5900841  0.069565062   -2.7975191    1.2074349   558340 
  526000    1.0019812   -2.7971961   -2.7971961   -1.5890824  0.062870626   -2.7971961    1.2081138   558340 
  527000    1.0006575   -2.7958547   -2.7958547    -1.589337  0.061387678   -2.7958547    1.2065178   558340 
  528000    1.0024002   -2.7985423   -2.7985423   -1.5899233    0.0496948   -2.7985423     1.208619   558340 
  529000    1.0021461   -2.7976432   -2.7976432   -1.5893306  0.053641862   -2.7976432    1.2083126   558340 
  530000    1.0034061   -2.7991675   -2.7991675   -1.5893357  0.055133984   -2.7991675    1.2098318   558340 
  531000    1.0026573   -2.7991563   -2.7991563   -1.5902273  0.059967009   -2.7991563     1.208929   558340 
  532000    1.0017788   -2.7977688   -2.7977688    -1.589899  0.067128199   -2.7977688    1.2078698   558340 
  533000    1.0017518    -2.797684    -2.797684   -1.5898468  0.062003974    -2.797684    1.2078372   558340 
  534000     1.003483   -2.7998198   -2.7998198   -1.5898953  0.070093142   -2.7998198    1.2099245   558340 
  535000    1.0035708   -2.8001432   -2.8001432   -1.5901128  0.059530812   -2.8001432    1.2100304   558340 
  536000    1.0032137   -2.8000734   -2.8000734   -1.5904735  0.061078944   -2.8000734    1.2095999   558340 
  537000    1.0018828   -2.7983936   -2.7983936   -1.5903984  0.058882897   -2.7983936    1.2079951   558340 
  538000    1.0029479   -2.7997245   -2.7997245   -1.5904451  0.070273104   -2.7997245    1.2092794   558340 
  539000    1.0037283   -2.8010401   -2.8010401   -1.5908197  0.057602467   -2.8010401    1.2102204   558340 
  540000     1.003869   -2.8008042   -2.8008042   -1.5904142  0.067377242   -2.8008042      1.21039   558340 
  541000    1.0019085   -2.7990351   -2.7990351    -1.591009  0.064213992   -2.7990351    1.2080261   558340 
  542000    1.0007347   -2.7978437   -2.7978437   -1.5912328  0.061044729   -2.7978437    1.2066109   558340 
  543000    1.0009859    -2.798091    -2.798091   -1.5911773  0.064907544    -2.798091    1.2069137   558340 
  544000    1.0010786   -2.7992743   -2.7992743   -1.5922489  0.051686237   -2.7992743    1.2070255   558340 
  545000    1.0004097   -2.7977975   -2.7977975   -1.5915786  0.065747232   -2.7977975     1.206219   558340 
  546000    1.0022764   -2.7992221   -2.7992221   -1.5907524  0.054310021   -2.7992221    1.2084697   558340 
  547000    1.0014029   -2.7987973   -2.7987973   -1.5913808  0.053370122   -2.7987973    1.2074165   558340 
  548000    1.0016441   -2.7985504   -2.7985504    -1.590843  0.059213445   -2.7985504    1.2077074   558340 
  549000    1.0018009   -2.7985718   -2.7985718   -1.5906754    0.0600334   -2.7985718    1.2078964   558340 
  550000    1.0029336   -2.8009999   -2.8009999   -1.5917377  0.062522076   -2.8009999    1.2092621   558340 
  551000    1.0041349   -2.8020411   -2.8020411   -1.5913306  0.067226252   -2.8020411    1.2107105   558340 
  552000    1.0038683   -2.8018193   -2.8018193   -1.5914301  0.062280327   -2.8018193    1.2103892   558340 
  553000    1.0025649   -2.8002139   -2.8002139   -1.5913963  0.070784854   -2.8002139    1.2088176   558340 
  554000    1.0034201   -2.8015946   -2.8015946    -1.591746  0.059585536   -2.8015946    1.2098487   558340 
  555000     1.003036   -2.8006168   -2.8006168   -1.5912313  0.063864878   -2.8006168    1.2093856   558340 
  556000    1.0028349    -2.800935    -2.800935   -1.5917918   0.06003287    -2.800935    1.2091432   558340 
  557000    1.0019228   -2.7992067   -2.7992067   -1.5911633  0.063365602   -2.7992067    1.2080434   558340 
  558000    1.0030327   -2.7998475   -2.7998475   -1.5904658  0.056792596   -2.7998475    1.2093817   558340 
  559000    1.0011932   -2.7971578   -2.7971578   -1.5899941  0.052561458   -2.7971578    1.2071637   558340 
  560000    1.0019933   -2.7973302   -2.7973302   -1.5892019  0.052983272   -2.7973302    1.2081283   558340 
  561000    1.0010348   -2.7970142   -2.7970142   -1.5900415  0.050542993   -2.7970142    1.2069727   558340 
  562000    1.0023367   -2.7981731   -2.7981731   -1.5896306  0.059248706   -2.7981731    1.2085424   558340 
  563000    1.0006244   -2.7963142   -2.7963142   -1.5898364  0.058601867   -2.7963142    1.2064779   558340 
  564000     1.001409   -2.7977776   -2.7977776   -1.5903537  0.062586602   -2.7977776    1.2074239   558340 
  565000     1.003659   -2.8000778   -2.8000778   -1.5899411   0.05512261   -2.8000778    1.2101367   558340 
  566000    1.0023123   -2.7993061   -2.7993061   -1.5907931  0.060737269   -2.7993061     1.208513   558340 
  567000    1.0031708   -2.7995818   -2.7995818   -1.5900336  0.070151486   -2.7995818    1.2095482   558340 
  568000    1.0049589    -2.800925    -2.800925    -1.589221  0.062191377    -2.800925     1.211704   558340 
  569000    1.0046867   -2.8006966   -2.8006966   -1.5893207  0.070398159   -2.8006966    1.2113759   558340 
  570000    1.0028548    -2.798594    -2.798594   -1.5894269   0.06494074    -2.798594    1.2091671   558340 
  571000    1.0027532   -2.7993916   -2.7993916   -1.5903471  0.053534073   -2.7993916    1.2090446   558340 
  572000    1.0011742   -2.7980707   -2.7980707     -1.59093  0.059240604   -2.7980707    1.2071407   558340 
  573000    1.0016514   -2.7980363   -2.7980363   -1.5903202  0.064165791   -2.7980363    1.2077161   558340 
  574000    1.0021793   -2.7985979   -2.7985979   -1.5902453  0.062479436   -2.7985979    1.2083527   558340 
  575000    1.0022115   -2.7993076   -2.7993076   -1.5909161  0.067386487   -2.7993076    1.2083915   558340 
  576000    1.0021366   -2.8007526   -2.8007526   -1.5924515  0.064575057   -2.8007526    1.2083011   558340 
  577000    1.0022965   -2.8008997   -2.8008997   -1.5924058   0.07510968   -2.8008997    1.2084939   558340 
  578000    1.0026073   -2.8008106   -2.8008106   -1.5919419   0.06268241   -2.8008106    1.2088687   558340 
  579000    1.0026031   -2.8009219   -2.8009219   -1.5920583  0.073631936   -2.8009219    1.2088636   558340 
  580000    1.0012969   -2.7992543   -2.7992543   -1.5919655  0.072066694   -2.7992543    1.2072887   558340 
  581000    1.0020512   -2.8006967   -2.8006967   -1.5924985   0.05574247   -2.8006967    1.2081982   558340 
  582000    1.0007436    -2.799527    -2.799527   -1.5929054  0.059794214    -2.799527    1.2066216   558340 
  583000    1.0009509   -2.8000054   -2.8000054   -1.5931339  0.057511112   -2.8000054    1.2068715   558340 
  584000    1.0023134   -2.8012473   -2.8012473   -1.5927329   0.06320092   -2.8012473    1.2085144   558340 
  585000    1.0003365    -2.799409    -2.799409   -1.5932783  0.067490307    -2.799409    1.2061307   558340 
  586000    1.0011642   -2.8001367   -2.8001367    -1.593008  0.060557199   -2.8001367    1.2071287   558340 
  587000    1.0030759   -2.8018782   -2.8018782   -1.5924446  0.062078252   -2.8018782    1.2094337   558340 
  588000    1.0035433   -2.8024089   -2.8024089   -1.5924116  0.063107203   -2.8024089    1.2099973   558340 
  589000    1.0019403   -2.8011695   -2.8011695    -1.593105  0.066446163   -2.8011695    1.2080645   558340 
  590000    1.0017868   -2.8004916   -2.8004916   -1.5926122  0.062849307   -2.8004916    1.2078794   558340 
  591000    1.0016038   -2.8002685   -2.8002685   -1.5926097  0.062937241   -2.8002685    1.2076588   558340 
  592000     1.001646   -2.8000276   -2.8000276    -1.592318  0.062958279   -2.8000276    1.2077096   558340 
  593000    1.0028109   -2.8020169   -2.8020169   -1.5929027  0.062674824   -2.8020169    1.2091142   558340 
  594000    1.0028576   -2.8016121   -2.8016121   -1.5924416  0.054627981   -2.8016121    1.2091705   558340 
  595000    1.0010884   -2.7993888   -2.7993888   -1.5923514  0.059437457   -2.7993888    1.2070373   558340 
  596000    1.0034406   -2.8019639   -2.8019639   -1.5920905  0.064858395   -2.8019639    1.2098734   558340 
  597000    1.0037404   -2.8028059   -2.8028059    -1.592571  0.062612315   -2.8028059    1.2102349   558340 
  598000    1.0008474   -2.7990886   -2.7990886   -1.5923418  0.066239227   -2.7990886    1.2067468   558340 
  599000    1.0024237   -2.8004681   -2.8004681   -1.5918209  0.061674436   -2.8004681    1.2086473   558340 
  600000    1.0014661   -2.8000785   -2.8000785   -1.5925857  0.059984866   -2.8000785    1.2074927   558340 
  601000    1.0014084   -2.7996781   -2.7996781   -1.5922549  0.060024653   -2.7996781    1.2074232   558340 
  602000    1.0018808   -2.8004387   -2.8004387   -1.5924459  0.067496137   -2.8004387    1.2079928   558340 
  603000    1.0014011    -2.800756    -2.800756   -1.5933416  0.053075372    -2.800756    1.2074144   558340 
  604000    1.0027602   -2.8018544   -2.8018544   -1.5928014  0.057222962   -2.8018544     1.209053   558340 
  605000    1.0029722   -2.8025276   -2.8025276   -1.5932189  0.060908966   -2.8025276    1.2093087   558340 
  606000    1.0041789    -2.804193    -2.804193   -1.5934295  0.063365357    -2.804193    1.2107636   558340 
  607000    1.0014891   -2.8016065   -2.8016065    -1.594086  0.060447713   -2.8016065    1.2075205   558340 
  608000    1.0016398   -2.8021954   -2.8021954   -1.5944933  0.062952122   -2.8021954    1.2077021   558340 
  609000    1.0020686   -2.8027199   -2.8027199   -1.5945008  0.053726902   -2.8027199    1.2082191   558340 
  610000    1.0020469   -2.8027055   -2.8027055   -1.5945126  0.064914994   -2.8027055     1.208193   558340 
  611000    1.0020404   -2.8026231   -2.8026231    -1.594438  0.061952755   -2.8026231    1.2081851   558340 
  612000    1.0018488   -2.8021992   -2.8021992   -1.5942451  0.064836951   -2.8021992    1.2079541   558340 
  613000    1.0021694   -2.8022217   -2.8022217   -1.5938809  0.068158649   -2.8022217    1.2083407   558340 
  614000    1.0025926   -2.8037292   -2.8037292   -1.5948782  0.051314332   -2.8037292     1.208851   558340 
  615000    1.0020607   -2.8030954   -2.8030954   -1.5948858  0.054236804   -2.8030954    1.2082097   558340 
  616000    1.0017094   -2.8033655   -2.8033655   -1.5955795  0.068973479   -2.8033655     1.207786   558340 
  617000    1.0008484   -2.8029182   -2.8029182   -1.5961703  0.064290387   -2.8029182    1.2067479   558340 
  618000    1.0013025   -2.8033058   -2.8033058   -1.5960104  0.064276571   -2.8033058    1.2072955   558340 
  619000    1.0014409   -2.8023856   -2.8023856   -1.5949233   0.06508874   -2.8023856    1.2074624   558340 
  620000    1.0019246   -2.8031171   -2.8031171   -1.5950715  0.073417222   -2.8031171    1.2080456   558340 
  621000    1.0034313   -2.8050774   -2.8050774   -1.5952152  0.058579573   -2.8050774    1.2098622   558340 
  622000    1.0005053    -2.802592    -2.802592   -1.5962578  0.055795141    -2.802592    1.2063342   558340 
  623000    1.0013594   -2.8029085   -2.8029085   -1.5955444  0.059604517   -2.8029085    1.2073641   558340 
  624000    1.0017911   -2.8028742   -2.8028742   -1.5949896  0.052268739   -2.8028742    1.2078846   558340 
  625000   0.99993847   -2.8005592   -2.8005592   -1.5949084  0.070797784   -2.8005592    1.2056508   558340 
  626000    1.0003912   -2.8013004   -2.8013004   -1.5951037  0.063010476   -2.8013004    1.2061967   558340 
  627000    1.0023417    -2.803213    -2.803213   -1.5946645  0.063774801    -2.803213    1.2085485   558340 
  628000    1.0021808   -2.8035813   -2.8035813   -1.5952268  0.070048048   -2.8035813    1.2083545   558340 
  629000    1.0015678   -2.8035366   -2.8035366   -1.5959213  0.066112266   -2.8035366    1.2076153   558340 
  630000    1.0006335   -2.8016499   -2.8016499   -1.5951611  0.069507258   -2.8016499    1.2064888   558340 
  631000    1.0002959   -2.8019006   -2.8019006   -1.5958188  0.051618062   -2.8019006    1.2060818   558340 
  632000   0.99940462   -2.8002212   -2.8002212    -1.595214  0.066701006   -2.8002212    1.2050071   558340 
  633000    1.0000128   -2.8016207   -2.8016207   -1.5958803  0.055088026   -2.8016207    1.2057404   558340 
  634000    1.0005334    -2.802078    -2.802078   -1.5957099    0.0639621    -2.802078    1.2063682   558340 
  635000    1.0026317   -2.8044272   -2.8044272   -1.5955291  0.061098604   -2.8044272    1.2088981   558340 
  636000    1.0012816   -2.8038025   -2.8038025   -1.5965323  0.074090163   -2.8038025    1.2072702   558340 
  637000    1.0022355   -2.8051579   -2.8051579   -1.5967375  0.059269516   -2.8051579    1.2084204   558340 
  638000    1.0040779   -2.8063684   -2.8063684   -1.5957266  0.061369348   -2.8063684    1.2106418   558340 
  639000    1.0024671   -2.8046269   -2.8046269   -1.5959272  0.059735301   -2.8046269    1.2086997   558340 
  640000    1.0014978   -2.8042257   -2.8042257   -1.5966948  0.062313372   -2.8042257     1.207531   558340 
  641000    1.0017068   -2.8046776   -2.8046776   -1.5968947  0.060870028   -2.8046776    1.2077829   558340 
  642000   0.99993121   -2.8031011   -2.8031011   -1.5974591  0.053871743   -2.8031011    1.2056421   558340 
  643000    1.0015885   -2.8048099   -2.8048099   -1.5971697   0.05109282   -2.8048099    1.2076403   558340 
  644000    1.0013012   -2.8044512   -2.8044512   -1.5971573  0.065633059   -2.8044512    1.2072939   558340 
  645000    1.0021541   -2.8046809   -2.8046809   -1.5963587  0.061329096   -2.8046809    1.2083222   558340 
  646000    1.0015887    -2.803764    -2.803764   -1.5961235  0.058666659    -2.803764    1.2076405   558340 
  647000    1.0025194   -2.8045424   -2.8045424   -1.5957797  0.056412276   -2.8045424    1.2087627   558340 
  648000     1.003968   -2.8063378   -2.8063378   -1.5958285   0.05931178   -2.8063378    1.2105093   558340 
  649000    1.0025878   -2.8045397   -2.8045397   -1.5956945  0.060042077   -2.8045397    1.2088451   558340 
  650000    1.0029423   -2.8057727   -2.8057727   -1.5965001  0.054917815   -2.8057727    1.2092726   558340 
  651000    1.0015779   -2.8036321   -2.8036321   -1.5960045  0.068699365   -2.8036321    1.2076276   558340 
  652000      1.00153   -2.8039767   -2.8039767   -1.5964069  0.066844818   -2.8039767    1.2075698   558340 
  653000    1.0008449   -2.8034385   -2.8034385   -1.5966948  0.059224636   -2.8034385    1.2067437   558340 
  654000    1.0006901   -2.8040884   -2.8040884   -1.5975314  0.063688422   -2.8040884     1.206557   558340 
  655000    1.0022023   -2.8046195   -2.8046195   -1.5962392   0.06608548   -2.8046195    1.2083804   558340 
  656000    1.0033885   -2.8062355   -2.8062355   -1.5964248  0.057938887   -2.8062355    1.2098106   558340 
  657000    1.0027857   -2.8059772   -2.8059772   -1.5968934  0.056525306   -2.8059772    1.2090838   558340 
  658000    1.0019587    -2.805229    -2.805229   -1.5971423   0.05705853    -2.805229    1.2080867   558340 
  659000    1.0015213    -2.805387    -2.805387   -1.5978277  0.061915146    -2.805387    1.2075593   558340 
  660000    1.0010442   -2.8049668   -2.8049668   -1.5979828  0.060856778   -2.8049668     1.206984   558340 
  661000    1.0019215   -2.8062849   -2.8062849   -1.5982432  0.059965258   -2.8062849    1.2080418   558340 
  662000    1.0025095   -2.8065056   -2.8065056   -1.5977548  0.058503103   -2.8065056    1.2087508   558340 
  663000    1.0031791   -2.8064351   -2.8064351   -1.5968769  0.062948934   -2.8064351    1.2095582   558340 
  664000    1.0019391     -2.80561     -2.80561    -1.597547   0.06496632     -2.80561     1.208063   558340 
  665000    1.0012922   -2.8053842   -2.8053842   -1.5981012  0.043612765   -2.8053842     1.207283   558340 
  666000    1.0032459   -2.8067672   -2.8067672   -1.5971286  0.056284434   -2.8067672    1.2096386   558340 
  667000    1.0022533   -2.8059592   -2.8059592   -1.5975173  0.066401759   -2.8059592    1.2084419   558340 
  668000    1.0040071   -2.8082334   -2.8082334    -1.597677  0.068654027   -2.8082334    1.2105564   558340 
  669000    1.0049024    -2.808251    -2.808251   -1.5966151  0.069024856    -2.808251     1.211636   558340 
  670000    1.0016997   -2.8056532   -2.8056532   -1.5978788  0.067276805   -2.8056532    1.2077744   558340 
  671000    1.0016919   -2.8057166   -2.8057166   -1.5979516  0.063019693   -2.8057166     1.207765   558340 
  672000     1.001534   -2.8059405   -2.8059405   -1.5983658  0.066883276   -2.8059405    1.2075746   558340 
  673000     1.000498   -2.8046932   -2.8046932   -1.5983678  0.071078547   -2.8046932    1.2063255   558340 
  674000    1.0018108   -2.8061805   -2.8061805   -1.5982721  0.059846319   -2.8061805    1.2079084   558340 
  675000    1.0006089   -2.8046826   -2.8046826   -1.5982235  0.053099692   -2.8046826    1.2064591   558340 
  676000    1.0001425   -2.8048277   -2.8048277   -1.5989309  0.058703888   -2.8048277    1.2058968   558340 
  677000    1.0007282    -2.804929    -2.804929   -1.5983259  0.060278552    -2.804929     1.206603   558340 
  678000    1.0004745   -2.8040174   -2.8040174   -1.5977202  0.050241263   -2.8040174    1.2062972   558340 
  679000   0.99982598   -2.8034706   -2.8034706   -1.5979555  0.058186005   -2.8034706    1.2055152   558340 
  680000    1.0006683   -2.8052076   -2.8052076   -1.5986768   0.04869737   -2.8052076    1.2065308   558340 
  681000    1.0027027   -2.8077425   -2.8077425   -1.5987587  0.070381168   -2.8077425    1.2089838   558340 
  682000    1.0019127   -2.8072805   -2.8072805   -1.5992493  0.061916077   -2.8072805    1.2080312   558340 
  683000    1.0015013   -2.8077364   -2.8077364   -1.6002013  0.058235093   -2.8077364    1.2075352   558340 
  684000    1.0022908    -2.808864    -2.808864    -1.600377  0.060755806    -2.808864    1.2084871   558340 
  685000    1.0020001   -2.8088297   -2.8088297   -1.6006931  0.065451566   -2.8088297    1.2081366   558340 
  686000    1.0023167   -2.8085367   -2.8085367   -1.6000183  0.064846701   -2.8085367    1.2085184   558340 
  687000    1.0026137   -2.8084031   -2.8084031   -1.5995267  0.058357945   -2.8084031    1.2088764   558340 
  688000    1.0029631   -2.8084293   -2.8084293   -1.5991315  0.061106275   -2.8084293    1.2092977   558340 
  689000    1.0030198   -2.8091241   -2.8091241   -1.5997581  0.056719772   -2.8091241     1.209366   558340 
  690000    1.0011578   -2.8065658   -2.8065658   -1.5994449  0.052282456   -2.8065658     1.207121   558340 
  691000     1.000564   -2.8051626   -2.8051626   -1.5987576  0.056402545   -2.8051626     1.206405   558340 
  692000    1.0008892   -2.8049055   -2.8049055   -1.5981083  0.059611313   -2.8049055    1.2067972   558340 
  693000    1.0019128   -2.8050271   -2.8050271   -1.5969957  0.065164586   -2.8050271    1.2080314   558340 
  694000    1.0009245   -2.8032442   -2.8032442   -1.5964045  0.061169751   -2.8032442    1.2068397   558340 
  695000    1.0034622   -2.8058715   -2.8058715    -1.595972  0.063072663   -2.8058715    1.2098994   558340 
  696000    1.0030929   -2.8054977   -2.8054977   -1.5960435   0.06282864   -2.8054977    1.2094542   558340 
  697000    1.0021442   -2.8048448   -2.8048448   -1.5965345  0.060549682   -2.8048448    1.2083103   558340 
  698000    1.0005417   -2.8033712   -2.8033712   -1.5969931  0.060200357   -2.8033712    1.2063781   558340 
  699000      1.00248   -2.8051581   -2.8051581    -1.596443  0.062556568   -2.8051581    1.2087152   558340 
  700000    1.0018666   -2.8045863   -2.8045863   -1.5966107  0.062472321   -2.8045863    1.2079756   558340 
  701000    1.0015052   -2.8041906   -2.8041906   -1.5966507  0.053970753   -2.8041906    1.2075399   558340 
  702000    1.0023949   -2.8051024   -2.8051024   -1.5964898  0.062012063   -2.8051024    1.2086126   558340 
  703000    1.0000265   -2.8033354   -2.8033354   -1.5975785  0.056131403   -2.8033354     1.205757   558340 
  704000   0.99987122   -2.8028807   -2.8028807   -1.5973109  0.061611242   -2.8028807    1.2055697   558340 
  705000    1.0003042   -2.8041177   -2.8041177   -1.5980259  0.057313593   -2.8041177    1.2060918   558340 
  706000    1.0000794   -2.8037174   -2.8037174   -1.5978966  0.064622613   -2.8037174    1.2058208   558340 
  707000    1.0021409   -2.8060583   -2.8060583    -1.597752  0.053271822   -2.8060583    1.2083063   558340 
  708000    1.0006544   -2.8039126   -2.8039126   -1.5973985  0.063281323   -2.8039126    1.2065141   558340 
  709000    1.0024903   -2.8064796   -2.8064796    -1.597752  0.052807606   -2.8064796    1.2087276   558340 
  710000   0.99984117   -2.8043123   -2.8043123   -1.5987788   0.06060383   -2.8043123    1.2055335   558340 
  711000    1.0020319    -2.806007    -2.806007    -1.597832  0.055346664    -2.806007    1.2081749   558340 
  712000    1.0021052   -2.8068729   -2.8068729   -1.5986096  0.052641189   -2.8068729    1.2082633   558340 
  713000    1.0024222   -2.8077271   -2.8077271   -1.5990816  0.050509684   -2.8077271    1.2086455   558340 
  714000    1.0005924   -2.8052844   -2.8052844   -1.5988452  0.058154163   -2.8052844    1.2064392   558340 
  715000   0.99920548   -2.8043168   -2.8043168   -1.5995497   0.05918021   -2.8043168     1.204767   558340 
  716000    1.0009764   -2.8067047   -2.8067047   -1.5998024  0.054201815   -2.8067047    1.2069023   558340 
  717000   0.99995086    -2.804914    -2.804914   -1.5992483  0.055300912    -2.804914    1.2056658   558340 
  718000   0.99997258   -2.8043826   -2.8043826   -1.5986907  0.056216059   -2.8043826    1.2056919   558340 
  719000    1.0003859   -2.8050984   -2.8050984   -1.5989081  0.059500688   -2.8050984    1.2061903   558340 
  720000    0.9999823   -2.8052196   -2.8052196   -1.5995159   0.05733659   -2.8052196    1.2057037   558340 
  721000    1.0018998   -2.8069039   -2.8069039   -1.5988882  0.060599229   -2.8069039    1.2080157   558340 
  722000    1.0012617   -2.8059754   -2.8059754   -1.5987291   0.06219973   -2.8059754    1.2072463   558340 
  723000    1.0040392   -2.8091571   -2.8091571    -1.598562  0.071413185   -2.8091571    1.2105952   558340 
  724000    1.0024387    -2.807771    -2.807771   -1.5991056  0.062533342    -2.807771    1.2086654   558340 
  725000    1.0013772   -2.8064296   -2.8064296   -1.5990441  0.060725164   -2.8064296    1.2073855   558340 
  726000    1.0020093   -2.8076415   -2.8076415   -1.5994938   0.05535995   -2.8076415    1.2081477   558340 
  727000    1.0034428   -2.8090075   -2.8090075   -1.5991314  0.062102812   -2.8090075    1.2098761   558340 
  728000    1.0035971   -2.8087445   -2.8087445   -1.5986824  0.064554583   -2.8087445    1.2100621   558340 
  729000    1.0021191   -2.8067966   -2.8067966   -1.5985165  0.065769897   -2.8067966    1.2082801   558340 
  730000    1.0016528   -2.8067072   -2.8067072   -1.5989894  0.062653622   -2.8067072    1.2077178   558340 
  731000    1.0012492   -2.8059838   -2.8059838   -1.5987526  0.067616979   -2.8059838    1.2072312   558340 
  732000   0.99986338   -2.8043479   -2.8043479   -1.5987876  0.061469941   -2.8043479    1.2055603   558340 
  733000     1.000248   -2.8045442   -2.8045442   -1.5985203  0.062305546   -2.8045442     1.206024   558340 
  734000     1.001194   -2.8050447   -2.8050447   -1.5978801  0.054846727   -2.8050447    1.2071647   558340 
  735000    1.0008122   -2.8043005   -2.8043005   -1.5975962  0.060599462   -2.8043005    1.2067043   558340 
  736000    1.0015609   -2.8056922   -2.8056922   -1.5980852  0.060018537   -2.8056922     1.207607   558340 
  737000   0.99959078   -2.8038192   -2.8038192   -1.5985876  0.058966804   -2.8038192    1.2052316   558340 
  738000    1.0012193   -2.8055841   -2.8055841    -1.598389  0.056469803   -2.8055841    1.2071952   558340 
  739000    1.0014241   -2.8061875   -2.8061875   -1.5987455  0.060892865   -2.8061875     1.207442   558340 
  740000    1.0017846   -2.8066971   -2.8066971   -1.5988204  0.056713555   -2.8066971    1.2078768   558340 
  741000    1.0020279   -2.8069539   -2.8069539   -1.5987838  0.066513508   -2.8069539    1.2081701   558340 
  742000      1.00307   -2.8094282   -2.8094282   -1.6000016  0.072697572   -2.8094282    1.2094266   558340 
  743000    1.0031556   -2.8091134   -2.8091134   -1.5995836  0.060094615   -2.8091134    1.2095298   558340 
  744000     1.002498   -2.8090735   -2.8090735   -1.6003367  0.061902373   -2.8090735    1.2087369   558340 
  745000    1.0024214      -2.8098      -2.8098   -1.6011555  0.061706902      -2.8098    1.2086445   558340 
  746000     1.002216   -2.8091441   -2.8091441   -1.6007473  0.066520674   -2.8091441    1.2083968   558340 
  747000    1.0026973   -2.8104476   -2.8104476   -1.6014705  0.050131476   -2.8104476    1.2089772   558340 
  748000    1.0032014   -2.8097118   -2.8097118   -1.6001268  0.053504687   -2.8097118     1.209585   558340 
  749000    1.0015928   -2.8080488   -2.8080488   -1.6004033  0.059969854   -2.8080488    1.2076455   558340 
  750000    1.0019799   -2.8089517   -2.8089517   -1.6008395    0.0640527   -2.8089517    1.2081122   558340 
  751000    1.0015433   -2.8083938   -2.8083938   -1.6008081  0.068711707   -2.8083938    1.2075858   558340 
  752000    1.0018902   -2.8087776   -2.8087776   -1.6007736  0.068190593   -2.8087776     1.208004   558340 
  753000    1.0015764   -2.8091945   -2.8091945   -1.6015688  0.048527116   -2.8091945    1.2076257   558340 
  754000    1.0014663   -2.8083844   -2.8083844   -1.6008915  0.056211498   -2.8083844     1.207493   558340 
  755000    1.0014041   -2.8085897   -2.8085897   -1.6011718  0.068891594   -2.8085897     1.207418   558340 
  756000    1.0041671   -2.8106874   -2.8106874    -1.599938  0.056979367   -2.8106874    1.2107494   558340 
  757000    1.0018676   -2.8083833   -2.8083833   -1.6004065  0.061727296   -2.8083833    1.2079768   558340 
  758000    1.0013606   -2.8079773   -2.8079773   -1.6006119  0.055461352   -2.8079773    1.2073655   558340 
  759000    1.0006465   -2.8076898   -2.8076898   -1.6011853  0.062490528   -2.8076898    1.2065046   558340 
  760000    1.0009053   -2.8072953   -2.8072953   -1.6004788  0.061595452   -2.8072953    1.2068165   558340 
  761000    1.0009017   -2.8071666   -2.8071666   -1.6003544  0.062277757   -2.8071666    1.2068122   558340 
  762000    1.0009969   -2.8073725   -2.8073725   -1.6004455  0.055848321   -2.8073725    1.2069269   558340 
  763000    1.0013174   -2.8070448   -2.8070448   -1.5997314  0.059405067   -2.8070448    1.2073134   558340 
  764000    1.0004808   -2.8056426   -2.8056426   -1.5993379  0.065292166   -2.8056426    1.2063047   558340 
  765000    1.0011199   -2.8075514   -2.8075514   -1.6004761  0.061430318   -2.8075514    1.2070753   558340 
  766000   0.99966557   -2.8054428   -2.8054428    -1.600121  0.057830565   -2.8054428    1.2053218   558340 
  767000     1.001364   -2.8074759   -2.8074759   -1.6001062  0.053446606   -2.8074759    1.2073696   558340 
  768000    1.0009237   -2.8075248   -2.8075248   -1.6006861   0.06094223   -2.8075248    1.2068387   558340 
  769000    1.0021001   -2.8087305   -2.8087305   -1.6004734  0.051418272   -2.8087305    1.2082571   558340 
  770000    1.0014778   -2.8080983   -2.8080983   -1.6005915  0.060691177   -2.8080983    1.2075068   558340 
  771000    1.0016621   -2.8085387   -2.8085387   -1.6008096  0.072645353   -2.8085387    1.2077291   558340 
  772000    1.0023534   -2.8093571   -2.8093571   -1.6007945   0.07502397   -2.8093571    1.2085626   558340 
  773000    1.0031584   -2.8104352   -2.8104352   -1.6009021  0.051324737   -2.8104352    1.2095331   558340 
  774000    1.0010774   -2.8084999   -2.8084999   -1.6014758   0.06030224   -2.8084999     1.207024   558340 
  775000    1.0012899   -2.8083229   -2.8083229   -1.6010426  0.062937072   -2.8083229    1.2072802   558340 
  776000    1.0025305   -2.8102415   -2.8102415   -1.6014654  0.062787192   -2.8102415    1.2087761   558340 
  777000    1.0007562   -2.8080393   -2.8080393   -1.6014025  0.065437546   -2.8080393    1.2066368   558340 
  778000    1.0009648    -2.807221    -2.807221   -1.6003327  0.059261566    -2.807221    1.2068883   558340 
  779000     1.002015   -2.8079177   -2.8079177   -1.5997632  0.065036885   -2.8079177    1.2081545   558340 
  780000    1.0005898   -2.8068804   -2.8068804   -1.6004442  0.058254038   -2.8068804    1.2064362   558340 
  781000   0.99980485   -2.8054805   -2.8054805   -1.5999908  0.057374243   -2.8054805    1.2054897   558340 
  782000    1.0015162   -2.8072414   -2.8072414   -1.5996882  0.069329462   -2.8072414    1.2075531   558340 
  783000    1.0007008   -2.8070111   -2.8070111   -1.6004411   0.05515785   -2.8070111    1.2065699   558340 
  784000    1.0032117   -2.8096651   -2.8096651   -1.6000676  0.057101394   -2.8096651    1.2095975   558340 
  785000    1.0017422    -2.808424    -2.808424   -1.6005983  0.063019395    -2.808424    1.2078257   558340 
  786000    1.0015662   -2.8081864   -2.8081864    -1.600573  0.062168469   -2.8081864    1.2076134   558340 
  787000    1.0031373    -2.809276    -2.809276   -1.5997682  0.066076414    -2.809276    1.2095077   558340 
  788000    1.0032501   -2.8098318   -2.8098318    -1.600188  0.058510486   -2.8098318    1.2096438   558340 
  789000    1.0037191   -2.8097971   -2.8097971    -1.599588  0.065907054   -2.8097971    1.2102092   558340 
  790000    1.0037916   -2.8102732   -2.8102732   -1.5999766  0.061436027   -2.8102732    1.2102966   558340 
  791000    1.0023772   -2.8090689   -2.8090689   -1.6004776  0.065250359   -2.8090689    1.2085913   558340 
  792000    1.0032699   -2.8110235   -2.8110235   -1.6013558  0.060975468   -2.8110235    1.2096677   558340 
  793000    1.0030293   -2.8107402   -2.8107402   -1.6013627  0.060514489   -2.8107402    1.2093775   558340 
  794000     1.002345   -2.8095938   -2.8095938   -1.6010413  0.060374332   -2.8095938    1.2085524   558340 
  795000     1.002465   -2.8094567   -2.8094567   -1.6007596  0.062710597   -2.8094567    1.2086971   558340 
  796000    1.0011743   -2.8083706   -2.8083706   -1.6012297  0.054639537   -2.8083706    1.2071409   558340 
  797000    1.0000919   -2.8069603   -2.8069603   -1.6011244  0.061343184   -2.8069603    1.2058358   558340 
  798000    1.0001271   -2.8075489   -2.8075489   -1.6016706  0.055058965   -2.8075489    1.2058783   558340 
  799000   0.99995265   -2.8076547   -2.8076547   -1.6019868  0.056440705   -2.8076547    1.2056679   558340 
  800000    1.0005181   -2.8079472   -2.8079472   -1.6015974  0.067007156   -2.8079472    1.2063497   558340 
  801000    1.0027493   -2.8103417   -2.8103417   -1.6013018   0.05866025   -2.8103417    1.2090399   558340 
  802000    1.0025743   -2.8112539   -2.8112539   -1.6024249  0.062842178   -2.8112539    1.2088289   558340 
  803000    1.0012553   -2.8107318   -2.8107318   -1.6034933  0.057356242   -2.8107318    1.2072385   558340 
  804000    1.0020361   -2.8107592   -2.8107592   -1.6025792  0.068127108   -2.8107592      1.20818   558340 
  805000    1.0033426   -2.8118234   -2.8118234   -1.6020682  0.067612611   -2.8118234    1.2097553   558340 
  806000    1.0029001   -2.8116876   -2.8116876   -1.6024659  0.062352889   -2.8116876    1.2092217   558340 
  807000    1.0026266   -2.8112096   -2.8112096   -1.6023177  0.056296834   -2.8112096    1.2088919   558340 
  808000    1.0033242   -2.8121679   -2.8121679   -1.6024349   0.06780298   -2.8121679    1.2097331   558340 
  809000    1.0034732   -2.8131438   -2.8131438   -1.6032311  0.062070187   -2.8131438    1.2099127   558340 
  810000    1.0028359   -2.8119214   -2.8119214   -1.6027771   0.05720256   -2.8119214    1.2091443   558340 
  811000    1.0031618   -2.8116726   -2.8116726   -1.6021354  0.061947367   -2.8116726    1.2095372   558340 
  812000    1.0020038    -2.810542    -2.810542    -1.602401  0.060042185    -2.810542    1.2081411   558340 
  813000    1.0006285   -2.8088734   -2.8088734   -1.6023907   0.06730958   -2.8088734    1.2064828   558340 
  814000    1.0023083   -2.8101926   -2.8101926   -1.6016844  0.059850389   -2.8101926    1.2085082   558340 
  815000    1.0010022   -2.8096672   -2.8096672   -1.6027338  0.063636517   -2.8096672    1.2069334   558340 
  816000    1.0006458    -2.808825    -2.808825   -1.6023213  0.064801556    -2.808825    1.2065037   558340 
  817000    1.0033576   -2.8110184   -2.8110184   -1.6012451  0.059656195   -2.8110184    1.2097733   558340 
  818000    1.0017927   -2.8094542   -2.8094542   -1.6015677   0.05965025   -2.8094542    1.2078865   558340 
  819000    1.0016418   -2.8098589   -2.8098589   -1.6021543  0.058474647   -2.8098589    1.2077046   558340 
  820000    1.0018147   -2.8100836   -2.8100836   -1.6021705   0.05913491   -2.8100836    1.2079131   558340 
  821000    1.0025517   -2.8105827   -2.8105827   -1.6017811  0.053067549   -2.8105827    1.2088016   558340 
  822000    1.0022975   -2.8103877   -2.8103877   -1.6018926  0.063809479   -2.8103877    1.2084951   558340 
  823000    1.0017575   -2.8094817   -2.8094817   -1.6016376  0.068540588   -2.8094817    1.2078441   558340 
  824000    1.0025795   -2.8103109   -2.8103109   -1.6014757  0.059920458   -2.8103109    1.2088352   558340 
  825000    1.0027528   -2.8101196   -2.8101196   -1.6010755  0.058508056   -2.8101196    1.2090442   558340 
  826000    1.0020998   -2.8100485   -2.8100485   -1.6017917  0.066860005   -2.8100485    1.2082568   558340 
  827000    1.0017169   -2.8090279   -2.8090279   -1.6012328  0.061968861   -2.8090279    1.2077951   558340 
  828000    1.0005226   -2.8080449   -2.8080449   -1.6016897  0.062975914   -2.8080449    1.2063552   558340 
  829000    1.0005239   -2.8090308   -2.8090308    -1.602674   0.06050935   -2.8090308    1.2063567   558340 
  830000    1.0002423   -2.8090929   -2.8090929   -1.6030758   0.05569914   -2.8090929    1.2060171   558340 
  831000    1.0020495    -2.810522    -2.810522   -1.6023258  0.062460627    -2.810522    1.2081961   558340 
  832000    1.0004359   -2.8098182   -2.8098182   -1.6035676  0.057471063   -2.8098182    1.2062506   558340 
  833000   0.99875715   -2.8084308   -2.8084308   -1.6042043   0.05417688   -2.8084308    1.2042265   558340 
  834000    1.0007321   -2.8107998   -2.8107998   -1.6041921  0.053849593   -2.8107998    1.2066077   558340 
  835000    1.0008175   -2.8111051   -2.8111051   -1.6043944  0.053227655   -2.8111051    1.2067107   558340 
  836000    1.0001473   -2.8103662   -2.8103662   -1.6044636  0.058088155   -2.8103662    1.2059026   558340 
  837000   0.99985671   -2.8100799   -2.8100799   -1.6045276  0.061134066   -2.8100799    1.2055522   558340 
  838000    1.0009449   -2.8112506   -2.8112506   -1.6043862  0.064559004   -2.8112506    1.2068643   558340 
  839000    1.0010182   -2.8107507   -2.8107507    -1.603798   0.06552328   -2.8107507    1.2069527   558340 
  840000     1.001498   -2.8108707   -2.8108707   -1.6033396  0.063955525   -2.8108707    1.2075311   558340 
  841000   0.99966895   -2.8092847   -2.8092847   -1.6039588  0.054891658   -2.8092847    1.2053258   558340 
  842000    1.0015688   -2.8103159   -2.8103159   -1.6026994  0.059999429   -2.8103159    1.2076165   558340 
  843000    1.0009147   -2.8094606   -2.8094606   -1.6026327  0.060128032   -2.8094606    1.2068279   558340 
  844000    1.0013577   -2.8090699   -2.8090699    -1.601708  0.055506152   -2.8090699     1.207362   558340 
  845000    1.0021449   -2.8102826   -2.8102826   -1.6019715  0.056854274   -2.8102826    1.2083111   558340 
  846000    1.0002282   -2.8078062   -2.8078062   -1.6018061  0.056569554   -2.8078062    1.2060001   558340 
  847000    1.0002346   -2.8074033   -2.8074033   -1.6013954  0.064247932   -2.8074033    1.2060079   558340 
  848000   0.99994428   -2.8076572   -2.8076572   -1.6019994  0.055440631   -2.8076572    1.2056578   558340 
  849000    1.0005476   -2.8084338   -2.8084338   -1.6020486  0.063820768   -2.8084338    1.2063852   558340 
  850000    1.0013305    -2.809233    -2.809233   -1.6019038  0.055502443    -2.809233    1.2073292   558340 
  851000    1.0022583   -2.8098183   -2.8098183   -1.6013704  0.066822674   -2.8098183    1.2084479   558340 
  852000    1.0017388    -2.808248    -2.808248   -1.6004265  0.064693567    -2.808248    1.2078215   558340 
  853000    1.0014741   -2.8086477   -2.8086477   -1.6011453  0.057159275   -2.8086477    1.2075024   558340 
  854000    1.0004045   -2.8084563   -2.8084563   -1.6022436  0.055789637   -2.8084563    1.2062127   558340 
  855000    1.0025061   -2.8107214   -2.8107214   -1.6019747  0.062457643   -2.8107214    1.2087467   558340 
  856000    1.0015444    -2.809565    -2.809565   -1.6019778  0.053838445    -2.809565    1.2075872   558340 
  857000    1.0014999   -2.8098293   -2.8098293   -1.6022958  0.049844168   -2.8098293    1.2075335   558340 
  858000    1.0005358   -2.8093105   -2.8093105   -1.6029395  0.057466031   -2.8093105     1.206371   558340 
  859000   0.99994142   -2.8085655   -2.8085655   -1.6029111  0.066376629   -2.8085655    1.2056544   558340 
  860000   0.99914743   -2.8073219   -2.8073219   -1.6026249  0.060545065   -2.8073219     1.204697   558340 
  861000      1.00022   -2.8084676   -2.8084676   -1.6024774  0.054294364   -2.8084676    1.2059902   558340 
  862000      1.00072   -2.8092601   -2.8092601   -1.6026669  0.061720473   -2.8092601    1.2065932   558340 
  863000    1.0008992   -2.8108556   -2.8108556   -1.6040464  0.057151677   -2.8108556    1.2068092   558340 
  864000    1.0020028   -2.8114277   -2.8114277   -1.6032879  0.053478087   -2.8114277    1.2081399   558340 
  865000    1.0006779   -2.8101673   -2.8101673   -1.6036249  0.069933892   -2.8101673    1.2065423   558340 
  866000    1.0005765   -2.8105317   -2.8105317   -1.6041117  0.060886157   -2.8105317    1.2064201   558340 
  867000   0.99862112   -2.8074454   -2.8074454    -1.603383  0.060062581   -2.8074454    1.2040625   558340 
  868000    1.0014274   -2.8105391   -2.8105391   -1.6030931  0.051319747   -2.8105391     1.207446   558340 
  869000    1.0004753   -2.8095772   -2.8095772   -1.6032791  0.055961097   -2.8095772    1.2062981   558340 
  870000    1.0004847   -2.8107447   -2.8107447   -1.6044353  0.063087539   -2.8107447    1.2063094   558340 
  871000   0.99982154    -2.810407    -2.810407   -1.6048971  0.055741401    -2.810407    1.2055098   558340 
  872000     1.000474     -2.81227     -2.81227   -1.6059735  0.069532912     -2.81227    1.2062965   558340 
  873000    1.0016305   -2.8132386   -2.8132386   -1.6055476  0.067004204   -2.8132386     1.207691   558340 
  874000   0.99891057   -2.8098161   -2.8098161   -1.6054047  0.063769473   -2.8098161    1.2044115   558340 
  875000     1.000103   -2.8115506   -2.8115506   -1.6057013  0.066023846   -2.8115506    1.2058492   558340 
  876000   0.99933193   -2.8102912   -2.8102912   -1.6053717  0.071422062   -2.8102912    1.2049195   558340 
  877000     1.001068   -2.8112056   -2.8112056   -1.6041928  0.063210777   -2.8112056    1.2070128   558340 
  878000    1.0017264    -2.811842    -2.811842   -1.6040355  0.057186245    -2.811842    1.2078066   558340 
  879000    1.0012753   -2.8112462   -2.8112462   -1.6039834  0.065064856   -2.8112462    1.2072627   558340 
  880000    1.0007003   -2.8112156   -2.8112156   -1.6046462  0.060725673   -2.8112156    1.2065694   558340 
  881000    1.0008016   -2.8121434   -2.8121434    -1.605452  0.050738205   -2.8121434    1.2066915   558340 
  882000   0.99991112   -2.8109818   -2.8109818    -1.605364  0.065292926   -2.8109818    1.2056178   558340 
  883000    1.0021289   -2.8146632   -2.8146632   -1.6063713  0.051078138   -2.8146632    1.2082919   558340 
  884000    1.0018341   -2.8137653   -2.8137653   -1.6058289  0.064945572   -2.8137653    1.2079364   558340 
  885000    1.0005465    -2.812096    -2.812096    -1.605712  0.067116936    -2.812096    1.2063839   558340 
  886000    1.0025939   -2.8143358   -2.8143358   -1.6054832  0.060258041   -2.8143358    1.2088526   558340 
  887000    1.0028455   -2.8145606   -2.8145606   -1.6054047  0.060871915   -2.8145606    1.2091559   558340 
  888000    1.0040099   -2.8154459   -2.8154459   -1.6048861  0.069317182   -2.8154459    1.2105598   558340 
  889000    1.0018874   -2.8127974   -2.8127974   -1.6047968  0.065773339   -2.8127974    1.2080006   558340 
  890000    1.0017519   -2.8118581   -2.8118581   -1.6040209  0.060626561   -2.8118581    1.2078373   558340 
  891000    1.0019418   -2.8130557   -2.8130557   -1.6049895  0.061779338   -2.8130557    1.2080663   558340 
  892000    1.0015977   -2.8131331   -2.8131331   -1.6054817  0.058185791   -2.8131331    1.2076514   558340 
  893000    1.0003811   -2.8118796   -2.8118796   -1.6056951  0.051308195   -2.8118796    1.2061845   558340 
  894000   0.99831618   -2.8107836   -2.8107836   -1.6070888  0.058615646   -2.8107836    1.2036948   558340 
  895000   0.99880932   -2.8105578   -2.8105578   -1.6062685  0.061937988   -2.8105578    1.2042894   558340 
  896000   0.99905885   -2.8111524   -2.8111524   -1.6065622  0.051982845   -2.8111524    1.2045902   558340 
  897000   0.99909771   -2.8114094   -2.8114094   -1.6067723  0.051946195   -2.8114094    1.2046371   558340 
  898000   0.99968205   -2.8117774   -2.8117774   -1.6064358  0.059333103   -2.8117774    1.2053416   558340 
  899000   0.99908643   -2.8111302   -2.8111302   -1.6065067   0.05901935   -2.8111302    1.2046235   558340 
  900000    1.0006254   -2.8125599   -2.8125599   -1.6060808  0.062037899   -2.8125599    1.2064791   558340 
  901000    1.0004781   -2.8135776   -2.8135776   -1.6072762  0.062603576   -2.8135776    1.2063014   558340 
  902000    0.9997851   -2.8130463   -2.8130463   -1.6075804  0.056762796   -2.8130463    1.2054659   558340 
  903000     1.001895   -2.8145398   -2.8145398   -1.6065299  0.057560149   -2.8145398    1.2080098   558340 
  904000    1.0018769   -2.8149804   -2.8149804   -1.6069923  0.051102671   -2.8149804    1.2079881   558340 
  905000    1.0004108   -2.8136265   -2.8136265   -1.6074062  0.064389991   -2.8136265    1.2062203   558340 
  906000    1.0003297   -2.8139288   -2.8139288   -1.6078063  0.062608325   -2.8139288    1.2061226   558340 
  907000   0.99936604   -2.8124924   -2.8124924   -1.6075318  0.060253875   -2.8124924    1.2049606   558340 
  908000   0.99925577   -2.8121472   -2.8121472   -1.6073196  0.064070041   -2.8121472    1.2048277   558340 
  909000    1.0012053   -2.8135286   -2.8135286   -1.6063503  0.052321696   -2.8135286    1.2071782   558340 
  910000   0.99846946   -2.8112551   -2.8112551   -1.6073755  0.053944663   -2.8112551    1.2038796   558340 
  911000    0.9989825   -2.8120977   -2.8120977   -1.6075995  0.063883578   -2.8120977    1.2044982   558340 
  912000    0.9990329   -2.8132542   -2.8132542   -1.6086953  0.053792355   -2.8132542     1.204559   558340 
  913000   0.99927991    -2.813679    -2.813679   -1.6088222  0.062789198    -2.813679    1.2048568   558340 
  914000    1.0016431   -2.8153408   -2.8153408   -1.6076346  0.060075675   -2.8153408    1.2077062   558340 
  915000    1.0009138   -2.8153842   -2.8153842   -1.6085574  0.064410036   -2.8153842    1.2068268   558340 
  916000    1.0010588   -2.8152064   -2.8152064   -1.6082047  0.054339497   -2.8152064    1.2070017   558340 
  917000     1.000748   -2.8151996   -2.8151996   -1.6085726  0.070683568   -2.8151996    1.2066269   558340 
  918000    1.0003561   -2.8148658   -2.8148658   -1.6087115  0.059311276   -2.8148658    1.2061543   558340 
  919000    1.0005292   -2.8147457   -2.8147457   -1.6083826  0.057350037   -2.8147457    1.2063631   558340 
  920000   0.99982649   -2.8141139   -2.8141139   -1.6085981  0.064147209   -2.8141139    1.2055158   558340 
  921000    1.0006125   -2.8145237   -2.8145237   -1.6080601  0.061049828   -2.8145237    1.2064636   558340 
  922000   0.99923147    -2.813508    -2.813508   -1.6087096   0.05473323    -2.813508    1.2047984   558340 
  923000   0.99979282   -2.8139706   -2.8139706   -1.6084954  0.056504614   -2.8139706    1.2054752   558340 
  924000    1.0003416   -2.8133341   -2.8133341   -1.6071973  0.066439981   -2.8133341    1.2061368   558340 
  925000     1.000478   -2.8128146   -2.8128146   -1.6065132  0.059507225   -2.8128146    1.2063014   558340 
  926000    1.0000388   -2.8131221   -2.8131221   -1.6073503  0.064544235   -2.8131221    1.2057718   558340 
  927000    1.0009141   -2.8145388   -2.8145388   -1.6077116  0.058943115   -2.8145388    1.2068272   558340 
  928000   0.99992757    -2.812654    -2.812654   -1.6070163  0.069436881    -2.812654    1.2056377   558340 
  929000    1.0007934   -2.8138803   -2.8138803   -1.6071987  0.063833241   -2.8138803    1.2066816   558340 
  930000    1.0015358   -2.8147969   -2.8147969   -1.6072202   0.05448551   -2.8147969    1.2075767   558340 
  931000    1.0014773   -2.8147966   -2.8147966   -1.6072903  0.069675957   -2.8147966    1.2075063   558340 
  932000     1.001888   -2.8154336   -2.8154336   -1.6074321  0.064830322   -2.8154336    1.2080014   558340 
  933000   0.99873418    -2.812026    -2.812026   -1.6078273  0.065634957    -2.812026    1.2041988   558340 
  934000    1.0010271   -2.8144764   -2.8144764    -1.607513  0.059911057   -2.8144764    1.2069634   558340 
  935000    1.0007053   -2.8135548   -2.8135548   -1.6069794  0.056714628   -2.8135548    1.2065754   558340 
  936000   0.99831351   -2.8115657   -2.8115657   -1.6078741  0.060279343   -2.8115657    1.2036916   558340 
  937000   0.99930765   -2.8133356   -2.8133356   -1.6084454  0.057506635   -2.8133356    1.2048902   558340 
  938000   0.99911103   -2.8129456   -2.8129456   -1.6082925  0.056173807   -2.8129456    1.2046532   558340 
  939000     1.000151   -2.8149133   -2.8149133   -1.6090063  0.051181319   -2.8149133     1.205907   558340 
  940000   0.99874464   -2.8126453   -2.8126453   -1.6084339   0.05812398   -2.8126453    1.2042114   558340 
  941000    1.0004742   -2.8141569   -2.8141569   -1.6078602  0.056146727   -2.8141569    1.2062968   558340 
  942000     1.000693   -2.8154304   -2.8154304   -1.6088699  0.053645288   -2.8154304    1.2065606   558340 
  943000    1.0006329   -2.8152978   -2.8152978   -1.6088097  0.056159002   -2.8152978    1.2064881   558340 
  944000    1.0020208   -2.8178071   -2.8178071   -1.6096455  0.066577117   -2.8178071    1.2081616   558340 
  945000    1.0000547    -2.816359    -2.816359    -1.610568  0.055468517    -2.816359    1.2057909   558340 
  946000    1.0010446   -2.8170835   -2.8170835    -1.610099  0.060550395   -2.8170835    1.2069845   558340 
  947000     1.000111   -2.8158802   -2.8158802   -1.6100213   0.06079398   -2.8158802    1.2058589   558340 
  948000    1.0000938   -2.8157743   -2.8157743   -1.6099362  0.056229559   -2.8157743    1.2058381   558340 
  949000    1.0007861   -2.8164574   -2.8164574   -1.6097845  0.062064215   -2.8164574    1.2066728   558340 
  950000    1.0004092   -2.8163051   -2.8163051   -1.6100867  0.058322445   -2.8163051    1.2062183   558340 
  951000   0.99997347   -2.8163971   -2.8163971   -1.6107041  0.062288337   -2.8163971     1.205693   558340 
  952000   0.99952268   -2.8163504   -2.8163504   -1.6112009  0.054616378   -2.8163504    1.2051495   558340 
  953000    1.0006057   -2.8164302   -2.8164302   -1.6099749  0.053977802   -2.8164302    1.2064553   558340 
  954000    1.0006625   -2.8158129   -2.8158129   -1.6092891  0.065497437   -2.8158129    1.2065238   558340 
  955000    1.0012401    -2.817344    -2.817344   -1.6101238  0.055210623    -2.817344    1.2072203   558340 
  956000     1.001521   -2.8162665   -2.8162665   -1.6087076  0.062019637   -2.8162665    1.2075589   558340 
  957000    1.0016237   -2.8163819   -2.8163819   -1.6086992  0.052669677   -2.8163819    1.2076827   558340 
  958000    1.0003529   -2.8145908   -2.8145908   -1.6084403  0.059126877   -2.8145908    1.2061505   558340 
  959000     1.000873   -2.8158638   -2.8158638   -1.6090862  0.060432844   -2.8158638    1.2067776   558340 
  960000    1.0011057   -2.8155801   -2.8155801    -1.608522  0.058837802   -2.8155801    1.2070581   558340 
  961000   0.99975896   -2.8132385   -2.8132385   -1.6078041  0.061718724   -2.8132385    1.2054344   558340 
  962000   0.99965491   -2.8141601   -2.8141601   -1.6088512  0.051840581   -2.8141601    1.2053089   558340 
  963000    1.0005954   -2.8148376   -2.8148376   -1.6083948  0.062311433   -2.8148376    1.2064428   558340 
  964000    1.0007249   -2.8143224   -2.8143224   -1.6077234  0.059446499   -2.8143224     1.206599   558340 
  965000    1.0023381   -2.8170475   -2.8170475   -1.6085034  0.050617179   -2.8170475    1.2085441   558340 
  966000    1.0008832   -2.8157938   -2.8157938   -1.6090039  0.068093514   -2.8157938    1.2067899   558340 
  967000    1.0008474   -2.8163065   -2.8163065   -1.6095597  0.057475267   -2.8163065    1.2067468   558340 
  968000    1.0018037   -2.8169588   -2.8169588    -1.609059  0.061866639   -2.8169588    1.2078998   558340 
  969000    1.0004682   -2.8160912   -2.8160912   -1.6098017  0.063474466   -2.8160912    1.2062895   558340 
  970000    1.0010591   -2.8168452   -2.8168452   -1.6098432  0.064163089   -2.8168452     1.207002   558340 
  971000    1.0016891   -2.8187296   -2.8187296    -1.610968  0.060635205   -2.8187296    1.2077616   558340 
  972000    0.9994742   -2.8164605   -2.8164605   -1.6113695   0.05619512   -2.8164605     1.205091   558340 
  973000   0.99961174   -2.8157989   -2.8157989   -1.6105421  0.045588231   -2.8157989    1.2052569   558340 
  974000   0.99943316   -2.8169617   -2.8169617   -1.6119201  0.053484855   -2.8169617    1.2050416   558340 
  975000   0.99922167   -2.8165533   -2.8165533   -1.6117668  0.062702242   -2.8165533    1.2047866   558340 
  976000   0.99868548   -2.8170701   -2.8170701     -1.61293  0.072492026   -2.8170701    1.2041401   558340 
  977000   0.99986664    -2.817448    -2.817448   -1.6118838  0.064252861    -2.817448    1.2055642   558340 
  978000    1.0003061   -2.8196808   -2.8196808   -1.6135868  0.063740586   -2.8196808    1.2060941   558340 
  979000   0.99970632    -2.817826    -2.817826   -1.6124551  0.051393818    -2.817826    1.2053709   558340 
  980000   0.99928235   -2.8162006   -2.8162006   -1.6113409  0.050165971   -2.8162006    1.2048597   558340 
  981000    1.0003232   -2.8171031   -2.8171031   -1.6109883  0.062656422   -2.8171031    1.2061147   558340 
  982000    1.0004501   -2.8173646   -2.8173646   -1.6110968  0.049789958   -2.8173646    1.2062677   558340 
  983000     1.001339   -2.8176995   -2.8176995     -1.61036  0.065042067   -2.8176995    1.2073395   558340 
  984000    1.0013502     -2.81684     -2.81684   -1.6094871  0.057136557     -2.81684    1.2073529   558340 
  985000     1.001482   -2.8175304   -2.8175304   -1.6100186  0.061948862   -2.8175304    1.2075118   558340 
  986000    1.0012037   -2.8181818   -2.8181818   -1.6110056  0.052292766   -2.8181818    1.2071763   558340 
  987000    1.0013677   -2.8182359   -2.8182359   -1.6108618  0.055721038   -2.8182359    1.2073741   558340 
  988000    1.0024018      -2.8193      -2.8193   -1.6106791  0.056847864      -2.8193    1.2086209   558340 
  989000    1.0019225   -2.8187777   -2.8187777   -1.6107346  0.063782528   -2.8187777     1.208043   558340 
  990000    1.0018866    -2.818002    -2.818002   -1.6100022   0.05216879    -2.818002    1.2079998   558340 
  991000   0.99943788   -2.8154431   -2.8154431   -1.6103959   0.05851834   -2.8154431    1.2050472   558340 
  992000    1.0014578    -2.817342    -2.817342   -1.6098593  0.062213198    -2.817342    1.2074827   558340 
  993000    1.0015868    -2.816811    -2.816811   -1.6091727    0.0581863    -2.816811    1.2076382   558340 
  994000    1.0013859   -2.8172842   -2.8172842   -1.6098882   0.06176876   -2.8172842     1.207396   558340 
  995000    1.0013537   -2.8172073   -2.8172073   -1.6098501  0.062406849   -2.8172073    1.2073572   558340 
  996000    1.0013271   -2.8167051   -2.8167051     -1.60938  0.053798618   -2.8167051    1.2073251   558340 
  997000    1.0010747   -2.8169381   -2.8169381   -1.6099173  0.063826774   -2.8169381    1.2070208   558340 
  998000    1.0013355   -2.8171378   -2.8171378   -1.6098026  0.061571479   -2.8171378    1.2073353   558340 
  999000    1.0003617   -2.8171145   -2.8171145   -1.6109534  0.055780159   -2.8171145    1.2061611   558340 
 1000000    1.0000305   -2.8165715   -2.8165715   -1.6108098  0.057176147   -2.8165715    1.2057617   558340 
 1001000   0.99980698   -2.8169083   -2.8169083   -1.6114161  0.053191371   -2.8169083    1.2054923   558340 
 1002000     1.000224   -2.8174625   -2.8174625   -1.6114674   0.06611208   -2.8174625    1.2059951   558340 
 1003000   0.99961081   -2.8168005   -2.8168005   -1.6115448  0.062329463   -2.8168005    1.2052558   558340 
 1004000    1.0002944    -2.818082    -2.818082    -1.612002  0.069221089    -2.818082    1.2060799   558340 
 1005000    1.0011559   -2.8184651   -2.8184651   -1.6113464  0.059248042   -2.8184651    1.2071188   558340 
 1006000    1.0017291   -2.8191157   -2.8191157   -1.6113059  0.054619682   -2.8191157    1.2078098   558340 
 1007000    1.0020865   -2.8197476   -2.8197476   -1.6115069  0.052556452   -2.8197476    1.2082407   558340 
 1008000    1.0022667   -2.8200758   -2.8200758   -1.6116178  0.060385513   -2.8200758     1.208458   558340 
 1009000    1.0009526   -2.8186635   -2.8186635   -1.6117899  0.061924851   -2.8186635    1.2068736   558340 
 1010000    1.0006938   -2.8196797   -2.8196797   -1.6131182  0.058094474   -2.8196797    1.2065615   558340 
 1011000    1.0013363   -2.8185751   -2.8185751    -1.611239  0.063642989   -2.8185751    1.2073362   558340 
 1012000    1.0001245   -2.8179019   -2.8179019   -1.6120268  0.070540944   -2.8179019    1.2058751   558340 
 1013000    1.0015211   -2.8189992   -2.8189992   -1.6114402  0.060978377   -2.8189992     1.207559   558340 
 1014000    1.0019106    -2.818937    -2.818937   -1.6109083  0.063725022    -2.818937    1.2080287   558340 
 1015000    1.0028166   -2.8189865   -2.8189865   -1.6098655  0.056183998   -2.8189865     1.209121   558340 
 1016000    1.0024657   -2.8187162   -2.8187162   -1.6100183  0.058921112   -2.8187162    1.2086979   558340 
 1017000    1.0016033   -2.8175796   -2.8175796   -1.6099216  0.059468006   -2.8175796    1.2076581   558340 
 1018000    1.0013556   -2.8182582   -2.8182582   -1.6108987  0.062103447   -2.8182582    1.2073595   558340 
 1019000    0.9993046   -2.8177916   -2.8177916   -1.6129051  0.055611486   -2.8177916    1.2048865   558340 
 1020000   0.99851852   -2.8164263   -2.8164263   -1.6124876  0.057823709   -2.8164263    1.2039387   558340 
 1021000    0.9982075    -2.816577    -2.816577   -1.6130133  0.060962024    -2.816577    1.2035637   558340 
 1022000   0.99848123   -2.8167714   -2.8167714   -1.6128776  0.061373859   -2.8167714    1.2038938   558340 
 1023000   0.99841241   -2.8170732   -2.8170732   -1.6132624    0.0458593   -2.8170732    1.2038108   558340 
 1024000    0.9976464   -2.8154837   -2.8154837   -1.6125965  0.055644156   -2.8154837    1.2028872   558340 
 1025000   0.99787245   -2.8165532   -2.8165532   -1.6133935  0.054586929   -2.8165532    1.2031598   558340 
 1026000    0.9985747   -2.8162814   -2.8162814   -1.6122749  0.057363761   -2.8162814    1.2040065   558340 
 1027000    1.0006882   -2.8184618   -2.8184618   -1.6119071  0.064382458   -2.8184618    1.2065547   558340 
 1028000    1.0006328   -2.8180516   -2.8180516   -1.6115636   0.05952165   -2.8180516     1.206488   558340 
 1029000    1.0010529   -2.8189456   -2.8189456   -1.6119511  0.054936928   -2.8189456    1.2069945   558340 
 1030000    1.0001745   -2.8177524   -2.8177524    -1.611817  0.061139195   -2.8177524    1.2059354   558340 
 1031000    1.0025752   -2.8215511   -2.8215511   -1.6127211  0.054328377   -2.8215511    1.2088299   558340 
 1032000    1.0005378   -2.8185431   -2.8185431   -1.6121696  0.070003544   -2.8185431    1.2063735   558340 
 1033000     1.000925   -2.8186321   -2.8186321   -1.6117918  0.057863239   -2.8186321    1.2068403   558340 
 1034000    1.0019368   -2.8195526   -2.8195526   -1.6114923  0.059198694   -2.8195526    1.2080603   558340 
 1035000    1.0007627     -2.81732     -2.81732   -1.6106754  0.066843539     -2.81732    1.2066446   558340 
 1036000    1.0000068   -2.8166661   -2.8166661   -1.6109329  0.059141704   -2.8166661    1.2057332   558340 
 1037000     1.000796   -2.8168354   -2.8168354   -1.6101506  0.062010013   -2.8168354    1.2066848   558340 
 1038000     1.000864   -2.8174261   -2.8174261   -1.6106593  0.055480462   -2.8174261    1.2067668   558340 
 1039000     1.000932   -2.8174895   -2.8174895   -1.6106408  0.063108571   -2.8174895    1.2068487   558340 
 1040000   0.99945867   -2.8162826   -2.8162826   -1.6112103  0.054481386   -2.8162826    1.2050723   558340 
 1041000      1.00078   -2.8182478   -2.8182478   -1.6115823  0.059721558   -2.8182478    1.2066655   558340 
 1042000    1.0003944   -2.8173864   -2.8173864   -1.6111858  0.062692953   -2.8173864    1.2062006   558340 
 1043000    1.0003753   -2.8185015   -2.8185015    -1.612324  0.060528645   -2.8185015    1.2061775   558340 
 1044000   0.99960169   -2.8168872   -2.8168872   -1.6116425  0.061031707   -2.8168872    1.2052448   558340 
 1045000    1.0009326    -2.819446    -2.819446   -1.6125965   0.05692828    -2.819446    1.2068495   558340 
 1046000    1.0022165   -2.8212977   -2.8212977   -1.6129002   0.05761548   -2.8212977    1.2083975   558340 
 1047000    1.0032723   -2.8226012   -2.8226012   -1.6129307  0.066172179   -2.8226012    1.2096705   558340 
 1048000    1.0014778   -2.8211829   -2.8211829   -1.6136761  0.067889296   -2.8211829    1.2075068   558340 
 1049000    1.0024944   -2.8223328   -2.8223328   -1.6136002   0.05894087   -2.8223328    1.2087326   558340 
 1050000    1.0024959   -2.8230318   -2.8230318   -1.6142974  0.055027067   -2.8230318    1.2087344   558340 
 1051000    1.0004882   -2.8202176   -2.8202176    -1.613904  0.053484452   -2.8202176    1.2063136   558340 
 1052000    1.0005451   -2.8200867   -2.8200867   -1.6137044   0.05761677   -2.8200867    1.2063822   558340 
 1053000   0.99916714    -2.819236    -2.819236   -1.6145152  0.058143359    -2.819236    1.2047208   558340 
 1054000   0.99862752    -2.817632    -2.817632   -1.6135618  0.059516174    -2.817632    1.2040702   558340 
 1055000   0.99869255   -2.8179424   -2.8179424   -1.6137938  0.057030623   -2.8179424    1.2041486   558340 
 1056000   0.99814307   -2.8183268   -2.8183268   -1.6148407  0.050555148   -2.8183268    1.2034861   558340 
 1057000   0.99922301   -2.8184885   -2.8184885   -1.6137003  0.055948358   -2.8184885    1.2047882   558340 
 1058000   0.99845325   -2.8184633   -2.8184633   -1.6146032  0.060466949   -2.8184633    1.2038601   558340 
 1059000   0.99898255   -2.8193991   -2.8193991   -1.6149008  0.061452356   -2.8193991    1.2044982   558340 
 1060000   0.99949295   -2.8203941   -2.8203941   -1.6152804  0.055625563   -2.8203941    1.2051136   558340 
 1061000   0.99946124   -2.8204986   -2.8204986   -1.6154232  0.057599769   -2.8204986    1.2050754   558340 
 1062000   0.99984013   -2.8212206   -2.8212206   -1.6156884  0.054354426   -2.8212206    1.2055322   558340 
 1063000     0.999779   -2.8211664   -2.8211664   -1.6157079  0.058892191   -2.8211664    1.2054585   558340 
 1064000   0.99932611   -2.8207132   -2.8207132   -1.6158008  0.057700482   -2.8207132    1.2049125   558340 
 1065000     1.000064   -2.8223209   -2.8223209   -1.6165187  0.061749798   -2.8223209    1.2058022   558340 
 1066000    1.0004097   -2.8229161   -2.8229161   -1.6166971  0.066025399   -2.8229161     1.206219   558340 
 1067000    1.0008461   -2.8235112   -2.8235112   -1.6167661  0.061241875   -2.8235112    1.2067452   558340 
 1068000    1.0014176   -2.8234523   -2.8234523   -1.6160181  0.060251847   -2.8234523    1.2074343   558340 
 1069000    1.0005775   -2.8227438   -2.8227438   -1.6163224  0.060693051   -2.8227438    1.2064214   558340 
 1070000    1.0014615   -2.8231078   -2.8231078   -1.6156207  0.063850263   -2.8231078    1.2074872   558340 
 1071000    1.0017476   -2.8231585   -2.8231585   -1.6153263  0.055940234   -2.8231585    1.2078322   558340 
 1072000   0.99942366   -2.8201645   -2.8201645   -1.6151344  0.067176181   -2.8201645    1.2050301   558340 
 1073000   0.99991492   -2.8201973   -2.8201973   -1.6145749  0.056355933   -2.8201973    1.2056224   558340 
 1074000    1.0003515   -2.8216851   -2.8216851   -1.6155362  0.061001091   -2.8216851    1.2061488   558340 
 1075000   0.99953955   -2.8207712   -2.8207712   -1.6156014  0.059075781   -2.8207712    1.2051698   558340 
 1076000   0.99915628   -2.8198256   -2.8198256   -1.6151179  0.058550519   -2.8198256    1.2047077   558340 
 1077000   0.99863874   -2.8188261   -2.8188261   -1.6147424  0.064419009   -2.8188261    1.2040837   558340 
 1078000   0.99892246   -2.8195825   -2.8195825   -1.6151567  0.054654095   -2.8195825    1.2044258   558340 
 1079000    0.9985858   -2.8204348   -2.8204348   -1.6164149  0.052202229   -2.8204348    1.2040199   558340 
 1080000   0.99959992   -2.8214956   -2.8214956   -1.6162529  0.048668634   -2.8214956    1.2052426   558340 
 1081000   0.99951908   -2.8214126   -2.8214126   -1.6162675  0.056629181   -2.8214126    1.2051451   558340 
 1082000   0.99792037   -2.8197196   -2.8197196   -1.6165021  0.058423822   -2.8197196    1.2032175   558340 
 1083000   0.99963975   -2.8213815   -2.8213815   -1.6160909  0.054195419   -2.8213815    1.2052906   558340 
 1084000   0.99901256   -2.8212117   -2.8212117   -1.6166773  0.055212319   -2.8212117    1.2045344   558340 
 1085000   0.99921041   -2.8214004   -2.8214004   -1.6166274  0.052712113   -2.8214004     1.204773   558340 
 1086000    1.0001415   -2.8228808   -2.8228808   -1.6169852  0.054014587   -2.8228808    1.2058956   558340 
 1087000    1.0013107   -2.8241613   -2.8241613    -1.616856  0.060134157   -2.8241613    1.2073053   558340 
 1088000   0.99944379   -2.8224623   -2.8224623   -1.6174079  0.061145939   -2.8224623    1.2050544   558340 
 1089000    1.0003781   -2.8231692   -2.8231692   -1.6169883  0.062963694   -2.8231692    1.2061809   558340 
 1090000    1.0001058   -2.8225696   -2.8225696    -1.616717  0.066881655   -2.8225696    1.2058526   558340 
 1091000    1.0002836   -2.8227031   -2.8227031   -1.6166361  0.055798035   -2.8227031    1.2060669   558340 
 1092000   0.99997617   -2.8222895   -2.8222895   -1.6165932  0.065604676   -2.8222895    1.2056963   558340 
 1093000    1.0005369   -2.8238417   -2.8238417   -1.6174693  0.060678781   -2.8238417    1.2063724   558340 
 1094000   0.99957291    -2.823013    -2.823013    -1.617803   0.06183122    -2.823013    1.2052101   558340 
 1095000    1.0006795   -2.8237846   -2.8237846   -1.6172403  0.059543592   -2.8237846    1.2065443   558340 
 1096000    1.0004033   -2.8230864   -2.8230864   -1.6168751  0.061504402   -2.8230864    1.2062113   558340 
 1097000    1.0011822    -2.825002    -2.825002   -1.6178515  0.065675406    -2.825002    1.2071504   558340 
 1098000    1.0011044   -2.8256901   -2.8256901   -1.6186335  0.052500128   -2.8256901    1.2070566   558340 
 1099000    1.0005923   -2.8257586   -2.8257586   -1.6193194  0.053709643   -2.8257586    1.2064392   558340 
 1100000   0.99970662   -2.8241844   -2.8241844   -1.6188131  0.063564036   -2.8241844    1.2053713   558340 
 1101000   0.99890985   -2.8237103   -2.8237103   -1.6192997   0.06052699   -2.8237103    1.2044106   558340 
 1102000   0.99891265   -2.8235183   -2.8235183   -1.6191043  0.058981084   -2.8235183     1.204414   558340 
 1103000   0.99751628   -2.8211932   -2.8211932   -1.6184629  0.053252592   -2.8211932    1.2027303   558340 
 1104000     1.000116    -2.825241    -2.825241   -1.6193761  0.062023138    -2.825241    1.2058649   558340 
 1105000    1.0004265   -2.8248447   -2.8248447   -1.6186054  0.071706961   -2.8248447    1.2062393   558340 
 1106000    1.0002383   -2.8246903   -2.8246903   -1.6186779  0.060583891   -2.8246903    1.2060124   558340 
 1107000    1.0002182   -2.8252333   -2.8252333   -1.6192452  0.064161237   -2.8252333    1.2059881   558340 
 1108000     1.000949   -2.8258868   -2.8258868   -1.6190176  0.060022137   -2.8258868    1.2068693   558340 
 1109000    1.0003045   -2.8248868   -2.8248868   -1.6187946  0.050485983   -2.8248868    1.2060922   558340 
 1110000    1.0006412   -2.8254948   -2.8254948   -1.6189967  0.050684795   -2.8254948    1.2064981   558340 
 1111000   0.99991968   -2.8241549   -2.8241549   -1.6185267  0.058085474   -2.8241549    1.2056282   558340 
 1112000   0.99933096   -2.8233878   -2.8233878   -1.6184695  0.059208653   -2.8233878    1.2049183   558340 
 1113000   0.99937597   -2.8237239   -2.8237239   -1.6187513  0.057487406   -2.8237239    1.2049726   558340 
 1114000   0.99911926   -2.8234676   -2.8234676   -1.6188045  0.050261646   -2.8234676    1.2046631   558340 
 1115000   0.99917729   -2.8233034   -2.8233034   -1.6185703  0.053902851   -2.8233034     1.204733   558340 
 1116000   0.99892947   -2.8226893   -2.8226893    -1.618255  0.054212574   -2.8226893    1.2044342   558340 
 1117000    1.0006413    -2.824735    -2.824735   -1.6182368  0.048794802    -2.824735    1.2064982   558340 
 1118000    1.0006265   -2.8253599   -2.8253599   -1.6188795   0.06565003   -2.8253599    1.2064804   558340 
 1119000   0.99966863   -2.8244616   -2.8244616   -1.6191361  0.058357822   -2.8244616    1.2053255   558340 
 1120000    1.0005491   -2.8251669   -2.8251669   -1.6187798  0.048280593   -2.8251669    1.2063871   558340 
 1121000   0.99976988   -2.8234468   -2.8234468   -1.6179992  0.066327341   -2.8234468    1.2054475   558340 
 1122000    1.0003151    -2.824264    -2.824264   -1.6181592  0.064417749    -2.824264    1.2061049   558340 
 1123000   0.99972315   -2.8235805   -2.8235805   -1.6181893   0.06785869   -2.8235805    1.2053912   558340 
 1124000   0.99963492   -2.8241003   -2.8241003   -1.6188154  0.058764366   -2.8241003    1.2052848   558340 
 1125000   0.99962681   -2.8244078   -2.8244078   -1.6191328  0.060201992   -2.8244078     1.205275   558340 
 1126000   0.99976137   -2.8250247   -2.8250247   -1.6195874   0.06541674   -2.8250247    1.2054373   558340 
 1127000    1.0010054    -2.826291    -2.826291   -1.6193538  0.055786439    -2.826291    1.2069372   558340 
 1128000   0.99927244    -2.825119    -2.825119   -1.6202712  0.055241293    -2.825119    1.2048478   558340 
 1129000   0.99974257   -2.8246973   -2.8246973   -1.6192827  0.051907887   -2.8246973    1.2054146   558340 
 1130000    1.0020601   -2.8262409   -2.8262409    -1.618032  0.056881684   -2.8262409    1.2082089   558340 
 1131000    1.0024806   -2.8258911   -2.8258911   -1.6171751  0.052267441   -2.8258911     1.208716   558340 
 1132000    1.0000301   -2.8247726   -2.8247726   -1.6190113  0.064010251   -2.8247726    1.2057613   558340 
 1133000    1.0002561   -2.8254201   -2.8254201   -1.6193862  0.067448095   -2.8254201    1.2060338   558340 
 1134000    1.0003553   -2.8247048   -2.8247048   -1.6185513  0.069276504   -2.8247048    1.2061534   558340 
 1135000   0.99967815   -2.8246712   -2.8246712   -1.6193343  0.052929487   -2.8246712    1.2053369   558340 
 1136000    1.0017938   -2.8277848   -2.8277848    -1.619897  0.060313694   -2.8277848    1.2078878   558340 
 1137000   0.99998912   -2.8262857   -2.8262857   -1.6205738  0.062565128   -2.8262857    1.2057119   558340 
 1138000   0.99888373   -2.8250503   -2.8250503   -1.6206712  0.057861375   -2.8250503    1.2043791   558340 
 1139000   0.99743284   -2.8235358   -2.8235358   -1.6209061  0.063453463   -2.8235358    1.2026297   558340 
 1140000   0.99950676    -2.826567    -2.826567   -1.6214367   0.06480342    -2.826567    1.2051303   558340 
 1141000     1.000111   -2.8259944   -2.8259944   -1.6201356  0.064294638   -2.8259944    1.2058588   558340 
 1142000    0.9978898   -2.8237847   -2.8237847    -1.620604  0.062867805   -2.8237847    1.2031807   558340 
 1143000   0.99828347   -2.8230968   -2.8230968   -1.6194415  0.053299911   -2.8230968    1.2036553   558340 
 1144000    1.0021839   -2.8278154   -2.8278154   -1.6194572  0.055128214   -2.8278154    1.2083581   558340 
 1145000    1.0000856   -2.8253821   -2.8253821   -1.6195539  0.064831181   -2.8253821    1.2058282   558340 
 1146000    1.0004376   -2.8263967   -2.8263967    -1.620144  0.044248894   -2.8263967    1.2062527   558340 
 1147000   0.99930126   -2.8246131   -2.8246131   -1.6197306   0.06347476   -2.8246131    1.2048825   558340 
 1148000    1.0022411   -2.8269979   -2.8269979   -1.6185707  0.062167106   -2.8269979    1.2084272   558340 
 1149000    1.0022201   -2.8256259   -2.8256259   -1.6172241  0.061274209   -2.8256259    1.2084019   558340 
 1150000    1.0016567   -2.8243479   -2.8243479   -1.6166253  0.058143126   -2.8243479    1.2077226   558340 
 1151000    1.0009937   -2.8244869   -2.8244869   -1.6175637  0.065396417   -2.8244869    1.2069231   558340 
 1152000    1.0015278   -2.8254098   -2.8254098   -1.6178427  0.055835347   -2.8254098    1.2075671   558340 
 1153000    1.0030864   -2.8276825   -2.8276825   -1.6182361  0.054194381   -2.8276825    1.2094463   558340 
 1154000    1.0031733   -2.8274567   -2.8274567   -1.6179057   0.06553424   -2.8274567    1.2095511   558340 
 1155000    1.0020827   -2.8263797   -2.8263797   -1.6181435  0.057548208   -2.8263797    1.2082362   558340 
 1156000    1.0034027   -2.8283909   -2.8283909   -1.6185632  0.063886226   -2.8283909    1.2098277   558340 
 1157000    1.0013407   -2.8256861   -2.8256861   -1.6183445  0.058339112   -2.8256861    1.2073415   558340 
 1158000    1.0000328   -2.8250597   -2.8250597   -1.6192951  0.052125527   -2.8250597    1.2057645   558340 
 1159000     1.000496   -2.8260047   -2.8260047   -1.6196817  0.052089412   -2.8260047     1.206323   558340 
 1160000   0.99925616   -2.8236006   -2.8236006   -1.6187725  0.048641579   -2.8236006    1.2048281   558340 
 1161000   0.99988173    -2.825337    -2.825337   -1.6197546  0.052272539    -2.825337    1.2055824   558340 
 1162000   0.99853496   -2.8232058   -2.8232058   -1.6192473   0.04735074   -2.8232058    1.2039586   558340 
 1163000   0.99951849   -2.8245333   -2.8245333   -1.6193889  0.057637523   -2.8245333    1.2051444   558340 
 1164000    1.0002129   -2.8248717   -2.8248717     -1.61889  0.059341601   -2.8248717    1.2059817   558340 
 1165000     1.000392   -2.8253299   -2.8253299   -1.6191322  0.056227995   -2.8253299    1.2061977   558340 
 1166000    1.0007981   -2.8259659   -2.8259659   -1.6192787  0.067412369   -2.8259659    1.2066873   558340 
 1167000    1.0003993   -2.8268209   -2.8268209   -1.6206144  0.053669996   -2.8268209    1.2062065   558340 
 1168000   0.99976406   -2.8259498   -2.8259498   -1.6205093  0.062480706   -2.8259498    1.2054405   558340 
 1169000   0.99980718   -2.8267381   -2.8267381   -1.6212455  0.057778751   -2.8267381    1.2054925   558340 
 1170000    1.0006582   -2.8271023   -2.8271023   -1.6205836  0.054581893   -2.8271023    1.2065186   558340 
 1171000    0.9999062   -2.8276067   -2.8276067   -1.6219948   0.06138367   -2.8276067    1.2056119   558340 
 1172000   0.99888541   -2.8265452   -2.8265452   -1.6221641   0.05671032   -2.8265452    1.2043811   558340 
 1173000    1.0000208    -2.827992    -2.827992   -1.6222419   0.06196891    -2.827992    1.2057501   558340 
 1174000      1.00024   -2.8280832   -2.8280832   -1.6220688   0.05790032   -2.8280832    1.2060144   558340 
 1175000     1.000619   -2.8290839   -2.8290839   -1.6226126  0.058898835   -2.8290839    1.2064713   558340 
 1176000    1.0008123   -2.8295147   -2.8295147   -1.6228102  0.057757027   -2.8295147    1.2067044   558340 
 1177000   0.99944364   -2.8284009   -2.8284009   -1.6233468  0.056263889   -2.8284009    1.2050542   558340 
 1178000   0.99962288   -2.8300397   -2.8300397   -1.6247694  0.066376877   -2.8300397    1.2052703   558340 
 1179000    0.9997341   -2.8303611   -2.8303611   -1.6249567  0.061467576   -2.8303611    1.2054044   558340 
 1180000   0.99838416   -2.8288359   -2.8288359   -1.6250592  0.063529519   -2.8288359    1.2037768   558340 
 1181000    1.0000816   -2.8304974   -2.8304974   -1.6246741   0.05043168   -2.8304974    1.2058233   558340 
 1182000   0.99878486   -2.8286273   -2.8286273   -1.6243674  0.062103152   -2.8286273    1.2042599   558340 
 1183000     1.001161   -2.8307228   -2.8307228   -1.6235979  0.062956958   -2.8307228    1.2071249   558340 
 1184000    1.0005507   -2.8306628   -2.8306628   -1.6242737  0.061689426   -2.8306628     1.206389   558340 
 1185000   0.99961979   -2.8289386   -2.8289386    -1.623672  0.059438209   -2.8289386    1.2052666   558340 
 1186000    1.0010036   -2.8307337   -2.8307337   -1.6237987  0.061413119   -2.8307337     1.206935   558340 
 1187000    1.0006943   -2.8313105   -2.8313105   -1.6247483  0.056812797   -2.8313105    1.2065622   558340 
 1188000   0.99880579   -2.8292988   -2.8292988   -1.6250137  0.066943479   -2.8292988    1.2042851   558340 
 1189000    1.0016646   -2.8315507   -2.8315507   -1.6238186  0.051531828   -2.8315507    1.2077321   558340 
 1190000   0.99917118   -2.8296101   -2.8296101   -1.6248844  0.058321508   -2.8296101    1.2047257   558340 
 1191000   0.99903018   -2.8299728   -2.8299728   -1.6254171  0.059638116   -2.8299728    1.2045557   558340 
 1192000    0.9998971   -2.8301419   -2.8301419    -1.624541  0.064548346   -2.8301419    1.2056009   558340 
 1193000    1.0009143   -2.8316471   -2.8316471   -1.6248197  0.065175028   -2.8316471    1.2068274   558340 
 1194000    1.0007928   -2.8312787   -2.8312787   -1.6245977  0.055891489   -2.8312787    1.2066809   558340 
 1195000    1.0010743   -2.8312074   -2.8312074   -1.6241871  0.063117461   -2.8312074    1.2070203   558340 
 1196000   0.99930426    -2.829395    -2.829395   -1.6245089   0.06000839    -2.829395    1.2048861   558340 
 1197000   0.99769447   -2.8282218   -2.8282218   -1.6252766  0.062568079   -2.8282218    1.2029452   558340 
 1198000   0.99977076   -2.8302248   -2.8302248   -1.6247762  0.059943056   -2.8302248    1.2054486   558340 
 1199000    1.0000283   -2.8308873   -2.8308873   -1.6251282  0.060403952   -2.8308873    1.2057591   558340 
 1200000    1.0006998    -2.830929    -2.830929   -1.6243602  0.056719828    -2.830929    1.2065688   558340 
 1201000    1.0002964   -2.8313276   -2.8313276   -1.6252451  0.061374597   -2.8313276    1.2060824   558340 
 1202000    1.0008144   -2.8313613   -2.8313613   -1.6246544  0.058019736   -2.8313613    1.2067069   558340 
 1203000    1.0015345   -2.8314766   -2.8314766   -1.6239014  0.067861543   -2.8314766    1.2075752   558340 
 1204000    1.0006636   -2.8309482   -2.8309482   -1.6244231  0.065224665   -2.8309482    1.2065251   558340 
 1205000    1.0024222   -2.8320217   -2.8320217   -1.6233762  0.058470958   -2.8320217    1.2086455   558340 
 1206000    1.0004612    -2.830107    -2.830107   -1.6238259  0.059087628    -2.830107    1.2062811   558340 
 1207000    1.0013654   -2.8307186   -2.8307186   -1.6233473   0.06488515   -2.8307186    1.2073713   558340 
 1208000   0.99920136   -2.8284999   -2.8284999   -1.6237379  0.063810071   -2.8284999    1.2047621   558340 
 1209000    1.0005089   -2.8301353   -2.8301353   -1.6237967  0.054831623   -2.8301353    1.2063386   558340 
 1210000    1.0008036   -2.8300115   -2.8300115   -1.6233175  0.058267389   -2.8300115     1.206694   558340 
 1211000     1.000091   -2.8305726   -2.8305726   -1.6247379   0.05275519   -2.8305726    1.2058347   558340 
 1212000   0.99918682   -2.8289901   -2.8289901   -1.6242456  0.058928239   -2.8289901    1.2047445   558340 
 1213000   0.99983046   -2.8300984   -2.8300984   -1.6245778  0.064183966   -2.8300984    1.2055206   558340 
 1214000   0.99931929   -2.8297441   -2.8297441   -1.6248398  0.053239174   -2.8297441    1.2049043   558340 
 1215000   0.99770635   -2.8284971   -2.8284971   -1.6255376  0.054486874   -2.8284971    1.2029595   558340 
 1216000    1.0000745   -2.8311411   -2.8311411   -1.6253263  0.052272668   -2.8311411    1.2058148   558340 
 1217000   0.99985188   -2.8306236   -2.8306236   -1.6250772  0.054205069   -2.8306236    1.2055464   558340 
 1218000   0.99929287   -2.8303829   -2.8303829   -1.6255105  0.055676348   -2.8303829    1.2048724   558340 
 1219000   0.99880921   -2.8298089   -2.8298089   -1.6255196  0.062608591   -2.8298089    1.2042892   558340 
 1220000    1.0005147   -2.8313794   -2.8313794   -1.6250337  0.050747143   -2.8313794    1.2063456   558340 
 1221000    0.9986284   -2.8297687   -2.8297687   -1.6256975  0.059817492   -2.8297687    1.2040712   558340 
 1222000   0.99987702   -2.8305228   -2.8305228   -1.6249461  0.049475279   -2.8305228    1.2055767   558340 
 1223000    0.9968118   -2.8277388   -2.8277388   -1.6258579  0.057702666   -2.8277388    1.2018809   558340 
 1224000   0.99807468   -2.8289824   -2.8289824   -1.6255788  0.058323691   -2.8289824    1.2034036   558340 
 1225000   0.99912464   -2.8288901   -2.8288901   -1.6242205  0.053234613   -2.8288901    1.2046696   558340 
 1226000   0.99860564   -2.8291696   -2.8291696   -1.6251258  0.058086419   -2.8291696    1.2040438   558340 
 1227000     1.001012   -2.8314763   -2.8314763   -1.6245312  0.053307307   -2.8314763    1.2069451   558340 
 1228000   0.99934781   -2.8299004   -2.8299004   -1.6249618  0.064124066   -2.8299004    1.2049386   558340 
 1229000   0.99991109   -2.8304286   -2.8304286   -1.6248108  0.055724578   -2.8304286    1.2056178   558340 
 1230000    1.0009654   -2.8311178   -2.8311178   -1.6242288  0.059590674   -2.8311178     1.206889   558340 
 1231000     1.001311   -2.8323105   -2.8323105   -1.6250048  0.063589714   -2.8323105    1.2073057   558340 
 1232000    1.0003225   -2.8307127   -2.8307127   -1.6245988  0.063036987   -2.8307127    1.2061139   558340 
 1233000    1.0018727   -2.8326008   -2.8326008   -1.6246178  0.068788461   -2.8326008     1.207983   558340 
 1234000    1.0000518   -2.8299008   -2.8299008   -1.6241133  0.057947961   -2.8299008    1.2057874   558340 
 1235000    1.0010261   -2.8313803   -2.8313803   -1.6244181  0.055696022   -2.8313803    1.2069622   558340 
 1236000    1.0011643   -2.8316485   -2.8316485   -1.6245197  0.063069313   -2.8316485    1.2071288   558340 
 1237000   0.99983645   -2.8303566   -2.8303566   -1.6248288   0.06347014   -2.8303566    1.2055278   558340 
 1238000   0.99822116   -2.8288007   -2.8288007   -1.6252205   0.06167229   -2.8288007    1.2035802   558340 
 1239000    1.0018311   -2.8331073   -2.8331073   -1.6251745  0.057097953   -2.8331073    1.2079328   558340 
 1240000    1.0021591   -2.8331871   -2.8331871   -1.6248588  0.070263738   -2.8331871    1.2083283   558340 
 1241000    1.0009168   -2.8311161   -2.8311161   -1.6242857  0.057188272   -2.8311161    1.2068304   558340 
 1242000    0.9992741   -2.8296201   -2.8296201   -1.6247703  0.063381629   -2.8296201    1.2048498   558340 
 1243000   0.99882183   -2.8291759   -2.8291759   -1.6248714  0.052217325   -2.8291759    1.2043045   558340 
 1244000   0.99970847   -2.8299273   -2.8299273   -1.6245538  0.055077208   -2.8299273    1.2053735   558340 
 1245000   0.99952348    -2.830075    -2.830075   -1.6249246  0.061038049    -2.830075    1.2051505   558340 
 1246000   0.99949385   -2.8301829   -2.8301829   -1.6250682  0.066410675   -2.8301829    1.2051147   558340 
 1247000    1.0003003   -2.8313404   -2.8313404   -1.6252533  0.052158438   -2.8313404    1.2060871   558340 
 1248000    1.0015368   -2.8325961   -2.8325961   -1.6250182  0.054102158   -2.8325961    1.2075779   558340 
 1249000    1.0029572   -2.8341268   -2.8341268   -1.6248362  0.059371241   -2.8341268    1.2092906   558340 
 1250000     1.000046   -2.8315814   -2.8315814    -1.625801  0.061561758   -2.8315814    1.2057804   558340 
 1251000    1.0015561   -2.8330104   -2.8330104   -1.6254093   0.05574544   -2.8330104    1.2076012   558340 
 1252000    1.0015807   -2.8344423   -2.8344423   -1.6268115  0.059355621   -2.8344423    1.2076308   558340 
 1253000   0.99984161   -2.8328329   -2.8328329   -1.6272989  0.062797272   -2.8328329     1.205534   558340 
 1254000   0.99951599    -2.832427    -2.832427   -1.6272855   0.06095509    -2.832427    1.2051414   558340 
 1255000   0.99935871   -2.8324981   -2.8324981   -1.6275463  0.059881651   -2.8324981    1.2049518   558340 
 1256000    0.9998653   -2.8325446   -2.8325446    -1.626982  0.060285185   -2.8325446    1.2055626   558340 
 1257000   0.99899606    -2.832774    -2.832774   -1.6282595  0.059154581    -2.832774    1.2045145   558340 
 1258000     1.000432   -2.8339311   -2.8339311   -1.6276852  0.060187401   -2.8339311    1.2062459   558340 
 1259000    1.0005607   -2.8336495   -2.8336495   -1.6272484  0.057233368   -2.8336495    1.2064011   558340 
 1260000    1.0010668   -2.8344537   -2.8344537   -1.6274424  0.067531349   -2.8344537    1.2070112   558340 
 1261000    1.0005237   -2.8333872   -2.8333872   -1.6270307  0.055669587   -2.8333872    1.2063565   558340 
 1262000    1.0007462   -2.8342913   -2.8342913   -1.6276665  0.055117114   -2.8342913    1.2066248   558340 
 1263000    1.0021463   -2.8359802   -2.8359802   -1.6276673  0.056057442   -2.8359802    1.2083129   558340 
 1264000    1.0008679   -2.8342984   -2.8342984   -1.6275269  0.056348373   -2.8342984    1.2067715   558340 
 1265000    1.0018249   -2.8357461   -2.8357461   -1.6278207  0.059746937   -2.8357461    1.2079254   558340 
 1266000   0.99988329    -2.833198    -2.833198   -1.6276137  0.073782046    -2.833198    1.2055843   558340 
 1267000   0.99996134   -2.8338013   -2.8338013   -1.6281229  0.061234619   -2.8338013    1.2056784   558340 
 1268000    1.0023702   -2.8368819   -2.8368819   -1.6282991  0.058675892   -2.8368819    1.2085828   558340 
 1269000   0.99937145   -2.8338547   -2.8338547   -1.6288876   0.06521787   -2.8338547    1.2049672   558340 
 1270000   0.99987121   -2.8352516   -2.8352516   -1.6296819  0.054220791   -2.8352516    1.2055697   558340 
 1271000    1.0001686   -2.8354485   -2.8354485   -1.6295202  0.060837534   -2.8354485    1.2059283   558340 
 1272000    1.0000507   -2.8346656   -2.8346656   -1.6288795  0.056981126   -2.8346656    1.2057862   558340 
 1273000     1.000157   -2.8357831   -2.8357831   -1.6298688  0.061013055   -2.8357831    1.2059143   558340 
 1274000   0.99893123   -2.8340316   -2.8340316   -1.6295952   0.05757972   -2.8340316    1.2044364   558340 
 1275000    1.0005233    -2.835134    -2.835134   -1.6287781  0.058570389    -2.835134    1.2063559   558340 
 1276000    1.0015865   -2.8360741   -2.8360741   -1.6284362  0.057316309   -2.8360741    1.2076379   558340 
 1277000    1.0011646   -2.8352192   -2.8352192   -1.6280901  0.071198525   -2.8352192    1.2071291   558340 
 1278000   0.99898701   -2.8334303   -2.8334303   -1.6289267  0.070227732   -2.8334303    1.2045036   558340 
 1279000    1.0014253   -2.8351363   -2.8351363   -1.6276927  0.059095525   -2.8351363    1.2074435   558340 
 1280000    1.0008236   -2.8346128   -2.8346128   -1.6278948  0.051121296   -2.8346128     1.206718   558340 
 1281000    1.0004142   -2.8344174   -2.8344174   -1.6281931  0.058746423   -2.8344174    1.2062244   558340 
 1282000    1.0002285    -2.834263    -2.834263   -1.6282626  0.059734411    -2.834263    1.2060005   558340 
 1283000   0.99932058   -2.8334624   -2.8334624   -1.6285566  0.060544387   -2.8334624    1.2049058   558340 
 1284000    1.0013909   -2.8348667   -2.8348667   -1.6274646  0.072381584   -2.8348667    1.2074021   558340 
 1285000   0.99994285   -2.8335685   -2.8335685   -1.6279125  0.062124955   -2.8335685    1.2056561   558340 
 1286000    1.0006507   -2.8353288   -2.8353288   -1.6288192  0.063154186   -2.8353288    1.2065096   558340 
 1287000    1.0009948   -2.8355559   -2.8355559   -1.6286314  0.067423475   -2.8355559    1.2069245   558340 
 1288000    1.0006435   -2.8351534   -2.8351534   -1.6286525  0.058849441   -2.8351534    1.2065009   558340 
 1289000    1.0004186   -2.8344968   -2.8344968   -1.6282671  0.068862398   -2.8344968    1.2062297   558340 
 1290000    1.0002191   -2.8344831   -2.8344831   -1.6284939  0.062632042   -2.8344831    1.2059891   558340 
 1291000    1.0003566   -2.8354993   -2.8354993   -1.6293444  0.052781122   -2.8354993    1.2061549   558340 
 1292000   0.99835042   -2.8345853   -2.8345853   -1.6308493   0.05172582   -2.8345853    1.2037361   558340 
 1293000   0.99873109   -2.8343595   -2.8343595   -1.6301644  0.045466778   -2.8343595     1.204195   558340 
 1294000    0.9994607   -2.8356143   -2.8356143   -1.6305395  0.049031884   -2.8356143    1.2050748   558340 
 1295000   0.99889202   -2.8361654   -2.8361654   -1.6317764  0.053375955   -2.8361654    1.2043891   558340 
 1296000   0.99793968    -2.834932    -2.834932   -1.6316911  0.057610833    -2.834932    1.2032408   558340 
 1297000    1.0007038   -2.8369049   -2.8369049   -1.6303313  0.060135474   -2.8369049    1.2065736   558340 
 1298000   0.99991526   -2.8359764   -2.8359764   -1.6303535  0.053472935   -2.8359764    1.2056228   558340 
 1299000   0.99870606   -2.8354034   -2.8354034   -1.6312386  0.065496636   -2.8354034    1.2041649   558340 
 1300000   0.99962493   -2.8368556   -2.8368556   -1.6315828  0.060857901   -2.8368556    1.2052728   558340 
 1301000     1.000937   -2.8379168   -2.8379168    -1.631062  0.057849912   -2.8379168    1.2068548   558340 
 1302000    1.0003863   -2.8376455   -2.8376455   -1.6314547  0.062279751   -2.8376455    1.2061908   558340 
 1303000     1.000333   -2.8384171   -2.8384171   -1.6322906  0.062632271   -2.8384171    1.2061265   558340 
 1304000    1.0004139   -2.8380351   -2.8380351    -1.631811  0.062941148   -2.8380351    1.2062241   558340 
 1305000    1.0004088   -2.8375946   -2.8375946   -1.6313766   0.05698746   -2.8375946     1.206218   558340 
 1306000    1.0006759   -2.8380956   -2.8380956   -1.6315556  0.069078912   -2.8380956    1.2065399   558340 
 1307000    1.0008178   -2.8379798   -2.8379798   -1.6312687  0.065735704   -2.8379798    1.2067111   558340 
 1308000    0.9998342   -2.8382119   -2.8382119   -1.6326868  0.054818918   -2.8382119    1.2055251   558340 
 1309000   0.99988964   -2.8380901   -2.8380901   -1.6324981  0.065577813   -2.8380901    1.2055919   558340 
 1310000   0.99975663   -2.8383078   -2.8383078   -1.6328762  0.072668754   -2.8383078    1.2054316   558340 
 1311000   0.99992429   -2.8384598   -2.8384598    -1.632826  0.070881362   -2.8384598    1.2056337   558340 
 1312000   0.99883612    -2.837022    -2.837022   -1.6327003   0.06474584    -2.837022    1.2043217   558340 
 1313000   0.99940488   -2.8378783   -2.8378783   -1.6328709  0.066912085   -2.8378783    1.2050074   558340 
 1314000    1.0017466   -2.8414322   -2.8414322   -1.6336012  0.057291914   -2.8414322     1.207831   558340 
 1315000   0.99918343    -2.838386    -2.838386   -1.6336455  0.062222295    -2.838386    1.2047405   558340 
 1316000    0.9997779   -2.8396073   -2.8396073   -1.6341501  0.070114325   -2.8396073    1.2054572   558340 
 1317000    0.9998954    -2.839808    -2.839808   -1.6342091  0.060339128    -2.839808    1.2055989   558340 
 1318000    1.0005724   -2.8412606   -2.8412606   -1.6348455  0.055334353   -2.8412606    1.2064151   558340 
 1319000    1.0000186   -2.8391312   -2.8391312   -1.6333837  0.074002749   -2.8391312    1.2057475   558340 
 1320000   0.99923622   -2.8381586   -2.8381586   -1.6333545   0.06690087   -2.8381586    1.2048041   558340 
 1321000    1.0001614    -2.838534    -2.838534   -1.6326145  0.065448482    -2.838534    1.2059196   558340 
 1322000    1.0009369   -2.8406145   -2.8406145   -1.6337598  0.052982713   -2.8406145    1.2068547   558340 
 1323000   0.99914048   -2.8379719   -2.8379719   -1.6332832  0.067560124   -2.8379719    1.2046887   558340 
 1324000   0.99920137   -2.8388948   -2.8388948   -1.6341328  0.056888343   -2.8388948    1.2047621   558340 
 1325000   0.99955353   -2.8386728   -2.8386728   -1.6334861  0.059837351   -2.8386728    1.2051867   558340 
 1326000   0.99917471   -2.8380866   -2.8380866   -1.6333566  0.068329421   -2.8380866    1.2047299   558340 
 1327000    1.0001441     -2.83893     -2.83893   -1.6330312   0.05800718     -2.83893    1.2058988   558340 
 1328000   0.99806146    -2.837634    -2.837634   -1.6342463  0.061769343    -2.837634    1.2033877   558340 
 1329000   0.99852989   -2.8382398   -2.8382398   -1.6342873  0.070635346   -2.8382398    1.2039525   558340 
 1330000   0.99785075   -2.8384337   -2.8384337   -1.6353001  0.066344412   -2.8384337    1.2031336   558340 
 1331000   0.99797306   -2.8378471   -2.8378471    -1.634566  0.057539673   -2.8378471    1.2032811   558340 
 1332000    0.9989784   -2.8378602   -2.8378602    -1.633367   0.05512841   -2.8378602    1.2044932   558340 
 1333000   0.99911349   -2.8389464   -2.8389464   -1.6342903  0.053583197   -2.8389464    1.2046561   558340 
 1334000   0.99888468   -2.8395736   -2.8395736   -1.6351934  0.058895609   -2.8395736    1.2043802   558340 
 1335000   0.99955865   -2.8403201   -2.8403201   -1.6351273  0.061528973   -2.8403201    1.2051929   558340 
 1336000   0.99821491   -2.8383616   -2.8383616   -1.6347889  0.056540772   -2.8383616    1.2035727   558340 
 1337000   0.99903415   -2.8385284   -2.8385284   -1.6339679   0.05973595   -2.8385284    1.2045605   558340 
 1338000   0.99964296   -2.8384501   -2.8384501   -1.6331556  0.059254139   -2.8384501    1.2052945   558340 
 1339000    1.0009231   -2.8397849   -2.8397849   -1.6329469   0.05939557   -2.8397849     1.206838   558340 
 1340000    1.0011469   -2.8400676   -2.8400676   -1.6329597  0.063075803   -2.8400676    1.2071078   558340 
 1341000   0.99977608   -2.8381293   -2.8381293   -1.6326742  0.068137436   -2.8381293     1.205455   558340 
 1342000    1.0003066   -2.8389322   -2.8389322   -1.6328375  0.068963972   -2.8389322    1.2060947   558340 
 1343000    1.0012479   -2.8394903   -2.8394903   -1.6322607  0.070096097   -2.8394903    1.2072296   558340 
 1344000   0.99954923   -2.8381569   -2.8381569   -1.6329754  0.071851552   -2.8381569    1.2051815   558340 
 1345000   0.99980304   -2.8387028   -2.8387028   -1.6332153  0.065978472   -2.8387028    1.2054875   558340 
 1346000    1.0011658   -2.8400921   -2.8400921   -1.6329614  0.067108787   -2.8400921    1.2071307   558340 
 1347000    1.0012633   -2.8399591   -2.8399591    -1.632711   0.06148887   -2.8399591    1.2072482   558340 
 1348000    1.0005653   -2.8389808   -2.8389808   -1.6325741  0.054323142   -2.8389808    1.2064066   558340 
 1349000     1.002487   -2.8404308   -2.8404308   -1.6317072  0.067298367   -2.8404308    1.2087236   558340 
 1350000   0.99985329   -2.8386697   -2.8386697   -1.6331215   0.05912911   -2.8386697    1.2055481   558340 
 1351000   0.99997224   -2.8385665   -2.8385665   -1.6328749  0.059953137   -2.8385665    1.2056915   558340 
 1352000    0.9993135   -2.8393489   -2.8393489   -1.6344516  0.065312626   -2.8393489    1.2048973   558340 
 1353000    1.0002525   -2.8392876   -2.8392876   -1.6332582  0.068797559   -2.8392876    1.2060295   558340 
 1354000   0.99887079   -2.8389327   -2.8389327   -1.6345692  0.060123662   -2.8389327    1.2043635   558340 
 1355000    1.0002477   -2.8385528   -2.8385528   -1.6325292  0.066983133   -2.8385528    1.2060236   558340 
 1356000    1.0011843   -2.8392156   -2.8392156   -1.6320626  0.061353438   -2.8392156    1.2071529   558340 
 1357000    1.0006473   -2.8391154   -2.8391154   -1.6326099  0.056088367   -2.8391154    1.2065055   558340 
 1358000    1.0001235   -2.8379284   -2.8379284   -1.6320545  0.059499465   -2.8379284    1.2058739   558340 
 1359000   0.99923824    -2.836536    -2.836536   -1.6317294  0.059368153    -2.836536    1.2048065   558340 
 1360000   0.99948217   -2.8367237   -2.8367237    -1.631623  0.064246998   -2.8367237    1.2051006   558340 
 1361000    0.9995048   -2.8377661   -2.8377661   -1.6326382  0.055306856   -2.8377661    1.2051279   558340 
 1362000   0.99980208   -2.8377754   -2.8377754    -1.632289  0.069186304   -2.8377754    1.2054864   558340 
 1363000   0.99963781   -2.8369769   -2.8369769   -1.6316886  0.060003457   -2.8369769    1.2052883   558340 
 1364000   0.99943402   -2.8381116   -2.8381116    -1.633069  0.048823898   -2.8381116    1.2050426   558340 
 1365000     1.000501   -2.8386009   -2.8386009   -1.6322719  0.050879901   -2.8386009     1.206329   558340 
 1366000   0.99845531   -2.8369282   -2.8369282   -1.6330656  0.067551009   -2.8369282    1.2038625   558340 
 1367000   0.99877692   -2.8365151   -2.8365151   -1.6322647  0.068313773   -2.8365151    1.2042503   558340 
 1368000    0.9980438   -2.8364113   -2.8364113   -1.6330449   0.06597326   -2.8364113    1.2033664   558340 
 1369000   0.99805876   -2.8361176   -2.8361176   -1.6327331  0.059393391   -2.8361176    1.2033844   558340 
 1370000   0.99828081   -2.8365931   -2.8365931    -1.632941  0.052946443   -2.8365931    1.2036521   558340 
 1371000   0.99825682   -2.8358429   -2.8358429   -1.6322197  0.062867866   -2.8358429    1.2036232   558340 
 1372000   0.99894984   -2.8373307   -2.8373307   -1.6328719    0.0660646   -2.8373307    1.2044588   558340 
 1373000   0.99912635   -2.8372917   -2.8372917   -1.6326201  0.058464027   -2.8372917    1.2046716   558340 
 1374000   0.99964572   -2.8374848   -2.8374848    -1.632187  0.068063612   -2.8374848    1.2052978   558340 
 1375000    1.0009636   -2.8390744   -2.8390744   -1.6321876  0.063196048   -2.8390744    1.2068868   558340 
 1376000    1.0000488   -2.8381128   -2.8381128    -1.632329  0.050309317   -2.8381128    1.2057838   558340 
 1377000    1.0008152     -2.83791     -2.83791   -1.6312022  0.068253528     -2.83791    1.2067079   558340 
 1378000    1.0011919    -2.839438    -2.839438    -1.632276  0.064376942    -2.839438    1.2071621   558340 
 1379000   0.99942883   -2.8375851   -2.8375851   -1.6325488  0.063562514   -2.8375851    1.2050363   558340 
 1380000    1.0010306   -2.8399051   -2.8399051   -1.6329375  0.061082351   -2.8399051    1.2069676   558340 
 1381000   0.99917138   -2.8377008   -2.8377008   -1.6329749  0.061227659   -2.8377008    1.2047259   558340 
 1382000   0.99991572   -2.8382145   -2.8382145   -1.6325911  0.060473379   -2.8382145    1.2056234   558340 
 1383000   0.99970816   -2.8382837   -2.8382837   -1.6329105  0.065196616   -2.8382837    1.2053731   558340 
 1384000     1.000466   -2.8402517   -2.8402517   -1.6339649  0.064193605   -2.8402517    1.2062869   558340 
 1385000   0.99979542   -2.8391927   -2.8391927   -1.6337144  0.063731943   -2.8391927    1.2054783   558340 
 1386000   0.99844012   -2.8372931   -2.8372931   -1.6334489  0.067958067   -2.8372931    1.2038442   558340 
 1387000    1.0001898   -2.8391897   -2.8391897   -1.6332359  0.055052499   -2.8391897    1.2059538   558340 
 1388000    1.0005675   -2.8392116   -2.8392116   -1.6328023  0.048611858   -2.8392116    1.2064093   558340 
 1389000       1.0005   -2.8389029   -2.8389029   -1.6325751  0.067634489   -2.8389029    1.2063279   558340 
 1390000     1.001465   -2.8393972   -2.8393972   -1.6319058  0.062974653   -2.8393972    1.2074914   558340 
 1391000    1.0015884   -2.8397749   -2.8397749   -1.6321347   0.06341753   -2.8397749    1.2076402   558340 
 1392000    1.0014502   -2.8394429   -2.8394429   -1.6319694  0.057188262   -2.8394429    1.2074736   558340 
 1393000     1.002513   -2.8404287   -2.8404287   -1.6316737  0.052697146   -2.8404287     1.208755   558340 
 1394000    1.0008496   -2.8382737   -2.8382737   -1.6315244  0.066235283   -2.8382737    1.2067493   558340 
 1395000    1.0024744   -2.8406125   -2.8406125    -1.631904  0.055077238   -2.8406125    1.2087085   558340 
 1396000    1.0010482   -2.8394417   -2.8394417   -1.6324528  0.065305413   -2.8394417    1.2069889   558340 
 1397000     1.000722   -2.8394479   -2.8394479   -1.6328523  0.068523022   -2.8394479    1.2065956   558340 
 1398000    1.0001755   -2.8395578   -2.8395578   -1.6336211  0.062178466   -2.8395578    1.2059366   558340 
 1399000   0.99982194    -2.838418    -2.838418   -1.6329077  0.061790102    -2.838418    1.2055103   558340 
 1400000     1.001042   -2.8398086   -2.8398086   -1.6328273  0.054383277   -2.8398086    1.2069813   558340 
 1401000   0.99873544    -2.838146    -2.838146   -1.6339457  0.062608768    -2.838146    1.2042003   558340 
 1402000   0.99849017   -2.8374742   -2.8374742   -1.6335696  0.056103278   -2.8374742    1.2039046   558340 
 1403000    1.0000058   -2.8388585   -2.8388585   -1.6331265   0.05939986   -2.8388585     1.205732   558340 
 1404000   0.99920117   -2.8379926   -2.8379926   -1.6332308  0.062555945   -2.8379926    1.2047618   558340 
 1405000   0.99970722   -2.8390821   -2.8390821   -1.6337101  0.053031547   -2.8390821     1.205372   558340 
 1406000   0.99888151   -2.8379696   -2.8379696   -1.6335932  0.060227142   -2.8379696    1.2043764   558340 
 1407000   0.99899457   -2.8376708   -2.8376708   -1.6331581  0.066610604   -2.8376708    1.2045127   558340 
 1408000    0.9995845   -2.8383061   -2.8383061   -1.6330821  0.052981062   -2.8383061     1.205224   558340 
 1409000   0.99892292   -2.8384099   -2.8384099   -1.6339836  0.074884664   -2.8384099    1.2044263   558340 
 1410000   0.99854596   -2.8376922   -2.8376922   -1.6337203   0.05663789   -2.8376922    1.2039718   558340 
 1411000    1.0013626   -2.8385945   -2.8385945   -1.6312266  0.050962853   -2.8385945    1.2073679   558340 
 1412000   0.99979756   -2.8368953   -2.8368953   -1.6314144  0.057845052   -2.8368953    1.2054809   558340 
 1413000   0.99932092   -2.8362178   -2.8362178   -1.6313115  0.061989185   -2.8362178    1.2049062   558340 
 1414000    1.0005669   -2.8373088   -2.8373088   -1.6309003  0.069916016   -2.8373088    1.2064086   558340 
 1415000    1.0007218   -2.8381351   -2.8381351   -1.6315398  0.062631796   -2.8381351    1.2065953   558340 
 1416000    1.0005447   -2.8386462   -2.8386462   -1.6322644  0.050722181   -2.8386462    1.2063818   558340 
 1417000    1.0009806   -2.8397258   -2.8397258   -1.6328184  0.065055235   -2.8397258    1.2069074   558340 
 1418000    1.0011593   -2.8394995   -2.8394995   -1.6323767  0.061423784   -2.8394995    1.2071228   558340 
 1419000    1.0005442   -2.8386754   -2.8386754   -1.6322942  0.067090427   -2.8386754    1.2063812   558340 
 1420000    1.0004073   -2.8381744   -2.8381744   -1.6319583  0.061025205   -2.8381744    1.2062161   558340 
 1421000     1.000582   -2.8381441   -2.8381441   -1.6317173  0.063965966   -2.8381441    1.2064268   558340 
 1422000    1.0003344   -2.8376637   -2.8376637   -1.6315355  0.070749663   -2.8376637    1.2061282   558340 
 1423000    1.0006069   -2.8380913   -2.8380913   -1.6316345  0.056183114   -2.8380913    1.2064568   558340 
 1424000   0.99953961   -2.8378483   -2.8378483   -1.6326784  0.063575638   -2.8378483    1.2051699   558340 
 1425000    1.0002393   -2.8383089   -2.8383089   -1.6322954  0.052766032   -2.8383089    1.2060136   558340 
 1426000   0.99940958    -2.838524    -2.838524   -1.6335109  0.051822563    -2.838524    1.2050131   558340 
 1427000   0.99725889   -2.8355484   -2.8355484   -1.6331285  0.067901001   -2.8355484      1.20242   558340 
 1428000   0.99934807   -2.8382751   -2.8382751   -1.6333362  0.055841184   -2.8382751     1.204939   558340 
 1429000   0.99878067   -2.8367262   -2.8367262   -1.6324713   0.06146344   -2.8367262    1.2042548   558340 
 1430000   0.99976996   -2.8384056   -2.8384056    -1.632958  0.057136587   -2.8384056    1.2054476   558340 
 1431000   0.99914245   -2.8385173   -2.8385173   -1.6338263  0.065677394   -2.8385173     1.204691   558340 
 1432000    1.0012277   -2.8396999   -2.8396999   -1.6324946  0.061928062   -2.8396999    1.2072053   558340 
 1433000    1.0009116   -2.8388897   -2.8388897   -1.6320655  0.061734708   -2.8388897    1.2068242   558340 
 1434000    1.0004292   -2.8378709   -2.8378709   -1.6316283  0.064107703   -2.8378709    1.2062426   558340 
 1435000    1.0008748   -2.8390129   -2.8390129   -1.6322331  0.057659296   -2.8390129    1.2067798   558340 
 1436000    1.0010798   -2.8390534   -2.8390534   -1.6320264  0.063585188   -2.8390534     1.207027   558340 
 1437000    1.0003309   -2.8386876   -2.8386876   -1.6325636  0.062989093   -2.8386876     1.206124   558340 
 1438000    0.9997715   -2.8385249   -2.8385249   -1.6330754  0.058337524   -2.8385249    1.2054495   558340 
 1439000   0.99892375   -2.8373704   -2.8373704   -1.6329431  0.060032815   -2.8373704    1.2044273   558340 
 1440000    1.0010022   -2.8390963   -2.8390963    -1.632163  0.065012216   -2.8390963    1.2069334   558340 
 1441000   0.99907104   -2.8388329   -2.8388329    -1.634228  0.059033686   -2.8388329    1.2046049   558340 
 1442000    0.9980432   -2.8369335   -2.8369335   -1.6335679  0.062576099   -2.8369335    1.2033656   558340 
 1443000   0.99908002   -2.8381394   -2.8381394   -1.6335237  0.062270935   -2.8381394    1.2046158   558340 
 1444000   0.99973415   -2.8389819   -2.8389819   -1.6335774  0.063192317   -2.8389819    1.2054045   558340 
 1445000    1.0001883    -2.838491    -2.838491   -1.6325389  0.056429271    -2.838491    1.2059521   558340 
 1446000     1.001291   -2.8397556   -2.8397556   -1.6324741  0.058300781   -2.8397556    1.2072816   558340 
 1447000    1.0000947   -2.8384327   -2.8384327   -1.6325936  0.057660238   -2.8384327    1.2058392   558340 
 1448000   0.99938273   -2.8370006   -2.8370006   -1.6320198  0.067658068   -2.8370006    1.2049807   558340 
 1449000    1.0021969   -2.8401908   -2.8401908    -1.631817  0.054452852   -2.8401908    1.2083739   558340 
 1450000    1.0013604   -2.8381434   -2.8381434   -1.6307781  0.062978002   -2.8381434    1.2073653   558340 
 1451000    1.0023252   -2.8389059   -2.8389059   -1.6303773  0.065760346   -2.8389059    1.2085286   558340 
 1452000    1.0017012   -2.8372008   -2.8372008   -1.6294246  0.062886606   -2.8372008    1.2077761   558340 
 1453000    1.0021372   -2.8388082   -2.8388082   -1.6305062  0.063626418   -2.8388082    1.2083019   558340 
 1454000    1.0017525   -2.8382191   -2.8382191   -1.6303811  0.064681397   -2.8382191     1.207838   558340 
 1455000    1.0010826   -2.8374853   -2.8374853    -1.630455  0.054830123   -2.8374853    1.2070303   558340 
 1456000   0.99959185   -2.8368401   -2.8368401   -1.6316072  0.063358317   -2.8368401    1.2052329   558340 
 1457000    1.0006163   -2.8372105   -2.8372105   -1.6307424   0.07781826   -2.8372105    1.2064681   558340 
 1458000   0.99994225   -2.8373858   -2.8373858   -1.6317305  0.061716727   -2.8373858    1.2056554   558340 
 1459000    1.0002816   -2.8375728   -2.8375728   -1.6315082  0.057937838   -2.8375728    1.2060646   558340 
 1460000   0.99794489   -2.8353098   -2.8353098   -1.6320627  0.061981321   -2.8353098    1.2032471   558340 
 1461000   0.99923639   -2.8355263   -2.8355263    -1.630722  0.063276279   -2.8355263    1.2048043   558340 
 1462000   0.99852423   -2.8354409   -2.8354409   -1.6314952  0.070412423   -2.8354409    1.2039456   558340 
 1463000    1.0002687    -2.838284    -2.838284    -1.632235  0.059090542    -2.838284     1.206049   558340 
 1464000   0.99895127   -2.8360062   -2.8360062   -1.6315457  0.062089839   -2.8360062    1.2044605   558340 
 1465000    0.9995913   -2.8374088   -2.8374088   -1.6321766  0.051598959   -2.8374088    1.2052322   558340 
 1466000   0.99817232   -2.8356967   -2.8356967   -1.6321754  0.060178212   -2.8356967    1.2035213   558340 
 1467000   0.99944305   -2.8367321   -2.8367321   -1.6316786  0.056078961   -2.8367321    1.2050535   558340 
 1468000   0.99847488   -2.8363152   -2.8363152   -1.6324291  0.064593789   -2.8363152    1.2038861   558340 
 1469000    0.9993947   -2.8370339   -2.8370339   -1.6320387  0.053769544   -2.8370339    1.2049952   558340 
 1470000   0.99948205    -2.836536    -2.836536   -1.6314355  0.058186951    -2.836536    1.2051005   558340 
 1471000    1.0015625   -2.8386836   -2.8386836   -1.6310747  0.055041933   -2.8386836    1.2076089   558340 
 1472000    1.0015832   -2.8389052   -2.8389052   -1.6312713  0.057025332   -2.8389052    1.2076339   558340 
 1473000    1.0009182   -2.8370504   -2.8370504   -1.6302183  0.068582519   -2.8370504    1.2068321   558340 
 1474000    1.0007029   -2.8373815   -2.8373815   -1.6308091  0.066611662   -2.8373815    1.2065725   558340 
 1475000    1.0001686   -2.8373747   -2.8373747   -1.6314464  0.066914252   -2.8373747    1.2059283   558340 
 1476000    0.9999863   -2.8359251   -2.8359251   -1.6302167   0.06516038   -2.8359251    1.2057085   558340 
 1477000    0.9995282   -2.8357887   -2.8357887   -1.6306326  0.066605865   -2.8357887    1.2051561   558340 
 1478000    1.0015194   -2.8379924   -2.8379924   -1.6304354  0.057011051   -2.8379924     1.207557   558340 
 1479000    1.0014804   -2.8382975   -2.8382975   -1.6307875  0.062592107   -2.8382975      1.20751   558340 
 1480000    1.0018702    -2.839362    -2.839362   -1.6313821  0.059144951    -2.839362      1.20798   558340 
 1481000   0.99932611   -2.8372706   -2.8372706   -1.6323581  0.062654067   -2.8372706    1.2049125   558340 
 1482000   0.99929775   -2.8373137   -2.8373137   -1.6324354  0.065504054   -2.8373137    1.2048783   558340 
 1483000    1.0000751   -2.8389577   -2.8389577   -1.6331421  0.064825688   -2.8389577    1.2058156   558340 
 1484000   0.99777472   -2.8364031   -2.8364031   -1.6333611  0.067289683   -2.8364031    1.2030419   558340 
 1485000   0.99951361     -2.83856     -2.83856   -1.6334215  0.060656611     -2.83856    1.2051386   558340 
 1486000    1.0002802    -2.839761    -2.839761   -1.6336982  0.061526624    -2.839761    1.2060628   558340 
 1487000   0.99977508   -2.8392513   -2.8392513   -1.6337975  0.062687973   -2.8392513    1.2054538   558340 
 1488000   0.99991448   -2.8399081   -2.8399081   -1.6342862  0.054451438   -2.8399081    1.2056219   558340 
 1489000    1.0016857   -2.8410401   -2.8410401   -1.6332826  0.060884905   -2.8410401    1.2077575   558340 
 1490000   0.99990358   -2.8393147   -2.8393147    -1.633706  0.054312481   -2.8393147    1.2056088   558340 
 1491000    1.0005519    -2.839715    -2.839715   -1.6333246   0.05982609    -2.839715    1.2063905   558340 
 1492000    1.0009868   -2.8403118   -2.8403118    -1.633397  0.062594713   -2.8403118    1.2069148   558340 
 1493000    1.0018011   -2.8415189   -2.8415189   -1.6336223  0.072304036   -2.8415189    1.2078966   558340 
 1494000      1.00186   -2.8411965   -2.8411965   -1.6332289   0.06797547   -2.8411965    1.2079676   558340 
 1495000    1.0004499   -2.8406941   -2.8406941   -1.6344266  0.057009009   -2.8406941    1.2062675   558340 
 1496000    1.0012029   -2.8417636   -2.8417636   -1.6345882  0.060538072   -2.8417636    1.2071754   558340 
 1497000    1.0008139    -2.841269    -2.841269   -1.6345627  0.055728765    -2.841269    1.2067063   558340 
 1498000   0.99964135    -2.840252    -2.840252   -1.6349594  0.069839092    -2.840252    1.2052926   558340 
 1499000    1.0024175   -2.8417082   -2.8417082   -1.6330683   0.05109889   -2.8417082    1.2086399   558340 
 1500000    1.0010223   -2.8396156   -2.8396156   -1.6326579   0.06891722   -2.8396156    1.2069576   558340 
 1501000   0.99896469   -2.8381833   -2.8381833   -1.6337066  0.065856286   -2.8381833    1.2044767   558340 
 1502000     1.000345   -2.8384164   -2.8384164   -1.6322754  0.067164108   -2.8384164     1.206141   558340 
 1503000    1.0008765   -2.8404097   -2.8404097   -1.6336278  0.053106851   -2.8404097    1.2067819   558340 
 1504000    0.9989655   -2.8387518   -2.8387518   -1.6342741  0.063336415   -2.8387518    1.2044777   558340 
 1505000   0.99943073    -2.840383    -2.840383   -1.6353444  0.057695266    -2.840383    1.2050386   558340 
 1506000   0.99897437   -2.8406447   -2.8406447   -1.6361563  0.056526668   -2.8406447    1.2044884   558340 
 1507000   0.99815489   -2.8397842   -2.8397842   -1.6362839  0.062426581   -2.8397842    1.2035003   558340 
 1508000   0.99998766   -2.8415068   -2.8415068   -1.6357967  0.060457329   -2.8415068    1.2057101   558340 
 1509000   0.99914642   -2.8402152   -2.8402152   -1.6355193  0.064627779   -2.8402152    1.2046958   558340 
 1510000    1.0002377   -2.8407684   -2.8407684   -1.6347568  0.059001097   -2.8407684    1.2060116   558340 
 1511000    1.0009764   -2.8415669   -2.8415669   -1.6346647  0.061195931   -2.8415669    1.2069023   558340 
 1512000   0.99961675   -2.8397462   -2.8397462   -1.6344833  0.055090011   -2.8397462    1.2052629   558340 
 1513000    1.0007443   -2.8411567   -2.8411567   -1.6345343  0.066550717   -2.8411567    1.2066224   558340 
 1514000    1.0004908   -2.8397043   -2.8397043   -1.6333875  0.062380504   -2.8397043    1.2063168   558340 
 1515000   0.99990541   -2.8404422   -2.8404422   -1.6348312  0.060226901   -2.8404422     1.205611   558340 
 1516000     1.000411   -2.8408402   -2.8408402   -1.6346197  0.065375662   -2.8408402    1.2062205   558340 
 1517000   0.99921809   -2.8395552   -2.8395552    -1.634773  0.067562061   -2.8395552    1.2047822   558340 
 1518000    1.0002843   -2.8408383   -2.8408383   -1.6347705  0.064225849   -2.8408383    1.2060678   558340 
 1519000   0.99886967    -2.839093    -2.839093   -1.6347308   0.07097498    -2.839093    1.2043621   558340 
 1520000    1.0009616   -2.8405707   -2.8405707   -1.6336862  0.064425415   -2.8405707    1.2068845   558340 
 1521000    1.0007112   -2.8393485   -2.8393485    -1.632766  0.061306275   -2.8393485    1.2065826   558340 
 1522000    1.0004747   -2.8384186   -2.8384186   -1.6321212  0.075972446   -2.8384186    1.2062973   558340 
 1523000   0.99965444   -2.8387009   -2.8387009   -1.6333925  0.062351072   -2.8387009    1.2053084   558340 
 1524000   0.99921944   -2.8378245   -2.8378245   -1.6330406  0.062504912   -2.8378245    1.2047839   558340 
 1525000    1.0003959   -2.8398244   -2.8398244   -1.6336221  0.067325581   -2.8398244    1.2062023   558340 
 1526000   0.99938046   -2.8380967   -2.8380967   -1.6331187  0.063175819   -2.8380967     1.204978   558340 
 1527000    1.0015268   -2.8401323   -2.8401323   -1.6325665  0.062966591   -2.8401323    1.2075659   558340 
 1528000    1.0013095    -2.839748    -2.839748   -1.6324441  0.056794573    -2.839748     1.207304   558340 
 1529000    1.0012993   -2.8398767   -2.8398767   -1.6325851  0.064050877   -2.8398767    1.2072916   558340 
 1530000    1.0005788   -2.8381876   -2.8381876   -1.6317648  0.068598302   -2.8381876    1.2064229   558340 
 1531000    1.0014032   -2.8383553   -2.8383553   -1.6309384  0.066306882   -2.8383553    1.2074169   558340 
 1532000    1.0007231   -2.8385105   -2.8385105   -1.6319136  0.074671032   -2.8385105    1.2065968   558340 
 1533000   0.99963476   -2.8375433   -2.8375433   -1.6322587  0.067936581   -2.8375433    1.2052846   558340 
 1534000    1.0000988   -2.8382892   -2.8382892   -1.6324451  0.048926841   -2.8382892    1.2058442   558340 
 1535000   0.99894316   -2.8369286   -2.8369286   -1.6324779  0.058528446   -2.8369286    1.2044507   558340 
 1536000   0.99799339   -2.8368249   -2.8368249   -1.6335193  0.049499066   -2.8368249    1.2033056   558340 
 1537000   0.99939074   -2.8371508   -2.8371508   -1.6321604  0.065978086   -2.8371508    1.2049904   558340 
 1538000    1.0003375   -2.8385557   -2.8385557   -1.6324237  0.077822058   -2.8385557     1.206132   558340 
 1539000   0.99921346   -2.8376552   -2.8376552   -1.6328785  0.062553323   -2.8376552    1.2047767   558340 
 1540000    1.0008134   -2.8393232   -2.8393232   -1.6326175  0.054372029   -2.8393232    1.2067057   558340 
 1541000   0.99940055   -2.8379643   -2.8379643    -1.632962  0.063942087   -2.8379643    1.2050022   558340 
 1542000   0.99950479   -2.8378824   -2.8378824   -1.6327545  0.065532343   -2.8378824    1.2051279   558340 
 1543000   0.99968307   -2.8381389   -2.8381389    -1.632796  0.061583414   -2.8381389    1.2053429   558340 
 1544000   0.99797758   -2.8353745   -2.8353745    -1.632088  0.059064094   -2.8353745    1.2032865   558340 
 1545000   0.99874029   -2.8370685   -2.8370685   -1.6328624  0.061755132   -2.8370685    1.2042061   558340 
 1546000   0.99896771   -2.8370335   -2.8370335   -1.6325532  0.057631113   -2.8370335    1.2044803   558340 
 1547000   0.99828491   -2.8355544   -2.8355544   -1.6318973  0.071674954   -2.8355544    1.2036571   558340 
 1548000   0.99955008   -2.8384593   -2.8384593   -1.6332767  0.054086113   -2.8384593    1.2051825   558340 
 1549000   0.99861062   -2.8368449   -2.8368449   -1.6327951  0.062510538   -2.8368449    1.2040498   558340 
 1550000   0.99846039   -2.8367222   -2.8367222   -1.6328535  0.071455459   -2.8367222    1.2038687   558340 
 1551000    1.0008601   -2.8391256   -2.8391256   -1.6323635  0.054319877   -2.8391256    1.2067621   558340 
 1552000   0.99912022   -2.8360219   -2.8360219   -1.6313577  0.064380352   -2.8360219    1.2046642   558340 
 1553000    1.0009543   -2.8379322   -2.8379322   -1.6310565  0.062618691   -2.8379322    1.2068756   558340 
 1554000   0.99992297   -2.8371047   -2.8371047   -1.6314726  0.066863315   -2.8371047    1.2056321   558340 
 1555000    1.0020214   -2.8390606   -2.8390606   -1.6308984  0.061867389   -2.8390606    1.2081622   558340 
 1556000   0.99878275   -2.8354737   -2.8354737   -1.6312164  0.071747075   -2.8354737    1.2042573   558340 
 1557000    1.0024001   -2.8388481   -2.8388481   -1.6302293  0.054232084   -2.8388481    1.2086189   558340 
 1558000     1.001285   -2.8377761   -2.8377761   -1.6305017  0.063324177   -2.8377761    1.2072744   558340 
 1559000     1.000337   -2.8374083   -2.8374083    -1.631277  0.058935356   -2.8374083    1.2061313   558340 
 1560000    1.0013549   -2.8380844   -2.8380844   -1.6307258  0.068760359   -2.8380844    1.2073586   558340 
 1561000    1.0002223   -2.8365476   -2.8365476   -1.6305546  0.070544976   -2.8365476     1.205993   558340 
 1562000   0.99886779   -2.8363173   -2.8363173   -1.6319574   0.07170826   -2.8363173    1.2043599   558340 
 1563000   0.99939151   -2.8363774   -2.8363774    -1.631386   0.05600405   -2.8363774    1.2049913   558340 
 1564000   0.99843229   -2.8353361   -2.8353361   -1.6315014  0.064265599   -2.8353361    1.2038348   558340 
 1565000   0.99848375   -2.8355272   -2.8355272   -1.6316304  0.063647737   -2.8355272    1.2038968   558340 
 1566000      0.99925    -2.836918    -2.836918   -1.6320973  0.062174521    -2.836918    1.2048207   558340 
 1567000   0.99928965   -2.8375448   -2.8375448   -1.6326763  0.056113289   -2.8375448    1.2048685   558340 
 1568000   0.99950961    -2.837997    -2.837997   -1.6328633  0.055972254    -2.837997    1.2051337   558340 
 1569000   0.99789165    -2.836918    -2.836918   -1.6337351  0.057282378    -2.836918    1.2031829   558340 
 1570000   0.99928434   -2.8379594   -2.8379594   -1.6330973  0.063746749   -2.8379594    1.2048621   558340 
 1571000   0.99916371   -2.8375852   -2.8375852   -1.6328686  0.058751314   -2.8375852    1.2047167   558340 
 1572000   0.99903306    -2.837549    -2.837549   -1.6329899   0.05777933    -2.837549    1.2045591   558340 
 1573000    0.9990461   -2.8377714   -2.8377714   -1.6331965    0.0661308   -2.8377714    1.2045749   558340 
 1574000   0.99959272   -2.8372671   -2.8372671   -1.6320332  0.060004724   -2.8372671    1.2052339   558340 
 1575000   0.99997514   -2.8379096   -2.8379096   -1.6322145  0.069422243   -2.8379096     1.205695   558340 
 1576000    1.0019943   -2.8397064   -2.8397064   -1.6315768  0.065692464   -2.8397064    1.2081296   558340 
 1577000    1.0001395   -2.8378854   -2.8378854   -1.6319922  0.058713564   -2.8378854    1.2058932   558340 
 1578000   0.99986707   -2.8390036   -2.8390036   -1.6334389  0.066457574   -2.8390036    1.2055647   558340 
 1579000   0.99935757   -2.8385353   -2.8385353   -1.6335849  0.064687244   -2.8385353    1.2049504   558340 
 1580000   0.99974134   -2.8386206   -2.8386206   -1.6332074  0.051618504   -2.8386206    1.2054131   558340 
 1581000    0.9980428   -2.8364878   -2.8364878   -1.6331227   0.06449492   -2.8364878    1.2033652   558340 
 1582000   0.99981488   -2.8388534   -2.8388534   -1.6333516  0.065415415   -2.8388534    1.2055018   558340 
 1583000   0.99994443   -2.8386252   -2.8386252   -1.6329672  0.073369379   -2.8386252     1.205658   558340 
 1584000   0.99983018   -2.8390887   -2.8390887   -1.6335685  0.062517994   -2.8390887    1.2055202   558340 
 1585000   0.99989147    -2.839483    -2.839483   -1.6338888  0.055717378    -2.839483    1.2055942   558340 
 1586000    1.0001554   -2.8397109   -2.8397109   -1.6337985  0.053748653   -2.8397109    1.2059124   558340 
 1587000    1.0012632   -2.8409106   -2.8409106   -1.6336626  0.056729358   -2.8409106     1.207248   558340 
 1588000     1.000844   -2.8404801   -2.8404801   -1.6337374  0.060646956   -2.8404801    1.2067426   558340 
 1589000    1.0000225   -2.8393521   -2.8393521   -1.6336001  0.052057891   -2.8393521    1.2057521   558340 
 1590000    1.0005132   -2.8395902   -2.8395902   -1.6332464  0.064696219   -2.8395902    1.2063438   558340 
 1591000    1.0017727   -2.8412855   -2.8412855   -1.6334231  0.057304599   -2.8412855    1.2078624   558340 
 1592000    0.9997277   -2.8386403   -2.8386403   -1.6332436  0.071278683   -2.8386403    1.2053967   558340 
 1593000    1.0011248   -2.8400097   -2.8400097   -1.6329285  0.068341682   -2.8400097    1.2070812   558340 
 1594000    0.9999282   -2.8387334   -2.8387334   -1.6330949  0.064299958   -2.8387334    1.2056384   558340 
 1595000   0.99946856   -2.8381167   -2.8381167   -1.6330324  0.061391639   -2.8381167    1.2050842   558340 
 1596000    1.0012176    -2.840479    -2.840479   -1.6332858  0.066488736    -2.840479    1.2071931   558340 
 1597000   0.99988903   -2.8391612   -2.8391612   -1.6335699  0.068543981   -2.8391612    1.2055912   558340 
 1598000   0.99919013   -2.8383551   -2.8383551   -1.6336066  0.068495549   -2.8383551    1.2047485   558340 
 1599000     1.000089   -2.8383796   -2.8383796   -1.6325473  0.066950437   -2.8383796    1.2058323   558340 
 1600000    1.0013805   -2.8404021   -2.8404021   -1.6330125   0.06834086   -2.8404021    1.2073896   558340 
 1601000    1.0021423   -2.8412338   -2.8412338   -1.6329257  0.060362849   -2.8412338     1.208308   558340 
 1602000   0.99959131    -2.838483    -2.838483   -1.6332507  0.057842897    -2.838483    1.2052322   558340 
 1603000   0.99953452   -2.8379372   -2.8379372   -1.6327734  0.066321028   -2.8379372    1.2051638   558340 
 1604000   0.99983349   -2.8384813   -2.8384813   -1.6329571   0.05044452   -2.8384813    1.2055242   558340 
 1605000   0.99910677   -2.8375414   -2.8375414   -1.6328933  0.061683908   -2.8375414     1.204648   558340 
 1606000   0.99953495   -2.8366784   -2.8366784   -1.6315141   0.05665418   -2.8366784    1.2051643   558340 
 1607000    1.0011509   -2.8388043   -2.8388043   -1.6316916  0.059177044   -2.8388043    1.2071127   558340 
 1608000   0.99877216   -2.8361671   -2.8361671   -1.6319225  0.059320759   -2.8361671    1.2042446   558340 
 1609000   0.99964784    -2.836498    -2.836498   -1.6311976  0.051389506    -2.836498    1.2053004   558340 
 1610000    0.9993322   -2.8360865   -2.8360865   -1.6311667  0.063064923   -2.8360865    1.2049198   558340 
 1611000    1.0000777   -2.8364774   -2.8364774   -1.6306587  0.057245911   -2.8364774    1.2058187   558340 
 1612000   0.99948594   -2.8355709   -2.8355709   -1.6304657  0.073009695   -2.8355709    1.2051052   558340 
 1613000    1.0003944   -2.8362738   -2.8362738   -1.6300732  0.059366674   -2.8362738    1.2062005   558340 
 1614000    1.0001214   -2.8366628   -2.8366628   -1.6307915  0.056796292   -2.8366628    1.2058714   558340 
 1615000   0.99896335   -2.8367821   -2.8367821    -1.632307  0.064986293   -2.8367821    1.2044751   558340 
 1616000   0.99965726   -2.8377529   -2.8377529   -1.6324412  0.063502712   -2.8377529    1.2053118   558340 
 1617000   0.99984149   -2.8368147   -2.8368147   -1.6312808  0.056240052   -2.8368147    1.2055339   558340 
 1618000    1.0000035   -2.8363516   -2.8363516   -1.6306224  0.055617691   -2.8363516    1.2057293   558340 
 1619000     1.000028   -2.8369738   -2.8369738   -1.6312151  0.068631545   -2.8369738    1.2057587   558340 
 1620000   0.99972009    -2.836009    -2.836009   -1.6306215  0.069568723    -2.836009    1.2053875   558340 
 1621000   0.99988979   -2.8363161   -2.8363161   -1.6307239  0.064964792   -2.8363161    1.2055921   558340 
 1622000   0.99948105   -2.8361204   -2.8361204   -1.6310211  0.057435035   -2.8361204    1.2050993   558340 
 1623000   0.99900248    -2.835992    -2.835992   -1.6314697  0.069850244    -2.835992    1.2045223   558340 
 1624000   0.99821403   -2.8350289   -2.8350289   -1.6314573  0.055017164   -2.8350289    1.2035716   558340 
 1625000   0.99859293   -2.8349544   -2.8349544   -1.6309259  0.066366104   -2.8349544    1.2040285   558340 
 1626000    1.0003891   -2.8370895   -2.8370895   -1.6308953  0.064103802   -2.8370895    1.2061942   558340 
 1627000   0.99970966   -2.8375569   -2.8375569    -1.632182  0.068512546   -2.8375569    1.2053749   558340 
 1628000    1.0010843   -2.8391409   -2.8391409   -1.6321085  0.068068974   -2.8391409    1.2070324   558340 
 1629000    0.9990221   -2.8377742   -2.8377742   -1.6332283  0.062814984   -2.8377742    1.2045459   558340 
 1630000   0.99876555     -2.83747     -2.83747   -1.6332334  0.068508939     -2.83747    1.2042366   558340 
 1631000   0.99811127   -2.8371567   -2.8371567    -1.633709  0.056552834   -2.8371567    1.2034477   558340 
 1632000   0.99940346   -2.8374897   -2.8374897   -1.6324839  0.054700762   -2.8374897    1.2050057   558340 
 1633000    1.0000793   -2.8385027   -2.8385027    -1.632682  0.061457147   -2.8385027    1.2058206   558340 
 1634000    1.0014997    -2.838859    -2.838859   -1.6313258  0.062251631    -2.838859    1.2075332   558340 
 1635000    1.0006197   -2.8391112   -2.8391112   -1.6326391    0.0742033   -2.8391112    1.2064722   558340 
 1636000    1.0008564   -2.8407104   -2.8407104   -1.6339528  0.070750188   -2.8407104    1.2067576   558340 
 1637000   0.99961353   -2.8394338   -2.8394338   -1.6341748  0.060887386   -2.8394338     1.205259   558340 
 1638000    1.0001072   -2.8407297   -2.8407297   -1.6348754  0.068062398   -2.8407297    1.2058543   558340 
 1639000   0.99964672   -2.8402728   -2.8402728   -1.6349738  0.069130344   -2.8402728    1.2052991   558340 
 1640000   0.99882325   -2.8400906   -2.8400906   -1.6357844  0.059720852   -2.8400906    1.2043062   558340 
 1641000   0.99860977   -2.8399595   -2.8399595   -1.6359107  0.057724161   -2.8399595    1.2040488   558340 
 1642000   0.99995358   -2.8409719   -2.8409719   -1.6353028   0.05534751   -2.8409719     1.205669   558340 
 1643000    1.0007147   -2.8414951   -2.8414951   -1.6349084  0.064341116   -2.8414951    1.2065867   558340 
 1644000   0.99901839     -2.84027     -2.84027   -1.6357286  0.051686081     -2.84027    1.2045415   558340 
 1645000    1.0005835   -2.8415229   -2.8415229   -1.6350944  0.067819261   -2.8415229    1.2064285   558340 
 1646000    1.0013013   -2.8425028   -2.8425028   -1.6352089  0.059451076   -2.8425028     1.207294   558340 
 1647000    1.0019882   -2.8439873   -2.8439873   -1.6358651  0.060248207   -2.8439873    1.2081222   558340 
 1648000     1.001381   -2.8441866   -2.8441866   -1.6367965  0.055990413   -2.8441866    1.2073901   558340 
 1649000    1.0013191   -2.8437047   -2.8437047   -1.6363892  0.066233846   -2.8437047    1.2073155   558340 
 1650000    1.0014299    -2.843558    -2.843558   -1.6361089  0.062310693    -2.843558    1.2074491   558340 
 1651000    1.0009913   -2.8425493   -2.8425493    -1.635629  0.075702995   -2.8425493    1.2069203   558340 
 1652000    1.0008906    -2.841848    -2.841848   -1.6350493  0.069102187    -2.841848    1.2067988   558340 
 1653000    1.0012995   -2.8428038   -2.8428038   -1.6355119  0.077239878   -2.8428038    1.2072918   558340 
 1654000    1.0016368   -2.8433574   -2.8433574   -1.6356589  0.068043101   -2.8433574    1.2076985   558340 
 1655000    1.0016283   -2.8431198   -2.8431198   -1.6354315  0.063289362   -2.8431198    1.2076882   558340 
 1656000    1.0014393   -2.8431741   -2.8431741   -1.6357137  0.061859331   -2.8431741    1.2074604   558340 
 1657000   0.99981324   -2.8417398   -2.8417398   -1.6362399  0.070034556   -2.8417398    1.2054998   558340 
 1658000    1.0002651   -2.8427129   -2.8427129   -1.6366683  0.062230394   -2.8427129    1.2060446   558340 
 1659000    1.0001392   -2.8425867   -2.8425867   -1.6366938  0.059302511   -2.8425867    1.2058928   558340 
 1660000   0.99938634   -2.8409316   -2.8409316   -1.6359465  0.063989348   -2.8409316    1.2049851   558340 
 1661000   0.99989651   -2.8411138   -2.8411138   -1.6355136  0.057097223   -2.8411138    1.2056002   558340 
 1662000   0.99897905   -2.8392033   -2.8392033   -1.6347093  0.065706089   -2.8392033     1.204494   558340 
 1663000   0.99921007    -2.840253    -2.840253   -1.6354804  0.062948921    -2.840253    1.2047726   558340 
 1664000   0.99921998   -2.8400853   -2.8400853   -1.6353008  0.070961364   -2.8400853    1.2047845   558340 
 1665000   0.99813465   -2.8390153   -2.8390153   -1.6355394  0.068388273   -2.8390153    1.2034759   558340 
 1666000   0.99929343   -2.8404957   -2.8404957   -1.6356227  0.065731787   -2.8404957    1.2048731   558340 
 1667000   0.99853551   -2.8399577   -2.8399577   -1.6359984  0.062454766   -2.8399577    1.2039592   558340 
 1668000   0.99770265   -2.8381065   -2.8381065   -1.6351515  0.062636492   -2.8381065     1.202955   558340 
 1669000   0.99957089   -2.8413206   -2.8413206    -1.636113  0.057270803   -2.8413206    1.2052076   558340 
 1670000   0.99824008   -2.8389648   -2.8389648   -1.6353617  0.061924897   -2.8389648     1.203603   558340 
 1671000   0.99900185   -2.8396893   -2.8396893   -1.6351678  0.065001449   -2.8396893    1.2045215   558340 
 1672000   0.99920777   -2.8387637   -2.8387637    -1.633994  0.055077445   -2.8387637    1.2047698   558340 
 1673000   0.99949095   -2.8395518   -2.8395518   -1.6344405  0.061869758   -2.8395518    1.2051112   558340 
 1674000    1.0012807   -2.8409506   -2.8409506   -1.6336814  0.074002875   -2.8409506    1.2072692   558340 
 1675000    1.0009503    -2.841506    -2.841506   -1.6346352  0.059015869    -2.841506    1.2068708   558340 
 1676000    1.0007619   -2.8399845   -2.8399845   -1.6333408  0.064919695   -2.8399845    1.2066437   558340 
 1677000    1.0016698   -2.8405488   -2.8405488   -1.6328105  0.066015648   -2.8405488    1.2077383   558340 
 1678000    1.0005304   -2.8394688   -2.8394688   -1.6331043  0.056515523   -2.8394688    1.2063646   558340 
 1679000    1.0010647   -2.8412981   -2.8412981   -1.6342894  0.051826217   -2.8412981    1.2070087   558340 
 1680000    1.0009784   -2.8415581   -2.8415581   -1.6346534  0.060773503   -2.8415581    1.2069047   558340 
 1681000    1.0008307   -2.8403227   -2.8403227   -1.6335961  0.065412128   -2.8403227    1.2067266   558340 
 1682000    1.0003038   -2.8398499   -2.8398499   -1.6337586  0.069754683   -2.8398499    1.2060913   558340 
 1683000     1.001153   -2.8404295   -2.8404295   -1.6333143  0.064405399   -2.8404295    1.2071152   558340 
 1684000   0.99990382   -2.8396525   -2.8396525   -1.6340434  0.062906653   -2.8396525     1.205609   558340 
 1685000   0.99956209   -2.8393247   -2.8393247   -1.6341277  0.056527257   -2.8393247     1.205197   558340 
 1686000    0.9987535   -2.8393586   -2.8393586   -1.6351366  0.065944044   -2.8393586    1.2042221   558340 
 1687000   0.99965732   -2.8406376   -2.8406376   -1.6353258  0.066725491   -2.8406376    1.2053118   558340 
 1688000   0.99959571   -2.8407522   -2.8407522   -1.6355147  0.050731192   -2.8407522    1.2052375   558340 
 1689000   0.99807514   -2.8395873   -2.8395873   -1.6361831  0.061051675   -2.8395873    1.2034042   558340 
 1690000   0.99843519   -2.8399038   -2.8399038   -1.6360656  0.066208762   -2.8399038    1.2038383   558340 
 1691000   0.99743615    -2.838685    -2.838685   -1.6360513  0.073052382    -2.838685    1.2026337   558340 
 1692000    0.9993511   -2.8414637   -2.8414637   -1.6365211  0.063791957   -2.8414637    1.2049426   558340 
 1693000    1.0002898   -2.8415238   -2.8415238   -1.6354493   0.06284706   -2.8415238    1.2060744   558340 
 1694000    1.0003698   -2.8421645   -2.8421645   -1.6359936  0.061646564   -2.8421645    1.2061709   558340 
 1695000   0.99991615   -2.8412421   -2.8412421   -1.6356182  0.054846596   -2.8412421    1.2056239   558340 
 1696000    0.9995687   -2.8411666   -2.8411666   -1.6359616   0.05698262   -2.8411666     1.205205   558340 
 1697000   0.99942428   -2.8409296   -2.8409296   -1.6358988  0.057712015   -2.8409296    1.2050308   558340 
 1698000    0.9995947   -2.8411385   -2.8411385   -1.6359022  0.060671963   -2.8411385    1.2052363   558340 
 1699000    1.0012024   -2.8425662   -2.8425662   -1.6353914  0.068677202   -2.8425662    1.2071748   558340 
 1700000    1.0010822   -2.8423835   -2.8423835   -1.6353537  0.068654379   -2.8423835    1.2070298   558340 
 1701000   0.99980512   -2.8421584   -2.8421584   -1.6366684  0.072342011   -2.8421584      1.20549   558340 
 1702000   0.99967623   -2.8415133   -2.8415133   -1.6361787  0.067205496   -2.8415133    1.2053346   558340 
 1703000    1.0012226   -2.8438735   -2.8438735   -1.6366743  0.066326819   -2.8438735    1.2071992   558340 
 1704000   0.99973058   -2.8411432   -2.8411432    -1.635743  0.073112311   -2.8411432    1.2054002   558340 
 1705000    1.0017501   -2.8444072   -2.8444072    -1.636572  0.057968687   -2.8444072    1.2078352   558340 
 1706000    1.0000442   -2.8425442   -2.8425442   -1.6367659  0.074427461   -2.8425442    1.2057783   558340 
 1707000     1.001296   -2.8442954   -2.8442954   -1.6370078  0.068981452   -2.8442954    1.2072877   558340 
 1708000    1.0009077   -2.8437473   -2.8437473   -1.6369279  0.061219819   -2.8437473    1.2068194   558340 
 1709000   0.99901795    -2.842184    -2.842184   -1.6376431  0.069907542    -2.842184    1.2045409   558340 
 1710000   0.99974311   -2.8424401   -2.8424401   -1.6370248  0.053246601   -2.8424401    1.2054153   558340 
 1711000    1.0012823   -2.8433704   -2.8433704   -1.6360993  0.065011846   -2.8433704    1.2072711   558340 
 1712000    1.0026205   -2.8460426   -2.8460426    -1.637158  0.052076635   -2.8460426    1.2088846   558340 
 1713000    1.0001117   -2.8431595   -2.8431595   -1.6372998  0.063930138   -2.8431595    1.2058597   558340 
 1714000    1.0012213   -2.8440937   -2.8440937   -1.6368962  0.068051577   -2.8440937    1.2071976   558340 
 1715000    1.0011999   -2.8444706   -2.8444706   -1.6372988  0.066680403   -2.8444706    1.2071718   558340 
 1716000   0.99977233   -2.8430063   -2.8430063   -1.6375558  0.064187806   -2.8430063    1.2054505   558340 
 1717000    1.0003257   -2.8428222   -2.8428222   -1.6367045   0.06472818   -2.8428222    1.2061177   558340 
 1718000   0.99961812   -2.8429065   -2.8429065    -1.637642  0.062656735   -2.8429065    1.2052646   558340 
 1719000   0.99998133   -2.8422417   -2.8422417   -1.6365392    0.0534138   -2.8422417    1.2057025   558340 
 1720000    1.0022647   -2.8450072   -2.8450072   -1.6365516  0.067270296   -2.8450072    1.2084556   558340 
 1721000    0.9981531   -2.8398987   -2.8398987   -1.6364005  0.060669709   -2.8398987    1.2034982   558340 
 1722000   0.99857832   -2.8408968   -2.8408968   -1.6368859  0.059821927   -2.8408968    1.2040109   558340 
 1723000   0.99863026   -2.8411113   -2.8411113   -1.6370378   0.05716587   -2.8411113    1.2040735   558340 
 1724000    1.0002597   -2.8421812   -2.8421812   -1.6361431  0.070428898   -2.8421812    1.2060382   558340 
 1725000    0.9996011   -2.8406796   -2.8406796   -1.6354355  0.062278964   -2.8406796     1.205244   558340 
 1726000   0.99917109   -2.8406461   -2.8406461   -1.6359205  0.058210657   -2.8406461    1.2047256   558340 
 1727000   0.99999333   -2.8408345   -2.8408345   -1.6351176  0.068797403   -2.8408345     1.205717   558340 
 1728000    1.0009567    -2.841734    -2.841734   -1.6348555  0.063221352    -2.841734    1.2068785   558340 
 1729000    1.0010224   -2.8414558   -2.8414558    -1.634498  0.066274598   -2.8414558    1.2069578   558340 
 1730000    1.0016469   -2.8418349   -2.8418349   -1.6341242  0.063467369   -2.8418349    1.2077107   558340 
 1731000    1.0020082   -2.8415164   -2.8415164   -1.6333701  0.067083404   -2.8415164    1.2081463   558340 
 1732000     1.001075   -2.8399871   -2.8399871    -1.632966  0.064262852   -2.8399871    1.2070211   558340 
 1733000    1.0015389   -2.8400671   -2.8400671   -1.6324865  0.064030283   -2.8400671    1.2075805   558340 
 1734000    1.0014228   -2.8404866   -2.8404866   -1.6330461  0.072475988   -2.8404866    1.2074405   558340 
 1735000   0.99922843   -2.8381321   -2.8381321   -1.6333374  0.068658936   -2.8381321    1.2047947   558340 
 1736000   0.99819108   -2.8371229   -2.8371229   -1.6335789  0.055905326   -2.8371229    1.2035439   558340 
 1737000   0.99911994   -2.8381638   -2.8381638      -1.6335  0.064858386   -2.8381638    1.2046639   558340 
 1738000   0.99890995   -2.8381097   -2.8381097    -1.633699  0.057976891   -2.8381097    1.2044107   558340 
 1739000   0.99815789   -2.8364233   -2.8364233   -1.6329194  0.065606034   -2.8364233    1.2035039   558340 
 1740000   0.99828153   -2.8364219   -2.8364219   -1.6327689  0.059551723   -2.8364219     1.203653   558340 
 1741000   0.99892286   -2.8376503   -2.8376503    -1.633224   0.06498736   -2.8376503    1.2044263   558340 
 1742000   0.99969043   -2.8398481   -2.8398481   -1.6344964  0.054467723   -2.8398481    1.2053517   558340 
 1743000   0.99776526   -2.8375554   -2.8375554   -1.6345249  0.070461507   -2.8375554    1.2030305   558340 
 1744000   0.99902306   -2.8381627   -2.8381627   -1.6336156  0.060420028   -2.8381627    1.2045471   558340 
 1745000   0.99927146   -2.8384044   -2.8384044   -1.6335579  0.055663007   -2.8384044    1.2048466   558340 
 1746000   0.99990547    -2.838753    -2.838753    -1.633142  0.064138174    -2.838753     1.205611   558340 
 1747000    1.0000394   -2.8394366   -2.8394366   -1.6336641  0.071064569   -2.8394366    1.2057725   558340 
 1748000    1.0021731   -2.8414783   -2.8414783   -1.6331331  0.073153857   -2.8414783    1.2083451   558340 
 1749000    1.0006124    -2.839849    -2.839849   -1.6333857  0.058737106    -2.839849    1.2064634   558340 
 1750000   0.99945108   -2.8389451   -2.8389451   -1.6338819  0.068833068   -2.8389451    1.2050632   558340 
 1751000    1.0018063   -2.8419378   -2.8419378   -1.6340349   0.05062694   -2.8419378     1.207903   558340 
 1752000     1.000122   -2.8412154   -2.8412154   -1.6353433  0.058841794   -2.8412154    1.2058721   558340 
 1753000    0.9999817   -2.8405524   -2.8405524   -1.6348495  0.061464463   -2.8405524    1.2057029   558340 
 1754000   0.99989634   -2.8411692   -2.8411692   -1.6355692  0.061693531   -2.8411692       1.2056   558340 
 1755000    1.0021497   -2.8435153   -2.8435153   -1.6351983  0.059306825   -2.8435153     1.208317   558340 
 1756000    1.0004115   -2.8420201   -2.8420201   -1.6357989  0.066862528   -2.8420201    1.2062212   558340 
 1757000    1.0014026   -2.8423281   -2.8423281    -1.634912   0.06377783   -2.8423281    1.2074162   558340 
 1758000    1.0024331     -2.84524     -2.84524   -1.6365813  0.058528739     -2.84524    1.2086587   558340 
 1759000    1.0002692   -2.8428613   -2.8428613   -1.6368116  0.064244305   -2.8428613    1.2060496   558340 
 1760000   0.99964586   -2.8417787   -2.8417787   -1.6364806   0.07428337   -2.8417787     1.205298   558340 
 1761000    1.0016467   -2.8437559   -2.8437559   -1.6360453  0.068037655   -2.8437559    1.2077105   558340 
 1762000    1.0019103   -2.8440058   -2.8440058   -1.6359775  0.074188003   -2.8440058    1.2080282   558340 
 1763000    1.0001344   -2.8416291   -2.8416291    -1.635742  0.062562724   -2.8416291    1.2058871   558340 
 1764000    1.0015709   -2.8437878   -2.8437878   -1.6361687  0.064607371   -2.8437878    1.2076191   558340 
 1765000    1.0011725   -2.8434833   -2.8434833   -1.6363446  0.067435335   -2.8434833    1.2071387   558340 
 1766000    0.9984838   -2.8402323   -2.8402323   -1.6363355  0.068740698   -2.8402323    1.2038969   558340 
 1767000    1.0000184   -2.8423145   -2.8423145   -1.6365673  0.069922737   -2.8423145    1.2057472   558340 
 1768000    1.0002731   -2.8432873   -2.8432873    -1.637233  0.066851215   -2.8432873    1.2060543   558340 
 1769000    1.0003939   -2.8426624   -2.8426624   -1.6364624  0.063419497   -2.8426624       1.2062   558340 
 1770000    1.0009236   -2.8440531   -2.8440531   -1.6372145  0.072786201   -2.8440531    1.2068386   558340 
 1771000    1.0004936   -2.8432648   -2.8432648   -1.6369447  0.072654654   -2.8432648    1.2063201   558340 
 1772000    1.0019966   -2.8448918   -2.8448918   -1.6367594  0.061946433   -2.8448918    1.2081324   558340 
 1773000    1.0005891   -2.8429408   -2.8429408   -1.6365055  0.066924397   -2.8429408    1.2064353   558340 
 1774000    1.0011779   -2.8443063   -2.8443063   -1.6371611  0.061143197   -2.8443063    1.2071452   558340 
 1775000     1.002368   -2.8442937   -2.8442937   -1.6357135  0.061147275   -2.8442937    1.2085802   558340 
 1776000   0.99902899   -2.8403921   -2.8403921   -1.6358378  0.064471826   -2.8403921    1.2045542   558340 
 1777000   0.99983648   -2.8413633   -2.8413633   -1.6358354  0.072608686   -2.8413633    1.2055279   558340 
 1778000   0.99944673   -2.8404523   -2.8404523   -1.6353944  0.061428463   -2.8404523    1.2050579   558340 
 1779000    1.0000883   -2.8421831   -2.8421831   -1.6363516  0.054678857   -2.8421831    1.2058315   558340 
 1780000   0.99935422   -2.8418614   -2.8418614    -1.636915  0.061914369   -2.8418614    1.2049464   558340 
 1781000   0.99712005   -2.8390891   -2.8390891   -1.6368366  0.053547208   -2.8390891    1.2022526   558340 
 1782000   0.99856768   -2.8410116   -2.8410116   -1.6370136  0.066839214   -2.8410116     1.203998   558340 
 1783000   0.99789384   -2.8398664   -2.8398664   -1.6366809  0.053850684   -2.8398664    1.2031856   558340 
 1784000   0.99794056   -2.8402062   -2.8402062   -1.6369643  0.055938695   -2.8402062    1.2032419   558340 
 1785000   0.99779723   -2.8390427   -2.8390427   -1.6359737  0.057600931   -2.8390427    1.2030691   558340 
 1786000   0.99893315   -2.8411757   -2.8411757    -1.636737  0.061167183   -2.8411757    1.2044387   558340 
 1787000   0.99935186   -2.8416958   -2.8416958   -1.6367523   0.05759463   -2.8416958    1.2049435   558340 
 1788000   0.99899906   -2.8405454   -2.8405454   -1.6360272  0.065640744   -2.8405454    1.2045181   558340 
 1789000   0.99972566   -2.8413227   -2.8413227   -1.6359285  0.058886476   -2.8413227    1.2053942   558340 
 1790000    1.0012823   -2.8421275   -2.8421275   -1.6348564  0.065197357   -2.8421275    1.2072711   558340 
 1791000    1.0007372   -2.8421599   -2.8421599    -1.635546  0.059014297   -2.8421599    1.2066138   558340 
 1792000    1.0005063   -2.8424478   -2.8424478   -1.6361123  0.065930961   -2.8424478    1.2063355   558340 
 1793000     1.000212   -2.8415287   -2.8415287   -1.6355482  0.067972593   -2.8415287    1.2059806   558340 
 1794000   0.99958405   -2.8411864   -2.8411864   -1.6359629  0.066963912   -2.8411864    1.2052235   558340 
 1795000    1.0004697    -2.842156    -2.842156   -1.6358646  0.068690717    -2.842156    1.2062914   558340 
 1796000   0.99875888   -2.8407555   -2.8407555   -1.6365269   0.06528194   -2.8407555    1.2042286   558340 
 1797000   0.99911445   -2.8414147   -2.8414147   -1.6367574  0.057214276   -2.8414147    1.2046573   558340 
 1798000   0.99842343   -2.8402345   -2.8402345   -1.6364103  0.058246798   -2.8402345    1.2038241   558340 
 1799000    1.0006982    -2.842565    -2.842565   -1.6359982  0.065951724    -2.842565    1.2065668   558340 
 1800000    1.0005532   -2.8431525   -2.8431525   -1.6367604  0.065112486   -2.8431525     1.206392   558340 
 1801000    0.9998481   -2.8417726   -2.8417726   -1.6362307   0.06660444   -2.8417726    1.2055419   558340 
 1802000    1.0006004   -2.8424279   -2.8424279    -1.635979  0.060675806   -2.8424279    1.2064489   558340 
 1803000   0.99902516   -2.8413126   -2.8413126    -1.636763  0.067836685   -2.8413126    1.2045496   558340 
 1804000   0.99949854    -2.840766    -2.840766   -1.6356456  0.073489662    -2.840766    1.2051204   558340 
 1805000    1.0006415   -2.8424216   -2.8424216   -1.6359231  0.065887643   -2.8424216    1.2064985   558340 
 1806000    1.0005696    -2.841879    -2.841879   -1.6354672  0.070975988    -2.841879    1.2064118   558340 
 1807000   0.99986594   -2.8410878   -2.8410878   -1.6355244  0.058684781   -2.8410878    1.2055634   558340 
 1808000   0.99920308   -2.8402044   -2.8402044   -1.6354403  0.063972529   -2.8402044    1.2047641   558340 
 1809000   0.99881198   -2.8410577   -2.8410577   -1.6367651  0.056871319   -2.8410577    1.2042926   558340 
 1810000   0.99903201   -2.8409564   -2.8409564   -1.6363985  0.063777408   -2.8409564    1.2045579   558340 
 1811000    0.9995598   -2.8407748   -2.8407748   -1.6355806  0.059095606   -2.8407748    1.2051942   558340 
 1812000   0.99976601    -2.841875    -2.841875   -1.6364321   0.06489332    -2.841875    1.2054429   558340 
 1813000   0.99966389   -2.8414064   -2.8414064   -1.6360867  0.074434554   -2.8414064    1.2053197   558340 
 1814000   0.99807096   -2.8398256   -2.8398256   -1.6364264  0.059876012   -2.8398256    1.2033991   558340 
 1815000      1.00195   -2.8443359   -2.8443359   -1.6362597  0.056479575   -2.8443359    1.2080762   558340 
 1816000   0.99969917   -2.8418839   -2.8418839   -1.6365216  0.065063724   -2.8418839    1.2053623   558340 
 1817000    1.0011511   -2.8429874   -2.8429874   -1.6358745   0.06944826   -2.8429874    1.2071129   558340 
 1818000    1.0010571   -2.8432498   -2.8432498   -1.6362503   0.05605617   -2.8432498    1.2069995   558340 
 1819000    1.0011784     -2.84208     -2.84208   -1.6349342  0.061680778     -2.84208    1.2071458   558340 
 1820000    1.0005063   -2.8418687   -2.8418687   -1.6355332  0.064156009   -2.8418687    1.2063355   558340 
 1821000    1.0024944   -2.8440219   -2.8440219   -1.6352893  0.073567681   -2.8440219    1.2087326   558340 
 1822000    1.0016574     -2.84275     -2.84275   -1.6350266   0.07080135     -2.84275    1.2077233   558340 
 1823000     1.001623   -2.8426125   -2.8426125   -1.6349307  0.068590306   -2.8426125    1.2076818   558340 
 1824000     1.000974   -2.8417278   -2.8417278   -1.6348285  0.071772888   -2.8417278    1.2068994   558340 
 1825000    1.0021289   -2.8432182   -2.8432182   -1.6349262  0.066249604   -2.8432182    1.2082919   558340 
 1826000    1.0008191   -2.8422167   -2.8422167   -1.6355042  0.060888537   -2.8422167    1.2067126   558340 
 1827000   0.99864759   -2.8403955   -2.8403955   -1.6363011  0.064763357   -2.8403955    1.2040944   558340 
 1828000    1.0007955   -2.8417827   -2.8417827   -1.6350985   0.06962442   -2.8417827    1.2066842   558340 
 1829000    1.0021907   -2.8428696   -2.8428696   -1.6345032  0.065978051   -2.8428696    1.2083664   558340 
 1830000      1.00112   -2.8418507   -2.8418507   -1.6347754  0.064747423   -2.8418507    1.2070754   558340 
 1831000    1.0009001   -2.8428332   -2.8428332    -1.636023  0.067801148   -2.8428332    1.2068103   558340 
 1832000   0.99962693   -2.8418885   -2.8418885   -1.6366133  0.066961967   -2.8418885    1.2052752   558340 
 1833000   0.99930421   -2.8415108   -2.8415108   -1.6366248  0.062645066   -2.8415108    1.2048861   558340 
 1834000   0.99951067   -2.8412343   -2.8412343   -1.6360993  0.064355602   -2.8412343     1.205135   558340 
 1835000   0.99968062   -2.8413758   -2.8413758   -1.6360359  0.066056178   -2.8413758    1.2053399   558340 
 1836000   0.99977078   -2.8413756   -2.8413756   -1.6359269  0.060435921   -2.8413756    1.2054486   558340 
 1837000   0.99913722   -2.8399683   -2.8399683   -1.6352836  0.052445366   -2.8399683    1.2046847   558340 
 1838000    1.0004559    -2.841248    -2.841248   -1.6349733  0.068332322    -2.841248    1.2062747   558340 
 1839000   0.99981909   -2.8400704   -2.8400704   -1.6345635  0.062688278   -2.8400704    1.2055069   558340 
 1840000    1.0008122   -2.8409968   -2.8409968   -1.6342925  0.069818508   -2.8409968    1.2067043   558340 
 1841000    1.0020521   -2.8412494   -2.8412494   -1.6330501  0.074510768   -2.8412494    1.2081993   558340 
 1842000    1.0010733   -2.8402062   -2.8402062   -1.6331871  0.062265419   -2.8402062    1.2070191   558340 
 1843000    1.0002088   -2.8393319   -2.8393319   -1.6333551  0.067409959   -2.8393319    1.2059768   558340 
 1844000   0.99942816   -2.8395231   -2.8395231   -1.6344876  0.062580985   -2.8395231    1.2050355   558340 
 1845000    1.0004817   -2.8406165   -2.8406165   -1.6343107   0.06105138   -2.8406165    1.2063058   558340 
 1846000   0.99976796   -2.8406408   -2.8406408   -1.6351956  0.062195891   -2.8406408    1.2054452   558340 
 1847000    1.0008549   -2.8409587   -2.8409587   -1.6342029   0.06140399   -2.8409587    1.2067558   558340 
 1848000   0.99946866     -2.83939     -2.83939   -1.6343057  0.063580291     -2.83939    1.2050844   558340 
 1849000    1.0011016   -2.8407143   -2.8407143   -1.6336611  0.060035547   -2.8407143    1.2070532   558340 
 1850000   0.99949337     -2.83918     -2.83918   -1.6340659  0.071990016     -2.83918    1.2051141   558340 
 1851000   0.99919518   -2.8386427   -2.8386427    -1.633888   0.06187863   -2.8386427    1.2047546   558340 
 1852000   0.99934327   -2.8393189   -2.8393189   -1.6343858  0.065687017   -2.8393189    1.2049332   558340 
 1853000    1.0003725   -2.8407676   -2.8407676   -1.6345936   0.06519988   -2.8407676    1.2061741   558340 
 1854000   0.99981679   -2.8397177   -2.8397177   -1.6342135  0.058465612   -2.8397177    1.2055041   558340 
 1855000     1.000469   -2.8410521   -2.8410521   -1.6347617  0.068689082   -2.8410521    1.2062905   558340 
 1856000    1.0013013   -2.8417503   -2.8417503   -1.6344563  0.061018534   -2.8417503     1.207294   558340 
 1857000    1.0018062   -2.8422437   -2.8422437   -1.6343409  0.059428375   -2.8422437    1.2079028   558340 
 1858000    1.0009572   -2.8413319   -2.8413319   -1.6344527  0.052812468   -2.8413319    1.2068792   558340 
 1859000    1.0005195   -2.8401822   -2.8401822   -1.6338308  0.070698963   -2.8401822    1.2063514   558340 
 1860000    1.0008383   -2.8410079   -2.8410079   -1.6342721  0.065296838   -2.8410079    1.2067358   558340 
 1861000   0.99980631     -2.83961     -2.83961   -1.6341186  0.063479562     -2.83961    1.2054915   558340 
 1862000    1.0013883   -2.8410277   -2.8410277   -1.6336288  0.063296929   -2.8410277    1.2073989   558340 
 1863000    1.0006216   -2.8407346   -2.8407346   -1.6342601  0.064833667   -2.8407346    1.2064745   558340 
 1864000    1.0012781   -2.8414692   -2.8414692   -1.6342031  0.065536911   -2.8414692     1.207266   558340 
 1865000    1.0011208   -2.8414486   -2.8414486   -1.6343722  0.065246879   -2.8414486    1.2070764   558340 
 1866000   0.99982807   -2.8396327   -2.8396327    -1.634115  0.068965653   -2.8396327    1.2055177   558340 
 1867000    1.0013363   -2.8407993   -2.8407993   -1.6334631  0.062911902   -2.8407993    1.2073362   558340 
 1868000    1.0008309   -2.8406228   -2.8406228    -1.633896  0.057884263   -2.8406228    1.2067269   558340 
 1869000    1.0005864   -2.8408461   -2.8408461    -1.634414  0.063151251   -2.8408461    1.2064321   558340 
 1870000    1.0008796   -2.8418072   -2.8418072   -1.6350216  0.066504892   -2.8418072    1.2067856   558340 
 1871000   0.99938654   -2.8399533   -2.8399533   -1.6349679  0.056261991   -2.8399533    1.2049853   558340 
 1872000    1.0000079   -2.8409286   -2.8409286   -1.6351941  0.058292591   -2.8409286    1.2057345   558340 
 1873000    1.0007659   -2.8402696   -2.8402696   -1.6336211  0.061989389   -2.8402696    1.2066485   558340 
 1874000    1.0001457   -2.8405707   -2.8405707   -1.6346701  0.069050088   -2.8405707    1.2059006   558340 
 1875000    1.0005442   -2.8404795   -2.8404795   -1.6340983  0.055164469   -2.8404795    1.2063812   558340 
 1876000     1.002554   -2.8426462   -2.8426462   -1.6338418   0.06421659   -2.8426462    1.2088044   558340 
 1877000    1.0018438    -2.842799    -2.842799   -1.6348509  0.056184134    -2.842799    1.2079481   558340 
 1878000    1.0019551   -2.8419732   -2.8419732   -1.6338908  0.061435469   -2.8419732    1.2080824   558340 
 1879000    1.0003111   -2.8417792   -2.8417792   -1.6356791  0.066602851   -2.8417792    1.2061001   558340 
 1880000    1.0015391   -2.8424521   -2.8424521   -1.6348713  0.064927862   -2.8424521    1.2075808   558340 
 1881000    1.0015051   -2.8414299   -2.8414299   -1.6338901  0.051720127   -2.8414299    1.2075398   558340 
 1882000    0.9993498   -2.8400642   -2.8400642   -1.6351232   0.06922136   -2.8400642     1.204941   558340 
 1883000    1.0016352   -2.8422515   -2.8422515   -1.6345549  0.060426038   -2.8422515    1.2076966   558340 
 1884000    1.0011209   -2.8422409   -2.8422409   -1.6351644  0.066253206   -2.8422409    1.2070764   558340 
 1885000    1.0000591   -2.8415003   -2.8415003   -1.6357041  0.067813146   -2.8415003    1.2057962   558340 
 1886000    1.0003458    -2.841934    -2.841934   -1.6357921  0.061169952    -2.841934    1.2061419   558340 
 1887000   0.99935763   -2.8407364   -2.8407364   -1.6357859  0.059717149   -2.8407364    1.2049505   558340 
 1888000   0.99931375    -2.840612    -2.840612   -1.6357144   0.06466503    -2.840612    1.2048976   558340 
 1889000    1.0005917   -2.8418361   -2.8418361   -1.6353977  0.056238442   -2.8418361    1.2064384   558340 
 1890000    1.0008568   -2.8418386   -2.8418386   -1.6350805  0.066752606   -2.8418386    1.2067581   558340 
 1891000    1.0009691   -2.8413402   -2.8413402   -1.6344467    0.0636026   -2.8413402    1.2068935   558340 
 1892000    1.0006088     -2.84106     -2.84106    -1.634601  0.068115113     -2.84106    1.2064591   558340 
 1893000    1.0033978   -2.8431717   -2.8431717   -1.6333499   0.06337916   -2.8431717    1.2098218   558340 
 1894000    1.0021491   -2.8413112   -2.8413112   -1.6329949  0.072686547   -2.8413112    1.2083163   558340 
 1895000    1.0021064   -2.8411884   -2.8411884   -1.6329237  0.069822918   -2.8411884    1.2082647   558340 
 1896000    1.0022486   -2.8415796   -2.8415796   -1.6331434  0.076433434   -2.8415796    1.2084362   558340 
 1897000    1.0009019   -2.8400411   -2.8400411   -1.6332286    0.0612481   -2.8400411    1.2068124   558340 
 1898000    1.0014828   -2.8404924   -2.8404924   -1.6329795  0.063112257   -2.8404924    1.2075129   558340 
 1899000    1.0017318   -2.8404402   -2.8404402   -1.6326271  0.060580168   -2.8404402     1.207813   558340 
 1900000    1.0021606    -2.841759    -2.841759   -1.6334289  0.059604991    -2.841759    1.2083301   558340 
 1901000    1.0010305   -2.8405707   -2.8405707   -1.6336032  0.075025762   -2.8405707    1.2069675   558340 
 1902000    1.0001065   -2.8395589   -2.8395589   -1.6337055   0.06763551   -2.8395589    1.2058534   558340 
 1903000   0.99994048   -2.8402917   -2.8402917   -1.6346385   0.06453331   -2.8402917    1.2056532   558340 
 1904000    1.0002805   -2.8405102   -2.8405102    -1.634447  0.063325483   -2.8405102    1.2060632   558340 
 1905000    1.0007545   -2.8412564   -2.8412564   -1.6346216   0.05862439   -2.8412564    1.2066347   558340 
 1906000   0.99992091   -2.8400227   -2.8400227   -1.6343931  0.069162108   -2.8400227    1.2056296   558340 
 1907000    0.9986218   -2.8387705   -2.8387705   -1.6347072  0.057449435   -2.8387705    1.2040633   558340 
 1908000   0.99944092   -2.8389823   -2.8389823   -1.6339314  0.058441254   -2.8389823    1.2050509   558340 
 1909000    1.0010779   -2.8414793   -2.8414793   -1.6344547  0.050221986   -2.8414793    1.2070246   558340 
 1910000    1.0004734    -2.840427    -2.840427   -1.6341312  0.063771891    -2.840427    1.2062959   558340 
 1911000    1.0011943    -2.841245    -2.841245     -1.63408  0.065073122    -2.841245     1.207165   558340 
 1912000    1.0017007   -2.8413557   -2.8413557   -1.6335801  0.064316341   -2.8413557    1.2077756   558340 
 1913000    1.0002553   -2.8397291   -2.8397291   -1.6336962  0.075909364   -2.8397291    1.2060329   558340 
 1914000    1.0008775   -2.8398899   -2.8398899   -1.6331068  0.068078621   -2.8398899    1.2067831   558340 
 1915000    1.0019106   -2.8406524   -2.8406524   -1.6326238  0.064020106   -2.8406524    1.2080287   558340 
 1916000    1.0011736   -2.8409671   -2.8409671    -1.633827  0.069856398   -2.8409671    1.2071401   558340 
 1917000    1.0006119   -2.8404286   -2.8404286   -1.6339657  0.074682449   -2.8404286    1.2064628   558340 
 1918000     1.001341   -2.8419643   -2.8419643   -1.6346224  0.063986822   -2.8419643    1.2073419   558340 
 1919000    1.0010863   -2.8414905   -2.8414905   -1.6344557  0.052922946   -2.8414905    1.2070348   558340 
 1920000    1.0001808   -2.8403018   -2.8403018   -1.6343588  0.068073032   -2.8403018     1.205943   558340 
 1921000   0.99948909   -2.8393552   -2.8393552   -1.6342462  0.074503469   -2.8393552     1.205109   558340 
 1922000   0.99984609   -2.8409351   -2.8409351   -1.6353957  0.065069452   -2.8409351    1.2055394   558340 
 1923000   0.99995546   -2.8408996   -2.8408996   -1.6352283  0.068952925   -2.8408996    1.2056713   558340 
 1924000    1.0011482   -2.8427978   -2.8427978   -1.6356883  0.067896208   -2.8427978    1.2071095   558340 
 1925000     1.000285    -2.841464    -2.841464   -1.6353954  0.058068659    -2.841464    1.2060686   558340 
 1926000    1.0001343   -2.8430061   -2.8430061   -1.6371191  0.058892363   -2.8430061     1.205887   558340 
 1927000   0.99895392    -2.841688    -2.841688   -1.6372242  0.059337174    -2.841688    1.2044637   558340 
 1928000   0.99783301    -2.841076    -2.841076   -1.6379638  0.057897928    -2.841076    1.2031122   558340 
 1929000   0.99897588   -2.8413009   -2.8413009   -1.6368107   0.06279434   -2.8413009    1.2044902   558340 
 1930000   0.99899508   -2.8419792   -2.8419792   -1.6374658  0.061682984   -2.8419792    1.2045133   558340 
 1931000    1.0020579   -2.8449507   -2.8449507   -1.6367444  0.058592733   -2.8449507    1.2082063   558340 
 1932000   0.99981644   -2.8419327   -2.8419327    -1.636429  0.066673992   -2.8419327    1.2055037   558340 
 1933000    1.0014888   -2.8438346   -2.8438346   -1.6363145  0.070177471   -2.8438346    1.2075201   558340 
 1934000    1.0006116   -2.8422801   -2.8422801   -1.6358177   0.06200053   -2.8422801    1.2064624   558340 
 1935000     1.001598   -2.8431119   -2.8431119   -1.6354601  0.069560952   -2.8431119    1.2076518   558340 
 1936000    1.0022388   -2.8446224   -2.8446224    -1.636198  0.072725634   -2.8446224    1.2084244   558340 
 1937000    1.0007264   -2.8432235   -2.8432235   -1.6366226  0.074809676   -2.8432235    1.2066009   558340 
 1938000    1.0020017   -2.8445061   -2.8445061   -1.6363677  0.062014633   -2.8445061    1.2081385   558340 
 1939000    1.0009491   -2.8429192   -2.8429192   -1.6360499  0.070018456   -2.8429192    1.2068694   558340 
 1940000    1.0014138    -2.843859    -2.843859   -1.6364293   0.05962683    -2.843859    1.2074297   558340 
 1941000    1.0021415   -2.8436653   -2.8436653   -1.6353583  0.073184259   -2.8436653     1.208307   558340 
 1942000    1.0016595   -2.8432815   -2.8432815   -1.6355555  0.061782493   -2.8432815    1.2077259   558340 
 1943000    1.0003774    -2.842165    -2.842165   -1.6359849  0.064011044    -2.842165    1.2061801   558340 
 1944000    1.0003317   -2.8414931   -2.8414931   -1.6353681  0.080540846   -2.8414931    1.2061249   558340 
 1945000   0.99966603   -2.8408167   -2.8408167   -1.6354943  0.068879355   -2.8408167    1.2053223   558340 
 1946000    1.0003928   -2.8421483   -2.8421483   -1.6359496  0.067088343   -2.8421483    1.2061987   558340 
 1947000   0.99942386   -2.8416501   -2.8416501   -1.6366198  0.069950441   -2.8416501    1.2050303   558340 
 1948000   0.99952033   -2.8409836   -2.8409836   -1.6358369  0.062779089   -2.8409836    1.2051467   558340 
 1949000   0.99968994   -2.8405553   -2.8405553   -1.6352041  0.071821844   -2.8405553    1.2053512   558340 
 1950000    1.0004702   -2.8418035   -2.8418035   -1.6355116  0.054578299   -2.8418035     1.206292   558340 
 1951000   0.99805599   -2.8396142   -2.8396142   -1.6362332  0.062799726   -2.8396142    1.2033811   558340 
 1952000   0.99875185    -2.840941    -2.840941   -1.6367209  0.053735243    -2.840941    1.2042201   558340 
 1953000   0.99973577   -2.8407607   -2.8407607   -1.6353543   0.06302299   -2.8407607    1.2054064   558340 
 1954000   0.99981454   -2.8400195   -2.8400195   -1.6345181  0.055350038   -2.8400195    1.2055014   558340 
 1955000    1.0008981   -2.8415113   -2.8415113   -1.6347034  0.069817292   -2.8415113    1.2068078   558340 
 1956000   0.99867159   -2.8391059   -2.8391059   -1.6349826  0.065608247   -2.8391059    1.2041233   558340 
 1957000   0.99956074   -2.8402132   -2.8402132   -1.6350178  0.060057208   -2.8402132    1.2051954   558340 
 1958000    1.0001283   -2.8397441   -2.8397441   -1.6338644  0.066267858   -2.8397441    1.2058797   558340 
 1959000    1.0003588     -2.83982     -2.83982   -1.6336624  0.066889785     -2.83982    1.2061576   558340 
 1960000    0.9995594   -2.8385341   -2.8385341   -1.6333404  0.060647804   -2.8385341    1.2051938   558340 
 1961000    1.0003526   -2.8395277   -2.8395277   -1.6333776  0.065653205   -2.8395277    1.2061501   558340 
 1962000   0.99983946   -2.8393071   -2.8393071   -1.6337757  0.059283852   -2.8393071    1.2055314   558340 
 1963000    1.0012638   -2.8401841   -2.8401841   -1.6329354  0.064498441   -2.8401841    1.2072487   558340 
 1964000    1.0016605   -2.8409523   -2.8409523   -1.6332252  0.050687229   -2.8409523    1.2077271   558340 
 1965000    1.0010523   -2.8397741   -2.8397741   -1.6327804  0.063439887   -2.8397741    1.2069938   558340 
 1966000    1.0015181   -2.8407452   -2.8407452   -1.6331897  0.062957381   -2.8407452    1.2075555   558340 
 1967000    1.0011961   -2.8404725   -2.8404725   -1.6333053  0.063091682   -2.8404725    1.2071672   558340 
 1968000   0.99975879   -2.8387807   -2.8387807   -1.6333465  0.064102592   -2.8387807    1.2054342   558340 
 1969000   0.99986753   -2.8388802   -2.8388802    -1.633315  0.064714672   -2.8388802    1.2055653   558340 
 1970000    1.0003474   -2.8406246   -2.8406246   -1.6344807  0.062719935   -2.8406246    1.2061439   558340 
 1971000   0.99876115   -2.8392486   -2.8392486   -1.6350173   0.06839186   -2.8392486    1.2042313   558340 
 1972000    1.0008273   -2.8405044   -2.8405044   -1.6337818    0.0594095   -2.8405044    1.2067226   558340 
 1973000    1.0000783   -2.8406184   -2.8406184    -1.634799  0.063539273   -2.8406184    1.2058194   558340 
 1974000    1.0005495   -2.8416895   -2.8416895   -1.6353019  0.052279703   -2.8416895    1.2063876   558340 
 1975000    1.0002823    -2.841178    -2.841178   -1.6351126  0.058080627    -2.841178    1.2060653   558340 
 1976000    1.0001637   -2.8398875   -2.8398875   -1.6339651   0.05606848   -2.8398875    1.2059224   558340 
 1977000     1.000182   -2.8406874   -2.8406874    -1.634743  0.066116124   -2.8406874    1.2059444   558340 
 1978000    1.0006223   -2.8409395   -2.8409395   -1.6344641  0.062655102   -2.8409395    1.2064754   558340 
 1979000    1.0007314   -2.8414683   -2.8414683   -1.6348615  0.061660106   -2.8414683    1.2066068   558340 
 1980000    1.0011655   -2.8438277   -2.8438277   -1.6366975   0.06977193   -2.8438277    1.2071302   558340 
 1981000   0.99951857   -2.8408698   -2.8408698   -1.6357253  0.074914753   -2.8408698    1.2051445   558340 
 1982000    1.0005716   -2.8418216   -2.8418216   -1.6354073  0.060045655   -2.8418216    1.2064142   558340 
 1983000    1.0000868   -2.8418624   -2.8418624   -1.6360327  0.057539229   -2.8418624    1.2058297   558340 
 1984000    1.0015903   -2.8431263   -2.8431263   -1.6354839  0.056965565   -2.8431263    1.2076424   558340 
 1985000    1.0008694   -2.8416542   -2.8416542    -1.634881  0.067983215   -2.8416542    1.2067732   558340 
 1986000    1.0004433   -2.8412056   -2.8412056   -1.6349461  0.066140491   -2.8412056    1.2062594   558340 
 1987000    1.0020055   -2.8430741   -2.8430741    -1.634931  0.057809442   -2.8430741    1.2081431   558340 
 1988000    1.0035143   -2.8459035   -2.8459035   -1.6359413  0.065169789   -2.8459035    1.2099622   558340 
 1989000    1.0009214   -2.8425981   -2.8425981   -1.6357621  0.065395675   -2.8425981     1.206836   558340 
 1990000    1.0011435   -2.8420867   -2.8420867   -1.6349829  0.071047584   -2.8420867    1.2071038   558340 
 1991000    1.0016529   -2.8428132   -2.8428132   -1.6350953  0.071080639   -2.8428132    1.2077179   558340 
 1992000     1.002349   -2.8444243   -2.8444243   -1.6358671  0.068745383   -2.8444243    1.2085572   558340 
 1993000    1.0011306   -2.8423972   -2.8423972    -1.635309  0.074711574   -2.8423972    1.2070882   558340 
 1994000    1.0014366   -2.8422449   -2.8422449   -1.6347878  0.061491077   -2.8422449    1.2074572   558340 
 1995000    1.0000112   -2.8406919   -2.8406919   -1.6349533   0.06716601   -2.8406919    1.2057385   558340 
 1996000   0.99951628    -2.840699    -2.840699   -1.6355572  0.066702047    -2.840699    1.2051418   558340 
 1997000    0.9994875   -2.8408959   -2.8408959   -1.6357888  0.055583112   -2.8408959    1.2051071   558340 
 1998000   0.99845376   -2.8399231   -2.8399231   -1.6360625  0.052914015   -2.8399231    1.2038607   558340 
 1999000   0.99957971   -2.8417954   -2.8417954   -1.6365771  0.061947861   -2.8417954    1.2052183   558340 
 2000000   0.99803489   -2.8398002   -2.8398002   -1.6364446  0.057163604   -2.8398002    1.2033556   558340 
 2001000   0.99920863   -2.8421152   -2.8421152   -1.6373443   0.06131908   -2.8421152    1.2047708   558340 
 2002000    1.0005488   -2.8421146   -2.8421146   -1.6357279  0.056455259   -2.8421146    1.2063868   558340 
 2003000   0.99962169   -2.8404944   -2.8404944   -1.6352255  0.064214518   -2.8404944    1.2052689   558340 
 2004000   0.99855513   -2.8395702   -2.8395702   -1.6355873  0.062404137   -2.8395702    1.2039829   558340 
 2005000   0.99932574   -2.8406174   -2.8406174   -1.6357054  0.066682977   -2.8406174     1.204912   558340 
 2006000   0.99956926   -2.8398817   -2.8398817    -1.634676  0.064317698   -2.8398817    1.2052057   558340 
 2007000   0.99991326   -2.8405407   -2.8405407   -1.6349203  0.062404788   -2.8405407    1.2056204   558340 
 2008000    1.0005624    -2.841805    -2.841805   -1.6354019  0.058990291    -2.841805    1.2064031   558340 
 2009000   0.99994297   -2.8416181   -2.8416181   -1.6359619  0.066424648   -2.8416181    1.2056562   558340 
 2010000   0.99969687   -2.8403987   -2.8403987   -1.6350392  0.065519985   -2.8403987    1.2053595   558340 
 2011000   0.99925712   -2.8408749   -2.8408749   -1.6360456  0.061627644   -2.8408749    1.2048293   558340 
 2012000    1.0006872   -2.8416522   -2.8416522   -1.6350987   0.08020792   -2.8416522    1.2065536   558340 
 2013000    1.0021437   -2.8433836   -2.8433836    -1.635074   0.06024629   -2.8433836    1.2083097   558340 
 2014000    1.0017505   -2.8437628   -2.8437628   -1.6359272  0.061681328   -2.8437628    1.2078356   558340 
 2015000     1.001581    -2.843749    -2.843749   -1.6361177  0.055571851    -2.843749    1.2076313   558340 
 2016000    1.0017788   -2.8434175   -2.8434175   -1.6355477  0.066059783   -2.8434175    1.2078698   558340 
 2017000    1.0014826   -2.8422586   -2.8422586    -1.634746  0.078790814   -2.8422586    1.2075126   558340 
 2018000    1.0014155   -2.8427367   -2.8427367    -1.635305  0.069788107   -2.8427367    1.2074318   558340 
 2019000    1.0019233   -2.8438355   -2.8438355   -1.6357916  0.062131783   -2.8438355    1.2080439   558340 
 2020000     1.003091   -2.8446177   -2.8446177   -1.6351658  0.069462854   -2.8446177    1.2094519   558340 
 2021000    1.0018084   -2.8431849   -2.8431849   -1.6352794  0.068570595   -2.8431849    1.2079055   558340 
 2022000    1.0017947   -2.8438752   -2.8438752   -1.6359863  0.066565646   -2.8438752    1.2078889   558340 
 2023000    1.0009652   -2.8439121   -2.8439121   -1.6370234  0.070303812   -2.8439121    1.2068887   558340 
 2024000    1.0013531   -2.8446845   -2.8446845    -1.637328  0.069995756   -2.8446845    1.2073565   558340 
 2025000    1.0016594   -2.8447773   -2.8447773   -1.6370515  0.068534446   -2.8447773    1.2077258   558340 
 2026000    1.0021087    -2.845542    -2.845542   -1.6372745  0.073786568    -2.845542    1.2082675   558340 
 2027000    1.0016432   -2.8438949   -2.8438949   -1.6361886  0.068280462   -2.8438949    1.2077063   558340 
 2028000    1.0003489   -2.8423785   -2.8423785   -1.6362328  0.063862484   -2.8423785    1.2061457   558340 
 2029000    1.0001182   -2.8421579   -2.8421579   -1.6362903  0.071197176   -2.8421579    1.2058676   558340 
 2030000   0.99999908    -2.842895    -2.842895   -1.6371711   0.06160489    -2.842895    1.2057239   558340 
 2031000    1.0014912   -2.8442238   -2.8442238   -1.6367008  0.055162559   -2.8442238     1.207523   558340 
 2032000    1.0009098    -2.843527    -2.843527    -1.636705  0.072409775    -2.843527     1.206822   558340 
 2033000    1.0007791   -2.8427753   -2.8427753   -1.6361109  0.060645008   -2.8427753    1.2066643   558340 
 2034000    1.0005118   -2.8427215   -2.8427215   -1.6363794  0.064809134   -2.8427215    1.2063421   558340 
 2035000     1.001575   -2.8435415   -2.8435415   -1.6359175  0.057339923   -2.8435415     1.207624   558340 
 2036000    1.0015924   -2.8438241   -2.8438241   -1.6361791  0.070706727   -2.8438241    1.2076451   558340 
 2037000    1.0015329   -2.8432731   -2.8432731   -1.6356997  0.065370421   -2.8432731    1.2075733   558340 
 2038000     1.001153   -2.8429508   -2.8429508   -1.6358356  0.063085087   -2.8429508    1.2071152   558340 
 2039000   0.99999703   -2.8421386   -2.8421386   -1.6364171  0.065175808   -2.8421386    1.2057214   558340 
 2040000    1.0015816   -2.8425993   -2.8425993   -1.6349674  0.063211037   -2.8425993    1.2076319   558340 
 2041000    1.0004541   -2.8424438   -2.8424438   -1.6361713  0.061780879   -2.8424438    1.2062725   558340 
 2042000    1.0022528   -2.8434907   -2.8434907   -1.6350495  0.056627504   -2.8434907    1.2084412   558340 
 2043000    1.0008834   -2.8407659   -2.8407659   -1.6339758  0.069495694   -2.8407659    1.2067901   558340 
 2044000   0.99976813   -2.8389393   -2.8389393   -1.6334939  0.074795974   -2.8389393    1.2054454   558340 
 2045000    1.0009479   -2.8401146   -2.8401146   -1.6332467  0.069079506   -2.8401146    1.2068679   558340 
 2046000    1.0013857   -2.8394207   -2.8394207   -1.6320249  0.070090893   -2.8394207    1.2073958   558340 
 2047000    1.0012884   -2.8403962   -2.8403962   -1.6331177  0.058232865   -2.8403962    1.2072785   558340 
 2048000    1.0004051   -2.8392459   -2.8392459   -1.6330324  0.063818533   -2.8392459    1.2062134   558340 
 2049000    1.0009334   -2.8408281   -2.8408281   -1.6339776  0.063693304   -2.8408281    1.2068505   558340 
 2050000    1.0035258   -2.8426118   -2.8426118   -1.6326356  0.069446058   -2.8426118    1.2099761   558340 
 2051000    1.0008875      -2.8403      -2.8403   -1.6335049  0.068512725      -2.8403    1.2067951   558340 
 2052000    1.0011538   -2.8403978   -2.8403978   -1.6332817  0.063894856   -2.8403978    1.2071161   558340 
 2053000    1.0006903   -2.8400618   -2.8400618   -1.6335045  0.068067293   -2.8400618    1.2065573   558340 
 2054000    1.0013224   -2.8402599   -2.8402599   -1.6329405  0.074652603   -2.8402599    1.2073194   558340 
 2055000    1.0015453   -2.8400478   -2.8400478   -1.6324596  0.067001868   -2.8400478    1.2075882   558340 
 2056000    1.0016314   -2.8402071   -2.8402071    -1.632515  0.068214011   -2.8402071    1.2076921   558340 
 2057000    1.0005839   -2.8384858   -2.8384858   -1.6320567  0.065040079   -2.8384858    1.2064291   558340 
 2058000    1.0000951     -2.83952     -2.83952   -1.6336804  0.063658812     -2.83952    1.2058396   558340 
 2059000    1.0001273   -2.8388017   -2.8388017   -1.6329232  0.062690476   -2.8388017    1.2058785   558340 
 2060000    1.0003088   -2.8389751   -2.8389751   -1.6328778   0.06611121   -2.8389751    1.2060973   558340 
 2061000    1.0027401   -2.8412357   -2.8412357   -1.6322069  0.057346216   -2.8412357    1.2090288   558340 
 2062000    1.0017354   -2.8400183   -2.8400183   -1.6322009  0.071366158   -2.8400183    1.2078174   558340 
 2063000    1.0005909   -2.8393591   -2.8393591   -1.6329216  0.060062748   -2.8393591    1.2064375   558340 
 2064000    1.0023955   -2.8413962   -2.8413962   -1.6327828  0.070525324   -2.8413962    1.2086134   558340 
 2065000    1.0008614   -2.8396921   -2.8396921   -1.6329285  0.060645013   -2.8396921    1.2067636   558340 
 2066000    1.0002688   -2.8400176   -2.8400176   -1.6339686  0.063977042   -2.8400176    1.2060491   558340 
 2067000   0.99964227   -2.8394422   -2.8394422   -1.6341485  0.062164028   -2.8394422    1.2052937   558340 
 2068000   0.99973114   -2.8398013   -2.8398013   -1.6344004  0.059881031   -2.8398013    1.2054008   558340 
 2069000    0.9999946   -2.8386706   -2.8386706   -1.6329521  0.066283923   -2.8386706    1.2057185   558340 
 2070000    1.0003266   -2.8389437   -2.8389437    -1.632825  0.068333249   -2.8389437    1.2061188   558340 
 2071000    1.0004783   -2.8400147   -2.8400147    -1.633713  0.062193453   -2.8400147    1.2063017   558340 
 2072000    1.0001013   -2.8400689   -2.8400689   -1.6342218  0.062059541   -2.8400689    1.2058471   558340 
 2073000    1.0002199   -2.8402606   -2.8402606   -1.6342704  0.064778672   -2.8402606    1.2059902   558340 
 2074000   0.99972335   -2.8400851   -2.8400851   -1.6346937  0.067206831   -2.8400851    1.2053914   558340 
 2075000    1.0000311   -2.8399003   -2.8399003   -1.6341378  0.061456023   -2.8399003    1.2057625   558340 
 2076000    1.0006973   -2.8413701   -2.8413701   -1.6348043  0.061634699   -2.8413701    1.2065658   558340 
 2077000   0.99933166   -2.8397746   -2.8397746   -1.6348555  0.062277171   -2.8397746    1.2049192   558340 
 2078000   0.99977185   -2.8401709   -2.8401709    -1.634721  0.054417619   -2.8401709    1.2054499   558340 
 2079000      1.00001   -2.8395947   -2.8395947   -1.6338577  0.065420889   -2.8395947     1.205737   558340 
 2080000    1.0006503    -2.839587    -2.839587    -1.633078  0.062299934    -2.839587     1.206509   558340 
 2081000    1.0019002   -2.8413915   -2.8413915   -1.6333754  0.063570412   -2.8413915    1.2080161   558340 
 2082000    1.0005677   -2.8408318   -2.8408318   -1.6344222  0.069926554   -2.8408318    1.2064095   558340 
 2083000   0.99911823   -2.8385826   -2.8385826   -1.6339208   0.06721724   -2.8385826    1.2046618   558340 
 2084000   0.99996208   -2.8396676   -2.8396676   -1.6339883  0.077938648   -2.8396676    1.2056793   558340 
 2085000    1.0016654   -2.8418221   -2.8418221   -1.6340891  0.070649429   -2.8418221     1.207733   558340 
 2086000    1.0010902   -2.8414359   -2.8414359   -1.6343964   0.05562083   -2.8414359    1.2070395   558340 
 2087000    1.0001571   -2.8402263   -2.8402263   -1.6343119  0.067574054   -2.8402263    1.2059144   558340 
 2088000    1.0002045   -2.8403807   -2.8403807    -1.634409  0.069400181   -2.8403807    1.2059716   558340 
 2089000   0.99943673   -2.8393969   -2.8393969   -1.6343511  0.061936397   -2.8393969    1.2050459   558340 
 2090000   0.99916247   -2.8382285   -2.8382285   -1.6335133   0.06764426   -2.8382285    1.2047152   558340 
 2091000    1.0007827   -2.8401615   -2.8401615   -1.6334928    0.0574882   -2.8401615    1.2066687   558340 
 2092000     1.000328   -2.8398694   -2.8398694   -1.6337489  0.066378644   -2.8398694    1.2061205   558340 
 2093000    1.0015249   -2.8412861   -2.8412861   -1.6337225  0.059410252   -2.8412861    1.2075636   558340 
 2094000    1.0007448   -2.8400725   -2.8400725   -1.6334495  0.061652241   -2.8400725    1.2066231   558340 
 2095000    1.0013279   -2.8410242   -2.8410242   -1.6336981  0.063658986   -2.8410242    1.2073261   558340 
 2096000   0.99941011   -2.8402173   -2.8402173   -1.6352035  0.066946265   -2.8402173    1.2050138   558340 
 2097000    1.0005845   -2.8410884   -2.8410884   -1.6346586  0.066021713   -2.8410884    1.2064297   558340 
 2098000   0.99951701   -2.8395474   -2.8395474   -1.6344048  0.068365679   -2.8395474    1.2051427   558340 
 2099000    1.0003338   -2.8407301   -2.8407301   -1.6346026  0.059323778   -2.8407301    1.2061275   558340 
 2100000    1.0006797   -2.8402451   -2.8402451   -1.6337006  0.059394593   -2.8402451    1.2065445   558340 
 2101000   0.99972946   -2.8388178   -2.8388178    -1.633419  0.057426721   -2.8388178    1.2053988   558340 
 2102000   0.99868397   -2.8379018   -2.8379018   -1.6337636  0.058390858   -2.8379018    1.2041382   558340 
 2103000     1.000697   -2.8397234   -2.8397234    -1.633158  0.068294745   -2.8397234    1.2065654   558340 
 2104000    1.0011255    -2.838962    -2.838962   -1.6318799  0.053647478    -2.838962    1.2070821   558340 
 2105000    1.0022544   -2.8402833   -2.8402833   -1.6318402  0.065305976   -2.8402833    1.2084432   558340 
 2106000    1.0010973   -2.8390537   -2.8390537   -1.6320057   0.05690605   -2.8390537     1.207048   558340 
 2107000    1.0034071   -2.8409865   -2.8409865   -1.6311536  0.061711295   -2.8409865     1.209833   558340 
 2108000    1.0012754   -2.8395396   -2.8395396   -1.6322768  0.074587652   -2.8395396    1.2072628   558340 
 2109000    1.0007625   -2.8392608   -2.8392608   -1.6326164  0.063215411   -2.8392608    1.2066444   558340 
 2110000    1.0011506   -2.8384727   -2.8384727   -1.6313604  0.064962305   -2.8384727    1.2071123   558340 
 2111000    1.0018799   -2.8401049   -2.8401049   -1.6321132  0.067594074   -2.8401049    1.2079917   558340 
 2112000    1.0017076   -2.8397408   -2.8397408   -1.6319569  0.058872584   -2.8397408    1.2077839   558340 
 2113000    1.0013704   -2.8391792   -2.8391792   -1.6318019  0.069270625   -2.8391792    1.2073773   558340 
 2114000     1.000311   -2.8379375   -2.8379375   -1.6318374  0.071946534   -2.8379375       1.2061   558340 
 2115000    1.0000411   -2.8373172   -2.8373172   -1.6315426  0.068279753   -2.8373172    1.2057746   558340 
 2116000    1.0006656   -2.8386992   -2.8386992   -1.6321717  0.056009387   -2.8386992    1.2065275   558340 
 2117000    1.0009192   -2.8377864   -2.8377864   -1.6309531  0.060440416   -2.8377864    1.2068333   558340 
 2118000    0.9995397    -2.836383    -2.836383    -1.631213   0.06322024    -2.836383      1.20517   558340 
 2119000    1.0004294   -2.8367141   -2.8367141   -1.6304714   0.05453925   -2.8367141    1.2062427   558340 
 2120000    1.0001193   -2.8360491   -2.8360491   -1.6301803   0.06002443   -2.8360491    1.2058688   558340 
 2121000    1.0003411   -2.8371784   -2.8371784   -1.6310421  0.063170505   -2.8371784    1.2061363   558340 
 2122000    1.0002508   -2.8375542   -2.8375542   -1.6315268  0.062426024   -2.8375542    1.2060273   558340 
 2123000    1.0003174   -2.8374817   -2.8374817    -1.631374  0.067195743   -2.8374817    1.2061077   558340 
 2124000    1.0013565   -2.8375776   -2.8375776   -1.6302169  0.057800021   -2.8375776    1.2073606   558340 
 2125000    1.0009577   -2.8365337   -2.8365337   -1.6296539  0.069543116   -2.8365337    1.2068798   558340 
 2126000    1.0017469   -2.8383496   -2.8383496   -1.6305183  0.059256065   -2.8383496    1.2078313   558340 
 2127000   0.99992212   -2.8354827   -2.8354827   -1.6298516  0.059299717   -2.8354827    1.2056311   558340 
 2128000   0.99895607   -2.8346939   -2.8346939   -1.6302276  0.061469483   -2.8346939    1.2044663   558340 
 2129000    1.0002465   -2.8355454   -2.8355454   -1.6295232  0.062777348   -2.8355454    1.2060222   558340 
 2130000    1.0005325   -2.8361076   -2.8361076   -1.6297405    0.0575601   -2.8361076    1.2063671   558340 
 2131000    1.0003016   -2.8366576   -2.8366576   -1.6305689  0.057314024   -2.8366576    1.2060886   558340 
 2132000   0.99928626   -2.8356495   -2.8356495   -1.6307851  0.063326158   -2.8356495    1.2048644   558340 
 2133000     1.000743   -2.8368208   -2.8368208   -1.6301999  0.062215331   -2.8368208    1.2066209   558340 
 2134000    1.0001619   -2.8354832   -2.8354832    -1.629563  0.062041618   -2.8354832    1.2059202   558340 
 2135000   0.99945976   -2.8346378   -2.8346378   -1.6295642  0.064753042   -2.8346378    1.2050736   558340 
 2136000    1.0004027   -2.8356854   -2.8356854   -1.6294749  0.063939308   -2.8356854    1.2062105   558340 
 2137000     1.001115    -2.836745    -2.836745   -1.6296757  0.059339721    -2.836745    1.2070694   558340 
 2138000   0.99982438   -2.8362771   -2.8362771   -1.6307638  0.069959188   -2.8362771    1.2055133   558340 
 2139000    1.0003414   -2.8368348   -2.8368348   -1.6306981   0.06354214   -2.8368348    1.2061367   558340 
 2140000    0.9997992   -2.8354292   -2.8354292   -1.6299463  0.071067398   -2.8354292    1.2054829   558340 
 2141000    1.0000067   -2.8358982   -2.8358982   -1.6301651  0.065487971   -2.8358982    1.2057331   558340 
 2142000    1.0013157     -2.83733     -2.83733   -1.6300186  0.068831067     -2.83733    1.2073114   558340 
 2143000    1.0007709   -2.8355514   -2.8355514   -1.6288968  0.066151578   -2.8355514    1.2066545   558340 
 2144000    1.0005303   -2.8354583   -2.8354583   -1.6290938  0.075087213   -2.8354583    1.2063644   558340 
 2145000     1.000274   -2.8350739   -2.8350739   -1.6290185  0.074039263   -2.8350739    1.2060554   558340 
 2146000   0.99974657   -2.8347537   -2.8347537   -1.6293342  0.052339952   -2.8347537    1.2054194   558340 
 2147000    1.0011075    -2.836494    -2.836494   -1.6294337  0.061779406    -2.836494    1.2070603   558340 
 2148000      1.00164   -2.8374766   -2.8374766   -1.6297743   0.05854449   -2.8374766    1.2077024   558340 
 2149000    1.0014331   -2.8373626   -2.8373626   -1.6299096  0.066202523   -2.8373626    1.2074529   558340 
 2150000     1.001207   -2.8370066   -2.8370066   -1.6298262  0.061955344   -2.8370066    1.2071804   558340 
 2151000    1.0017972   -2.8378692   -2.8378692   -1.6299773  0.062235367   -2.8378692    1.2078919   558340 
 2152000    1.0013466   -2.8378556   -2.8378556   -1.6305069  0.071618633   -2.8378556    1.2073486   558340 
 2153000    1.0014859   -2.8383588   -2.8383588   -1.6308422  0.060012441   -2.8383588    1.2075166   558340 
 2154000    1.0015199   -2.8383709   -2.8383709   -1.6308133  0.068505712   -2.8383709    1.2075576   558340 
 2155000    1.0015571   -2.8383788   -2.8383788   -1.6307763   0.06746634   -2.8383788    1.2076025   558340 
 2156000    1.0015322   -2.8386679   -2.8386679   -1.6310954  0.059698942   -2.8386679    1.2075725   558340 
 2157000    1.0012156   -2.8381734   -2.8381734   -1.6309827  0.071390567   -2.8381734    1.2071907   558340 
 2158000    1.0020992   -2.8384463   -2.8384463   -1.6301902  0.060729602   -2.8384463    1.2082561   558340 
 2159000    1.0006212   -2.8377074   -2.8377074   -1.6312333  0.060558571   -2.8377074     1.206474   558340 
 2160000    1.0020799   -2.8404612   -2.8404612   -1.6322283  0.055015873   -2.8404612    1.2082328   558340 
 2161000   0.99902053   -2.8361245   -2.8361245   -1.6315805  0.057319582   -2.8361245     1.204544   558340 
 2162000   0.99952236   -2.8373043   -2.8373043   -1.6321552  0.064131548   -2.8373043    1.2051491   558340 
 2163000    1.0010329   -2.8382235   -2.8382235   -1.6312532  0.063379885   -2.8382235    1.2069704   558340 
 2164000    1.0009546   -2.8383036   -2.8383036   -1.6314277  0.059035678   -2.8383036    1.2068759   558340 
 2165000    1.0002605    -2.837505    -2.837505   -1.6314658  0.066020016    -2.837505    1.2060391   558340 
 2166000    1.0002313   -2.8382836   -2.8382836   -1.6322796  0.071444702   -2.8382836    1.2060039   558340 
 2167000    1.0023804   -2.8407212   -2.8407212   -1.6321262  0.072427107   -2.8407212    1.2085951   558340 
 2168000    1.0028077   -2.8408563   -2.8408563    -1.631746  0.062431274   -2.8408563    1.2091103   558340 
 2169000    1.0003568   -2.8378218   -2.8378218   -1.6316666  0.065711454   -2.8378218    1.2061552   558340 
 2170000    1.0020948   -2.8402917   -2.8402917   -1.6320409  0.070598053   -2.8402917    1.2082508   558340 
 2171000    1.0011775   -2.8393048   -2.8393048     -1.63216  0.068881657   -2.8393048    1.2071448   558340 
 2172000    1.0006782   -2.8381076   -2.8381076   -1.6315649  0.062174942   -2.8381076    1.2065427   558340 
 2173000    1.0026197    -2.839145    -2.839145   -1.6302613   0.07088719    -2.839145    1.2088837   558340 
 2174000    1.0005126   -2.8379611   -2.8379611   -1.6316181  0.070737605   -2.8379611     1.206343   558340 
 2175000    1.0012043   -2.8396804   -2.8396804   -1.6325033  0.061545715   -2.8396804    1.2071771   558340 
 2176000    1.0009745   -2.8385135   -2.8385135   -1.6316134  0.056811516   -2.8385135       1.2069   558340 
 2177000    0.9997203   -2.8382363   -2.8382363   -1.6328486  0.059841312   -2.8382363    1.2053878   558340 
 2178000   0.99952826   -2.8378647   -2.8378647   -1.6327085  0.066367093   -2.8378647    1.2051562   558340 
 2179000   0.99970062   -2.8395989   -2.8395989   -1.6342348  0.072132838   -2.8395989     1.205364   558340 
 2180000   0.99940978   -2.8376678   -2.8376678   -1.6326545  0.062472845   -2.8376678    1.2050134   558340 
 2181000   0.99941141   -2.8369171   -2.8369171   -1.6319018  0.058532033   -2.8369171    1.2050153   558340 
 2182000    1.0019904   -2.8391753   -2.8391753   -1.6310504  0.057873558   -2.8391753    1.2081249   558340 
 2183000   0.99909137   -2.8363127   -2.8363127   -1.6316833  0.059413956   -2.8363127    1.2046294   558340 
 2184000     1.000997   -2.8377984   -2.8377984   -1.6308712  0.066110558   -2.8377984    1.2069272   558340 
 2185000    1.0010001   -2.8375326   -2.8375326   -1.6306017  0.062778564   -2.8375326    1.2069309   558340 
 2186000    1.0020879   -2.8393329   -2.8393329   -1.6310905   0.06105751   -2.8393329    1.2082425   558340 
 2187000     1.000399   -2.8370743   -2.8370743   -1.6308681  0.069859877   -2.8370743    1.2062061   558340 
 2188000    1.0025242   -2.8399556   -2.8399556   -1.6311871  0.055547158   -2.8399556    1.2087685   558340 
 2189000    1.0022674    -2.839014    -2.839014   -1.6305551  0.058469129    -2.839014    1.2084589   558340 
 2190000     1.000909    -2.838243    -2.838243    -1.631422  0.066530923    -2.838243     1.206821   558340 
 2191000     1.001816   -2.8399436   -2.8399436    -1.632029  0.071070471   -2.8399436    1.2079146   558340 
 2192000   0.99969649   -2.8380789   -2.8380789   -1.6327198  0.068071226   -2.8380789    1.2053591   558340 
 2193000    1.0000843   -2.8389717   -2.8389717   -1.6331451  0.063718494   -2.8389717    1.2058266   558340 
 2194000   0.99932324   -2.8380575   -2.8380575   -1.6331485  0.069852105   -2.8380575     1.204909   558340 
 2195000    1.0005234   -2.8397062   -2.8397062   -1.6333501  0.059532419   -2.8397062    1.2063561   558340 
 2196000    1.0011045   -2.8402537   -2.8402537   -1.6331969  0.065405533   -2.8402537    1.2070568   558340 
 2197000    1.0023625   -2.8413419   -2.8413419   -1.6327684  0.064043645   -2.8413419    1.2085736   558340 
 2198000    1.0011242   -2.8402118   -2.8402118   -1.6331313  0.056684219   -2.8402118    1.2070805   558340 
 2199000    1.0010885   -2.8406128   -2.8406128   -1.6335754  0.060739325   -2.8406128    1.2070374   558340 
 2200000    1.0008005   -2.8393809   -2.8393809   -1.6326906   0.06610992   -2.8393809    1.2066902   558340 
 2201000    1.0011459   -2.8396454   -2.8396454   -1.6325387  0.061344476   -2.8396454    1.2071067   558340 
 2202000    1.0009352   -2.8390089   -2.8390089   -1.6321563  0.063011159   -2.8390089    1.2068526   558340 
 2203000    1.0007631   -2.8379234   -2.8379234   -1.6312783  0.065593115   -2.8379234    1.2066451   558340 
 2204000    1.0024542   -2.8396883   -2.8396883   -1.6310042  0.061988162   -2.8396883    1.2086841   558340 
 2205000    1.0025156   -2.8394234   -2.8394234   -1.6306653  0.068172057   -2.8394234    1.2087581   558340 
 2206000    1.0010778    -2.838188    -2.838188   -1.6311634  0.071040516    -2.838188    1.2070246   558340 
 2207000    1.0027517   -2.8406567   -2.8406567   -1.6316139  0.067745557   -2.8406567    1.2090428   558340 
 2208000    1.0013287   -2.8390049   -2.8390049   -1.6316778  0.060401364   -2.8390049    1.2073271   558340 
 2209000    1.0003463   -2.8375822   -2.8375822   -1.6314396  0.065673311   -2.8375822    1.2061425   558340 
 2210000    1.0013868   -2.8385152   -2.8385152   -1.6311181  0.061573071   -2.8385152    1.2073971   558340 
 2211000    1.0003303   -2.8367322   -2.8367322    -1.630609   0.05800864   -2.8367322    1.2061232   558340 
 2212000    1.0011272   -2.8383165   -2.8383165   -1.6312325  0.052125035   -2.8383165     1.207084   558340 
 2213000   0.99971208   -2.8359398   -2.8359398   -1.6305619   0.06305674   -2.8359398    1.2053779   558340 
 2214000    1.0001124   -2.8361126   -2.8361126   -1.6302522   0.06416693   -2.8361126    1.2058605   558340 
 2215000   0.99936477   -2.8351558   -2.8351558   -1.6301967  0.071563968   -2.8351558    1.2049591   558340 
 2216000    0.9995061    -2.835348    -2.835348   -1.6302185  0.062137049    -2.835348    1.2051295   558340 
 2217000    1.0007891   -2.8379326   -2.8379326   -1.6312563  0.068034482   -2.8379326    1.2066764   558340 
 2218000    1.0000514   -2.8372354   -2.8372354   -1.6314485  0.066060997   -2.8372354    1.2057869   558340 
 2219000    1.0006651   -2.8374315   -2.8374315   -1.6309046   0.05871898   -2.8374315    1.2065269   558340 
 2220000    1.0003109   -2.8373391   -2.8373391   -1.6312392  0.067494976   -2.8373391    1.2060998   558340 
 2221000    1.0010713   -2.8375656   -2.8375656   -1.6305489  0.065335144   -2.8375656    1.2070167   558340 
 2222000    1.0010674   -2.8371484   -2.8371484   -1.6301364    0.0569894   -2.8371484     1.207012   558340 
 2223000     1.000202   -2.8370757   -2.8370757   -1.6311071  0.063606022   -2.8370757    1.2059686   558340 
 2224000    1.0002879   -2.8374677   -2.8374677   -1.6313955  0.058459254   -2.8374677    1.2060721   558340 
 2225000    1.0006036   -2.8376465   -2.8376465   -1.6311938  0.061115276   -2.8376465    1.2064527   558340 
 2226000    1.0002435   -2.8361872   -2.8361872   -1.6301686  0.063865077   -2.8361872    1.2060186   558340 
 2227000    1.0012585   -2.8382939   -2.8382939   -1.6310515   0.05795396   -2.8382939    1.2072424   558340 
 2228000      1.00115    -2.837348    -2.837348   -1.6302364  0.064121303    -2.837348    1.2071116   558340 
 2229000    1.0016247   -2.8389697   -2.8389697   -1.6312857  0.052236325   -2.8389697    1.2076839   558340 
 2230000   0.99987892   -2.8373716   -2.8373716   -1.6317926  0.066945334   -2.8373716     1.205579   558340 
 2231000    1.0002434   -2.8363918   -2.8363918   -1.6303733   0.06765104   -2.8363918    1.2060185   558340 
 2232000    1.0007638   -2.8372957   -2.8372957   -1.6306498  0.056233864   -2.8372957    1.2066459   558340 
 2233000    1.0002473   -2.8362355   -2.8362355   -1.6302123  0.063537419   -2.8362355    1.2060232   558340 
 2234000    1.0005242   -2.8366366   -2.8366366   -1.6302795  0.065808368   -2.8366366    1.2063571   558340 
 2235000   0.99945401   -2.8353341   -2.8353341   -1.6302674    0.0661976   -2.8353341    1.2050667   558340 
 2236000    1.0022488   -2.8388053   -2.8388053   -1.6303689  0.060182977   -2.8388053    1.2084364   558340 
 2237000    1.0017271   -2.8387223   -2.8387223   -1.6309148  0.054978716   -2.8387223    1.2078075   558340 
 2238000    1.0025614    -2.838779    -2.838779   -1.6299656  0.064757428    -2.838779    1.2088134   558340 
 2239000    1.0018005   -2.8376408   -2.8376408   -1.6297449  0.065131375   -2.8376408    1.2078959   558340 
 2240000    1.0014373   -2.8374994   -2.8374994   -1.6300414  0.068976501   -2.8374994     1.207458   558340 
 2241000    1.0030467   -2.8395673   -2.8395673   -1.6301688  0.062673413   -2.8395673    1.2093985   558340 
 2242000    1.0029091   -2.8385721   -2.8385721   -1.6293394  0.071955006   -2.8385721    1.2092326   558340 
 2243000    1.0014129   -2.8374987   -2.8374987     -1.63007  0.065465171   -2.8374987    1.2074286   558340 
 2244000    1.0016745   -2.8381305   -2.8381305   -1.6303865  0.070624968   -2.8381305     1.207744   558340 
 2245000    1.0025317    -2.838787    -2.838787   -1.6300095  0.061469036    -2.838787    1.2087775   558340 
 2246000    1.0023865   -2.8383663   -2.8383663   -1.6297638   0.05675211   -2.8383663    1.2086025   558340 
 2247000    1.0029316   -2.8396315   -2.8396315   -1.6303718  0.064154234   -2.8396315    1.2092597   558340 
 2248000     1.000876   -2.8377375   -2.8377375   -1.6309563  0.065066485   -2.8377375    1.2067812   558340 
 2249000    1.0009018   -2.8372593   -2.8372593   -1.6304469  0.075289438   -2.8372593    1.2068124   558340 
 2250000    1.0009286   -2.8377451   -2.8377451   -1.6309004  0.056966082   -2.8377451    1.2068446   558340 
 2251000    1.0003757   -2.8369128   -2.8369128   -1.6307349   0.05738436   -2.8369128     1.206178   558340 
 2252000    1.0011979   -2.8381189   -2.8381189   -1.6309495  0.055564848   -2.8381189    1.2071694   558340 
 2253000    1.0005787   -2.8371122   -2.8371122   -1.6306894  0.067570346   -2.8371122    1.2064228   558340 
 2254000   0.99994113   -2.8365711   -2.8365711    -1.630917  0.066342032   -2.8365711     1.205654   558340 
 2255000    1.0000342   -2.8371735   -2.8371735   -1.6314073  0.059899791   -2.8371735    1.2057662   558340 
 2256000   0.99845444   -2.8339112   -2.8339112   -1.6300497  0.070315116   -2.8339112    1.2038615   558340 
 2257000    1.0005907   -2.8362299   -2.8362299   -1.6297927  0.057831639   -2.8362299    1.2064372   558340 
 2258000    1.0006541    -2.836163    -2.836163   -1.6296493  0.062513306    -2.836163    1.2065137   558340 
 2259000    1.0017098   -2.8368154   -2.8368154   -1.6290289  0.061563295   -2.8368154    1.2077865   558340 
 2260000    1.0003886    -2.835237    -2.835237   -1.6290434  0.068694877    -2.835237    1.2061936   558340 
 2261000    1.0015344   -2.8374412   -2.8374412   -1.6298662  0.060028698   -2.8374412     1.207575   558340 
 2262000    1.0000198   -2.8354815   -2.8354815   -1.6297326  0.071783294   -2.8354815    1.2057489   558340 
 2263000    1.0005605   -2.8365006   -2.8365006   -1.6300998  0.058902213   -2.8365006    1.2064008   558340 
 2264000    1.0017797   -2.8375294   -2.8375294   -1.6296585  0.061034454   -2.8375294    1.2078708   558340 
 2265000    1.0029126   -2.8381073   -2.8381073   -1.6288705  0.051963613   -2.8381073    1.2092368   558340 
 2266000    1.0019484   -2.8374968   -2.8374968   -1.6294225  0.063844332   -2.8374968    1.2080743   558340 
 2267000    1.0016228   -2.8375315   -2.8375315   -1.6298498  0.059471962   -2.8375315    1.2076817   558340 
 2268000    1.0013691   -2.8377198   -2.8377198   -1.6303441  0.067668023   -2.8377198    1.2073757   558340 
 2269000    1.0010915   -2.8370194   -2.8370194   -1.6299784  0.055397277   -2.8370194    1.2070411   558340 
 2270000   0.99893578   -2.8360053   -2.8360053   -1.6315635  0.065373054   -2.8360053    1.2044419   558340 
 2271000    1.0011332   -2.8387607   -2.8387607   -1.6316694  0.054926803   -2.8387607    1.2070913   558340 
 2272000    1.0004053   -2.8383148   -2.8383148   -1.6321011  0.061884636   -2.8383148    1.2062137   558340 
 2273000    1.0000275     -2.83734     -2.83734   -1.6315818  0.059730896     -2.83734    1.2057582   558340 
 2274000   0.99967815   -2.8385104   -2.8385104   -1.6331735  0.054012288   -2.8385104    1.2053369   558340 
 2275000    1.0007238   -2.8393619   -2.8393619   -1.6327641  0.067311636   -2.8393619    1.2065977   558340 
 2276000    1.0000959   -2.8382946   -2.8382946   -1.6324539  0.068689683   -2.8382946    1.2058406   558340 
 2277000    1.0004474   -2.8384527   -2.8384527   -1.6321882  0.068876406   -2.8384527    1.2062644   558340 
 2278000    1.0011468   -2.8392968   -2.8392968    -1.632189  0.062570243   -2.8392968    1.2071078   558340 
 2279000    1.0009495   -2.8385679   -2.8385679   -1.6316981  0.067691015   -2.8385679    1.2068698   558340 
 2280000    1.0009361   -2.8384804   -2.8384804   -1.6316267   0.06096282   -2.8384804    1.2068536   558340 
 2281000     1.001609   -2.8393948   -2.8393948   -1.6317298  0.066155812   -2.8393948    1.2076651   558340 
 2282000   0.99956741   -2.8383002   -2.8383002   -1.6330968  0.059835133   -2.8383002    1.2052034   558340 
 2283000    1.0009546   -2.8386467   -2.8386467   -1.6317707  0.056549636   -2.8386467     1.206876   558340 
 2284000    1.0009893   -2.8388981   -2.8388981   -1.6319802  0.061556189   -2.8388981    1.2069179   558340 
 2285000    1.0025184   -2.8409673   -2.8409673   -1.6322058  0.062515703   -2.8409673    1.2087615   558340 
 2286000    1.0018544   -2.8392308   -2.8392308     -1.63127   0.06889629   -2.8392308    1.2079609   558340 
 2287000    1.0025742   -2.8411109   -2.8411109   -1.6322822  0.070280198   -2.8411109    1.2088287   558340 
 2288000    1.0009909    -2.838733    -2.838733   -1.6318133  0.060279554    -2.838733    1.2069197   558340 
 2289000    1.0023612   -2.8399801   -2.8399801   -1.6314081  0.061963469   -2.8399801     1.208572   558340 
 2290000    1.0008728   -2.8383728   -2.8383728   -1.6315953  0.065227967   -2.8383728    1.2067774   558340 
 2291000    1.0013465   -2.8390466   -2.8390466    -1.631698  0.065833927   -2.8390466    1.2073486   558340 
 2292000    1.0007447   -2.8384243   -2.8384243   -1.6318013  0.064322008   -2.8384243    1.2066229   558340 
 2293000    1.0018956   -2.8401969   -2.8401969   -1.6321863  0.060097273   -2.8401969    1.2080106   558340 
 2294000    1.0005768   -2.8383987   -2.8383987   -1.6319782    0.0589586   -2.8383987    1.2064205   558340 
 2295000    1.0024847   -2.8394039   -2.8394039    -1.630683  0.054729872   -2.8394039    1.2087208   558340 
 2296000    1.0018431   -2.8375569   -2.8375569   -1.6296096  0.071885327   -2.8375569    1.2079473   558340 
 2297000    1.0015312   -2.8376562   -2.8376562   -1.6300849  0.073596005   -2.8376562    1.2075713   558340 
 2298000    1.0020036   -2.8400204   -2.8400204   -1.6318795  0.065066265   -2.8400204    1.2081408   558340 
 2299000    1.0020245   -2.8394573   -2.8394573   -1.6312913   0.06534556   -2.8394573     1.208166   558340 
 2300000    1.0011516   -2.8388054   -2.8388054   -1.6316918  0.059514556   -2.8388054    1.2071136   558340 
 2301000    1.0019376   -2.8392223   -2.8392223    -1.631161  0.071182666   -2.8392223    1.2080612   558340 
 2302000    1.0009078   -2.8380595   -2.8380595     -1.63124  0.049173159   -2.8380595    1.2068195   558340 
 2303000    1.0008511    -2.837521    -2.837521   -1.6307698  0.070407608    -2.837521    1.2067512   558340 
 2304000    1.0006801   -2.8382787   -2.8382787   -1.6317336  0.067423791   -2.8382787    1.2065451   558340 
 2305000    1.0000557   -2.8371347   -2.8371347   -1.6313425  0.071123385   -2.8371347    1.2057922   558340 
 2306000    1.0010838   -2.8390333   -2.8390333   -1.6320015  0.065566294   -2.8390333    1.2070318   558340 
 2307000    1.0007891   -2.8379681   -2.8379681   -1.6312917  0.062683845   -2.8379681    1.2066764   558340 
 2308000    1.0012787   -2.8395755   -2.8395755   -1.6323087  0.065361173   -2.8395755    1.2072668   558340 
 2309000    1.0014049   -2.8399243   -2.8399243   -1.6325054  0.061874011   -2.8399243    1.2074189   558340 
 2310000    1.0003628   -2.8383069   -2.8383069   -1.6321444  0.068178083   -2.8383069    1.2061624   558340 
 2311000    1.0003988    -2.838787    -2.838787   -1.6325812  0.063541887    -2.838787    1.2062059   558340 
 2312000    1.0001155   -2.8379561   -2.8379561   -1.6320918  0.064256534   -2.8379561    1.2058643   558340 
 2313000    1.0013925   -2.8389821   -2.8389821   -1.6315781  0.070011551   -2.8389821     1.207404   558340 
 2314000    1.0027712   -2.8404398   -2.8404398   -1.6313734  0.059126027   -2.8404398    1.2090664   558340 
 2315000    1.0000998   -2.8380185   -2.8380185   -1.6321733  0.063936469   -2.8380185    1.2058453   558340 
 2316000    1.0007734   -2.8388162   -2.8388162   -1.6321587  0.074675437   -2.8388162    1.2066575   558340 
 2317000    1.0025282   -2.8397683   -2.8397683   -1.6309949  0.067059437   -2.8397683    1.2087734   558340 
 2318000    1.0007673   -2.8377814   -2.8377814   -1.6311313  0.075517088   -2.8377814    1.2066502   558340 
 2319000    1.0014655    -2.839069    -2.839069    -1.631577   0.06816073    -2.839069     1.207492   558340 
 2320000    1.0027018   -2.8397805   -2.8397805   -1.6307979  0.071181168   -2.8397805    1.2089826   558340 
 2321000     1.003182   -2.8402981   -2.8402981   -1.6307365  0.065048422   -2.8402981    1.2095616   558340 
 2322000    1.0020996   -2.8398154   -2.8398154   -1.6315588  0.065909908   -2.8398154    1.2082565   558340 
 2323000    1.0022447   -2.8406185   -2.8406185   -1.6321869  0.058315126   -2.8406185    1.2084315   558340 
 2324000     1.001138   -2.8385073   -2.8385073   -1.6314103  0.066573263   -2.8385073    1.2070971   558340 
 2325000    1.0023984   -2.8398874   -2.8398874   -1.6312705  0.064402451   -2.8398874    1.2086168   558340 
 2326000    1.0021615   -2.8389068   -2.8389068   -1.6305757  0.067968498   -2.8389068    1.2083311   558340 
 2327000    1.0027851   -2.8389569   -2.8389569   -1.6298738  0.059571974   -2.8389569    1.2090831   558340 
 2328000    1.0004968     -2.83839     -2.83839    -1.632066  0.065328283     -2.83839     1.206324   558340 
 2329000   0.99955558    -2.838607    -2.838607   -1.6334178  0.056459947    -2.838607    1.2051892   558340 
 2330000    1.0008806    -2.839805    -2.839805   -1.6330182  0.058652295    -2.839805    1.2067868   558340 
 2331000   0.99991646   -2.8379285   -2.8379285   -1.6323043  0.057664665   -2.8379285    1.2056243   558340 
 2332000   0.99978286   -2.8378352   -2.8378352    -1.632372  0.063715162   -2.8378352    1.2054632   558340 
 2333000    1.0006278   -2.8380695   -2.8380695   -1.6315875  0.060775013   -2.8380695     1.206482   558340 
 2334000   0.99821737   -2.8350076   -2.8350076   -1.6314319  0.062035735   -2.8350076    1.2035756   558340 
 2335000   0.99998404    -2.835879    -2.835879   -1.6301732  0.067805989    -2.835879    1.2057058   558340 
 2336000    1.0006944   -2.8366598   -2.8366598   -1.6300976   0.05781869   -2.8366598    1.2065622   558340 
 2337000   0.99948581   -2.8355829   -2.8355829   -1.6304779  0.064563271   -2.8355829     1.205105   558340 
 2338000   0.99993935   -2.8371363   -2.8371363   -1.6314844   0.06240176   -2.8371363    1.2056519   558340 
 2339000    1.0002281   -2.8373151   -2.8373151   -1.6313151  0.061571724   -2.8373151        1.206   558340 
 2340000    1.0012819   -2.8381788   -2.8381788   -1.6309082  0.062168614   -2.8381788    1.2072706   558340 
 2341000    1.0006296   -2.8372237   -2.8372237   -1.6307396  0.062563608   -2.8372237    1.2064841   558340 
 2342000    1.0016558   -2.8387613   -2.8387613   -1.6310398  0.063711755   -2.8387613    1.2077215   558340 
 2343000    1.0008367   -2.8360594   -2.8360594   -1.6293256  0.067854724   -2.8360594    1.2067339   558340 
 2344000    1.0010711    -2.836306    -2.836306   -1.6292895  0.059236751    -2.836306    1.2070165   558340 
 2345000    1.0021024   -2.8377436   -2.8377436   -1.6294838   0.06483711   -2.8377436    1.2082599   558340 
 2346000    1.0029148   -2.8379455   -2.8379455    -1.628706  0.066817757   -2.8379455    1.2092395   558340 
 2347000    1.0014814   -2.8365305   -2.8365305   -1.6290193  0.068602643   -2.8365305    1.2075112   558340 
 2348000      1.00055   -2.8363191   -2.8363191   -1.6299309  0.071675778   -2.8363191    1.2063881   558340 
 2349000     1.001535   -2.8364043   -2.8364043   -1.6288284  0.075143749   -2.8364043    1.2075759   558340 
 2350000    1.0014977   -2.8379016   -2.8379016   -1.6303708  0.071386378   -2.8379016    1.2075308   558340 
 2351000    1.0028089    -2.840106    -2.840106   -1.6309942  0.061024012    -2.840106    1.2091118   558340 
 2352000    1.0034393   -2.8406043   -2.8406043   -1.6307325  0.059403758   -2.8406043    1.2098718   558340 
 2353000    1.0038793   -2.8407817   -2.8407817   -1.6303793  0.063651461   -2.8407817    1.2104024   558340 
 2354000    1.0017664   -2.8383508   -2.8383508    -1.630496  0.070947615   -2.8383508    1.2078548   558340 
 2355000    1.0022021   -2.8395674   -2.8395674   -1.6311873  0.075471049   -2.8395674    1.2083801   558340 
 2356000    1.0014213   -2.8389849   -2.8389849   -1.6315463  0.067901329   -2.8389849    1.2074387   558340 
 2357000    1.0008401   -2.8374722   -2.8374722   -1.6307343  0.064919941   -2.8374722     1.206738   558340 
 2358000    1.0004828    -2.838076    -2.838076   -1.6317689  0.063196181    -2.838076    1.2063071   558340 
 2359000    1.0011965   -2.8392122   -2.8392122   -1.6320445   0.06197832   -2.8392122    1.2071676   558340 
 2360000    1.0006235   -2.8386214   -2.8386214   -1.6321445   0.06280935   -2.8386214    1.2064768   558340 
 2361000    1.0009942   -2.8390778   -2.8390778    -1.632154  0.058980025   -2.8390778    1.2069238   558340 
 2362000   0.99958713   -2.8378343   -2.8378343   -1.6326071  0.058640886   -2.8378343    1.2052272   558340 
 2363000   0.99956595   -2.8382486   -2.8382486   -1.6330469  0.060134156   -2.8382486    1.2052017   558340 
 2364000    1.0005525   -2.8404631   -2.8404631    -1.634072  0.060954223   -2.8404631    1.2063911   558340 
 2365000    1.0005117   -2.8395238   -2.8395238   -1.6331819  0.067869624   -2.8395238    1.2063419   558340 
 2366000    1.0003602   -2.8401118   -2.8401118   -1.6339525  0.062678824   -2.8401118    1.2061593   558340 
 2367000     1.000823   -2.8397201   -2.8397201   -1.6330028  0.064712139   -2.8397201    1.2067174   558340 
 2368000     1.001864   -2.8406356   -2.8406356   -1.6326632  0.065493834   -2.8406356    1.2079724   558340 
 2369000    1.0037117    -2.842656    -2.842656   -1.6324556  0.061425855    -2.842656    1.2102003   558340 
 2370000    1.0032047   -2.8414732   -2.8414732   -1.6318842  0.062948145   -2.8414732     1.209589   558340 
 2371000    1.0022569    -2.840426    -2.840426   -1.6319798  0.071725911    -2.840426    1.2084462   558340 
 2372000    1.0039464   -2.8428557   -2.8428557   -1.6323724  0.068607983   -2.8428557    1.2104833   558340 
 2373000    1.0033324    -2.841837    -2.841837   -1.6320941  0.064267319    -2.841837    1.2097429   558340 
 2374000    1.0021995   -2.8406628   -2.8406628   -1.6322858  0.063438366   -2.8406628    1.2083769   558340 
 2375000    1.0026541   -2.8406518   -2.8406518   -1.6317267  0.068529075   -2.8406518    1.2089251   558340 
 2376000    1.0035076   -2.8408474   -2.8408474   -1.6308932  0.071732409   -2.8408474    1.2099543   558340 
 2377000    1.0035688    -2.840549    -2.840549    -1.630521  0.073305271    -2.840549     1.210028   558340 
 2378000    1.0032045   -2.8399265   -2.8399265   -1.6303378  0.072655701   -2.8399265    1.2095888   558340 
 2379000     1.003421   -2.8412754   -2.8412754   -1.6314256  0.060021942   -2.8412754    1.2098498   558340 
 2380000    1.0006905   -2.8389018   -2.8389018   -1.6323443  0.066878901   -2.8389018    1.2065575   558340 
 2381000    1.0016253   -2.8403821   -2.8403821   -1.6326975  0.063998416   -2.8403821    1.2076846   558340 
 2382000    1.0004885   -2.8391647   -2.8391647   -1.6328507  0.060063939   -2.8391647     1.206314   558340 
 2383000   0.99937659   -2.8369281   -2.8369281   -1.6319548  0.073300369   -2.8369281    1.2049733   558340 
 2384000    1.0012043   -2.8393201   -2.8393201    -1.632143  0.066607848   -2.8393201    1.2071771   558340 
 2385000    1.0005497   -2.8388614   -2.8388614   -1.6324737  0.069546059   -2.8388614    1.2063878   558340 
 2386000    1.0014008   -2.8392175   -2.8392175   -1.6318035  0.053892991   -2.8392175     1.207414   558340 
 2387000   0.99996402   -2.8377908   -2.8377908   -1.6321091   0.06505885   -2.8377908    1.2056816   558340 
 2388000    1.0016706   -2.8396972   -2.8396972    -1.631958  0.062035037   -2.8396972    1.2077392   558340 
 2389000   0.99890934    -2.836596    -2.836596    -1.632186  0.068965667    -2.836596      1.20441   558340 
 2390000    1.0006471   -2.8389225   -2.8389225   -1.6324173   0.05539199   -2.8389225    1.2065052   558340 
 2391000    1.0008699    -2.838982    -2.838982   -1.6322081  0.057525844    -2.838982    1.2067739   558340 
 2392000    1.0005997    -2.838418    -2.838418   -1.6319699  0.064840308    -2.838418    1.2064481   558340 
 2393000    1.0010164   -2.8378799   -2.8378799   -1.6309294  0.062235488   -2.8378799    1.2069505   558340 
 2394000   0.99910319   -2.8371269   -2.8371269   -1.6324832   0.06157233   -2.8371269    1.2046437   558340 
 2395000    1.0018585   -2.8399428   -2.8399428    -1.631977  0.061530834   -2.8399428    1.2079658   558340 
 2396000      1.00223   -2.8395459   -2.8395459   -1.6311322  0.076710454   -2.8395459    1.2084137   558340 
 2397000    1.0014694   -2.8398285   -2.8398285   -1.6323317  0.067242008   -2.8398285    1.2074968   558340 
 2398000    1.0011646   -2.8382144   -2.8382144   -1.6310852   0.06380443   -2.8382144    1.2071292   558340 
 2399000    1.0015378   -2.8380327   -2.8380327   -1.6304535   0.06578331   -2.8380327    1.2075792   558340 
 2400000    1.0023294   -2.8390184   -2.8390184   -1.6304847  0.067400267   -2.8390184    1.2085337   558340 
 2401000    1.0028507   -2.8403571   -2.8403571    -1.631195  0.067734501   -2.8403571    1.2091622   558340 
 2402000    1.0030544   -2.8408586   -2.8408586   -1.6314509  0.059660004   -2.8408586    1.2094077   558340 
 2403000    1.0026954   -2.8400836   -2.8400836   -1.6311087  0.068712329   -2.8400836    1.2089749   558340 
 2404000    1.0012156   -2.8388019   -2.8388019   -1.6316112  0.063405495   -2.8388019    1.2071907   558340 
 2405000     1.002117   -2.8386617   -2.8386617   -1.6303841  0.066838286   -2.8386617    1.2082775   558340 
 2406000    1.0026833   -2.8398066   -2.8398066   -1.6308462  0.064602487   -2.8398066    1.2089603   558340 
 2407000    1.0027367   -2.8393591   -2.8393591   -1.6303344  0.055647982   -2.8393591    1.2090247   558340 
 2408000     1.002423   -2.8401139   -2.8401139   -1.6314674  0.068445238   -2.8401139    1.2086465   558340 
 2409000    1.0019288   -2.8399573   -2.8399573   -1.6319067  0.069079295   -2.8399573    1.2080505   558340 
 2410000    1.0014906   -2.8389884   -2.8389884    -1.631466  0.068040571   -2.8389884    1.2075223   558340 
 2411000    1.0029249    -2.841142    -2.841142   -1.6318904  0.062673473    -2.841142    1.2092517   558340 
 2412000    1.0009358   -2.8391729   -2.8391729   -1.6323196  0.068855989   -2.8391729    1.2068534   558340 
 2413000    1.0012228    -2.838637    -2.838637   -1.6314377   0.06711097    -2.838637    1.2071994   558340 
 2414000    1.0014056   -2.8393429   -2.8393429   -1.6319232  0.064922564   -2.8393429    1.2074198   558340 
 2415000    1.0016815    -2.840094    -2.840094   -1.6323415   0.06075024    -2.840094    1.2077525   558340 
 2416000    1.0005502    -2.838011    -2.838011   -1.6316227   0.06116752    -2.838011    1.2063884   558340 
 2417000      1.00101   -2.8396663   -2.8396663   -1.6327235  0.066461477   -2.8396663    1.2069428   558340 
 2418000    1.0013309   -2.8394029   -2.8394029   -1.6320732  0.061522132   -2.8394029    1.2073297   558340 
 2419000    1.0013131    -2.839906    -2.839906   -1.6325977  0.055791253    -2.839906    1.2073083   558340 
 2420000   0.99943924   -2.8374237   -2.8374237   -1.6323748  0.069814646   -2.8374237    1.2050489   558340 
 2421000   0.99897689   -2.8370916   -2.8370916   -1.6326002  0.065018058   -2.8370916    1.2044914   558340 
 2422000   0.99974896   -2.8369704   -2.8369704   -1.6315481  0.050214304   -2.8369704    1.2054223   558340 
 2423000   0.99990984   -2.8375814   -2.8375814   -1.6319651  0.064358347   -2.8375814    1.2056163   558340 
 2424000    1.0012671    -2.838518    -2.838518   -1.6312652  0.059782628    -2.838518    1.2072528   558340 
 2425000     1.001843   -2.8395081   -2.8395081    -1.631561  0.069890169   -2.8395081    1.2079471   558340 
 2426000    1.0018751    -2.839376    -2.839376   -1.6313901  0.064827246    -2.839376    1.2079859   558340 
 2427000    1.0008507   -2.8387279   -2.8387279   -1.6319771  0.056453621   -2.8387279    1.2067508   558340 
 2428000      1.00108   -2.8382669   -2.8382669   -1.6312397  0.055710353   -2.8382669    1.2070272   558340 
 2429000    1.0014873   -2.8390731   -2.8390731   -1.6315549  0.055128383   -2.8390731    1.2075183   558340 
 2430000    1.0003987   -2.8373278   -2.8373278    -1.631122  0.062072026   -2.8373278    1.2062057   558340 
 2431000    1.0002441   -2.8366795   -2.8366795   -1.6306602  0.072391967   -2.8366795    1.2060193   558340 
 2432000   0.99977706   -2.8367261   -2.8367261   -1.6312699  0.061231854   -2.8367261    1.2054562   558340 
 2433000    1.0002459   -2.8375621   -2.8375621   -1.6315406  0.067833844   -2.8375621    1.2060215   558340 
 2434000    0.9995716   -2.8364108   -2.8364108   -1.6312023  0.070342469   -2.8364108    1.2052085   558340 
 2435000    1.0002535   -2.8370077   -2.8370077   -1.6309771  0.057891272   -2.8370077    1.2060306   558340 
 2436000    1.0015258   -2.8386799   -2.8386799   -1.6311152  0.055527631   -2.8386799    1.2075647   558340 
 2437000    1.0003244   -2.8373232   -2.8373232    -1.631207  0.057407065   -2.8373232    1.2061162   558340 
 2438000    1.0011462   -2.8376217   -2.8376217   -1.6305146   0.05441389   -2.8376217     1.207107   558340 
 2439000      1.00076   -2.8369603   -2.8369603    -1.630319  0.073483296   -2.8369603    1.2066413   558340 
 2440000    1.0016697   -2.8392328   -2.8392328   -1.6314946  0.065642238   -2.8392328    1.2077381   558340 
 2441000    1.0002186   -2.8374022   -2.8374022   -1.6314136  0.062832612   -2.8374022    1.2059885   558340 
 2442000    1.0006007   -2.8371899   -2.8371899   -1.6307406  0.072940894   -2.8371899    1.2064493   558340 
 2443000     1.001333   -2.8380111   -2.8380111   -1.6306789  0.058921549   -2.8380111    1.2073322   558340 
 2444000   0.99983405   -2.8363286   -2.8363286   -1.6308037  0.062962564   -2.8363286    1.2055249   558340 
 2445000    1.0006277   -2.8360911   -2.8360911   -1.6296093  0.059653653   -2.8360911    1.2064818   558340 
 2446000     1.000118    -2.836209    -2.836209   -1.6303418  0.068428901    -2.836209    1.2058672   558340 
 2447000    1.0016914   -2.8371985   -2.8371985   -1.6294341  0.058474082   -2.8371985    1.2077644   558340 
 2448000    1.0031086   -2.8388151   -2.8388151   -1.6293421  0.063905627   -2.8388151    1.2094731   558340 
 2449000    1.0001763   -2.8362106   -2.8362106    -1.630273  0.061162288   -2.8362106    1.2059376   558340 
 2450000    1.0030109   -2.8387461   -2.8387461   -1.6293908   0.06327966   -2.8387461    1.2093553   558340 
 2451000    1.0001961   -2.8363875   -2.8363875    -1.630426  0.069148222   -2.8363875    1.2059614   558340 
 2452000    1.0016625   -2.8379583   -2.8379583   -1.6302287  0.062022637   -2.8379583    1.2077296   558340 
 2453000    1.0025949   -2.8385805   -2.8385805   -1.6297267  0.068945442   -2.8385805    1.2088538   558340 
 2454000    1.0015756   -2.8365241   -2.8365241   -1.6288994  0.062275461   -2.8365241    1.2076247   558340 
 2455000    1.0021681   -2.8377237   -2.8377237   -1.6293846  0.069284587   -2.8377237    1.2083391   558340 
 2456000    1.0016407   -2.8374069   -2.8374069   -1.6297037  0.060445529   -2.8374069    1.2077032   558340 
 2457000     1.000514   -2.8364498   -2.8364498   -1.6301051  0.072808792   -2.8364498    1.2063447   558340 
 2458000    1.0012231   -2.8370896   -2.8370896   -1.6298899  0.067433438   -2.8370896    1.2071997   558340 
 2459000    1.0017214   -2.8380663   -2.8380663   -1.6302659  0.064715892   -2.8380663    1.2078005   558340 
 2460000    1.0017946   -2.8391727   -2.8391727   -1.6312839  0.065804478   -2.8391727    1.2078888   558340 
 2461000    1.0007815   -2.8365882   -2.8365882   -1.6299209  0.067562416   -2.8365882    1.2066673   558340 
 2462000    1.0023124   -2.8387817   -2.8387817   -1.6302686  0.068277967   -2.8387817    1.2085131   558340 
 2463000    1.0018985   -2.8376023   -2.8376023   -1.6295882  0.071016408   -2.8376023    1.2080141   558340 
 2464000    1.0024541   -2.8378641   -2.8378641   -1.6291802  0.061964448   -2.8378641    1.2086839   558340 
 2465000    1.0030668   -2.8396805   -2.8396805   -1.6302578  0.068401331   -2.8396805    1.2094227   558340 
 2466000    1.0025381   -2.8391856   -2.8391856   -1.6304004  0.072229683   -2.8391856    1.2087852   558340 
 2467000    1.0017316   -2.8384981   -2.8384981   -1.6306852  0.075673819   -2.8384981    1.2078128   558340 
 2468000    1.0008363   -2.8369921   -2.8369921   -1.6302587  0.072125712   -2.8369921    1.2067333   558340 
 2469000    1.0025496   -2.8393219   -2.8393219   -1.6305228  0.069722109   -2.8393219    1.2087991   558340 
 2470000    1.0020137   -2.8374894   -2.8374894   -1.6293364    0.0612485   -2.8374894     1.208153   558340 
 2471000    1.0025225   -2.8390582   -2.8390582   -1.6302917  0.060418383   -2.8390582    1.2087665   558340 
 2472000    1.0017228   -2.8384999   -2.8384999   -1.6306976  0.066739031   -2.8384999    1.2078023   558340 
 2473000    1.0018402    -2.837689    -2.837689   -1.6297452  0.059756932    -2.837689    1.2079438   558340 
 2474000    1.0022067   -2.8378018   -2.8378018   -1.6294161   0.06597966   -2.8378018    1.2083856   558340 
 2475000     0.999725   -2.8356181   -2.8356181   -1.6302247  0.056483895   -2.8356181    1.2053934   558340 
 2476000   0.99911723   -2.8362704   -2.8362704   -1.6316098   0.06302442   -2.8362704    1.2046606   558340 
 2477000   0.99863779   -2.8364953   -2.8364953   -1.6324127  0.065105999   -2.8364953    1.2040826   558340 
 2478000    1.0008211   -2.8372631   -2.8372631   -1.6305481  0.056973449   -2.8372631     1.206715   558340 
 2479000    1.0002772   -2.8361581   -2.8361581   -1.6300989  0.061466175   -2.8361581    1.2060592   558340 
 2480000     1.000532   -2.8358618   -2.8358618   -1.6294954  0.063776198   -2.8358618    1.2063664   558340 
 2481000    1.0013518   -2.8363012   -2.8363012   -1.6289462  0.067240156   -2.8363012    1.2073549   558340 
 2482000    1.0003903    -2.836443    -2.836443   -1.6302473   0.05806129    -2.836443    1.2061957   558340 
 2483000    1.0006778   -2.8369468   -2.8369468   -1.6304046  0.062647211   -2.8369468    1.2065422   558340 
 2484000    1.0008245   -2.8372945   -2.8372945   -1.6305754  0.070950799   -2.8372945    1.2067191   558340 
 2485000    1.0004518   -2.8363413   -2.8363413   -1.6300716   0.06258712   -2.8363413    1.2062697   558340 
 2486000    1.0017508   -2.8371201   -2.8371201   -1.6292841   0.06669197   -2.8371201     1.207836   558340 
 2487000    1.0020167   -2.8375268   -2.8375268   -1.6293702  0.060840121   -2.8375268    1.2081566   558340 
 2488000    1.0011242    -2.836632    -2.836632   -1.6295515  0.060981432    -2.836632    1.2070805   558340 
 2489000    1.0001202   -2.8359625   -2.8359625   -1.6300925  0.062675155   -2.8359625      1.20587   558340 
 2490000    1.0023628   -2.8378536   -2.8378536   -1.6292797  0.071000806   -2.8378536    1.2085738   558340 
 2491000    1.0007185    -2.835903    -2.835903   -1.6293117  0.061127557    -2.835903    1.2065913   558340 
 2492000    1.0014974   -2.8369918   -2.8369918   -1.6294614  0.059069006   -2.8369918    1.2075304   558340 
 2493000    1.0005988   -2.8359203   -2.8359203   -1.6294732  0.066361662   -2.8359203     1.206447   558340 
 2494000    1.0027725   -2.8380111   -2.8380111   -1.6289432  0.056345252   -2.8380111    1.2090679   558340 
 2495000    1.0020124   -2.8368898   -2.8368898   -1.6287384  0.063091595   -2.8368898    1.2081514   558340 
 2496000    1.0031188   -2.8380668   -2.8380668   -1.6285813  0.061713834   -2.8380668    1.2094854   558340 
 2497000    1.0027711   -2.8383782   -2.8383782    -1.629312  0.058900882   -2.8383782    1.2090662   558340 
 2498000    1.0027063    -2.837499    -2.837499   -1.6285109  0.065520947    -2.837499    1.2089881   558340 
 2499000     1.003669   -2.8384217   -2.8384217   -1.6282728  0.056848817   -2.8384217    1.2101489   558340 
 2500000     1.003879   -2.8383867   -2.8383867   -1.6279848  0.071669353   -2.8383867     1.210402   558340 
 2501000    1.0016052   -2.8354966   -2.8354966   -1.6278362  0.075475498   -2.8354966    1.2076604   558340 
 2502000    1.0024374   -2.8373008   -2.8373008   -1.6286369  0.070229018   -2.8373008    1.2086638   558340 
 2503000    1.0026295   -2.8379614   -2.8379614    -1.629066  0.064084797   -2.8379614    1.2088954   558340 
 2504000    1.0029814   -2.8376936   -2.8376936   -1.6283738  0.059231382   -2.8376936    1.2093198   558340 
 2505000    1.0050967   -2.8398772   -2.8398772    -1.628007  0.070364168   -2.8398772    1.2118702   558340 
 2506000     1.003203   -2.8378504   -2.8378504   -1.6282634  0.073128866   -2.8378504     1.209587   558340 
 2507000    1.0041067   -2.8392978   -2.8392978   -1.6286212  0.068598034   -2.8392978    1.2106766   558340 
 2508000    1.0035646    -2.838372    -2.838372    -1.628349  0.071261837    -2.838372     1.210023   558340 
 2509000    1.0044598   -2.8389012   -2.8389012   -1.6277989  0.066156313   -2.8389012    1.2111023   558340 
 2510000    1.0024628   -2.8378737   -2.8378737   -1.6291793  0.063581044   -2.8378737    1.2086945   558340 
 2511000    1.0028981   -2.8375439   -2.8375439   -1.6283246  0.064755549   -2.8375439    1.2092193   558340 
 2512000    1.0041492    -2.838197    -2.838197   -1.6274692  0.058767682    -2.838197    1.2107278   558340 
 2513000    1.0025344   -2.8370939   -2.8370939   -1.6283131  0.058676178   -2.8370939    1.2087808   558340 
 2514000    1.0026652   -2.8368235   -2.8368235   -1.6278849  0.061640714   -2.8368235    1.2089386   558340 
 2515000    1.0012559   -2.8355718   -2.8355718   -1.6283325  0.072654467   -2.8355718    1.2072392   558340 
 2516000    1.0024312   -2.8360443   -2.8360443   -1.6273879  0.069582783   -2.8360443    1.2086564   558340 
 2517000    1.0020145    -2.835044    -2.835044   -1.6268901  0.064273612    -2.835044    1.2081539   558340 
 2518000    1.0027915    -2.836527    -2.836527   -1.6274363  0.067443495    -2.836527    1.2090907   558340 
 2519000    1.0021522   -2.8351718   -2.8351718   -1.6268518  0.061069047   -2.8351718      1.20832   558340 
 2520000    1.0027378   -2.8349232   -2.8349232   -1.6258973   0.06898306   -2.8349232     1.209026   558340 
 2521000    1.0025404     -2.83436     -2.83436    -1.625572  0.064033607     -2.83436     1.208788   558340 
 2522000    1.0011883   -2.8337594   -2.8337594   -1.6266015  0.061072215   -2.8337594    1.2071578   558340 
 2523000     1.000111   -2.8324596   -2.8324596   -1.6266007  0.069715953   -2.8324596    1.2058588   558340 
 2524000    1.0041137   -2.8366291   -2.8366291    -1.625944   0.05819015   -2.8366291     1.210685   558340 
 2525000    1.0012462   -2.8339478   -2.8339478   -1.6267202  0.063779769   -2.8339478    1.2072276   558340 
 2526000    1.0025543    -2.834962    -2.834962   -1.6261572  0.056344696    -2.834962    1.2088048   558340 
 2527000    1.0011054   -2.8327733   -2.8327733   -1.6257155  0.060732885   -2.8327733    1.2070578   558340 
 2528000    1.0015695   -2.8335575   -2.8335575   -1.6259401  0.070465226   -2.8335575    1.2076174   558340 
 2529000    1.0001508   -2.8317234   -2.8317234   -1.6258166  0.066684497   -2.8317234    1.2059068   558340 
 2530000   0.99996044   -2.8309166   -2.8309166   -1.6252393  0.062266111   -2.8309166    1.2056773   558340 
 2531000    1.0001461   -2.8319779   -2.8319779   -1.6260768  0.070223913   -2.8319779    1.2059011   558340 
 2532000    1.0001871   -2.8319875   -2.8319875   -1.6260369  0.068167566   -2.8319875    1.2059506   558340 
 2533000     1.001874   -2.8335359   -2.8335359   -1.6255514  0.056324022   -2.8335359    1.2079845   558340 
 2534000    1.0018617   -2.8339365   -2.8339365   -1.6259668  0.067381895   -2.8339365    1.2079697   558340 
 2535000    1.0006223   -2.8325909   -2.8325909   -1.6261155  0.070300763   -2.8325909    1.2064753   558340 
 2536000    1.0021564   -2.8356175   -2.8356175   -1.6272925  0.071076534   -2.8356175     1.208325   558340 
 2537000    1.0023519   -2.8357483   -2.8357483   -1.6271876  0.055967247   -2.8357483    1.2085607   558340 
 2538000    1.0015056   -2.8347367   -2.8347367   -1.6271964  0.064267179   -2.8347367    1.2075403   558340 
 2539000    1.0008966   -2.8337538   -2.8337538   -1.6269478  0.056729372   -2.8337538     1.206806   558340 
 2540000    1.0032544   -2.8365708   -2.8365708   -1.6269219   0.06842254   -2.8365708     1.209649   558340 
 2541000    1.0028344   -2.8366344   -2.8366344    -1.627492   0.06578949   -2.8366344    1.2091425   558340 
 2542000    1.0020788   -2.8367882   -2.8367882   -1.6285567  0.062836926   -2.8367882    1.2082315   558340 
 2543000    1.0012621   -2.8344108   -2.8344108    -1.627164  0.059503566   -2.8344108    1.2072468   558340 
 2544000    1.0022053   -2.8369069   -2.8369069   -1.6285229   0.06166546   -2.8369069     1.208384   558340 
 2545000    1.0014786   -2.8359968   -2.8359968   -1.6284891  0.062014174   -2.8359968    1.2075078   558340 
 2546000    1.0006312   -2.8353632   -2.8353632   -1.6288772  0.058449848   -2.8353632     1.206486   558340 
 2547000     1.001342   -2.8364524   -2.8364524   -1.6291094  0.067142743   -2.8364524    1.2073431   558340 
 2548000     1.000976   -2.8368836   -2.8368836   -1.6299818    0.0660576   -2.8368836    1.2069018   558340 
 2549000    1.0008508   -2.8360257   -2.8360257   -1.6292748  0.073637671   -2.8360257    1.2067508   558340 
 2550000    1.0012106   -2.8368469   -2.8368469   -1.6296622  0.067727303   -2.8368469    1.2071847   558340 
 2551000    1.0025011   -2.8387269   -2.8387269   -1.6299862  0.063298746   -2.8387269    1.2087407   558340 
 2552000    1.0031093   -2.8390352   -2.8390352   -1.6295613   0.07635002   -2.8390352    1.2094739   558340 
 2553000    1.0043308   -2.8400425   -2.8400425   -1.6290958  0.061749893   -2.8400425    1.2109467   558340 
 2554000    1.0015826   -2.8378096   -2.8378096   -1.6301764  0.078701421   -2.8378096    1.2076332   558340 
 2555000    1.0031417   -2.8392641   -2.8392641    -1.629751  0.052362195   -2.8392641     1.209513   558340 
 2556000    1.0005432   -2.8367434   -2.8367434   -1.6303634  0.062853249   -2.8367434      1.20638   558340 
 2557000    1.0011954   -2.8373716   -2.8373716   -1.6302053  0.072767513   -2.8373716    1.2071663   558340 
 2558000    1.0019904   -2.8372347   -2.8372347   -1.6291099  0.062940976   -2.8372347    1.2081249   558340 
 2559000    1.0018785   -2.8373549   -2.8373549    -1.629365  0.062570451   -2.8373549    1.2079899   558340 
 2560000    1.0017958    -2.837847    -2.837847   -1.6299568  0.056281612    -2.837847    1.2078902   558340 
 2561000    1.0015826   -2.8364321   -2.8364321   -1.6287989  0.062386225   -2.8364321    1.2076332   558340 
 2562000    1.0016739   -2.8368403   -2.8368403    -1.629097  0.083743923   -2.8368403    1.2077432   558340 
 2563000    1.0017625    -2.836906    -2.836906   -1.6290559  0.067755757    -2.836906    1.2078501   558340 
 2564000    1.0012504   -2.8358184   -2.8358184   -1.6285858  0.075558564   -2.8358184    1.2072326   558340 
 2565000    1.0015086   -2.8364691   -2.8364691   -1.6289251  0.063983721   -2.8364691     1.207544   558340 
 2566000    1.0014084    -2.835461    -2.835461   -1.6280378  0.053561114    -2.835461    1.2074232   558340 
 2567000    1.0024288   -2.8364867   -2.8364867   -1.6278333  0.065033168   -2.8364867    1.2086534   558340 
 2568000    1.0022581   -2.8357682   -2.8357682   -1.6273206  0.061010493   -2.8357682    1.2084476   558340 
 2569000    1.0018398   -2.8348452   -2.8348452    -1.626902  0.070596044   -2.8348452    1.2079432   558340 
 2570000      1.00262   -2.8363623   -2.8363623   -1.6274784  0.062093197   -2.8363623    1.2088839   558340 
 2571000    1.0025571   -2.8355979   -2.8355979   -1.6267897  0.064638214   -2.8355979    1.2088082   558340 
 2572000    1.0018316   -2.8338756   -2.8338756   -1.6259422  0.067798125   -2.8338756    1.2079334   558340 
 2573000   0.99961289   -2.8318838   -2.8318838   -1.6266256  0.065015347   -2.8318838    1.2052583   558340 
 2574000    1.0011307   -2.8329282   -2.8329282   -1.6258398  0.061689713   -2.8329282    1.2070884   558340 
 2575000    1.0007122   -2.8308855   -2.8308855   -1.6243017  0.067146172   -2.8308855    1.2065837   558340 
 2576000    1.0009955   -2.8316601   -2.8316601   -1.6247348  0.061784941   -2.8316601    1.2069253   558340 
 2577000    1.0002824   -2.8317151   -2.8317151   -1.6256496   0.06122068   -2.8317151    1.2060654   558340 
 2578000   0.99988821   -2.8311348   -2.8311348   -1.6255446  0.059540745   -2.8311348    1.2055902   558340 
 2579000    1.0005472    -2.831047    -2.831047   -1.6246622  0.067336004    -2.831047    1.2063848   558340 
 2580000    1.0004909   -2.8306861   -2.8306861   -1.6243692  0.059961833   -2.8306861    1.2063169   558340 
 2581000    1.0014354   -2.8315979   -2.8315979   -1.6241422  0.052932661   -2.8315979    1.2074557   558340 
 2582000    1.0013987   -2.8308488   -2.8308488   -1.6234373  0.059489733   -2.8308488    1.2074114   558340 
 2583000     1.001707   -2.8319648   -2.8319648   -1.6241815  0.057660006   -2.8319648    1.2077832   558340 
 2584000    1.0017513   -2.8328517   -2.8328517   -1.6250151  0.058089171   -2.8328517    1.2078365   558340 
 2585000    1.0013918    -2.832271    -2.832271   -1.6248678  0.065437883    -2.832271    1.2074032   558340 
 2586000    1.0009613   -2.8320421   -2.8320421    -1.625158  0.066802262   -2.8320421    1.2068841   558340 
 2587000    1.0002763    -2.830187    -2.830187   -1.6241289  0.064536752    -2.830187    1.2060581   558340 
 2588000    1.0003647   -2.8304265   -2.8304265   -1.6242617  0.051900581   -2.8304265    1.2061648   558340 
 2589000   0.99909525   -2.8295024   -2.8295024   -1.6248683  0.059383124   -2.8295024    1.2046341   558340 
 2590000     1.000247    -2.831902    -2.831902   -1.6258792   0.05733346    -2.831902    1.2060228   558340 
 2591000    0.9995237   -2.8307488   -2.8307488    -1.625598  0.064733516   -2.8307488    1.2051507   558340 
 2592000   0.99918049   -2.8312479   -2.8312479    -1.626511  0.056691771   -2.8312479    1.2047369   558340 
 2593000     1.001905     -2.83485     -2.83485   -1.6268281  0.055987952     -2.83485    1.2080219   558340 
 2594000    1.0001938   -2.8330028   -2.8330028   -1.6270442  0.058551394   -2.8330028    1.2059587   558340 
 2595000    1.0015532   -2.8349156   -2.8349156   -1.6273179  0.071601887   -2.8349156    1.2075977   558340 
 2596000    1.0003807   -2.8339737   -2.8339737   -1.6277897  0.054346182   -2.8339737     1.206184   558340 
 2597000   0.99921135    -2.833283    -2.833283   -1.6285089  0.064535761    -2.833283    1.2047741   558340 
 2598000    1.0016813   -2.8351464   -2.8351464   -1.6273942  0.057204108   -2.8351464    1.2077522   558340 
 2599000    1.0015999    -2.834181    -2.834181   -1.6265269  0.073296183    -2.834181    1.2076541   558340 
 2600000    1.0020779   -2.8344273   -2.8344273   -1.6261969  0.063408705   -2.8344273    1.2082304   558340 
 2601000    1.0013292   -2.8339028   -2.8339028   -1.6265751  0.071601917   -2.8339028    1.2073277   558340 
 2602000    1.0030176   -2.8352002   -2.8352002   -1.6258367  0.064025217   -2.8352002    1.2093634   558340 
 2603000    1.0025351   -2.8349401   -2.8349401   -1.6261584  0.064704193   -2.8349401    1.2087817   558340 
 2604000    1.0033495   -2.8367509   -2.8367509   -1.6269873  0.062339808   -2.8367509    1.2097636   558340 
 2605000     1.001429   -2.8352901   -2.8352901   -1.6278421  0.068577326   -2.8352901     1.207448   558340 
 2606000    1.0037642   -2.8380666   -2.8380666   -1.6278031  0.070777349   -2.8380666    1.2102636   558340 
 2607000    1.0027777   -2.8369168   -2.8369168   -1.6278426  0.073842424   -2.8369168    1.2090741   558340 
 2608000    1.0025486   -2.8370843   -2.8370843   -1.6282864  0.077386687   -2.8370843    1.2087979   558340 
 2609000    1.0031381   -2.8378148   -2.8378148    -1.628306   0.07000627   -2.8378148    1.2095087   558340 
 2610000    1.0033736   -2.8378677   -2.8378677   -1.6280751  0.062269355   -2.8378677    1.2097926   558340 
 2611000    1.0023414   -2.8371394   -2.8371394   -1.6285913  0.071998071   -2.8371394    1.2085481   558340 
 2612000    1.0002928   -2.8340686   -2.8340686   -1.6279905  0.064187091   -2.8340686    1.2060781   558340 
 2613000    1.0030263   -2.8369717   -2.8369717   -1.6275978  0.066199479   -2.8369717    1.2093739   558340 
 2614000    1.0020334    -2.835976    -2.835976   -1.6277993  0.062668441    -2.835976    1.2081767   558340 
 2615000   0.99992194   -2.8340783   -2.8340783   -1.6284475   0.05369094   -2.8340783    1.2056309   558340 
 2616000    1.0013373   -2.8353183   -2.8353183   -1.6279808  0.061957635   -2.8353183    1.2073374   558340 
 2617000     1.000505   -2.8329993   -2.8329993   -1.6266654  0.074032384   -2.8329993    1.2063339   558340 
 2618000    1.0021842   -2.8358997   -2.8358997   -1.6275411  0.066163799   -2.8358997    1.2083586   558340 
 2619000    1.0015038   -2.8343021   -2.8343021    -1.626764  0.071397986   -2.8343021    1.2075382   558340 
 2620000    1.0026406   -2.8346509   -2.8346509    -1.625742  0.064564032   -2.8346509    1.2089089   558340 
 2621000    1.0029293   -2.8352266   -2.8352266   -1.6259696  0.064363823   -2.8352266     1.209257   558340 
 2622000    1.0022692   -2.8333094   -2.8333094   -1.6248484  0.067844037   -2.8333094     1.208461   558340 
 2623000    1.0013762   -2.8323166   -2.8323166   -1.6249323   0.06716257   -2.8323166    1.2073843   558340 
 2624000    1.0019122   -2.8324706   -2.8324706     -1.62444  0.063851442   -2.8324706    1.2080306   558340 
 2625000    1.0025138   -2.8331943   -2.8331943   -1.6244384   0.05994586   -2.8331943    1.2087559   558340 
 2626000     1.002346   -2.8329773   -2.8329773   -1.6244237  0.062092746   -2.8329773    1.2085536   558340 
 2627000    1.0002042   -2.8309256   -2.8309256   -1.6249544  0.064155186   -2.8309256    1.2059712   558340 
 2628000    1.0004452   -2.8320282   -2.8320282   -1.6257663  0.065385281   -2.8320282    1.2062618   558340 
 2629000    1.0016598   -2.8333579   -2.8333579   -1.6256317  0.067377473   -2.8333579    1.2077262   558340 
 2630000    1.0008727   -2.8322582   -2.8322582    -1.625481  0.072945716   -2.8322582    1.2067773   558340 
 2631000    1.0010657   -2.8322716   -2.8322716   -1.6252617  0.060539986   -2.8322716      1.20701   558340 
 2632000    1.0017779   -2.8328941   -2.8328941   -1.6250255  0.062965909   -2.8328941    1.2078686   558340 
 2633000    1.0006671   -2.8315912   -2.8315912   -1.6250619  0.063854843   -2.8315912    1.2065293   558340 
 2634000     1.000988   -2.8320085   -2.8320085   -1.6250922  0.061608135   -2.8320085    1.2069163   558340 
 2635000    1.0002119   -2.8314803   -2.8314803   -1.6254997  0.063464631   -2.8314803    1.2059806   558340 
 2636000    1.0001188   -2.8315413   -2.8315413    -1.625673  0.059276418   -2.8315413    1.2058683   558340 
 2637000     1.001678   -2.8325146   -2.8325146   -1.6247663  0.047955356   -2.8325146    1.2077482   558340 
 2638000    1.0001819   -2.8311479   -2.8311479   -1.6252036  0.070256255   -2.8311479    1.2059443   558340 
 2639000    1.0011726   -2.8317661   -2.8317661   -1.6246273  0.059171291   -2.8317661    1.2071388   558340 
 2640000    1.0000401   -2.8310294   -2.8310294    -1.625256  0.065874845   -2.8310294    1.2057734   558340 
 2641000    1.0003865   -2.8316988   -2.8316988   -1.6255078  0.069312027   -2.8316988     1.206191   558340 
 2642000   0.99974389   -2.8323873   -2.8323873   -1.6269711  0.061726497   -2.8323873    1.2054162   558340 
 2643000   0.99896508   -2.8309649   -2.8309649   -1.6264877  0.059802979   -2.8309649    1.2044772   558340 
 2644000    1.0019834    -2.834118    -2.834118   -1.6260015  0.056887806    -2.834118    1.2081165   558340 
 2645000    1.0019883   -2.8343162   -2.8343162   -1.6261939  0.063409692   -2.8343162    1.2081223   558340 
 2646000    1.0028382   -2.8355662   -2.8355662    -1.626419  0.060840079   -2.8355662    1.2091471   558340 
 2647000    1.0011025   -2.8334707   -2.8334707   -1.6264164  0.062606226   -2.8334707    1.2070543   558340 
 2648000    1.0016843   -2.8339056   -2.8339056   -1.6261498  0.052436878   -2.8339056    1.2077558   558340 
 2649000    1.0020018   -2.8353903   -2.8353903   -1.6272517  0.064272988   -2.8353903    1.2081386   558340 
 2650000     1.001166   -2.8339798   -2.8339798   -1.6268489  0.064048064   -2.8339798    1.2071309   558340 
 2651000    1.0004578   -2.8337044   -2.8337044   -1.6274274  0.066110905   -2.8337044     1.206277   558340 
 2652000    1.0009629   -2.8347343   -2.8347343   -1.6278483  0.066991966   -2.8347343     1.206886   558340 
 2653000    1.0018832   -2.8360668   -2.8360668   -1.6280711  0.052772826   -2.8360668    1.2079956   558340 
 2654000    1.0022199   -2.8356785   -2.8356785   -1.6272768  0.062530825   -2.8356785    1.2084016   558340 
 2655000    1.0008613    -2.833766    -2.833766   -1.6270024   0.06135565    -2.833766    1.2067636   558340 
 2656000    1.0019632   -2.8349849   -2.8349849   -1.6268928  0.068806314   -2.8349849    1.2080921   558340 
 2657000    1.0000973   -2.8327116   -2.8327116   -1.6268693  0.071501938   -2.8327116    1.2058423   558340 
 2658000    1.0002483   -2.8326672   -2.8326672   -1.6266428  0.063004949   -2.8326672    1.2060244   558340 
 2659000    1.0030455    -2.835629    -2.835629   -1.6262319  0.064644863    -2.835629    1.2093971   558340 
 2660000    1.0008445     -2.83353     -2.83353   -1.6267868  0.071181352     -2.83353    1.2067432   558340 
 2661000    1.0025437   -2.8355169   -2.8355169   -1.6267249  0.060599944   -2.8355169     1.208792   558340 
 2662000    1.0023392   -2.8347219   -2.8347219   -1.6261764  0.066912604   -2.8347219    1.2085455   558340 
 2663000    1.0027708   -2.8361684   -2.8361684   -1.6271026  0.065884575   -2.8361684    1.2090658   558340 
 2664000    1.0044882   -2.8375491   -2.8375491   -1.6264126  0.060774506   -2.8375491    1.2111365   558340 
 2665000    1.0029337   -2.8356921   -2.8356921   -1.6264299  0.065697775   -2.8356921    1.2092623   558340 
 2666000    1.0031997   -2.8366294   -2.8366294   -1.6270464  0.062404955   -2.8366294     1.209583   558340 
 2667000    1.0020969   -2.8348669   -2.8348669   -1.6266137  0.068471646   -2.8348669    1.2082533   558340 
 2668000    1.0028302   -2.8355919   -2.8355919   -1.6264545  0.077225088   -2.8355919    1.2091374   558340 
 2669000     1.001225   -2.8330999   -2.8330999   -1.6258979  0.075320518   -2.8330999     1.207202   558340 
 2670000    1.0029922    -2.835174    -2.835174   -1.6258413  0.062855164    -2.835174    1.2093328   558340 
 2671000    1.0007707   -2.8338508   -2.8338508   -1.6271965  0.062849888   -2.8338508    1.2066543   558340 
 2672000    1.0016229   -2.8345196   -2.8345196   -1.6268378  0.068869598   -2.8345196    1.2076818   558340 
 2673000    1.0004254   -2.8331598   -2.8331598   -1.6269218  0.060750329   -2.8331598    1.2062379   558340 
 2674000   0.99961961   -2.8327234   -2.8327234   -1.6274571  0.057371256   -2.8327234    1.2052664   558340 
 2675000   0.99973036    -2.832528    -2.832528   -1.6271281  0.069248835    -2.832528    1.2053999   558340 
 2676000    1.0007497   -2.8331011   -2.8331011   -1.6264722  0.071505234   -2.8331011    1.2066289   558340 
 2677000    1.0031468    -2.835654    -2.835654   -1.6261348  0.054989743    -2.835654    1.2095192   558340 
 2678000    1.0008492   -2.8322882   -2.8322882   -1.6255392  0.061205346   -2.8322882    1.2067489   558340 
 2679000    1.0017136   -2.8328847   -2.8328847   -1.6250935  0.065521322   -2.8328847    1.2077912   558340 
 2680000    1.0013739   -2.8332655   -2.8332655   -1.6258839  0.073816148   -2.8332655    1.2073815   558340 
 2681000     1.003093   -2.8345777   -2.8345777   -1.6251234  0.062395869   -2.8345777    1.2094543   558340 
 2682000    1.0025476   -2.8335649   -2.8335649   -1.6247681  0.065929081   -2.8335649    1.2087968   558340 
 2683000    1.0035842   -2.8347776   -2.8347776    -1.624731  0.064021631   -2.8347776    1.2100466   558340 
 2684000    1.0031569   -2.8348497   -2.8348497   -1.6253183  0.057984016   -2.8348497    1.2095314   558340 
 2685000    1.0025752   -2.8338473   -2.8338473   -1.6250172  0.068395955   -2.8338473      1.20883   558340 
 2686000    1.0027271   -2.8341223   -2.8341223   -1.6251092  0.068166908   -2.8341223    1.2090131   558340 
 2687000    1.0017278   -2.8336259   -2.8336259   -1.6258177  0.055204519   -2.8336259    1.2078083   558340 
 2688000    1.0020675   -2.8337664   -2.8337664   -1.6255486  0.067910489   -2.8337664    1.2082178   558340 
 2689000    1.0014537    -2.833147    -2.833147   -1.6256693  0.065409826    -2.833147    1.2074777   558340 
 2690000    1.0020199   -2.8343009   -2.8343009   -1.6261404  0.066794426   -2.8343009    1.2081605   558340 
 2691000    1.0019836   -2.8353633   -2.8353633   -1.6272466  0.067701768   -2.8353633    1.2081167   558340 
 2692000    1.0019125   -2.8355872   -2.8355872   -1.6275562  0.059881067   -2.8355872     1.208031   558340 
 2693000     1.002513   -2.8359332   -2.8359332   -1.6271781  0.050674728   -2.8359332     1.208755   558340 
 2694000    1.0026826   -2.8361494   -2.8361494   -1.6271899  0.059379584   -2.8361494    1.2089595   558340 
 2695000    1.0016037   -2.8355858   -2.8355858   -1.6279271  0.056718772   -2.8355858    1.2076587   558340 
 2696000     1.002182   -2.8362388   -2.8362388   -1.6278829  0.058112236   -2.8362388    1.2083559   558340 
 2697000    1.0025551   -2.8357253   -2.8357253   -1.6269196  0.060200842   -2.8357253    1.2088058   558340 
 2698000    1.0030067   -2.8367444   -2.8367444   -1.6273941   0.06208197   -2.8367444    1.2093503   558340 
 2699000     1.002462   -2.8364492   -2.8364492   -1.6277557  0.072726103   -2.8364492    1.2086935   558340 
 2700000    1.0028156   -2.8369038   -2.8369038   -1.6277839  0.061105761   -2.8369038    1.2091199   558340 
 2701000    1.0019415   -2.8364261   -2.8364261   -1.6283602  0.063128448   -2.8364261    1.2080659   558340 
 2702000    1.0017986   -2.8369675   -2.8369675   -1.6290739   0.06057601   -2.8369675    1.2078936   558340 
 2703000    1.0010439   -2.8363226   -2.8363226   -1.6293389  0.063287116   -2.8363226    1.2069837   558340 
 2704000    1.0008259   -2.8361953   -2.8361953   -1.6294745  0.068893094   -2.8361953    1.2067208   558340 
 2705000    1.0021582   -2.8376924   -2.8376924   -1.6293652  0.060366372   -2.8376924    1.2083272   558340 
 2706000    1.0015478   -2.8369204   -2.8369204   -1.6293292  0.061552044   -2.8369204    1.2075912   558340 
 2707000    1.0013703   -2.8369095   -2.8369095   -1.6295323  0.061168309   -2.8369095    1.2073772   558340 
 2708000    1.0008923    -2.835667    -2.835667   -1.6288661  0.062922195    -2.835667    1.2068009   558340 
 2709000    1.0025218   -2.8379059   -2.8379059   -1.6291403  0.066109603   -2.8379059    1.2087656   558340 
 2710000    1.0025024   -2.8377481   -2.8377481   -1.6290059  0.065152153   -2.8377481    1.2087422   558340 
 2711000    1.0015293   -2.8364811   -2.8364811   -1.6289121  0.060020191   -2.8364811     1.207569   558340 
 2712000    1.0003999   -2.8355753   -2.8355753   -1.6293682  0.069438954   -2.8355753    1.2062071   558340 
 2713000    1.0016425   -2.8359339   -2.8359339   -1.6282285  0.073426779   -2.8359339    1.2077054   558340 
 2714000    1.0036961    -2.838291    -2.838291   -1.6281095  0.061521259    -2.838291    1.2101815   558340 
 2715000    1.0034635    -2.838009    -2.838009   -1.6281079   0.06642604    -2.838009    1.2099011   558340 
 2716000    1.0035763   -2.8387651   -2.8387651   -1.6287281  0.056111544   -2.8387651     1.210037   558340 
 2717000    1.0027059   -2.8378376   -2.8378376     -1.62885  0.072138566   -2.8378376    1.2089876   558340 
 2718000    1.0019415    -2.836329    -2.836329   -1.6282631  0.067633195    -2.836329    1.2080659   558340 
 2719000    1.0025163   -2.8369842   -2.8369842   -1.6282252  0.071052809   -2.8369842     1.208759   558340 
 2720000    1.0017291   -2.8355814   -2.8355814   -1.6277715  0.069819909   -2.8355814    1.2078099   558340 
 2721000    1.0021723    -2.835901    -2.835901   -1.6275569  0.071651544    -2.835901    1.2083441   558340 
 2722000    1.0028035   -2.8368183   -2.8368183   -1.6277131  0.068739637   -2.8368183    1.2091052   558340 
 2723000    1.0021685   -2.8365484   -2.8365484   -1.6282088  0.069403013   -2.8365484    1.2083396   558340 
 2724000     1.002092   -2.8357998   -2.8357998   -1.6275524  0.067227993   -2.8357998    1.2082474   558340 
 2725000    1.0015532   -2.8346134   -2.8346134   -1.6270157  0.060031802   -2.8346134    1.2075977   558340 
 2726000    1.0030191   -2.8359678   -2.8359678   -1.6266026  0.066112863   -2.8359678    1.2093652   558340 
 2727000    1.0024682   -2.8361346   -2.8361346   -1.6274337  0.055556611   -2.8361346     1.208701   558340 
 2728000    1.0027274    -2.834929    -2.834929   -1.6259155  0.064335779    -2.834929    1.2090135   558340 
 2729000    1.0016905    -2.835191    -2.835191   -1.6274277  0.062553987    -2.835191    1.2077632   558340 
 2730000    1.0011889    -2.835329    -2.835329   -1.6281705  0.066952298    -2.835329    1.2071585   558340 
 2731000    1.0016349   -2.8359557   -2.8359557   -1.6282594  0.061590572   -2.8359557    1.2076962   558340 
 2732000    1.0014163   -2.8349261   -2.8349261   -1.6274934  0.065897797   -2.8349261    1.2074327   558340 
 2733000    1.0000971   -2.8324896   -2.8324896   -1.6266475   0.06206431   -2.8324896     1.205842   558340 
 2734000    1.0018234   -2.8344196   -2.8344196   -1.6264961  0.054240891   -2.8344196    1.2079235   558340 
 2735000    1.0013843   -2.8346813   -2.8346813   -1.6272873  0.058896207   -2.8346813     1.207394   558340 
 2736000    1.0004034   -2.8332694   -2.8332694    -1.627058  0.070469813   -2.8332694    1.2062114   558340 
 2737000   0.99994281   -2.8319488   -2.8319488   -1.6262927  0.068778134   -2.8319488    1.2056561   558340 
 2738000   0.99966525   -2.8324002   -2.8324002   -1.6270788  0.063209603   -2.8324002    1.2053214   558340 
 2739000    1.0017003   -2.8348089   -2.8348089   -1.6270338  0.060039655   -2.8348089    1.2077751   558340 
 2740000    1.0020586   -2.8348372   -2.8348372   -1.6266301  0.063403241   -2.8348372    1.2082071   558340 
 2741000    1.0017256   -2.8344942   -2.8344942   -1.6266886  0.060861672   -2.8344942    1.2078056   558340 
 2742000   0.99927347   -2.8316719   -2.8316719   -1.6268229  0.077720275   -2.8316719     1.204849   558340 
 2743000    1.0026349   -2.8338914   -2.8338914   -1.6249894  0.066928685   -2.8338914     1.208902   558340 
 2744000    1.0030567    -2.833912    -2.833912   -1.6245015  0.061058665    -2.833912    1.2094106   558340 
 2745000    1.0013566    -2.832514    -2.832514   -1.6251533  0.067752574    -2.832514    1.2073607   558340 
 2746000    1.0009955   -2.8314126   -2.8314126   -1.6244874  0.060096309   -2.8314126    1.2069253   558340 
 2747000   0.99968903   -2.8303479   -2.8303479   -1.6249978  0.078710877   -2.8303479    1.2053501   558340 
 2748000    1.0015886   -2.8328943   -2.8328943   -1.6252539  0.066150926   -2.8328943    1.2076404   558340 
 2749000    1.0005996    -2.831437    -2.831437   -1.6249891  0.074977147    -2.831437    1.2064479   558340 
 2750000    1.0006439   -2.8321387   -2.8321387   -1.6256373    0.0637436   -2.8321387    1.2065014   558340 
 2751000    1.0006619   -2.8314476   -2.8314476   -1.6249245  0.055470059   -2.8314476    1.2065231   558340 
 2752000    1.0008712   -2.8319791   -2.8319791   -1.6252037  0.071128766   -2.8319791    1.2067754   558340 
 2753000    1.0006239   -2.8320685   -2.8320685   -1.6255912    0.0695766   -2.8320685    1.2064772   558340 
 2754000    1.0011974   -2.8327009   -2.8327009   -1.6255322  0.064875573   -2.8327009    1.2071687   558340 
 2755000    1.0014139   -2.8325965   -2.8325965   -1.6251667  0.064251949   -2.8325965    1.2074298   558340 
 2756000    1.0022702   -2.8337158   -2.8337158   -1.6252536  0.067462163   -2.8337158    1.2084623   558340 
 2757000    1.0020574   -2.8330821   -2.8330821   -1.6248765  0.063601063   -2.8330821    1.2082056   558340 
 2758000    1.0030218   -2.8338119   -2.8338119   -1.6244434   0.06521855   -2.8338119    1.2093685   558340 
 2759000    1.0024715   -2.8327883   -2.8327883   -1.6240833  0.069846428   -2.8327883     1.208705   558340 
 2760000    1.0026472   -2.8332803   -2.8332803   -1.6243636  0.065708369   -2.8332803    1.2089168   558340 
 2761000    1.0020183   -2.8328175   -2.8328175    -1.624659  0.065355635   -2.8328175    1.2081585   558340 
 2762000    1.0011235   -2.8320203   -2.8320203   -1.6249407  0.068857186   -2.8320203    1.2070796   558340 
 2763000    1.0021016   -2.8340599   -2.8340599    -1.625801  0.066681903   -2.8340599     1.208259   558340 
 2764000    1.0005821   -2.8318815   -2.8318815   -1.6254546  0.060658453   -2.8318815    1.2064268   558340 
 2765000    1.0012325   -2.8333458   -2.8333458   -1.6261347  0.057448866   -2.8333458    1.2072111   558340 
 2766000     1.000169   -2.8325631   -2.8325631   -1.6266343  0.065152212   -2.8325631    1.2059288   558340 
 2767000    1.0009434   -2.8340655   -2.8340655   -1.6272029  0.056349691   -2.8340655    1.2068625   558340 
 2768000    1.0009579   -2.8344501   -2.8344501   -1.6275701  0.063403077   -2.8344501    1.2068799   558340 
 2769000   0.99961935   -2.8331103   -2.8331103   -1.6278442  0.062511472   -2.8331103     1.205266   558340 
 2770000    1.0006718   -2.8342645   -2.8342645   -1.6277295   0.05844781   -2.8342645     1.206535   558340 
 2771000    1.0001922   -2.8325959   -2.8325959   -1.6266391  0.061413287   -2.8325959    1.2059568   558340 
 2772000    1.0019337    -2.833759    -2.833759   -1.6257024  0.066360387    -2.833759    1.2080566   558340 
 2773000    1.0022069   -2.8345746   -2.8345746   -1.6261886  0.066284243   -2.8345746     1.208386   558340 
 2774000    1.0014714   -2.8338967   -2.8338967   -1.6263975  0.072566763   -2.8338967    1.2074992   558340 
 2775000    1.0017059   -2.8331951   -2.8331951   -1.6254132   0.06399816   -2.8331951    1.2077819   558340 
 2776000    1.0034467   -2.8348708   -2.8348708   -1.6249901  0.067690876   -2.8348708    1.2098808   558340 
 2777000    1.0025176    -2.834567    -2.834567   -1.6258065  0.070370109    -2.834567    1.2087606   558340 
 2778000    1.0026194   -2.8344523   -2.8344523   -1.6255689  0.069579583   -2.8344523    1.2088833   558340 
 2779000    1.0036654   -2.8352377   -2.8352377   -1.6250932  0.064403324   -2.8352377    1.2101445   558340 
 2780000    1.0031974   -2.8354261   -2.8354261   -1.6258459   0.07602111   -2.8354261    1.2095801   558340 
 2781000    1.0024072   -2.8345596   -2.8345596   -1.6259322  0.073688479   -2.8345596    1.2086274   558340 
 2782000    1.0029806   -2.8350966   -2.8350966   -1.6257778  0.060991619   -2.8350966    1.2093188   558340 
 2783000    1.0004943   -2.8327189   -2.8327189   -1.6263979  0.065540244   -2.8327189     1.206321   558340 
 2784000    1.0014422   -2.8344735   -2.8344735   -1.6270096   0.06132642   -2.8344735    1.2074639   558340 
 2785000    1.0007285   -2.8339119   -2.8339119   -1.6273085  0.067543738   -2.8339119    1.2066034   558340 
 2786000   0.99906011   -2.8316253   -2.8316253   -1.6270335  0.058399317   -2.8316253    1.2045918   558340 
 2787000   0.99894741   -2.8317912   -2.8317912   -1.6273353  0.063870748   -2.8317912    1.2044559   558340 
 2788000   0.99980216    -2.832192    -2.832192   -1.6267056  0.068032771    -2.832192    1.2054865   558340 
 2789000     1.000594   -2.8330927   -2.8330927   -1.6266515  0.064805945   -2.8330927    1.2064412   558340 
 2790000   0.99954368   -2.8325566   -2.8325566   -1.6273818  0.068574094   -2.8325566    1.2051748   558340 
 2791000    1.0019325   -2.8346978   -2.8346978   -1.6266427  0.061763699   -2.8346978    1.2080551   558340 
 2792000   0.99981773   -2.8321042   -2.8321042    -1.626599  0.070877248   -2.8321042    1.2055052   558340 
 2793000   0.99959196   -2.8318454   -2.8318454   -1.6266124  0.062323642   -2.8318454     1.205233   558340 
 2794000    1.0015295   -2.8343281   -2.8343281   -1.6267589  0.073900729   -2.8343281    1.2075692   558340 
 2795000    1.0014388   -2.8334213   -2.8334213   -1.6259615  0.071703016   -2.8334213    1.2074599   558340 
 2796000    1.0000386   -2.8315208   -2.8315208   -1.6257493  0.067128166   -2.8315208    1.2057716   558340 
 2797000    1.0008541   -2.8337071   -2.8337071   -1.6269522  0.059937355   -2.8337071    1.2067548   558340 
 2798000   0.99967968     -2.83154     -2.83154   -1.6262012  0.057130346     -2.83154    1.2053388   558340 
 2799000     1.001076   -2.8326641   -2.8326641   -1.6256417  0.066089291   -2.8326641    1.2070224   558340 
 2800000    1.0009069   -2.8331207   -2.8331207   -1.6263022  0.060424051   -2.8331207    1.2068185   558340 
 2801000    1.0004611   -2.8332028   -2.8332028   -1.6269218  0.061692296   -2.8332028    1.2062809   558340 
 2802000    1.0016314   -2.8335002   -2.8335002   -1.6258082  0.065188253   -2.8335002     1.207692   558340 
 2803000    1.0029967   -2.8347503   -2.8347503   -1.6254121  0.073411757   -2.8347503    1.2093382   558340 
 2804000    1.0023024   -2.8339203   -2.8339203   -1.6254192  0.058153911   -2.8339203    1.2085011   558340 
 2805000    1.0021558   -2.8349741   -2.8349741   -1.6266499  0.061065463   -2.8349741    1.2083243   558340 
 2806000    1.0019924   -2.8340193   -2.8340193   -1.6258921  0.060607805   -2.8340193    1.2081273   558340 
 2807000    1.0019855    -2.833865    -2.833865   -1.6257461  0.066129168    -2.833865    1.2081189   558340 
 2808000   0.99964316   -2.8315409   -2.8315409   -1.6262461  0.050863398   -2.8315409    1.2052948   558340 
 2809000    1.0012713   -2.8331461   -2.8331461   -1.6258883  0.067361587   -2.8331461    1.2072578   558340 
 2810000    1.0009156   -2.8334349   -2.8334349    -1.626606  0.061564807   -2.8334349    1.2068289   558340 
 2811000    1.0008823   -2.8328745   -2.8328745   -1.6260857  0.064662801   -2.8328745    1.2067888   558340 
 2812000    1.0019981   -2.8336392   -2.8336392    -1.625505  0.066317838   -2.8336392    1.2081342   558340 
 2813000    1.0014593   -2.8321923   -2.8321923   -1.6247077  0.063867577   -2.8321923    1.2074846   558340 
 2814000    1.0019694   -2.8337373   -2.8337373   -1.6256377  0.063564277   -2.8337373    1.2080996   558340 
 2815000    1.0018199   -2.8335185   -2.8335185   -1.6255992  0.068229893   -2.8335185    1.2079193   558340 
 2816000    1.0023364   -2.8335176   -2.8335176   -1.6249755  0.064299952   -2.8335176    1.2085421   558340 
 2817000    1.0024902   -2.8344456   -2.8344456   -1.6257182  0.066325494   -2.8344456    1.2087275   558340 
 2818000    1.0009637   -2.8326158   -2.8326158   -1.6257289  0.076089832   -2.8326158     1.206887   558340 
 2819000    1.0035455   -2.8354418   -2.8354418   -1.6254419  0.064911802   -2.8354418    1.2099999   558340 
 2820000    1.0026551   -2.8347006   -2.8347006   -1.6257742   0.06425217   -2.8347006    1.2089264   558340 
 2821000    1.0021631   -2.8342725   -2.8342725   -1.6259393  0.064782871   -2.8342725    1.2083331   558340 
 2822000     1.001323   -2.8331274   -2.8331274   -1.6258073  0.064200818   -2.8331274    1.2073202   558340 
 2823000    1.0022112   -2.8355668   -2.8355668   -1.6271757  0.064795375   -2.8355668    1.2083911   558340 
 2824000     1.000982   -2.8339004   -2.8339004   -1.6269914  0.062591133   -2.8339004     1.206909   558340 
 2825000    1.0025017   -2.8363409   -2.8363409   -1.6275996  0.059238193   -2.8363409    1.2087413   558340 
 2826000    1.0000759   -2.8327279   -2.8327279   -1.6269114  0.071567799   -2.8327279    1.2058165   558340 
 2827000    1.0017949   -2.8343941   -2.8343941   -1.6265048  0.068759437   -2.8343941    1.2078892   558340 
 2828000    1.0022565   -2.8346933   -2.8346933   -1.6262476  0.063323663   -2.8346933    1.2084457   558340 
 2829000    1.0016447   -2.8345882   -2.8345882   -1.6268802  0.059042978   -2.8345882     1.207708   558340 
 2830000    1.0034078   -2.8368829   -2.8368829    -1.627049   0.06389265   -2.8368829    1.2098339   558340 
 2831000    1.0014827   -2.8344632   -2.8344632   -1.6269504  0.065714731   -2.8344632    1.2075128   558340 
 2832000     1.004206   -2.8366568   -2.8366568   -1.6258605  0.059940022   -2.8366568    1.2107963   558340 
 2833000    1.0040902    -2.837035    -2.837035   -1.6263783  0.058563432    -2.837035    1.2106567   558340 
 2834000    1.0026167   -2.8359414   -2.8359414   -1.6270614  0.071022074   -2.8359414    1.2088801   558340 
 2835000    1.0032578   -2.8363823   -2.8363823   -1.6267292    0.0744638   -2.8363823    1.2096531   558340 
 2836000    1.0039645    -2.837289    -2.837289   -1.6267838  0.058322466    -2.837289    1.2105051   558340 
 2837000    1.0030408   -2.8362778   -2.8362778   -1.6268864  0.064758005   -2.8362778    1.2093914   558340 
 2838000    1.0029509   -2.8361426   -2.8361426   -1.6268597  0.057805661   -2.8361426    1.2092829   558340 
 2839000    1.0038282   -2.8362831   -2.8362831   -1.6259424  0.064991241   -2.8362831    1.2103407   558340 
 2840000    1.0031592   -2.8368222   -2.8368222   -1.6272881  0.063223048   -2.8368222    1.2095341   558340 
 2841000    1.0033548    -2.837212    -2.837212    -1.627442  0.063050944    -2.837212      1.20977   558340 
 2842000    1.0032133     -2.83602     -2.83602   -1.6264207  0.061336317     -2.83602    1.2095993   558340 
 2843000    1.0021347   -2.8355732   -2.8355732   -1.6272743  0.063262348   -2.8355732    1.2082989   558340 
 2844000    1.0027162    -2.835704    -2.835704    -1.626704  0.063442736    -2.835704    1.2089999   558340 
 2845000    1.0035288   -2.8376911   -2.8376911   -1.6277114  0.051281535   -2.8376911    1.2099798   558340 
 2846000     1.003176   -2.8371604   -2.8371604   -1.6276061  0.074105578   -2.8371604    1.2095544   558340 
 2847000    1.0031921   -2.8370509   -2.8370509   -1.6274771  0.073233412   -2.8370509    1.2095738   558340 
 2848000    1.0029226   -2.8368638   -2.8368638   -1.6276149   0.05772945   -2.8368638    1.2092488   558340 
 2849000     1.003452    -2.836852    -2.836852   -1.6269648  0.063306755    -2.836852    1.2098872   558340 
 2850000    1.0039674   -2.8376128   -2.8376128   -1.6271042  0.070090159   -2.8376128    1.2105086   558340 
 2851000    1.0025937   -2.8360248   -2.8360248   -1.6271725  0.076487068   -2.8360248    1.2088523   558340 
 2852000    1.0021304   -2.8358285   -2.8358285   -1.6275348  0.067855947   -2.8358285    1.2082937   558340 
 2853000    1.0035562   -2.8365357   -2.8365357   -1.6265229  0.065904602   -2.8365357    1.2100128   558340 
 2854000    1.0026036   -2.8356183   -2.8356183   -1.6267541  0.056404341   -2.8356183    1.2088642   558340 
 2855000    1.0025106   -2.8349554   -2.8349554   -1.6262033  0.060562684   -2.8349554    1.2087521   558340 
 2856000     1.002984   -2.8355371   -2.8355371   -1.6262143  0.067618019   -2.8355371    1.2093228   558340 
 2857000    1.0030449   -2.8353901   -2.8353901   -1.6259938  0.065604325   -2.8353901    1.2093963   558340 
 2858000    1.0018406   -2.8338625   -2.8338625   -1.6259182  0.070702977   -2.8338625    1.2079443   558340 
 2859000    1.0010133   -2.8330797   -2.8330797    -1.626133  0.058869927   -2.8330797    1.2069467   558340 
 2860000    1.0016589   -2.8336746   -2.8336746   -1.6259494  0.068058172   -2.8336746    1.2077252   558340 
 2861000    1.0011431   -2.8331082   -2.8331082   -1.6260049  0.062707158   -2.8331082    1.2071033   558340 
 2862000    1.0003798   -2.8320307   -2.8320307   -1.6258478  0.071607943   -2.8320307    1.2061829   558340 
 2863000    1.0022806   -2.8346371   -2.8346371   -1.6261624  0.066775702   -2.8346371    1.2084747   558340 
 2864000    1.0016488   -2.8340304   -2.8340304   -1.6263174  0.065847833   -2.8340304     1.207713   558340 
 2865000     1.002328   -2.8339971   -2.8339971   -1.6254653  0.063561157   -2.8339971    1.2085319   558340 
 2866000    1.0011151   -2.8330283   -2.8330283   -1.6259587  0.059338779   -2.8330283    1.2070696   558340 
 2867000    1.0023173   -2.8338322   -2.8338322   -1.6253132  0.063455592   -2.8338322     1.208519   558340 
 2868000    1.0009384   -2.8315957   -2.8315957   -1.6247392   0.05779786   -2.8315957    1.2068565   558340 
 2869000    1.0004585    -2.832467    -2.832467   -1.6261891  0.061279755    -2.832467    1.2062779   558340 
 2870000    1.0010579    -2.832936    -2.832936   -1.6259355  0.057937129    -2.832936    1.2070005   558340 
 2871000   0.99938892   -2.8309749   -2.8309749   -1.6259867  0.072898025   -2.8309749    1.2049882   558340 
 2872000    1.0015282    -2.833147    -2.833147   -1.6255795  0.069820957    -2.833147    1.2075676   558340 
 2873000    1.0003072   -2.8318671   -2.8318671   -1.6257717  0.061090668   -2.8318671    1.2060954   558340 
 2874000     1.001342   -2.8333748   -2.8333748   -1.6260318  0.066828918   -2.8333748    1.2073431   558340 
 2875000    1.0006389   -2.8324247   -2.8324247   -1.6259293  0.058568528   -2.8324247    1.2064954   558340 
 2876000    1.0028282   -2.8339251   -2.8339251   -1.6247901  0.063938148   -2.8339251    1.2091351   558340 
 2877000     1.001899    -2.833797    -2.833797   -1.6257823  0.069937534    -2.833797    1.2080147   558340 
 2878000     1.000842   -2.8320414   -2.8320414   -1.6253013  0.062128777   -2.8320414    1.2067402   558340 
 2879000    1.0017553   -2.8330507   -2.8330507   -1.6252092  0.065277666   -2.8330507    1.2078415   558340 
 2880000    1.0015674   -2.8321778   -2.8321778   -1.6245629  0.075759842   -2.8321778    1.2076148   558340 
 2881000    1.0028485   -2.8345462   -2.8345462   -1.6253866  0.063048176   -2.8345462    1.2091595   558340 
 2882000    1.0000304   -2.8310261   -2.8310261   -1.6252644  0.063777227   -2.8310261    1.2057617   558340 
 2883000    1.0006835   -2.8333174   -2.8333174   -1.6267683  0.062023351   -2.8333174    1.2065491   558340 
 2884000    1.0005573   -2.8331887   -2.8331887   -1.6267918  0.065835435   -2.8331887    1.2063969   558340 
 2885000    0.9999161   -2.8325241   -2.8325241   -1.6269003  0.062693776   -2.8325241    1.2056238   558340 
 2886000   0.99952702   -2.8333486   -2.8333486   -1.6281938   0.05741207   -2.8333486    1.2051547   558340 
 2887000   0.99928503   -2.8319242   -2.8319242   -1.6270613  0.070069615   -2.8319242    1.2048629   558340 
 2888000   0.99898142    -2.832598    -2.832598   -1.6281012  0.060944078    -2.832598    1.2044969   558340 
 2889000   0.99915162   -2.8330828   -2.8330828   -1.6283807   0.06670581   -2.8330828    1.2047021   558340 
 2890000    1.0003777    -2.834153    -2.834153   -1.6279725   0.07012627    -2.834153    1.2061804   558340 
 2891000    1.0012916   -2.8336503   -2.8336503   -1.6263679  0.067672538   -2.8336503    1.2072824   558340 
 2892000    1.0009983   -2.8327772   -2.8327772   -1.6258485  0.061198333   -2.8327772    1.2069286   558340 
 2893000    1.0018425   -2.8338368   -2.8338368   -1.6258903  0.068104468   -2.8338368    1.2079466   558340 
 2894000    1.0021079   -2.8348649   -2.8348649   -1.6265983  0.069589916   -2.8348649    1.2082665   558340 
 2895000    1.0010647   -2.8344117   -2.8344117    -1.627403  0.067128544   -2.8344117    1.2070087   558340 
 2896000    1.0026653   -2.8358202   -2.8358202   -1.6268816   0.06385305   -2.8358202    1.2089386   558340 
 2897000    1.0035135   -2.8370489   -2.8370489   -1.6270876  0.063877314   -2.8370489    1.2099613   558340 
 2898000    1.0031985   -2.8364816   -2.8364816   -1.6269001  0.078398354   -2.8364816    1.2095816   558340 
 2899000    1.0025972   -2.8368977   -2.8368977   -1.6280411  0.068611269   -2.8368977    1.2088566   558340 
 2900000    1.0028383   -2.8357328   -2.8357328   -1.6265855  0.072463703   -2.8357328    1.2091472   558340 
 2901000    1.0033994   -2.8369712   -2.8369712   -1.6271475  0.061055131   -2.8369712    1.2098237   558340 
 2902000    1.0029536   -2.8346047   -2.8346047   -1.6253184  0.058089158   -2.8346047    1.2092863   558340 
 2903000    1.0028518   -2.8347916   -2.8347916    -1.625628  0.063104011   -2.8347916    1.2091635   558340 
 2904000    1.0005267   -2.8329572   -2.8329572   -1.6265971  0.061914763   -2.8329572    1.2063601   558340 
 2905000    1.0010797   -2.8336529   -2.8336529   -1.6266261  0.064657213   -2.8336529    1.2070268   558340 
 2906000    1.0013771   -2.8336694   -2.8336694   -1.6262839  0.062072495   -2.8336694    1.2073854   558340 
 2907000    1.0010118   -2.8328961   -2.8328961   -1.6259512  0.065322063   -2.8328961    1.2069449   558340 
 2908000    1.0008199   -2.8338254   -2.8338254   -1.6271118  0.061353006   -2.8338254    1.2067136   558340 
 2909000    1.0007333   -2.8331045   -2.8331045   -1.6264954  0.053016047   -2.8331045    1.2066091   558340 
 2910000    1.0032438   -2.8361604   -2.8361604   -1.6265243  0.061871827   -2.8361604    1.2096361   558340 
 2911000    1.0002761   -2.8317033   -2.8317033   -1.6256454  0.069562604   -2.8317033    1.2060579   558340 
 2912000    1.0013302   -2.8332157   -2.8332157   -1.6258868  0.056063624   -2.8332157    1.2073288   558340 
 2913000    1.0030531   -2.8356545   -2.8356545   -1.6262483  0.063100769   -2.8356545    1.2094062   558340 
 2914000    1.0022511   -2.8343049   -2.8343049   -1.6258657  0.055705115   -2.8343049    1.2084392   558340 
 2915000    1.0019929   -2.8330803   -2.8330803   -1.6249524  0.065719413   -2.8330803    1.2081279   558340 
 2916000    1.0017604   -2.8324211   -2.8324211   -1.6245736  0.064510338   -2.8324211    1.2078475   558340 
 2917000    1.0027186   -2.8330915   -2.8330915   -1.6240885  0.070288122   -2.8330915    1.2090029   558340 
 2918000    1.0023172   -2.8332805   -2.8332805   -1.6247616  0.073673293   -2.8332805    1.2085189   558340 
 2919000    1.0006269   -2.8316454   -2.8316454   -1.6251645  0.064937934   -2.8316454    1.2064809   558340 
 2920000     1.000743   -2.8326049   -2.8326049   -1.6259841  0.068544437   -2.8326049    1.2066208   558340 
 2921000    1.0018645   -2.8338491   -2.8338491    -1.625876  0.066246701   -2.8338491    1.2079731   558340 
 2922000    1.0018846   -2.8330447   -2.8330447   -1.6250474  0.066523134   -2.8330447    1.2079973   558340 
 2923000    1.0014393   -2.8327851   -2.8327851   -1.6253247  0.071315448   -2.8327851    1.2074604   558340 
 2924000    1.0012843   -2.8331445   -2.8331445    -1.625871  0.066507581   -2.8331445    1.2072735   558340 
 2925000    1.0015188   -2.8318858   -2.8318858   -1.6243295  0.062356286   -2.8318858    1.2075562   558340 
 2926000     1.002401   -2.8330082   -2.8330082   -1.6243882  0.060441471   -2.8330082      1.20862   558340 
 2927000    1.0010496   -2.8319206   -2.8319206     -1.62493  0.059061608   -2.8319206    1.2069906   558340 
 2928000    1.0032994    -2.833873    -2.833873   -1.6241698  0.054310269    -2.833873    1.2097032   558340 
 2929000    1.0023209   -2.8327953   -2.8327953   -1.6242719  0.067904584   -2.8327953    1.2085234   558340 
 2930000     1.002542   -2.8341525   -2.8341525   -1.6253625  0.068050879   -2.8341525      1.20879   558340 
 2931000    1.0017178   -2.8329752   -2.8329752    -1.625179   0.06613261   -2.8329752    1.2077962   558340 
 2932000     1.000688   -2.8313289   -2.8313289   -1.6247744  0.071652585   -2.8313289    1.2065545   558340 
 2933000    1.0030412   -2.8342935   -2.8342935   -1.6249017  0.069208075   -2.8342935    1.2093918   558340 
 2934000    1.0033269   -2.8339193   -2.8339193   -1.6241829  0.072354593   -2.8339193    1.2097364   558340 
 2935000    1.0046803   -2.8350312   -2.8350312   -1.6236631  0.059346353   -2.8350312    1.2113681   558340 
 2936000    1.0037554   -2.8346386   -2.8346386   -1.6243856  0.074088835   -2.8346386     1.210253   558340 
 2937000    1.0027695   -2.8332071   -2.8332071   -1.6241428  0.080406958   -2.8332071    1.2090643   558340 
 2938000    1.0042092   -2.8352265   -2.8352265   -1.6244264  0.073569632   -2.8352265    1.2108001   558340 
 2939000    1.0048165   -2.8359422   -2.8359422   -1.6244097  0.063898485   -2.8359422    1.2115324   558340 
 2940000    1.0042474   -2.8344749   -2.8344749   -1.6236287  0.067370689   -2.8344749    1.2108462   558340 
 2941000    1.0027268    -2.833721    -2.833721   -1.6247082  0.076400815    -2.833721    1.2090128   558340 
 2942000    1.0035864   -2.8341381   -2.8341381   -1.6240888  0.070967421   -2.8341381    1.2100492   558340 
 2943000    1.0047122   -2.8353333   -2.8353333   -1.6239267  0.065354816   -2.8353333    1.2114066   558340 
 2944000    1.0025458   -2.8332809   -2.8332809   -1.6244863  0.068506021   -2.8332809    1.2087946   558340 
 2945000    1.0034867   -2.8349526   -2.8349526   -1.6250235  0.060700695   -2.8349526    1.2099291   558340 
 2946000     1.000898   -2.8314737   -2.8314737   -1.6246659  0.068053804   -2.8314737    1.2068078   558340 
 2947000    1.0006546   -2.8318789   -2.8318789   -1.6253646  0.066766876   -2.8318789    1.2065143   558340 
 2948000     1.002396   -2.8331465   -2.8331465   -1.6245325  0.063609672   -2.8331465    1.2086139   558340 
 2949000    1.0012673   -2.8328077   -2.8328077   -1.6255547   0.07195574   -2.8328077     1.207253   558340 
 2950000        1.002   -2.8321944   -2.8321944   -1.6240579  0.053287562   -2.8321944    1.2081364   558340 
 2951000    1.0022419   -2.8323146   -2.8323146   -1.6238865  0.061159366   -2.8323146    1.2084281   558340 
 2952000    1.0010134    -2.830481    -2.830481   -1.6235341  0.071915338    -2.830481    1.2069469   558340 
 2953000    1.0027123   -2.8322139   -2.8322139   -1.6232187  0.059046387   -2.8322139    1.2089953   558340 
 2954000    1.0013989   -2.8302889   -2.8302889   -1.6228772  0.077995455   -2.8302889    1.2074117   558340 
 2955000    1.0031207   -2.8322399   -2.8322399   -1.6227522  0.064624072   -2.8322399    1.2094877   558340 
 2956000     1.003064    -2.832061    -2.832061   -1.6226417  0.061358345    -2.832061    1.2094193   558340 
 2957000    1.0042867   -2.8334927   -2.8334927   -1.6225992  0.065926346   -2.8334927    1.2108935   558340 
 2958000    1.0026962   -2.8308442   -2.8308442   -1.6218682  0.064785621   -2.8308442    1.2089759   558340 
 2959000    1.0034762   -2.8316332   -2.8316332   -1.6217168  0.065203182   -2.8316332    1.2099164   558340 
 2960000    1.0020779   -2.8311081   -2.8311081   -1.6228777  0.064946478   -2.8311081    1.2082304   558340 
 2961000    1.0012069   -2.8287426   -2.8287426   -1.6215624  0.063124912   -2.8287426    1.2071801   558340 
 2962000    1.0020045   -2.8292958   -2.8292958   -1.6211539  0.059668249   -2.8292958    1.2081419   558340 
 2963000    1.0016549   -2.8299604   -2.8299604   -1.6222401  0.044030827   -2.8299604    1.2077203   558340 
 2964000    1.0022986   -2.8301855   -2.8301855   -1.6216889   0.05901051   -2.8301855    1.2084965   558340 
 2965000    1.0025591     -2.83052     -2.83052   -1.6217094  0.056550228     -2.83052    1.2088106   558340 
 2966000    1.0007568   -2.8299958   -2.8299958   -1.6233584  0.060856255   -2.8299958    1.2066375   558340 
 2967000    1.0013454   -2.8295796   -2.8295796   -1.6222323  0.062132653   -2.8295796    1.2073472   558340 
 2968000    1.0018046   -2.8305988   -2.8305988    -1.622698  0.067348247   -2.8305988    1.2079009   558340 
 2969000    1.0014613    -2.829983    -2.829983   -1.6224961  0.064222879    -2.829983    1.2074869   558340 
 2970000    1.0024226   -2.8309097   -2.8309097   -1.6222637   0.06145366   -2.8309097     1.208646   558340 
 2971000    1.0013278   -2.8294077   -2.8294077   -1.6220817  0.065258094   -2.8294077     1.207326   558340 
 2972000    1.0023691    -2.831427    -2.831427   -1.6228455   0.06474145    -2.831427    1.2085815   558340 
 2973000     1.002287    -2.830257    -2.830257   -1.6217745   0.06569888    -2.830257    1.2084825   558340 
 2974000    1.0031616   -2.8300595   -2.8300595   -1.6205225  0.070034301   -2.8300595     1.209537   558340 
 2975000    1.0029847   -2.8301675   -2.8301675   -1.6208438  0.061417673   -2.8301675    1.2093237   558340 
 2976000    1.0029821   -2.8301876   -2.8301876   -1.6208671  0.066192238   -2.8301876    1.2093206   558340 
 2977000    1.0014868   -2.8284487   -2.8284487    -1.620931  0.066737604   -2.8284487    1.2075177   558340 
 2978000     1.003551   -2.8306543   -2.8306543   -1.6206478  0.069482994   -2.8306543    1.2100065   558340 
 2979000    1.0034197   -2.8316296   -2.8316296   -1.6217814  0.062395665   -2.8316296    1.2098482   558340 
 2980000    1.0032739   -2.8321291   -2.8321291   -1.6224567  0.068151989   -2.8321291    1.2096724   558340 
 2981000    1.0045047   -2.8330664   -2.8330664   -1.6219099  0.075773822   -2.8330664    1.2111565   558340 
 2982000    1.0033816    -2.831721    -2.831721   -1.6219187  0.069385531    -2.831721    1.2098023   558340 
 2983000    1.0014997   -2.8309696   -2.8309696   -1.6234363   0.06215396   -2.8309696    1.2075332   558340 
 2984000    1.0029827   -2.8326827   -2.8326827   -1.6233614   0.05178296   -2.8326827    1.2093213   558340 
 2985000    1.0032257   -2.8333192   -2.8333192   -1.6237049  0.067378892   -2.8333192    1.2096143   558340 
 2986000    1.0016212   -2.8308241   -2.8308241   -1.6231443  0.063733309   -2.8308241    1.2076798   558340 
 2987000    1.0025107   -2.8325558   -2.8325558   -1.6238036  0.068242754   -2.8325558    1.2087522   558340 
 2988000     1.001936   -2.8325147   -2.8325147   -1.6244554  0.068359656   -2.8325147    1.2080593   558340 
 2989000    1.0018732   -2.8321962   -2.8321962   -1.6242126    0.0648591   -2.8321962    1.2079836   558340 
 2990000    1.0014571   -2.8320619   -2.8320619     -1.62458  0.064737278   -2.8320619    1.2074819   558340 
 2991000    1.0045505    -2.835397    -2.835397   -1.6241853  0.067848234    -2.835397    1.2112116   558340 
 2992000    1.0017495   -2.8323169   -2.8323169   -1.6244825  0.068272686   -2.8323169    1.2078345   558340 
 2993000    1.0019898   -2.8323802   -2.8323802   -1.6242561  0.073685802   -2.8323802    1.2081241   558340 
 2994000    1.0034177   -2.8339354   -2.8339354   -1.6240897  0.068562283   -2.8339354    1.2098458   558340 
 2995000    1.0039427   -2.8351648   -2.8351648   -1.6246859  0.060189595   -2.8351648    1.2104788   558340 
 2996000     1.002705   -2.8338312   -2.8338312   -1.6248447  0.059425531   -2.8338312    1.2089865   558340 
 2997000    1.0022833   -2.8330013   -2.8330013   -1.6245233  0.070507763   -2.8330013     1.208478   558340 
 2998000    1.0031494   -2.8341655   -2.8341655   -1.6246432  0.061374045   -2.8341655    1.2095223   558340 
 2999000    1.0041629   -2.8350126   -2.8350126   -1.6242683   0.05664143   -2.8350126    1.2107443   558340 
 3000000    1.0025451   -2.8339803   -2.8339803   -1.6251865  0.062968221   -2.8339803    1.2087937   558340 
 3001000    1.0019101   -2.8337402   -2.8337402   -1.6257121  0.063987816   -2.8337402     1.208028   558340 
 3002000    1.0019542   -2.8346861   -2.8346861   -1.6266048  0.066999179   -2.8346861    1.2080813   558340 
 3003000    1.0016691   -2.8354289   -2.8354289   -1.6276914  0.065976184   -2.8354289    1.2077375   558340 
 3004000    1.0007975   -2.8330019   -2.8330019   -1.6263153  0.067313125   -2.8330019    1.2066866   558340 
 3005000    1.0038896   -2.8359779   -2.8359779   -1.6255631  0.058877767   -2.8359779    1.2104147   558340 
 3006000    1.0020877   -2.8331985   -2.8331985   -1.6249563  0.063321241   -2.8331985    1.2082422   558340 
 3007000    1.0013491   -2.8322565   -2.8322565   -1.6249048  0.072372353   -2.8322565    1.2073517   558340 
 3008000     1.001573   -2.8319084   -2.8319084   -1.6242868  0.064701479   -2.8319084    1.2076216   558340 
 3009000    1.0020099   -2.8330466   -2.8330466   -1.6248983   0.07208667   -2.8330466    1.2081484   558340 
 3010000   0.99960913   -2.8303743   -2.8303743   -1.6251206  0.062998651   -2.8303743    1.2052537   558340 
 3011000    1.0003446   -2.8324136   -2.8324136   -1.6262731  0.054715308   -2.8324136    1.2061405   558340 
 3012000    1.0014038    -2.833771    -2.833771   -1.6263534  0.062897768    -2.833771    1.2074176   558340 
 3013000    1.0015709   -2.8327867   -2.8327867   -1.6251677  0.063422674   -2.8327867     1.207619   558340 
 3014000    1.0013056   -2.8319162   -2.8319162    -1.624617  0.069735045   -2.8319162    1.2072992   558340 
 3015000    1.0024113   -2.8336777   -2.8336777   -1.6250453  0.059961423   -2.8336777    1.2086324   558340 
 3016000    1.0019715   -2.8327909   -2.8327909   -1.6246888  0.059180214   -2.8327909    1.2081021   558340 
 3017000    1.0014038    -2.832696    -2.832696   -1.6252783  0.056539844    -2.832696    1.2074177   558340 
 3018000    1.0015018   -2.8322374   -2.8322374   -1.6247016  0.062457339   -2.8322374    1.2075358   558340 
 3019000    1.0014814   -2.8322499   -2.8322499   -1.6247388  0.062137718   -2.8322499    1.2075112   558340 
 3020000    1.0020693   -2.8326524   -2.8326524   -1.6244324   0.06027955   -2.8326524      1.20822   558340 
 3021000    1.0016634   -2.8314088   -2.8314088   -1.6236781  0.066779307   -2.8314088    1.2077306   558340 
 3022000    1.0032964   -2.8333378   -2.8333378   -1.6236382  0.068494175   -2.8333378    1.2096996   558340 
 3023000     1.003565   -2.8338178   -2.8338178   -1.6237943  0.065162628   -2.8338178    1.2100234   558340 
 3024000    1.0035442   -2.8338502   -2.8338502   -1.6238519  0.060872208   -2.8338502    1.2099984   558340 
 3025000    1.0025063   -2.8326533   -2.8326533   -1.6239064  0.064261546   -2.8326533     1.208747   558340 
 3026000    1.0039641   -2.8346356   -2.8346356    -1.624131   0.06660392   -2.8346356    1.2105046   558340 
 3027000    1.0023624   -2.8329697   -2.8329697   -1.6243963  0.068573042   -2.8329697    1.2085734   558340 
 3028000    1.0041585   -2.8361068   -2.8361068   -1.6253677  0.054985211   -2.8361068    1.2107391   558340 
 3029000    1.0015304   -2.8322471   -2.8322471   -1.6246769  0.070502794   -2.8322471    1.2075702   558340 
 3030000    1.0030692   -2.8343964   -2.8343964   -1.6249709  0.064384592   -2.8343964    1.2094256   558340 
 3031000    1.0021485   -2.8332919   -2.8332919   -1.6249763  0.065536862   -2.8332919    1.2083155   558340 
 3032000    1.0015316   -2.8330388   -2.8330388   -1.6254671  0.077122313   -2.8330388    1.2075717   558340 
 3033000    1.0022615   -2.8336429   -2.8336429   -1.6251911  0.061944205   -2.8336429    1.2084518   558340 
 3034000    1.0029047   -2.8348029   -2.8348029   -1.6255756  0.059181643   -2.8348029    1.2092273   558340 
 3035000    1.0018183   -2.8346474   -2.8346474   -1.6267299  0.064070482   -2.8346474    1.2079174   558340 
 3036000    1.0024543   -2.8351632   -2.8351632   -1.6264789  0.056861212   -2.8351632    1.2086843   558340 
 3037000    1.0003292   -2.8326421   -2.8326421   -1.6265201  0.077179216   -2.8326421    1.2061219   558340 
 3038000    1.0025198   -2.8357947   -2.8357947   -1.6270315  0.059381618   -2.8357947    1.2087632   558340 
 3039000    1.0012681   -2.8344954   -2.8344954   -1.6272413  0.072266038   -2.8344954     1.207254   558340 
 3040000    1.0018442   -2.8354348   -2.8354348   -1.6274862  0.064822428   -2.8354348    1.2079486   558340 
 3041000     1.001299   -2.8347794   -2.8347794   -1.6274882  0.063909443   -2.8347794    1.2072912   558340 
 3042000    1.0003788   -2.8332241   -2.8332241   -1.6270424   0.07146366   -2.8332241    1.2061817   558340 
 3043000    1.0006054   -2.8340392   -2.8340392   -1.6275842  0.059757512   -2.8340392     1.206455   558340 
 3044000    1.0030182   -2.8354822   -2.8354822    -1.626118  0.068049465   -2.8354822    1.2093642   558340 
 3045000    1.0014106   -2.8334779   -2.8334779   -1.6260521  0.069426078   -2.8334779    1.2074258   558340 
 3046000    1.0037717   -2.8361373   -2.8361373   -1.6258646  0.074516495   -2.8361373    1.2102727   558340 
 3047000    1.0039501   -2.8367533   -2.8367533   -1.6262656  0.060506189   -2.8367533    1.2104877   558340 
 3048000    1.0037267   -2.8359232   -2.8359232   -1.6257048  0.067336573   -2.8359232    1.2102184   558340 
 3049000    1.0029788   -2.8351586   -2.8351586    -1.625842  0.067832809   -2.8351586    1.2093166   558340 
 3050000    1.0034854   -2.8358331   -2.8358331   -1.6259057  0.077123528   -2.8358331    1.2099274   558340 
 3051000    1.0022994   -2.8345232   -2.8345232   -1.6260257  0.061651129   -2.8345232    1.2084975   558340 
 3052000    1.0048138   -2.8379823   -2.8379823   -1.6264531  0.064142851   -2.8379823    1.2115292   558340 
 3053000    1.0034027    -2.836772    -2.836772   -1.6269443  0.067031454    -2.836772    1.2098277   558340 
 3054000    1.0028164   -2.8347005   -2.8347005   -1.6255798  0.075678596   -2.8347005    1.2091208   558340 
 3055000    1.0031497   -2.8347896   -2.8347896    -1.625267  0.067659167   -2.8347896    1.2095226   558340 
 3056000    1.0041719   -2.8361084   -2.8361084   -1.6253532  0.064527762   -2.8361084    1.2107551   558340 
 3057000    1.0025501   -2.8332011   -2.8332011   -1.6244014  0.068105064   -2.8332011    1.2087997   558340 
 3058000    1.0032003   -2.8344666   -2.8344666   -1.6248829  0.070371105   -2.8344666    1.2095837   558340 
 3059000     1.002828   -2.8336701   -2.8336701   -1.6245352  0.066069001   -2.8336701    1.2091349   558340 
 3060000    1.0028561   -2.8339396   -2.8339396   -1.6247709   0.06633904   -2.8339396    1.2091687   558340 
 3061000    1.0017054   -2.8331325   -2.8331325   -1.6253513  0.062063834   -2.8331325    1.2077813   558340 
 3062000    1.0010598   -2.8322538   -2.8322538   -1.6252509  0.066847211   -2.8322538    1.2070029   558340 
 3063000    1.0036542   -2.8346366   -2.8346366   -1.6245057  0.068367209   -2.8346366    1.2101309   558340 
 3064000     1.002504   -2.8333709   -2.8333709   -1.6246268  0.066645339   -2.8333709    1.2087441   558340 
 3065000    1.0027671   -2.8334176   -2.8334176   -1.6243562  0.065306296   -2.8334176    1.2090614   558340 
 3066000    1.0019253   -2.8324686   -2.8324686   -1.6244221   0.07214871   -2.8324686    1.2080464   558340 
 3067000    1.0024416   -2.8331886   -2.8331886   -1.6245196  0.070187999   -2.8331886    1.2086689   558340 
 3068000    1.0011556    -2.832957    -2.832957   -1.6258387  0.073121061    -2.832957    1.2071183   558340 
 3069000    1.0005658   -2.8315506   -2.8315506   -1.6251434  0.062685046   -2.8315506    1.2064072   558340 
 3070000    1.0023792   -2.8330182   -2.8330182   -1.6244245  0.061813543   -2.8330182    1.2085937   558340 
 3071000    1.0018241   -2.8318323   -2.8318323    -1.623908  0.070924359   -2.8318323    1.2079244   558340 
 3072000     1.002011   -2.8326532   -2.8326532   -1.6245035  0.059369973   -2.8326532    1.2081497   558340 
 3073000    1.0017854   -2.8323798   -2.8323798   -1.6245021  0.056255568   -2.8323798    1.2078777   558340 
 3074000    1.0010508   -2.8321969   -2.8321969   -1.6252049  0.061354929   -2.8321969    1.2069919   558340 
 3075000    1.0024786   -2.8330666   -2.8330666   -1.6243531  0.068878295   -2.8330666    1.2087135   558340 
 3076000    1.0007228   -2.8305962   -2.8305962   -1.6239998  0.061156474   -2.8305962    1.2065965   558340 
 3077000    1.0032894   -2.8333938   -2.8333938   -1.6237026  0.067418783   -2.8333938    1.2096911   558340 
 3078000    1.0012465   -2.8303991   -2.8303991   -1.6231711  0.071688967   -2.8303991    1.2072279   558340 
 3079000    1.0023072    -2.831669    -2.831669   -1.6231621  0.069158572    -2.831669    1.2085068   558340 
 3080000    1.0020475   -2.8303629   -2.8303629   -1.6221691  0.065595909   -2.8303629    1.2081938   558340 
 3081000    1.0029566   -2.8322226   -2.8322226   -1.6229328  0.062281319   -2.8322226    1.2092898   558340 
 3082000    1.0036826    -2.834049    -2.834049   -1.6238838  0.066417796    -2.834049    1.2101652   558340 
 3083000    1.0035179   -2.8334324   -2.8334324   -1.6234657  0.059355494   -2.8334324    1.2099667   558340 
 3084000    1.0030698    -2.832285    -2.832285   -1.6228586  0.063278551    -2.832285    1.2094264   558340 
 3085000    1.0045747   -2.8341909   -2.8341909     -1.62295  0.053659271   -2.8341909    1.2112409   558340 
 3086000    1.0015012   -2.8313023   -2.8313023   -1.6237673  0.067198961   -2.8313023    1.2075351   558340 
 3087000    1.0010819   -2.8309673   -2.8309673   -1.6239379  0.074558407   -2.8309673    1.2070294   558340 
 3088000    1.0020539   -2.8329118   -2.8329118   -1.6247104  0.067573026   -2.8329118    1.2082014   558340 
 3089000    1.0017222   -2.8330374   -2.8330374   -1.6252359  0.070465926   -2.8330374    1.2078015   558340 
 3090000   0.99990668   -2.8317647   -2.8317647   -1.6261522   0.06227948   -2.8317647    1.2056125   558340 
 3091000    1.0009889   -2.8329843   -2.8329843    -1.626067  0.064637965   -2.8329843    1.2069174   558340 
 3092000    1.0009133   -2.8318264   -2.8318264   -1.6250002   0.06755768   -2.8318264    1.2068262   558340 
 3093000    1.0011881   -2.8326932   -2.8326932   -1.6255357  0.060394527   -2.8326932    1.2071575   558340 
 3094000    1.0010722    -2.832599    -2.832599   -1.6255812   0.07336536    -2.832599    1.2070178   558340 
 3095000    1.0011359    -2.832997    -2.832997   -1.6259025  0.060871888    -2.832997    1.2070945   558340 
 3096000    1.0018166   -2.8328826   -2.8328826   -1.6249673   0.07411952   -2.8328826    1.2079153   558340 
 3097000    1.0022118   -2.8330939   -2.8330939    -1.624702   0.06397388   -2.8330939    1.2083919   558340 
 3098000    1.0025706   -2.8333807   -2.8333807   -1.6245562  0.059378688   -2.8333807    1.2088245   558340 
 3099000    1.0002984   -2.8316889   -2.8316889   -1.6256041  0.061212854   -2.8316889    1.2060849   558340 
 3100000    1.0021392   -2.8333315   -2.8333315   -1.6250273  0.051128635   -2.8333315    1.2083043   558340 
 3101000    1.0018807   -2.8333758   -2.8333758   -1.6253833  0.061527049   -2.8333758    1.2079926   558340 
 3102000    1.0015773   -2.8325792   -2.8325792   -1.6249525  0.065731739   -2.8325792    1.2076267   558340 
 3103000    1.0035754    -2.834566    -2.834566   -1.6245301   0.06903985    -2.834566     1.210036   558340 
 3104000     1.004312   -2.8352248   -2.8352248   -1.6243008  0.065841329   -2.8352248    1.2109241   558340 
 3105000    1.0031216   -2.8338053   -2.8338053   -1.6243165  0.073758206   -2.8338053    1.2094888   558340 
 3106000    1.0029826   -2.8347771   -2.8347771   -1.6254559  0.066212252   -2.8347771    1.2093213   558340 
 3107000    1.0038749   -2.8350648   -2.8350648   -1.6246676  0.061809572   -2.8350648    1.2103971   558340 
 3108000    1.0041337   -2.8347717   -2.8347717   -1.6240626  0.067352578   -2.8347717    1.2107091   558340 
 3109000    1.0032297   -2.8343428   -2.8343428   -1.6247237  0.064509328   -2.8343428    1.2096191   558340 
 3110000    1.0038253   -2.8355999   -2.8355999   -1.6252626  0.052983107   -2.8355999    1.2103373   558340 
 3111000    1.0021955    -2.833209    -2.833209   -1.6248369  0.066863516    -2.833209    1.2083721   558340 
 3112000    1.0028521   -2.8336309   -2.8336309    -1.624467  0.065916666   -2.8336309    1.2091639   558340 
 3113000     1.003473   -2.8343461   -2.8343461   -1.6244336  0.063374648   -2.8343461    1.2099125   558340 
 3114000    1.0017057   -2.8321813   -2.8321813   -1.6243996  0.066272716   -2.8321813    1.2077817   558340 
 3115000    1.0020866   -2.8328476   -2.8328476   -1.6246067  0.062796381   -2.8328476    1.2082409   558340 
 3116000      1.00346    -2.834493    -2.834493   -1.6245962   0.06146593    -2.834493    1.2098968   558340 
 3117000    1.0024076    -2.832513    -2.832513    -1.623885   0.07515726    -2.832513    1.2086279   558340 
 3118000    1.0037718   -2.8333839   -2.8333839   -1.6231111  0.066118633   -2.8333839    1.2102727   558340 
 3119000    1.0027256   -2.8320005   -2.8320005   -1.6229892   0.07231439   -2.8320005    1.2090114   558340 
 3120000    1.0025816   -2.8317483   -2.8317483   -1.6229106   0.06672315   -2.8317483    1.2088378   558340 
 3121000    1.0034071     -2.83257     -2.83257    -1.622737  0.064130475     -2.83257     1.209833   558340 
 3122000    1.0024129   -2.8314093   -2.8314093    -1.622775  0.067186523   -2.8314093    1.2086343   558340 
 3123000    1.0025849   -2.8320253   -2.8320253   -1.6231836  0.076421248   -2.8320253    1.2088417   558340 
 3124000    1.0020823   -2.8311496   -2.8311496   -1.6229139  0.056719045   -2.8311496    1.2082357   558340 
 3125000    1.0030727    -2.832023    -2.832023   -1.6225932  0.066311322    -2.832023    1.2094298   558340 
 3126000    1.0018491   -2.8305665   -2.8305665    -1.622612  0.066933408   -2.8305665    1.2079545   558340 
 3127000    1.0011987   -2.8295737   -2.8295737   -1.6224033  0.063274239   -2.8295737    1.2071703   558340 
 3128000    1.0008593   -2.8296512   -2.8296512     -1.62289   0.05379038   -2.8296512    1.2067611   558340 
 3129000   0.99959527   -2.8278755   -2.8278755   -1.6226385  0.061517534   -2.8278755     1.205237   558340 
 3130000    1.0004395   -2.8285465   -2.8285465   -1.6222916  0.058487177   -2.8285465    1.2062549   558340 
 3131000    1.0016277   -2.8296152   -2.8296152   -1.6219276   0.06220311   -2.8296152    1.2076876   558340 
 3132000    1.0017032    -2.830681    -2.830681   -1.6229024  0.070705615    -2.830681    1.2077786   558340 
 3133000    1.0034711   -2.8320402   -2.8320402   -1.6221299  0.062027314   -2.8320402    1.2099102   558340 
 3134000    1.0021877   -2.8307446   -2.8307446   -1.6223819  0.060581212   -2.8307446    1.2083627   558340 
 3135000    1.0028076   -2.8306149   -2.8306149   -1.6215047  0.063753303   -2.8306149    1.2091102   558340 
 3136000    1.0018959   -2.8301536   -2.8301536   -1.6221427  0.063995919   -2.8301536    1.2080109   558340 
 3137000    1.0031487   -2.8318007   -2.8318007   -1.6222793  0.065397543   -2.8318007    1.2095214   558340 
 3138000    1.0023834   -2.8301987   -2.8301987      -1.6216  0.060828558   -2.8301987    1.2085987   558340 
 3139000    1.0015026   -2.8297527   -2.8297527    -1.622216  0.068759015   -2.8297527    1.2075367   558340 
 3140000     1.001413    -2.830149    -2.830149   -1.6227203   0.06208701    -2.830149    1.2074287   558340 
 3141000     1.002233   -2.8314893   -2.8314893   -1.6230719  0.054885465   -2.8314893    1.2084174   558340 
 3142000    1.0016482   -2.8314543   -2.8314543    -1.623742  0.064527965   -2.8314543    1.2077123   558340 
 3143000    1.0007813   -2.8306023   -2.8306023   -1.6239352  0.063989011   -2.8306023    1.2066671   558340 
 3144000    1.0002799   -2.8300841   -2.8300841   -1.6240217  0.067586198   -2.8300841    1.2060625   558340 
 3145000    1.0012412   -2.8306161   -2.8306161   -1.6233945  0.058341611   -2.8306161    1.2072216   558340 
 3146000    1.0025258   -2.8310587   -2.8310587   -1.6222883   0.05834967   -2.8310587    1.2087704   558340 
 3147000     1.001171   -2.8301344   -2.8301344   -1.6229975  0.075664698   -2.8301344    1.2071369   558340 
 3148000    1.0007287   -2.8298357   -2.8298357   -1.6232321  0.059226688   -2.8298357    1.2066036   558340 
 3149000    1.0023338   -2.8324229   -2.8324229    -1.623884  0.059859422   -2.8324229    1.2085389   558340 
 3150000    1.0014565   -2.8322785   -2.8322785   -1.6247974    0.0628164   -2.8322785    1.2074812   558340 
 3151000    1.0023032   -2.8329324   -2.8329324   -1.6244304  0.063977116   -2.8329324     1.208502   558340 
 3152000    1.0027923   -2.8331137   -2.8331137    -1.624022  0.058843952   -2.8331137    1.2090917   558340 
 3153000    1.0014336   -2.8323105   -2.8323105   -1.6248569  0.072112245   -2.8323105    1.2074536   558340 
 3154000    1.0015504   -2.8332359   -2.8332359   -1.6256416  0.064452334   -2.8332359    1.2075943   558340 
 3155000    1.0019842    -2.834213    -2.834213   -1.6260956  0.067264482    -2.834213    1.2081174   558340 
 3156000    1.0000299   -2.8323112   -2.8323112   -1.6265501  0.061338435   -2.8323112    1.2057611   558340 
 3157000    1.0009437   -2.8334603   -2.8334603   -1.6265974  0.063033869   -2.8334603    1.2068628   558340 
 3158000    1.0017001   -2.8334458   -2.8334458   -1.6256709  0.063772945   -2.8334458    1.2077749   558340 
 3159000    1.0030554   -2.8346916   -2.8346916   -1.6252826  0.072819034   -2.8346916     1.209409   558340 
 3160000    1.0023723   -2.8342335   -2.8342335   -1.6256482  0.058190321   -2.8342335    1.2085854   558340 
 3161000    1.0020467   -2.8337662   -2.8337662   -1.6255734  0.055907005   -2.8337662    1.2081928   558340 
 3162000    1.0009102   -2.8317901   -2.8317901   -1.6249677  0.064089767   -2.8317901    1.2068224   558340 
 3163000     1.002052   -2.8332288   -2.8332288   -1.6250297  0.064853162   -2.8332288    1.2081991   558340 
 3164000    1.0025595   -2.8337162   -2.8337162   -1.6249052  0.066003585   -2.8337162     1.208811   558340 
 3165000    1.0021435   -2.8332042   -2.8332042   -1.6248948  0.070260241   -2.8332042    1.2083094   558340 
 3166000    1.0035749   -2.8349446   -2.8349446   -1.6249092  0.062861795   -2.8349446    1.2100354   558340 
 3167000    1.0035842   -2.8348631   -2.8348631   -1.6248166  0.060616095   -2.8348631    1.2100466   558340 
 3168000    1.0033896    -2.834308    -2.834308   -1.6244961   0.06987049    -2.834308     1.209812   558340 
 3169000    1.0033129   -2.8345666   -2.8345666   -1.6248471  0.069316867   -2.8345666    1.2097194   558340 
 3170000     1.001541   -2.8329265   -2.8329265   -1.6253435   0.06876711   -2.8329265     1.207583   558340 
 3171000     1.004145    -2.834634    -2.834634   -1.6239113  0.068376621    -2.834634    1.2107228   558340 
 3172000     1.002478   -2.8335433   -2.8335433   -1.6248304  0.070749268   -2.8335433    1.2087128   558340 
 3173000    1.0011234   -2.8319032   -2.8319032   -1.6248237  0.061682074   -2.8319032    1.2070796   558340 
 3174000    1.0016456   -2.8322184   -2.8322184   -1.6245093  0.067040805   -2.8322184    1.2077091   558340 
 3175000    1.0018058   -2.8330049   -2.8330049   -1.6251027  0.059823523   -2.8330049    1.2079023   558340 
 3176000    1.0024494   -2.8347254   -2.8347254   -1.6260471  0.058481952   -2.8347254    1.2086784   558340 
 3177000    1.0012619   -2.8333941   -2.8333941   -1.6261475  0.064918097   -2.8333941    1.2072465   558340 
 3178000    1.0022543    -2.833406    -2.833406    -1.624963  0.053476523    -2.833406    1.2084431   558340 
 3179000    1.0022055   -2.8336928   -2.8336928   -1.6253085  0.054815182   -2.8336928    1.2083843   558340 
 3180000    1.0013285   -2.8333374   -2.8333374   -1.6260106  0.060105348   -2.8333374    1.2073268   558340 
 3181000    1.0001268   -2.8322779   -2.8322779      -1.6264  0.061557213   -2.8322779    1.2058779   558340 
 3182000    1.0011068   -2.8328532   -2.8328532   -1.6257937  0.064029807   -2.8328532    1.2070595   558340 
 3183000    1.0017014   -2.8335086   -2.8335086   -1.6257323  0.056891397   -2.8335086    1.2077764   558340 
 3184000     1.001301   -2.8327741   -2.8327741   -1.6254805  0.063492616   -2.8327741    1.2072936   558340 
 3185000    1.0022892   -2.8333785   -2.8333785   -1.6248934  0.064384987   -2.8333785    1.2084851   558340 
 3186000    1.0015811   -2.8313812   -2.8313812   -1.6237498  0.058304988   -2.8313812    1.2076313   558340 
 3187000    1.0018891   -2.8318618   -2.8318618    -1.623859  0.062157979   -2.8318618    1.2080028   558340 
 3188000    1.0030325    -2.833289    -2.833289   -1.6239077  0.064528454    -2.833289    1.2093814   558340 
 3189000    1.0028654   -2.8322596   -2.8322596   -1.6230798  0.063664363   -2.8322596    1.2091799   558340 
 3190000    1.0031156   -2.8315783   -2.8315783   -1.6220968  0.070696751   -2.8315783    1.2094815   558340 
 3191000    1.0022407   -2.8305014   -2.8305014   -1.6220748  0.070681686   -2.8305014    1.2084267   558340 
 3192000    1.0032173   -2.8314052   -2.8314052    -1.621801  0.061239113   -2.8314052    1.2096041   558340 
 3193000    1.0027444   -2.8327473   -2.8327473   -1.6237132  0.065303808   -2.8327473    1.2090341   558340 
 3194000    1.0026767   -2.8325359   -2.8325359   -1.6235835  0.061810263   -2.8325359    1.2089524   558340 
 3195000    1.0037778   -2.8338497   -2.8338497   -1.6235697  0.068941596   -2.8338497      1.21028   558340 
 3196000    1.0050282    -2.834284    -2.834284   -1.6224964  0.069400533    -2.834284    1.2117876   558340 
 3197000    1.0041354   -2.8333061   -2.8333061   -1.6225949  0.055756291   -2.8333061    1.2107112   558340 
 3198000    1.0029232   -2.8321976   -2.8321976   -1.6229481   0.07072046   -2.8321976    1.2092495   558340 
 3199000    1.0039067   -2.8332946   -2.8332946   -1.6228591  0.064615917   -2.8332946    1.2104355   558340 
 3200000    1.0032731   -2.8323304   -2.8323304   -1.6226589  0.069281509   -2.8323304    1.2096714   558340 
 3201000    1.0032556   -2.8314802   -2.8314802   -1.6218298   0.07040581   -2.8314802    1.2096504   558340 
 3202000    1.0028721   -2.8306838   -2.8306838   -1.6214958  0.070552514   -2.8306838     1.209188   558340 
 3203000    1.0027743   -2.8313399   -2.8313399   -1.6222699  0.066974904   -2.8313399      1.20907   558340 
 3204000      1.00099   -2.8287636   -2.8287636   -1.6218449  0.069966792   -2.8287636    1.2069187   558340 
 3205000    1.0027837   -2.8317022   -2.8317022   -1.6226208   0.07672697   -2.8317022    1.2090814   558340 
 3206000    1.0010857   -2.8301461   -2.8301461    -1.623112   0.06544332   -2.8301461    1.2070341   558340 
 3207000    1.0016165   -2.8306597   -2.8306597   -1.6229856  0.056766401   -2.8306597    1.2076741   558340 
 3208000    1.0012533   -2.8294827   -2.8294827   -1.6222465  0.062417715   -2.8294827    1.2072362   558340 
 3209000    1.0018763   -2.8312051   -2.8312051   -1.6232178  0.057939186   -2.8312051    1.2079873   558340 
 3210000    1.0007009   -2.8285965   -2.8285965   -1.6220264  0.062133104   -2.8285965    1.2065701   558340 
 3211000    1.0013836   -2.8292019   -2.8292019   -1.6218087  0.051246104   -2.8292019    1.2073932   558340 
 3212000    1.0005623   -2.8289509   -2.8289509   -1.6225479  0.065307339   -2.8289509     1.206403   558340 
 3213000    1.0035258   -2.8314265   -2.8314265   -1.6214504  0.064595195   -2.8314265    1.2099761   558340 
 3214000    1.0025947   -2.8308054   -2.8308054   -1.6219519  0.068240691   -2.8308054    1.2088535   558340 
 3215000    1.0022222   -2.8306207   -2.8306207   -1.6222163  0.065157433   -2.8306207    1.2084044   558340 
 3216000    1.0009611   -2.8299911   -2.8299911   -1.6231072  0.067447818   -2.8299911    1.2068839   558340 
 3217000     1.001839   -2.8309338   -2.8309338   -1.6229914  0.055304183   -2.8309338    1.2079424   558340 
 3218000    1.0013979   -2.8311376   -2.8311376   -1.6237271  0.062083685   -2.8311376    1.2074105   558340 
 3219000    1.0012699   -2.8314357   -2.8314357   -1.6241795  0.077584189   -2.8314357    1.2072562   558340 
 3220000    1.0021308   -2.8313388   -2.8313388   -1.6230446  0.067522361   -2.8313388    1.2082942   558340 
 3221000    1.0029484   -2.8321425   -2.8321425   -1.6228625  0.067983234   -2.8321425    1.2092799   558340 
 3222000    1.0021828   -2.8316045   -2.8316045   -1.6232476  0.061414444   -2.8316045    1.2083569   558340 
 3223000      1.00166   -2.8307077   -2.8307077   -1.6229811  0.063499414   -2.8307077    1.2077265   558340 
 3224000    1.0023355    -2.831427    -2.831427    -1.622886  0.062111941    -2.831427     1.208541   558340 
 3225000    1.0009837   -2.8296702   -2.8296702   -1.6227591  0.065037232   -2.8296702    1.2069111   558340 
 3226000    1.0004906   -2.8292032   -2.8292032   -1.6228866  0.074571609   -2.8292032    1.2063166   558340 
 3227000     1.003072    -2.832968    -2.832968   -1.6235391  0.059900162    -2.832968    1.2094289   558340 
 3228000    1.0012363   -2.8311336   -2.8311336   -1.6239179  0.061678844   -2.8311336    1.2072157   558340 
 3229000    1.0002991   -2.8307697   -2.8307697   -1.6246841  0.063569669   -2.8307697    1.2060857   558340 
 3230000    1.0010812   -2.8310941   -2.8310941   -1.6240655  0.071670743   -2.8310941    1.2070286   558340 
 3231000    1.0007945   -2.8304001   -2.8304001   -1.6237172  0.064773813   -2.8304001    1.2066829   558340 
 3232000    1.0030422   -2.8325762   -2.8325762   -1.6231831  0.063174272   -2.8325762     1.209393   558340 
 3233000    1.0036678   -2.8332456   -2.8332456   -1.6230983  0.064391764   -2.8332456    1.2101474   558340 
 3234000    1.0036205   -2.8338566   -2.8338566   -1.6237662  0.070547653   -2.8338566    1.2100904   558340 
 3235000    1.0021764   -2.8318979   -2.8318979   -1.6235488  0.065777543   -2.8318979    1.2083491   558340 
 3236000    1.0036361   -2.8329827   -2.8329827   -1.6228735  0.070660203   -2.8329827    1.2101092   558340 
 3237000    1.0046113   -2.8335061   -2.8335061   -1.6222212  0.065834678   -2.8335061    1.2112849   558340 
 3238000    1.0046838   -2.8337491   -2.8337491   -1.6223767  0.063267991   -2.8337491    1.2113724   558340 
 3239000    1.0035486   -2.8313442   -2.8313442   -1.6213406  0.085672674   -2.8313442    1.2100036   558340 
 3240000    1.0056073   -2.8346794   -2.8346794   -1.6221935  0.073856789   -2.8346794    1.2124859   558340 
 3241000    1.0049095     -2.83476     -2.83476   -1.6231155  0.062498664     -2.83476    1.2116445   558340 
 3242000    1.0028464   -2.8318722   -2.8318722   -1.6227151  0.068843198   -2.8318722     1.209157   558340 
 3243000    1.0030918   -2.8328593   -2.8328593   -1.6234064  0.064198544   -2.8328593    1.2094528   558340 
 3244000    1.0037975   -2.8328791   -2.8328791   -1.6225753  0.064220656   -2.8328791    1.2103037   558340 
 3245000    1.0036824    -2.832321    -2.832321    -1.622156  0.075558031    -2.832321     1.210165   558340 
 3246000    1.0009587   -2.8302233   -2.8302233   -1.6233423  0.066214235   -2.8302233    1.2068809   558340 
 3247000    1.0014311   -2.8305679   -2.8305679   -1.6231174  0.068765407   -2.8305679    1.2074505   558340 
 3248000    1.0027569    -2.832307    -2.832307   -1.6232579  0.057992552    -2.832307    1.2090491   558340 
 3249000    1.0020572    -2.831524    -2.831524   -1.6233186  0.060994162    -2.831524    1.2082054   558340 
 3250000     1.001678   -2.8309191   -2.8309191   -1.6231709  0.055758332   -2.8309191    1.2077482   558340 
 3251000    1.0017971   -2.8308593   -2.8308593   -1.6229675  0.067832574   -2.8308593    1.2078918   558340 
 3252000    1.0018636   -2.8308343   -2.8308343   -1.6228623  0.063492918   -2.8308343     1.207972   558340 
 3253000    1.0021926   -2.8306464   -2.8306464   -1.6222778  0.067208651   -2.8306464    1.2083687   558340 
 3254000    1.0025781   -2.8315842   -2.8315842   -1.6227507  0.064368352   -2.8315842    1.2088335   558340 
 3255000    1.0032039    -2.832508    -2.832508   -1.6229199  0.068142449    -2.832508     1.209588   558340 
 3256000    1.0029346   -2.8327625   -2.8327625   -1.6234992  0.058008407   -2.8327625    1.2092633   558340 
 3257000    1.0015475   -2.8307999   -2.8307999    -1.623209  0.060295304   -2.8307999    1.2075909   558340 
 3258000    1.0031742   -2.8322785   -2.8322785   -1.6227264  0.062754451   -2.8322785    1.2095522   558340 
 3259000    1.0025541     -2.83178     -2.83178   -1.6229754  0.069564148     -2.83178    1.2088046   558340 
 3260000    1.0013388   -2.8309632   -2.8309632    -1.623624  0.065720475   -2.8309632    1.2073392   558340 
 3261000    1.0021379   -2.8313978   -2.8313978    -1.623095  0.060776728   -2.8313978    1.2083028   558340 
 3262000    1.0023618   -2.8313349   -2.8313349   -1.6227623  0.067771052   -2.8313349    1.2085726   558340 
 3263000    1.0013766   -2.8305867   -2.8305867    -1.623202  0.069448914   -2.8305867    1.2073848   558340 
 3264000     1.000988   -2.8292761   -2.8292761   -1.6223599   0.06244079   -2.8292761    1.2069163   558340 
 3265000    1.0022204   -2.8305233   -2.8305233   -1.6221211  0.063533358   -2.8305233    1.2084022   558340 
 3266000    1.0016072   -2.8300072   -2.8300072   -1.6223443  0.069878629   -2.8300072    1.2076629   558340 
 3267000    1.0017099   -2.8310006   -2.8310006    -1.623214  0.065599454   -2.8310006    1.2077867   558340 
 3268000    1.0026156    -2.830692    -2.830692   -1.6218133  0.073078706    -2.830692    1.2088786   558340 
 3269000    1.0007077   -2.8289602   -2.8289602    -1.622382  0.065468776   -2.8289602    1.2065783   558340 
 3270000    1.0018433   -2.8291687   -2.8291687   -1.6212212  0.065841742   -2.8291687    1.2079475   558340 
 3271000    1.0027919    -2.829806    -2.829806   -1.6207148  0.063144609    -2.829806    1.2090912   558340 
 3272000    1.0023459   -2.8289154   -2.8289154   -1.6203618  0.067306624   -2.8289154    1.2085535   558340 
 3273000     1.003315   -2.8300223   -2.8300223   -1.6203004  0.064899934   -2.8300223    1.2097219   558340 
 3274000    1.0018769   -2.8286794   -2.8286794   -1.6206914  0.063240648   -2.8286794     1.207988   558340 
 3275000    1.0037607   -2.8306083   -2.8306083    -1.620349  0.059819793   -2.8306083    1.2102593   558340 
 3276000    1.0038661   -2.8308231   -2.8308231   -1.6204367  0.061831916   -2.8308231    1.2103865   558340 
 3277000    1.0041465   -2.8312968   -2.8312968   -1.6205723  0.064847354   -2.8312968    1.2107246   558340 
 3278000    1.0032164   -2.8294243   -2.8294243   -1.6198212  0.066778453   -2.8294243    1.2096031   558340 
 3279000    1.0029878   -2.8294516   -2.8294516   -1.6201241  0.061426917   -2.8294516    1.2093275   558340 
 3280000    1.0043148   -2.8296931   -2.8296931   -1.6187656  0.070583087   -2.8296931    1.2109275   558340 
 3281000    1.0045988   -2.8307894   -2.8307894   -1.6195195  0.067226457   -2.8307894    1.2112699   558340 
 3282000    1.0030314   -2.8289718   -2.8289718   -1.6195917  0.066300103   -2.8289718      1.20938   558340 
 3283000    1.0036827   -2.8288925   -2.8288925   -1.6187272  0.069180177   -2.8288925    1.2101653   558340 
 3284000    1.0025244   -2.8287702   -2.8287702   -1.6200015  0.075580205   -2.8287702    1.2087687   558340 
 3285000    1.0030859   -2.8284492   -2.8284492   -1.6190035  0.071897672   -2.8284492    1.2094458   558340 
 3286000    1.0036926    -2.829513    -2.829513   -1.6193357  0.056407126    -2.829513    1.2101773   558340 
 3287000    1.0039098   -2.8303317   -2.8303317   -1.6198926  0.064729248   -2.8303317    1.2104391   558340 
 3288000    1.0017252   -2.8276001   -2.8276001   -1.6197949  0.069415373   -2.8276001    1.2078052   558340 
 3289000    1.0028097   -2.8301416   -2.8301416   -1.6210289  0.065793472   -2.8301416    1.2091128   558340 
 3290000    1.0031234   -2.8306888   -2.8306888   -1.6211978  0.071217075   -2.8306888     1.209491   558340 
 3291000    1.0033917   -2.8304918   -2.8304918   -1.6206774  0.068268076   -2.8304918    1.2098144   558340 
 3292000    1.0022004   -2.8296191   -2.8296191    -1.621241  0.066723791   -2.8296191    1.2083781   558340 
 3293000    1.0033444   -2.8308241   -2.8308241   -1.6210667  0.060639178   -2.8308241    1.2097574   558340 
 3294000    1.0029524   -2.8300415   -2.8300415   -1.6207567  0.059254161   -2.8300415    1.2092847   558340 
 3295000      1.00332    -2.830364    -2.830364    -1.620636  0.063105211    -2.830364    1.2097281   558340 
 3296000    1.0031992   -2.8291313   -2.8291313   -1.6195489   0.07155672   -2.8291313    1.2095824   558340 
 3297000     1.004136   -2.8322294   -2.8322294   -1.6215176  0.068280321   -2.8322294    1.2107118   558340 
 3298000    1.0028124   -2.8301969   -2.8301969   -1.6210809  0.057748761   -2.8301969     1.209116   558340 
 3299000    1.0032605   -2.8312009   -2.8312009   -1.6215446  0.058975681   -2.8312009    1.2096563   558340 
 3300000     1.003174    -2.830569    -2.830569    -1.621017   0.06657998    -2.830569     1.209552   558340 
 3301000    1.0031016   -2.8302558   -2.8302558   -1.6207911  0.062513205   -2.8302558    1.2094647   558340 
 3302000      1.00322   -2.8307367   -2.8307367   -1.6211292  0.063619249   -2.8307367    1.2096075   558340 
 3303000    1.0035388    -2.830854    -2.830854   -1.6208622  0.067868164    -2.830854    1.2099918   558340 
 3304000    1.0029549   -2.8296102   -2.8296102   -1.6203224  0.071629791   -2.8296102    1.2092878   558340 
 3305000    1.0032809   -2.8296936   -2.8296936   -1.6200127   0.07224006   -2.8296936    1.2096809   558340 
 3306000    1.0011718   -2.8284118   -2.8284118    -1.621274   0.07268479   -2.8284118    1.2071379   558340 
 3307000    1.0008851   -2.8291709   -2.8291709   -1.6223787  0.069439032   -2.8291709    1.2067922   558340 
 3308000    1.0023916   -2.8317116   -2.8317116   -1.6231029  0.062241668   -2.8317116    1.2086087   558340 
 3309000    1.0018887   -2.8302027   -2.8302027   -1.6222005  0.056387994   -2.8302027    1.2080022   558340 
 3310000    1.0024321    -2.830931    -2.830931   -1.6222735  0.069638614    -2.830931    1.2086575   558340 
 3311000    1.0023692   -2.8302337   -2.8302337   -1.6216521  0.064628075   -2.8302337    1.2085816   558340 
 3312000    1.0005587   -2.8278901   -2.8278901   -1.6214915  0.061449993   -2.8278901    1.2063986   558340 
 3313000    1.0012821   -2.8287187   -2.8287187   -1.6214477  0.067245883   -2.8287187    1.2072709   558340 
 3314000    1.0020383   -2.8289922   -2.8289922   -1.6208095  0.058850823   -2.8289922    1.2081826   558340 
 3315000    1.0020747   -2.8290461   -2.8290461   -1.6208196  0.060081295   -2.8290461    1.2082265   558340 
 3316000    1.0031609   -2.8307065   -2.8307065   -1.6211704  0.056001366   -2.8307065    1.2095361   558340 
 3317000    1.0025526   -2.8295502   -2.8295502   -1.6207475  0.063888755   -2.8295502    1.2088027   558340 
 3318000    1.0029685   -2.8304943   -2.8304943   -1.6211901  0.064020241   -2.8304943    1.2093043   558340 
 3319000    1.0029974   -2.8305853   -2.8305853   -1.6212462  0.067777929   -2.8305853    1.2093391   558340 
 3320000    1.0021042   -2.8300161   -2.8300161   -1.6217539  0.070877802   -2.8300161    1.2082621   558340 
 3321000    1.0019378   -2.8299518   -2.8299518   -1.6218903  0.062789138   -2.8299518    1.2080615   558340 
 3322000    1.0018466   -2.8304283   -2.8304283   -1.6224768   0.06112925   -2.8304283    1.2079515   558340 
 3323000    1.0027136   -2.8305809   -2.8305809   -1.6215841  0.065708906   -2.8305809    1.2089968   558340 
 3324000     1.002774   -2.8309727   -2.8309727    -1.621903  0.059414663   -2.8309727    1.2090697   558340 
 3325000    1.0020789     -2.83112     -2.83112   -1.6228883  0.057925063     -2.83112    1.2082316   558340 
 3326000     1.000604   -2.8290326   -2.8290326   -1.6225793  0.058499395   -2.8290326    1.2064533   558340 
 3327000     1.001421   -2.8301142   -2.8301142   -1.6226759  0.064708797   -2.8301142    1.2074383   558340 
 3328000    1.0034247   -2.8309658   -2.8309658   -1.6211115  0.063344022   -2.8309658    1.2098543   558340 
 3329000    1.0051835   -2.8317028   -2.8317028    -1.619728  0.066739609   -2.8317028    1.2119749   558340 
 3330000    1.0037166    -2.829775    -2.829775   -1.6195687  0.072340849    -2.829775    1.2102062   558340 
 3331000    1.0050823   -2.8321054   -2.8321054   -1.6202525  0.059109922   -2.8321054    1.2118529   558340 
 3332000    1.0053659   -2.8315347   -2.8315347   -1.6193399  0.067099085   -2.8315347    1.2121948   558340 
 3333000     1.004903   -2.8320318   -2.8320318   -1.6203951  0.064796084   -2.8320318    1.2116367   558340 
 3334000    1.0029715   -2.8303176   -2.8303176   -1.6210098  0.071395206   -2.8303176    1.2093078   558340 
 3335000    1.0037741   -2.8308613   -2.8308613   -1.6205858  0.073373211   -2.8308613    1.2102755   558340 
 3336000    1.0051975   -2.8327469   -2.8327469   -1.6207552  0.060210256   -2.8327469    1.2119917   558340 
 3337000    1.0046854     -2.83163     -2.83163   -1.6202557  0.069606674     -2.83163    1.2113743   558340 
 3338000    1.0033818   -2.8306405   -2.8306405   -1.6208379  0.068605172   -2.8306405    1.2098026   558340 
 3339000    1.0022984   -2.8296828   -2.8296828   -1.6211865  0.066857879   -2.8296828    1.2084963   558340 
 3340000    1.0013119   -2.8285543   -2.8285543   -1.6212474   0.07296223   -2.8285543    1.2073068   558340 
 3341000    1.0028398   -2.8307722   -2.8307722   -1.6216232  0.079203301   -2.8307722     1.209149   558340 
 3342000    1.0027196   -2.8307166   -2.8307166   -1.6217125  0.068110383   -2.8307166    1.2090041   558340 
 3343000    1.0029403   -2.8312371   -2.8312371    -1.621967  0.067076996   -2.8312371    1.2092701   558340 
 3344000      1.00236   -2.8315651   -2.8315651   -1.6229945  0.070659802   -2.8315651    1.2085705   558340 
 3345000    1.0028281   -2.8311499   -2.8311499   -1.6220149  0.059182777   -2.8311499     1.209135   558340 
 3346000    1.0020271   -2.8309397   -2.8309397   -1.6227706   0.07173638   -2.8309397    1.2081691   558340 
 3347000    1.0024505    -2.831991    -2.831991   -1.6233113  0.060370913    -2.831991    1.2086797   558340 
 3348000    1.0019703   -2.8310105   -2.8310105   -1.6229099  0.064318347   -2.8310105    1.2081006   558340 
 3349000    1.0016923   -2.8304958   -2.8304958   -1.6227304  0.059776272   -2.8304958    1.2077655   558340 
 3350000    1.0029106   -2.8316326   -2.8316326   -1.6223982  0.069248483   -2.8316326    1.2092344   558340 
 3351000    1.0014992   -2.8302669   -2.8302669   -1.6227343  0.068354979   -2.8302669    1.2075326   558340 
 3352000    1.0018876   -2.8310022   -2.8310022   -1.6230013  0.062319847   -2.8310022    1.2080009   558340 
 3353000    1.0015927   -2.8306161   -2.8306161   -1.6229708  0.065795086   -2.8306161    1.2076453   558340 
 3354000    1.0036367    -2.832989    -2.832989   -1.6228791  0.060044361    -2.832989    1.2101099   558340 
 3355000    1.0022124   -2.8308433   -2.8308433   -1.6224507  0.065086173   -2.8308433    1.2083926   558340 
 3356000     1.001676   -2.8304977   -2.8304977   -1.6227519  0.064237391   -2.8304977    1.2077458   558340 
 3357000    1.0027532   -2.8315362   -2.8315362   -1.6224917  0.065726386   -2.8315362    1.2090446   558340 
 3358000    1.0039866   -2.8320785   -2.8320785   -1.6215468  0.073638928   -2.8320785    1.2105318   558340 
 3359000    1.0040564   -2.8329002   -2.8329002   -1.6222844  0.068720456   -2.8329002    1.2106159   558340 
 3360000    1.0025134   -2.8317186   -2.8317186   -1.6229631  0.060771916   -2.8317186    1.2087554   558340 
 3361000    1.0037951   -2.8334302   -2.8334302   -1.6231294  0.064769999   -2.8334302    1.2103008   558340 
 3362000    1.0023765   -2.8312412   -2.8312412   -1.6226508  0.064307058   -2.8312412    1.2085904   558340 
 3363000    1.0026279   -2.8311505   -2.8311505    -1.622257  0.074064088   -2.8311505    1.2088936   558340 
 3364000    1.0031197   -2.8321295   -2.8321295    -1.622643   0.07108496   -2.8321295    1.2094866   558340 
 3365000    1.0029911   -2.8327413   -2.8327413   -1.6234098  0.062356302   -2.8327413    1.2093315   558340 
 3366000       1.0014   -2.8309234   -2.8309234   -1.6235103  0.073122702   -2.8309234     1.207413   558340 
 3367000    1.0022407   -2.8323381   -2.8323381   -1.6239114  0.071753883   -2.8323381    1.2084266   558340 
 3368000    1.0032311   -2.8329363   -2.8329363   -1.6233155  0.058017411   -2.8329363    1.2096208   558340 
 3369000    1.0034609   -2.8328454   -2.8328454   -1.6229474  0.070264118   -2.8328454    1.2098979   558340 
 3370000    1.0016851   -2.8314843   -2.8314843   -1.6237275  0.061789864   -2.8314843    1.2077568   558340 
 3371000    1.0022621   -2.8328267   -2.8328267   -1.6243743  0.070911715   -2.8328267    1.2084524   558340 
 3372000    1.0028314   -2.8334524   -2.8334524   -1.6243135  0.063892041   -2.8334524    1.2091389   558340 
 3373000    1.0011032   -2.8312098   -2.8312098   -1.6241547  0.064706102   -2.8312098    1.2070552   558340 
 3374000    1.0024802   -2.8329647   -2.8329647   -1.6242492  0.059508362   -2.8329647    1.2087155   558340 
 3375000    1.0008233    -2.830566    -2.830566   -1.6238484  0.073088383    -2.830566    1.2067177   558340 
 3376000    1.0031976   -2.8331832   -2.8331832   -1.6236028  0.057247593   -2.8331832    1.2095804   558340 
 3377000    1.0013253   -2.8314174   -2.8314174   -1.6240945  0.063906436   -2.8314174     1.207323   558340 
 3378000    1.0008009   -2.8311714   -2.8311714   -1.6244808  0.071233693   -2.8311714    1.2066906   558340 
 3379000    1.0019674   -2.8322864   -2.8322864   -1.6241892  0.054744814   -2.8322864    1.2080972   558340 
 3380000    1.0020308   -2.8319318   -2.8319318   -1.6237583  0.068145411   -2.8319318    1.2081736   558340 
 3381000    1.0018351   -2.8325719   -2.8325719   -1.6246343  0.073957614   -2.8325719    1.2079376   558340 
 3382000    1.0023006   -2.8328054   -2.8328054   -1.6243066  0.065496266   -2.8328054    1.2084988   558340 
 3383000    1.0014621   -2.8319981   -2.8319981   -1.6245101  0.068362651   -2.8319981    1.2074879   558340 
 3384000    1.0039089    -2.834841    -2.834841   -1.6244029  0.064434576    -2.834841     1.210438   558340 
 3385000    1.0028804   -2.8328657   -2.8328657   -1.6236678  0.062875507   -2.8328657     1.209198   558340 
 3386000     1.002832    -2.833228    -2.833228   -1.6240884  0.067558824    -2.833228    1.2091396   558340 
 3387000    1.0031016   -2.8333545   -2.8333545   -1.6238898  0.057275239   -2.8333545    1.2094647   558340 
 3388000    1.0016868   -2.8339817   -2.8339817   -1.6262229  0.061327657   -2.8339817    1.2077589   558340 
 3389000     1.001554   -2.8331052   -2.8331052   -1.6255065  0.072700675   -2.8331052    1.2075987   558340 
 3390000    1.0028622   -2.8337495   -2.8337495   -1.6245735  0.057424493   -2.8337495     1.209176   558340 
 3391000    1.0030689   -2.8348508   -2.8348508   -1.6254255  0.065795984   -2.8348508    1.2094252   558340 
 3392000    1.0037033   -2.8346533   -2.8346533   -1.6244631  0.066685308   -2.8346533    1.2101902   558340 
 3393000    1.0027176   -2.8339242   -2.8339242   -1.6249225  0.074026333   -2.8339242    1.2090017   558340 
 3394000     1.004652   -2.8364612   -2.8364612   -1.6251272  0.055572167   -2.8364612    1.2113341   558340 
 3395000    1.0021467   -2.8340016   -2.8340016   -1.6256883  0.069936461   -2.8340016    1.2083133   558340 
 3396000    1.0032203   -2.8355868   -2.8355868    -1.625979  0.064641683   -2.8355868    1.2096078   558340 
 3397000    1.0046658   -2.8349168   -2.8349168   -1.6235662  0.063160768   -2.8349168    1.2113507   558340 
 3398000    1.0035787   -2.8345073   -2.8345073   -1.6244674  0.060416645   -2.8345073      1.21004   558340 
 3399000    1.0022777   -2.8330352   -2.8330352   -1.6245639  0.062262027   -2.8330352    1.2084713   558340 
 3400000     1.004926   -2.8351556   -2.8351556   -1.6234912  0.057695542   -2.8351556    1.2116644   558340 
 3401000    1.0038008   -2.8326795   -2.8326795   -1.6223718  0.066285696   -2.8326795    1.2103077   558340 
 3402000    1.0049663   -2.8339327   -2.8339327   -1.6222197  0.062727547   -2.8339327     1.211713   558340 
 3403000    1.0049165   -2.8334075   -2.8334075   -1.6217545  0.065616741   -2.8334075    1.2116529   558340 
 3404000    1.0039385   -2.8321794   -2.8321794   -1.6217056   0.05426129   -2.8321794    1.2104737   558340 
 3405000     1.004311   -2.8324683   -2.8324683   -1.6215454  0.059339715   -2.8324683    1.2109229   558340 
 3406000    1.0029788   -2.8308483   -2.8308483   -1.6215317  0.067616321   -2.8308483    1.2093166   558340 
 3407000    1.0029548   -2.8312409   -2.8312409   -1.6219532   0.05807477   -2.8312409    1.2092877   558340 
 3408000    1.0003739   -2.8295913   -2.8295913   -1.6234155  0.061960907   -2.8295913    1.2061758   558340 
 3409000    1.0005304   -2.8293889   -2.8293889   -1.6230244  0.068496635   -2.8293889    1.2063645   558340 
 3410000    1.0013849    -2.829786    -2.829786   -1.6223912  0.059798829    -2.829786    1.2073948   558340 
 3411000    1.0010644   -2.8298247   -2.8298247   -1.6228163  0.061268331   -2.8298247    1.2070084   558340 
 3412000    1.0001342   -2.8276485   -2.8276485   -1.6217618  0.058666039   -2.8276485    1.2058868   558340 
 3413000    1.0008045   -2.8291015   -2.8291015   -1.6224065  0.055333388   -2.8291015     1.206695   558340 
 3414000    1.0000116   -2.8277018   -2.8277018   -1.6219628  0.065041195   -2.8277018     1.205739   558340 
 3415000    1.0008248   -2.8292638   -2.8292638   -1.6225443  0.055636625   -2.8292638    1.2067195   558340 
 3416000    1.0009817    -2.829607    -2.829607   -1.6226983  0.058857877    -2.829607    1.2069087   558340 
 3417000    1.0018595   -2.8300302   -2.8300302   -1.6220632   0.06624923   -2.8300302    1.2079671   558340 
 3418000     1.001902   -2.8298547   -2.8298547   -1.6218365  0.077334374   -2.8298547    1.2080182   558340 
 3419000    1.0017824   -2.8290602   -2.8290602   -1.6211862  0.066277246   -2.8290602     1.207874   558340 
 3420000    1.0035248   -2.8309512   -2.8309512   -1.6209762  0.060762762   -2.8309512     1.209975   558340 
 3421000    1.0014614   -2.8290763   -2.8290763   -1.6215892  0.074197987   -2.8290763    1.2074871   558340 
 3422000    1.0032618   -2.8305216   -2.8305216   -1.6208637  0.073908773   -2.8305216    1.2096579   558340 
 3423000    1.0028273   -2.8303315   -2.8303315   -1.6211975  0.068788677   -2.8303315    1.2091339   558340 
 3424000    1.0034681   -2.8307477   -2.8307477   -1.6208412  0.069058453   -2.8307477    1.2099066   558340 
 3425000    1.0008923    -2.828008    -2.828008   -1.6212071  0.074359332    -2.828008    1.2068009   558340 
 3426000    1.0034165   -2.8309097   -2.8309097   -1.6210654  0.065566298   -2.8309097    1.2098443   558340 
 3427000    1.0035522   -2.8307986   -2.8307986   -1.6207906  0.065038131   -2.8307986     1.210008   558340 
 3428000    1.0016784   -2.8287869   -2.8287869   -1.6210383  0.066730123   -2.8287869    1.2077487   558340 
 3429000     1.002299   -2.8291659   -2.8291659   -1.6206689  0.066373616   -2.8291659    1.2084969   558340 
 3430000    1.0041588   -2.8307516   -2.8307516   -1.6200123   0.06354466   -2.8307516    1.2107393   558340 
 3431000      1.00321   -2.8292529   -2.8292529   -1.6196576   0.06972178   -2.8292529    1.2095953   558340 
 3432000    1.0045631   -2.8309852   -2.8309852   -1.6197583  0.074029448   -2.8309852    1.2112269   558340 
 3433000     1.003109   -2.8304694   -2.8304694   -1.6209958  0.075316542   -2.8304694    1.2094736   558340 
 3434000    1.0045011   -2.8311999   -2.8311999   -1.6200478  0.065604601   -2.8311999    1.2111521   558340 
 3435000    1.0032884   -2.8298739   -2.8298739    -1.620184  0.054629239   -2.8298739    1.2096899   558340 
 3436000    1.0024574   -2.8298334   -2.8298334   -1.6211454  0.068920961   -2.8298334     1.208688   558340 
 3437000    1.0029427   -2.8303844   -2.8303844   -1.6211113  0.061973536   -2.8303844    1.2092731   558340 
 3438000    1.0021711   -2.8290504   -2.8290504   -1.6207077  0.066561361   -2.8290504    1.2083427   558340 
 3439000    1.0020856   -2.8293174   -2.8293174   -1.6210777  0.062352698   -2.8293174    1.2082397   558340 
 3440000    1.0033326    -2.830292    -2.830292   -1.6205488  0.062094248    -2.830292    1.2097432   558340 
 3441000    1.0034737   -2.8308976   -2.8308976   -1.6209843  0.058009896   -2.8308976    1.2099133   558340 
 3442000    1.0012438   -2.8283749   -2.8283749   -1.6211503  0.059652437   -2.8283749    1.2072246   558340 
 3443000    1.0033515   -2.8302293   -2.8302293   -1.6204633  0.057292499   -2.8302293     1.209766   558340 
 3444000    1.0019062   -2.8285426   -2.8285426   -1.6205193  0.057786348   -2.8285426    1.2080233   558340 
 3445000    1.0006908   -2.8280207   -2.8280207   -1.6214627  0.066424498   -2.8280207     1.206558   558340 
 3446000    1.0024528    -2.830633    -2.830633   -1.6219506  0.059593094    -2.830633    1.2086824   558340 
 3447000    1.0028705   -2.8308631   -2.8308631   -1.6216771   0.06129607   -2.8308631     1.209186   558340 
 3448000    1.0024149    -2.829962    -2.829962   -1.6213253  0.067130117    -2.829962    1.2086367   558340 
 3449000    1.0022616    -2.829849    -2.829849   -1.6213972  0.068576451    -2.829849    1.2084518   558340 
 3450000    1.0038753   -2.8307029   -2.8307029   -1.6203053  0.066503775   -2.8307029    1.2103976   558340 
 3451000    1.0039845   -2.8307943   -2.8307943   -1.6202651  0.064318857   -2.8307943    1.2105292   558340 
 3452000     1.004766   -2.8317992   -2.8317992   -1.6203277  0.069923593   -2.8317992    1.2114715   558340 
 3453000    1.0038424    -2.830657    -2.830657   -1.6202992  0.071870507    -2.830657    1.2103579   558340 
 3454000     1.004479    -2.832018    -2.832018   -1.6208926  0.067740935    -2.832018    1.2111254   558340 
 3455000     1.004751   -2.8324437   -2.8324437   -1.6209903  0.070262991   -2.8324437    1.2114534   558340 
 3456000    1.0039739   -2.8319573   -2.8319573   -1.6214409  0.067540691   -2.8319573    1.2105165   558340 
 3457000    1.0035503    -2.831447    -2.831447   -1.6214413  0.074328892    -2.831447    1.2100057   558340 
 3458000    1.0022218   -2.8303804   -2.8303804   -1.6219766  0.069819106   -2.8303804    1.2084039   558340 
 3459000    1.0035977    -2.831525    -2.831525   -1.6214622  0.072874786    -2.831525    1.2100628   558340 
 3460000    1.0048108   -2.8324225   -2.8324225    -1.620897  0.056193591   -2.8324225    1.2115255   558340 
 3461000      1.00357   -2.8303533   -2.8303533   -1.6203239  0.057455912   -2.8303533    1.2100294   558340 
 3462000    1.0019371   -2.8286248   -2.8286248   -1.6205642  0.063647172   -2.8286248    1.2080606   558340 
 3463000    1.0023577   -2.8293207   -2.8293207    -1.620753   0.05830271   -2.8293207    1.2085677   558340 
 3464000    1.0032321    -2.830542    -2.830542     -1.62092  0.063701121    -2.830542     1.209622   558340 
 3465000     1.003907   -2.8314913   -2.8314913   -1.6210555  0.058745409   -2.8314913    1.2104357   558340 
 3466000    1.0036807   -2.8311633   -2.8311633   -1.6210004  0.069747222   -2.8311633    1.2101629   558340 
 3467000    1.0045691   -2.8325856   -2.8325856   -1.6213515  0.061299391   -2.8325856    1.2112341   558340 
 3468000    1.0026205   -2.8302049   -2.8302049   -1.6213203  0.069918401   -2.8302049    1.2088846   558340 
 3469000    1.0044679   -2.8325733   -2.8325733   -1.6214613  0.058553838   -2.8325733    1.2111121   558340 
 3470000    1.0026177   -2.8300123   -2.8300123   -1.6211311  0.055010487   -2.8300123    1.2088812   558340 
 3471000    1.0032279    -2.830505    -2.830505    -1.620888  0.060261287    -2.830505     1.209617   558340 
 3472000    1.0036336   -2.8306021   -2.8306021    -1.620496  0.066552452   -2.8306021    1.2101061   558340 
 3473000    1.0021625   -2.8289594   -2.8289594    -1.620627  0.061467998   -2.8289594    1.2083324   558340 
 3474000    1.0024974   -2.8290894   -2.8290894   -1.6203532  0.071258091   -2.8290894    1.2087362   558340 
 3475000    1.0039824   -2.8298976   -2.8298976   -1.6193709   0.06120654   -2.8298976    1.2105267   558340 
 3476000     1.002598   -2.8295385   -2.8295385    -1.620681  0.069950598   -2.8295385    1.2088575   558340 
 3477000    1.0029459   -2.8297692   -2.8297692   -1.6204923  0.068963705   -2.8297692    1.2092769   558340 
 3478000    1.0044762   -2.8306963   -2.8306963   -1.6195742  0.066306621   -2.8306963     1.211122   558340 
 3479000    1.0041237   -2.8294911   -2.8294911    -1.618794  0.065830782   -2.8294911    1.2106971   558340 
 3480000    1.0051631   -2.8300709   -2.8300709   -1.6181206  0.061477892   -2.8300709    1.2119503   558340 
 3481000    1.0044667   -2.8296299   -2.8296299   -1.6185193  0.066638258   -2.8296299    1.2111106   558340 
 3482000    1.0025008   -2.8284786   -2.8284786   -1.6197383  0.074197416   -2.8284786    1.2087403   558340 
 3483000    1.0041244   -2.8292444   -2.8292444   -1.6185464   0.05761974   -2.8292444    1.2106979   558340 
 3484000    1.0040455   -2.8286439   -2.8286439   -1.6180411  0.069670118   -2.8286439    1.2106027   558340 
 3485000    1.0037965   -2.8287439   -2.8287439   -1.6184414  0.067107058   -2.8287439    1.2103025   558340 
 3486000    1.0024816   -2.8268486   -2.8268486   -1.6181315  0.064148319   -2.8268486    1.2087171   558340 
 3487000    1.0014593   -2.8270797   -2.8270797   -1.6195953  0.071402631   -2.8270797    1.2074845   558340 
 3488000    1.0011584   -2.8269079   -2.8269079   -1.6197862  0.065655337   -2.8269079    1.2071217   558340 
 3489000    1.0008921   -2.8267232   -2.8267232   -1.6199226  0.064242338   -2.8267232    1.2068006   558340 
 3490000     1.001559   -2.8280663   -2.8280663   -1.6204616  0.057803781   -2.8280663    1.2076047   558340 
 3491000    1.0004773   -2.8266581   -2.8266581   -1.6203576  0.064313219   -2.8266581    1.2063005   558340 
 3492000     1.001515    -2.826379    -2.826379   -1.6188274  0.060139448    -2.826379    1.2075516   558340 
 3493000    1.0015957   -2.8261816   -2.8261816   -1.6185326  0.061162237   -2.8261816     1.207649   558340 
 3494000    1.0018154   -2.8272182   -2.8272182   -1.6193043  0.059449292   -2.8272182    1.2079139   558340 
 3495000    1.0028258   -2.8281281   -2.8281281    -1.618996  0.074857068   -2.8281281    1.2091321   558340 
 3496000    1.0039179    -2.829541    -2.829541    -1.619092  0.071830454    -2.829541    1.2104489   558340 
 3497000    1.0047103   -2.8297116   -2.8297116   -1.6183072  0.063936045   -2.8297116    1.2114043   558340 
 3498000    1.0038714   -2.8291669   -2.8291669   -1.6187741  0.073100189   -2.8291669    1.2103928   558340 
 3499000    1.0054357   -2.8305571   -2.8305571   -1.6182781  0.065787229   -2.8305571     1.212279   558340 
 3500000    1.0049847   -2.8304473   -2.8304473   -1.6187121  0.071027904   -2.8304473    1.2117352   558340 
 3501000    1.0042631   -2.8292434   -2.8292434   -1.6183783  0.071165747   -2.8292434    1.2108651   558340 
 3502000    1.0030139   -2.8273902   -2.8273902   -1.6180312  0.069798369   -2.8273902    1.2093589   558340 
 3503000    1.0026585   -2.8273369   -2.8273369   -1.6184064  0.060982402   -2.8273369    1.2089304   558340 
 3504000    1.0044735   -2.8289298   -2.8289298   -1.6178109  0.073548559   -2.8289298    1.2111189   558340 
 3505000    1.0023672    -2.826374    -2.826374   -1.6177949  0.074261224    -2.826374    1.2085791   558340 
 3506000    1.0028062   -2.8285508   -2.8285508   -1.6194422  0.068462373   -2.8285508    1.2091086   558340 
 3507000    1.0021235   -2.8285349   -2.8285349   -1.6202496  0.064936302   -2.8285349    1.2082854   558340 
 3508000    1.0023988   -2.8285939   -2.8285939   -1.6199765  0.065875294   -2.8285939    1.2086174   558340 
 3509000     1.001512   -2.8280331   -2.8280331    -1.620485  0.064135118   -2.8280331    1.2075481   558340 
 3510000     1.003756   -2.8305717   -2.8305717    -1.620318  0.069863885   -2.8305717    1.2102538   558340 
 3511000    1.0024219   -2.8299161   -2.8299161    -1.621271  0.064727821   -2.8299161    1.2086451   558340 
 3512000    1.0028583    -2.829925    -2.829925   -1.6207536  0.060373836    -2.829925    1.2091713   558340 
 3513000    1.0024655   -2.8302857   -2.8302857   -1.6215879  0.063410098   -2.8302857    1.2086977   558340 
 3514000    1.0039841   -2.8321016   -2.8321016   -1.6215729  0.063882792   -2.8321016    1.2105287   558340 
 3515000     1.002988   -2.8306889   -2.8306889   -1.6213612  0.066209036   -2.8306889    1.2093277   558340 
 3516000    1.0035714   -2.8307808   -2.8307808   -1.6207496  0.068789404   -2.8307808    1.2100311   558340 
 3517000    1.0043061   -2.8318486   -2.8318486   -1.6209316  0.075391619   -2.8318486     1.210917   558340 
 3518000    1.0038532   -2.8309981   -2.8309981   -1.6206272  0.069454353   -2.8309981    1.2103709   558340 
 3519000     1.003393   -2.8320261   -2.8320261     -1.62221  0.061985035   -2.8320261    1.2098161   558340 
 3520000    1.0021845    -2.830681    -2.830681   -1.6223221  0.064755992    -2.830681    1.2083589   558340 
 3521000    1.0029187   -2.8304871   -2.8304871   -1.6212429  0.061907465   -2.8304871    1.2092442   558340 
 3522000    1.0036572   -2.8321864   -2.8321864   -1.6220519  0.066711142   -2.8321864    1.2101345   558340 
 3523000     1.003056   -2.8321355   -2.8321355   -1.6227259  0.066240683   -2.8321355    1.2094097   558340 
 3524000     1.003604   -2.8331739   -2.8331739   -1.6231034  0.070198874   -2.8331739    1.2100705   558340 
 3525000    1.0038652   -2.8328844   -2.8328844    -1.622499  0.064201838   -2.8328844    1.2103854   558340 
 3526000    1.0032628   -2.8328436   -2.8328436   -1.6231846  0.074285743   -2.8328436     1.209659   558340 
 3527000    1.0028831   -2.8317849   -2.8317849   -1.6225836  0.067036588   -2.8317849    1.2092012   558340 
 3528000    1.0028557   -2.8315554   -2.8315554   -1.6223872  0.068473921   -2.8315554    1.2091682   558340 
 3529000    1.0035306   -2.8323634   -2.8323634   -1.6223815  0.066638237   -2.8323634    1.2099819   558340 
 3530000    1.0034682    -2.832273    -2.832273   -1.6223662  0.067635185    -2.832273    1.2099068   558340 
 3531000    1.0028832   -2.8311318   -2.8311318   -1.6219303  0.068736723   -2.8311318    1.2092014   558340 
 3532000    1.0037508   -2.8326256   -2.8326256   -1.6223782  0.065388511   -2.8326256    1.2102474   558340 
 3533000    1.0033534   -2.8319994   -2.8319994   -1.6222312  0.072906466   -2.8319994    1.2097683   558340 
 3534000    1.0044207   -2.8335784   -2.8335784   -1.6225232  0.072394597   -2.8335784    1.2110551   558340 
 3535000    1.0036611   -2.8323523   -2.8323523    -1.622213  0.069309996   -2.8323523    1.2101392   558340 
 3536000     1.004143   -2.8321582   -2.8321582   -1.6214379  0.061059102   -2.8321582    1.2107204   558340 
 3537000    1.0019934   -2.8306221   -2.8306221   -1.6224936  0.068210622   -2.8306221    1.2081285   558340 
 3538000    1.0006747   -2.8286388   -2.8286388   -1.6221004  0.063582442   -2.8286388    1.2065384   558340 
 3539000    1.0018978   -2.8303105   -2.8303105   -1.6222973  0.068530529   -2.8303105    1.2080132   558340 
 3540000    1.0024155   -2.8302381   -2.8302381   -1.6216006  0.060361755   -2.8302381    1.2086375   558340 
 3541000    1.0017681   -2.8299958   -2.8299958    -1.622139  0.056552762   -2.8299958    1.2078569   558340 
 3542000    1.0026692   -2.8302261   -2.8302261   -1.6212827  0.056355945   -2.8302261    1.2089434   558340 
 3543000    1.0024006    -2.830452    -2.830452   -1.6218326  0.067267532    -2.830452    1.2086194   558340 
 3544000    1.0015966   -2.8309077   -2.8309077   -1.6232577  0.055930997   -2.8309077    1.2076501   558340 
 3545000    1.0004461   -2.8294655   -2.8294655   -1.6232027  0.059440844   -2.8294655    1.2062629   558340 
 3546000   0.99983434   -2.8285858   -2.8285858   -1.6230606  0.057311702   -2.8285858    1.2055253   558340 
 3547000    1.0021803   -2.8309231   -2.8309231   -1.6225693  0.067840459   -2.8309231    1.2083538   558340 
 3548000    1.0008219   -2.8292929   -2.8292929   -1.6225769  0.063908456   -2.8292929     1.206716   558340 
 3549000    1.0028836   -2.8306258   -2.8306258    -1.621424  0.059200414   -2.8306258    1.2092018   558340 
 3550000    1.0030292   -2.8301317   -2.8301317   -1.6207542  0.063252964   -2.8301317    1.2093774   558340 
 3551000    1.0019823   -2.8284775   -2.8284775   -1.6203624  0.067977769   -2.8284775    1.2081151   558340 
 3552000    1.0030869   -2.8302137   -2.8302137   -1.6207667  0.061626486   -2.8302137     1.209447   558340 
 3553000    1.0014088   -2.8295162   -2.8295162   -1.6220926   0.06293166   -2.8295162    1.2074236   558340 
 3554000    1.0021577   -2.8311195   -2.8311195   -1.6227929  0.060353215   -2.8311195    1.2083266   558340 
 3555000    1.0023871   -2.8311303   -2.8311303   -1.6225272  0.072382353   -2.8311303    1.2086032   558340 
 3556000    1.0031623   -2.8314423   -2.8314423   -1.6219044  0.063674598   -2.8314423    1.2095379   558340 
 3557000    1.0017496   -2.8295111   -2.8295111   -1.6216765  0.068924516   -2.8295111    1.2078346   558340 
 3558000    1.0027915   -2.8313271   -2.8313271   -1.6222363  0.065976732   -2.8313271    1.2090908   558340 
 3559000     1.003243   -2.8324007   -2.8324007   -1.6227655  0.066344497   -2.8324007    1.2096352   558340 
 3560000    1.0046769   -2.8330552   -2.8330552   -1.6216912  0.067459868   -2.8330552     1.211364   558340 
 3561000    1.0063224   -2.8350612   -2.8350612   -1.6217131  0.063414215   -2.8350612     1.213348   558340 
 3562000    1.0036684    -2.832976    -2.832976   -1.6228279  0.071188388    -2.832976    1.2101481   558340 
 3563000    1.0044506   -2.8328329   -2.8328329   -1.6217417  0.069760357   -2.8328329    1.2110912   558340 
 3564000    1.0050717    -2.834387    -2.834387   -1.6225469  0.066303203    -2.834387    1.2118401   558340 
 3565000    1.0043198   -2.8331019   -2.8331019   -1.6221685  0.065356885   -2.8331019    1.2109334   558340 
 3566000    1.0056156   -2.8341316   -2.8341316   -1.6216357  0.067534171   -2.8341316    1.2124958   558340 
 3567000    1.0040033   -2.8324601   -2.8324601   -1.6219082  0.056629887   -2.8324601    1.2105519   558340 
 3568000    1.0036114   -2.8324848   -2.8324848   -1.6224055  0.062431967   -2.8324848    1.2100794   558340 
 3569000    1.0049148   -2.8336395   -2.8336395   -1.6219886  0.071279133   -2.8336395    1.2116509   558340 
 3570000    1.0032394   -2.8327187   -2.8327187   -1.6230879  0.062644482   -2.8327187    1.2096309   558340 
 3571000    1.0035996   -2.8326714   -2.8326714   -1.6226063  0.068524174   -2.8326714    1.2100651   558340 
 3572000    1.0050756   -2.8337322   -2.8337322   -1.6218875  0.064624994   -2.8337322    1.2118447   558340 
 3573000    1.0026873   -2.8300679   -2.8300679   -1.6211027  0.056380501   -2.8300679    1.2089651   558340 
 3574000    1.0045872   -2.8332602   -2.8332602   -1.6220043  0.062612396   -2.8332602    1.2112559   558340 
 3575000    1.0027942   -2.8303409   -2.8303409   -1.6212468    0.0698642   -2.8303409    1.2090941   558340 
 3576000    1.0037353   -2.8314424   -2.8314424   -1.6212137  0.065078201   -2.8314424    1.2102288   558340 
 3577000     1.004126   -2.8312479   -2.8312479   -1.6205481  0.057039419   -2.8312479    1.2106998   558340 
 3578000    1.0029133        -2.83        -2.83   -1.6207624  0.068152467        -2.83    1.2092376   558340 
 3579000    1.0051123    -2.832662    -2.832662    -1.620773  0.060272573    -2.832662     1.211889   558340 
 3580000    1.0032299   -2.8299956   -2.8299956   -1.6203762  0.074016241   -2.8299956    1.2096194   558340 
 3581000    1.0024561    -2.829817    -2.829817   -1.6211306  0.067955563    -2.829817    1.2086863   558340 
 3582000    1.0034697   -2.8296774   -2.8296774   -1.6197689  0.060826817   -2.8296774    1.2099085   558340 
 3583000    1.0017463   -2.8285766   -2.8285766    -1.620746   0.07028061   -2.8285766    1.2078305   558340 
 3584000     1.003292   -2.8302895   -2.8302895   -1.6205953  0.065049988   -2.8302895    1.2096942   558340 
 3585000    1.0020476   -2.8284658   -2.8284658   -1.6202719  0.062489289   -2.8284658    1.2081939   558340 
 3586000   0.99976671   -2.8256108   -2.8256108   -1.6201671  0.066822542   -2.8256108    1.2054437   558340 
 3587000    1.0007716   -2.8273046   -2.8273046   -1.6206493   0.06578583   -2.8273046    1.2066553   558340 
 3588000    1.0009982   -2.8279298   -2.8279298   -1.6210012  0.060850386   -2.8279298    1.2069286   558340 
 3589000    1.0018566   -2.8287549   -2.8287549   -1.6207914  0.058530414   -2.8287549    1.2079635   558340 
 3590000    1.0019087   -2.8294046   -2.8294046   -1.6213782  0.061953086   -2.8294046    1.2080264   558340 
 3591000     1.001097   -2.8289444   -2.8289444   -1.6218967  0.060371661   -2.8289444    1.2070477   558340 
 3592000   0.99976586   -2.8274017   -2.8274017    -1.621959  0.065812473   -2.8274017    1.2054427   558340 
 3593000    1.0022517   -2.8307122   -2.8307122   -1.6222722  0.062939872   -2.8307122    1.2084399   558340 
 3594000    1.0020761   -2.8309179   -2.8309179   -1.6226897  0.070745302   -2.8309179    1.2082282   558340 
 3595000   0.99992654   -2.8286458   -2.8286458   -1.6230093  0.055227992   -2.8286458    1.2056364   558340 
 3596000    1.0018016   -2.8306552   -2.8306552   -1.6227579  0.053764382   -2.8306552    1.2078972   558340 
 3597000    1.0005074   -2.8295702   -2.8295702   -1.6232334  0.060148043   -2.8295702    1.2063368   558340 
 3598000    1.0021982   -2.8301075   -2.8301075   -1.6217321  0.065650059   -2.8301075    1.2083754   558340 
 3599000    1.0024526   -2.8306412   -2.8306412    -1.621959  0.066419786   -2.8306412    1.2086822   558340 
 3600000    1.0008606   -2.8295402   -2.8295402   -1.6227775  0.059703081   -2.8295402    1.2067627   558340 
 3601000    1.0015726   -2.8309478   -2.8309478   -1.6233268  0.058852737   -2.8309478    1.2076211   558340 
 3602000    1.0033246   -2.8328145   -2.8328145    -1.623081  0.064751569   -2.8328145    1.2097336   558340 
 3603000    1.0028687   -2.8326744   -2.8326744   -1.6234904  0.065409806   -2.8326744    1.2091839   558340 
 3604000    1.0034059    -2.832679    -2.832679   -1.6228475  0.064623317    -2.832679    1.2098316   558340 
 3605000    1.0033681   -2.8326276   -2.8326276   -1.6228416  0.073308448   -2.8326276     1.209786   558340 
 3606000    1.0032763   -2.8316699   -2.8316699   -1.6219946   0.06985929   -2.8316699    1.2096753   558340 
 3607000    1.0043882   -2.8340905   -2.8340905   -1.6230745  0.067132069   -2.8340905     1.211016   558340 
 3608000    1.0050914   -2.8342614   -2.8342614   -1.6223976  0.064412115   -2.8342614    1.2118639   558340 
 3609000    1.0032038   -2.8316155   -2.8316155   -1.6220275  0.070365718   -2.8316155     1.209588   558340 
 3610000    1.0037352   -2.8328386   -2.8328386   -1.6226099  0.061415359   -2.8328386    1.2102287   558340 
 3611000    1.0025663   -2.8315717   -2.8315717   -1.6227524  0.069761501   -2.8315717    1.2088193   558340 
 3612000     1.000613   -2.8296018   -2.8296018   -1.6231376  0.069414073   -2.8296018    1.2064641   558340 
 3613000    1.0028186   -2.8312289   -2.8312289   -1.6221054   0.07097451   -2.8312289    1.2091235   558340 
 3614000    1.0012081   -2.8293877   -2.8293877    -1.622206  0.065932948   -2.8293877    1.2071817   558340 
 3615000     1.003376   -2.8321108   -2.8321108   -1.6223152  0.060693586   -2.8321108    1.2097956   558340 
 3616000     1.001957   -2.8301289   -2.8301289   -1.6220444  0.060213697   -2.8301289    1.2080846   558340 
 3617000    1.0012294   -2.8300068   -2.8300068   -1.6227994  0.066456949   -2.8300068    1.2072073   558340 
 3618000    1.0007443   -2.8297994   -2.8297994    -1.623177  0.061953522   -2.8297994    1.2066224   558340 
 3619000    1.0012548    -2.828807    -2.828807   -1.6215692  0.058145964    -2.828807    1.2072379   558340 
 3620000    1.0026571   -2.8297564   -2.8297564   -1.6208277  0.056771869   -2.8297564    1.2089287   558340 
 3621000    1.0020514   -2.8295109   -2.8295109   -1.6213125  0.060412668   -2.8295109    1.2081984   558340 
 3622000    1.0027636   -2.8290137   -2.8290137   -1.6199565  0.067654393   -2.8290137    1.2090572   558340 
 3623000    1.0031395   -2.8300747   -2.8300747   -1.6205643   0.06788539   -2.8300747    1.2095103   558340 
 3624000    1.0034333   -2.8301467   -2.8301467    -1.620282   0.06402495   -2.8301467    1.2098647   558340 
 3625000    1.0037444   -2.8298826   -2.8298826   -1.6196429  0.069758216   -2.8298826    1.2102397   558340 
 3626000     1.002778    -2.828458    -2.828458   -1.6193835  0.058523902    -2.828458    1.2090745   558340 
 3627000    1.0035019   -2.8296869   -2.8296869   -1.6197396  0.065796106   -2.8296869    1.2099473   558340 
 3628000    1.0032053   -2.8289554   -2.8289554   -1.6193656   0.06227189   -2.8289554    1.2095897   558340 
 3629000    1.0021545     -2.82884     -2.82884   -1.6205172  0.063233152     -2.82884    1.2083228   558340 
 3630000    1.0013568   -2.8279903   -2.8279903   -1.6206294  0.066920829   -2.8279903     1.207361   558340 
 3631000    1.0010923   -2.8280636   -2.8280636   -1.6210216  0.060582644   -2.8280636     1.207042   558340 
 3632000    1.0008888    -2.827289    -2.827289   -1.6204923  0.071070758    -2.827289    1.2067967   558340 
 3633000   0.99992993   -2.8262751   -2.8262751   -1.6206346  0.073603238   -2.8262751    1.2056405   558340 
 3634000    1.0014744   -2.8277519   -2.8277519   -1.6202491  0.055056578   -2.8277519    1.2075028   558340 
 3635000     1.002128    -2.828599    -2.828599   -1.6203083  0.054449293    -2.828599    1.2082908   558340 
 3636000    1.0010685    -2.827541    -2.827541   -1.6205277  0.074605525    -2.827541    1.2070133   558340 
 3637000    1.0012131   -2.8275151   -2.8275151   -1.6203274  0.060916904   -2.8275151    1.2071877   558340 
 3638000    1.0015844   -2.8274517   -2.8274517   -1.6198163  0.065367916   -2.8274517    1.2076354   558340 
 3639000    1.0021209   -2.8292377   -2.8292377   -1.6209555  0.055725182   -2.8292377    1.2082822   558340 
 3640000    1.0023351   -2.8290235   -2.8290235    -1.620483  0.069322812   -2.8290235    1.2085405   558340 
 3641000    1.0017863   -2.8278342   -2.8278342   -1.6199554  0.068018918   -2.8278342    1.2078788   558340 
 3642000    1.0036323   -2.8299543   -2.8299543   -1.6198497  0.061386816   -2.8299543    1.2101045   558340 
 3643000    1.0025542    -2.829127    -2.829127   -1.6203224  0.059997246    -2.829127    1.2088046   558340 
 3644000    1.0023164    -2.828335    -2.828335    -1.619817  0.062357226    -2.828335     1.208518   558340 
 3645000    1.0012544   -2.8274576   -2.8274576   -1.6202201   0.06015148   -2.8274576    1.2072375   558340 
 3646000    1.0028302   -2.8287539   -2.8287539   -1.6196165  0.056167308   -2.8287539    1.2091374   558340 
 3647000    1.0027668   -2.8280597   -2.8280597   -1.6189987  0.075298016   -2.8280597     1.209061   558340 
 3648000    1.0027921   -2.8282607   -2.8282607   -1.6191693   0.06254277   -2.8282607    1.2090915   558340 
 3649000    1.0026192   -2.8286582   -2.8286582   -1.6197751   0.06500413   -2.8286582    1.2088831   558340 
 3650000    1.0027603   -2.8288278   -2.8288278   -1.6197747  0.067009825   -2.8288278    1.2090531   558340 
 3651000    1.0023751   -2.8288409   -2.8288409   -1.6202522   0.07362648   -2.8288409    1.2085887   558340 
 3652000    1.0036444   -2.8299318   -2.8299318   -1.6198126   0.06718627   -2.8299318    1.2101192   558340 
 3653000    1.0022263   -2.8293868   -2.8293868   -1.6209775  0.071136016   -2.8293868    1.2084093   558340 
 3654000    1.0012973   -2.8288931   -2.8288931    -1.621604  0.060629982   -2.8288931    1.2072891   558340 
 3655000    1.0035778   -2.8302414   -2.8302414   -1.6202025   0.05769042   -2.8302414    1.2100389   558340 
 3656000    1.0042109   -2.8309811   -2.8309811    -1.620179  0.074998776   -2.8309811    1.2108022   558340 
 3657000    1.0024202   -2.8288174   -2.8288174   -1.6201743  0.065433297   -2.8288174    1.2086431   558340 
 3658000    1.0026129   -2.8294391   -2.8294391   -1.6205637   0.06873561   -2.8294391    1.2088755   558340 
 3659000    1.0038989   -2.8303751   -2.8303751    -1.619949  0.055620262   -2.8303751     1.210426   558340 
 3660000    1.0024667   -2.8298229   -2.8298229   -1.6211237  0.066724162   -2.8298229    1.2086992   558340 
 3661000    1.0031683   -2.8307423   -2.8307423   -1.6211971   0.07464116   -2.8307423    1.2095451   558340 
 3662000    1.0017407   -2.8294182   -2.8294182   -1.6215944  0.059006363   -2.8294182    1.2078238   558340 
 3663000    1.0024924   -2.8299765   -2.8299765   -1.6212464  0.078762831   -2.8299765    1.2087301   558340 
 3664000    1.0029016   -2.8311353   -2.8311353   -1.6219118  0.056822868   -2.8311353    1.2092235   558340 
 3665000    1.0024266   -2.8317721   -2.8317721   -1.6231213  0.056590675   -2.8317721    1.2086508   558340 
 3666000    1.0021366   -2.8312574   -2.8312574   -1.6229563  0.061924954   -2.8312574    1.2083011   558340 
 3667000    1.0022274   -2.8306507   -2.8306507   -1.6222401  0.061787746   -2.8306507    1.2084106   558340 
 3668000    1.0028555   -2.8302661   -2.8302661   -1.6210981  0.070227618   -2.8302661     1.209168   558340 
 3669000    1.0028625   -2.8298204   -2.8298204   -1.6206441  0.075821345   -2.8298204    1.2091763   558340 
 3670000     1.002702   -2.8311197   -2.8311197   -1.6221368  0.069682633   -2.8311197    1.2089829   558340 
 3671000    1.0043298   -2.8323585   -2.8323585    -1.621413  0.064514025   -2.8323585    1.2109456   558340 
 3672000    1.0041755   -2.8309128   -2.8309128   -1.6201533   0.07337362   -2.8309128    1.2107595   558340 
 3673000    1.0058994   -2.8321019   -2.8321019   -1.6192639  0.071754054   -2.8321019     1.212838   558340 
 3674000    1.0046627   -2.8321146   -2.8321146   -1.6207677  0.068507647   -2.8321146    1.2113469   558340 
 3675000    1.0047043    -2.831455    -2.831455   -1.6200579  0.055236319    -2.831455    1.2113971   558340 
 3676000    1.0034655   -2.8297344   -2.8297344   -1.6198309  0.069312698   -2.8297344    1.2099034   558340 
 3677000    1.0043631   -2.8306837   -2.8306837   -1.6196981  0.066900749   -2.8306837    1.2109856   558340 
 3678000    1.0040723   -2.8297287   -2.8297287   -1.6190936  0.067941452   -2.8297287    1.2106351   558340 
 3679000    1.0031887   -2.8295337   -2.8295337   -1.6199641  0.067616372   -2.8295337    1.2095696   558340 
 3680000     1.001725   -2.8286321   -2.8286321   -1.6208272  0.067100457   -2.8286321    1.2078049   558340 
 3681000    1.0000276   -2.8264909   -2.8264909   -1.6207326  0.074516559   -2.8264909    1.2057582   558340 
 3682000   0.99997261   -2.8259966   -2.8259966   -1.6203046  0.072566136   -2.8259966     1.205692   558340 
 3683000    1.0011675     -2.82767     -2.82767   -1.6205373  0.066008859     -2.82767    1.2071327   558340 
 3684000    1.0005901   -2.8269243   -2.8269243   -1.6204878  0.064126286   -2.8269243    1.2064365   558340 
 3685000    1.0030023   -2.8301226   -2.8301226   -1.6207776  0.057128072   -2.8301226     1.209345   558340 
 3686000    1.0011611   -2.8267503   -2.8267503   -1.6196254  0.069163666   -2.8267503    1.2071249   558340 
 3687000    1.0026883   -2.8296798   -2.8296798   -1.6207133  0.056069445   -2.8296798    1.2089664   558340 
 3688000    1.0009718   -2.8270882   -2.8270882   -1.6201915   0.06174265   -2.8270882    1.2068967   558340 
 3689000    1.0027496   -2.8292555   -2.8292555   -1.6202153  0.060245258   -2.8292555    1.2090402   558340 
 3690000    1.0003193   -2.8262226   -2.8262226   -1.6201126  0.067273382   -2.8262226      1.20611   558340 
 3691000     1.003149   -2.8293644   -2.8293644   -1.6198425  0.061916311   -2.8293644    1.2095219   558340 
 3692000    1.0032213   -2.8287093   -2.8287093   -1.6191002   0.07282098   -2.8287093    1.2096091   558340 
 3693000    1.0027062    -2.828394    -2.828394    -1.619406  0.062672686    -2.828394     1.208988   558340 
 3694000    1.0028043    -2.827642    -2.827642   -1.6185357  0.067414359    -2.827642    1.2091063   558340 
 3695000    1.0035009    -2.828443    -2.828443   -1.6184969  0.067641784    -2.828443    1.2099462   558340 
 3696000    1.0042672   -2.8302647   -2.8302647   -1.6193947  0.064081607   -2.8302647    1.2108701   558340 
 3697000    1.0036763   -2.8285828   -2.8285828   -1.6184252  0.071620155   -2.8285828    1.2101577   558340 
 3698000    1.0036552   -2.8293941   -2.8293941   -1.6192619  0.065514094   -2.8293941    1.2101321   558340 
 3699000    1.0035441   -2.8293555   -2.8293555   -1.6193574   0.06410344   -2.8293555    1.2099982   558340 
 3700000    1.0034363   -2.8295467   -2.8295467   -1.6196785  0.061694477   -2.8295467    1.2098682   558340 
 3701000    1.0028926   -2.8282721   -2.8282721   -1.6190594  0.072136419   -2.8282721    1.2092127   558340 
 3702000    1.0029944   -2.8283303   -2.8283303   -1.6189949  0.061098963   -2.8283303    1.2093354   558340 
 3703000    1.0040917   -2.8307142   -2.8307142   -1.6200557  0.061306213   -2.8307142    1.2106585   558340 
 3704000    1.0040332    -2.830196    -2.830196    -1.619608  0.072533262    -2.830196     1.210588   558340 
 3705000     1.003679   -2.8303114   -2.8303114   -1.6201504  0.071281518   -2.8303114    1.2101609   558340 
 3706000    1.0025647   -2.8294387   -2.8294387   -1.6206214   0.07173661   -2.8294387    1.2088173   558340 
 3707000     1.002213   -2.8298815   -2.8298815   -1.6214882  0.059581379   -2.8298815    1.2083933   558340 
 3708000    1.0026831   -2.8300047   -2.8300047   -1.6210446  0.068378963   -2.8300047    1.2089601   558340 
 3709000    1.0026606   -2.8294062   -2.8294062   -1.6204732  0.067891633   -2.8294062     1.208933   558340 
 3710000    1.0021429   -2.8296611   -2.8296611   -1.6213523  0.063574004   -2.8296611    1.2083088   558340 
 3711000    1.0035854   -2.8305027   -2.8305027   -1.6204546  0.068635456   -2.8305027     1.210048   558340 
 3712000    1.0033395   -2.8312556   -2.8312556    -1.621504  0.072342688   -2.8312556    1.2097516   558340 
 3713000    1.0046746   -2.8324582   -2.8324582    -1.621097  0.063576499   -2.8324582    1.2113612   558340 
 3714000    1.0038788   -2.8311921   -2.8311921   -1.6207903  0.065964191   -2.8311921    1.2104018   558340 
 3715000     1.004553   -2.8319595   -2.8319595   -1.6207448  0.076421236   -2.8319595    1.2112147   558340 
 3716000    1.0043898   -2.8319407   -2.8319407   -1.6209228  0.062828486   -2.8319407    1.2110179   558340 
 3717000    1.0031411   -2.8295168   -2.8295168   -1.6200045  0.072123773   -2.8295168    1.2095123   558340 
 3718000    1.0041362   -2.8314889   -2.8314889   -1.6207768  0.065432754   -2.8314889    1.2107121   558340 
 3719000    1.0036865   -2.8307258   -2.8307258   -1.6205558  0.064699007   -2.8307258    1.2101699   558340 
 3720000    1.0039575   -2.8310674   -2.8310674   -1.6205707  0.065091287   -2.8310674    1.2104966   558340 
 3721000    1.0024863   -2.8299132   -2.8299132   -1.6211904  0.066334397   -2.8299132    1.2087228   558340 
 3722000    1.0025233   -2.8300491   -2.8300491   -1.6212818  0.063901115   -2.8300491    1.2087674   558340 
 3723000    1.0025087   -2.8305614   -2.8305614   -1.6218116  0.062158969   -2.8305614    1.2087498   558340 
 3724000    1.0025224   -2.8305035   -2.8305035   -1.6217372   0.06081016   -2.8305035    1.2087663   558340 
 3725000    1.0025003   -2.8304837   -2.8304837   -1.6217441  0.063806341   -2.8304837    1.2087397   558340 
 3726000    1.0007882   -2.8282737   -2.8282737   -1.6215984   0.06201171   -2.8282737    1.2066753   558340 
 3727000    1.0045884   -2.8307051   -2.8307051   -1.6194477  0.056838224   -2.8307051    1.2112574   558340 
 3728000    1.0022639   -2.8290155   -2.8290155   -1.6205608  0.061636811   -2.8290155    1.2084547   558340 
 3729000    1.0015196   -2.8274764   -2.8274764   -1.6199191  0.069382006   -2.8274764    1.2075573   558340 
 3730000    1.0038102   -2.8291542   -2.8291542   -1.6188351  0.058805684   -2.8291542    1.2103191   558340 
 3731000    1.0035686   -2.8289249   -2.8289249   -1.6188971  0.063899802   -2.8289249    1.2100278   558340 
 3732000    1.0020179   -2.8275901   -2.8275901    -1.619432  0.060976432   -2.8275901     1.208158   558340 
 3733000    1.0017922   -2.8272813   -2.8272813   -1.6193953  0.062739041   -2.8272813     1.207886   558340 
 3734000    1.0030406   -2.8288137   -2.8288137   -1.6194225  0.058193215   -2.8288137    1.2093912   558340 
 3735000    1.0012496   -2.8267362   -2.8267362   -1.6195045  0.066424313   -2.8267362    1.2072317   558340 
 3736000    1.0026334   -2.8280029   -2.8280029   -1.6191027  0.060987702   -2.8280029    1.2089002   558340 
 3737000    1.0020456   -2.8270392   -2.8270392   -1.6188478   0.06830309   -2.8270392    1.2081914   558340 
 3738000    1.0012062   -2.8267949   -2.8267949   -1.6196156  0.063440839   -2.8267949    1.2071794   558340 
 3739000    1.0002498   -2.8266537   -2.8266537   -1.6206276  0.064155303   -2.8266537    1.2060261   558340 
 3740000    1.0015518   -2.8278533   -2.8278533   -1.6202573  0.056257182   -2.8278533     1.207596   558340 
 3741000    1.0013634   -2.8273569   -2.8273569    -1.619988  0.056912699   -2.8273569    1.2073689   558340 
 3742000    1.0008952   -2.8269403   -2.8269403    -1.620136  0.064862473   -2.8269403    1.2068043   558340 
 3743000    1.0019522   -2.8282404   -2.8282404   -1.6201616  0.071787777   -2.8282404    1.2080788   558340 
 3744000    1.0016862   -2.8277343   -2.8277343   -1.6199762  0.062086424   -2.8277343    1.2077582   558340 
 3745000    1.0008469   -2.8284256   -2.8284256   -1.6216794  0.067143767   -2.8284256    1.2067462   558340 
 3746000    1.0003027   -2.8270708   -2.8270708   -1.6209809  0.061068126   -2.8270708      1.20609   558340 
 3747000    1.0025471   -2.8294998   -2.8294998   -1.6207037  0.070364086   -2.8294998    1.2087961   558340 
 3748000    1.0019365   -2.8291232   -2.8291232   -1.6210633  0.063331224   -2.8291232    1.2080599   558340 
 3749000    1.0015296   -2.8291534   -2.8291534   -1.6215842  0.071188368   -2.8291534    1.2075692   558340 
 3750000    1.0018152   -2.8300064   -2.8300064   -1.6220928  0.063758212   -2.8300064    1.2079136   558340 
 3751000    1.0026462   -2.8307527   -2.8307527    -1.621837  0.062486997   -2.8307527    1.2089156   558340 
 3752000    1.0030054   -2.8298918   -2.8298918   -1.6205431  0.060472363   -2.8298918    1.2093487   558340 
 3753000    1.0039108   -2.8318705   -2.8318705   -1.6214301  0.064516563   -2.8318705    1.2104404   558340 
 3754000    1.0023547   -2.8314332   -2.8314332   -1.6228691  0.069022695   -2.8314332    1.2085641   558340 
 3755000    1.0045452   -2.8343346   -2.8343346   -1.6231293  0.061564259   -2.8343346    1.2112053   558340 
 3756000    1.0028341   -2.8319538   -2.8319538   -1.6228116   0.06634056   -2.8319538    1.2091421   558340 
 3757000     1.002767   -2.8322125   -2.8322125   -1.6231513  0.075877447   -2.8322125    1.2090612   558340 
 3758000    1.0028092   -2.8326532   -2.8326532   -1.6235411  0.067645641   -2.8326532    1.2091122   558340 
 3759000    1.0032641   -2.8327071   -2.8327071   -1.6230465   0.06910673   -2.8327071    1.2096606   558340 
 3760000    1.0044517   -2.8342275   -2.8342275    -1.623135  0.067625236   -2.8342275    1.2110925   558340 
 3761000    1.0042831   -2.8341349   -2.8341349   -1.6232457  0.064677199   -2.8341349    1.2108892   558340 
 3762000    1.0044137   -2.8337225   -2.8337225   -1.6226758  0.068195061   -2.8337225    1.2110467   558340 
 3763000    1.0051139   -2.8346246   -2.8346246   -1.6227336  0.074178052   -2.8346246     1.211891   558340 
 3764000    1.0051144    -2.835784    -2.835784   -1.6238924  0.062748257    -2.835784    1.2118916   558340 
 3765000    1.0047265   -2.8356048   -2.8356048    -1.624181  0.067976601   -2.8356048    1.2114238   558340 
 3766000     1.004826   -2.8341887   -2.8341887   -1.6226448  0.072113577   -2.8341887    1.2115439   558340 
 3767000    1.0058368   -2.8357991   -2.8357991   -1.6230365  0.070063187   -2.8357991    1.2127626   558340 
 3768000    1.0036571   -2.8333598   -2.8333598   -1.6232253  0.076021879   -2.8333598    1.2101344   558340 
 3769000    1.0043408   -2.8334214   -2.8334214   -1.6224626  0.066121499   -2.8334214    1.2109588   558340 
 3770000    1.0041598   -2.8337478   -2.8337478   -1.6230072  0.072801375   -2.8337478    1.2107405   558340 
 3771000    1.0044239   -2.8344363   -2.8344363   -1.6233773  0.064855093   -2.8344363     1.211059   558340 
 3772000    1.0032162   -2.8330814   -2.8330814   -1.6234785  0.072008567   -2.8330814    1.2096028   558340 
 3773000    1.0042901   -2.8337273   -2.8337273   -1.6228295  0.071374077   -2.8337273    1.2108977   558340 
 3774000     1.004571   -2.8338943   -2.8338943    -1.622658  0.067934295   -2.8338943    1.2112363   558340 
 3775000     1.006388    -2.835255    -2.835255   -1.6218278  0.070244293    -2.835255    1.2134272   558340 
 3776000     1.004723   -2.8336107   -2.8336107    -1.622191  0.063248858   -2.8336107    1.2114197   558340 
 3777000    1.0042023   -2.8334378   -2.8334378   -1.6226459  0.074631502   -2.8334378    1.2107918   558340 
 3778000    1.0046614   -2.8328808   -2.8328808   -1.6215355  0.072369696   -2.8328808    1.2113453   558340 
 3779000    1.0050402   -2.8328983   -2.8328983   -1.6210962  0.064143529   -2.8328983    1.2118022   558340 
 3780000    1.0041379   -2.8319399   -2.8319399   -1.6212257  0.064958152   -2.8319399    1.2107142   558340 
 3781000    1.0033499     -2.83047     -2.83047   -1.6207059  0.074310407     -2.83047    1.2097641   558340 
 3782000    1.0031431   -2.8305073   -2.8305073   -1.6209926  0.062335133   -2.8305073    1.2095147   558340 
 3783000    1.0029789   -2.8294988   -2.8294988    -1.620182  0.060912989   -2.8294988    1.2093168   558340 
 3784000    1.0029428   -2.8297105   -2.8297105   -1.6204373   0.06667342   -2.8297105    1.2092732   558340 
 3785000    1.0026759   -2.8282773   -2.8282773   -1.6193258  0.063542603   -2.8282773    1.2089514   558340 
 3786000    1.0019848   -2.8276918   -2.8276918   -1.6195737  0.073651112   -2.8276918    1.2081181   558340 
 3787000    1.0027986   -2.8292082   -2.8292082   -1.6201089  0.065888427   -2.8292082    1.2090994   558340 
 3788000    1.0031548   -2.8294906   -2.8294906   -1.6199618  0.061774025   -2.8294906    1.2095288   558340 
 3789000    1.0020253   -2.8292298   -2.8292298   -1.6210629  0.053863016   -2.8292298    1.2081669   558340 
 3790000    1.0022733   -2.8283608   -2.8283608   -1.6198949  0.064889014   -2.8283608    1.2084659   558340 
 3791000    1.0018203   -2.8285794   -2.8285794   -1.6206596  0.064384121   -2.8285794    1.2079197   558340 
 3792000    1.0016033   -2.8274075   -2.8274075   -1.6197494  0.060323463   -2.8274075    1.2076582   558340 
 3793000    1.0027954   -2.8289339   -2.8289339   -1.6198384  0.064020715   -2.8289339    1.2090954   558340 
 3794000    1.0020515    -2.828203    -2.828203   -1.6200045  0.067479796    -2.828203    1.2081986   558340 
 3795000    1.0021038   -2.8288403   -2.8288403   -1.6205788  0.070991955   -2.8288403    1.2082616   558340 
 3796000    1.0026974   -2.8294009   -2.8294009   -1.6204236  0.066968531   -2.8294009    1.2089773   558340 
 3797000    1.0006766   -2.8272995   -2.8272995   -1.6207587   0.07218518   -2.8272995    1.2065408   558340 
 3798000     1.003021   -2.8306897   -2.8306897   -1.6213222  0.061630259   -2.8306897    1.2093675   558340 
 3799000    1.0008716   -2.8279738   -2.8279738   -1.6211979   0.06379949   -2.8279738    1.2067759   558340 
 3800000    1.0014284   -2.8274878   -2.8274878   -1.6200405  0.067744928   -2.8274878    1.2074473   558340 
 3801000    1.0028079   -2.8282653   -2.8282653   -1.6191547  0.068482341   -2.8282653    1.2091106   558340 
 3802000    1.0041187   -2.8303858   -2.8303858   -1.6196948  0.067435473   -2.8303858     1.210691   558340 
 3803000    1.0041302   -2.8303618   -2.8303618   -1.6196569  0.063816657   -2.8303618    1.2107049   558340 
 3804000    1.0037142   -2.8291745   -2.8291745   -1.6189712  0.061978031   -2.8291745    1.2102033   558340 
 3805000    1.0043217   -2.8302609   -2.8302609   -1.6193251  0.062797411   -2.8302609    1.2109358   558340 
 3806000     1.002632   -2.8284943   -2.8284943   -1.6195959  0.058018368   -2.8284943    1.2088984   558340 
 3807000    1.0044777   -2.8316777   -2.8316777   -1.6205538  0.071750362   -2.8316777    1.2111239   558340 
 3808000    1.0039682   -2.8309413   -2.8309413   -1.6204318   0.05344538   -2.8309413    1.2105095   558340 
 3809000    1.0024705   -2.8291085   -2.8291085   -1.6204047  0.068906165   -2.8291085    1.2087037   558340 
 3810000    1.0048793   -2.8321642   -2.8321642    -1.620556  0.068471754   -2.8321642    1.2116081   558340 
 3811000      1.00329   -2.8308295   -2.8308295   -1.6211377  0.072399827   -2.8308295    1.2096919   558340 
 3812000    1.0021638    -2.829393    -2.829393    -1.621059   0.06251871    -2.829393     1.208334   558340 
 3813000    1.0035934   -2.8312267   -2.8312267    -1.621169  0.060258814   -2.8312267    1.2100576   558340 
 3814000    1.0020146   -2.8295466   -2.8295466   -1.6213925  0.073525899   -2.8295466    1.2081541   558340 
 3815000     1.001286   -2.8287884   -2.8287884   -1.6215127  0.061767898   -2.8287884    1.2072756   558340 
 3816000    1.0015028   -2.8290859   -2.8290859   -1.6215489  0.065177677   -2.8290859     1.207537   558340 
 3817000    1.0020946   -2.8299761   -2.8299761   -1.6217256  0.060381667   -2.8299761    1.2082505   558340 
 3818000    1.0014522   -2.8298095   -2.8298095   -1.6223335  0.052643552   -2.8298095     1.207476   558340 
 3819000    1.0011713   -2.8304252   -2.8304252    -1.623288  0.056105604   -2.8304252    1.2071373   558340 
 3820000    1.0014092   -2.8289141   -2.8289141   -1.6214899   0.06742167   -2.8289141    1.2074241   558340 
 3821000    1.0016776    -2.828741    -2.828741   -1.6209933   0.05458542    -2.828741    1.2077477   558340 
 3822000    1.0027476   -2.8307524   -2.8307524   -1.6217146   0.06587177   -2.8307524    1.2090378   558340 
 3823000    1.0016652    -2.829662    -2.829662   -1.6219293  0.058849708    -2.829662    1.2077327   558340 
 3824000    1.0026842   -2.8298154   -2.8298154   -1.6208539  0.068646978   -2.8298154    1.2089615   558340 
 3825000     1.002754   -2.8294515   -2.8294515   -1.6204058  0.057422916   -2.8294515    1.2090456   558340 
 3826000    1.0034802   -2.8294712   -2.8294712     -1.61955  0.072705886   -2.8294712    1.2099212   558340 
 3827000    1.0032694    -2.830031    -2.830031    -1.620364  0.074384972    -2.830031     1.209667   558340 
 3828000    1.0036459   -2.8295467   -2.8295467   -1.6194257  0.070727395   -2.8295467     1.210121   558340 
 3829000    1.0037101   -2.8295278   -2.8295278   -1.6193295  0.064114987   -2.8295278    1.2101983   558340 
 3830000    1.0041415   -2.8307836   -2.8307836    -1.620065  0.066555258   -2.8307836    1.2107185   558340 
 3831000    1.0029511   -2.8296142   -2.8296142    -1.620331  0.062790344   -2.8296142    1.2092832   558340 
 3832000    1.0015002   -2.8283174   -2.8283174   -1.6207835  0.070592707   -2.8283174    1.2075338   558340 
 3833000    1.0015533   -2.8282334   -2.8282334   -1.6206356  0.071464185   -2.8282334    1.2075979   558340 
 3834000    1.0029369   -2.8297505   -2.8297505   -1.6204844  0.067606343   -2.8297505     1.209266   558340 
 3835000    1.0023362   -2.8291919   -2.8291919   -1.6206501  0.072993494   -2.8291919    1.2085418   558340 
 3836000    1.0033256   -2.8294711   -2.8294711   -1.6197364  0.071952926   -2.8294711    1.2097347   558340 
 3837000    1.0023316   -2.8290533   -2.8290533   -1.6205171  0.058101385   -2.8290533    1.2085362   558340 
 3838000    1.0035827   -2.8307274   -2.8307274   -1.6206827  0.066621603   -2.8307274    1.2100447   558340 
 3839000    1.0014891   -2.8282056   -2.8282056   -1.6206852  0.063736135   -2.8282056    1.2075205   558340 
 3840000    1.0044186   -2.8308494   -2.8308494   -1.6197968  0.062113371   -2.8308494    1.2110526   558340 
 3841000    1.0034065   -2.8295178   -2.8295178   -1.6196855  0.058600164   -2.8295178    1.2098324   558340 
 3842000    1.0011421     -2.82821     -2.82821    -1.621108  0.065036097     -2.82821    1.2071021   558340 
 3843000    1.0016305   -2.8288608   -2.8288608   -1.6211699  0.065866825   -2.8288608    1.2076909   558340 
 3844000    1.0014843    -2.828951    -2.828951   -1.6214363  0.061909081    -2.828951    1.2075147   558340 
 3845000    1.0020261   -2.8298305   -2.8298305   -1.6216625  0.061097388   -2.8298305    1.2081679   558340 
 3846000    1.0005176    -2.829016    -2.829016    -1.622667  0.061721725    -2.829016    1.2063491   558340 
 3847000    1.0009593   -2.8292765   -2.8292765   -1.6223949  0.069055733   -2.8292765    1.2068816   558340 
 3848000    1.0000433   -2.8269792   -2.8269792   -1.6212019  0.070975787   -2.8269792    1.2057773   558340 
 3849000    1.0022783   -2.8288822   -2.8288822   -1.6204103   0.06457674   -2.8288822     1.208472   558340 
 3850000    1.0027499   -2.8293019   -2.8293019   -1.6202613  0.063588538   -2.8293019    1.2090406   558340 
 3851000    1.0014089   -2.8284568   -2.8284568    -1.621033   0.06484729   -2.8284568    1.2074238   558340 
 3852000    1.0013257   -2.8283447   -2.8283447   -1.6210212  0.054385702   -2.8283447    1.2073234   558340 
 3853000    1.0024926   -2.8294946   -2.8294946   -1.6207642  0.052479657   -2.8294946    1.2087304   558340 
 3854000    1.0024725   -2.8295151   -2.8295151   -1.6208089  0.062896786   -2.8295151    1.2087062   558340 
 3855000    1.0029451   -2.8302487   -2.8302487   -1.6209727   0.06269681   -2.8302487     1.209276   558340 
 3856000     1.002966   -2.8300383   -2.8300383   -1.6207371  0.059934351   -2.8300383    1.2093011   558340 
 3857000     1.003961   -2.8296918   -2.8296918    -1.619191  0.065064436   -2.8296918    1.2105008   558340 
 3858000    1.0037245   -2.8295639   -2.8295639   -1.6193481  0.075547815   -2.8295639    1.2102158   558340 
 3859000    1.0025328   -2.8281253   -2.8281253   -1.6193464  0.068669324   -2.8281253    1.2087789   558340 
 3860000    1.0021158   -2.8275496   -2.8275496   -1.6192735  0.063836078   -2.8275496    1.2082761   558340 
 3861000    1.0050711   -2.8310716   -2.8310716   -1.6192322  0.059278011   -2.8310716    1.2118394   558340 
 3862000    1.0049381   -2.8313537   -2.8313537   -1.6196748  0.065530323   -2.8313537    1.2116789   558340 
 3863000    1.0025946   -2.8286766   -2.8286766   -1.6198232  0.067467724   -2.8286766    1.2088534   558340 
 3864000    1.0045384    -2.831244    -2.831244   -1.6200469  0.061051374    -2.831244    1.2111971   558340 
 3865000    1.0028087   -2.8292268   -2.8292268   -1.6201152   0.06968246   -2.8292268    1.2091116   558340 
 3866000    1.0040617   -2.8304368   -2.8304368   -1.6198144  0.059277784   -2.8304368    1.2106223   558340 
 3867000    1.0029304    -2.828508    -2.828508   -1.6192497  0.069217186    -2.828508    1.2092583   558340 
 3868000     1.003688   -2.8302257   -2.8302257    -1.620054  0.071398931   -2.8302257    1.2101717   558340 
 3869000    1.0032967   -2.8292679   -2.8292679   -1.6195679  0.059763814   -2.8292679       1.2097   558340 
 3870000    1.0042002   -2.8308913   -2.8308913    -1.620102  0.062067669   -2.8308913    1.2107893   558340 
 3871000    1.0032967   -2.8300089   -2.8300089    -1.620309  0.064096076   -2.8300089    1.2096999   558340 
 3872000    1.0036914   -2.8303173   -2.8303173   -1.6201415  0.065873112   -2.8303173    1.2101758   558340 
 3873000    1.0040154   -2.8313525   -2.8313525    -1.620786  0.064090144   -2.8313525    1.2105665   558340 
 3874000    1.0031693   -2.8295437   -2.8295437   -1.6199974  0.060167017   -2.8295437    1.2095463   558340 
 3875000    1.0032311   -2.8294438   -2.8294438   -1.6198229  0.068772666   -2.8294438    1.2096208   558340 
 3876000     1.003185   -2.8297963   -2.8297963   -1.6202311  0.061184759   -2.8297963    1.2095652   558340 
 3877000    1.0036192   -2.8297519   -2.8297519   -1.6196632  0.067695089   -2.8297519    1.2100887   558340 
 3878000    1.0034677   -2.8295961   -2.8295961     -1.61969   0.06210703   -2.8295961    1.2099061   558340 
 3879000    1.0029092   -2.8286796   -2.8286796   -1.6194469  0.073317742   -2.8286796    1.2092327   558340 
 3880000    1.0020055   -2.8286943   -2.8286943   -1.6205512  0.067391576   -2.8286943    1.2081431   558340 
 3881000    1.0018105   -2.8275788   -2.8275788   -1.6196708  0.053365013   -2.8275788     1.207908   558340 
 3882000    1.0021279   -2.8282766   -2.8282766   -1.6199859  0.070269475   -2.8282766    1.2082907   558340 
 3883000    1.0033234   -2.8296327   -2.8296327   -1.6199006  0.054348874   -2.8296327    1.2097321   558340 
 3884000    1.0011212   -2.8280858   -2.8280858    -1.621009  0.065377424   -2.8280858    1.2070768   558340 
 3885000    1.0035342   -2.8294647   -2.8294647   -1.6194784  0.066417632   -2.8294647    1.2099862   558340 
 3886000    1.0020098   -2.8291493   -2.8291493   -1.6210011  0.054972138   -2.8291493    1.2081483   558340 
 3887000    1.0017781   -2.8293421   -2.8293421   -1.6214733  0.071450929   -2.8293421    1.2078689   558340 
 3888000    1.0028765    -2.829413    -2.829413   -1.6202198  0.052188482    -2.829413    1.2091933   558340 
 3889000    1.0016539   -2.8286661   -2.8286661   -1.6209469  0.066848063   -2.8286661    1.2077192   558340 
 3890000   0.99959101   -2.8268539   -2.8268539   -1.6216221  0.064347162   -2.8268539    1.2052319   558340 
 3891000     1.001156   -2.8282841   -2.8282841   -1.6211652  0.067360383   -2.8282841    1.2071188   558340 
 3892000   0.99982016   -2.8263385   -2.8263385   -1.6208303  0.066423966   -2.8263385    1.2055082   558340 
 3893000    1.0030604   -2.8301481   -2.8301481    -1.620733  0.062806007   -2.8301481     1.209415   558340 
 3894000    1.0020366   -2.8288171   -2.8288171   -1.6206365  0.074919204   -2.8288171    1.2081806   558340 
 3895000    1.0035836   -2.8313827   -2.8313827   -1.6213368  0.062674482   -2.8313827    1.2100458   558340 
 3896000    1.0031516   -2.8303024   -2.8303024   -1.6207774  0.063762331   -2.8303024     1.209525   558340 
 3897000    1.0038283   -2.8313769   -2.8313769    -1.621036  0.063927672   -2.8313769    1.2103408   558340 
 3898000    1.0040241   -2.8313084   -2.8313084   -1.6207314  0.057504937   -2.8313084     1.210577   558340 
 3899000    1.0029385    -2.831191    -2.831191   -1.6219229  0.073636296    -2.831191    1.2092681   558340 
 3900000    1.0031875   -2.8309631   -2.8309631   -1.6213948  0.070134611   -2.8309631    1.2095683   558340 
 3901000     1.002944   -2.8308151   -2.8308151   -1.6215404  0.061706903   -2.8308151    1.2092746   558340 
 3902000    1.0028994   -2.8312941   -2.8312941   -1.6220733  0.072311385   -2.8312941    1.2092209   558340 
 3903000    1.0024488   -2.8301174   -2.8301174   -1.6214398  0.070372856   -2.8301174    1.2086776   558340 
 3904000     1.002522   -2.8305349   -2.8305349    -1.621769  0.060399177   -2.8305349    1.2087659   558340 
 3905000    1.0031045    -2.830745    -2.830745   -1.6212768  0.062185551    -2.830745    1.2094682   558340 
 3906000    1.0025234   -2.8295921   -2.8295921   -1.6208246  0.070637449   -2.8295921    1.2087675   558340 
 3907000    1.0024428   -2.8291657   -2.8291657   -1.6204954  0.074114493   -2.8291657    1.2086703   558340 
 3908000    1.0036177    -2.831886    -2.831886    -1.621799  0.067841307    -2.831886     1.210087   558340 
 3909000     1.002116   -2.8296601   -2.8296601   -1.6213838  0.074776403   -2.8296601    1.2082763   558340 
 3910000    1.0023369   -2.8295656   -2.8295656   -1.6210229  0.068545362   -2.8295656    1.2085427   558340 
 3911000    1.0046616   -2.8323366   -2.8323366    -1.620991  0.072120328   -2.8323366    1.2113456   558340 
 3912000    1.0035823   -2.8305365   -2.8305365   -1.6204922  0.075148295   -2.8305365    1.2100443   558340 
 3913000     1.003984   -2.8314624   -2.8314624   -1.6209338   0.06479931   -2.8314624    1.2105286   558340 
 3914000    1.0052977   -2.8333309   -2.8333309   -1.6212184  0.073475896   -2.8333309    1.2121125   558340 
 3915000    1.0071569    -2.834466    -2.834466   -1.6201118  0.069600151    -2.834466    1.2143542   558340 
 3916000    1.0043279   -2.8307404   -2.8307404   -1.6197972  0.073969334   -2.8307404    1.2109433   558340 
 3917000    1.0035576   -2.8296483   -2.8296483   -1.6196338  0.068299968   -2.8296483    1.2100145   558340 
 3918000    1.0033844   -2.8294869   -2.8294869   -1.6196813   0.06148412   -2.8294869    1.2098056   558340 
 3919000     1.002478   -2.8286571   -2.8286571   -1.6199444  0.066651626   -2.8286571    1.2087127   558340 
 3920000    1.0018092   -2.8269628   -2.8269628   -1.6190563  0.061354691   -2.8269628    1.2079064   558340 
 3921000    1.0026908   -2.8277092   -2.8277092   -1.6187398  0.073182482   -2.8277092    1.2089694   558340 
 3922000    1.0028408   -2.8282515   -2.8282515   -1.6191012  0.063123694   -2.8282515    1.2091503   558340 
 3923000    1.0023699   -2.8275429   -2.8275429   -1.6189605  0.058633265   -2.8275429    1.2085825   558340 
 3924000    1.0008347   -2.8248973   -2.8248973   -1.6181659  0.068698254   -2.8248973    1.2067314   558340 
 3925000    1.0029949   -2.8280571   -2.8280571    -1.618721  0.067573421   -2.8280571     1.209336   558340 
 3926000    1.0038689   -2.8285722   -2.8285722   -1.6181824    0.0667247   -2.8285722    1.2103898   558340 
 3927000    1.0028468    -2.827943    -2.827943   -1.6187856   0.07353239    -2.827943    1.2091575   558340 
 3928000    1.0041799     -2.82859     -2.82859   -1.6178252  0.071220191     -2.82859    1.2107648   558340 
 3929000    1.0030468   -2.8270696   -2.8270696   -1.6176711  0.063244882   -2.8270696    1.2093986   558340 
 3930000    1.0022445   -2.8253272   -2.8253272   -1.6168959  0.062959913   -2.8253272    1.2084313   558340 
 3931000    1.0033578    -2.827396    -2.827396   -1.6176224  0.067117375    -2.827396    1.2097736   558340 
 3932000    1.0007279   -2.8240679   -2.8240679   -1.6174653  0.064304518   -2.8240679    1.2066026   558340 
 3933000    1.0018265   -2.8250103   -2.8250103   -1.6170831  0.063632361   -2.8250103    1.2079272   558340 
 3934000    1.0030898    -2.826432    -2.826432   -1.6169816  0.063456121    -2.826432    1.2094504   558340 
 3935000    1.0036864   -2.8272258   -2.8272258    -1.617056  0.064822577   -2.8272258    1.2101698   558340 
 3936000     1.004415   -2.8281531   -2.8281531   -1.6171049  0.067833197   -2.8281531    1.2110483   558340 
 3937000    1.0019873    -2.824836    -2.824836    -1.616715  0.068796248    -2.824836    1.2081211   558340 
 3938000    1.0028089   -2.8263346   -2.8263346   -1.6172229   0.05990899   -2.8263346    1.2091117   558340 
 3939000    1.0031538   -2.8267718   -2.8267718   -1.6172442  0.063612436   -2.8267718    1.2095276   558340 
 3940000    1.0024297   -2.8272417   -2.8272417   -1.6185871  0.072930537   -2.8272417    1.2086546   558340 
 3941000    1.0031022   -2.8276437   -2.8276437   -1.6181783  0.054576246   -2.8276437    1.2094654   558340 
 3942000    1.0029932    -2.827867    -2.827867    -1.618533  0.064113247    -2.827867     1.209334   558340 
 3943000    1.0031085   -2.8277954   -2.8277954   -1.6183224  0.065736056   -2.8277954     1.209473   558340 
 3944000    1.0034817   -2.8277869   -2.8277869   -1.6178638  0.071551722   -2.8277869     1.209923   558340 
 3945000    1.0037998    -2.827843    -2.827843   -1.6175365   0.07569472    -2.827843    1.2103066   558340 
 3946000    1.0032515   -2.8275947   -2.8275947   -1.6179492  0.072308952   -2.8275947    1.2096454   558340 
 3947000     1.003749   -2.8299512   -2.8299512   -1.6197059  0.064881189   -2.8299512    1.2102453   558340 
 3948000    1.0046048   -2.8305782   -2.8305782    -1.619301  0.067397048   -2.8305782    1.2112772   558340 
 3949000    1.0052515   -2.8309737   -2.8309737   -1.6189169  0.062797687   -2.8309737    1.2120569   558340 
 3950000    1.0044917   -2.8296164   -2.8296164   -1.6184757   0.07954326   -2.8296164    1.2111407   558340 
 3951000    1.0060399   -2.8309445   -2.8309445   -1.6179371  0.073229104   -2.8309445    1.2130074   558340 
 3952000    1.0033157   -2.8296149   -2.8296149    -1.619892  0.073230118   -2.8296149    1.2097228   558340 
 3953000    1.0036688   -2.8301983   -2.8301983   -1.6200497  0.071854494   -2.8301983    1.2101486   558340 
 3954000    1.0035171   -2.8310077   -2.8310077    -1.621042  0.068143803   -2.8310077    1.2099657   558340 
 3955000    1.0009676   -2.8283757   -2.8283757    -1.621484  0.062112609   -2.8283757    1.2068916   558340 
 3956000    1.0025951    -2.830181    -2.830181   -1.6213271  0.063886597    -2.830181    1.2088539   558340 
 3957000    1.0028998   -2.8299933   -2.8299933   -1.6207719   0.06437113   -2.8299933    1.2092213   558340 
 3958000     1.001881    -2.829604    -2.829604    -1.621611  0.070167128    -2.829604     1.207993   558340 
 3959000    1.0028036   -2.8317379   -2.8317379   -1.6226324  0.063992207   -2.8317379    1.2091054   558340 
 3960000     1.001517   -2.8298984   -2.8298984   -1.6223443  0.072599704   -2.8298984    1.2075541   558340 
 3961000     1.001565   -2.8294414   -2.8294414   -1.6218295  0.059375539   -2.8294414    1.2076119   558340 
 3962000    1.0036764     -2.83111     -2.83111   -1.6209523  0.057520273     -2.83111    1.2101577   558340 
 3963000    1.0023821   -2.8297704   -2.8297704   -1.6211733   0.06343554   -2.8297704    1.2085972   558340 
 3964000    1.0025118    -2.830278    -2.830278   -1.6215245  0.055773122    -2.830278    1.2087536   558340 
 3965000    1.0023423   -2.8291337   -2.8291337   -1.6205846   0.06748074   -2.8291337    1.2085492   558340 
 3966000    1.0019323   -2.8293533   -2.8293533   -1.6212985  0.068918906   -2.8293533    1.2080548   558340 
 3967000    1.0043885   -2.8318054   -2.8318054   -1.6207891  0.066323434   -2.8318054    1.2110163   558340 
 3968000    1.0037119   -2.8298589   -2.8298589   -1.6196584  0.064988829   -2.8298589    1.2102005   558340 
 3969000     1.005358   -2.8317575   -2.8317575   -1.6195722   0.07445417   -2.8317575    1.2121853   558340 
 3970000    1.0051061   -2.8313145   -2.8313145   -1.6194329  0.068668476   -2.8313145    1.2118816   558340 
 3971000    1.0018151   -2.8281549   -2.8281549   -1.6202414  0.061127797   -2.8281549    1.2079135   558340 
 3972000    1.0028414   -2.8287777   -2.8287777   -1.6196266  0.066291349   -2.8287777     1.209151   558340 
 3973000    1.0043104    -2.830837    -2.830837   -1.6199148  0.067551191    -2.830837    1.2109222   558340 
 3974000    1.0026336   -2.8285315   -2.8285315   -1.6196311  0.076840771   -2.8285315    1.2089004   558340 
 3975000    1.0036454   -2.8297189   -2.8297189   -1.6195986  0.064661677   -2.8297189    1.2101204   558340 
 3976000    1.0045881   -2.8304618   -2.8304618   -1.6192048  0.071505651   -2.8304618     1.211257   558340 
 3977000    1.0033662   -2.8290878   -2.8290878   -1.6193041  0.066949689   -2.8290878    1.2097838   558340 
 3978000    1.0036905   -2.8287511   -2.8287511   -1.6185763  0.070367651   -2.8287511    1.2101747   558340 
 3979000    1.0025749   -2.8282742   -2.8282742   -1.6194446   0.08414473   -2.8282742    1.2088296   558340 
 3980000    1.0042504   -2.8304502   -2.8304502   -1.6196003  0.069034985   -2.8304502    1.2108499   558340 
 3981000    1.0027302   -2.8288636   -2.8288636   -1.6198467  0.076331211   -2.8288636    1.2090169   558340 
 3982000    1.0039628   -2.8304053   -2.8304053   -1.6199022  0.064554238   -2.8304053    1.2105031   558340 
 3983000    1.0036251   -2.8292979   -2.8292979    -1.619202  0.062017213   -2.8292979    1.2100959   558340 
 3984000    1.0028438   -2.8283396   -2.8283396   -1.6191858  0.066743729   -2.8283396    1.2091538   558340 
 3985000    1.0028857    -2.828534    -2.828534   -1.6193296  0.074843404    -2.828534    1.2092044   558340 
 3986000    1.0038031   -2.8295131   -2.8295131   -1.6192026  0.070082413   -2.8295131    1.2103105   558340 
 3987000    1.0035753   -2.8290849   -2.8290849   -1.6190491  0.063201049   -2.8290849    1.2100358   558340 
 3988000    1.0017437   -2.8266438   -2.8266438   -1.6188164  0.066105433   -2.8266438    1.2078274   558340 
 3989000    1.0017727   -2.8278002   -2.8278002   -1.6199378  0.072881658   -2.8278002    1.2078623   558340 
 3990000    1.0035539   -2.8296873   -2.8296873   -1.6196772  0.060296383   -2.8296873    1.2100101   558340 
 3991000    1.0035413   -2.8290905   -2.8290905   -1.6190957  0.051970685   -2.8290905    1.2099948   558340 
 3992000      1.00392   -2.8305341   -2.8305341   -1.6200826  0.060606522   -2.8305341    1.2104514   558340 
 3993000    1.0052767    -2.831798    -2.831798   -1.6197107  0.061065637    -2.831798    1.2120872   558340 
 3994000    1.0046527   -2.8310241   -2.8310241   -1.6196893  0.070769124   -2.8310241    1.2113348   558340 
 3995000    1.0042666   -2.8305339   -2.8305339   -1.6196645   0.07647705   -2.8305339    1.2108694   558340 
 3996000    1.0036307   -2.8297342   -2.8297342   -1.6196315  0.067649931   -2.8297342    1.2101026   558340 
 3997000      1.00297    -2.830363    -2.830363    -1.621057   0.06710329    -2.830363     1.209306   558340 
 3998000    1.0034634   -2.8295868   -2.8295868   -1.6196859  0.071509485   -2.8295868    1.2099009   558340 
 3999000    1.0019382   -2.8278047   -2.8278047   -1.6197428  0.070392637   -2.8278047    1.2080619   558340 
 4000000    1.0035606   -2.8299329   -2.8299329   -1.6199148  0.063120586   -2.8299329    1.2100181   558340 
Loop time of 8117.52 on 240 procs for 4000000 steps with 558340 atoms

Performance: 212872.876 tau/day, 492.761 timesteps/s
99.1% CPU use with 240 MPI tasks x 1 OpenMP threads

MPI task timing breakdown:
Section |  min time  |  avg time  |  max time  |%varavg|  %CPU | %total
-----------------------------------------------------------------------
Pair    | 1649.7     | 2339.2     | 2861       | 662.7 |  99.0 | 28.82
Bond    | 2.6965     | 2.8311     | 3.0762     |   3.3 | 100.0 |  0.03
Neigh   | 1236.4     | 1852.2     | 2498.6     | 542.6 |  99.6 | 22.82
Comm    | 1440.7     | 2348.2     | 3532.4     | 924.2 |  99.0 | 28.93
Output  | 166.33     | 168.2      | 171.68     |  13.7 |  97.5 |  2.07
Modify  | 894.57     | 1305.3     | 1779.9     | 678.2 |  99.1 | 16.08
Other   |            | 101.5      |            |       |       |  1.25

Nlocal:        2326.42 ave        2953 max        1756 min
Histogram: 1 4 26 39 79 44 25 16 4 2
Nghost:        4959.00 ave        7704 max        2486 min
Histogram: 24 14 42 16 20 33 38 28 19 6
Neighs:        55261.6 ave       71086 max       24252 min
Histogram: 2 0 3 16 26 43 47 39 37 27

Total # of neighbors = 13262779
Ave neighs/atom = 23.753947
Ave special neighs/atom = 0.0000000
Neighbor list builds = 400000
Dangerous builds = 396000

Total wall time: 2:15:21
