LAMMPS (24 Dec 2020)
OMP_NUM_THREADS environment is not set. Defaulting to 1 thread. (src/comm.cpp:94)
  using 1 OpenMP thread(s) per MPI task
# Simple rigid body system
# needed variables: startTemp, temp

units		lj
atom_style	full
dimension 	3
boundary	p p f
pair_style	lj/cut/opt 2.5

variable 	gcmcdisplace	equal 0
variable 	sigma		equal 1.0
variable 	epsilon 	equal 1.0


read_restart	restart.dat.3000000
Reading restart file ...
  restart file = 24 Dec 2020, LAMMPS = 24 Dec 2020
WARNING: Restart file used different # of processors: 48 vs. 192 (src/read_restart.cpp:697)
  restoring atom style full from restart
  orthogonal box = (0.0000000 0.0000000 0.0000000) to (80.000000 80.000000 160.00000)
  6 by 4 by 8 MPI processor grid
  restoring pair style lj/cut/opt from restart
  439061 atoms
Finding 1-2 1-3 1-4 neighbors ...
  special bond factors lj:    0        0        0       
  special bond factors coul:  0        0        0       
     0 = max # of 1-2 neighbors
     0 = max # of 1-3 neighbors
     0 = max # of 1-4 neighbors
     1 = max # of special neighbors
  special bonds CPU = 1.418 seconds
  read_restart CPU = 1.724 seconds

mass		1 1.0
mass		2 1.0
mass		3 1.0


group		solvent type 1
439061 atoms in group solvent


neighbor 	0.4 bin

pair_coeff	1 1 1.0 1.0
pair_coeff	2 2 0.0 0.0
pair_coeff	3 3 0.0 0.0
pair_coeff	2 3 0.0 0.0
pair_coeff	1 2*3 0.0 0.0

pair_modify 	shift yes


balance 	1.05 shift z 10 1.05
Balancing ...
Neighbor list info ...
  update every 1 steps, delay 10 steps, check yes
  max neighbors/atom: 2000, page size: 100000
  master list distance cutoff = 2.9
  ghost atom cutoff = 2.9
  binsize = 1.45, bins = 56 56 111
  1 neighbor lists, perpetual/occasional/extra = 1 0 0
  (1) pair lj/cut/opt, perpetual
      attributes: half, newton on
      pair build: half/bin/newton
      stencil: half/bin/3d/newton
      bin: standard
 rebalancing time: 0.025 seconds
  iteration count = 5
  initial/final maximal load/proc = 3162.0000 2575.0000
  initial/final imbalance factor  = 1.3827327 1.1260394
  x cuts: 0.0000000 0.16666667 0.33333333 0.50000000 0.66666667 0.83333333 1.0000000
  y cuts: 0.0000000 0.25000000 0.50000000 0.75000000 1.0000000
  z cuts: 0.0000000 0.097656250 0.18359375 0.27734375 0.37890625 0.47656250 0.57031250 0.67968750 1.0000000


####################### WALLS ###########################


variable       epsilonWall equal 2*${epsilon}
variable       epsilonWall equal 2*1

variable       cutoffTop   equal   0.7147*${sigma}
variable       cutoffTop   equal   0.7147*1

variable       cutoffLow   equal   3*${sigma}
variable       cutoffLow   equal   3*1


fix            topWall all wall/lj93 zhi EDGE                ${epsilonWall} ${sigma} ${cutoffTop} units box
fix            topWall all wall/lj93 zhi EDGE                2 ${sigma} ${cutoffTop} units box
fix            topWall all wall/lj93 zhi EDGE                2 1 ${cutoffTop} units box
fix            topWall all wall/lj93 zhi EDGE                2 1 0.7147 units box

fix            lowWall all wall/lj93 zlo EDGE                ${epsilonWall} ${sigma} ${cutoffLow} units box
fix            lowWall all wall/lj93 zlo EDGE                2 ${sigma} ${cutoffLow} units box
fix            lowWall all wall/lj93 zlo EDGE                2 1 ${cutoffLow} units box
fix            lowWall all wall/lj93 zlo EDGE                2 1 3 units box


###################### COMPUTES ##########################

compute        bin1 solvent chunk/atom bin/1d z upper 1.0



######################	FIXES ############################


fix 		peclet solvent ave/chunk 1000 1 1000 bin1 density/number norm 		 none ave one file density.profile

fix 		 temp solvent ave/chunk 1000 1 1000 bin1 temp norm none ave one file temp.profile

fix 		2 solvent nve

## Thermostat


region		regthermo block EDGE EDGE EDGE EDGE 0 20

group 		thermo dynamic solvent region regthermo every 1000
dynamic group thermo defined

fix 		3 thermo langevin ${startTemp} ${temp} 10 156453
fix 		3 thermo langevin 1.0 ${temp} 10 156453
fix 		3 thermo langevin 1.0 1.0 10 156453


## Evaporation

region		regevap block EDGE EDGE EDGE EDGE 140 158
fix 		gcmc solvent gcmc 100 100 0 1 780493 ${temp} ${mu} ${gcmcdisplace} region regevap
fix 		gcmc solvent gcmc 100 100 0 1 780493 1.0 ${mu} ${gcmcdisplace} region regevap
fix 		gcmc solvent gcmc 100 100 0 1 780493 1.0 -8 ${gcmcdisplace} region regevap
fix 		gcmc solvent gcmc 100 100 0 1 780493 1.0 -8 0 region regevap


#### Load balancing

fix 		bal all balance 1000 1.05 shift z 10 1.05

############### Diagnostics and computes ###################
#compute 	com cube	  rigid/local	1 mol x y z
#compute 	quat cube	  rigid/local	1 mol quatw quati quatj quatk

thermo 		1000
thermo_style 	custom step temp epair etotal press pe ke atoms

dump		1 all custom 100000 dump.lammpstrj id mol type x y z
dump 		2 all image 10000 image.*.png type type
dump 		3 all movie 1000 movie.avi type type
#dump 		com cube local 1000 dump.*.xyz c_com[*]
#dump		quat cube      local 1000 dump.*.quat c_quat[*]


restart 	1000000 restart.dat
timestep 	0.005
timer 		full
New timer settings: style=full  mode=nosync  timeout=off


run		5000000
Per MPI rank memory allocation (min/avg/max) = 9.923 | 9.986 | 10.01 Mbytes
Step Temp E_pair TotEng Press PotEng KinEng Atoms 
 3000000     1.016004   -3.1352716   -1.6112691  0.079025997   -3.1352716    1.5240025   439061 
 3001000    1.0140894   -3.1362401   -1.6134239  0.073575409   -3.1362401    1.5228162   438575 
 3002000    1.0134776   -3.1391393   -1.6155708  0.072777434   -3.1391393    1.5235684   438094 
 3003000    1.0119793    -3.141716   -1.6186721  0.074632765    -3.141716    1.5230439   437597 
 3004000    1.0100971   -3.1414036   -1.6195126  0.074658532   -3.1414036     1.521891   437114 
 3005000    1.0091413   -3.1429707   -1.6208205  0.078587232   -3.1429707    1.5221502   436626 
 3006000    1.0080526   -3.1438712    -1.621599  0.073462781   -3.1438712    1.5222722   436120 
 3007000    1.0054736   -3.1445599   -1.6243698  0.071151986   -3.1445599    1.5201901   435600 
 3008000    1.0043022   -3.1462443   -1.6260453   0.07797119   -3.1462443     1.520199   435090 
 3009000    1.0034179   -3.1488279    -1.628199  0.073136301   -3.1488279    1.5206289   434584 
 3010000    1.0015535   -3.1510067   -1.6314689  0.077858485   -3.1510067    1.5195378   434088 
 3011000    1.0007577   -3.1531513   -1.6331472  0.068310748   -3.1531513    1.5200041   433610 
 3012000    1.0010541   -3.1565297   -1.6342638  0.068586007   -3.1565297    1.5222659   433094 
 3013000   0.99956802   -3.1575246    -1.635832  0.074120111   -3.1575246    1.5216925   432614 
 3014000   0.99748718   -3.1597235    -1.639519  0.068846131   -3.1597235    1.5202045   432136 
 3015000   0.99439181   -3.1590449   -1.6418797  0.066818588   -3.1590449    1.5171652   431658 
 3016000   0.99565432   -3.1635508   -1.6426589  0.067192866   -3.1635508    1.5208919   431147 
 3017000   0.99248376   -3.1629216   -1.6451726  0.069547791   -3.1629216    1.5177491   430664 
 3018000   0.99170225   -3.1643217    -1.646072  0.066031048   -3.1643217    1.5182496   430183 
 3019000   0.98938721   -3.1656335   -1.6492855  0.072809553   -3.1656335     1.516348   429717 
 3020000   0.98888918   -3.1683033   -1.6509813  0.071731415   -3.1683033     1.517322   429225 
 3021000   0.98748496   -3.1691973   -1.6522487  0.062466412   -3.1691973    1.5169486   428721 
 3022000   0.98652624   -3.1706728   -1.6534736  0.067880195   -3.1706728    1.5171993   428234 
 3023000   0.98463989   -3.1723356   -1.6562601  0.061562011   -3.1723356    1.5160755   427732 
 3024000   0.98248957   -3.1726317   -1.6580649  0.065775642   -3.1726317    1.5145669   427223 
 3025000   0.98056822   -3.1736033   -1.6603299  0.060611212   -3.1736033    1.5132733   426752 
 3026000   0.97837766   -3.1743157   -1.6625845  0.064989616   -3.1743157    1.5117312   426233 
 3027000   0.97684753   -3.1757886   -1.6646632  0.062940958   -3.1757886    1.5111254   425737 
 3028000   0.97538476   -3.1778398   -1.6672421  0.064004828   -3.1778398    1.5105977   425248 
 3029000   0.97403787   -3.1789814   -1.6687045  0.055952963   -3.1789814    1.5102768   424751 
 3030000   0.97332772   -3.1827945   -1.6718793  0.055404704   -3.1827945    1.5109152   424262 
 3031000   0.96906345   -3.1802253   -1.6741618  0.060182185   -3.1802253    1.5060635   423764 
 3032000   0.96789104   -3.1833778   -1.6773772  0.055944492   -3.1833778    1.5060006   423269 
 3033000   0.96526451   -3.1840048   -1.6803218  0.054569531   -3.1840048     1.503683   422771 
 3034000   0.96292136   -3.1849013   -1.6831279  0.049558999   -3.1849013    1.5017734   422281 
 3035000   0.96095473    -3.186132   -1.6856775  0.048476022    -3.186132    1.5004544   421789 
 3036000   0.95888163   -3.1869371   -1.6879997  0.052786007   -3.1869371    1.4989375   421305 
 3037000   0.95775226   -3.1890936   -1.6900714  0.047767295   -3.1890936    1.4990222   420785 
 3038000   0.95513838   -3.1897647   -1.6930586   0.04895499   -3.1897647     1.496706   420286 
 3039000    0.9549381   -3.1945892   -1.6963469   0.05112588   -3.1945892    1.4982423   419767 
 3040000   0.95163301   -3.1930516   -1.6982499  0.048457469   -3.1930516    1.4948017   419277 
 3041000   0.95032031   -3.1945078   -1.7000714  0.040722814   -3.1945078    1.4944364   418801 
 3042000   0.95065556   -3.1988587   -1.7022262  0.044507769   -3.1988587    1.4966325   418334 
 3043000    0.9490287   -3.1998852   -1.7041334  0.046763611   -3.1998852    1.4957518   417864 
 3044000   0.94658203    -3.200385   -1.7067558  0.039964363    -3.200385    1.4936292   417379 
 3045000   0.94685967   -3.2049066   -1.7090689  0.039533482   -3.2049066    1.4958377   416885 
 3046000   0.94422456   -3.2056428    -1.712166  0.049491288   -3.2056428    1.4934768   416382 
 3047000   0.94388584   -3.2089685   -1.7142972  0.044723346   -3.2089685    1.4946713   415900 
 3048000   0.94252457   -3.2104006   -1.7161316  0.043105608   -3.2104006     1.494269   415412 
 3049000   0.93978869   -3.2100593   -1.7184006   0.04646332   -3.2100593    1.4916587   414931 
 3050000   0.93762813   -3.2110713   -1.7210392  0.044459994   -3.2110713    1.4900321   414429 
 3051000   0.93927389   -3.2176945   -1.7232188  0.044132938   -3.2176945    1.4944758   413922 
 3052000   0.93631116   -3.2174452   -1.7258312  0.045151795   -3.2174452     1.491614   413408 
 3053000   0.93608028   -3.2231152   -1.7299836  0.040832398   -3.2231152    1.4931315   412886 
 3054000   0.93388708    -3.223189   -1.7317569  0.046967118    -3.223189    1.4914321   412388 
 3055000    0.9324738   -3.2275397   -1.7365678   0.03634471   -3.2275397    1.4909719   411891 
 3056000   0.92931465   -3.2267789   -1.7391247  0.039547639   -3.2267789    1.4876543   411411 
 3057000    0.9279328   -3.2284882   -1.7413182  0.038692925   -3.2284882    1.4871701   410933 
 3058000   0.92690093   -3.2315876   -1.7443485  0.037885309   -3.2315876    1.4872391   410457 
 3059000   0.92620562   -3.2343398   -1.7464183  0.033180318   -3.2343398    1.4879214   409961 
 3060000   0.92395777   -3.2354997   -1.7495002  0.032828335   -3.2354997    1.4859995   409495 
 3061000   0.92351542   -3.2404545   -1.7534415  0.033606411   -3.2404545    1.4870129   409020 
 3062000   0.92021244   -3.2403819   -1.7569102  0.037997954   -3.2403819    1.4834717   408530 
 3063000   0.91810253   -3.2409719   -1.7591823  0.036796805   -3.2409719    1.4817896   408056 
 3064000   0.91811548   -3.2451571    -1.761616  0.033024434   -3.2451571    1.4835411   407580 
 3065000   0.91572636   -3.2474082   -1.7659138  0.031771145   -3.2474082    1.4814944   407081 
 3066000   0.91278376   -3.2457879   -1.7673472  0.035605713   -3.2457879    1.4784407   406611 
 3067000   0.91337121   -3.2523319   -1.7712569  0.030995075   -3.2523319     1.481075   406149 
 3068000   0.91063008   -3.2522782   -1.7738389  0.030680522   -3.2522782    1.4784393   405652 
 3069000   0.90907535   -3.2541591   -1.7764079  0.026687969   -3.2541591    1.4777512   405148 
 3070000   0.90751894    -3.256357   -1.7792217  0.030504106    -3.256357    1.4771353   404623 
 3071000   0.90481153   -3.2578927   -1.7833275  0.031757224   -3.2578927    1.4745652   404119 
 3072000   0.90528191   -3.2624592   -1.7853217   0.03023102   -3.2624592    1.4771375   403625 
 3073000   0.90306556    -3.263762   -1.7884316  0.027427606    -3.263762    1.4753304   403130 
 3074000    0.9020895   -3.2664952   -1.7909806   0.02591056   -3.2664952    1.4755147   402644 
 3075000   0.90040478   -3.2684952    -1.794048  0.032541463   -3.2684952    1.4744472   402183 
 3076000   0.89962242   -3.2717952   -1.7968615   0.03009588   -3.2717952    1.4749337   401701 
 3077000   0.89867965   -3.2741733   -1.7990005  0.022237372   -3.2741733    1.4751727   401215 
 3078000   0.89677842   -3.2753742   -1.8015628   0.02389184   -3.2753742    1.4738114   400736 
 3079000   0.89617261   -3.2802132   -1.8056606  0.021982936   -3.2802132    1.4745526   400264 
 3080000   0.89320488   -3.2800635   -1.8086956  0.023868342   -3.2800635    1.4713678   399802 
 3081000   0.89136088   -3.2835765   -1.8134224  0.024581855   -3.2835765    1.4701541   399306 
 3082000   0.88846552   -3.2845914   -1.8174197  0.025360051   -3.2845914    1.4671718   398818 
 3083000   0.88774797   -3.2880536   -1.8202303  0.020536721   -3.2880536    1.4678234   398319 
 3084000   0.88812339   -3.2939886   -1.8237433  0.017955355   -3.2939886    1.4702454   397831 
 3085000   0.88464134   -3.2908563   -1.8246394  0.022965472   -3.2908563    1.4662169   397360 
 3086000   0.88296105   -3.2940114   -1.8288391  0.020893799   -3.2940114    1.4651723   396888 
 3087000   0.88325195   -3.2987629   -1.8311924  0.019054758   -3.2987629    1.4675704   396370 
 3088000   0.88216054   -3.3007353   -1.8332085  0.022196629   -3.3007353    1.4675268   395892 
 3089000   0.87779392    -3.299399   -1.8374043  0.018214795    -3.299399    1.4619946   395423 
 3090000   0.87992197   -3.3058601   -1.8385326  0.019859821   -3.3058601    1.4673276   394941 
 3091000   0.87716511   -3.3055848   -1.8410969  0.025605104   -3.3055848     1.464488   394467 
 3092000   0.87522343   -3.3067758   -1.8438125  0.020348605   -3.3067758    1.4629633   394004 
 3093000   0.87575134   -3.3133244   -1.8477565  0.015371678   -3.3133244    1.4655679   393541 
 3094000   0.87478829   -3.3151736    -1.849519  0.020442904   -3.3151736    1.4656546   393085 
 3095000   0.87237233   -3.3154438   -1.8520575  0.015971533   -3.3154438    1.4633863   392607 
 3096000   0.87158258   -3.3167538   -1.8529175  0.018827385   -3.3167538    1.4638362   392131 
 3097000   0.86985499   -3.3188923   -1.8561858  0.016528291   -3.3188923    1.4627065   391656 
 3098000   0.86788546   -3.3193567   -1.8583095  0.015906385   -3.3193567    1.4610473   391213 
 3099000   0.86656548   -3.3227477   -1.8623286  0.012755357   -3.3227477    1.4604192   390786 
 3100000   0.86477315   -3.3227806   -1.8638065  0.014527754   -3.3227806    1.4589741   390364 
 3101000   0.86493137   -3.3273529    -1.866394  0.012997275   -3.3273529    1.4609588   389905 
 3102000   0.86272257   -3.3280488   -1.8692869  0.019588761   -3.3280488    1.4587619   389495 
 3103000   0.86142567   -3.3283664   -1.8704049  0.013001664   -3.3283664    1.4579615   389123 
 3104000   0.86033426   -3.3321041   -1.8743941  0.011208114   -3.3321041    1.4577101   388697 
 3105000   0.85714949   -3.3304905   -1.8768676  0.013554746   -3.3304905    1.4536229   388347 
 3106000   0.85779794   -3.3345937   -1.8786677  0.012444828   -3.3345937     1.455926   388026 
 3107000   0.85684729   -3.3345743    -1.879069  0.019081463   -3.3345743    1.4555053   387708 
 3108000   0.85574609   -3.3355354   -1.8805421  0.015680942   -3.3355354    1.4549933   387346 
 3109000   0.85518413   -3.3395561   -1.8842634  0.014164042   -3.3395561    1.4552926   387012 
 3110000   0.85239828   -3.3377904   -1.8858467 0.0097997073   -3.3377904    1.4519438   386641 
 3111000   0.85071195   -3.3374427   -1.8872161  0.012017677   -3.3374427    1.4502266   386333 
 3112000   0.85010702   -3.3390958   -1.8886578  0.011819068   -3.3390958     1.450438   386002 
 3113000   0.85137314   -3.3427714   -1.8889981  0.016606467   -3.3427714    1.4537733   385690 
 3114000   0.84956853   -3.3421715   -1.8903353  0.014168062   -3.3421715    1.4518362   385386 
 3115000   0.85035215   -3.3468441   -1.8924801   0.01881891   -3.3468441    1.4543641   385071 
 3116000   0.84899454   -3.3493582   -1.8961575  0.013471905   -3.3493582    1.4532007   384764 
 3117000   0.84560176   -3.3466313   -1.8981311  0.014496303   -3.3466313    1.4485002   384470 
 3118000   0.84620783    -3.349563   -1.8989833  0.011901172    -3.349563    1.4505797   384194 
 3119000   0.84579961   -3.3510808   -1.9002039  0.012953939   -3.3510808    1.4508769   383930 
 3120000   0.84452932   -3.3501826   -1.9003443  0.013085401   -3.3501826    1.4498383   383628 
 3121000   0.84438364   -3.3541425   -1.9033593  0.011358844   -3.3541425    1.4507832   383312 
 3122000     0.841094   -3.3524211   -1.9061316  0.015229601   -3.3524211    1.4462895   383005 
 3123000   0.84197644   -3.3557376   -1.9070532  0.017620481   -3.3557376    1.4486844   382773 
 3124000   0.83864229   -3.3541987   -1.9102739  0.012869437   -3.3541987    1.4439247   382514 
 3125000   0.83814597    -3.354426   -1.9102685  0.013881043    -3.354426    1.4441575   382226 
 3126000   0.83769514   -3.3569692   -1.9125001  0.016751331   -3.3569692    1.4444691   381938 
 3127000   0.83590753   -3.3584581   -1.9159384  0.014105193   -3.3584581    1.4425197   381638 
 3128000     0.835365   -3.3586027   -1.9160326  0.019135319   -3.3586027      1.44257   381377 
 3129000   0.83536804   -3.3602866   -1.9167082  0.015582195   -3.3602866    1.4435784   381112 
 3130000   0.83494898   -3.3641415   -1.9203857  0.017509557   -3.3641415    1.4437558   380874 
 3131000   0.83533858   -3.3684261   -1.9229529 0.0082615536   -3.3684261    1.4454731   380599 
 3132000   0.83351047   -3.3690828   -1.9256656    0.0183158   -3.3690828    1.4434172   380307 
 3133000   0.83277033   -3.3700131   -1.9268835  0.013339231   -3.3700131    1.4431297   380045 
 3134000   0.83225158   -3.3721863   -1.9290291  0.010163163   -3.3721863    1.4431573   379801 
 3135000   0.83157312   -3.3741833   -1.9312033  0.021269938   -3.3741833      1.44298   379538 
 3136000   0.83104183   -3.3784145    -1.935406  0.016568909   -3.3784145    1.4430086   379288 
 3137000   0.82980429    -3.378558   -1.9367707  0.015546158    -3.378558    1.4417873   379044 
 3138000   0.82731714   -3.3764621   -1.9380286  0.011368928   -3.3764621    1.4384335   378789 
 3139000   0.82590226   -3.3791588   -1.9420509  0.013877501   -3.3791588    1.4371079   378490 
 3140000   0.82436282   -3.3800875   -1.9445394  0.015216489   -3.3800875    1.4355481   378195 
 3141000   0.82623164   -3.3846964   -1.9448851  0.015571345   -3.3846964    1.4398113   377930 
 3142000   0.82552766   -3.3855921   -1.9460629  0.019838542   -3.3855921    1.4395292   377682 
 3143000   0.82470673   -3.3873634   -1.9482178  0.015727597   -3.3873634    1.4391455   377407 
 3144000    0.8224543   -3.3859965   -1.9498949  0.023318179   -3.3859965    1.4361016   377174 
 3145000   0.82315881   -3.3891621   -1.9508961  0.013269955   -3.3891621     1.438266   376929 
 3146000   0.82255297   -3.3918136    -1.953511  0.019144338   -3.3918136    1.4383026   376642 
 3147000   0.82168406   -3.3941729   -1.9564162  0.017342324   -3.3941729    1.4377566   376387 
 3148000    0.8199957   -3.3928244   -1.9569921   0.01871683   -3.3928244    1.4358324   376117 
 3149000   0.81804063   -3.3944611   -1.9611603  0.023007476   -3.3944611    1.4333007   375883 
 3150000   0.81893258   -3.4005998   -1.9648348  0.019635129   -3.4005998     1.435765   375647 
 3151000   0.81799157   -3.4021482   -1.9670436  0.012451773   -3.4021482    1.4351047   375388 
 3152000   0.81644856   -3.4018837   -1.9685086  0.020066917   -3.4018837    1.4333751   375132 
 3153000   0.81476477   -3.4044494   -1.9729887  0.021951704   -3.4044494    1.4314607   374859 
 3154000   0.81372085   -3.4046702   -1.9741429  0.020314644   -3.4046702    1.4305273   374623 
 3155000   0.81197947   -3.4038976   -1.9754441  0.020485555   -3.4038976    1.4284535   374364 
 3156000   0.81386323   -3.4090107   -1.9762558  0.020158532   -3.4090107    1.4327549   374106 
 3157000   0.81018741   -3.4036155   -1.9763779  0.021288563   -3.4036155    1.4272376   373856 
 3158000   0.81062441   -3.4079998   -1.9790254  0.024103814   -3.4079998    1.4289744   373603 
 3159000   0.81014544   -3.4080855   -1.9790948  0.021442713   -3.4080855    1.4289907   373378 
 3160000   0.81023561   -3.4083207   -1.9783015  0.021780798   -3.4083207    1.4300191   373151 
 3161000   0.80751403   -3.4074104   -1.9812048   0.02228656   -3.4074104    1.4262056   372892 
 3162000   0.80707666   -3.4094408   -1.9830207  0.022085787   -3.4094408    1.4264201   372634 
 3163000   0.80544133   -3.4078983   -1.9833707  0.014199448   -3.4078983    1.4245276   372373 
 3164000     0.805006   -3.4102945   -1.9855459  0.022430867   -3.4102945    1.4247486   372114 
 3165000   0.80442345   -3.4127393   -1.9880646  0.023695108   -3.4127393    1.4246747   371864 
 3166000   0.80398517   -3.4166377   -1.9918388  0.019916453   -3.4166377    1.4247989   371629 
 3167000   0.80326144   -3.4164909   -1.9921505  0.022191001   -3.4164909    1.4243404   371414 
 3168000   0.80214159   -3.4174648   -1.9943592  0.016961953   -3.4174648    1.4231056   371218 
 3169000   0.79941444    -3.415597   -1.9963969  0.014548516    -3.415597    1.4192001   370974 
 3170000   0.79799733    -3.415231   -1.9975186  0.020451561    -3.415231    1.4177124   370705 
 3171000   0.79893367   -3.4185254   -1.9983105  0.024544004   -3.4185254    1.4202149   370486 
 3172000   0.79917062   -3.4215958   -2.0000695  0.022644951   -3.4215958    1.4215262   370254 
 3173000   0.79750548   -3.4198512   -2.0003591   0.02215453   -3.4198512    1.4194922   370012 
 3174000   0.79626139   -3.4209514   -2.0028342  0.020299351   -3.4209514    1.4181171   369793 
 3175000   0.79734788   -3.4232158   -2.0021646  0.026270726   -3.4232158    1.4210513   369533 
 3176000   0.79497576   -3.4206431   -2.0029064  0.025116329   -3.4206431    1.4177367   369295 
 3177000    0.7940415    -3.421921   -2.0048028  0.020341079    -3.421921    1.4171182   369022 
 3178000   0.79164618   -3.4201177   -2.0062936  0.021164317   -3.4201177    1.4138241   368766 
 3179000   0.79197959    -3.421501   -2.0061142  0.020355119    -3.421501    1.4153868   368514 
 3180000   0.79258068   -3.4247484   -2.0074182  0.026144081   -3.4247484    1.4173302   368288 
 3181000   0.79133233   -3.4241945   -2.0081431  0.025312913   -3.4241945    1.4160514   368040 
 3182000   0.78978337   -3.4227168   -2.0085188   0.02038454   -3.4227168     1.414198   367801 
 3183000   0.78993005   -3.4236525   -2.0082644  0.026221169   -3.4236525    1.4153881   367560 
 3184000   0.78778858   -3.4209418   -2.0085185  0.022682945   -3.4209418    1.4124233   367333 
 3185000   0.78884805   -3.4249016   -2.0095577  0.026081337   -3.4249016    1.4153439   367068 
 3186000    0.7869338   -3.4246585   -2.0118139  0.027440947   -3.4246585    1.4128446   366825 
 3187000   0.78558159   -3.4229728   -2.0117865   0.02840186   -3.4229728    1.4111863   366625 
 3188000   0.78499079    -3.423964   -2.0127882  0.026234314    -3.423964    1.4111758   366352 
 3189000   0.78455162   -3.4261074   -2.0147618  0.029268192   -3.4261074    1.4113456   366103 
 3190000   0.78244576    -3.422806   -2.0144524  0.021737271    -3.422806    1.4083536   365896 
 3191000   0.78097064   -3.4236666   -2.0169685  0.016342081   -3.4236666    1.4066981   365636 
 3192000   0.78175772    -3.427271   -2.0182651  0.023051295    -3.427271    1.4090059   365405 
 3193000   0.78040177   -3.4268122   -2.0191985  0.024215769   -3.4268122    1.4076137   365132 
 3194000   0.77861743   -3.4252404   -2.0199021   0.02243636   -3.4252404    1.4053382   364887 
 3195000   0.77771324   -3.4262365   -2.0213598  0.024500826   -3.4262365    1.4048767   364583 
 3196000   0.77590477   -3.4245034   -2.0218355  0.030866209   -3.4245034    1.4026679   364308 
 3197000   0.77843599   -3.4313689   -2.0229499  0.023084253   -3.4313689     1.408419   364004 
 3198000   0.77434702   -3.4254709   -2.0231132  0.026361046   -3.4254709    1.4023577   363657 
 3199000   0.77454217   -3.4271595   -2.0232515  0.029190619   -3.4271595    1.4039079   363347 
 3200000   0.77354213   -3.4248897   -2.0217363   0.03126896   -3.4248897    1.4031534   363073 
 3201000   0.77181069    -3.420349   -2.0192094  0.031548979    -3.420349    1.4011395   362781 
 3202000   0.77189746   -3.4199813   -2.0177644  0.026712823   -3.4199813     1.402217   362543 
 3203000   0.77014974   -3.4167205   -2.0168328  0.031051759   -3.4167205    1.3998877   362324 
 3204000   0.77046129    -3.415354   -2.0141149  0.030700665    -3.415354    1.4012391   362121 
 3205000   0.76958389   -3.4114685   -2.0110091  0.034055226   -3.4114685    1.4004594   361910 
 3206000   0.77012251   -3.4099631    -2.007737  0.034697444   -3.4099631    1.4022261   361707 
 3207000   0.76904095   -3.4073954    -2.006395  0.030659095   -3.4073954    1.4010005   361515 
 3208000   0.76911031   -3.4053403   -2.0034651  0.029292338   -3.4053403    1.4018752   361322 
 3209000    0.7688219   -3.4022846   -2.0000192  0.029282437   -3.4022846    1.4022654   361086 
 3210000   0.76679836   -3.3964896   -1.9970197  0.033090889   -3.3964896      1.39947   360855 
 3211000   0.76616869   -3.3918236   -1.9925528  0.037387493   -3.3918236    1.3992708   360610 
 3212000    0.7679636   -3.3918377   -1.9883431  0.037302001   -3.3918377    1.4034946   360367 
 3213000   0.76616376   -3.3856266   -1.9844181  0.034251035   -3.3856266    1.4012085   360109 
 3214000   0.76711454   -3.3854247   -1.9814169  0.029779655   -3.3854247    1.4040078   359837 
 3215000   0.76869252   -3.3834184   -1.9755012  0.037644121   -3.3834184    1.4079171   359576 
 3216000   0.76806147   -3.3774249   -1.9696653  0.036126278   -3.3774249    1.4077596   359321 
 3217000   0.76895191   -3.3747607   -1.9642463  0.049458288   -3.3747607    1.4105144   359035 
 3218000   0.77193113   -3.3780094   -1.9608696  0.046009855   -3.3780094    1.4171397   358741 
 3219000   0.77250101   -3.3748999   -1.9554716  0.055802349   -3.3748999    1.4194283   358427 
 3220000   0.77427519   -3.3713145   -1.9472635  0.058189658   -3.3713145     1.424051   358084 
 3221000   0.77352629    -3.366001   -1.9421026  0.052688078    -3.366001    1.4238984   357776 
 3222000    0.7688635   -3.3545506   -1.9380239  0.041642347   -3.3545506    1.4165267   357470 
 3223000   0.76866084   -3.3490363   -1.9317014  0.043745028   -3.3490363    1.4173349   357172 
 3224000   0.77007753   -3.3474042   -1.9260961  0.046762788   -3.3474042    1.4213081   356830 
 3225000   0.76788982   -3.3389592   -1.9203968  0.043340041   -3.3389592    1.4185623   356505 
 3226000   0.76879364   -3.3384569    -1.916905  0.043886634   -3.3384569    1.4215518   356174 
 3227000    0.7689406   -3.3335246   -1.9105024  0.040641939   -3.3335246    1.4230222   355874 
 3228000   0.76957287   -3.3302812   -1.9048954  0.045303705   -3.3302812    1.4253858   355576 
 3229000   0.77042804   -3.3282234   -1.8999562  0.044975032   -3.3282234    1.4282672   355253 
 3230000   0.77092656   -3.3242564   -1.8937927  0.049650311   -3.3242564    1.4304638   354937 
 3231000   0.76844796   -3.3160205   -1.8889295   0.04626878   -3.3160205     1.427091   354632 
 3232000   0.76907841    -3.313604   -1.8840523  0.044422265    -3.313604    1.4295518   354312 
 3233000   0.77044226   -3.3122751   -1.8789463  0.044908611   -3.3122751    1.4333288   354005 
 3234000   0.76973985   -3.3059463   -1.8726326  0.047450516   -3.3059463    1.4333136   353686 
 3235000   0.77159045   -3.3048463   -1.8667327  0.049387425   -3.3048463    1.4381136   353353 
 3236000   0.76951174    -3.297565   -1.8620704   0.05022271    -3.297565    1.4354946   353044 
 3237000   0.77141416   -3.2957299   -1.8554299  0.047263003   -3.2957299       1.4403   352736 
 3238000   0.76978395   -3.2892967   -1.8506865  0.042635372   -3.2892967    1.4386103   352404 
 3239000   0.76976009   -3.2846252   -1.8446907  0.046508234   -3.2846252    1.4399345   352069 
 3240000   0.77002539   -3.2804219   -1.8387135  0.051958819   -3.2804219    1.4417084   351757 
 3241000    0.7695846   -3.2727635   -1.8304083  0.048544138   -3.2727635    1.4423552   351398 
 3242000   0.76921893   -3.2671986   -1.8241941  0.046512618   -3.2671986    1.4430044   351073 
 3243000   0.77072391   -3.2650317   -1.8176952  0.052769033   -3.2650317    1.4473365   350707 
 3244000   0.77017202   -3.2607619   -1.8130458  0.053016302   -3.2607619    1.4477161   350364 
 3245000   0.77035621   -3.2560136   -1.8066068  0.050892193   -3.2560136    1.4494068   350039 
 3246000   0.77138122   -3.2550249    -1.802104  0.055692532   -3.2550249    1.4529209   349657 
 3247000   0.77034681   -3.2485447   -1.7961557   0.05553519   -3.2485447     1.452389   349316 
 3248000   0.77020455   -3.2441748   -1.7904435  0.051724285   -3.2441748    1.4537313   348929 
 3249000   0.76826299   -3.2395306   -1.7878788  0.055453952   -3.2395306    1.4516518   348548 
 3250000   0.77082093   -3.2395675   -1.7815472  0.055021262   -3.2395675    1.4580203   348181 
 3251000    0.7701223   -3.2347612   -1.7765002  0.058932604   -3.2347612     1.458261   347808 
 3252000   0.76759236   -3.2274172   -1.7724282  0.055754928   -3.2274172     1.454989   347445 
 3253000   0.76799226   -3.2242585    -1.766905  0.054593215   -3.2242585    1.4573535   347062 
 3254000   0.76821501   -3.2208887   -1.7614304  0.053429835   -3.2208887    1.4594583   346662 
 3255000   0.76686157   -3.2148965   -1.7563686  0.050753532   -3.2148965    1.4585279   346272 
 3256000   0.76689806     -3.21132   -1.7510654  0.044053255     -3.21132    1.4602546   345879 
 3257000   0.76427481   -3.2036967   -1.7468449  0.046510676   -3.2036967    1.4568518   345501 
 3258000   0.76509204   -3.2018044   -1.7416198   0.04981749   -3.2018044    1.4601846   345081 
 3259000   0.76333855   -3.1936167   -1.7351429  0.047485583   -3.1936167    1.4584737   344694 
 3260000   0.76318425    -3.189492    -1.729619  0.048304798    -3.189492     1.459873   344294 
 3261000   0.76326633   -3.1855221   -1.7238534  0.050590495   -3.1855221    1.4616687   343908 
 3262000   0.76025054   -3.1760222   -1.7184334   0.05156916   -3.1760222    1.4575888   343508 
 3263000   0.75950005   -3.1729379   -1.7151371   0.05104518   -3.1729379    1.4578008   343119 
 3264000   0.76176366   -3.1723274   -1.7084753  0.053591756   -3.1723274    1.4638521   342719 
 3265000   0.75935756   -3.1657117   -1.7047952  0.048880238   -3.1657117    1.4609164   342323 
 3266000   0.75789619   -3.1593977   -1.6996809  0.042094238   -3.1593977    1.4597168   341945 
 3267000   0.75606058   -3.1539953   -1.6961768  0.045094254   -3.1539953    1.4578185   341561 
 3268000    0.7574812   -3.1545538   -1.6922922  0.050675846   -3.1545538    1.4622616   341163 
 3269000   0.75829015   -3.1547407   -1.6891691  0.046859915   -3.1547407    1.4655716   340756 
 3270000   0.75725704   -3.1495802   -1.6843584  0.053930558   -3.1495802    1.4652217   340373 
 3271000   0.75580007   -3.1447562   -1.6807536  0.052643933   -3.1447562    1.4640027   340001 
 3272000   0.75275896   -3.1365787   -1.6767536  0.049765693   -3.1365787    1.4598251   339602 
 3273000   0.75566457   -3.1385203   -1.6713539  0.048741162   -3.1385203    1.4671664   339207 
 3274000   0.75420707   -3.1357206   -1.6696508    0.0461327   -3.1357206    1.4660698   338806 
 3275000   0.75441967   -3.1320232   -1.6638154  0.050909285   -3.1320232    1.4682078   338408 
 3276000   0.75350772   -3.1284939   -1.6604037  0.053119032   -3.1284939    1.4680902   338026 
 3277000   0.75210249   -3.1230983   -1.6561576  0.051326282   -3.1230983    1.4669406   337660 
 3278000   0.75034913    -3.117455   -1.6522593  0.042957958    -3.117455    1.4651958   337274 
 3279000   0.75065646   -3.1149257   -1.6473981  0.047023038   -3.1149257    1.4675276   336876 
 3280000   0.75084834   -3.1131463   -1.6434985  0.050562932   -3.1131463    1.4696478   336476 
 3281000   0.74888773   -3.1086741   -1.6411323  0.049602986   -3.1086741    1.4675418   336079 
 3282000   0.74701746   -3.1016073   -1.6360691  0.056024112   -3.1016073    1.4655382   335698 
 3283000    0.7489099   -3.1033694   -1.6322956  0.051905348   -3.1033694    1.4710738   335282 
 3284000   0.74782458   -3.0996876   -1.6288725  0.055570811   -3.0996876    1.4708151   334855 
 3285000   0.74830939   -3.0980587   -1.6245475  0.050791102   -3.0980587    1.4735112   334459 
 3286000   0.74527247   -3.0935539   -1.6242435     0.049851   -3.0935539    1.4693103   334054 
 3287000   0.74531982   -3.0912672   -1.6199828  0.050315588   -3.0912672    1.4712843   333627 
 3288000    0.7458346    -3.090284   -1.6160834  0.048180189    -3.090284    1.4742006   333197 
 3289000   0.74354767   -3.0848316   -1.6132345  0.049040359   -3.0848316    1.4715971   332763 
 3290000   0.74302062   -3.0824476   -1.6101637  0.053970458   -3.0824476    1.4722839   332372 
 3291000    0.7400766   -3.0758928    -1.607618  0.049238824   -3.0758928    1.4682748   331959 
 3292000   0.74211412   -3.0771689   -1.6028576  0.051241198   -3.0771689    1.4743113   331510 
 3293000   0.74126369   -3.0755981   -1.6011973  0.055294123   -3.0755981    1.4744008   331110 
 3294000   0.73936842   -3.0720622   -1.5996167  0.056067244   -3.0720622    1.4724454   330702 
 3295000   0.74028357   -3.0733145   -1.5972702  0.056327327   -3.0733145    1.4760444   330304 
 3296000   0.73848429    -3.069212   -1.5948493  0.055101167    -3.069212    1.4743628   329877 
 3297000   0.73720446   -3.0663139   -1.5927284  0.050442119   -3.0663139    1.4735855   329479 
 3298000   0.73514432   -3.0630947   -1.5918321  0.053115585   -3.0630947    1.4712626   329077 
 3299000   0.73566918   -3.0619782   -1.5878733  0.052781843   -3.0619782    1.4741049   328677 
 3300000   0.73500403   -3.0604331   -1.5857991   0.05067469   -3.0604331     1.474634   328262 
 3301000   0.73272626   -3.0555265   -1.5836285  0.050819587   -3.0555265     1.471898   327853 
 3302000   0.73295043   -3.0572014     -1.58305  0.048721402   -3.0572014    1.4741514   327452 
 3303000   0.73296644   -3.0550834    -1.578975  0.056715238   -3.0550834    1.4761085   327025 
 3304000   0.73159439    -3.054924   -1.5798421  0.058366366    -3.054924    1.4750819   326640 
 3305000   0.73161042   -3.0545712   -1.5776166  0.055313638   -3.0545712    1.4769545   326233 
 3306000   0.73153938   -3.0579889   -1.5792695  0.057615385   -3.0579889    1.4787194   325812 
 3307000    0.7306356   -3.0568352   -1.5780409   0.05487995   -3.0568352    1.4787943   325393 
 3308000   0.72849214   -3.0532713   -1.5767961  0.051683122   -3.0532713    1.4764751   324948 
 3309000   0.72642917   -3.0521418   -1.5779514  0.045950945   -3.0521418    1.4741903   324530 
 3310000   0.72413243   -3.0492014   -1.5777858  0.054404301   -3.0492014    1.4714155   324114 
 3311000    0.7241831   -3.0497171   -1.5762301  0.053064746   -3.0497171     1.473487   323681 
 3312000   0.72325431   -3.0493313   -1.5757309  0.050040255   -3.0493313    1.4736004   323241 
 3313000   0.72354679   -3.0511628   -1.5749571  0.056611449   -3.0511628    1.4762057   322801 
 3314000   0.72258026   -3.0512528   -1.5752083  0.052378679   -3.0512528    1.4760445   322405 
 3315000   0.72124433   -3.0501637   -1.5748256   0.05559192   -3.0501637    1.4753382   321963 
 3316000   0.72011754   -3.0496993   -1.5746227  0.052826968   -3.0496993    1.4750766   321517 
 3317000   0.71852504   -3.0487073   -1.5747931  0.051033028   -3.0487073    1.4739142   321059 
 3318000   0.71718787   -3.0501325   -1.5768688  0.052080578   -3.0501325    1.4732637   320603 
 3319000   0.71789289   -3.0541918   -1.5772779  0.050638184   -3.0541918    1.4769139   320125 
 3320000   0.71501634   -3.0511111    -1.578026  0.049525084   -3.0511111    1.4730852   319671 
 3321000   0.71378632   -3.0527737   -1.5800989  0.056095549   -3.0527737    1.4726748   319210 
 3322000   0.71249078   -3.0551794   -1.5830007  0.051402472   -3.0551794    1.4721787   318738 
 3323000   0.71033822   -3.0543648   -1.5843278  0.049464006   -3.0543648     1.470037   318238 
 3324000   0.70868478   -3.0539802    -1.585265  0.049475092   -3.0539802    1.4687152   317783 
 3325000   0.70814052   -3.0570038   -1.5873493  0.052123271   -3.0570038    1.4696544   317336 
 3326000   0.70809427   -3.0607888   -1.5890692  0.047838126   -3.0607888    1.4717197   316870 
 3327000   0.70617762   -3.0620479   -1.5921223  0.049942988   -3.0620479    1.4699256   316398 
 3328000   0.70555575   -3.0658401   -1.5950799  0.050690331   -3.0658401    1.4707602   315940 
 3329000    0.7044358   -3.0696066   -1.5989747  0.056351035   -3.0696066    1.4706319   315466 
 3330000   0.70392518   -3.0730667   -1.6013128  0.048009179   -3.0730667     1.471754   314997 
 3331000   0.70076382   -3.0727003   -1.6052173  0.049979712   -3.0727003    1.4674829   314495 
 3332000   0.69912694   -3.0734302   -1.6070857  0.048317495   -3.0734302    1.4663444   314004 
 3333000   0.69866673    -3.078376   -1.6108001   0.04433398    -3.078376    1.4675758   313534 
 3334000   0.69575971   -3.0778866   -1.6142183  0.047648097   -3.0778866    1.4636683   313063 
 3335000   0.69473366   -3.0814781   -1.6176632  0.044801631   -3.0814781     1.463815   312570 
 3336000   0.69272514   -3.0823584   -1.6206664   0.04671082   -3.0823584     1.461692   312119 
 3337000   0.69141091   -3.0830653   -1.6217071  0.045494762   -3.0830653    1.4613583   311598 
 3338000   0.69205999   -3.0910097    -1.625971  0.047058281   -3.0910097    1.4650387   311107 
 3339000    0.6902704   -3.0933274   -1.6297862  0.048937898   -3.0933274    1.4635412   310620 
 3340000   0.68999695   -3.0984096    -1.633061  0.048745612   -3.0984096    1.4653485   310114 
 3341000   0.68805088   -3.1013938   -1.6379697  0.042767847   -3.1013938    1.4634241   309646 
 3342000   0.68578178   -3.1024801   -1.6416318  0.045933883   -3.1024801    1.4608483   309169 
 3343000   0.68462956   -3.1055603   -1.6446573  0.043434387   -3.1055603     1.460903   308638 
 3344000   0.68051662   -3.1017325   -1.6473299  0.043324852   -3.1017325    1.4544026   308155 
 3345000   0.67996573   -3.1062789   -1.6508054  0.042269998   -3.1062789    1.4554735   307679 
 3346000   0.67884902   -3.1093962   -1.6539525  0.039230926   -3.1093962    1.4554436   307180 
 3347000   0.67849947   -3.1136793   -1.6567464  0.041837944   -3.1136793    1.4569329   306708 
 3348000   0.67665014   -3.1150612   -1.6600453  0.041285669   -3.1150612     1.455016   306275 
 3349000   0.67500188   -3.1146309    -1.661109  0.041488215   -3.1146309    1.4535219   305843 
 3350000   0.67224223   -3.1149893   -1.6652911  0.039315389   -3.1149893    1.4496981   305396 
 3351000   0.67125627   -3.1171667   -1.6675299  0.042945102   -3.1171667    1.4496367   304961 
 3352000   0.67039407   -3.1202152   -1.6701391  0.046132351   -3.1202152    1.4500761   304477 
 3353000   0.67108086   -3.1236387   -1.6698903  0.042444623   -3.1236387    1.4537484   304019 
 3354000   0.66765716   -3.1215751    -1.673023  0.047388978   -3.1215751    1.4485521   303553 
 3355000   0.66734781   -3.1237081   -1.6737876  0.036609666   -3.1237081    1.4499205   303126 
 3356000   0.66461817   -3.1196049   -1.6736449  0.041704544   -3.1196049      1.44596   302713 
 3357000   0.66368537    -3.120243   -1.6742871    0.0416619    -3.120243    1.4459559   302289 
 3358000   0.66502534   -3.1251116   -1.6742926  0.042907896   -3.1251116     1.450819   301884 
 3359000   0.66409744   -3.1253454   -1.6745996  0.045739736   -3.1253454    1.4507458   301478 
 3360000   0.66223985   -3.1232878   -1.6749185  0.043658565   -3.1232878    1.4483693   301128 
 3361000   0.66200734   -3.1247737   -1.6751318  0.042348021   -3.1247737    1.4496419   300758 
 3362000   0.66048378   -3.1220994   -1.6742388  0.041372929   -3.1220994    1.4478606   300435 
 3363000   0.65939517   -3.1208102   -1.6735584  0.041374438   -3.1208102    1.4472518   300066 
 3364000   0.65765162   -3.1190746   -1.6740121  0.042042779   -3.1190746    1.4450624   299726 
 3365000   0.65614326   -3.1150191   -1.6716143  0.046028126   -3.1150191    1.4434047   299382 
 3366000   0.65615764   -3.1153222   -1.6703076   0.04247719   -3.1153222    1.4450147   299055 
 3367000   0.65572626   -3.1126674   -1.6669978  0.044454045   -3.1126674    1.4456696   298723 
 3368000   0.65681873   -3.1133532   -1.6637659  0.046235615   -3.1133532    1.4495873   298412 
 3369000   0.65774093   -3.1145526   -1.6614302  0.046355522   -3.1145526    1.4531224   298104 
 3370000    0.6540745   -3.1056503   -1.6590218  0.046643594   -3.1056503    1.4466286   297773 
 3371000   0.65500145     -3.10662   -1.6565145  0.051104768     -3.10662    1.4501056   297480 
 3372000   0.65378203   -3.1027219   -1.6537428  0.045354046   -3.1027219    1.4489792   297157 
 3373000   0.65222791   -3.0959449   -1.6489347  0.049344029   -3.0959449    1.4470103   296854 
 3374000   0.65258032   -3.0933586   -1.6440042  0.048415554   -3.0933586    1.4493545   296534 
 3375000   0.65209077   -3.0878164   -1.6379601   0.04697149   -3.0878164    1.4498562   296209 
 3376000   0.65223531   -3.0859343   -1.6338989  0.048303342   -3.0859343    1.4520355   295830 
 3377000   0.65239727   -3.0833891   -1.6293515  0.048405701   -3.0833891    1.4540377   295496 
 3378000   0.65043767   -3.0775492   -1.6261402  0.053253049   -3.0775492     1.451409   295142 
 3379000   0.65028499   -3.0755691   -1.6226154  0.051321637   -3.0755691    1.4529537   294759 
 3380000   0.64969332   -3.0715021   -1.6181298  0.050716625   -3.0715021    1.4533723   294406 
 3381000   0.64903997   -3.0662085   -1.6124361  0.047843995   -3.0662085    1.4537724   294029 
 3382000   0.64844537   -3.0626407   -1.6083404  0.050297499   -3.0626407    1.4543003   293653 
 3383000   0.64892413   -3.0613192   -1.6040246  0.051171553   -3.0613192    1.4572945   293266 
 3384000    0.6494155   -3.0603403     -1.60008   0.05419093   -3.0603403    1.4602603   292892 
 3385000   0.65043324   -3.0572188      -1.5927  0.055368593   -3.0572188    1.4645188   292498 
 3386000   0.64944098   -3.0516346   -1.5872924  0.052718855   -3.0516346    1.4643422   292087 
 3387000    0.6495828   -3.0491331   -1.5825681    0.0525834   -3.0491331     1.466565   291708 
 3388000   0.64828206   -3.0429284   -1.5773155   0.05372759   -3.0429284    1.4656129   291313 
 3389000   0.64763737   -3.0359234   -1.5697649  0.056951407   -3.0359234    1.4661585   290915 
 3390000   0.64826902   -3.0323574   -1.5627888  0.055657339   -3.0323574    1.4695687   290523 
 3391000   0.64614389   -3.0254991   -1.5587689   0.05678391   -3.0254991    1.4667302   290131 
 3392000   0.64702406   -3.0226675   -1.5518101  0.056600331   -3.0226675    1.4708574   289711 
 3393000   0.64701593   -3.0191242   -1.5463128  0.059917024   -3.0191242    1.4728114   289323 
 3394000     0.647601   -3.0170128   -1.5409155  0.062602303   -3.0170128    1.4760973   288940 
 3395000   0.64653324   -3.0110015   -1.5352746  0.062172574   -3.0110015    1.4757269   288536 
 3396000   0.64629738   -3.0062325   -1.5288577  0.057687987   -3.0062325    1.4773749   288109 
 3397000   0.64429608   -2.9986532   -1.5238875  0.056959421   -2.9986532    1.4747657   287725 
 3398000   0.64387058   -2.9921894   -1.5161661  0.055645202   -2.9921894    1.4760233   287290 
 3399000   0.64291714   -2.9859975   -1.5100073  0.055957353   -2.9859975    1.4759903   286871 
 3400000   0.64240604   -2.9808082   -1.5038186   0.05362227   -2.9808082    1.4769896   286449 
 3401000   0.64159488   -2.9745764   -1.4972393   0.05384701   -2.9745764    1.4773371   286020 
 3402000   0.64049938   -2.9680617   -1.4909852  0.056145353   -2.9680617    1.4770766   285582 
 3403000    0.6397388   -2.9636637   -1.4862148  0.052792214   -2.9636637    1.4774489   285171 
 3404000   0.63885724   -2.9558674   -1.4782575  0.054036346   -2.9558674    1.4776099   284747 
 3405000    0.6363205   -2.9465208    -1.472573  0.053789241   -2.9465208    1.4739478   284321 
 3406000   0.63628782    -2.943169   -1.4669605  0.055680333    -2.943169    1.4762085   283871 
 3407000   0.63580312   -2.9393169   -1.4620002  0.055649536   -2.9393169    1.4773166   283442 
 3408000   0.63610087   -2.9390242   -1.4587126   0.05585038   -2.9390242    1.4803116   283001 
 3409000   0.63288401   -2.9299032   -1.4548782  0.054680797   -2.9299032     1.475025   282579 
 3410000   0.63261058   -2.9263346   -1.4495848  0.054055187   -2.9263346    1.4767498   282127 
 3411000   0.63072878    -2.919311   -1.4447169  0.053735847    -2.919311     1.474594   281699 
 3412000   0.63208761    -2.920724   -1.4405202  0.054965615    -2.920724    1.4802037   281236 
 3413000    0.6270398   -2.9071139   -1.4365138   0.05464476   -2.9071139    1.4706001   280812 
 3414000   0.62907442    -2.909893   -1.4323744  0.054493546    -2.909893    1.4775186   280404 
 3415000   0.62842099   -2.9054287   -1.4273152  0.054518739   -2.9054287    1.4781135   280000 
 3416000    0.6256548   -2.8982725   -1.4245337   0.05327088   -2.8982725    1.4737388   279595 
 3417000   0.62499439   -2.8962402   -1.4218528  0.054572153   -2.8962402    1.4743874   279177 
 3418000   0.62468527   -2.8940104   -1.4181001  0.055577134   -2.8940104    1.4759103   278751 
 3419000   0.62309297   -2.8907603   -1.4162422  0.052849613   -2.8907603    1.4745181   278303 
 3420000   0.62224504   -2.8877088   -1.4128603  0.049904357   -2.8877088    1.4748485   277862 
 3421000   0.62148858   -2.8844759   -1.4092435  0.051053224   -2.8844759    1.4752323   277452 
 3422000   0.62076399   -2.8844746   -1.4088934  0.053070201   -2.8844746    1.4755812   277063 
 3423000   0.62237451   -2.8870163   -1.4054036  0.056059398   -2.8870163    1.4816127   276651 
 3424000    0.6195855   -2.8810566   -1.4038836  0.054006245   -2.8810566    1.4771731   276239 
 3425000   0.61934088    -2.880747   -1.4017532   0.05805823    -2.880747    1.4789938   275790 
 3426000   0.61863689     -2.87872   -1.3992938  0.059321099     -2.87872    1.4794262   275396 
 3427000   0.61717524   -2.8765247   -1.3982912  0.056215183   -2.8765247    1.4782335   274967 
 3428000   0.61645481   -2.8764842   -1.3977121  0.053728227   -2.8764842    1.4787721   274546 
 3429000   0.61321878   -2.8693353    -1.396056  0.053564265   -2.8693353    1.4732794   274123 
 3430000    0.6134899   -2.8722602   -1.3960516  0.049416634   -2.8722602    1.4762087   273700 
 3431000   0.61219789    -2.871997     -1.39659  0.052706401    -2.871997    1.4754069   273272 
 3432000   0.61235622    -2.874846   -1.3967045  0.050730255    -2.874846    1.4781415   272837 
 3433000   0.61214116   -2.8756479   -1.3956822  0.053853517   -2.8756479    1.4799657   272405 
 3434000   0.61126144   -2.8769496   -1.3966763  0.056556932   -2.8769496    1.4802733   271957 
 3435000    0.6090577   -2.8737157    -1.396204  0.053024071   -2.8737157    1.4775117   271483 
 3436000    0.6064391   -2.8709287   -1.3972072  0.050424185   -2.8709287    1.4737215   271011 
 3437000   0.60582994   -2.8723635   -1.3976519  0.051273626   -2.8723635    1.4747116   270557 
 3438000   0.60511684   -2.8760984   -1.4005266  0.050411582   -2.8760984    1.4755718   270081 
 3439000   0.60397154   -2.8795712   -1.4041865  0.052360775   -2.8795712    1.4753847   269604 
 3440000   0.60300867   -2.8826598   -1.4070219  0.053961756   -2.8826598    1.4756379   269128 
 3441000   0.60212643   -2.8853983   -1.4093196  0.052134537   -2.8853983    1.4760787   268654 
 3442000   0.60083966   -2.8876418   -1.4120977  0.053881132   -2.8876418    1.4755441   268177 
 3443000   0.59850916   -2.8862766   -1.4139028  0.052720365   -2.8862766    1.4723738   267712 
 3444000    0.5969147   -2.8881871   -1.4169659  0.050827978   -2.8881871    1.4712211   267208 
 3445000   0.59424269   -2.8890401   -1.4216644  0.047302318   -2.8890401    1.4673756   266709 
 3446000   0.59457654   -2.8956092   -1.4246073  0.049864796   -2.8956092    1.4710018   266201 
 3447000    0.5933687   -2.8975181    -1.426742  0.053017631   -2.8975181    1.4707761   265701 
 3448000   0.59350543   -2.9034005   -1.4295674  0.055389756   -2.9034005    1.4738331   265211 
 3449000   0.59279507   -2.9089711   -1.4341159   0.04929249   -2.9089711    1.4748552   264710 
 3450000   0.59028591   -2.9097361   -1.4384724  0.052395885   -2.9097361    1.4712636   264233 
 3451000   0.58654507   -2.9078615   -1.4430391   0.04329192   -2.9078615    1.4648224   263713 
 3452000    0.5853278   -2.9115344   -1.4470864  0.044182438   -2.9115344     1.464448   263233 
 3453000   0.58366863   -2.9162852   -1.4531926  0.046073401   -2.9162852    1.4630926   262730 
 3454000   0.58227967   -2.9206559   -1.4583623  0.047161089   -2.9206559    1.4622936   262248 
 3455000   0.58270763   -2.9290654   -1.4628233  0.043842798   -2.9290654    1.4662421   261734 
 3456000   0.58062703   -2.9316695    -1.468012  0.049443613   -2.9316695    1.4636575   261260 
 3457000   0.57984076   -2.9383161   -1.4738885  0.051074582   -2.9383161    1.4644276   260769 
 3458000   0.57622983   -2.9393561   -1.4812972  0.045431622   -2.9393561    1.4580589   260277 
 3459000   0.57576131   -2.9461617   -1.4866022    0.0463965   -2.9461617    1.4595595   259798 
 3460000   0.57306049   -2.9472284   -1.4919443  0.042842314   -2.9472284    1.4552841   259339 
 3461000   0.57112363   -2.9499596   -1.4967364  0.045029439   -2.9499596    1.4532232   258829 
 3462000   0.57138347   -2.9596941   -1.5031141  0.043309411   -2.9596941      1.45658   258350 
 3463000   0.56942466   -2.9629014   -1.5086298  0.042770456   -2.9629014    1.4542716   257873 
 3464000   0.56757484   -2.9674602    -1.515221  0.040488353   -2.9674602    1.4522392   257395 
 3465000   0.56644407    -2.970683   -1.5187253  0.046456597    -2.970683    1.4519577   256932 
 3466000   0.56514884   -2.9765765    -1.524984  0.039235734   -2.9765765    1.4515925   256409 
 3467000   0.56350188   -2.9829513   -1.5327952  0.044533473   -2.9829513    1.4501561   255915 
 3468000   0.56081945   -2.9836401   -1.5377204   0.04271921   -2.9836401    1.4459198   255443 
 3469000   0.56000168   -2.9890728   -1.5424752  0.042409487   -2.9890728    1.4465976   254951 
 3470000   0.55675099   -2.9856914   -1.5447952  0.042481084   -2.9856914    1.4408963   254474 
 3471000   0.55521397   -2.9903968   -1.5508309  0.040072567   -2.9903968    1.4395659   254006 
 3472000   0.55375735   -2.9937484   -1.5554338  0.038065264   -2.9937484    1.4383146   253560 
 3473000   0.55438628   -3.0008078   -1.5584478  0.039754691   -3.0008078    1.4423601   253136 
 3474000    0.5517305   -3.0007912   -1.5629722  0.044303883   -3.0007912    1.4378191   252719 
 3475000   0.55227141   -3.0067188   -1.5651057  0.039832314   -3.0067188    1.4416131   252301 
 3476000   0.55073347   -3.0072659   -1.5674017  0.043920657   -3.0072659    1.4398642   251904 
 3477000   0.54865398   -3.0031008   -1.5664091  0.041828555   -3.0031008    1.4366917   251507 
 3478000   0.54724394   -3.0018725   -1.5667847  0.040139735   -3.0018725    1.4350878   251141 
 3479000    0.5452416   -2.9990519   -1.5672367  0.041674235   -2.9990519    1.4318152   250794 
 3480000   0.54438293   -2.9969358   -1.5654462  0.043394854   -2.9969358    1.4314896   250456 
 3481000   0.54352232   -2.9922586   -1.5612551  0.045129409   -2.9922586    1.4310035   250145 
 3482000   0.54281634   -2.9911783   -1.5603634  0.040743551   -2.9911783     1.430815   249853 
 3483000   0.54407469   -2.9950389   -1.5591715   0.04482541   -2.9950389    1.4358674   249551 
 3484000   0.54180024   -2.9905417   -1.5591453  0.041885921   -2.9905417    1.4313964   249284 
 3485000   0.54284487   -2.9918298   -1.5560552  0.045765476   -2.9918298    1.4357747   249003 
 3486000   0.53977677   -2.9813109   -1.5519002  0.043447232   -2.9813109    1.4294107   248698 
 3487000   0.54066111    -2.982324   -1.5488596  0.041524693    -2.982324    1.4334644   248401 
 3488000   0.53941159   -2.9781332   -1.5462754  0.044457763   -2.9781332    1.4318578   248105 
 3489000   0.54016923   -2.9773308   -1.5417202  0.046755625   -2.9773308    1.4356106   247804 
 3490000   0.53905334   -2.9706401   -1.5362123  0.047767364   -2.9706401    1.4344278   247496 
 3491000   0.53861716   -2.9644831   -1.5293314  0.045223888   -2.9644831    1.4351517   247171 
 3492000   0.53806817   -2.9609519   -1.5254394  0.044980485   -2.9609519    1.4355125   246857 
 3493000   0.53684019   -2.9542168    -1.519877  0.046004923   -2.9542168    1.4343398   246495 
 3494000     0.537582    -2.952283   -1.5139657  0.050886237    -2.952283    1.4383174   246153 
 3495000   0.53851095   -2.9497104   -1.5069676  0.049398847   -2.9497104    1.4427428   245822 
 3496000   0.53713242   -2.9416885   -1.5005754  0.047830544   -2.9416885    1.4411131   245470 
 3497000   0.53625404   -2.9343839   -1.4936318  0.052989382   -2.9343839    1.4407521   245130 
 3498000    0.5366304   -2.9312236   -1.4872868  0.052585625   -2.9312236    1.4439368   244761 
 3499000   0.53710009   -2.9235826    -1.476034  0.053575462   -2.9235826    1.4475485   244364 
 3500000   0.53796661    -2.920421   -1.4684217  0.051806615    -2.920421    1.4519992   244008 
 3501000   0.53774593   -2.9152202   -1.4614036   0.05897778   -2.9152202    1.4538166   243603 
 3502000   0.54100263   -2.9187722   -1.4538538  0.058092247   -2.9187722    1.4649184   243221 
 3503000   0.54104109   -2.9141775   -1.4467175   0.06459202   -2.9141775    1.4674601   242817 
 3504000   0.54104866   -2.9082378   -1.4383601  0.068730977   -2.9082378    1.4698778   242421 
 3505000   0.54312744   -2.9077066   -1.4298648   0.06772174   -2.9077066    1.4778418   242041 
 3506000   0.54182829   -2.8996121   -1.4229137  0.066927427   -2.8996121    1.4766984   241649 
 3507000   0.53842885   -2.8840686    -1.414208  0.063576683   -2.8840686    1.4698605   241250 
 3508000   0.53698967   -2.8740246   -1.4056949  0.056006272   -2.8740246    1.4683297   240856 
 3509000   0.53443524   -2.8609744   -1.3970524  0.053380895   -2.8609744     1.463922   240432 
 3510000   0.53245734   -2.8513804   -1.3903788  0.054383791   -2.8513804    1.4610017   240021 
 3511000   0.53089234   -2.8408874   -1.3816447  0.050514686   -2.8408874    1.4592427   239604 
 3512000   0.52918828    -2.831873   -1.3747966  0.047266263    -2.831873    1.4570764   239190 
 3513000   0.52861791   -2.8249358   -1.3668818  0.051646813   -2.8249358     1.458054   238772 
 3514000   0.52740408   -2.8154823   -1.3582803   0.05018342   -2.8154823    1.4572021   238363 
 3515000   0.52730051   -2.8087066   -1.3491884  0.048043742   -2.8087066    1.4595182   237938 
 3516000   0.52706581   -2.8025059   -1.3411191  0.050440358   -2.8025059    1.4613868   237528 
 3517000     0.525685   -2.7958904   -1.3359412  0.051162284   -2.7958904    1.4599492   237139 
 3518000   0.52587999   -2.7903347   -1.3273083  0.049602162   -2.7903347    1.4630264   236728 
 3519000   0.52421709   -2.7822647   -1.3212478  0.051257127   -2.7822647    1.4610169   236304 
 3520000   0.52346409   -2.7741566   -1.3127956  0.050961479   -2.7741566     1.461361   235909 
 3521000   0.52381823   -2.7719435   -1.3074086  0.049588997   -2.7719435    1.4645349   235557 
 3522000   0.52324615   -2.7658304   -1.3003878  0.052059786   -2.7658304    1.4654426   235154 
 3523000   0.52126933   -2.7558091   -1.2933843  0.048013524   -2.7558091    1.4624248   234749 
 3524000    0.5213412   -2.7531002   -1.2880711  0.049503971   -2.7531002    1.4650292   234364 
 3525000   0.52152445   -2.7489266    -1.280858   0.04969762   -2.7489266    1.4680686   233961 
 3526000   0.52080778   -2.7450053   -1.2767136  0.049680123   -2.7450053    1.4682916   233604 
 3527000    0.5192878   -2.7374939   -1.2709009  0.052344332   -2.7374939     1.466593   233192 
 3528000   0.51839679   -2.7346966   -1.2684193  0.050260654   -2.7346966    1.4662773   232842 
 3529000   0.51821166   -2.7321398   -1.2639648  0.047069073   -2.7321398     1.468175   232458 
 3530000   0.51653908   -2.7256411   -1.2596443  0.049924195   -2.7256411    1.4659967   232052 
 3531000   0.51604161   -2.7240802   -1.2570044  0.055769956   -2.7240802    1.4670758   231658 
 3532000   0.51607729   -2.7232266   -1.2535688  0.054973009   -2.7232266    1.4696578   231267 
 3533000   0.51624019   -2.7231979   -1.2506631  0.052800926   -2.7231979    1.4725349   230888 
 3534000   0.51401263   -2.7172458   -1.2484694  0.053720864   -2.7172458    1.4687764   230480 
 3535000   0.51182049    -2.711296   -1.2462156  0.051137864    -2.711296    1.4650805   230076 
 3536000   0.51129188   -2.7088604   -1.2426611  0.053411176   -2.7088604    1.4661992   229663 
 3537000   0.51116308   -2.7089812   -1.2406323  0.049058471   -2.7089812     1.468349   229269 
 3538000     0.510725   -2.7103441   -1.2406767  0.051188778   -2.7103441    1.4696674   228867 
 3539000   0.50792145   -2.7037021   -1.2395048  0.054363384   -2.7037021    1.4641973   228461 
 3540000   0.50804088   -2.7060715   -1.2389355  0.054596818   -2.7060715     1.467136   228057 
 3541000   0.50816891   -2.7070822   -1.2370303  0.051613627   -2.7070822    1.4700519   227662 
 3542000   0.50667188   -2.7034723   -1.2349903  0.053657631   -2.7034723     1.468482   227234 
 3543000   0.50546057   -2.7038298   -1.2361329  0.052104701   -2.7038298    1.4676969   226812 
 3544000   0.50367042   -2.7011816   -1.2360472  0.051169467   -2.7011816    1.4651345   226404 
 3545000   0.50338187    -2.702573    -1.235433  0.051801898    -2.702573    1.4671399   225965 
 3546000   0.50174215   -2.7006624   -1.2356629  0.048579929   -2.7006624    1.4649995   225558 
 3547000   0.50047278   -2.7017814   -1.2376711  0.050798875   -2.7017814    1.4641103   225124 
 3548000   0.50005807   -2.7047858   -1.2390435  0.052248755   -2.7047858    1.4657423   224687 
 3549000   0.49876565   -2.7066374   -1.2418475    0.0499827   -2.7066374    1.4647899   224252 
 3550000    0.4978218    -2.708929   -1.2440041  0.051647899    -2.708929     1.464925   223807 
 3551000   0.49538582   -2.7052499   -1.2446413  0.050553694   -2.7052499    1.4606086   223370 
 3552000   0.49417549    -2.705406   -1.2455425  0.052184957    -2.705406    1.4598634   222938 
 3553000    0.4932602   -2.7073107   -1.2472433  0.052351067   -2.7073107    1.4600674   222494 
 3554000   0.49152957   -2.7064957   -1.2487206  0.049553787   -2.7064957    1.4577751   222062 
 3555000   0.49109969    -2.711015   -1.2513135  0.049605382    -2.711015    1.4597014   221575 
 3556000   0.49015743   -2.7132709   -1.2532138  0.053166316   -2.7132709    1.4600571   221096 
 3557000   0.48906363   -2.7171444   -1.2570634  0.050618754   -2.7171444     1.460081   220599 
 3558000     0.487949   -2.7199023   -1.2602044   0.04627058   -2.7199023    1.4596979   220154 
 3559000   0.48502301   -2.7190227   -1.2647949  0.050770687   -2.7190227    1.4542277   219657 
 3560000    0.4852517   -2.7236985   -1.2657651  0.047474046   -2.7236985    1.4579334   219202 
 3561000   0.48275957   -2.7227477   -1.2690324   0.04538542   -2.7227477    1.4537153   218709 
 3562000   0.48110343   -2.7250834   -1.2730755  0.048729869   -2.7250834    1.4520079   218215 
 3563000   0.48114926   -2.7297465   -1.2744992  0.049307324   -2.7297465    1.4552473   217750 
 3564000   0.47986093   -2.7322886   -1.2777115  0.051379194   -2.7322886    1.4545771   217267 
 3565000   0.47937419   -2.7378428   -1.2815909  0.047994383   -2.7378428    1.4562519   216797 
 3566000   0.47514322   -2.7326039   -1.2861291  0.046889873   -2.7326039    1.4464748   216336 
 3567000   0.47520461   -2.7399476   -1.2902301  0.042995308   -2.7399476    1.4497174   215880 
 3568000   0.47304176   -2.7393569   -1.2929949  0.047706322   -2.7393569    1.4463619   215396 
 3569000   0.47117881   -2.7395109   -1.2955872  0.047958186   -2.7395109    1.4439238   214910 
 3570000   0.47034023   -2.7420057   -1.2975129  0.046981498   -2.7420057    1.4444928   214443 
 3571000   0.46828097   -2.7411306   -1.2998368  0.044927532   -2.7411306    1.4412938   213978 
 3572000   0.46690056   -2.7422429   -1.3020749  0.050065845   -2.7422429    1.4401681   213514 
 3573000   0.46615155   -2.7463441   -1.3054158  0.044402678   -2.7463441    1.4409283   213059 
 3574000   0.46593461   -2.7488031   -1.3056599  0.044451961   -2.7488031    1.4431432   212633 
 3575000     0.465986    -2.752325   -1.3060025  0.044147628    -2.752325    1.4463225   212189 
 3576000   0.46282213   -2.7454894   -1.3062603   0.04645153   -2.7454894    1.4392292   211787 
 3577000   0.46119438   -2.7427704   -1.3059096  0.045589158   -2.7427704    1.4368608   211390 
 3578000   0.46052789   -2.7422456   -1.3047411  0.047056063   -2.7422456    1.4375044   210990 
 3579000   0.46134925   -2.7479998   -1.3051825   0.04666307   -2.7479998    1.4428173   210588 
 3580000   0.45898807   -2.7415898   -1.3036372  0.044870236   -2.7415898    1.4379526   210219 
 3581000   0.45782051   -2.7390068   -1.3022789  0.049413817   -2.7390068    1.4367278   209863 
 3582000   0.45784827   -2.7393872   -1.3001102  0.046283615   -2.7393872     1.439277   209504 
 3583000   0.45707684   -2.7379475   -1.2986704  0.046530059   -2.7379475    1.4392771   209151 
 3584000   0.45546345   -2.7299801   -1.2934137   0.04784525   -2.7299801    1.4365664   208806 
 3585000   0.45599139   -2.7279784   -1.2874427  0.045504273   -2.7279784    1.4405358   208472 
 3586000    0.4546033   -2.7237259   -1.2851324  0.047790321   -2.7237259    1.4385934   208118 
 3587000   0.45459353   -2.7194071   -1.2784836  0.045687755   -2.7194071    1.4409235   207777 
 3588000   0.45205968   -2.7098551   -1.2745662  0.048307498   -2.7098551    1.4352889   207430 
 3589000   0.45192551       -2.708    -1.270698  0.048407379       -2.708     1.437302   207078 
 3590000   0.45084188   -2.7034251   -1.2672183  0.049975332   -2.7034251    1.4362068   206739 
 3591000   0.45085897    -2.697986   -1.2592961   0.04768892    -2.697986    1.4386899   206390 
 3592000   0.45126294   -2.6969894   -1.2547603  0.047877721   -2.6969894    1.4422291   206068 
 3593000   0.45030847   -2.6907446   -1.2490193  0.046236339   -2.6907446    1.4417253   205704 
 3594000   0.44847098   -2.6836366    -1.245193   0.05167472   -2.6836366    1.4384436   205332 
 3595000    0.4484309   -2.6794825   -1.2389576   0.04562485   -2.6794825     1.440525   205017 
 3596000   0.44746586   -2.6740069   -1.2340395  0.050572732   -2.6740069    1.4399675   204655 
 3597000   0.44678304   -2.6666863   -1.2263403  0.048208333   -2.6666863     1.440346   204289 
 3598000   0.44698748   -2.6636192    -1.220219  0.051913835   -2.6636192    1.4434003   203950 
 3599000   0.44615724   -2.6571564   -1.2139037  0.048217976   -2.6571564    1.4432527   203592 
 3600000   0.44631388   -2.6525134   -1.2059475  0.049899844   -2.6525134    1.4465659   203197 
 3601000   0.44535239   -2.6428933   -1.1968248  0.049529864   -2.6428933    1.4460685   202829 
 3602000   0.44481356   -2.6361182   -1.1891883  0.049123209   -2.6361182    1.4469299   202463 
 3603000   0.44445991    -2.629213   -1.1807076  0.049082389    -2.629213    1.4485053   202082 
 3604000   0.44431283   -2.6220804   -1.1712689  0.051375965   -2.6220804    1.4508116   201694 
 3605000   0.44378636   -2.6151264   -1.1631255  0.048680437   -2.6151264    1.4520009   201290 
 3606000   0.44356723   -2.6090762    -1.155098  0.052024754   -2.6090762    1.4539782   200917 
 3607000    0.4435869   -2.6029208    -1.145883  0.050077818   -2.6029208    1.4570378   200504 
 3608000   0.44210841   -2.5920103   -1.1371296  0.051704647   -2.5920103    1.4548807   200132 
 3609000   0.44163016   -2.5871663   -1.1309417  0.052521457   -2.5871663    1.4562246   199731 
 3610000   0.44107464   -2.5781135   -1.1208313  0.053448828   -2.5781135    1.4572822   199335 
 3611000   0.44038452   -2.5718307    -1.114057  0.050810131   -2.5718307    1.4577738   198956 
 3612000   0.44013915   -2.5643661   -1.1043959  0.050320072   -2.5643661    1.4599702   198546 
 3613000   0.43859406   -2.5513906   -1.0934615  0.053859295   -2.5513906    1.4579291   198126 
 3614000   0.43778806   -2.5413463   -1.0831304  0.048566136   -2.5413463     1.458216   197723 
 3615000   0.43920363   -2.5392772   -1.0734623  0.051501301   -2.5392772    1.4658149   197334 
 3616000   0.43802049   -2.5286663   -1.0638233  0.053289252   -2.5286663     1.464843   196933 
 3617000   0.43626567   -2.5178255   -1.0556808  0.047019369   -2.5178255    1.4621447   196506 
 3618000   0.43482342   -2.5067292   -1.0463563  0.050569235   -2.5067292    1.4603729   196094 
 3619000   0.43563732   -2.5039106   -1.0375364  0.050066237   -2.5039106    1.4663742   195657 
 3620000   0.43479148   -2.4979989   -1.0311882  0.052261631   -2.4979989    1.4668107   195219 
 3621000   0.43363413   -2.4884447   -1.0223241  0.052885185   -2.4884447    1.4661206   194791 
 3622000   0.43392061    -2.484614   -1.0144455  0.052272573    -2.484614    1.4701686   194383 
 3623000   0.43118486   -2.4706128   -1.0063914  0.051302665   -2.4706128    1.4642215   193942 
 3624000   0.43240951   -2.4693443  -0.99794461  0.051378674   -2.4693443    1.4713997   193544 
 3625000   0.43229021   -2.4644622  -0.99054416  0.051902286   -2.4644622     1.473918   193160 
 3626000   0.43077769   -2.4568317  -0.98493121  0.052638998   -2.4568317    1.4719005   192748 
 3627000   0.42795701   -2.4419414  -0.97639407  0.049160822   -2.4419414    1.4655474   192316 
 3628000   0.42845229   -2.4396265  -0.96910267  0.051176156   -2.4396265    1.4705238   191887 
 3629000   0.42887007   -2.4397569  -0.96477065  0.054779588   -2.4397569    1.4749862   191493 
 3630000   0.42831756   -2.4363468  -0.96026225  0.055977872   -2.4363468    1.4760846   191104 
 3631000   0.42651432   -2.4248751  -0.95200684  0.055980501   -2.4248751    1.4728682   190715 
 3632000   0.42671638   -2.4194168  -0.94283899  0.051691564   -2.4194168    1.4765778   190326 
 3633000    0.4262743   -2.4142146  -0.93589658  0.054306173   -2.4142146    1.4783181   189905 
 3634000   0.42545328   -2.4093831  -0.93063409  0.056562985   -2.4093831     1.478749   189484 
 3635000   0.42478009   -2.4071427  -0.92750852  0.055886583   -2.4071427    1.4796342   189071 
 3636000   0.42249485   -2.3959668  -0.92117266  0.052481403   -2.3959668    1.4747941   188671 
 3637000   0.42210487   -2.3936546  -0.91687952  0.054509139   -2.3936546    1.4767751   188244 
 3638000   0.42122383   -2.3898668  -0.91283159   0.05355402   -2.3898668    1.4770352   187818 
 3639000   0.42030452   -2.3840477  -0.90689355  0.054397506   -2.3840477    1.4771542   187393 
 3640000   0.41871487   -2.3794705  -0.90464484  0.054293685   -2.3794705    1.4748256   186979 
 3641000   0.41765013    -2.375352   -0.9009095  0.050724959    -2.375352    1.4744425   186552 
 3642000   0.41708474   -2.3711438  -0.89536683  0.055723317   -2.3711438    1.4757769   186131 
 3643000   0.41671728   -2.3739138   -0.8959751  0.054682978   -2.3739138    1.4779387   185695 
 3644000   0.41534088   -2.3707595  -0.89452237  0.052296723   -2.3707595    1.4762371   185295 
 3645000   0.41285189    -2.361809  -0.89097349  0.050412026    -2.361809    1.4708355   184861 
 3646000   0.41369556    -2.363655  -0.88624938  0.052914045    -2.363655    1.4774056   184415 
 3647000   0.41336454   -2.3673056  -0.88764001  0.052989315   -2.3673056    1.4796656   183986 
 3648000   0.41183439   -2.3635945   -0.8859527  0.052843062   -2.3635945    1.4776418   183556 
 3649000   0.40874262   -2.3563286  -0.88609548  0.051914572   -2.3563286    1.4702331   183096 
 3650000   0.40856727   -2.3586251  -0.88550678  0.052177844   -2.3586251    1.4731183   182659 
 3651000   0.40761037   -2.3586841   -0.8853621  0.053329535   -2.3586841     1.473322   182206 
 3652000     0.407374   -2.3628367  -0.88661782  0.054018593   -2.3628367    1.4762188   181743 
 3653000   0.40421152   -2.3563161  -0.88781621  0.051255778   -2.3563161    1.4684999   181280 
 3654000   0.40431502   -2.3626129  -0.89004907  0.052773253   -2.3626129    1.4725638   180826 
 3655000   0.40338837   -2.3648486  -0.89214956   0.05430696   -2.3648486    1.4726991   180395 
 3656000    0.4021395   -2.3673393  -0.89518454  0.054358458   -2.3673393    1.4721547   179903 
 3657000    0.4005659    -2.368263   -0.8980607  0.050645062    -2.368263    1.4702023   179437 
 3658000   0.39844727   -2.3684086   -0.9021908  0.053206691   -2.3684086    1.4662178   178973 
 3659000   0.39766401   -2.3732803  -0.90613293  0.050385185   -2.3732803    1.4671473   178508 
 3660000   0.39673103   -2.3781039  -0.91046878   0.04845786   -2.3781039    1.4676352   178030 
 3661000   0.39585028   -2.3800025  -0.91163354  0.051229763   -2.3800025     1.468369   177546 
 3662000   0.39523043   -2.3843639  -0.91425352  0.047673035   -2.3843639    1.4701104   177058 
 3663000   0.39261129   -2.3819238  -0.91769358  0.050972251   -2.3819238    1.4642302   176591 
 3664000   0.39071945    -2.385793  -0.92461361  0.048979127    -2.385793    1.4611794   176107 
 3665000   0.38991884   -2.3920664  -0.92997069  0.050579158   -2.3920664    1.4620958   175636 
 3666000   0.38844342    -2.395995  -0.93555684   0.04728757    -2.395995    1.4604381   175170 
 3667000   0.38788873    -2.404619  -0.94222564  0.048450062    -2.404619    1.4623933   174686 
 3668000   0.38649095    -2.409084  -0.94785337  0.050506829    -2.409084    1.4612307   174195 
 3669000   0.38457365   -2.4112182  -0.95331114   0.04822702   -2.4112182    1.4579071   173726 
 3670000   0.38175627   -2.4089955  -0.95757502  0.047891969   -2.4089955    1.4514205   173224 
 3671000   0.38126573   -2.4163911  -0.96294241  0.048969603   -2.4163911    1.4534487   172760 
 3672000   0.38051451   -2.4184096   -0.9639435    0.0480372   -2.4184096    1.4544661   172299 
 3673000   0.37928596   -2.4213311   -0.9676547  0.046806871   -2.4213311    1.4536764   171836 
 3674000   0.37667173   -2.4193808  -0.97140106  0.046028838   -2.4193808    1.4479797   171323 
 3675000   0.37547556   -2.4263594  -0.97873617  0.044396744   -2.4263594    1.4476232   170821 
 3676000   0.37417612   -2.4274645  -0.98092199  0.048389579   -2.4274645    1.4465425   170357 
 3677000   0.37216306    -2.424798  -0.98238004  0.047149206    -2.424798    1.4424179   169925 
 3678000   0.37109552   -2.4281215   -0.9858093  0.047343341   -2.4281215    1.4423122   169450 
 3679000   0.37013588   -2.4300749  -0.98802037  0.043990545   -2.4300749    1.4420546   169042 
 3680000   0.36860213   -2.4265536       -0.987  0.046322712   -2.4265536    1.4395536   168634 
 3681000   0.36813794   -2.4276471  -0.98640232   0.04851791   -2.4276471    1.4412448   168224 
 3682000   0.36620391   -2.4223714  -0.98553795  0.047874367   -2.4223714    1.4368334   167854 
 3683000   0.36453374   -2.4184786  -0.98508132  0.046603747   -2.4184786    1.4333973   167489 
 3684000   0.36436543   -2.4173243   -0.9815027  0.046152035   -2.4173243    1.4358216   167129 
 3685000   0.36417084   -2.4148825   -0.9770661  0.045882737   -2.4148825    1.4378164   166808 
 3686000   0.36370795   -2.4090915  -0.97008336  0.047479999   -2.4090915    1.4390082   166458 
 3687000   0.36089185   -2.3986604  -0.96797499  0.046622413   -2.3986604    1.4306854   166130 
 3688000   0.36179729   -2.3977362  -0.96070197  0.046634942   -2.3977362    1.4370342   165811 
 3689000   0.36202924   -2.3938948  -0.95294119  0.050670405   -2.3938948    1.4409537   165466 
 3690000   0.35978478    -2.382404  -0.94762638  0.047068561    -2.382404    1.4347777   165148 
 3691000   0.35976751    -2.377585  -0.94025659  0.048478846    -2.377585    1.4373284   164847 
 3692000   0.35868938   -2.3694988  -0.93336744   0.04721668   -2.3694988    1.4361313   164490 
 3693000   0.35894767   -2.3659815  -0.92592701  0.049948167   -2.3659815    1.4400545   164160 
 3694000   0.35721583   -2.3563539  -0.92038699  0.047155924   -2.3563539    1.4359669   163833 
 3695000   0.35682059    -2.348485  -0.91140525  0.046597567    -2.348485    1.4370798   163525 
 3696000   0.35596832   -2.3407224  -0.90396479  0.047250958   -2.3407224    1.4367576   163171 
 3697000   0.35451675   -2.3321927  -0.89786571   0.04698324   -2.3321927     1.434327   162781 
 3698000   0.35352502     -2.32189  -0.88836103  0.046217894     -2.32189     1.433529   162416 
 3699000   0.35459987   -2.3197872  -0.87872338  0.047306605   -2.3197872    1.4410639   162058 
 3700000   0.35475079   -2.3123875  -0.86732181  0.049594009   -2.3123875    1.4450657   161678 
 3701000   0.35314464   -2.2992377  -0.85732568  0.048691826   -2.2992377     1.441912   161298 
 3702000   0.35230493   -2.2873637   -0.8455371  0.046881477   -2.2873637    1.4418266   160924 
 3703000   0.35249982    -2.280657  -0.83458218  0.048430118    -2.280657    1.4460749   160540 
 3704000   0.35100261   -2.2654146  -0.82162368  0.048032198   -2.2654146    1.4437909   160111 
 3705000   0.35131064   -2.2570517  -0.80828381  0.050613719   -2.2570517    1.4487679   159701 
 3706000   0.35229877   -2.2529303  -0.79669544  0.048600888   -2.2529303    1.4562349   159329 
 3707000   0.35030504   -2.2364114    -0.785029  0.045198341   -2.2364114    1.4513824   158957 
 3708000   0.35085409   -2.2275687  -0.77029938  0.046980544   -2.2275687    1.4572693   158563 
 3709000   0.35029063    -2.217686  -0.75894836  0.048676478    -2.217686    1.4587377   158149 
 3710000   0.34877515   -2.2020522  -0.74559177  0.049299884   -2.2020522    1.4564604   157711 
 3711000   0.34877489    -2.194749  -0.73456774  0.051324125    -2.194749    1.4601813   157309 
 3712000   0.34877993    -2.184083  -0.71983158  0.049660231    -2.184083    1.4642514   156874 
 3713000   0.34737735   -2.1697893  -0.70756732  0.049279323   -2.1697893     1.462222   156460 
 3714000    0.3464507   -2.1552129  -0.69302247  0.049526495   -2.1552129    1.4621904   156046 
 3715000   0.34623111   -2.1479368  -0.68271072  0.050219649   -2.1479368    1.4652261   155624 
 3716000   0.34546825   -2.1360792  -0.67046505  0.047405805   -2.1360792    1.4656141   155240 
 3717000    0.3440019   -2.1233263   -0.6601629  0.049020429   -2.1233263    1.4631634   154840 
 3718000   0.34325474   -2.1085571   -0.6448282  0.050290341   -2.1085571    1.4637289   154444 
 3719000    0.3440133   -2.1016224  -0.63076369  0.051286562   -2.1016224    1.4708587   154035 
 3720000   0.34283327   -2.0899817   -0.6203998  0.050229239   -2.0899817    1.4695819   153640 
 3721000   0.34120484   -2.0762565  -0.60958831  0.052805413   -2.0762565    1.4666681   153214 
 3722000   0.34033412   -2.0655316  -0.59872889  0.050591436   -2.0655316    1.4668027   152809 
 3723000   0.33983464   -2.0528616   -0.5841364  0.049027283   -2.0528616    1.4687252   152385 
 3724000   0.34048161   -2.0490989  -0.57377267  0.051527116   -2.0490989    1.4753262   151992 
 3725000   0.33914391   -2.0345196  -0.56111215  0.050886967   -2.0345196    1.4734075   151592 
 3726000   0.33859451   -2.0261405  -0.55084756  0.052459578   -2.0261405     1.475293   151153 
 3727000   0.33881748   -2.0217287  -0.54141951  0.050938475   -2.0217287    1.4803092   150740 
 3728000   0.33715887   -2.0077745  -0.53072376  0.051622417   -2.0077745    1.4770507   150333 
 3729000   0.33606758   -1.9971553  -0.52083943  0.050837233   -1.9971553    1.4763158   149921 
 3730000   0.33592888   -1.9918462  -0.51228086  0.053318399   -1.9918462    1.4795653   149530 
 3731000   0.33461345   -1.9795264  -0.50203961  0.052378743   -1.9795264    1.4774868   149154 
 3732000   0.33440746   -1.9725901  -0.49198253   0.05356235   -1.9725901    1.4806075   148748 
 3733000   0.33335493   -1.9628411   -0.4826247  0.052486357   -1.9628411    1.4802164   148319 
 3734000   0.33227101   -1.9531085  -0.47353522  0.053891142   -1.9531085    1.4795733   147901 
 3735000   0.33191805   -1.9462898   -0.4643806   0.05381556   -1.9462898    1.4819092   147511 
 3736000   0.33144527   -1.9403557  -0.45658414  0.053469492   -1.9403557    1.4837716   147116 
 3737000   0.33071391   -1.9347051  -0.44986765  0.050550364   -1.9347051    1.4848375   146686 
 3738000   0.32896554   -1.9221451  -0.44089602  0.054254948   -1.9221451    1.4812491   146264 
 3739000   0.32872674   -1.9185548  -0.43387405  0.054437203   -1.9185548    1.4846807   145820 
 3740000   0.32705278   -1.9106034  -0.42898188  0.053959587   -1.9106034    1.4816215   145377 
 3741000   0.32648465   -1.9093325  -0.42591747  0.055877696   -1.9093325     1.483415   144949 
 3742000   0.32536548    -1.902034  -0.41941824  0.053391569    -1.902034    1.4826157   144530 
 3743000   0.32437804   -1.8965963  -0.41443968   0.05565552   -1.8965963    1.4821567   144136 
 3744000    0.3224809   -1.8877212  -0.41027634  0.052384924   -1.8877212    1.4774448   143750 
 3745000   0.32335498   -1.8920537  -0.40614916  0.056911093   -1.8920537    1.4859046   143319 
 3746000   0.32145549   -1.8853092  -0.40381242  0.052545951   -1.8853092    1.4814968   142901 
 3747000   0.31938809   -1.8760753  -0.39967431  0.052510247   -1.8760753     1.476401   142472 
 3748000   0.31970476   -1.8781352   -0.3958591  0.054269843   -1.8781352    1.4822761   142048 
 3749000   0.31903158   -1.8790583  -0.39542251  0.054615269   -1.8790583    1.4836357   141619 
 3750000     0.316844   -1.8709149   -0.3929335  0.054504158   -1.8709149    1.4779814   141186 
 3751000   0.31652135   -1.8707116  -0.38965098  0.056041248   -1.8707116    1.4810606   140749 
 3752000   0.31458932   -1.8631553  -0.38666624  0.053087842   -1.8631553    1.4764891   140323 
 3753000   0.31440983   -1.8674418  -0.38688888  0.053204582   -1.8674418    1.4805529   139858 
 3754000   0.31320173   -1.8673308  -0.38755746  0.055992624   -1.8673308    1.4797734   139394 
 3755000   0.31134404   -1.8628941  -0.38718664  0.053998725   -1.8628941    1.4757074   138949 
 3756000   0.31059717   -1.8628073  -0.38567533  0.052453634   -1.8628073     1.477132   138482 
 3757000   0.30962529   -1.8612555  -0.38381658  0.053192216   -1.8612555    1.4774389   138020 
 3758000   0.30703932   -1.8565957  -0.38645802  0.052916658   -1.8565957    1.4701377   137547 
 3759000   0.30592877   -1.8554767  -0.38581622  0.052886381   -1.8554767    1.4696604   137094 
 3760000   0.30545183   -1.8549186  -0.38244758  0.053667086   -1.8549186    1.4724711   136619 
 3761000   0.30416362   -1.8526914  -0.38145515  0.053559805   -1.8526914    1.4712363   136157 
 3762000   0.30313478   -1.8555134  -0.38407711  0.052930286   -1.8555134    1.4714363   135678 
 3763000   0.30160678   -1.8552073   -0.3862293   0.05347487   -1.8552073     1.468978   135220 
 3764000   0.30067695    -1.853667  -0.38444783  0.052909504    -1.853667    1.4692192   134781 
 3765000    0.2985178    -1.847477  -0.38376923  0.051357043    -1.847477    1.4637078   134317 
 3766000   0.29910472   -1.8538551  -0.38246039   0.05191413   -1.8538551    1.4713947   133878 
 3767000   0.29680181   -1.8493878   -0.3845953  0.050655375   -1.8493878    1.4647925   133446 
 3768000   0.29526607    -1.844856  -0.38289899  0.049703575    -1.844856     1.461957   133013 
 3769000   0.29490376   -1.8470897  -0.38199205  0.051692849   -1.8470897    1.4650976   132565 
 3770000   0.29196168   -1.8392745     -0.38404  0.049205659   -1.8392745    1.4552345   132132 
 3771000    0.2914251   -1.8384059  -0.38134678  0.050837184   -1.8384059    1.4570591   131724 
 3772000   0.29036185   -1.8349679  -0.37869202  0.051329801   -1.8349679    1.4562759   131314 
 3773000   0.28943257   -1.8334006  -0.37704971  0.049284218   -1.8334006    1.4563509   130887 
 3774000   0.28808093   -1.8303977  -0.37596966  0.049208362   -1.8303977     1.454428   130448 
 3775000   0.28767297    -1.831294  -0.37434643  0.050151572    -1.831294    1.4569475   130038 
 3776000   0.28645499   -1.8257086  -0.37064409  0.049505002   -1.8257086    1.4550645   129655 
 3777000   0.28566703   -1.8224113   -0.3671177  0.048396726   -1.8224113    1.4552936   129278 
 3778000   0.28399121   -1.8128135  -0.36162308  0.050391002   -1.8128135    1.4511904   128883 
 3779000   0.28308878    -1.804976  -0.35406282  0.049363915    -1.804976    1.4509131   128498 
 3780000   0.28186457   -1.7984675  -0.34957787  0.050885374   -1.7984675    1.4488896   128121 
 3781000   0.28142702   -1.7920351  -0.34076176  0.049651278   -1.7920351    1.4512734   127712 
 3782000   0.27990073   -1.7821629  -0.33448692  0.050516385   -1.7821629     1.447676   127335 
 3783000   0.27936204   -1.7805626  -0.33137081  0.050401836   -1.7805626    1.4491918   126957 
 3784000   0.27825657   -1.7709475  -0.32323699  0.050045162   -1.7709475    1.4477105   126584 
 3785000   0.27712664   -1.7604981  -0.31449682  0.048276913   -1.7604981    1.4460012   126219 
 3786000   0.27686574   -1.7531152  -0.30406674  0.050506006   -1.7531152    1.4490484   125835 
 3787000   0.27575546   -1.7440169  -0.29665019   0.05092223   -1.7440169    1.4473667   125476 
 3788000   0.27510777   -1.7350402  -0.28687197  0.048419286   -1.7350402    1.4481682   125112 
 3789000   0.27427144   -1.7265807  -0.27833518  0.049532382   -1.7265807    1.4482455   124725 
 3790000   0.27345949   -1.7156619  -0.26711623  0.048658226   -1.7156619    1.4485457   124330 
 3791000   0.27330773   -1.7054322  -0.25354481    0.0489144   -1.7054322    1.4518874   123975 
 3792000   0.27165376    -1.686941  -0.23918051  0.049478831    -1.686941    1.4477605   123576 
 3793000   0.27153114   -1.6785796  -0.22727993   0.04993879   -1.6785796    1.4512997   123219 
 3794000   0.27087808   -1.6720162  -0.21963364  0.049455748   -1.6720162    1.4523825   122831 
 3795000   0.26946926   -1.6583804  -0.20891412  0.050580744   -1.6583804    1.4494663   122438 
 3796000   0.26934412   -1.6481349  -0.19477165  0.048438078   -1.6481349    1.4533632   122053 
 3797000   0.26879561   -1.6401439  -0.18481584  0.050483936   -1.6401439     1.455328   121640 
 3798000   0.26791336    -1.626082  -0.17074505  0.050188789    -1.626082     1.455337   121240 
 3799000    0.2668808    -1.616038  -0.16151111  0.050971756    -1.616038    1.4545269   120840 
 3800000   0.26556629   -1.5971488   -0.1452565  0.051600964   -1.5971488    1.4518923   120463 
 3801000    0.2651965   -1.5882497  -0.13353659  0.050824633   -1.5882497    1.4547131   120062 
 3802000   0.26443063    -1.579853  -0.12460175  0.051430428    -1.579853    1.4552512   119671 
 3803000   0.26342663   -1.5683401  -0.11358147  0.052347642   -1.5683401    1.4547586   119257 
 3804000   0.26278783   -1.5565955  -0.10038275  0.050926129   -1.5565955    1.4562128   118849 
 3805000   0.26227101   -1.5437445  -0.08532759  0.054213673   -1.5437445    1.4584169   118436 
 3806000    0.2611366   -1.5315998  -0.07461954  0.051278166   -1.5315998    1.4569803   118040 
 3807000   0.26106107   -1.5216688 -0.060219396  0.050762461   -1.5216688    1.4614494   117645 
 3808000   0.26069802   -1.5132188 -0.048647946   0.05271224   -1.5132188    1.4645709   117231 
 3809000   0.25905815   -1.4943684 -0.033827333   0.05281333   -1.4943684    1.4605411   116815 
 3810000    0.2583335   -1.4841196 -0.022709877   0.05370888   -1.4841196    1.4614097   116419 
 3811000   0.25849087   -1.4772255 -0.0095550374  0.053005899   -1.4772255    1.4676705   115993 
 3812000   0.25721348    -1.461849 0.0037744508  0.052765318    -1.461849    1.4656235   115581 
 3813000   0.25601875   -1.4502643  0.013833805   0.05197147   -1.4502643    1.4640981   115164 
 3814000   0.25559086   -1.4427876  0.024111295  0.051348562   -1.4427876    1.4668989   114752 
 3815000   0.25432183   -1.4315932  0.033089745  0.053835035   -1.4315932    1.4646829   114355 
 3816000   0.25292709   -1.4173826  0.044663108  0.053745156   -1.4173826    1.4620457   113933 
 3817000   0.25241016   -1.4123898  0.051937314  0.050611699   -1.4123898    1.4643271   113523 
 3818000    0.2519814   -1.4050736  0.062077825  0.053025357   -1.4050736    1.4671514   113112 
 3819000   0.25080044   -1.3907651  0.075251827   0.05452436   -1.3907651    1.4660169   112669 
 3820000   0.25011477   -1.3824387  0.085485251  0.052170449   -1.3824387     1.467924   112215 
 3821000   0.24975035    -1.374365  0.097005901  0.051461059    -1.374365    1.4713709   111789 
 3822000   0.24834201   -1.3607802   0.10789038  0.050965514   -1.3607802    1.4686706   111363 
 3823000   0.24727413   -1.3483437    0.1198256  0.052458774   -1.3483437    1.4681693   110922 
 3824000   0.24698981   -1.3417139   0.13042098  0.052990872   -1.3417139    1.4721349   110496 
 3825000   0.24592692   -1.3320207   0.13927836  0.054077483   -1.3320207     1.471299   110083 
 3826000   0.24575439   -1.3305366   0.14513246   0.05260548   -1.3305366    1.4756691   109680 
 3827000   0.24478465    -1.319214    0.1563363  0.054753012    -1.319214    1.4755503   109256 
 3828000   0.24320485   -1.3076299   0.16423068  0.053839058   -1.3076299    1.4718605   108823 
 3829000   0.24201281   -1.2983155   0.17199206  0.052837459   -1.2983155    1.4703075   108404 
 3830000    0.2416668   -1.2897204   0.18437298   0.05468373   -1.2897204    1.4740934   107971 
 3831000   0.24076191   -1.2823031   0.19232103  0.054087793   -1.2823031    1.4746241   107528 
 3832000   0.23905271   -1.2711117   0.19896372  0.052581621   -1.2711117    1.4700754   107095 
 3833000   0.23857225   -1.2674333   0.20547763  0.055147825   -1.2674333    1.4729109   106674 
 3834000   0.23789206   -1.2607712   0.21356548  0.055061516   -1.2607712    1.4743366   106267 
 3835000   0.23666097   -1.2584829   0.21418304  0.054097199   -1.2584829    1.4726659   105837 
 3836000   0.23434267   -1.2457494   0.21873106  0.052170888   -1.2457494    1.4644805   105386 
 3837000   0.23418625   -1.2475976   0.22156531  0.055419892   -1.2475976    1.4691629   104980 
 3838000   0.23395684   -1.2454968   0.22816477   0.05271457   -1.2454968    1.4736616   104557 
 3839000   0.23229462   -1.2318676   0.23749324  0.052436664   -1.2318676    1.4693609   104118 
 3840000    0.2310067   -1.2292059   0.23818126  0.052960965   -1.2292059    1.4673872   103680 
 3841000   0.23018994   -1.2271788    0.2413516  0.054158928   -1.2271788    1.4685304   103233 
 3842000   0.22914184   -1.2251972   0.24266116  0.051401848   -1.2251972    1.4678584   102810 
 3843000   0.22798522   -1.2195368   0.24727565   0.05380554   -1.2195368    1.4668124   102364 
 3844000   0.22681929   -1.2149825   0.25051327  0.052912764   -1.2149825    1.4654958   101932 
 3845000   0.22589595   -1.2097225   0.25629392  0.051920964   -1.2097225    1.4660164   101481 
 3846000   0.22473401   -1.2025626    0.2615253  0.053164692   -1.2025626    1.4640879   101092 
 3847000   0.22346238   -1.1965743   0.26493989  0.052534123   -1.1965743    1.4615141   100697 
 3848000   0.22215866   -1.1915302   0.26754294  0.052767146   -1.1915302    1.4590731   100277 
 3849000   0.22180794    -1.190315   0.27272834  0.050718234    -1.190315    1.4630434    99847 
 3850000   0.22093814   -1.1857017   0.27726015  0.051551339   -1.1857017    1.4629619    99461 
 3851000   0.22064617   -1.1829664   0.28428758  0.051300828   -1.1829664     1.467254    99039 
 3852000   0.21870376   -1.1732129   0.28739219  0.052487972   -1.1732129    1.4606051    98614 
 3853000   0.21746774   -1.1679477   0.29049586  0.052296206   -1.1679477    1.4584436    98202 
 3854000   0.21728712   -1.1734008   0.29055486  0.052136618   -1.1734008    1.4639556    97751 
 3855000   0.21539202   -1.1597183   0.29711769  0.052070115   -1.1597183     1.456836    97372 
 3856000   0.21490629   -1.1581591   0.30182385  0.052582229   -1.1581591     1.459983    96943 
 3857000   0.21324239   -1.1469494    0.3074608  0.052012124   -1.1469494    1.4544102    96561 
 3858000   0.21292501   -1.1474293    0.3110543  0.050633776   -1.1474293    1.4584836    96148 
 3859000   0.21147888   -1.1403662   0.31440013  0.051328148   -1.1403662    1.4547664    95739 
 3860000    0.2103147   -1.1383092   0.31496075  0.051769801   -1.1383092      1.45327    95310 
 3861000   0.20928742   -1.1290868   0.32316424  0.051053612   -1.1290868    1.4522511    94911 
 3862000   0.20816317   -1.1225866   0.32783852  0.050027802   -1.1225866    1.4504251    94520 
 3863000   0.20810994   -1.1269141   0.32944199  0.049510742   -1.1269141    1.4563561    94111 
 3864000   0.20690359   -1.1153656    0.3393341  0.050973848   -1.1153656    1.4546997    93672 
 3865000   0.20568003   -1.1068807   0.34555826  0.051106768   -1.1068807    1.4524389    93263 
 3866000    0.2047132   -1.1015551   0.35064298   0.05092123   -1.1015551    1.4521981    92840 
 3867000   0.20409597   -1.0983366   0.35576353  0.049777401   -1.0983366    1.4541002    92439 
 3868000    0.2029764   -1.0888644   0.36395453  0.049217844   -1.0888644     1.452819    92013 
 3869000   0.20251257   -1.0853693   0.37066508  0.050446069   -1.0853693    1.4560344    91600 
 3870000   0.20073956   -1.0765911   0.37343926  0.049104813   -1.0765911    1.4500304    91174 
 3871000   0.19939594   -1.0678332    0.3794603  0.049168157   -1.0678332    1.4472935    90735 
 3872000   0.19912833   -1.0691879   0.38277205  0.049347289   -1.0691879      1.45196    90322 
 3873000   0.19716098   -1.0543814   0.39023896  0.051343274   -1.0543814    1.4446203    89884 
 3874000   0.19643568   -1.0468967   0.39893998  0.049639417   -1.0468967    1.4458366    89478 
 3875000   0.19587724   -1.0424493   0.40555605  0.049033016   -1.0424493    1.4480053    89090 
 3876000   0.19533734   -1.0413505   0.40938893  0.048843618   -1.0413505    1.4507394    88677 
 3877000   0.19378371   -1.0313423   0.41442897  0.048246245   -1.0313423    1.4457713    88274 
 3878000   0.19267445   -1.0208252   0.42324643  0.047781237   -1.0208252    1.4440717    87872 
 3879000   0.19129462   -1.0110342   0.42943324  0.048593196   -1.0110342    1.4404674    87461 
 3880000   0.19021137   -1.0071893   0.43214826  0.048519717   -1.0071893    1.4393376    87034 
 3881000   0.18950309  -0.99983498   0.44122965  0.048004374  -0.99983498    1.4410646    86606 
 3882000   0.18807639  -0.99286991   0.44411506    0.0478475  -0.99286991     1.436985    86198 
 3883000   0.18815548  -0.99099265   0.45304633   0.04865241  -0.99099265     1.444039    85813 
 3884000   0.18663476  -0.98031581   0.45882745  0.050093864  -0.98031581    1.4391433    85409 
 3885000   0.18529612  -0.97429346   0.46199405  0.047321295  -0.97429346    1.4362875    84965 
 3886000    0.1851267  -0.97580763   0.46600543  0.048581972  -0.97580763    1.4418131    84562 
 3887000    0.1837844  -0.96149945   0.47715797  0.047556949  -0.96149945    1.4386574    84133 
 3888000     0.183242  -0.96097498   0.48054717   0.04783135  -0.96097498    1.4415222    83718 
 3889000    0.1823237  -0.95269521   0.48933685  0.047681512  -0.95269521    1.4420321    83269 
 3890000   0.18108272  -0.94222173   0.49706465   0.04795915  -0.94222173    1.4392864    82860 
 3891000   0.17917366    -0.932235   0.49920246  0.046895412    -0.932235    1.4314375    82436 
 3892000   0.17864508  -0.92873175   0.50596648  0.046234884  -0.92873175    1.4346982    82006 
 3893000   0.17791719   -0.9194002   0.51666719  0.045836853   -0.9194002    1.4360674    81594 
 3894000   0.17707193   -0.9159926   0.52087738  0.046725774   -0.9159926      1.43687    81161 
 3895000   0.17620659  -0.91083132   0.52686406  0.047032484  -0.91083132    1.4376954    80718 
 3896000   0.17464411   -0.9007526   0.53198656  0.047510705   -0.9007526    1.4327392    80279 
 3897000   0.17407764  -0.89934829   0.53648807  0.047807962  -0.89934829    1.4358364    79846 
 3898000   0.17312965  -0.89419678   0.54142581  0.046341055  -0.89419678    1.4356226    79423 
 3899000   0.17238363  -0.88520365   0.55265113  0.047145587  -0.88520365    1.4378548    78958 
 3900000   0.17103359  -0.87589661   0.55909382  0.046080288  -0.87589661    1.4349904    78496 
 3901000   0.17080664  -0.87466695   0.56599935  0.046002611  -0.87466695    1.4406663    78083 
 3902000   0.16943493  -0.86828343   0.56904136  0.045156966  -0.86828343    1.4373248    77636 
 3903000   0.16844826   -0.8627113   0.57433247  0.044874948   -0.8627113    1.4370438    77199 
 3904000   0.16697301  -0.85500244   0.57836812  0.046552321  -0.85500244    1.4333706    76719 
 3905000   0.16560857  -0.84748947    0.5826874  0.044796401  -0.84748947    1.4301769    76262 
 3906000   0.16467196  -0.84403096   0.58664953  0.045411678  -0.84403096    1.4306805    75804 
 3907000   0.16334783  -0.83647068   0.59140817  0.045693445  -0.83647068    1.4278788    75342 
 3908000    0.1624901  -0.83494501    0.5941997  0.044693713  -0.83494501    1.4291447    74880 
 3909000    0.1611454  -0.82432852   0.60146238  0.045402824  -0.82432852    1.4257909    74435 
 3910000    0.1605245  -0.82048211   0.60818352  0.044315004  -0.82048211    1.4286656    73999 
 3911000   0.15902882  -0.81939021   0.60522402  0.043897468  -0.81939021    1.4246142    73518 
 3912000   0.15779562  -0.81242227   0.61027872  0.042784192  -0.81242227     1.422701    73046 
 3913000   0.15697945  -0.81192212   0.61244856  0.042898439  -0.81192212    1.4243707    72583 
 3914000   0.15537186  -0.81024184   0.60884862  0.042601424  -0.81024184    1.4190905    72107 
 3915000    0.1542569  -0.80483547    0.6131765  0.043895119  -0.80483547     1.418012    71644 
 3916000   0.15263408  -0.80065061   0.61184784  0.041615677  -0.80065061    1.4124985    71167 
 3917000   0.15122977  -0.79336496   0.61586045  0.041606789  -0.79336496    1.4092254    70676 
 3918000   0.15072484  -0.79473274   0.61900895    0.0415989  -0.79473274    1.4137417    70215 
 3919000   0.14936069   -0.7848501   0.62525408  0.041631578   -0.7848501    1.4101042    69759 
 3920000   0.14814362  -0.78530237   0.62290023   0.04095641  -0.78530237    1.4082026    69284 
 3921000   0.14701448   -0.7813823   0.62557046  0.040893419   -0.7813823    1.4069528    68817 
 3922000   0.14509522   -0.7762811    0.6221598  0.040934883   -0.7762811    1.3984409    68332 
 3923000   0.14428612  -0.77174032   0.62902907  0.040877581  -0.77174032    1.4007694    67838 
 3924000   0.14262775  -0.76198312   0.63280221  0.039530099  -0.76198312    1.3947853    67346 
 3925000   0.14175385  -0.76044453   0.63616364  0.040422729  -0.76044453    1.3966082    66846 
 3926000   0.13978268  -0.75548476   0.63149622  0.039020073  -0.75548476     1.386981    66374 
 3927000   0.13820218  -0.74617732   0.63557173  0.039590146  -0.74617732     1.381749    65872 
 3928000   0.13781497  -0.74634555   0.64141278  0.038712048  -0.74634555    1.3877583    65403 
 3929000   0.13596703  -0.74112122   0.63876793  0.038935377  -0.74112122    1.3798891    64894 
 3930000   0.13521058   -0.7440529   0.63868523  0.037548767   -0.7440529    1.3827381    64400 
 3931000   0.13407459  -0.73395234   0.64798366  0.037734159  -0.73395234     1.381936    63896 
 3932000   0.13223517  -0.72905132   0.64441509  0.037491137  -0.72905132    1.3734664    63408 
 3933000   0.13155922   -0.7233625   0.65409706  0.037805109   -0.7233625    1.3774596    62901 
 3934000   0.12972421  -0.70973804   0.65921627   0.03592118  -0.70973804    1.3689543    62409 
 3935000   0.12845927  -0.70650748   0.65949484  0.036900388  -0.70650748    1.3660023    61934 
 3936000   0.12708381  -0.70046283   0.66186755  0.036806018  -0.70046283    1.3623304    61436 
 3937000   0.12657194  -0.70493913   0.66294756  0.035692918  -0.70493913    1.3678867    60940 
 3938000   0.12469645  -0.69457826   0.66385092  0.036168725  -0.69457826    1.3584292    60455 
 3939000   0.12371012  -0.68986213   0.66892523  0.036031105  -0.68986213    1.3587874    59961 
 3940000    0.1228899  -0.68963968   0.67169484  0.035319368  -0.68963968    1.3613345    59452 
 3941000   0.12220274  -0.68844676   0.67629421  0.034984292  -0.68844676     1.364741    58972 
 3942000   0.12059335  -0.67728348   0.68041992  0.035753562  -0.67728348    1.3577034    58497 
 3943000   0.11876314  -0.66915661   0.67963136  0.034868848  -0.66915661     1.348788    57990 
 3944000   0.11753284  -0.66300153   0.68403231  0.034252398  -0.66300153    1.3470338    57464 
 3945000   0.11628022  -0.65733285   0.68706599  0.033256874  -0.65733285    1.3443988    56963 
 3946000   0.11519266  -0.65200407   0.69082961  0.033837303  -0.65200407    1.3428337    56496 
 3947000   0.11441571  -0.64777716   0.69778887  0.033149767  -0.64777716     1.345566    56001 
 3948000    0.1136794  -0.64711104   0.70108668  0.033056062  -0.64711104    1.3481977    55532 
 3949000   0.11247798  -0.64136399   0.70424048  0.033678714  -0.64136399    1.3456045    55051 
 3950000   0.11104078  -0.63250399    0.7081811  0.032934614  -0.63250399    1.3406851    54547 
 3951000   0.10974372  -0.62647125    0.7109599  0.031947784  -0.62647125    1.3374312    54041 
 3952000   0.10842777  -0.61613281   0.71665514  0.032742255  -0.61613281    1.3327879    53579 
 3953000   0.10720477  -0.61546594   0.71492769  0.031838443  -0.61546594    1.3303936    53070 
 3954000   0.10642158  -0.61200946   0.72046563  0.032237219  -0.61200946    1.3324751    52600 
 3955000   0.10567913  -0.61005134   0.72569797  0.030911851  -0.61005134    1.3357493    52105 
 3956000    0.1045932  -0.60110201   0.73375645  0.031511301  -0.60110201    1.3348585    51604 
 3957000   0.10297693  -0.59485802    0.7323352  0.031607998  -0.59485802    1.3271932    51100 
 3958000   0.10170705   -0.5881288   0.73541535  0.031066755   -0.5881288    1.3235442    50609 
 3959000   0.10104287  -0.57939973   0.74870114  0.030924603  -0.57939973    1.3281009    50106 
 3960000  0.099520594  -0.56828944   0.75322734  0.029933601  -0.56828944    1.3215168    49597 
 3961000   0.09853829  -0.56303243   0.75855055   0.02989104  -0.56303243     1.321583    49105 
 3962000  0.097100212  -0.55459178   0.76123597  0.029682501  -0.55459178    1.3158277    48600 
 3963000  0.096670655  -0.55621546   0.76683116  0.029374255  -0.55621546    1.3230466    48121 
 3964000   0.09479865  -0.54034487   0.77034588  0.029504989  -0.54034487    1.3106907    47634 
 3965000  0.093596851  -0.53149553   0.77577972  0.028708314  -0.53149553    1.3072753    47153 
 3966000  0.093024015  -0.52590496   0.78656288  0.029466452  -0.52590496    1.3124678    46679 
 3967000  0.092163122  -0.51897957   0.79559194  0.029407207  -0.51897957    1.3145715    46173 
 3968000  0.090445706  -0.50676505   0.79651988   0.02809124  -0.50676505    1.3032849    45705 
 3969000  0.089435748  -0.50438414   0.79932301  0.028591243  -0.50438414    1.3037071    45180 
 3970000  0.088289291  -0.49907101   0.80229745    0.0271042  -0.49907101    1.3013685    44681 
 3971000   0.08738802  -0.49492393   0.80779628  0.027378949  -0.49492393    1.3027202    44179 
 3972000  0.086306413  -0.49111179   0.80979546  0.027275347  -0.49111179    1.3009072    43693 
 3973000  0.085348139  -0.48593627   0.81463596  0.026821069  -0.48593627    1.3005722    43219 
 3974000  0.084015018  -0.47775815   0.81727184  0.026331589  -0.47775815      1.29503    42726 
 3975000   0.08279053  -0.47319535   0.81874416  0.026772918  -0.47319535    1.2919395    42204 
 3976000   0.08183446  -0.47169142   0.82054625  0.025696545  -0.47169142    1.2922377    41707 
 3977000  0.081006035  -0.46845417   0.82568916  0.025820549  -0.46845417    1.2941433    41224 
 3978000  0.079622675  -0.46198817   0.82500896  0.025613196  -0.46198817    1.2869971    40745 
 3979000   0.07844021  -0.45341744   0.83044204  0.025847056  -0.45341744    1.2838595    40238 
 3980000   0.07733287   -0.4480472   0.83306599  0.024739797   -0.4480472    1.2811132    39755 
 3981000  0.076100804   -0.4448388   0.83227945  0.024569327   -0.4448388    1.2771183    39244 
 3982000  0.074755719  -0.43843528    0.8326281  0.024420591  -0.43843528    1.2710634    38734 
 3983000  0.073623347  -0.43721071   0.83080362  0.023830915  -0.43721071    1.2680143    38239 
 3984000  0.072260055  -0.42944748   0.83190982  0.023551362  -0.42944748    1.2613573    37729 
 3985000  0.071078742  -0.42308366   0.83354012  0.023202771  -0.42308366    1.2566238    37252 
 3986000  0.070617591  -0.42317792   0.84148665  0.023125505  -0.42317792    1.2646646    36775 
 3987000  0.069127997  -0.41800626   0.83666518   0.02278793  -0.41800626    1.2546714    36286 
 3988000   0.06824538  -0.40933792   0.84567352  0.022229226  -0.40933792    1.2550114    35813 
 3989000  0.067181498  -0.40900235   0.84461195  0.021733133  -0.40900235    1.2536143    35294 
 3990000  0.065996227   -0.4005621   0.84737655  0.022083699   -0.4005621    1.2479387    34829 
 3991000   0.06509315  -0.39762459   0.84953015  0.020719915  -0.39762459    1.2471547    34374 
 3992000  0.063979465  -0.39596358    0.8478371  0.021600888  -0.39596358    1.2438007    33877 
 3993000  0.062573161  -0.38289059   0.85079574  0.021036351  -0.38289059    1.2336863    33404 
 3994000  0.061478791  -0.38181448   0.84770534  0.020831018  -0.38181448    1.2295198    32931 
 3995000  0.060724161  -0.37742337   0.85473995  0.019900972  -0.37742337    1.2321633    32457 
 3996000  0.059947789  -0.37524945   0.85818534  0.020411268  -0.37524945    1.2334348    32009 
 3997000  0.058682502  -0.37193887   0.85380515  0.019687095  -0.37193887     1.225744    31530 
 3998000  0.057694808  -0.36301114   0.85923616  0.019095914  -0.36301114    1.2222473    31088 
 3999000  0.056798344  -0.36097783   0.86126761  0.019564396  -0.36097783    1.2222454    30605 
 4000000  0.055698355   -0.3551474   0.86208048  0.018692257   -0.3551474    1.2172279    30136 
 4001000  0.054663116  -0.35151684   0.86242238  0.018585845  -0.35151684    1.2139392    29656 
 4002000  0.053631706  -0.34501537   0.86611154  0.018135497  -0.34501537    1.2111269    29164 
 4003000  0.052784998  -0.34028606   0.87272456  0.017785536  -0.34028606    1.2130106    28659 
 4004000   0.05189479  -0.33564034   0.87628086  0.017619393  -0.33564034    1.2119212    28201 
 4005000  0.050894604  -0.33796535   0.87056816  0.017130315  -0.33796535    1.2085335    27735 
 4006000  0.049571883    -0.327533   0.87019048  0.016992268    -0.327533    1.1977235    27258 
 4007000  0.048730536  -0.32356092     0.875432  0.017122174  -0.32356092    1.1989929    26767 
 4008000  0.047781566  -0.32064354   0.87733352  0.016216641  -0.32064354    1.1979771    26268 
 4009000  0.046921336  -0.31658492    0.8800972  0.016375648  -0.31658492    1.1966821    25823 
 4010000  0.045833833  -0.30690396   0.88446456  0.015942694  -0.30690396    1.1913685    25337 
 4011000  0.044688011  -0.30079823    0.8835986  0.015605042  -0.30079823    1.1843968    24849 
 4012000  0.043786003  -0.29844909    0.8846083  0.015434542  -0.29844909    1.1830574    24375 
 4013000  0.042939626  -0.29569183   0.88755538   0.01542843  -0.29569183    1.1832472    23900 
 4014000  0.041913387  -0.29517779   0.88315985  0.014703068  -0.29517779    1.1783376    23426 
 4015000  0.040821035  -0.29096317   0.88021196   0.01449282  -0.29096317    1.1711751    22955 
 4016000  0.039792531  -0.28528836   0.88065742  0.014154367  -0.28528836    1.1659458    22477 
 4017000  0.039013394  -0.28248874   0.88339887  0.013837875  -0.28248874    1.1658876    22038 
 4018000  0.038216798    -0.284883   0.88154582  0.013267651    -0.284883    1.1664288    21578 
 4019000  0.037111589   -0.2771814   0.87980422  0.013246962   -0.2771814    1.1569856    21125 
 4020000   0.03642944  -0.27712152   0.88275591  0.012713788  -0.27712152    1.1598774    20685 
 4021000  0.035162636  -0.26630623   0.87870047  0.012584467  -0.26630623    1.1450067    20225 
 4022000  0.034422723  -0.26680693   0.88030947  0.012322094  -0.26680693    1.1471164    19763 
 4023000  0.033610087  -0.26277327    0.8825888  0.012258901  -0.26277327    1.1453621    19326 
 4024000   0.03271147  -0.25794387   0.88312852  0.011516487  -0.25794387    1.1410724    18880 
 4025000  0.031791186  -0.25281223   0.87967141  0.011465009  -0.25281223    1.1324836    18488 
 4026000  0.031128231  -0.25276851   0.88105936  0.011315359  -0.25276851    1.1338279    18081 
 4027000  0.030170411  -0.23733698   0.88716392  0.011005667  -0.23733698    1.1245009    17670 
 4028000  0.029442009  -0.23259395   0.89212835   0.01078382  -0.23259395    1.1247223    17240 
 4029000  0.028680777  -0.22988737   0.89438339  0.010573707  -0.22988737    1.1242708    16801 
 4030000  0.027918677  -0.22527066   0.89615904  0.010214074  -0.22527066    1.1214297    16396 
 4031000  0.027156912  -0.22087567   0.89527951  0.010002602  -0.22087567    1.1161552    16024 
 4032000  0.026619666  -0.21887734   0.89848695 0.0099375252  -0.21887734    1.1173643    15690 
 4033000  0.025953198  -0.21603408   0.89792036 0.0096366768  -0.21603408    1.1139544    15344 
 4034000  0.025218153  -0.20802815   0.89979092 0.0093285255  -0.20802815    1.1078191    14992 
 4035000  0.024726868  -0.20133373   0.90965467 0.0091122819  -0.20133373    1.1109884    14658 
 4036000  0.024451592  -0.20188512   0.92329472 0.0090520509  -0.20188512    1.1251798    14312 
 4037000  0.023454038  -0.19327456   0.91448468 0.0087975797  -0.19327456    1.1077592    13944 
 4038000  0.023103961   -0.1925196   0.92351658 0.0087543931   -0.1925196    1.1160362    13634 
 4039000  0.022566976  -0.18864978   0.92773156 0.0085053799  -0.18864978    1.1163813    13313 
 4040000  0.022045159  -0.18902222   0.92797436 0.0083224952  -0.18902222    1.1169966    12998 
 4041000  0.021705284  -0.19048535   0.93253162 0.0081171356  -0.19048535     1.123017    12729 
 4042000  0.021083408  -0.18468613   0.93086954 0.0079969558  -0.18468613    1.1155557    12447 
 4043000  0.020665306  -0.18018901   0.93474208 0.0077517805  -0.18018901    1.1149311    12207 
 4044000   0.02015892  -0.17225407   0.94275923 0.0076076565  -0.17225407    1.1150133    11907 
 4045000  0.019758619  -0.17206265   0.94607009 0.0074144138  -0.17206265    1.1181327    11638 
 4046000  0.019362357  -0.17148118   0.95212922 0.0073236619  -0.17148118    1.1236104    11349 
 4047000  0.018769159  -0.16593026   0.94778994 0.0071086059  -0.16593026    1.1137202    11099 
 4048000  0.018199716  -0.15669214   0.94730998 0.0069947606  -0.15669214    1.1040021    10857 
 4049000  0.017789071  -0.15654182   0.95007045 0.0068846732  -0.15654182    1.1066123    10587 
 4050000  0.017383545  -0.14739641   0.96100026 0.0066726361  -0.14739641    1.1083967    10329 
 4051000  0.016916657  -0.14926179   0.95765734 0.0065406954  -0.14926179    1.1069191    10065 
 4052000  0.016504917  -0.14247379   0.96197382  0.006451841  -0.14247379    1.1044476     9842 
 4053000  0.015989129  -0.13994333   0.95982489  0.006177935  -0.13994333    1.0997682     9575 
 4054000  0.015572786  -0.13563505   0.96232889 0.0060651369  -0.13563505    1.0979639     9341 
 4055000  0.015082883  -0.13807038   0.95303635 0.0059830719  -0.13807038    1.0911067     9104 
 4056000  0.014622387  -0.13398102   0.95122944 0.0057714991  -0.13398102    1.0852105     8874 
 4057000   0.01425957  -0.12988608   0.95630526 0.0055882171  -0.12988608    1.0861913     8646 
 4058000  0.013933753  -0.12923696   0.95868605 0.0054534089  -0.12923696     1.087923     8435 
 4059000  0.013365902  -0.12213247   0.95109963  0.005343054  -0.12213247    1.0732321     8202 
 4060000  0.013197243   -0.1298125   0.95595545 0.0052695543   -0.1298125    1.0857679     8005 
 4061000  0.012781109  -0.12092751   0.95424309 0.0049316162  -0.12092751    1.0751706     7829 
 4062000  0.012520634  -0.11565528   0.96549906 0.0049354157  -0.11565528    1.0811543     7627 
 4063000  0.012073654  -0.11333192   0.95356566 0.0048867271  -0.11333192    1.0668976     7453 
 4064000  0.011743202  -0.11551516   0.94654958 0.0046154919  -0.11551516    1.0620647     7282 
 4065000  0.011455593  -0.10750101   0.95346634 0.0045938811  -0.10750101    1.0609673     7111 
 4066000  0.011250265   -0.1037459   0.96004618 0.0046201827   -0.1037459    1.0637921     6965 
 4067000  0.010941128  -0.10597749   0.95556016 0.0043802494  -0.10597749    1.0615377     6788 
 4068000  0.010723933  -0.09912471   0.96373078  0.004245352  -0.09912471    1.0628555     6645 
 4069000  0.010407714 -0.095103735   0.96628005 0.0041453424 -0.095103735    1.0613838     6458 
 4070000  0.010162791 -0.088011473   0.97506233 0.0041032759 -0.088011473    1.0630738     6296 
 4071000 0.0098879678 -0.089201476   0.97157662 0.0039431126 -0.089201476    1.0607781     6139 
 4072000 0.0096323603  -0.09105451   0.96536117 0.0039025769  -0.09105451    1.0564157     6005 
 4073000 0.0094013588  -0.08848924   0.97045396 0.0038042027  -0.08848924    1.0589432     5847 
 4074000 0.0091872393 -0.082990364    0.9805751 0.0036931753 -0.082990364    1.0635655     5689 
 4075000 0.0089234736 -0.078961115   0.98108767 0.0035344171 -0.078961115    1.0600488     5544 
 4076000 0.0088260211  -0.08025416   0.98924524 0.0036290739  -0.08025416    1.0694994     5435 
 4077000 0.0085636419 -0.074931472   0.99141924 0.0034273365 -0.074931472    1.0663507     5289 
 4078000  0.008333492  -0.07753515   0.98404212 0.0033716426  -0.07753515    1.0615773     5170 
 4079000 0.0081026711  -0.06900211   0.99295574 0.0032654613  -0.06900211    1.0619578     5025 
 4080000 0.0080029709 -0.070615174    1.0006606 0.0033007126 -0.070615174    1.0712757     4920 
 4081000 0.0077041476 -0.068470798   0.99101439 0.0031218094 -0.068470798    1.0594852     4789 
 4082000 0.0075824113 -0.065986149   0.99990505 0.0031002806 -0.065986149    1.0658912     4685 
 4083000 0.0074827419 -0.065397977    1.0105974 0.0030262177 -0.065397977    1.0759954     4580 
 4084000 0.0073247847 -0.068610982     1.006981 0.0029785031 -0.068610982     1.075592     4485 
 4085000  0.007103503  -0.06455192    1.0018479 0.0028755548  -0.06455192    1.0663998     4387 
 4086000 0.0070617102 -0.059351587    1.0257561 0.0029171816 -0.059351587    1.0851077     4286 
 4087000 0.0067671237 -0.054137853    1.0097819 0.0028115956 -0.054137853    1.0639198     4189 
 4088000 0.0065911368 -0.055744525    1.0092351 0.0027017582 -0.055744525    1.0649796     4076 
 4089000 0.0063766449 -0.057311526   0.99972209 0.0026306245 -0.057311526    1.0570336     3973 
 4090000 0.0062199728 -0.053031792    1.0005721 0.0025815678 -0.053031792    1.0536039     3888 
 4091000 0.0061060026 -0.056318343    1.0044446 0.0025323442 -0.056318343    1.0607629     3791 
 4092000 0.0061162318   -0.0549078     1.022986 0.0024870409   -0.0549078    1.0778938     3737 
 4093000 0.0059393083 -0.051886392    1.0274649 0.0024666064 -0.051886392    1.0793513     3624 
 4094000 0.0058354591 -0.052573168    1.0281847 0.0024140971 -0.052573168    1.0807579     3556 
 4095000 0.0056448246 -0.050213115    1.0177631 0.0023496153 -0.050213115    1.0679762     3481 
 4096000 0.0055098314 -0.046136932    1.0242819 0.0023006887 -0.046136932    1.0704188     3390 
 4097000 0.0053573928 -0.043757469    1.0183513 0.0022228995 -0.043757469    1.0621088     3322 
 4098000 0.0053019109 -0.042685962    1.0327022 0.0021944499 -0.042685962    1.0753882     3247 
 4099000 0.0050822028 -0.045653184    1.0162402 0.0021313491 -0.045653184    1.0618934     3152 
 4100000 0.0049835763 -0.045565116    1.0221426 0.0020769701 -0.045565116    1.0677077     3074 
 4101000 0.0049364298 -0.043587197    1.0318621 0.0020540145 -0.043587197    1.0754493     3023 
 4102000 0.0048543237 -0.046029129    1.0314933 0.0020311823 -0.046029129    1.0775224     2967 
 4103000 0.0047357004 -0.046532254    1.0263556 0.0019418221 -0.046532254    1.0728878     2907 
 4104000 0.0045654309 -0.043900252    1.0085139 0.0018877955 -0.043900252    1.0524141     2857 
 4105000 0.0044386413 -0.043924732    1.0053376 0.0018409333 -0.043924732    1.0492623     2786 
 4106000 0.0043318272 -0.044837031    1.0032519 0.0017794535 -0.044837031    1.0480889     2722 
 4107000 0.0042846795  -0.04031922    1.0193305 0.0018206764  -0.04031922    1.0596497     2663 
 4108000 0.0041661107 -0.041519328    1.0089243 0.0017146178 -0.041519328    1.0504437     2612 
 4109000 0.0040631155  -0.04179226   0.99901957 0.0016720239  -0.04179226    1.0408118     2571 
 4110000 0.0040518678 -0.037995183    1.0188443 0.0017034107 -0.037995183    1.0568395     2525 
 4111000 0.0040183269 -0.040121492    1.0352259 0.0016677843 -0.040121492    1.0753474     2461 
 4112000 0.0038905493  -0.04031083    1.0211129 0.0016412454  -0.04031083    1.0614237     2414 
 4113000 0.0038123118 -0.038639978    1.0162972 0.0015960534 -0.038639978    1.0549372     2380 
 4114000 0.0037655523 -0.039799181    1.0231906 0.0015679414 -0.039799181    1.0629898     2333 
 4115000 0.0037238315 -0.036962939    1.0434239  0.001554241 -0.036962939    1.0803869     2270 
 4116000  0.003631962 -0.032198653     1.043813 0.0015167483 -0.032198653    1.0760116     2223 
 4117000 0.0035238656 -0.035503889    1.0329964 0.0014802668 -0.035503889    1.0685003     2172 
 4118000 0.0035502778 -0.032447738    1.0581201 0.0014777256 -0.032447738    1.0905679     2144 
 4119000 0.0034130285 -0.032489416    1.0399278 0.0014460801 -0.032489416    1.0724172     2096 
 4120000 0.0034110409 -0.031775822    1.0635325 0.0014380547 -0.031775822    1.0953084     2051 
 4121000 0.0032993184 -0.031760939    1.0568654 0.0013868882 -0.031760939    1.0886263     1996 
 4122000 0.0032423729 -0.030798932     1.057023 0.0013508088 -0.030798932    1.0878219     1963 
 4123000 0.0031679896 -0.028936321    1.0521032  0.001327173 -0.028936321    1.0810395     1930 
 4124000 0.0031919475 -0.029837966    1.0777409  0.001349337 -0.029837966    1.1075789     1898 
 4125000 0.0031466877 -0.032063099    1.0785355  0.001319264 -0.032063099    1.1105986     1866 
 4126000  0.003103372 -0.035319998    1.0827597 0.0012992694 -0.035319998    1.1180797     1828 
 4127000 0.0029093609 -0.029649817    1.0431811 0.0012390767 -0.029649817    1.0728309     1786 
 4128000 0.0028604753 -0.032108808    1.0450098 0.0012015105 -0.032108808    1.0771186     1749 
 4129000 0.0028469714 -0.030659238    1.0500248 0.0011987015 -0.030659238    1.0806841     1735 
 4130000 0.0027792882 -0.029730321    1.0585048 0.0011756595 -0.029730321    1.0882351     1682 
 4131000 0.0027921057 -0.028255426    1.0728541 0.0011569552 -0.028255426    1.1011095     1670 
 4132000 0.0027059551 -0.029046267    1.0622673  0.001125793 -0.029046267    1.0913135     1633 
 4133000 0.0026347629 -0.031665709    1.0555702 0.0011218421 -0.031665709    1.0872359     1596 
 4134000 0.0025593993 -0.030288256    1.0474578 0.0010592023 -0.030288256     1.077746     1564 
 4135000 0.0025026618 -0.027797921    1.0452672 0.0010702185 -0.027797921    1.0730651     1536 
 4136000 0.0025227543 -0.029319514    1.0702574 0.0010515171 -0.029319514     1.099577     1511 
 4137000 0.0024487658 -0.029445777    1.0573013 0.0010230546 -0.029445777    1.0867471     1484 
 4138000 0.0024284118 -0.023926363    1.0685106 0.0010454832 -0.023926363     1.092437     1464 
 4139000 0.0024315967 -0.024543251    1.0922108 0.0010357997 -0.024543251     1.116754     1434 
 4140000 0.0024456952 -0.022874979    1.1251724 0.0010290963 -0.022874979    1.1480473     1403 
 4141000 0.0023841569 -0.027480668    1.1070438 0.0010037047 -0.027480668    1.1345245     1384 
 4142000 0.0023290077 -0.025123034    1.0944837 0.00097540772 -0.025123034    1.1196067     1370 
 4143000 0.0023108086 -0.025073046    1.1022421 0.00097858668 -0.025073046    1.1273151     1350 
 4144000 0.0022714243 -0.026190733    1.0994205 0.00096413189 -0.026190733    1.1256112     1329 
 4145000 0.0022203402 -0.023533459    1.0842649 0.00093489628 -0.023533459    1.1077984     1320 
 4146000 0.0021386295 -0.022193215    1.0654361 0.00090840272 -0.022193215    1.0876294     1295 
 4147000 0.0021220169 -0.020463328    1.0756458 0.00089540281 -0.020463328    1.0961091     1275 
 4148000 0.0021446459 -0.019634925    1.0995745 0.0009070846 -0.019634925    1.1192095     1262 
 4149000 0.0020322578 -0.020984251    1.0680513 0.0008577324 -0.020984251    1.0890355     1229 
 4150000 0.0020045962 -0.021256316    1.0662289  0.000844892 -0.021256316    1.0874852     1214 
 4151000 0.0020172696 -0.018813162    1.0846366 0.00085359264 -0.018813162    1.1034498     1204 
 4152000 0.0019597059 -0.022064196    1.0763551 0.00082479678 -0.022064196    1.0984193     1175 
 4153000 0.0019093066 -0.018890303    1.0698112 0.00080838083 -0.018890303    1.0887015     1155 
 4154000 0.0019467734  -0.02343429    1.1002515 0.00081506386  -0.02343429    1.1236858     1141 
 4155000 0.0018221841 -0.018245404    1.0747165 0.00076400541 -0.018245404    1.0929619     1098 
 4156000 0.0017854821 -0.018308817    1.0634765 0.00074672888 -0.018308817    1.0817853     1087 
 4157000 0.0017798763 -0.015346962       1.0812 0.00076112403 -0.015346962     1.096547     1069 
 4158000 0.0017583838 -0.015753683    1.0819279 0.0007473372 -0.015753683    1.0976815     1055 
 4159000 0.0017306745 -0.015970217    1.0778924 0.00073072113 -0.015970217    1.0938627     1042 
 4160000 0.0016868753 -0.015605814    1.0725031 0.00071030125 -0.015605814    1.0881089     1021 
 4161000 0.0016993456 -0.018085696    1.0791418 0.00072122617 -0.018085696    1.0972275     1020 
 4162000 0.0016495562 -0.016449768    1.0699315 0.00069274449 -0.016449768    1.0863812     1000 
 4163000 0.0016762671 -0.015007297     1.083473 0.00071501039 -0.015007297    1.0984803     1005 
 4164000 0.0016635378 -0.016443937    1.0980926 0.0007129478 -0.016443937    1.1145365      983 
 4165000 0.0016378888   -0.0156403    1.0929899 0.00069304512   -0.0156403    1.1086302      973 
 4166000 0.0016642674 -0.018289498    1.1081955 0.00070449631 -0.018289498     1.126485      973 
 4167000 0.0015740824 -0.013428006    1.0824229 0.00067124531 -0.013428006    1.0958509      946 
 4168000 0.0015451382 -0.011701052    1.0836838 0.00066015337 -0.011701052    1.0953849      929 
 4169000  0.001598362 -0.016231683    1.1193295 0.00067671876 -0.016231683    1.1355612      927 
 4170000 0.0015501944 -0.013394189    1.0987437 0.00065730687 -0.013394189    1.1121379      918 
 4171000 0.0015506541 -0.014139305    1.1118202 0.00065877826 -0.014139305    1.1259595      907 
 4172000 0.0015405673 -0.013165829    1.1179403 0.00064952066 -0.013165829    1.1311062      897 
 4173000  0.001500908  -0.01195757    1.1049724 0.00064563967  -0.01195757      1.11693      885 
 4174000 0.0014525279 -0.0087134867    1.0746618 0.00061425428 -0.0087134867    1.0833752      883 
 4175000 0.0014501582 -0.011984983    1.0883142 0.00061076711 -0.011984983    1.1002991      868 
 4176000  0.001468673 -0.010229799    1.1157927 0.0006228967 -0.010229799    1.1260225      859 
 4177000 0.0014851387 -0.013951858    1.1300218 0.00063876427 -0.013951858    1.1439737      855 
 4178000 0.0013902268 -0.010296069    1.0901721 0.00059238979 -0.010296069    1.1004681      832 
 4179000 0.0013880427 -0.0098947311     1.091492 0.00058532335 -0.0098947311    1.1013868      830 
 4180000 0.0013291748 -0.011568081    1.0826584 0.00057189357 -0.011568081    1.0942265      800 
 4181000 0.0013030056 -0.011877804    1.0743835 0.0005495325 -0.011877804    1.0862614      790 
 4182000  0.001322063 -0.0077336646     1.094415 0.00055988161 -0.0077336646    1.1021487      790 
 4183000 0.0013052079 -0.0070263206    1.0769546 0.00055563481 -0.0070263206     1.083981      793 
 4184000 0.0012378413 -0.010581737    1.0620892 0.00053002057 -0.010581737    1.0726709      760 
 4185000 0.0013154067 -0.010140425    1.1193429 0.00056933187 -0.010140425    1.1294833      767 
 4186000 0.0012923575 -0.0097628858    1.1175665 0.00054526839 -0.0097628858    1.1273294      755 
 4187000 0.0013269793 -0.011860854    1.1426111 0.00056881666 -0.011860854     1.154472      757 
 4188000 0.0012703855 -0.010246758    1.1249815 0.00053514104 -0.010246758    1.1352282      737 
 4189000 0.0012604429 -0.0088643479    1.1298394 0.00053978716 -0.0088643479    1.1387038      729 
 4190000 0.0012154571 -0.011089302    1.0976197 0.00051703749 -0.011089302     1.108709      722 
 4191000 0.0012055904 -0.013604426    1.0937732 0.00051043526 -0.013604426    1.1073776      717 
 4192000 0.0011809907 -0.007781395    1.0739831 0.00051172536 -0.007781395    1.0817645      719 
 4193000 0.0011795494 -0.015467658    1.0927198 0.00050795806 -0.015467658    1.1081875      701 
 4194000 0.0011663796 -0.0081387501    1.1003258 0.00049269378 -0.0081387501    1.1084645      693 
 4195000 0.0011823973  -0.01384762    1.1449545 0.00049920767  -0.01384762    1.1588021      672 
 4196000  0.001181104 -0.0095841773    1.1293079 0.00050746824 -0.0095841773    1.1388921      683 
 4197000 0.0011550073 -0.0090080637    1.1145906 0.00049066662 -0.0090080637    1.1235986      677 
 4198000 0.0011668331 -0.010003523    1.1267785 0.00049886101 -0.010003523     1.136782      676 
 4199000 0.0011793186 -0.0093717526    1.1568256 0.00050340962 -0.0093717526    1.1661974      666 
 4200000 0.0012089415 -0.011383903    1.1751985 0.00052124793 -0.011383903    1.1865824      671 
 4201000 0.0011395887 -0.010471701    1.1406353 0.00048606954 -0.010471701     1.151107      652 
 4202000 0.0011315166 -0.008899707    1.1270843 0.00047669749 -0.008899707     1.135984      656 
 4203000 0.0011752096 -0.012535527    1.1727345 0.00049720624 -0.012535527      1.18527      653 
 4204000 0.0011565744 -0.010129722    1.1617292 0.0004913192 -0.010129722    1.1718589      650 
 4205000 0.0011634879   -0.0120539    1.1946572 0.00049513333   -0.0120539    1.2067111      635 
 4206000  0.001128658 -0.0099371358    1.1909075 0.00048299631 -0.0099371358    1.2008447      619 
 4207000 0.0011870268 -0.0075951161    1.2120055 0.00050704052 -0.0075951161    1.2196006      641 
 4208000 0.0012157431 -0.0080045454    1.2469739 0.00051702802 -0.0080045454    1.2549785      638 
 4209000 0.0012359379 -0.0055463846    1.2702786 0.00054260081 -0.0055463846     1.275825      638 
 4210000 0.0011825856 -0.0056456066    1.2286476 0.00050282579 -0.0056456066    1.2342932      631 
 4211000 0.0011466415 -0.0054446216    1.2345662 0.00048964401 -0.0054446216    1.2400108      609 
 4212000 0.0012071843 -0.012535729    1.2615661 0.00050947145 -0.012535729    1.2741018      624 
 4213000 0.0011889067 -0.0079449645    1.2570018 0.00050843142 -0.0079449645    1.2649468      619 
 4214000 0.0011535049 -0.0069245819    1.2425603 0.0004916634 -0.0069245819    1.2494848      608 
 4215000 0.0011606612 -0.0077563302    1.2599051 0.00049123093 -0.0077563302    1.2676614      603 
 4216000 0.0011774763 -0.010218859    1.2715565 0.00049885766 -0.010218859    1.2817754      605 
 4217000 0.0011721081 -0.0071892702    1.2687425 0.00050288017 -0.0071892702    1.2759317      605 
 4218000 0.0011454954 -0.0082980388    1.2660463 0.00048587183 -0.0082980388    1.2743443      592 
 4219000  0.001158012 -0.0072210176    1.2810478 0.00048930945 -0.0072210176    1.2882688      592 
 4220000 0.0011247914 -0.0050697767    1.2721309 0.00048029029 -0.0050697767    1.2772007      580 
 4221000 0.0011462605 -0.0043077251     1.315475 0.00048775155 -0.0043077251    1.3197828      572 
 4222000  0.001088141 -0.0095081628    1.2656498 0.00046813425 -0.0095081628    1.2751579      562 
 4223000 0.0011099267 -0.0077855667    1.2791627 0.0004749206 -0.0077855667    1.2869483      568 
 4224000 0.0010955857 -0.010374838    1.2827108 0.00046554697 -0.010374838    1.2930856      558 
 4225000  0.001103238 -0.010928151    1.2935269 0.00046844532 -0.010928151    1.3044551      557 
 4226000 0.0010993916 -0.0065604444     1.286383 0.00046744286 -0.0065604444    1.2929434      560 
 4227000 0.0010769639 -0.0068636315    1.2850811 0.00045602098 -0.0068636315    1.2919448      549 
 4228000 0.0010201421 -0.0069886364     1.260663 0.00043582135 -0.0069886364    1.2676516      530 
 4229000 0.0010217112 -0.0069513939    1.2414508 0.00043279165 -0.0069513939    1.2484022      539 
 4230000 0.0010035987 -0.0068435869    1.2402509 0.00042687089 -0.0068435869    1.2470945      530 
 4231000 0.0010132274 -0.0072570841    1.2760149 0.00042850091 -0.0072570841     1.283272      520 
 4232000 0.0009962336 -0.0051940899    1.2663359 0.00042364829 -0.0051940899      1.27153      516 
 4233000  0.001044175 -0.0056319779    1.2918836 0.00044343883 -0.0056319779    1.2975155      530 
 4234000 0.0010150881 -0.0081977073    1.2774309 0.00044202152 -0.0081977073    1.2856286      520 
 4235000 0.0010591373 -0.0092779412    1.3321399 0.00044898794 -0.0092779412    1.3414178      520 
 4236000 0.0010213039 -0.0065588994    1.3045922  0.000433683 -0.0065588994    1.3111511      513 
 4237000 0.0010227281 -0.0089373579    1.3014878 0.00043339246 -0.0089373579    1.3104251      514 
 4238000 0.0010052085 -0.010296422    1.3137441 0.0004232738 -0.010296422    1.3240406      500 
 4239000 0.0010581272 -0.007514503    1.3274893 0.00045020452 -0.007514503    1.3350038      522 
 4240000 0.0010241695 -0.0073205777     1.317842 0.00043435954 -0.0073205777    1.3251626      509 
 4241000 0.0010222501 -0.0082782981    1.3275227 0.00043730115 -0.0082782981     1.335801      504 
 4242000 0.0010410616 -0.0070608844    1.3479446 0.00044307185 -0.0070608844    1.3550055      506 
 4243000 0.0010349309 -0.0046663094    1.3344204 0.00045529905 -0.0046663094    1.3390867      509 
 4244000  0.001049713 -0.0083536199    1.3606177 0.00044869929 -0.0083536199    1.3689713      505 
 4245000 0.0010481429 -0.0065283728    1.3550031 0.00044778413 -0.0065283728    1.3615314      507 
 4246000 0.0010029677 -0.0051303243    1.3133217 0.00042799663 -0.0051303243     1.318452      501 
 4247000 0.0010635158 -0.0064634149    1.3483158 0.00045452067 -0.0064634149    1.3547792      517 
 4248000 0.00099647857 -0.0067849768    1.3136794 0.00042438073 -0.0067849768    1.3204644      497 
 4249000 0.0010136564 -0.0084326622     1.318772 0.0004305324 -0.0084326622    1.3272047      503 
 4250000 0.00099229041 -0.010360674    1.3125392 0.00042039922 -0.010360674    1.3228999      494 
 4251000 0.00099001817 -0.0068973236    1.3023719 0.00042077887 -0.0068973236    1.3092692      498 
 4252000 0.00098796835 -0.011295986     1.292644 0.00042366755 -0.011295986      1.30394      499 
 4253000 0.00096726504 -0.0079341009    1.3275608 0.00041169045 -0.0079341009    1.3354949      477 
 4254000 0.00099968398 -0.0078056489    1.3169064 0.0004244321 -0.0078056489     1.324712      497 
 4255000 0.00099368701 -0.0086819168    1.3268943 0.00042245225 -0.0086819168    1.3355762      490 
 4256000 0.00098581933 -0.0073883303    1.3176132 0.00042050576 -0.0073883303    1.3250015      490 
 4257000 0.0009971475 -0.0055619534    1.3429214 0.00042773212 -0.0055619534    1.3484833      487 
 4258000 0.00097307525 -0.006423115    1.3370939 0.00042052486 -0.006423115     1.343517      477 
 4259000 0.0009697876 -0.0061072383    1.3135052 0.00041901583 -0.0061072383    1.3196124      484 
 4260000 0.00097434436 -0.013703688    1.3458163 0.00041818378 -0.013703688      1.35952      472 
 4261000 0.00098402316 -0.0077062481    1.3829972 0.00042042039 -0.0077062481    1.3907035      466 
 4262000 0.00094821086 -0.0043200195     1.347373 0.00040633662 -0.0043200195    1.3516931      462 
 4263000 0.00094670341 -0.0086315659    1.3322058 0.00040445852 -0.0086315659    1.3408374      465 
 4264000 0.00097003144 -0.0041118013    1.3668174 0.00041535491 -0.0041118013    1.3709292      466 
 4265000 0.00094640048 -0.0035651374    1.3225836 0.00040557511 -0.0035651374    1.3261487      470 
 4266000 0.00099826545 -0.0071160873    1.3428791 0.00042519274 -0.0071160873    1.3499952      487 
 4267000 0.00092443148 -0.0071842798    1.3221199 0.0003936194 -0.0071842798    1.3293042      458 
 4268000 0.00093257406 -0.0077340038    1.3571192 0.00040488269 -0.0077340038    1.3648532      450 
 4269000 0.00093083606 -0.0065341054    1.3527549 0.00040080775 -0.0065341054     1.359289      451 
 4270000 0.00092468421 -0.0059838365    1.3473223 0.00039993571 -0.0059838365    1.3533062      450 
 4271000 0.00095457718 -0.0049813467    1.3767219 0.00041169636 -0.0049813467    1.3817033      455 
 4272000 0.0009593783 -0.0042551816    1.3693034 0.00040927836 -0.0042551816    1.3735586      460 
 4273000 0.00096848171 -0.0053345279    1.3782498 0.00041172608 -0.0053345279    1.3835843      461 
 4274000 0.00093019079 -0.0046288842    1.3689459 0.00039644673 -0.0046288842    1.3735748      446 
 4275000  0.000911079  -0.00264943    1.3337148 0.00038837382  -0.00264943    1.3363642      449 
 4276000 0.00096543837 -0.0043690097    1.3839019 0.00041145071 -0.0043690097    1.3882709      458 
 4277000 0.00094047578 -0.0032620936    1.3670652 0.00040068573 -0.0032620936    1.3703273      452 
 4278000 0.0009512451 -0.0044768584    1.3693839 0.00040698368 -0.0044768584    1.3738608      456 
 4279000 0.00098957726 -0.0031645613    1.4167171 0.00042162217 -0.0031645613    1.4198817      459 
 4280000 0.00097038458 -0.0034881687    1.3949485 0.00041832338 -0.0034881687    1.3984367      457 
 4281000 0.0010212508 -0.0061276214    1.4496853 0.00043463247 -0.0061276214    1.4558129      462 
 4282000 0.00097119901 -0.0035109627    1.3960994 0.00041340054 -0.0035109627    1.3996104      457 
 4283000 0.00094193742 -0.001193145    1.3712639 0.00040281668 -0.001193145     1.372457      452 
 4284000 0.0010051555 -0.0017093005    1.4468364 0.00042937644 -0.0017093005    1.4485457      457 
 4285000 0.00096982204 -0.0009724164    1.4408224 0.00041482859 -0.0009724164    1.4417948      443 
 4286000 0.00092691192 -0.0018109432    1.4047672 0.00039587884 -0.0018109432    1.4065782      434 
 4287000 0.00097485279 -0.0037547976    1.4072964 0.00041598323 -0.0037547976    1.4110512      455 
 4288000 0.00095465455 -0.0036776483    1.4123718 0.00041141653 -0.0036776483    1.4160494      444 
 4289000 0.00093885279 -0.0047757492    1.4036959 0.00039890584 -0.0047757492    1.4084717      439 
 4290000 0.00087379631 -0.0071282925     1.356553 0.00037398875 -0.0071282925    1.3636813      422 
 4291000 0.00090189861 -0.010097638    1.3680495 0.00038354799 -0.010097638    1.3781471      431 
 4292000  0.000910062 -0.0035427831    1.3838594 0.00039544637 -0.0035427831    1.3874022      432 
 4293000 0.0009253303 -0.0025121985    1.3888423 0.00039466506 -0.0025121985    1.3913545      438 
 4294000 0.00089377973 -0.0018562169    1.3638848 0.00038665702 -0.0018562169     1.365741      431 
 4295000 0.00090465506 -0.0024039967    1.3578626 0.00038644617 -0.0024039967    1.3602666      438 
 4296000 0.00091032721 -0.00059813898    1.4200947 0.00038975304 -0.00059813898    1.4206929      422 
 4297000 0.00088452567 -0.0018270245    1.3884827 0.00037779292 -0.0018270245    1.3903097      419 
 4298000 0.00092297522 -0.00041944133    1.4332179 0.00039527989 -0.00041944133    1.4336374      424 
 4299000 0.00089345006 -0.0054374457     1.372589 0.00038152071 -0.0054374457    1.3780264      427 
 4300000 0.00092677083 -0.001940819    1.4409953 0.00039586765 -0.001940819    1.4429362      423 
 4301000 0.00089265759 -0.0036813326    1.4232492 0.00038018719 -0.0036813326    1.4269305      412 
 4302000 0.00098174486 -0.0012001657    1.4817525 0.00041992031 -0.0012001657    1.4829526      436 
 4303000 0.00096609142 -0.0030863564    1.4975225 0.00041681491 -0.0030863564    1.5006088      424 
 4304000 0.0009856349 -0.00036214868    1.5234155 0.00042225934 -0.00036214868    1.5237777      426 
 4305000 0.00095755518 -0.003952681    1.4592405 0.00040774542 -0.003952681    1.4631932      431 
 4306000 0.00090805253 -0.00022912316    1.4202799 0.00038906658 -0.00022912316    1.4205091      421 
 4307000 0.00093083167 -0.0041863746    1.4694589 0.00039724359 -0.0041863746    1.4736453      416 
 4308000 0.00097130242  -0.00154422    1.5000756 0.00041503555  -0.00154422    1.5016199      426 
 4309000 0.00097466044 -0.0025887405    1.4971814 0.00041608764 -0.0025887405    1.4997701      428 
 4310000 0.00097926911 -0.0031274777     1.514371 0.00041785623 -0.0031274777    1.5174985      425 
 4311000 0.00097681871 -0.0030141783    1.5106871 0.00041677484 -0.0030141783    1.5137013      425 
 4312000 0.00093266286 -0.0050227729    1.4715215 0.00040092356 -0.0050227729    1.4765443      416 
 4313000 0.0009298324 -0.0057412381    1.4453922 0.00039543954 -0.0057412381    1.4511335      422 
 4314000 0.00095092334 -0.0018599344     1.507221 0.00040628764 -0.0018599344     1.509081      415 
 4315000 0.00094865344 -0.0050046192     1.486102 0.00040447673 -0.0050046192    1.4911066      419 
 4316000 0.00097141925 -0.0030556007    1.5093959 0.00041871583 -0.0030556007    1.5124516      423 
 4317000 0.00096594875 -0.0019545588    1.5199693 0.00041244472 -0.0019545588    1.5219239      418 
 4318000 0.00094253633 -0.0028880484    1.5185458 0.00040216218 -0.0028880484    1.5214338      408 
 4319000 0.00091432779 -0.003093414    1.4620334 0.00040093356 -0.003093414    1.4651269      411 
 4320000 0.00093403858 -0.0026604529    1.4904184 0.00039855565 -0.0026604529    1.4930788      412 
 4321000 0.0009383046 -0.0028438807    1.4615116 0.00040012412 -0.0028438807    1.4643555      422 
 4322000 0.00091181222 -0.0044468795    1.4460614 0.00038802322 -0.0044468795    1.4505082      414 
 4323000 0.00094079115 -0.0034187021    1.4859939 0.0004008169 -0.0034187021    1.4894126      416 
 4324000 0.00092550477 -0.0051645401    1.4851244  0.000399304 -0.0051645401     1.490289      409 
 4325000 0.00092506066 -0.0022372191    1.4800881 0.00039522364 -0.0022372191    1.4823253      411 
 4326000 0.00086992635 -0.0020460326    1.4338557 0.00037130588 -0.0020460326    1.4359017      399 
 4327000 0.00090877039 -0.0017040169    1.4724514 0.00038833027 -0.0017040169    1.4741554      406 
 4328000 0.00087453832 -0.00039975096    1.4540502 0.00037455034 -0.00039975096      1.45445      396 
 4329000 0.00086017194 -0.00085610831    1.4369628 0.00036804889 -0.00085610831    1.4378189      394 
 4330000 0.00087473046 -0.0071774825    1.4258791 0.00037489943 -0.0071774825    1.4330566      402 
 4331000 0.00081896185 -0.00090835095    1.3785292 0.00035035371 -0.00090835095    1.3794376      391 
 4332000 0.00082597747 -0.0010311884    1.3761346 0.00035331313 -0.0010311884    1.3771658      395 
 4333000 0.00083928725 -0.0033630989    1.4175783  0.000357767 -0.0033630989    1.4209414      389 
 4334000 0.00084859799 -0.0023545509     1.423355 0.00036205369 -0.0023545509    1.4257096      392 
 4335000 0.00088632223 -0.0040308397    1.4812693 0.00037722827 -0.0040308397    1.4853001      393 
 4336000 0.00087144171 -0.00028434693    1.4238417 0.00037340094 -0.00028434693     1.424126      403 
 4337000 0.00080651764 -0.0030573454     1.362404 0.00034351699 -0.0030573454    1.3654613      389 
 4338000 0.00082062984 -0.0033442394    1.3718685 0.0003500833 -0.0033442394    1.3752127      393 
 4339000 0.00080930669 -0.0038755815    1.3523618 0.00034452346 -0.0038755815    1.3562374      393 
 4340000 0.00080577775 -0.00054262918    1.3886646 0.00034497287 -0.00054262918    1.3892072      382 
 4341000 0.00077356574 -0.0029461997    1.3134948 0.00032951563 -0.0029461997     1.316441      387 
 4342000 0.00078978428 -0.00090573106    1.3973309 0.00033776451 -0.00090573106    1.3982366      372 
 4343000 0.00080912787 -0.0024722571    1.3709389 0.0003462965 -0.0024722571    1.3734111      388 
 4344000 0.00081073761 -0.0022455457    1.3668408 0.00034652251 -0.0022455457    1.3690864      390 
 4345000 0.0008180869 -0.00078040899    1.3914259 0.00035005417 -0.00078040899    1.3922063      387 
 4346000 0.00079249706 -0.0044034546    1.3986359 0.00033680475 -0.0044034546    1.4030394      372 
 4347000 0.00077145556 -0.002655946    1.3486018 0.00032885385 -0.002655946    1.3512578      376 
 4348000 0.00077888603 -0.0022629366    1.3841331 0.00033233707 -0.0022629366    1.3863961      370 
 4349000 0.00081227256 -0.0027647654    1.4237808 0.00034673613 -0.0027647654    1.4265456      375 
 4350000 0.00080409901 -0.0015453461    1.4068897 0.00034979705 -0.0015453461     1.408435      376 
 4351000 0.00080746911 -0.00046444837    1.4368087 0.00034573428 -0.00046444837    1.4372732      370 
 4352000 0.00085932748 0.0054364355    1.4869665 0.00038735917 0.0054364355    1.4815301      382 
 4353000 0.00085485427 -0.0037475319    1.5056317 0.0003675055 -0.0037475319    1.5093793      373 
 4354000 0.0008119679 -0.0033007516    1.4577756 0.00034587862 -0.0033007516    1.4610763      366 
 4355000 0.00085438082 -0.00034590124    1.5081974 0.00036595896 -0.00034590124    1.5085433      373 
 4356000 0.00080750139 -0.0037061852    1.4533139 0.00034709479 -0.0037061852    1.4570201      365 
 4357000 0.00081825496 -0.0017020146    1.4869569 0.00034959638 -0.0017020146    1.4886589      362 
 4358000 0.00082585077 -0.0029417006     1.443593 0.00035281822 -0.0029417006    1.4465347      376 
 4359000 0.00081798661 -0.00054729477    1.4284124 0.00035021891 -0.00054729477    1.4289597      377 
 4360000 0.00081488115 -0.0046165541    1.4820111 0.00034901753 -0.0046165541    1.4866276      361 
 4361000 0.00082946332 -0.0010102991    1.4794131 0.00035494563 -0.0010102991    1.4804234      369 
 4362000 0.00077920863 -0.00023648458    1.4252608 0.00033384303 -0.00023648458    1.4254973      360 
 4363000 0.00076799253 -0.0025162439    1.4384872 0.0003277196 -0.0025162439    1.4410034      351 
 4364000 0.00083648273 -0.004471464    1.4804319 0.0003569143 -0.004471464    1.4849034      371 
 4365000 0.00077964551 -0.003177159    1.4680742 0.00033262285 -0.003177159    1.4712514      349 
 4366000 0.00077553961 -0.0035163415    1.4113386 0.00032998749 -0.0035163415    1.4148549      361 
 4367000 0.00076454226 -0.00014362502    1.3907953 0.00032761739 -0.00014362502    1.3909389      362 
 4368000 0.00076717558 -0.0037673462    1.4565048 0.00032682016 -0.0037673462    1.4602722      346 
 4369000 0.00078662485 -0.00095285267    1.4583803 0.00033642018 -0.00095285267    1.4593331      355 
 4370000 0.00075778498 -0.0030787935    1.4228344 0.00032330733 -0.0030787935    1.4259132      350 
 4371000 0.00077537497 -0.00070508353    1.4418209 0.00033193532 -0.00070508353     1.442526      354 
 4372000 0.00081990796 -0.0032835028    1.5092744 0.00035465628 -0.0032835028    1.5125579      357 
 4373000 0.00083706379 -0.0025851813    1.4914035 0.00035735299 -0.0025851813    1.4939887      369 
 4374000 0.0008034584 -0.0030168479    1.4427473 0.00034784665 -0.0030168479    1.4457641      366 
 4375000 0.00081477968 -0.00066361928     1.430285 0.00034869148 -0.00066361928    1.4309487      375 
 4376000 0.00077386503 -0.0027923644    1.3897207 0.00033039913 -0.0027923644     1.392513      366 
 4377000 0.00079456166 -0.0050991596    1.4285731 0.00033757939 -0.0050991596    1.4336722      365 
 4378000 0.00079787225 -0.0014455413    1.4035563 0.00034084348 -0.0014455413    1.4050018      374 
 4379000 0.0008233841 -0.00090832045    1.4646931 0.00035228181 -0.00090832045    1.4656015      370 
 4380000 0.00084100914 -0.0014356536    1.5036736 0.00035940521 -0.0014356536    1.5051093      368 
 4381000 0.0008762507 -0.004655954    1.5260866 0.00037295596 -0.004655954    1.5307426      377 
 4382000 0.00085815361 -0.0024353447    1.5168426 0.00037152719 -0.0024353447    1.5192779      372 
 4383000 0.00085767088 -0.00055066656    1.5097527 0.00036727056 -0.00055066656    1.5103034      374 
 4384000 0.00086273283 -0.00080926645    1.5023315 0.00036925139 -0.00080926645    1.5031408      378 
 4385000 0.00085424289 -0.0021374634    1.5434555 0.00036522931 -0.0021374634    1.5455929      364 
 4386000 0.00088388853 -0.0014623207     1.576099 0.00037781492 -0.0014623207    1.5775614      369 
 4387000 0.00084634438 -0.00054455439     1.534976 0.00036235847 -0.00054455439    1.5355205      363 
 4388000 0.0008149198 -0.0023392144    1.4680664 0.00034778174 -0.0023392144    1.4704056      365 
 4389000 0.0007703937 -0.0074139255     1.405883 0.00032910514 -0.0074139255    1.4132969      359 
 4390000   0.00083105 -0.00047453537     1.455167 0.00035590191 -0.00047453537    1.4556415      376 
 4391000 0.00085122311 -0.0065022983     1.492447 0.00036267878 -0.0065022983    1.4989493      374 
 4392000 0.00080668437 -0.0038919248    1.4637165 0.00034548627 -0.0038919248    1.4676084      362 
 4393000 0.00083660271 -0.0038161984      1.51403 0.00036109045 -0.0038161984    1.5178462      363 
 4394000 0.00077715954 -0.00053610033    1.4576676 0.0003327799 -0.00053610033    1.4582037      351 
 4395000 0.00082162208  -0.00277719    1.5476872 0.00035167292  -0.00277719    1.5504644      349 
 4396000 0.00081633933 -0.00093197496    1.5395635 0.00034929957 -0.00093197496    1.5404955      349 
 4397000 0.00083493131 -0.0029951357    1.5244421 0.00035627379 -0.0029951357    1.5274373      360 
 4398000 0.00079858616 -0.0041422301    1.4487331 0.00034382946 -0.0041422301    1.4528753      362 
 4399000 0.00080828723 -0.0012395706    1.4857154 0.00034571619 -0.0012395706     1.486955      358 
 4400000 0.00080589362 -0.0014281454    1.4894524 0.00034440525 -0.0014281454    1.4908806      356 
 4401000 0.00082997867 -0.001597652    1.5252617 0.00035469055 -0.001597652    1.5268594      358 
 4402000 0.0007859984 -0.0028648983    1.4761371 0.00033515929 -0.0028648983     1.479002      350 
 4403000 0.00078038414 -0.0038479523    1.4237998 0.00033707764 -0.0038479523    1.4276478      360 
 4404000 0.00075595651 -0.0015889938    1.4331816 0.00032304315 -0.0015889938    1.4347706      347 
 4405000 0.00080727292 -0.00077515899    1.5313916 0.00034558251 -0.00077515899    1.5321668      347 
 4406000 0.00081576228 -0.0058373218    1.4906888 0.00034814134 -0.0058373218    1.4965261      359 
 4407000 0.00072842179 -0.00057772088    1.3545955 0.00031184403 -0.00057772088    1.3551732      354 
 4408000 0.00077755396 -0.006132204     1.404582 0.00033054689 -0.006132204    1.4107142      363 
 4409000 0.0007810498 -0.0034635301    1.4704379 0.00033342235 -0.0034635301    1.4739014      349 
 4410000 0.00081533481 -0.00065736483    1.4992626 0.00034892464 -0.00065736483      1.49992      358 
 4411000 0.00082416299 -0.0035498232    1.4876191 0.00035086022 -0.0035498232     1.491169      364 
 4412000 0.00077488657 -0.0035779085    1.4299405 0.00033175917 -0.0035779085    1.4335184      356 
 4413000 0.00081181827 -0.002562096    1.4908887 0.00034703116 -0.002562096    1.4934508      358 
 4414000 0.00080396845 -0.0023473568    1.4976118 0.00034368076 -0.0023473568    1.4999591      353 
 4415000 0.00076859238 -0.0067823837     1.460427 0.00032889481 -0.0067823837    1.4672094      345 
 4416000 0.00081435741 -0.0029617964    1.5337936 0.00034935724 -0.0029617964    1.5367554      349 
 4417000 0.0008263956 -0.0038269596     1.533619 0.00035336544 -0.0038269596     1.537446      354 
 4418000 0.00082042299 -0.0057594512    1.4909784 0.00034949948 -0.0057594512    1.4967379      361 
 4419000 0.0008139221 -0.0048754064    1.4924457 0.00034706316 -0.0048754064    1.4973211      358 
 4420000 0.00079992308 -0.0026052883    1.4689627 0.00034229976 -0.0026052883     1.471568      358 
 4421000 0.00075246174 -0.0045662544    1.4318505 0.00032054198 -0.0045662544    1.4364168      345 
 4422000 0.00078948226 -0.00036537974    1.4684062 0.00033816498 -0.00036537974    1.4687715      354 
 4423000 0.00079995615 -0.001445347    1.4620078 0.00034199522 -0.001445347    1.4634531      360 
 4424000 0.00079047233 -5.949928e-06     1.522208 0.00033889477 -5.949928e-06     1.522214      342 
 4425000 0.00082445825 -0.00021315149    1.5556033 0.0003609123 -0.00021315149    1.5558165      349 
 4426000 0.00081178484 -0.002938085    1.5741515 0.00034711786 -0.002938085    1.5770896      339 
 4427000 0.00079229394 -0.003098888    1.4792786 0.00033961955 -0.003098888    1.4823775      352 
 4428000 0.00079874095 -0.0051589858    1.5064583 0.00034020538 -0.0051589858    1.5116173      348 
 4429000 0.00079765259 -0.0026877284    1.4897157 0.00034038325 -0.0026877284    1.4924035      352 
 4430000 0.00080120237 -3.8312815e-05    1.4990068 0.0003434734 -3.8312815e-05    1.4990451      352 
 4431000 0.00074798131 -0.0025863762    1.4723029 0.00031919432 -0.0025863762    1.4748893      334 
 4432000 0.00078727208 -0.0028426907    1.4828006 0.00033572877 -0.0028426907    1.4856433      349 
 4433000 0.00074871702 -0.001092277    1.4577762 0.00032031496 -0.001092277    1.4588685      338 
 4434000 0.00079020841 -0.004748581     1.432885 0.00034203229 -0.004748581    1.4376336      362 
 4435000 0.0007671869 -0.0017347538    1.4460063 0.00032772987 -0.0017347538     1.447741      349 
 4436000 0.00080518642 -0.0013654394     1.455469 0.0003441625 -0.0013654394    1.4568344      364 
 4437000 0.00080806705 -0.0022065864    1.5096823 0.00034500777 -0.0022065864    1.5118889      352 
 4438000 0.0007394783 -0.0018639197    1.4432786 0.00031593732 -0.0018639197    1.4451425      337 
 4439000 0.00080302588 -0.0010443844    1.4887157 0.00034352692 -0.0010443844      1.48976      355 
 4440000 0.00085773811 -0.0025128422    1.5932435 0.0003661077 -0.0025128422    1.5957563      354 
 4441000 0.00081610188 -0.00011558069    1.5623162 0.00034974769 -0.00011558069    1.5624318      344 
 4442000 0.00079173163 -0.0028564302    1.5173375 0.00033859759 -0.0028564302     1.520194      343 
 4443000 0.00076277322 -0.0013807079    1.4547202 0.00032625337 -0.0013807079    1.4561009      345 
 4444000 0.00079783179 -0.0016992248     1.521327 0.00034100308 -0.0016992248    1.5230262      345 
 4445000 0.00080006053 -0.0010342354    1.5396437 0.00034240199 -0.0010342354     1.540678      342 
 4446000 0.00082464515 0.0023320758    1.5950096 0.00036573282 0.0023320758    1.5926776      341 
 4447000 0.00081541219 -0.00049849504    1.5606129 0.00034920227 -0.00049849504    1.5611114      344 
 4448000 0.0008560613 -1.6706395e-05    1.5574237 0.00036700957 -1.6706395e-05    1.5574404      362 
 4449000 0.00081129562 -0.0033812005    1.5408708 0.00034910737 -0.0033812005     1.544252      346 
 4450000 0.00089925576 -0.00015356527    1.6179908 0.00038530674 -0.00015356527    1.6181444      366 
 4451000 0.00084177508 -0.0028764231    1.5947739 0.00036056517 -0.0028764231    1.5976503      347 
 4452000 0.00087420939 -0.0019758929    1.6062519 0.0003733964 -0.0019758929    1.6082278      358 
 4453000 0.00087947405 -0.0004294015    1.6265729 0.00037674132 -0.0004294015    1.6270023      356 
 4454000 0.00087049194 -0.0022173587     1.577114 0.00037198679 -0.0022173587    1.5793314      363 
 4455000 0.00077470034 -0.0029666647    1.4976507 0.00033044181 -0.0029666647    1.5006173      340 
 4456000 0.00082782864 -0.00030094817    1.5708796 0.00035465452 -0.00030094817    1.5711806      347 
 4457000 0.00082743835 -0.0011075142    1.5784363 0.00035399194 -0.0011075142    1.5795438      345 
 4458000 0.00082321051 -0.0041517084    1.5317072 0.00035104584 -0.0041517084    1.5358589      353 
 4459000 0.00082357314 -0.0030013795     1.516318 0.00035248113 -0.0030013795    1.5193194      357 
 4460000 0.00084749667 -0.0018476211    1.5704139 0.00036199579 -0.0018476211    1.5722615      355 
 4461000 0.0007936247 -0.00035839805     1.536916 0.00033992391 -0.00035839805    1.5372744      340 
 4462000 0.00081886169 -0.0025939999    1.5382463 0.00034930355 -0.0025939999    1.5408403      350 
 4463000 0.00086047457 -0.0015618641    1.5553061 0.00036787153 -0.0015618641     1.556868      364 
 4464000 0.00082321001 -0.0011721499    1.5090169 0.00035216057 -0.0011721499    1.5101891      359 
 4465000 0.00087720232 -0.0061874519     1.555209 0.00037246083 -0.0061874519    1.5613964      370 
 4466000 0.00085038053 -0.0031568097    1.5145996 0.00036299312 -0.0031568097    1.5177564      369 
 4467000 0.00083034589 -0.002332855    1.4877421 0.00035431309 -0.002332855    1.4900749      367 
 4468000 0.0008465967 -0.0034023098    1.5410856 0.00036125877 -0.0034023098    1.5444879      361 
 4469000 0.00084555881 -0.00043787822    1.5421565 0.0003621216 -0.00043787822    1.5425944      361 
 4470000 0.00082626437 -0.0033991922     1.487476 0.00035228743 -0.0033991922    1.4908752      365 
 4471000 0.00080709084 -0.00038731209     1.518304 0.00035373171 -0.00038731209    1.5186913      350 
 4472000 0.00081724232 -0.0019690402    1.5141651 0.00034932685 -0.0019690402    1.5161341      355 
 4473000 0.00085357306 -0.0027112084    1.5332305 0.0003645516 -0.0027112084    1.5359417      366 
 4474000 0.00085333238 -0.00068607735      1.55609 0.00036529022 -0.00068607735    1.5567761      361 
 4475000 0.00086120923 -0.00033364797    1.5751769 0.00036900358 -0.00033364797    1.5755105      360 
 4476000 0.00082513558 -0.0075891446    1.5450567 0.00035177533 -0.0075891446    1.5526458      350 
 4477000 0.00085102008 -0.00038235151    1.5393795 0.00036450269 -0.00038235151    1.5397618      364 
 4478000 0.00086760774 -0.0048555886    1.5478558 0.00036893776 -0.0048555886    1.5527114      368 
 4479000 0.00087154518 -0.0037424037    1.5862602 0.00037230883 -0.0037424037    1.5900026      361 
 4480000 0.00087356268 0.00028072185    1.5764989 0.00038285574 0.00028072185    1.5762182      365 
 4481000 0.00086705122 -0.0048349531    1.5553598 0.00036882058 -0.0048349531    1.5601947      366 
 4482000 0.00089581378 -0.0021082385    1.5881182 0.0003941974 -0.0021082385    1.5902264      371 
 4483000 0.00091030925 -0.0018042479    1.5926654 0.00038916556 -0.0018042479    1.5944696      376 
 4484000 0.00090727829 -0.0014864783    1.5627135 0.00038797872 -0.0014864783       1.5642      382 
 4485000 0.00088627789 -0.00023059653    1.5773201 0.00037978238 -0.00023059653    1.5775507      370 
 4486000 0.00092332518 -0.00058756968    1.6081234 0.00039532271 -0.00058756968    1.6087109      378 
 4487000 0.00094720135 -0.0041295056    1.6119776 0.0004062412 -0.0041295056    1.6161071      386 
 4488000 0.00092786312 -0.0069356072    1.5680164 0.0004022764 -0.0069356072     1.574952      388 
 4489000 0.00095230733 -0.00060464568    1.5831834 0.00040777174 -0.00060464568    1.5837881      396 
 4490000 0.00090584113 -0.0031396502    1.5877348 0.0003893079 -0.0031396502    1.5908744      375 
 4491000 0.00089849377 -0.00068024594    1.5483748 0.00038471682 -0.00068024594     1.549055      382 
 4492000 0.0008194163 -0.0012783109    1.4772405 0.0003503161 -0.0012783109    1.4785189      365 
 4493000 0.00090157225 -0.0046469841    1.5703304 0.00038493381 -0.0046469841    1.5749774      377 
 4494000 0.0008933441 -0.0018902411    1.5382864 0.0003817528 -0.0018902411    1.5401767      382 
 4495000 0.00084137793 -0.0019063916    1.4448902 0.00035935252 -0.0019063916    1.4467966      383 
 4496000 0.0008496129 -0.0052439396     1.467247 0.00036165393 -0.0052439396    1.4724909      380 
 4497000 0.00087568338 -0.0048645911    1.5412918 0.00037355369 -0.0048645911    1.5461563      373 
 4498000 0.00085935245 -0.0056859262    1.4915652 0.0003653506 -0.0056859262    1.4972511      378 
 4499000 0.0008831415 -0.0050630087     1.584085 0.00037703526 -0.0050630087     1.589148      366 
 4500000 0.00086868236 -0.0095102987     1.508011 0.00037210153 -0.0095102987    1.5175213      377 
 4501000 0.00088023814 -0.0067374313    1.5228563 0.00038181699 -0.0067374313    1.5295938      379 
 4502000 0.00084681242 -0.0038376527    1.5075504 0.00036080901 -0.0038376527     1.511388      369 
 4503000 0.00086162727 -0.0050634788    1.4961511 0.00037113897 -0.0050634788    1.5012146      378 
 4504000 0.00080419888 -0.0072317108    1.4599077 0.00034414887 -0.0072317108    1.4671394      361 
 4505000 0.00081486612 -0.0044801212    1.4342938 0.00034917663 -0.0044801212    1.4387739      373 
 4506000 0.00084577291 -0.0037839499     1.501669 0.00036024733 -0.0037839499    1.5054529      370 
 4507000 0.00088376666 -0.0021317376    1.4788858 0.00038111359 -0.0021317376    1.4810175      393 
 4508000 0.00088480761 -0.0018407234     1.500029 0.00037826358 -0.0018407234    1.5018697      388 
 4509000 0.00085778014 -0.0020510672    1.4885173 0.00037072482 -0.0020510672    1.4905684      379 
 4510000 0.00085404128 -0.0026397144    1.4507532 0.00036444882 -0.0026397144    1.4533929      387 
 4511000 0.00085864464 -0.0027144483    1.4585124 0.00037080995 -0.0027144483    1.4612268      387 
 4512000 0.00085786745 -0.0017904944    1.4618958 0.00036671801 -0.0017904944    1.4636863      386 
 4513000 0.00081145851 -0.0061822393    1.3711849 0.0003530743 -0.0061822393    1.3773672      388 
 4514000 0.00082721231 -0.0018344606    1.4432418 0.00035361207 -0.0018344606    1.4450763      377 
 4515000 0.00085775182 -0.0033389619    1.4754746 0.00036894971 -0.0033389619    1.4788135      382 
 4516000 0.00084488145 -0.0030984451    1.3949681 0.00036034962 -0.0030984451    1.3980665      398 
 4517000 0.00083346301 -0.0043951065    1.4103224 0.00035498674 -0.0043951065    1.4147175      388 
 4518000 0.0008801035 -0.0026569855    1.4722218 0.00037627609 -0.0026569855    1.4748788      393 
 4519000 0.00087248431 -0.0047680143    1.4389743 0.00037302916 -0.0047680143    1.4437423      398 
 4520000  0.000898663 -0.0032245972    1.4229211 0.00038699343 -0.0032245972    1.4261457      415 
 4521000 0.00089500599 -0.0016541756    1.4719508 0.00038269581 -0.0016541756     1.473605      400 
 4522000 0.00087822791 -0.0032185109    1.4427618 0.00037587133 -0.0032185109    1.4459803      400 
 4523000 0.00091632574 -0.0082768682     1.452941 0.00038879892 -0.0082768682    1.4612178      413 
 4524000 0.00093373888 -0.0044144068     1.491817 0.00040073796 -0.0044144068    1.4962314      411 
 4525000 0.00091794283 -0.0050284601    1.4988222 0.00039202686 -0.0050284601    1.5038507      402 
 4526000 0.0008835404 -0.0039785556    1.4543946 0.00037612193 -0.0039785556    1.4583731      399 
 4527000 0.00090509814 -0.0024878464    1.4693358 0.00038630117 -0.0024878464    1.4718237      405 
 4528000 0.00091077735 -0.0074926554    1.5187894 0.00038682163 -0.0074926554    1.5262821      393 
 4529000 0.00096467866 -0.0029122108    1.5428973 0.00041133588 -0.0029122108    1.5458095      411 
 4530000 0.00094182607 -0.001626138    1.5261503 0.00040242478 -0.001626138    1.5277764      406 
 4531000 0.00090806561 -0.0028022828    1.4738469 0.00038735411 -0.0028022828    1.4766492      405 
 4532000 0.00086978333 -0.0039162121    1.4648802 0.00037003865 -0.0039162121    1.4687964      390 
 4533000 0.00087986627 -0.0006194794    1.4516891 0.00037668371 -0.0006194794    1.4523086      399 
 4534000 0.0009026735 -0.0045692908    1.4596961 0.00038694493 -0.0045692908    1.4642654      406 
 4535000 0.00093377048 -0.0028066198    1.5081809 0.00040182446 -0.0028066198    1.5109875      407 
 4536000 0.00090839839 -0.00034238095    1.4878718 0.00038916972 -0.00034238095    1.4882142      402 
 4537000 0.00089794149 -0.0010921225    1.4810515 0.00038413621 -0.0010921225    1.4821436      399 
 4538000 0.00090986835 -0.0040678308    1.5324198 0.00038908345 -0.0040678308    1.5364877      390 
 4539000 0.00092238801 -0.00073396766    1.5371787 0.00039479334 -0.00073396766    1.5379127      395 
 4540000 0.0008721596 -0.0020715089        1.486 0.00037254669 -0.0020715089    1.4880715      386 
 4541000 0.00090126021 -0.006555569    1.5115032 0.00038747259 -0.006555569    1.5180587      391 
 4542000 0.00094099561 -0.00050568878    1.5724138 0.00040307476 -0.00050568878    1.5729195      394 
 4543000 0.0009232544 -0.0023643739    1.5728846 0.00039421768 -0.0023643739     1.575249      386 
 4544000 0.00089846441 -0.00043669261    1.5129129 0.00038485521 -0.00043669261    1.5133496      391 
 4545000 0.00089088243 -0.00061354304    1.5434029 0.00038148862 -0.00061354304    1.5440165      380 
 4546000 0.00085857693 -0.002260302    1.4896927 0.00036691535 -0.002260302     1.491953      379 
 4547000 0.00089291114 -0.0006841398    1.5509315 0.00038224672 -0.0006841398    1.5516157      379 
 4548000 0.00088313637 -0.0038301963    1.5029698 0.00037806221 -0.0038301963       1.5068      386 
 4549000 0.00090172394 -0.0030537547    1.5434732 0.00038551357 -0.0030537547     1.546527      384 
 4550000 0.00088235214 -0.0010473986    1.4928043 0.00037744309 -0.0010473986    1.4938517      389 
 4551000 0.00087459685 -0.0055194094    1.5304826 0.00037210109 -0.0055194094     1.536002      375 
 4552000 0.00090749492 -0.0036486731     1.552776 0.00038676421 -0.0036486731    1.5564247      384 
 4553000 0.00087424978 -0.00080919099    1.4869742 0.00037409993 -0.00080919099    1.4877834      387 
 4554000 0.00090360004 -0.0022331168    1.5197668 0.00038636121 -0.0022331168    1.5219999      391 
 4555000 0.00090115104 -0.0023972967    1.5232815 0.00038446008 -0.0023972967    1.5256788      389 
 4556000 0.00085035871 -0.0040380825    1.4543935 0.00036337903 -0.0040380825    1.4584316      384 
 4557000 0.00082697007 -0.0028847556    1.4611857 0.00035406594 -0.0028847556    1.4640705      372 
 4558000 0.00082309586 -0.003742723    1.4379666 0.00035163192 -0.003742723    1.4417093      376 
 4559000 0.00083727558  -0.00264072    1.4296225 0.00035852162  -0.00264072    1.4322632      385 
 4560000 0.00085434248 -0.0028811301    1.4662087 0.00036563686 -0.0028811301    1.4690899      383 
 4561000 0.00082481633 -0.0034513369    1.4767007 0.0003525125 -0.0034513369     1.480152      367 
 4562000 0.00090104477 -0.0076773925    1.5217532 0.00038482716 -0.0076773925    1.5294306      388 
 4563000 0.00084158391 -0.0080593257    1.4739159 0.00035940283 -0.0080593257    1.4819753      374 
 4564000 0.00090282544 -0.0029992176    1.5334137 0.0003860668 -0.0029992176    1.5364129      387 
 4565000 0.00085163065 -0.0071593892    1.4688286 0.00036305185 -0.0071593892     1.475988      380 
 4566000 0.00086463984 -0.005087428    1.5134276 0.00036928245 -0.005087428    1.5185151      375 
 4567000 0.00094494752 -0.005090247    1.5784543 0.0004031359 -0.005090247    1.5835445      393 
 4568000 0.00087069235 -0.0085803785    1.4964833 0.00037332149 -0.0085803785    1.5050637      381 
 4569000 0.00091507718 -0.0078275976    1.5575248 0.00039345078 -0.0078275976    1.5653524      385 
 4570000 0.00089174686 -0.0043272986    1.5330956 0.00038091295 -0.0043272986    1.5374229      382 
 4571000 0.00088059515 -0.0067867834    1.4840902 0.0003749127 -0.0067867834     1.490877      389 
 4572000 0.00091452229 -0.0049018277     1.493345 0.00039299794 -0.0049018277    1.4982469      402 
 4573000 0.00092524123 -0.0094550765    1.5332149 0.00039487436 -0.0094550765    1.5426699      395 
 4574000 0.00085223982 -0.0075460229    1.4617645 0.00036233134 -0.0075460229    1.4693105      382 
 4575000 0.00087326085 -0.0076248087    1.4632725 0.00037169148 -0.0076248087    1.4708974      391 
 4576000 0.00086854867 -0.0048215214    1.4886967 0.00037050874 -0.0048215214    1.4935182      383 
 4577000 0.00082378471 -0.0046097063    1.4193703 0.00035166257 -0.0046097063      1.42398      381 
 4578000 0.00084267528 -0.0045839067      1.44067 0.00035939527 -0.0045839067    1.4452539      384 
 4579000 0.00083534719 -0.0028248792    1.4373618 0.00035754417 -0.0028248792    1.4401867      382 
 4580000 0.00085216624 -0.0025824576    1.4327837 0.00036492118 -0.0025824576    1.4353662      391 
 4581000 0.00082237567 -0.0042237907    1.3669367 0.00035096934 -0.0042237907    1.3711605      395 
 4582000 0.00088701841 -0.0037558086    1.4386675 0.00037875821 -0.0037558086    1.4424233      405 
 4583000 0.0008795713 -0.0020009783    1.4212837 0.00037552954 -0.0020009783    1.4232847      407 
 4584000 0.00083838652 -0.00017949107    1.4339841 0.00035918273 -0.00017949107    1.4341636      385 
 4585000 0.00082215018 -0.00036842814    1.4170658 0.00035208448 -0.00036842814    1.4174343      382 
 4586000 0.00083092535 -0.002234941    1.4045494 0.0003550842 -0.002234941    1.4067844      389 
 4587000 0.00083360418 -0.0027004877    1.4382532 0.00035571557 -0.0027004877    1.4409537      381 
 4588000 0.00086308521 -0.0041041416    1.4422554 0.00036833982 -0.0041041416    1.4463595      393 
 4589000 0.0008693026 -0.0010548666    1.4783095 0.00037174088 -0.0010548666    1.4793643      387 
 4590000 0.00086268831 -0.0072977498    1.4274444 0.00036989698 -0.0072977498    1.4347422      396 
 4591000 0.00083811435 -0.00086928634    1.4291145 0.00035858069 -0.00086928634    1.4299837      386 
 4592000 0.00087605055 -0.0028157446    1.5036023 0.00037419743 -0.0028157446    1.5064181      383 
 4593000 0.00089854613 -0.0014837509    1.4853843 0.00038399903 -0.0014837509    1.4868681      398 
 4594000 0.00096866345 -0.00019519395    1.5223634 0.00041511323 -0.00019519395    1.5225586      419 
 4595000 0.00090901092 -0.0021497029    1.4982651 0.00038886187 -0.0021497029    1.5004148      399 
 4596000 0.00090341614 -0.001476219    1.4822665 0.0003862067 -0.001476219    1.4837427      401 
 4597000 0.00091663261 -0.0022791373    1.5338152 0.00039183409 -0.0022791373    1.5360943      393 
 4598000 0.00094737994 -0.0041222079    1.5213911 0.00040421961 -0.0041222079    1.5255133      409 
 4599000 0.00093508127 -0.0022082647    1.5373797 0.00039926171 -0.0022082647    1.5395879      400 
 4600000 0.00091538172 -0.0032332833    1.5346781 0.00039063999 -0.0032332833    1.5379113      392 
 4601000 0.00098630499 -0.0068072498    1.5584231 0.00042046364 -0.0068072498    1.5652304      415 
 4602000 0.00097908477 -0.0054349588    1.5985835 0.00041615003 -0.0054349588    1.6040185      402 
 4603000 0.00092120269 -0.0024304663    1.5257682 0.00039320737 -0.0024304663    1.5281987      397 
 4604000 0.00093120404 -0.0091859177    1.5513272 0.00039436024 -0.0091859177    1.5605132      393 
 4605000 0.00088882126 -0.004245026    1.4967006 0.00037880394 -0.004245026    1.5009456      390 
 4606000 0.00091288104 -0.0042417048    1.5139763 0.00038858883 -0.0042417048     1.518218      396 
 4607000 0.00092090659 -0.0035518912    1.5357879 0.00039421192 -0.0035518912    1.5393398      394 
 4608000 0.00091212718 -0.0065161182    1.4990424 0.00038738002 -0.0065161182    1.5055585      399 
 4609000 0.00091518681 -0.004606053    1.5060027 0.0003890742 -0.004606053    1.5106087      399 
 4610000 0.00093109516 -0.0075758941    1.4664865 0.00039514907 -0.0075758941    1.4740624      416 
 4611000 0.00092085779 -0.0031463343    1.4980114 0.00039368839 -0.0031463343    1.5011578      404 
 4612000 0.00092063822 -0.0040966391    1.4929975 0.00039407389 -0.0040966391    1.4970941      405 
 4613000 0.00087163982 -0.0052781931    1.4262761 0.00037145127 -0.0052781931    1.4315543      401 
 4614000 0.00085792837 -0.0034720936     1.426966 0.00036534182 -0.0034720936    1.4304381      395 
 4615000 0.00094381435 -0.002134817     1.521362 0.00040297229 -0.002134817    1.5234968      408 
 4616000 0.00093810764 -0.0059595133    1.5083256 0.00039937504 -0.0059595133    1.5142851      408 
 4617000  0.000933823 -0.00074443042    1.5066244 0.00039966082 -0.00074443042    1.5073689      408 
 4618000 0.00094736638 -0.0021787675    1.5270517 0.00040441822 -0.0021787675    1.5292305      408 
 4619000 0.00095686579 -0.0066368489     1.530393 0.00040870871 -0.0066368489    1.5370299      410 
 4620000 0.00090962685 -0.0014052504    1.4888215 0.0003886715 -0.0014052504    1.4902267      402 
 4621000 0.00090805563 -0.0053843643    1.5086317 0.00038970213 -0.0053843643    1.5140161      395 
 4622000 0.00092801795 -0.0047457381    1.4932527 0.00039541367 -0.0047457381    1.4979984      408 
 4623000 0.00091284794 -0.0027037769    1.4890891 0.00038918025 -0.0027037769    1.4917929      403 
 4624000 0.00093222402 -0.0014367696    1.4887414 0.00039848182 -0.0014367696    1.4901782      412 
 4625000 0.00088859663 -0.00028452361    1.4591191 0.00038075735 -0.00028452361    1.4594036      401 
 4626000 0.00092498872 -0.0040714694    1.4890372 0.0003963701 -0.0040714694    1.4931086      408 
 4627000 0.00093250396 -0.0049795799    1.4713132 0.00040333116 -0.0049795799    1.4762928      416 
 4628000 0.00095001469 -0.0025555314    1.4942631 0.00040535725 -0.0025555314    1.4968186      418 
 4629000 0.00090476045 -0.0021958828    1.5140031 0.00038636296 -0.0021958828    1.5161989      393 
 4630000 0.00092785917 0.0043518335    1.5131883 0.00041736717 0.0043518335    1.5088365      405 
 4631000 0.00090976651 -0.0012895586    1.5232986 0.00038914511 -0.0012895586    1.5245881      393 
 4632000 0.00084621948 -0.0026846216    1.4373973 0.00036089793 -0.0026846216    1.4400819      387 
 4633000 0.00090972947 -0.0055122551    1.4998614 0.00039049611 -0.0055122551    1.5053737      398 
 4634000 0.0009385787 -0.0045001347    1.5525239 0.00039975859 -0.0045001347     1.557024      397 
 4635000 0.00091125482 -0.0045484949    1.5071475 0.00038894797 -0.0045484949     1.511696      397 
 4636000 0.00090097255 -0.0062635954    1.4697849 0.00039077248 -0.0062635954    1.4760485      402 
 4637000  0.000859183 -0.0018294868    1.4490662 0.00036708344 -0.0018294868    1.4508957      390 
 4638000 0.0009215475 -0.0024025568    1.4998795 0.00039349574 -0.0024025568    1.5022821      404 
 4639000 0.00089728304 -0.00092025602    1.4951345 0.00038404065 -0.00092025602    1.4960548      395 
 4640000 0.00083347726 -0.0060901089    1.4233885 0.00035430141 -0.0060901089    1.4294786      384 
 4641000 0.0008446723 -0.0031843486    1.4454946 0.00036015071 -0.0031843486     1.448679      384 
 4642000 0.0008540805 -0.0027880292    1.4248487 0.00036445343 -0.0027880292    1.4276367      394 
 4643000 0.00087100056 -0.0023219011    1.4425956 0.00037467202 -0.0023219011    1.4449175      397 
 4644000 0.00085558155 -0.0035516378    1.3911945 0.0003649162 -0.0035516378    1.3947462      404 
 4645000 0.00084950845 -0.0024655262    1.4032575 0.00036387957 -0.0024655262     1.405723      398 
 4646000 0.00088940445 -0.001129831    1.4416112 0.00038039781 -0.001129831    1.4427411      406 
 4647000 0.00084385059 -0.003084537    1.4219195 0.00036930363 -0.003084537     1.425004      390 
 4648000 0.00086891834 -0.0003899465    1.4374516 0.00037214236 -0.0003899465    1.4378415      398 
 4649000 0.00088257405 -0.0018314843     1.496247 0.00037720365 -0.0018314843    1.4980785      388 
 4650000 0.00086359827 -0.00019762777    1.4809409 0.00037004398 -0.00019762777    1.4811385      384 
 4651000 0.00087929331 -0.002821796     1.482034 0.00037956453 -0.002821796    1.4848558      390 
 4652000 0.00084787978 -0.0034658088    1.4507142 0.00036083772 -0.0034658088    1.4541801      384 
 4653000 0.00092856023 -0.0037568245    1.5723784 0.00039617166 -0.0037568245    1.5761353      388 
 4654000 0.00091981964 -0.0050495634    1.5562494 0.00039132974 -0.0050495634     1.561299      388 
 4655000 0.00087820743 -0.0018853745    1.5161688 0.00037513834 -0.0018853745    1.5180541      381 
 4656000 0.00088431848 -0.0029255313    1.4790167 0.00037866626 -0.0029255313    1.4819423      393 
 4657000 0.00087315852 -0.0022617981     1.487514 0.00037257799 -0.0022617981    1.4897758      386 
 4658000 0.00092391693 -0.0015004646    1.5627218 0.00039506924 -0.0015004646    1.5642222      389 
 4659000 0.00089431106 -0.0045057024    1.5373381 0.00038112607 -0.0045057024    1.5418438      382 
 4660000 0.00089847387 -0.0020536126    1.5151923 0.00038402498 -0.0020536126    1.5172459      390 
 4661000 0.00092668194 -0.00050409883    1.5406663 0.00039687233 -0.00050409883    1.5411704      396 
 4662000 0.00094354664 -0.0026128059    1.5393484 0.00040272058 -0.0026128059    1.5419613      403 
 4663000 0.00085249445 -0.0015887917    1.4567081 0.00036407337 -0.0015887917    1.4582969      385 
 4664000 0.00086209451 -0.0019311164    1.4427682 0.00036841885 -0.0019311164    1.4446993      393 
 4665000 0.00088960628 -0.0032683963    1.4990029 0.00037921419 -0.0032683963    1.5022713      390 
 4666000 0.00085473438 -0.0010721955    1.4535002 0.00036554705 -0.0010721955    1.4545724      387 
 4667000 0.00092095025 -0.0049435008    1.5266944 0.00039451917 -0.0049435008    1.5316379      396 
 4668000 0.00089392915 -0.0026630597    1.4765651 0.00038220396 -0.0026630597    1.4792281      398 
 4669000 0.00095877784 -0.0041856741    1.5549291 0.00040834657 -0.0041856741    1.5591148      405 
 4670000 0.00095657635 -0.00061830998    1.5549165 0.00040967016 -0.00061830998    1.5555349      405 
 4671000 0.00088151246  -0.00155515    1.4571265 0.00037673579  -0.00155515    1.4586816      398 
 4672000 0.00089488422 -0.005639844    1.4714574 0.00038042082 -0.005639844    1.4770972      399 
 4673000 0.00093676517 -0.00061086041    1.5264787 0.00040102814 -0.00061086041    1.5270895      404 
 4674000 0.00093448786 -0.0039192681    1.5424233 0.00039881225 -0.0039192681    1.5463426      398 
 4675000 0.00088753272 -0.0057490009    1.5007463 0.00037655067 -0.0057490009    1.5064953      388 
 4676000 0.0008671017 -0.0025270647    1.4655051 0.00037015345 -0.0025270647    1.4680322      389 
 4677000 0.00086577419 -0.0031717303     1.470188 0.00036882714 -0.0031717303    1.4733598      387 
 4678000 0.00086958166 -0.0034700263    1.4427365 0.00037428068 -0.0034700263    1.4462065      396 
 4679000 0.00090471499 -0.0061612091    1.5294992 0.00038671584 -0.0061612091    1.5356604      388 
 4680000 0.00091328461 -0.0065054054    1.5278826 0.00039175889 -0.0065054054     1.534388      392 
 4681000 0.00082043958 -0.0016698102    1.4353868 0.00035049144 -0.0016698102    1.4370567      376 
 4682000 0.00086658297 -0.0029257196    1.4419423 0.00036958603 -0.0029257196     1.444868      395 
 4683000 0.00088675793 -0.0025380121    1.4722345 0.00037820305 -0.0025380121    1.4747725      396 
 4684000 0.00089352023 -0.0024030703    1.5026186 0.00038919034 -0.0024030703    1.5050217      391 
 4685000 0.00087284593 -0.0047083188    1.4961993 0.00037109071 -0.0047083188    1.5009076      383 
 4686000 0.00088751263 -0.0029295586    1.4958062 0.00037825138 -0.0029295586    1.4987358      390 
 4687000 0.00084329679 -0.0042428787    1.4611577 0.00035992243 -0.0042428787    1.4654006      379 
 4688000 0.00088564278 -0.0047134603    1.4947094 0.00037719853 -0.0047134603    1.4994228      389 
 4689000 0.00089974548 -0.0034918523    1.5316464 0.00038597949 -0.0034918523    1.5351383      386 
 4690000 0.00088117223 -0.0061653591    1.5455224 0.00037981143 -0.0061653591    1.5516877      374 
 4691000 0.00086450775 -0.0003788096    1.5138663 0.00037024609 -0.0003788096    1.5142451      376 
 4692000 0.00082791079 -0.0013921448    1.4526179 0.00035402042 -0.0013921448      1.45401      375 
 4693000 0.00085222242 -0.0025644949     1.490162 0.00037229274 -0.0025644949    1.4927265      376 
 4694000 0.00085182086 -0.0052260554    1.4710916 0.00036206594 -0.0052260554    1.4763176      380 
 4695000 0.00082326561 -0.00027146779    1.4651191 0.00035263957 -0.00027146779    1.4653905      370 
 4696000 0.00084135505 -0.001333782    1.5335915 0.00035967217 -0.001333782    1.5349253      361 
 4697000 0.00080692069 -0.00052346002    1.4594488 0.00034549461 -0.00052346002    1.4599722      364 
 4698000 0.00088056629 -0.0010792135    1.5578782 0.00037661679 -0.0010792135    1.5589574      372 
 4699000 0.00089002026 -0.0025302664    1.5816817 0.00037993319 -0.0025302664     1.584212      370 
 4700000 0.00084881513 -0.00031724604    1.5064783 0.00036359376 -0.00031724604    1.5067956      371 
 4701000 0.00090366319 -0.00023384984    1.5783962 0.00038720035 -0.00023384984    1.5786301      377 
 4702000 0.00089011355 -0.0015141284    1.5743458 0.00038055998 -0.0015141284    1.5758599      372 
 4703000 0.00089926993 -0.00038467555    1.5581684 0.00038520925 -0.00038467555    1.5585531      380 
 4704000 0.00091733463 -0.0011823581    1.6228698 0.00039222799 -0.0011823581    1.6240522      372 
 4705000 0.00089107566 -0.00024815144    1.5522744 0.00038182318 -0.00024815144    1.5525225      378 
 4706000 0.00091851919 -0.0027893073    1.5807907 0.00039219625 -0.0027893073      1.58358      382 
 4707000 0.00086101359 -0.0015680031    1.5065568 0.00036798684 -0.0015680031    1.5081248      376 
 4708000 0.0008910624 -0.0043565704    1.5564008 0.0003874538 -0.0043565704    1.5607574      376 
 4709000 0.00090907878 -0.0048870892    1.5302673 0.00038750093 -0.0048870892    1.5351543      390 
 4710000 0.00087124603 -0.0017587342    1.5283584 0.00037239028 -0.0017587342    1.5301171      375 
 4711000 0.00089195501 -0.00055778358    1.5701178 0.00038192106 -0.00055778358    1.5706755      374 
 4712000 0.00090435002 -0.0019350683     1.521328 0.0003865381 -0.0019350683    1.5232631      391 
 4713000 0.00092564956 -0.001124483     1.558015 0.00040530729 -0.001124483    1.5591395      391 
 4714000 0.00095192214 -0.0011945789    1.6145951 0.00040721855 -0.0011945789    1.6157897      388 
 4715000 0.00093028358 -0.00071385908    1.5824269 0.00039823004 -0.00071385908    1.5831407      387 
 4716000 0.0009149385 -0.0055882801    1.5355098 0.00039357527 -0.0055882801    1.5410981      391 
 4717000 0.00088093557 -0.0014124244    1.5213575 0.00037661681 -0.0014124244      1.52277      381 
 4718000 0.00086867231 -0.00082822375    1.4623403 0.00038727526 -0.00082822375    1.4631685      391 
 4719000 0.00085298132 -0.0021253342     1.512066 0.00036426887 -0.0021253342    1.5141913      371 
 4720000 0.0008706157 -0.0011608931    1.5401799 0.0003723988 -0.0011608931    1.5413408      372 
 4721000 0.00091542898 -0.00089748423    1.5691347 0.00039167979 -0.00089748423    1.5700322      384 
 4722000 0.00093325206 -0.00052912191    1.5674058 0.00039963153 -0.00052912191    1.5679349      392 
 4723000 0.00089506819 -0.0029385458    1.5321733 0.00038204464 -0.0029385458    1.5351119      384 
 4724000 0.00090884986 -0.0066133008    1.5281545 0.00039083734 -0.0066133008    1.5347678      390 
 4725000 0.00090919305 -0.0022827277    1.4984327 0.00038840552 -0.0022827277    1.5007154      399 
 4726000 0.00089462938 -0.0020496734    1.5087041 0.00038254483 -0.0020496734    1.5107538      390 
 4727000 0.00087970145 -0.0034593568    1.4707457 0.00037830722 -0.0034593568     1.474205      393 
 4728000 0.00083452652 -0.00074876974    1.4231135 0.00035715166 -0.00074876974    1.4238622      386 
 4729000 0.00085585963 -0.0033733991    1.4606801 0.00036466339 -0.0033733991    1.4640535      385 
 4730000 0.00091427525 -0.0032296072    1.4871975 0.00039248077 -0.0032296072    1.4904271      404 
 4731000 0.00087045139 -0.0012591463    1.4574446 0.00037223208 -0.0012591463    1.4587038      393 
 4732000 0.0008779025 -0.00053076126    1.4485364 0.00038307778 -0.00053076126    1.4490672      399 
 4733000 0.00081852611 -0.0021200779    1.3695672 0.00034941669 -0.0021200779    1.3716873      393 
 4734000 0.00083364484 -0.0024264213    1.3910511 0.00035631816 -0.0024264213    1.3934776      394 
 4735000 0.00081529525 -0.0026096451    1.4030063 0.00035013242 -0.0026096451     1.405616      382 
 4736000 0.0008114585 -0.0017800327    1.3863199 0.00034691168 -0.0017800327    1.3880999      385 
 4737000 0.00085548129 -0.0043903227    1.4628269 0.00036405606 -0.0043903227    1.4672173      384 
 4738000 0.00086766586 -0.0010597964    1.4909404 0.00037122066 -0.0010597964    1.4920002      383 
 4739000 0.00083387177 -0.0043696213    1.4332733 0.00035574825 -0.0043696213     1.437643      382 
 4740000 0.00085767559 -0.00038473049    1.4224278 0.00037504136 -0.00038473049    1.4228125      397 
 4741000 0.00089826587 -0.0023251162    1.4840792 0.00038399201 -0.0023251162    1.4864043      398 
 4742000 0.0008643739 -0.0022998589    1.4462192 0.00036879956 -0.0022998589    1.4485191      393 
 4743000 0.00084557404 -0.0020855157     1.436898 0.00036102184 -0.0020855157    1.4389835      387 
 4744000 0.00085886576 -0.0014165557    1.4415437 0.00036707405 -0.0014165557    1.4429602      392 
 4745000 0.00086116012 -0.00023010138    1.4883564 0.0003690417 -0.00023010138    1.4885865      381 
 4746000 0.00085057505 -0.0073693799    1.4401247 0.00036332666 -0.0073693799    1.4474941      387 
 4747000 0.00083300498 -7.0963827e-05    1.4138691 0.00035698701 -7.0963827e-05    1.4139401      388 
 4748000 0.00083662532 -0.0045836308     1.411851 0.00035708619 -0.0045836308    1.4164346      389 
 4749000 0.00084017473 -0.0030413367    1.4230686 0.00036050374 -0.0030413367      1.42611      388 
 4750000 0.00084852519 -0.0025497638    1.4489573 0.00036196243 -0.0025497638     1.451507      385 
 4751000 0.00085076575 -0.0025154834    1.4378594 0.00036365933 -0.0025154834    1.4403748      389 
 4752000 0.00089030662 -0.0011909839    1.4683505 0.00038066605 -0.0011909839    1.4695415      399 
 4753000 0.00088327525 -0.0010780847    1.4679023 0.00037769107 -0.0010780847    1.4689804      396 
 4754000 0.00088462752 -0.005246785     1.444024 0.00037829592 -0.005246785    1.4492707      402 
 4755000 0.0008701306 -0.00019487354    1.4921471 0.00037284657 -0.00019487354     1.492342      384 
 4756000 0.00089561306 -0.0034036075    1.5447376 0.00038386554 -0.0034036075    1.5481412      381 
 4757000 0.00086405695 -0.0072911646    1.4370217 0.00036927433 -0.0072911646    1.4443129      394 
 4758000 0.00084991507 -0.0062614148    1.4401096 0.00036079666 -0.0062614148     1.446371      387 
 4759000 0.00087526903 -0.002608564    1.4457418 0.00037350424 -0.002608564    1.4483503      398 
 4760000 0.00084441832 0.0010702692    1.4089828 0.00038329024 0.0010702692    1.4079126      395 
 4761000 0.00090335686 -0.0029917056    1.5108551 0.00038519602 -0.0029917056    1.5138468      393 
 4762000 0.00097706429 -0.0011083128    1.5309983 0.00041773282 -0.0011083128    1.5321066      420 
 4763000 0.00084834612 -0.00070662796    1.4429943 0.00037267389 -0.00070662796     1.443701      387 
 4764000 0.00083439028 -0.00052819983    1.3732745 0.00035723627 -0.00052819983    1.3738027      400 
 4765000 0.00089521307 -0.0047453826    1.4297519 0.00038164807 -0.0047453826    1.4344973      411 
 4766000 0.00089526599 -0.0035260532    1.5160957 0.00038181514 -0.0035260532    1.5196217      388 
 4767000 0.00088224837 -0.0080950049    1.4703782 0.00038189151 -0.0080950049    1.4784732      393 
 4768000 0.00091152334 -0.0011348607    1.4848061 0.00038988082 -0.0011348607     1.485941      404 
 4769000 0.00089652422 -0.0036734657    1.4761308 0.00038388202 -0.0036734657    1.4798042      399 
 4770000 0.00095735081 -0.00011642335    1.5046608 0.00041029373 -0.00011642335    1.5047773      419 
 4771000 0.00085674044 -0.0002277267    1.4691491 0.00036708181 -0.0002277267    1.4693768      384 
 4772000 0.00085794476 -0.0074491227    1.4158099 0.00037228018 -0.0074491227     1.423259      397 
 4773000 0.00092998685 -0.0022117766    1.5328259 0.00039726422 -0.0022117766    1.5350377      399 
 4774000 0.00086249499 -0.00030381055    1.4945135 0.00036949522 -0.00030381055    1.4948173      380 
 4775000 0.00091201057 -0.0027071514    1.5737785 0.00039052189 -0.0027071514    1.5764857      381 
 4776000 0.00085721791 -0.0027584469    1.5027219 0.00036590202 -0.0027584469    1.5054804      375 
 4777000 0.00086078802 -0.0061866749    1.4586877 0.00036737539 -0.0061866749    1.4648744      387 
 4778000 0.0008712962 -0.0034152399    1.4948275 0.00037662915 -0.0034152399    1.4982427      383 
 4779000 0.0008188497 -0.001381754    1.4290857 0.00035024818 -0.001381754    1.4304674      377 
 4780000 0.00079786316 -0.00059198867    1.4119475 0.00034158653 -0.00059198867    1.4125395      372 
 4781000 0.00079156281 -0.00027918168    1.3936121 0.00033910474 -0.00027918168    1.3938913      374 
 4782000 0.00082293827 -0.00084851217    1.4329581 0.00035209733 -0.00084851217    1.4338067      378 
 4783000 0.00080261235 -0.00056301033    1.4280653 0.00034361531 -0.00056301033    1.4286283      370 
 4784000 0.00083352793 -0.0023074857    1.4615676 0.00035563292 -0.0023074857    1.4638751      375 
 4785000 0.00081526484 -0.00023587208    1.4788971 0.00034923727 -0.00023587208     1.479133      363 
 4786000 0.00078356637 -0.004036397    1.4496227 0.00033395654 -0.004036397    1.4536591      355 
 4787000 0.00079267567 -0.00077947132    1.4139855 0.00033921382 -0.00077947132     1.414765      369 
 4788000 0.00078330161 -0.0020419748    1.4269736 0.0003387584 -0.0020419748    1.4290155      361 
 4789000 0.00077495092 -0.0013022998    1.4164058 0.00033123133 -0.0013022998    1.4177081      360 
 4790000 0.00082540052 -0.0043760721    1.4687961 0.00035159468 -0.0043760721    1.4731722      369 
 4791000 0.00087546033 -0.0012907172    1.4924124 0.00037425502 -0.0012907172    1.4937032      386 
 4792000 0.00083013349 -0.0033687153    1.5110845 0.00035478687 -0.0033687153    1.5144532      361 
 4793000 0.00083752482 -0.003624585    1.5034395 0.00035809592 -0.003624585    1.5070641      366 
 4794000 0.00092377052 -0.0034015793    1.6103545 0.0003939176 -0.0034015793     1.613756      377 
 4795000 0.00080521384 -0.0004033476    1.4604941 0.00034491194 -0.0004033476    1.4608975      363 
 4796000 0.00083037347 -0.00046647232    1.4815814 0.00035565225 -0.00046647232    1.4820479      369 
 4797000 0.00082430421 -0.0057867243    1.5064097 0.00035039053 -0.0057867243    1.5121964      359 
 4798000 0.00082930696 -0.0018743007    1.5323203 0.00035444135 -0.0018743007    1.5341946      356 
 4799000 0.00081712703 -0.00013734015    1.5330584 0.00035020345 -0.00013734015    1.5331957      351 
 4800000  0.000815165 -0.0010972495    1.4819401 0.00034856035 -0.0010972495    1.4830373      362 
 4801000 0.00079375062 -0.003106223    1.4862277 0.00034275962 -0.003106223     1.489334      351 
 4802000 0.00081873261 -0.002904696     1.503266 0.00034919217 -0.002904696    1.5061707      358 
 4803000 0.00084928716 -0.00017137564    1.5449447 0.00036390191 -0.00017137564    1.5451161      362 
 4804000 0.00087057821 -0.00056395173    1.6009838 0.00037273463 -0.00056395173    1.6015478      358 
 4805000 0.00078231358 -0.00023421385    1.4593236 0.00033517868 -0.00023421385    1.4595578      353 
 4806000 0.00084140818 -0.0010707607    1.5088557 0.00035994289 -0.0010707607    1.5099265      367 
 4807000 0.00080809284 -0.0017308914    1.4807256 0.00034529203 -0.0017308914    1.4824564      359 
 4808000 0.00077858555 -0.00021465115       1.4321 0.00033362387 -0.00021465115    1.4323147      358 
 4809000 0.00079514772 -0.0029300668    1.4680709 0.00034006154 -0.0029300668    1.4710009      356 
 4810000 0.00080029481 -0.0016446248    1.4747312 0.00034203474 -0.0016446248    1.4763758      357 
 4811000 0.00079376945 -0.0016830574    1.4667681 0.00033930193 -0.0016830574    1.4684512      356 
 4812000 0.00073779058 -8.0748519e-05    1.4248503 0.00031622569 -8.0748519e-05    1.4249311      341 
 4813000 0.00081093519 -0.0026794175    1.5102776  0.000351677 -0.0026794175     1.512957      353 
 4814000 0.00081493302 -0.00074268222    1.5026375 0.00034888013 -0.00074268222    1.5033802      357 
 4815000 0.00077075139 -0.0028065364    1.4230619 0.00032900293 -0.0028065364    1.4258684      356 
 4816000 0.00077721557 -0.0015921073    1.4484544 0.00033204531 -0.0015921073    1.4500465      353 
 4817000 0.0007892954 -0.00047626192     1.439474 0.0003379779 -0.00047626192    1.4399503      361 
 4818000 0.00078979221 -0.0055106723    1.4638375 0.00033685749 -0.0055106723    1.4693482      354 
 4819000 0.00083494856 -0.0028968155    1.4954377 0.00035888536 -0.0028968155    1.4983345      367 
 4820000 0.00081879086 -0.0015190314    1.4598562 0.00034990162 -0.0015190314    1.4613753      369 
 4821000 0.00086642373 -0.00045682896    1.5211912 0.00037111609 -0.00045682896     1.521648      375 
 4822000 0.00086264031 -0.00090687469    1.5471211 0.00036915758 -0.00090687469     1.548028      367 
 4823000 0.00089826544 -0.0020184419    1.5589015 0.00039347714 -0.0020184419    1.5609199      379 
 4824000 0.00083047631 -0.0033221887    1.5034089 0.00035534949 -0.0033221887    1.5067311      363 
 4825000 0.00084369894 -0.0038809896    1.5268399 0.00035948451 -0.0038809896    1.5307209      363 
 4826000 0.00087244608 -0.0028950035    1.5542439 0.00037224102 -0.0028950035    1.5571389      369 
 4827000 0.00085816664 -0.0012567982    1.5471815 0.00036701385 -0.0012567982    1.5484383      365 
 4828000 0.00082587467 -0.0033323696    1.4509799 0.00035308489 -0.0033323696    1.4543123      374 
 4829000 0.00084632502 -0.0019930703      1.45712 0.00036170418 -0.0019930703    1.4591131      382 
 4830000 0.00083393449 -0.0039898864    1.4884582 0.00035489816 -0.0039898864    1.4924481      368 
 4831000 0.0008076956 -0.005796143    1.4241507 0.00034280283 -0.005796143    1.4299469      372 
 4832000 0.00084398236 -0.0027727826    1.5242556 0.00036079759 -0.0027727826    1.5270284      364 
 4833000 0.00084615935  -0.01323704    1.4767953 0.00036227965  -0.01323704    1.4900323      374 
 4834000 0.00080066586 -0.0030347284    1.4298743 0.00034204447 -0.0030347284    1.4329091      368 
 4835000 0.00081942883 -0.0062653872    1.4290209 0.00034786042 -0.0062653872    1.4352863      376 
 4836000 0.0008302472 -0.006115901    1.4481195 0.00035773671 -0.006115901    1.4542354      376 
 4837000 0.00087283175 -0.0032693139    1.4976139 0.00037324849 -0.0032693139    1.5008832      383 
 4838000 0.00080014217 -0.0032806744    1.4605128 0.00034141069 -0.0032806744    1.4637934      360 
 4839000 0.00080497911 -0.0037983526    1.4770709 0.00034398818 -0.0037983526    1.4808693      358 
 4840000 0.00081767703 -0.0048449718    1.5078346 0.00035012235 -0.0048449718    1.5126795      356 
 4841000 0.00087496982 -0.0055039317    1.5393925 0.00037481386 -0.0055039317    1.5448964      373 
 4842000 0.00079935587 0.0030972235    1.5158782 0.00036083773 0.0030972235     1.512781      348 
 4843000 0.00079545314 -0.006878606    1.4402968 0.00033947208 -0.006878606    1.4471754      362 
 4844000 0.00077085114 -0.0032687403    1.4389894 0.00032946049 -0.0032687403    1.4422581      352 
 4845000 0.00080414024 -0.0077239227    1.4716021 0.00034178797 -0.0077239227     1.479326      358 
 4846000  0.000808682 -0.0025135627    1.4408194 0.00034548299 -0.0025135627     1.443333      369 
 4847000 0.00079193024 -0.0031614804     1.474338 0.00033955436 -0.0031614804    1.4774995      353 
 4848000 0.0008009611 -0.0084806999    1.4816463 0.00034493384 -0.0084806999     1.490127      354 
 4849000 0.00076112862 -0.0026350839    1.4673699 0.00032529361 -0.0026350839     1.470005      341 
 4850000 0.00080978269 -0.0023635082    1.4873426 0.00034600407 -0.0023635082    1.4897061      358 
 4851000 0.00081986696 -0.0037835544    1.5301829 0.00034987174 -0.0037835544    1.5339664      352 
 4852000 0.00080092018 -0.0082806131     1.511829 0.00034220326 -0.0082806131    1.5201096      347 
 4853000 0.00076145619 -0.0046911744    1.4322356 0.00032459254 -0.0046911744    1.4369267      349 
 4854000 0.00075418396 -0.0035637383    1.4155735 0.0003215637 -0.0035637383    1.4191372      350 
 4855000 0.00074502887 -0.0053275205    1.4378153 0.00031953763 -0.0053275205    1.4431428      340 
 4856000 0.00075475785 -0.0072336903     1.404914 0.00032143977 -0.0072336903    1.4121477      352 
 4857000 0.0007167498 -0.0074486456    1.3727977 0.00030597742 -0.0074486456    1.3802463      342 
 4858000 0.00075408373 -0.0061272034     1.458864 0.00032279563 -0.0061272034    1.4649912      339 
 4859000 0.00070152135 -0.0042266725    1.3873846 0.00029859099 -0.0042266725    1.3916113      332 
 4860000 0.00072696398 -0.0029130231    1.4435257 0.00031078674 -0.0029130231    1.4464387      331 
 4861000 0.00066421861  -0.00376719     1.363257 0.00028591332  -0.00376719    1.3670242      320 
 4862000 0.00066441371 -0.0045104946    1.3336431 0.00028334436 -0.0045104946    1.3381536      327 
 4863000 0.00069993347 -0.0041562223    1.3927201 0.00029815372 -0.0041562223    1.3968763      330 
 4864000 0.00067961723 -0.0034723993    1.3695003 0.0002896938 -0.0034723993    1.3729727      326 
 4865000 0.00074226958 -0.005531234    1.4114291 0.00031714364 -0.005531234    1.4169604      345 
 4866000 0.00070556594 -0.0027830749     1.359911 0.00030354047 -0.0027830749     1.362694      341 
 4867000 0.00072722339   -0.0049832    1.3954321 0.00031444916   -0.0049832    1.4004153      342 
 4868000 0.00071064304 -0.0034464008    1.3894774 0.00030287836 -0.0034464008    1.3929238      336 
 4869000 0.00075146363 -0.0048394821     1.433842 0.00032020667 -0.0048394821    1.4386815      344 
 4870000 0.00073181034 -0.0027053436    1.3983498 0.00031526753 -0.0027053436    1.4010552      344 
 4871000 0.00076127213 -0.0046226167    1.4116661 0.00032462312 -0.0046226167    1.4162887      354 
 4872000 0.00073862421 -0.0038365661    1.3860221 0.00031464596 -0.0038365661    1.3898586      350 
 4873000 0.00073488598 -0.0051811278    1.3355074 0.00031219536 -0.0051811278    1.3406885      361 
 4874000 0.00079755021 -0.0032168993    1.4558348 0.00034149405 -0.0032168993    1.4590517      360 
 4875000 0.00073449972 -0.0083659092    1.3542655 0.00031506963 -0.0083659092    1.3626315      355 
 4876000 0.00077363571 -0.0065295188    1.4087725 0.00033039838 -0.0065295188    1.4153021      360 
 4877000 0.00075440837 -0.0024191856     1.373885 0.00032217224 -0.0024191856    1.3763042      361 
 4878000 0.0007821898 -0.0024883047    1.3785905 0.00033441153 -0.0024883047    1.3810788      373 
 4879000 0.00080200757 -7.6639729e-05    1.4391445 0.00035861646 -7.6639729e-05    1.4392212      367 
 4880000 0.00077172486 -0.0038365245     1.415857 0.00032966415 -0.0038365245    1.4196935      358 
 4881000 0.00077348018 -0.0038688536    1.4111487 0.00032940965 -0.0038688536    1.4150175      360 
 4882000 0.00073576199 -0.0056604915    1.3478744 0.00031282075 -0.0056604915    1.3535349      358 
 4883000 0.00078778995 -0.0050463604    1.4523429 0.00033633411 -0.0050463604    1.4573893      356 
 4884000 0.00077641617 -0.0026512532    1.4138028 0.00033422992 -0.0026512532    1.4164541      361 
 4885000 0.00079831314 -0.0035747267     1.481626 0.00034063193 -0.0035747267    1.4852007      354 
 4886000 0.00075753522 -0.0028316443    1.3715626 0.00032323876 -0.0028316443    1.3743943      363 
 4887000 0.00077403075 -0.0028140002    1.4536686 0.00033079986 -0.0028140002    1.4564826      350 
 4888000 0.00077568484 -0.0036453476    1.4233331 0.0003333414 -0.0036453476    1.4269784      358 
 4889000 0.00075603666 -0.0053363603    1.4092039 0.00032208463 -0.0053363603    1.4145403      352 
 4890000 0.00077561382 -0.0052749316    1.4295888 0.00033056309 -0.0052749316    1.4348638      356 
 4891000 0.0007756892 -0.0078483115    1.4946845 0.00034091947 -0.0078483115    1.5025328      340 
 4892000 0.00078763385 -0.0050866713    1.4438736 0.0003400246 -0.0050866713    1.4489603      358 
 4893000 0.00076686761 -0.0059270944    1.4127564 0.0003283106 -0.0059270944    1.4186835      356 
 4894000 0.00072645877 -0.0082609139    1.3745093 0.00030936057 -0.0082609139    1.3827702      346 
 4895000 0.00077493219 -0.0072632583    1.4183306 0.0003299636 -0.0072632583    1.4255938      358 
 4896000 0.00078627023 -0.0090439458    1.3829714 0.00033384059 -0.0090439458    1.3920154      372 
 4897000 0.00076213626 -0.0065864261    1.3685788 0.00033070233 -0.0065864261    1.3751653      365 
 4898000 0.00072914164 -0.0065089549    1.3853907 0.00031058408 -0.0065089549    1.3918997      345 
 4899000 0.0007295534 -0.005410314    1.3255497 0.0003145717 -0.005410314      1.33096      361 
 4900000 0.00074654821 -0.0045838162    1.3803998 0.00031853717 -0.0045838162    1.3849836      355 
 4901000 0.00077359429 -0.004280139    1.4228388 0.00033046766 -0.004280139     1.427119      357 
 4902000 0.00079823251 -0.0058939471    1.4072995 0.00034330572 -0.0058939471    1.4131934      372 
 4903000 0.00077754973 -0.0081281382    1.3574358 0.00033220203 -0.0081281382    1.3655639      375 
 4904000 0.00080242593  -0.00719634    1.3835134 0.00034223485  -0.00719634    1.3907097      380 
 4905000 0.00080855186 -0.0083216487    1.4079128 0.00034805885 -0.0083216487    1.4162345      376 
 4906000 0.00088715358 -0.0054838493    1.4812095 0.00038400387 -0.0054838493    1.4866933      393 
 4907000 0.00081292215 -0.0048520563    1.4266517 0.00034573379 -0.0048520563    1.4315037      374 
 4908000 0.00085220245 -0.004897159    1.4643489 0.00036256537 -0.004897159    1.4692461      382 
 4909000 0.00085065532 -0.003619271    1.4943302 0.00036244361 -0.003619271    1.4979494      374 
 4910000 0.00083516631 -0.0053425379    1.4383115 0.0003554183 -0.0053425379     1.443654      381 
 4911000 0.00086907339 -0.0043156435    1.5058771 0.00037006795 -0.0043156435    1.5101927      379 
 4912000 0.00085206318 -0.0062856354     1.443741 0.00036370303 -0.0062856354    1.4500266      387 
 4913000 0.00087947534 -0.0032604041    1.5090468 0.00038580782 -0.0032604041    1.5123072      383 
 4914000 0.00083097457 -0.0054482267    1.4462004 0.00035482483 -0.0054482267    1.4516487      377 
 4915000 0.00089168171 -0.011681274    1.5136503 0.00038041506 -0.011681274    1.5253316      385 
 4916000 0.00090040472 -0.0053315527    1.5035681 0.00038673349 -0.0053315527    1.5088996      393 
 4917000 0.00089877663 -0.0061405745    1.5474691 0.00038700313 -0.0061405745    1.5536097      381 
 4918000 0.00096137849 -0.009453903    1.6098664 0.00041399166 -0.009453903    1.6193204      391 
 4919000 0.00094729586 -0.0051008358    1.5743411 0.00040634428 -0.0051008358     1.579442      395 
 4920000 0.00090540446 -0.0095846954    1.5038425 0.00038560128 -0.0095846954    1.5134272      394 
 4921000 0.00088997034  -0.00651321    1.4736019 0.00037860651  -0.00651321    1.4801151      396 
 4922000 0.0008865482 -0.0063370667    1.4680866 0.00037677774 -0.0063370667    1.4744237      396 
 4923000 0.00093508603 -0.0072553591    1.5400771 0.00039924624 -0.0072553591    1.5473324      398 
 4924000 0.00093789763 -0.007447441    1.5523758 0.0003995253 -0.007447441    1.5598232      396 
 4925000 0.00086252533 -0.0055084002    1.4933057 0.00036725124 -0.0055084002    1.4988141      379 
 4926000 0.00086336577 -0.0077425875    1.4807497 0.00036699708 -0.0077425875    1.4884923      382 
 4927000 0.00088453336 -0.0040487318    1.5209377 0.00037744943 -0.0040487318    1.5249865      382 
 4928000 0.0008599429 -0.0055218719    1.4503902 0.00036722285 -0.0055218719    1.4559121      389 
 4929000 0.00085032615 -0.0047503532    1.4385906 0.00036770693 -0.0047503532     1.443341      388 
 4930000 0.00085885036 -0.0018427765    1.4711527 0.00037793043 -0.0018427765    1.4729955      384 
 4931000 0.00087665597 -0.010326878    1.4854163 0.00038212425 -0.010326878    1.4957431      386 
 4932000 0.00086474882 -0.0050472615    1.4665675 0.00037974186 -0.0050472615    1.4716148      387 
 4933000 0.00083797728 -0.004194764    1.4793629 0.00035657813 -0.004194764    1.4835577      372 
 4934000 0.0008432718 -0.0047156328    1.4266513 0.00036049342 -0.0047156328    1.4313669      388 
 4935000 0.00091674082 -0.0058354251    1.5462374 0.00038955911 -0.0058354251    1.5520729      389 
 4936000 0.00087804709 -0.0046169608    1.4743422 0.00037375419 -0.0046169608    1.4789592      391 
 4937000 0.00089066793 -0.0055502475      1.49084 0.00037835259 -0.0055502475    1.4963903      392 
 4938000 0.00085529307  -0.00172337    1.4426035 0.0003652534  -0.00172337    1.4443268      390 
 4939000 0.00085525668 -0.0051696774    1.4354019 0.00036501335 -0.0051696774    1.4405716      391 
 4940000 0.00085841144 -0.0048369207    1.4300392 0.00036747069 -0.0048369207    1.4348761      394 
 4941000 0.00083296581 -0.0070319688    1.4636998 0.0003553274 -0.0070319688    1.4707318      373 
 4942000 0.00085207286 -0.0050414519    1.4954042 0.00036232884 -0.0050414519    1.5004456      374 
 4943000 0.0008399055 -0.007254781    1.4370099 0.00035594378 -0.007254781    1.4442647      383 
 4944000 0.00085683062 -0.0044826291    1.4883747 0.00036614686 -0.0044826291    1.4928574      378 
 4945000 0.00088259352 -0.0083781042     1.501407 0.00037831302 -0.0083781042    1.5097851      385 
 4946000 0.00086290864 -0.0085041961    1.5110225 0.00036638009 -0.0085041961    1.5195267      374 
 4947000 0.00083616755 -0.0028620594    1.4578583 0.00035702479 -0.0028620594    1.4607204      377 
 4948000 0.00084430497 -0.003686634    1.4519438 0.00035996787 -0.003686634    1.4556304      382 
 4949000 0.00087747622 -0.0026513504     1.479136 0.00038607546 -0.0026513504    1.4817873      390 
 4950000 0.00089626929 -0.008546229    1.4820447 0.00038164396 -0.008546229    1.4905909      396 
 4951000 0.00086663061 -0.0075987211    1.4634174 0.00036917449 -0.0075987211    1.4710161      388 
 4952000 0.00084309797 -0.004136202    1.4570635 0.00036082979 -0.004136202    1.4611997      380 
 4953000 0.00083545006 -0.0059094114    1.4458559 0.00035610571 -0.0059094114    1.4517653      379 
 4954000 0.00086748196 -0.0032340033    1.4579295 0.00036974502 -0.0032340033    1.4611635      391 
 4955000 0.00089438097 -0.0068811597     1.484335 0.00038268708 -0.0068811597    1.4912161      395 
 4956000 0.00085927557 -0.00073927273     1.454043 0.00036778758 -0.00073927273    1.4547823      389 
 4957000 0.00083267149 -0.0018683228    1.4262283 0.00035546181 -0.0018683228    1.4280967      384 
 4958000 0.00083347582 -0.0029268111    1.4340335 0.00035522841 -0.0029268111    1.4369603      382 
 4959000 0.00083275613 -0.0023526338    1.4371352 0.0003556116 -0.0023526338    1.4394878      381 
 4960000 0.00079893255 -0.0072076812    1.4187245 0.00033941464 -0.0072076812    1.4259322      369 
 4961000 0.00085747433 -0.0057255789    1.4922161 0.00036532593 -0.0057255789    1.4979417      377 
 4962000 0.0008799488 -0.0037619549    1.4746194 0.00037484313 -0.0037619549    1.4783813      392 
 4963000 0.00081533415 -0.0025663698    1.4370339 0.00034769664 -0.0025663698    1.4396003      373 
 4964000  0.000803324 -0.0027074288    1.3786533 0.00034743628 -0.0027074288    1.3813607      383 
 4965000 0.00086033199 -0.0029542165    1.4687498 0.00036672728 -0.0029542165     1.471704      385 
 4966000 0.00085230973 -0.0057435246    1.4484603 0.00036207827 -0.0057435246    1.4542038      386 
 4967000 0.00090016925 0.0013637101      1.50604 0.00039904704 0.0013637101    1.5046763      394 
 4968000 0.00085795023 -0.003417333    1.4642124 0.00036575945 -0.003417333    1.4676297      385 
 4969000 0.00087599548 -0.0049708138    1.4445816 0.00037220881 -0.0049708138    1.4495524      398 
 4970000 0.00088028962 -0.0021202726    1.4806162 0.00037593314 -0.0021202726    1.4827364      391 
 4971000 0.00092149435 -0.0026559252    1.5145615 0.00039342038 -0.0026559252    1.5172174      400 
 4972000 0.00085319295 -0.00062659427    1.4513226 0.00036520787 -0.00062659427    1.4519492      387 
 4973000 0.00083515613 0.00034620137    1.4179376 0.00036853784 0.00034620137    1.4175914      388 
 4974000 0.00078992889 -0.0038384005    1.3984238 0.00033684483 -0.0038384005    1.4022622      371 
 4975000 0.00081422821 -0.0016895289    1.4169416 0.0003476594 -0.0016895289    1.4186311      378 
 4976000 0.00078373475 -0.00077381175    1.3433925 0.0003353001 -0.00077381175    1.3441663      384 
 4977000 0.00080082839 -0.0026852483    1.3889178 0.00034230088 -0.0026852483    1.3916031      379 
 4978000 0.00080286708 -0.0023791269    1.4305754 0.00034264881 -0.0023791269    1.4329545      369 
 4979000 0.00076132183 -0.0039965012    1.3734731 0.00032356261 -0.0039965012    1.3774696      364 
 4980000 0.00083995779 -0.0001577406    1.4671839 0.00035993884 -0.0001577406    1.4673416      377 
 4981000 0.00079296341 -0.0013733664    1.4216178 0.00033899915 -0.0013733664    1.4229912      367 
 4982000 0.00081460136 -9.311469e-05    1.4697379 0.0003491474 -9.311469e-05     1.469831      365 
 4983000 0.00084588641 -0.0043191645    1.4812604 0.00036226324 -0.0043191645    1.4855796      375 
 4984000 0.00079386149 -0.00057644039    1.4201552 0.00033982163 -0.00057644039    1.4207316      368 
 4985000 0.00082601526 -0.00038781483    1.4502932 0.00035383385 -0.00038781483     1.450681      375 
 4986000 0.00087504857 -0.0037599593    1.5496046 0.00037333795 -0.0037599593    1.5533645      371 
 4987000 0.00088949862 -0.0054037925    1.5609462 0.00037808253 -0.0054037925      1.56635      374 
 4988000 0.00085173812 -0.00078229769    1.4753919 0.00036464432 -0.00078229769    1.4761742      380 
 4989000 0.0008922955 -0.0028327882    1.5436327 0.00038073954 -0.0028327882    1.5464655      380 
 4990000 0.00088385706 -0.0017190106    1.5382265 0.0003777102 -0.0017190106    1.5399456      378 
 4991000 0.00084614846 -0.0036269939    1.4903808 0.00036288718 -0.0036269939    1.4940078      373 
 4992000 0.00084265446 -0.00082508498    1.5113379 0.00036059228 -0.00082508498    1.5121629      367 
 4993000 0.00082463026 -0.0030926492     1.484834 0.00035400308 -0.0030926492    1.4879267      365 
 4994000 0.00083063581 -0.0027755789     1.508408 0.00035451134 -0.0027755789    1.5111835      362 
 4995000 0.0008518734 -0.0020460835    1.5183748 0.00036388144 -0.0020460835    1.5204209      369 
 4996000 0.00077248957 -7.1578205e-06    1.4494342 0.00033118339 -7.1578205e-06    1.4494413      351 
 4997000 0.00082419532 -0.003249405    1.5087472 0.0003523022 -0.003249405    1.5119966      359 
 4998000 0.0007785145 -0.0028137091    1.4253809 0.00033305054 -0.0028137091    1.4281946      359 
 4999000 0.0007710394 -0.00051661506    1.3869119 0.00033014849 -0.00051661506    1.3874285      366 
 5000000 0.00075491903 -0.00075582019      1.37648 0.00032310487 -0.00075582019    1.3772358      361 
 5001000 0.00077392432 0.0045711566    1.4443983 0.00034829964 0.0045711566    1.4398272      354 
 5002000 0.00075720215 -0.00070780349    1.3845304 0.00032414416 -0.00070780349    1.3852382      360 
 5003000 0.00080955088 -0.0015061919    1.4355885 0.0003531753 -0.0015061919    1.4370946      371 
 5004000 0.0007506305 -0.00030986148    1.3844457 0.00032154332 -0.00030986148    1.3847556      357 
 5005000 0.00081400243 -0.0026432737    1.4581029 0.00034844244 -0.0026432737    1.4607462      367 
 5006000 0.00082767827 -0.0034087566    1.4941204 0.00035331726 -0.0034087566    1.4975292      364 
 5007000 0.00077433274 -0.001570466    1.4390165  0.000330916 -0.001570466     1.440587      354 
 5008000 0.00080914273 -0.0013494196    1.4955419 0.00034601304 -0.0013494196    1.4968913      356 
 5009000 0.00083302051 -0.00055145506    1.5448541 0.00035661233 -0.00055145506    1.5454056      355 
 5010000 0.00088020545 -0.0045381308    1.5579808 0.00037456107 -0.0045381308    1.5625189      371 
 5011000 0.00084288313 -0.006290404     1.535694 0.00036663772 -0.006290404    1.5419844      360 
 5012000 0.00082066036 -0.0023967974    1.5115492 0.00035473562 -0.0023967974    1.5139459      357 
 5013000 0.00085017346 -0.0010597698    1.5245962 0.00036369717 -0.0010597698     1.525656      367 
 5014000 0.00082366718 -0.0024944143    1.5085334 0.00035156312 -0.0024944143    1.5110278      359 
 5015000 0.00081447575 -0.0026743411    1.4629147 0.00034759983 -0.0026743411     1.465589      366 
 5016000 0.0008332347 -0.0032538505    1.4920051 0.00035546159 -0.0032538505     1.495259      367 
 5017000 0.00077374703 -0.00013195295    1.4475443 0.00033157449 -0.00013195295    1.4476763      352 
 5018000 0.00078887723 -0.0026739937    1.4902762 0.00034261542 -0.0026739937    1.4929502      348 
 5019000 0.00077413766 -0.0034592981    1.4490744 0.00032995857 -0.0034592981    1.4525337      351 
 5020000 0.00077738128 -0.0053372243    1.4916673 0.00033125611 -0.0053372243    1.4970045      342 
 5021000 0.00075715673 -0.00058969988    1.4617442 0.00032417383 -0.00058969988    1.4623339      341 
 5022000 0.00075616963 -0.00027257205    1.4774893 0.00032398394 -0.00027257205    1.4777619      337 
 5023000 0.00080629512 -0.0050029687    1.4782873 0.00034320021 -0.0050029687    1.4832902      358 
 5024000 0.0007670651 -0.0010406822      1.48917 0.00032811505 -0.0010406822    1.4902106      339 
 5025000 0.0007832147 0.00032308479     1.508561 0.00034427988 0.00032308479    1.5082379      342 
 5026000 0.00080396692 -0.00018526549    1.5126278 0.00034449676 -0.00018526549    1.5128131      350 
 5027000 0.00080416738 -0.00024913984    1.4627801 0.00034443866 -0.00024913984    1.4630293      362 
 5028000 0.00077977909 -0.0020962516    1.4404732 0.0003329601 -0.0020962516    1.4425694      356 
 5029000 0.00077909629 -0.001741293    1.4275206 0.00033298935 -0.001741293    1.4292619      359 
 5030000 0.00077515057 -8.3816016e-05    1.4711162 0.00033224137 -8.3816016e-05       1.4712      347 
 5031000 0.00078562138 -0.0019783659      1.48055 0.00033552368 -0.0019783659    1.4825283      349 
 5032000 0.0007684319 -0.0014146415    1.4740418 0.00032844254 -0.0014146415    1.4754565      343 
 5033000 0.00075184834 -0.0014092637    1.4422053 0.00032143164 -0.0014092637    1.4436146      343 
 5034000 0.00072623895 -0.00032277988    1.4105731 0.00031102167 -0.00032277988    1.4108959      339 
 5035000 0.00077667132  0.001583662    1.4384038 0.00034393493  0.001583662    1.4368201      356 
 5036000 0.00076480004 -0.00090553522     1.430031 0.00032718299 -0.00090553522    1.4309365      352 
 5037000 0.00083316117 -0.0059604523    1.5484634 0.00035567808 -0.0059604523    1.5544238      353 
 5038000 0.00077733029 -0.0052585667    1.4743425 0.00033145855 -0.0052585667     1.479601      346 
 5039000 0.0008667887 -0.0001272357    1.5944492 0.00037153368 -0.0001272357    1.5945765      358 
 5040000 0.00085355142 -0.0032431722    1.5937467 0.00036621603 -0.0032431722    1.5969899      352 
 5041000 0.00089096905 -0.00041367809    1.5601802 0.00038162951 -0.00041367809    1.5605939      376 
 5042000 0.00084257875 -0.007356902    1.5383644 0.00035991163 -0.007356902    1.5457213      359 
 5043000 0.00085673759 -0.0048395067    1.5538312 0.00036706094 -0.0048395067    1.5586707      362 
 5044000 0.0008615291 -0.0045416133    1.5372911 0.00036669543 -0.0045416133    1.5418327      368 
 5045000 0.0008278367 -0.001793462    1.5383336 0.00035365778 -0.001793462     1.540127      354 
 5046000 0.00081459547 -0.0038545221    1.4579559 0.0003480309 -0.0038545221    1.4618104      367 
 5047000 0.00080953613 -0.00084468248    1.5052355 0.00034641581 -0.00084468248    1.5060802      354 
 5048000 0.00078602212 -0.002819835    1.4804647 0.00033595125 -0.002819835    1.4832845      349 
 5049000 0.00084034122 -0.0033133565    1.5779447 0.00035989409 -0.0033133565    1.5812581      350 
 5050000 0.00075699789 -0.0039833568    1.3925187 0.00032322615 -0.0039833568    1.3965021      357 
 5051000 0.00074277617 -0.00060109197    1.4728476 0.00031800749 -0.00060109197    1.4734487      332 
 5052000 0.00082952364 -0.0076254384      1.53564 0.00036859956 -0.0076254384    1.5432655      354 
 5053000 0.00078514305 -0.0037589822    1.4864063 0.00033481916 -0.0037589822    1.4901653      347 
 5054000 0.00077779442 -0.00079064389    1.4839851 0.00033294559 -0.00079064389    1.4847757      345 
 5055000 0.00079109975 -0.001869906    1.4824902 0.00033809873 -0.001869906    1.4843601      351 
 5056000 0.00077170453 -0.0028679262    1.4492375 0.00033460409 -0.0028679262    1.4521054      350 
 5057000 0.00083089832 -0.0016162886    1.5100448 0.0003550125 -0.0016162886    1.5116611      362 
 5058000 0.00075393618 -0.00044655849    1.4141826 0.00032283905 -0.00044655849    1.4146291      351 
 5059000 0.00075160351 -0.002301193    1.4535769 0.00032073274 -0.002301193    1.4558781      340 
 5060000 0.00078424025 8.2402964e-05    1.4673915 0.00034618915 8.2402964e-05    1.4673091      352 
 5061000 0.00076648513 -0.0010694326    1.4706491 0.0003279126 -0.0010694326    1.4717185      343 
 5062000 0.00079137067 -0.0025098024    1.4492696 0.00033788414 -0.0025098024    1.4517794      359 
 5063000 0.00082159951 -0.0011374692    1.4732419 0.0003514038 -0.0011374692    1.4743793      367 
 5064000 0.00082279078 -0.0003619276    1.4721429 0.00035243951 -0.0003619276    1.4725048      368 
 5065000 0.00076612306 -0.00017036251    1.3672036 0.00032827415 -0.00017036251    1.3673739      369 
 5066000 0.00078527226 -0.0046678184    1.4439945 0.0003377061 -0.0046678184    1.4486623      357 
 5067000 0.00077658785 -0.0010439087    1.4079175 0.00033211163 -0.0010439087    1.4089614      363 
 5068000 0.00079468649 -0.001523674    1.4206844 0.00033980626 -0.001523674    1.4222081      368 
 5069000 0.00078309887 -0.0021539835    1.4547417 0.0003385068 -0.0021539835    1.4568957      354 
 5070000 0.00083318815 -0.002705439      1.49247 0.00035620644 -0.002705439    1.4951754      367 
 5071000 0.00083836804 -0.0023118291     1.522939 0.00035854345 -0.0023118291    1.5252508      362 
 5072000 0.00086469819 -0.0017797584     1.533211 0.00036935651 -0.0017797584    1.5349908      371 
 5073000 0.00089150258 -0.0026904814    1.5671884 0.00038048039 -0.0026904814    1.5698788      374 
 5074000 0.00080088703 -1.3927106e-06    1.4570599 0.00034336324 -1.3927106e-06    1.4570613      362 
 5075000 0.00082564103 -0.0036040495    1.4699974 0.00035151722 -0.0036040495    1.4736014      369 
 5076000 0.00078966647 -0.0017295173    1.4591313 0.0003375409 -0.0017295173    1.4608608      356 
 5077000 0.00083329573 -0.0030522351    1.4882527 0.00035675633 -0.0030522351     1.491305      368 
 5078000 0.00084502087 -0.0058766508    1.4861402 0.00036175528 -0.0058766508    1.4920169      373 
 5079000 0.00081604237 -0.00083120209    1.4635757 0.00034913064 -0.00083120209    1.4644069      367 
 5080000 0.00079917696 -0.0030923741    1.4589353 0.00034210901 -0.0030923741    1.4620276      360 
 5081000 0.00081831977 -0.0037806726    1.4727596 0.00034924988 -0.0037806726    1.4765403      365 
 5082000 0.00081577215 -0.0036455959    1.4484068 0.00034791952 -0.0036455959    1.4520524      370 
 5083000 0.00079830413 -0.0014458346    1.4589851 0.00034118771 -0.0014458346    1.4604309      360 
 5084000 0.00077437823 -0.0017508374    1.4188557 0.00033093396 -0.0017508374    1.4206066      359 
 5085000 0.00079027113 -0.0052450276    1.4860577 0.00033621362 -0.0052450276    1.4913028      349 
 5086000 0.00078881408 -0.0028201762    1.4900105 0.00033878381 -0.0028201762    1.4928306      348 
 5087000 0.0008827093 -0.0034659323    1.5719907 0.00037845592 -0.0034659323    1.5754567      369 
 5088000 0.00085019998 -0.002330194     1.579402 0.00036345023 -0.002330194    1.5817322      354 
 5089000 0.00085046446 -0.0017179808    1.5628278 0.00036352437 -0.0017179808    1.5645458      358 
 5090000 0.00082516216 -0.0047056658    1.5304456 0.00035087125 -0.0047056658    1.5351513      354 
 5091000 0.00086292121 -0.0010666733    1.5063903 0.00036918939 -0.0010666733     1.507457      377 
 5092000 0.00082504499  -0.00116297    1.4673948 0.00035278213  -0.00116297    1.4685578      370 
 5093000 0.00085233124 -0.0018462581    1.4910708 0.00036409196 -0.0018462581    1.4929171      376 
 5094000 0.00081749678 -0.0056732103    1.4533924 0.0003567944 -0.0056732103    1.4590656      369 
 5095000 0.00081272481 -0.0017201452    1.4294361 0.00034714817 -0.0017201452    1.4311562      374 
 5096000 0.00078156435 -0.00077234066    1.4094481 0.00033450211 -0.00077234066    1.4102205      365 
 5097000 0.00080156783 -0.0016326148     1.429003 0.00034246468 -0.0016326148    1.4306357      369 
 5098000 0.00083285391 -0.0007996995    1.4856752 0.00035641093 -0.0007996995    1.4864749      369 
 5099000 0.00082342335 -0.0037502806    1.4819987 0.00035079782 -0.0037502806     1.485749      365 
 5100000 0.00080501141 -0.0044966615    1.5102818 0.00034270755 -0.0044966615    1.5147785      350 
 5101000 0.00079422109 -0.0021381303    1.4880786 0.00033902224 -0.0021381303    1.4902167      351 
 5102000 0.00085274607 -0.0048391973    1.5171392 0.00036319607 -0.0048391973    1.5219784      369 
 5103000 0.00084517133 -0.0022922868    1.5143872 0.00036120428 -0.0022922868    1.5166795      367 
 5104000 0.00078901664 -0.0031049353    1.4773465 0.00033653557 -0.0031049353    1.4804515      351 
 5105000 0.00079383023 -0.0025718752    1.4659917 0.00033855179 -0.0025718752    1.4685636      356 
 5106000 0.00079732435 -0.0043703323    1.4502276 0.00034057746 -0.0043703323    1.4545979      361 
 5107000 0.00078302157 -0.0079725604    1.4245001 0.00033336953 -0.0079725604    1.4324727      360 
 5108000 0.00080960183 -0.0044151412    1.4644434 0.00034790376 -0.0044151412    1.4688586      363 
 5109000 0.00077189348 -0.0022971505    1.4460257 0.00032948785 -0.0022971505    1.4483229      351 
 5110000 0.0007410644 -0.0016531424    1.4008112 0.00031660851 -0.0016531424    1.4024644      348 
 5111000 0.0007835326 -0.0013067891    1.4163491 0.00033511599 -0.0013067891    1.4176559      364 
 5112000 0.00073772487 -0.0015692375    1.4026453 0.00031544228 -0.0015692375    1.4042145      346 
 5113000 0.00081997524 -0.0024553197    1.5102267 0.00035003957 -0.0024553197    1.5126821      357 
 5114000 0.00084136611 -0.0017526712     1.541744 0.00035940872 -0.0017526712    1.5434967      359 
 5115000 0.00081067799 -0.007454201    1.4797447 0.00034450107 -0.007454201    1.4871989      359 
 5116000 0.00081511731 -0.0015203405    1.5192392 0.00034849165 -0.0015203405    1.5207595      353 
 5117000 0.00083758755 -0.0016470462     1.543526 0.0003582205 -0.0016470462    1.5451731      357 
 5118000 0.00084008818 -0.0055523551    1.5144303 0.00035776435 -0.0055523551    1.5199826      364 
 5119000 0.00087619084 -0.007868582    1.4948672 0.00037688315 -0.007868582    1.5027357      384 
 5120000 0.0008628164 -0.0054655732    1.5018083 0.00037332903 -0.0054655732    1.5072739      377 
 5121000 0.0008221274 -0.001910175    1.4496847 0.00035114489 -0.001910175    1.4515949      373 
 5122000 0.00088095102 -0.0037788129    1.5031966 0.00037532517 -0.0037788129    1.5069754      385 
 5123000 0.00087825578 -0.0073113385    1.4834373 0.00037706428 -0.0073113385    1.4907486      388 
 5124000 0.00083052453 -0.003856815    1.4280153 0.00035399989 -0.003856815    1.4318721      382 
 5125000 0.00086410339 -0.010567168    1.4486376 0.00036507526 -0.010567168    1.4592047      390 
 5126000 0.00082361964 -0.0049689117    1.4112913 0.00035137586 -0.0049689117    1.4162602      383 
 5127000 0.00085360548 -0.0045316985     1.470996 0.00036421209 -0.0045316985    1.4755277      381 
 5128000 0.00085053642 -0.0045390854    1.4354475 0.00036379938 -0.0045390854    1.4399866      389 
 5129000 0.00083068913 -0.0051290564    1.4085235 0.00035266647 -0.0051290564    1.4136526      387 
 5130000 0.00082149508 -0.0014804194     1.385772 0.00035126117 -0.0014804194    1.3872524      390 
 5131000 0.0008308115 -0.0021136555    1.4302532 0.0003550681 -0.0021136555    1.4323669      382 
 5132000 0.00082766248 -0.0033070668     1.419905 0.00035761056 -0.0033070668    1.4232121      383 
 5133000 0.00086652356 -0.0022746539     1.461017 0.00037039513 -0.0022746539    1.4632917      390 
 5134000 0.00086851717 -0.0038806706    1.5093382 0.00037018217 -0.0038806706    1.5132188      378 
 5135000 0.00093922129 -0.0073363608    1.5352116 0.00039969595 -0.0073363608     1.542548      401 
 5136000 0.00089433468 -0.0027127665    1.5036808 0.00038322341 -0.0027127665    1.5063935      391 
 5137000 0.0009243593 -0.003892225    1.5104704 0.00039541533 -0.003892225    1.5143627      402 
 5138000 0.00092769289 -0.0052077762    1.5184063 0.00039491382 -0.0052077762    1.5236141      401 
 5139000 0.00089803644  -0.00239218    1.5025386 0.00038338037  -0.00239218    1.5049308      393 
 5140000 0.00093337572 -0.0058849236    1.5743514 0.0003969202 -0.0058849236    1.5802363      389 
 5141000 0.00089329815 -0.0042317481    1.5159678 0.00038517958 -0.0042317481    1.5201996      387 
 5142000 0.00095302617 -0.0036687612    1.5733501 0.00040624159 -0.0036687612    1.5770189      398 
 5143000 0.00096852464  -0.00326953    1.5678158 0.0004128986  -0.00326953    1.5710853      406 
 5144000 0.0009711158 -0.0043062002    1.5480413 0.00041316432 -0.0043062002    1.5523475      412 
 5145000 0.00096847514 -0.0056799028    1.5614652 0.00041543855 -0.0056799028    1.5671451      407 
 5146000 0.0009507243 -0.0082106548    1.5416347 0.00041626412 -0.0082106548    1.5498453      404 
 5147000 0.00092207614 -0.008332708    1.4728139 0.0003921804 -0.008332708    1.4811466      410 
 5148000 0.00088785774 -0.0043700564    1.4465834 0.00037903013 -0.0043700564    1.4509534      403 
 5149000 0.00089614552 -0.0027838717    1.4544815 0.00038203275 -0.0027838717    1.4572654      405 
 5150000 0.00089969045 -0.0045455886    1.4197985 0.00038275376 -0.0045455886    1.4243441      416 
 5151000 0.00087540615 -0.0013070226    1.4436397 0.00038173762 -0.0013070226    1.4449467      399 
 5152000 0.00090267661 -0.0033635556    1.4573092 0.00038438759 -0.0033635556    1.4606727      407 
 5153000 0.0008238696 -0.0011605772    1.3452222 0.00035217415 -0.0011605772    1.3463828      403 
 5154000 0.00083709747 -0.0073497187    1.3848322 0.00035474114 -0.0073497187    1.3921819      396 
 5155000 0.00089415272 -0.0052530853    1.4103239 0.00038047455 -0.0052530853     1.415577      416 
 5156000 0.00085950822 -0.0032231085    1.3707175 0.00036599766 -0.0032231085    1.3739406      412 
 5157000 0.00089121171 -0.001030686    1.4482116 0.00038127992 -0.001030686    1.4492423      405 
 5158000 0.00083988378 -0.007314663    1.3652388 0.00035638866 -0.007314663    1.3725535      403 
 5159000 0.00084549776 -0.0028349317    1.3962514 0.00036688786 -0.0028349317    1.3990864      398 
 5160000 0.00085105271 -0.0052478835     1.399501 0.00036532381 -0.0052478835    1.4047489      399 
 5161000 0.00089639836 -0.0010597523    1.4458986 0.00038347087 -0.0010597523    1.4469583      408 
 5162000 0.00087327865 -0.0018266421    1.4078121 0.00037294221 -0.0018266421    1.4096387      408 
 5163000 0.00087975882 -0.0064383416    1.3698095 0.00037419328 -0.0064383416    1.3762479      421 
 5164000 0.00093835093 -0.0045770881    1.4529431 0.00039995845 -0.0045770881    1.4575201      424 
 5165000 0.00091829098 -0.0039439253    1.4498476 0.00039083108 -0.0039439253    1.4537915      416 
 5166000 0.00096470111 -0.011629914    1.4659108 0.00041380386 -0.011629914    1.4775407      430 
 5167000 0.00092921672 -0.0038783446    1.4531998 0.00039560253 -0.0038783446    1.4570782      420 
 5168000 0.0009528011 -0.0029490371     1.473534 0.00040613059 -0.0029490371     1.476483      425 
 5169000 0.00092672288 -0.00041103222    1.4667294 0.00039693333 -0.00041103222    1.4671404      416 
 5170000 0.00090882517 -0.0036171141    1.4317382 0.00038791588 -0.0036171141    1.4353553      417 
 5171000 0.00091289309 -0.0024550225    1.4639407 0.00039044948 -0.0024550225    1.4663958      410 
 5172000 0.00089129609 -0.00037629177    1.4525908 0.0003817789 -0.00037629177    1.4529671      404 
 5173000 0.00093640327 -0.0045980043    1.4430683 0.00039905791 -0.0045980043    1.4476663      426 
 5174000 0.00092045816 -0.0039188078    1.4498091 0.00039443683 -0.0039188078    1.4537279      417 
 5175000 0.00093821021 -0.001614217     1.498133 0.00040094944 -0.001614217    1.4997472      412 
 5176000 0.0008716463 -0.0027779551    1.4432108 0.00037434839 -0.0027779551    1.4459888      397 
 5177000 0.00097023379 -0.0045165174    1.5060893 0.00041683116 -0.0045165174    1.5106058      423 
 5178000 0.00092873277 -0.0010963028    1.4448945 0.0003972837 -0.0010963028    1.4459908      423 
 5179000 0.00093998551 -0.0064852122     1.470997 0.00039930848 -0.0064852122    1.4774822      419 
 5180000 0.00091532421 -0.0026759354    1.4258155 0.00039195878 -0.0026759354    1.4284914      422 
 5181000 0.00091892604 -0.003129422    1.4141903 0.0003975072 -0.003129422    1.4173197      427 
 5182000 0.0009084486 -0.00050272977    1.4072506 0.00038891608 -0.00050272977    1.4077533      425 
 5183000 0.00088760823 -0.003735975     1.415123 0.00037852662 -0.003735975     1.418859      412 
 5184000 0.00091728339 -0.00033057772    1.4414682 0.00039287868 -0.00033057772    1.4417987      419 
 5185000 0.00094577686 -0.0057762647    1.4529572 0.00040299596 -0.0057762647    1.4587335      427 
 5186000 0.00095713096 -0.00013966107     1.493597 0.00041021207 -0.00013966107    1.4937367      422 
 5187000 0.00093125868 -0.0016992021    1.4941975 0.00040478214 -0.0016992021    1.4958967      410 
 5188000 0.00093196208 -0.00069003366    1.4606931 0.00039889792 -0.00069003366    1.4613831      420 
 5189000 0.00093017368 -0.0028600976    1.4626975 0.00039993947 -0.0028600976    1.4655576      418 
 5190000 0.00089867667 -0.00049725817    1.4501387 0.00038477921 -0.00049725817    1.4506359      408 
 5191000 0.00089704946 -0.0018915691    1.4081032 0.00038308708 -0.0018915691    1.4099948      419 
 5192000 0.00087614755 -0.0041593309    1.4135852 0.00037321211 -0.0041593309    1.4177445      407 
 5193000 0.00082615253 -0.00090796722    1.3133331 0.00035344385 -0.00090796722    1.3142411      414 
 5194000 0.00087176526 -0.0040335836    1.3597096 0.00037127397 -0.0040335836    1.3637432      421 
 5195000 0.00086441241 -0.0052660109    1.4073726 0.00037023162 -0.0052660109    1.4126386      403 
 5196000 0.00087483043 -0.0023292941    1.3927181 0.00037335695 -0.0023292941    1.3950474      413 
 5197000 0.00086529033 -0.0015377261    1.3749636 0.00036954139 -0.0015377261    1.3765013      414 
 5198000 0.00088798816 -0.0020811584    1.4105278 0.00037934899 -0.0020811584     1.412609      414 
 5199000 0.00085816345 -0.0056916746    1.3898092 0.00036594946 -0.0056916746    1.3955009      405 
 5200000 0.00086439177 -0.0045026865    1.4186968 0.0003702132 -0.0045026865    1.4231994      400 
 5201000 0.00087277758 -0.00059593431     1.415174 0.00037372161 -0.00059593431    1.4157699      406 
 5202000 0.00086689993 -0.00044536565     1.385311 0.00037122553 -0.00044536565    1.3857564      412 
 5203000 0.00089248762 -0.00091061729    1.4909255 0.00038188997 -0.00091061729    1.4918361      394 
 5204000 0.00087111015 -0.001721561    1.4397469 0.00037198532 -0.001721561    1.4414684      398 
 5205000 0.00086311153 -0.00045918211    1.4459444   0.00036954 -0.00045918211    1.4464036      393 
 5206000 0.00087221853 -0.0051583835    1.5104997 0.00037293839 -0.0051583835    1.5156581      379 
 5207000 0.00089759438 -0.0037006926    1.4928732 0.00038270244 -0.0037006926    1.4965739      395 
 5208000 0.00082707969 -0.00078686354    1.4214231   0.00035398 -0.00078686354      1.42221      383 
 5209000  0.000858091 -0.00038905445     1.456132 0.00036750841 -0.00038905445     1.456521      388 
 5210000 0.00086279149 -0.0019574694    1.4816609 0.00036851805 -0.0019574694    1.4836184      383 
 5211000 0.0008383147 -0.001079572    1.4329611 0.00035855427 -0.001079572    1.4340407      385 
 5212000 0.00087308522 -0.00014748414    1.5011716 0.00037414901 -0.00014748414    1.5013191      383 
 5213000 0.00086481785 -0.00075565163    1.4522045 0.00037005632 -0.00075565163    1.4529602      392 
 5214000 0.00088856246 -5.5567894e-06    1.4966654 0.00038095257 -5.5567894e-06     1.496671      391 
 5215000 0.00090884675 -0.0028275123    1.4898343 0.00038990034 -0.0028275123    1.4926618      401 
 5216000 0.00092097795 -0.0040159094    1.5432975 0.00039235016 -0.0040159094    1.5473134      392 
 5217000 0.00091693904 -0.0038242678    1.5134795 0.00039085542 -0.0038242678    1.5173037      398 
 5218000 0.00091165898 -0.0019778653    1.5219041 0.00038925293 -0.0019778653    1.5238819      394 
 5219000 0.00088669563 -0.00032450674    1.4970316 0.00037988722 -0.00032450674    1.4973561      390 
 5220000 0.00092465094 -0.00046121483    1.5143792 0.00039598395 -0.00046121483    1.5148405      402 
 5221000  0.000893383 -0.0034845721    1.4823061 0.00038113287 -0.0034845721    1.4857907      396 
 5222000 0.00093381114 -0.0024083902    1.5428144 0.00040243511 -0.0024083902    1.5452228      398 
 5223000 0.00094320163 -0.00047684269    1.5602849 0.00040393403 -0.00047684269    1.5607617      398 
 5224000 0.00094553028 -0.0030180698    1.5307671 0.00040304319 -0.0030180698    1.5337852      406 
 5225000 0.00094801328 -0.00011796794    1.5646742 0.00040629349 -0.00011796794    1.5647921      399 
 5226000 0.00091203517 -0.0027604794    1.5493254 0.00038935862 -0.0027604794    1.5520859      387 
 5227000 0.00088671493 -0.00060985987    1.5044973 0.00037965558 -0.00060985987    1.5051072      388 
 5228000 0.00092379303 -1.1611132e-05    1.5324842 0.00039602191 -1.1611132e-05    1.5324958      397 
 5229000 0.00089717899 -0.0035284626    1.5272309 0.00038245341 -0.0035284626    1.5307594      386 
 5230000 0.00088370764 -6.9479517e-05    1.5315121 0.00037876074 -6.9479517e-05    1.5315816      380 
 5231000 0.00092692129 -0.0023660914    1.5549326 0.00039583973 -0.0023660914    1.5572987      392 
 5232000 0.00099705876 -0.0013644916    1.6280473 0.00042632854 -0.0013644916    1.6294117      403 
 5233000 0.00094480459 -0.0020948274    1.5893089 0.00040335565 -0.0020948274    1.5914037      391 
 5234000 0.00097055001 -0.003244258    1.5789204 0.00041438318 -0.003244258    1.5821647      404 
 5235000 0.00092735586 -0.0030518942    1.5669926 0.00039616777 -0.0030518942    1.5700445      389 
 5236000 0.00093961249 -0.00013894163    1.5625363 0.00040267606 -0.00013894163    1.5626752      396 
 5237000 0.00092936032 -0.00012976963    1.5148886 0.00039828528 -0.00012976963    1.5150183      404 
 5238000 0.00089633159 -0.0020359174    1.5272776 0.00038284212 -0.0020359174    1.5293135      386 
 5239000 0.00092547855 -0.0003400718    1.5625084 0.00039643962 -0.0003400718    1.5628485      390 
 5240000 0.00089382216 -0.0033894762    1.4906774 0.00038105498 -0.0033894762    1.4940669      394 
 5241000 0.00090078638 -0.0020655647    1.4922642 0.00038492687 -0.0020655647    1.4943297      397 
 5242000 0.0008988983 -0.0028481877    1.5151145 0.00039001045 -0.0028481877    1.5179626      390 
 5243000 0.00094427836 -0.0015970986     1.580826 0.00040379822 -0.0015970986    1.5824231      393 
 5244000 0.00098415512 -0.0013165017    1.5990655 0.00042082923 -0.0013165017     1.600382      405 
 5245000 0.00091398814 -0.0029249071    1.5365724 0.00038974688 -0.0029249071    1.5394973      391 
 5246000 0.00088668747 -0.0053498456    1.5273627 0.00037735685 -0.0053498456    1.5327126      381 
 5247000 0.00092752619 -0.0020493388    1.5099791 0.0003961617 -0.0020493388    1.5120284      404 
 5248000 0.00087147574 -0.003752242    1.4870145 0.00037288222 -0.003752242    1.4907668      385 
 5249000 0.0008731757 -0.0046406765    1.5086877 0.00037154456 -0.0046406765    1.5133284      380 
 5250000 0.00089136348 -0.006945325    1.5138916 0.00037974861 -0.006945325     1.520837      386 
 5251000 0.00097762648 -0.0052853296    1.5844802  0.000435249 -0.0052853296    1.5897655      405 
 5252000 0.00090761748 -0.0015476919    1.4853871 0.00038790559 -0.0015476919    1.4869348      402 
 5253000 0.00088593599 -0.0037456606    1.5117572 0.00037858748 -0.0037456606    1.5155028      385 
 5254000 0.00084988281 -0.0028832562    1.4937058 0.00036330077 -0.0028832562    1.4965891      374 
 5255000 0.00086498919 -0.0025322138    1.4809918 0.00036953315 -0.0025322138     1.483524      384 
 5256000 0.00091863537 -0.0023184135    1.5489741 0.00039269809 -0.0023184135    1.5512925      390 
 5257000 0.00090518066 -0.00066833614    1.5599153 0.00038741385 -0.00066833614    1.5605836      382 
 5258000 0.00091237319 -0.0027112722    1.5539723 0.00039152144 -0.0027112722    1.5566836      386 
 5259000 0.00093932422 -0.0011718608    1.5891354 0.00040180286 -0.0011718608    1.5903073      389 
 5260000 0.00091482949 -0.0037563756    1.5293163 0.00038966861 -0.0037563756    1.5330727      393 
 5261000 0.00088531495 -0.0044074442    1.5299599 0.00037675318 -0.0044074442    1.5343673      380 
 5262000 0.00090780017 -0.0055555801    1.5157373 0.00039285479 -0.0055555801    1.5212929      393 
 5263000 0.00093397935 -0.0033945844    1.5577969 0.00040543506 -0.0033945844    1.5611915      394 
 5264000 0.00090281084 -0.001880542    1.5505534 0.00038603573 -0.001880542    1.5524339      383 
 5265000 0.00094448424 -0.0079745918    1.5588463 0.00040328906 -0.0079745918    1.5668209      397 
 5266000 0.00089056862 -0.0008423913    1.4992077 0.00038950981 -0.0008423913    1.5000501      391 
 5267000 0.00086978745 -0.0041774876    1.5112546 0.0003707882 -0.0041774876    1.5154321      378 
 5268000 0.00087670544 -0.0043276858    1.5032165 0.00037392989 -0.0043276858    1.5075442      383 
 5269000 0.00088550851 -0.0026595814    1.5525059 0.00037798071 -0.0026595814    1.5551655      375 
 5270000 0.00087413989 -0.003315036    1.5526303 0.00037263982 -0.003315036    1.5559454      370 
 5271000 0.00092201232 -0.0054240697     1.551571 0.00039988095 -0.0054240697    1.5569951      390 
 5272000 0.00091311092 -0.0042647693    1.5658807 0.00038854394 -0.0042647693    1.5701455      383 
 5273000 0.00092197352 -0.0032621676    1.5616928 0.00039348833 -0.0032621676     1.564955      388 
 5274000 0.00090617737 -0.0051648885    1.5653597 0.00038568138 -0.0051648885    1.5705246      380 
 5275000 0.00093470587 -0.0026718753    1.5717218 0.00040138603 -0.0026718753    1.5743937      391 
 5276000 0.00090238584 -0.0029489058    1.5487542 0.00039008442 -0.0029489058    1.5517031      383 
 5277000  0.000910376 -0.0011922408    1.5601737 0.00038936153 -0.0011922408     1.561366      384 
 5278000 0.00088846334 -0.0033759139    1.5780648 0.00038109148 -0.0033759139    1.5814407      370 
 5279000 0.00090434184 -0.0085515143    1.5587919 0.00038579689 -0.0085515143    1.5673434      380 
 5280000 0.00088303989 -0.001521899    1.5702652 0.00037760203 -0.001521899    1.5717871      370 
 5281000 0.0008799382 -0.0066252082    1.5346474 0.00037388389 -0.0066252082    1.5412726      376 
 5282000 0.00088640063 -0.0017111852     1.542666 0.00037870778 -0.0017111852    1.5443772      378 
 5283000 0.00088332765 -0.0049517418    1.5716086 0.00037669861 -0.0049517418    1.5765603      369 
 5284000 0.00095864529 -0.0024009247    1.6417506 0.00040923304 -0.0024009247    1.6441516      384 
 5285000 0.00090725171 -0.0016739541     1.583225 0.00039501972 -0.0016739541    1.5848989      377 
 5286000 0.00083157382 -0.0052140121     1.507676 0.00035390726 -0.0052140121    1.5128901      362 
 5287000 0.00084261654 -0.0067034619    1.5136769 0.00035730629 -0.0067034619    1.5203804      365 
 5288000 0.0008343004 -0.0052273411    1.5084418 0.00035510409 -0.0052273411    1.5136691      363 
 5289000 0.00083115073 -0.0081251949    1.4998295 0.00035591181 -0.0081251949    1.5079547      363 
 5290000 0.00088535147 -0.0063775516    1.5200194 0.0003808048 -0.0063775516    1.5263969      382 
 5291000 0.00085719241 -0.0080672151     1.551431 0.00036450295 -0.0080672151    1.5594982      362 
 5292000 0.00086285392 -0.0032184213    1.5326382 0.00036779497 -0.0032184213    1.5358567      370 
 5293000 0.00081174881 -0.0042987866    1.4766144 0.00034583284 -0.0042987866    1.4809131      361 
 5294000 0.00080355751 -0.0046658764    1.5117093 0.0003453745 -0.0046658764    1.5163752      349 
 5295000 0.00080729392 -0.0075317263    1.4986317 0.00034306321 -0.0075317263    1.5061635      353 
 5296000 0.00083709932 -0.0066323742    1.5037929 0.00036165114 -0.0066323742    1.5104253      365 
 5297000 0.0008284436 -0.0036166518    1.5246877 0.00035289018 -0.0036166518    1.5283044      357 
 5298000 0.00081507522 -0.0039346169    1.5081792 0.00034766153 -0.0039346169    1.5121138      355 
 5299000 0.00085096584 -0.0046555009    1.5182727 0.00036598162 -0.0046555009    1.5229282      368 
 5300000 0.00081728394 -0.0064423681    1.5140521 0.00034706665 -0.0064423681    1.5204944      354 
 5301000 0.00081711582 -0.0056974374    1.4933118 0.00034822724 -0.0056974374    1.4990092      359 
 5302000 0.00085286357 -0.0043342846     1.543014 0.00036729326 -0.0043342846    1.5473483      363 
 5303000 0.00083523648 -0.0046489951    1.5065554 0.00035511674 -0.0046489951    1.5112044      364 
 5304000 0.00082146369 -0.0042356581    1.5283643 0.00035017826 -0.0042356581    1.5325999      353 
 5305000 0.00081315392 -0.0057625021    1.5027869 0.00034814691 -0.0057625021    1.5085494      355 
 5306000 0.00088936666 -0.0066905189    1.6340041 0.00038276684 -0.0066905189    1.6406946      357 
 5307000 0.00087786459 -0.003396235    1.5981352 0.00037461906 -0.003396235    1.6015314      361 
 5308000 0.00086083834 -0.0057822116    1.6280493 0.00036646981 -0.0057822116    1.6338315      347 
 5309000 0.00082138409 -0.0060614671    1.5177564 0.00034978339 -0.0060614671    1.5238179      355 
 5310000 0.00087533252 -0.0037333505    1.6020751 0.00037389257 -0.0037333505    1.6058085      359 
 5311000 0.00084966057 -0.0046576486    1.5850524 0.00036202317 -0.0046576486    1.5897101      352 
 5312000 0.00083620843 -0.0051022146    1.5375267 0.00035527414 -0.0051022146    1.5426289      357 
 5313000 0.00079907907 -0.0014012957    1.5284402 0.0003416691 -0.0014012957    1.5298415      344 
 5314000 0.00082458907 -0.0031057509    1.5396957 0.00035433205 -0.0031057509    1.5428015      352 
 5315000 0.00080598908 -0.0010925125    1.5242418 0.00034481737 -0.0010925125    1.5253343      348 
 5316000 0.00079865395 -0.0017680514    1.5498116 0.00034140594 -0.0017680514    1.5515797      339 
 5317000 0.00078136268 -0.0026423765    1.5243536 0.00033342334 -0.0026423765     1.526996      337 
 5318000 0.00076693736 -0.0021832894     1.510084 0.00032736479 -0.0021832894    1.5122673      334 
 5319000 0.00071014859 -0.003208203    1.4403003 0.00030493354 -0.003208203    1.4435085      324 
 5320000 0.00077976781 -0.0016054622    1.5222737 0.00033328387 -0.0016054622    1.5238792      337 
 5321000 0.00074645202 -0.0017718816    1.4701019 0.00031885016 -0.0017718816    1.4718738      334 
 5322000 0.00082190099 -0.0027243997    1.5708098 0.00035092802 -0.0027243997    1.5735342      344 
 5323000 0.00076349653 -0.0013014149    1.4732768 0.00032647736 -0.0013014149    1.4745782      341 
 5324000 0.00075905904 -0.0030532765    1.5351273 0.00032437198 -0.0030532765    1.5381806      325 
 5325000 0.00077049542 -0.00066655569    1.5511395 0.00032979434 -0.00066655569    1.5518061      327 
 5326000 0.00076609985 -0.00065813418    1.5614029 0.00032799728 -0.00065813418     1.562061      323 
 5327000 0.00080456644 -0.0034104517    1.6219865 0.00034534137 -0.0034104517     1.625397      326 
 5328000 0.00080348623 -0.00045035533    1.5791556 0.0003441658 -0.00045035533     1.579606      335 
 5329000 0.0007964271 -0.00024588832    1.5470076 0.00034129411 -0.00024588832    1.5472535      339 
 5330000 0.00076498895 -0.0018457872    1.5435961 0.00032666391 -0.0018457872    1.5454419      326 
 5331000 0.00076701185 -0.00070480731    1.5583888 0.00032828611 -0.00070480731    1.5590936      324 
 5332000 0.00077975128 -0.0034912644    1.5814976 0.0003323087 -0.0034912644    1.5849889      324 
 5333000 0.00078299335 -0.00024323027    1.5671476 0.00033550803 -0.00024323027    1.5673909      329 
 5334000  0.000804297 -0.0025815114     1.528349 0.00034347827 -0.0025815114    1.5309305      346 
 5335000 0.00076054967 -6.9195705e-05     1.522394 0.00032599316 -6.9195705e-05    1.5224632      329 
 5336000 0.00078682153 -0.00098084839    1.5693003 0.00034333183 -0.00098084839    1.5702812      330 
 5337000 0.00076407164 -0.0017163593    1.5907202 0.00032665012 -0.0017163593    1.5924365      316 
 5338000 0.00074970684 -0.00037278275    1.5095643 0.00032115861 -0.00037278275    1.5099371      327 
 5339000 0.00071334521 -2.4038294e-06    1.4590101 0.00030582745 -2.4038294e-06    1.4590125      322 
 5340000 0.00074970337 -0.0002012252      1.50055  0.000321196 -0.0002012252    1.5007512      329 
 5341000 0.00071620114 -0.0018935928    1.4494384 0.00030584043 -0.0018935928     1.451332      325 
 5342000 0.00072478501 -0.001319244    1.4495505 0.00030993083 -0.001319244    1.4508698      329 
 5343000 0.00073767868 -0.0005095422    1.4806728 0.00031585443 -0.0005095422    1.4811823      328 
 5344000 0.00076326206 -0.00057318378    1.4649567 0.00032673064 -0.00057318378    1.4655299      343 
 5345000 0.00076390805 -0.0041526787    1.4931753 0.00033325284 -0.0041526787     1.497328      336 
 5346000 0.00069819453 -0.0003150471    1.4456722 0.00029908006 -0.0003150471    1.4459872      318 
 5347000 0.0006811259 -0.00045272296    1.3926613 0.0002916418 -0.00045272296     1.393114      322 
 5348000 0.0007285121 -0.00023875422     1.480597 0.0003121212 -0.00023875422    1.4808358      324 
 5349000 0.00066563792            0     1.414137 0.00028540526            0     1.414137      310 
 5350000 0.00067187558 -0.00082382684    1.4083817 0.00028753734 -0.00082382684    1.4092055      314 
 5351000 0.00068232906 -0.0022274724    1.4334757 0.00029125859 -0.0022274724    1.4357032      313 
 5352000 0.00069705934 -0.00091545925     1.411627 0.00029822949 -0.00091545925    1.4125425      325 
 5353000 0.00070661547 -0.0015971989    1.3917258 0.00030196422 -0.0015971989     1.393323      334 
 5354000 0.0007115045 -0.0015215317    1.4537261 0.00030405192 -0.0015215317    1.4552477      322 
 5355000 0.00068027821 -0.0018838768    1.4025814 0.0002905678 -0.0018838768    1.4044653      319 
 5356000 0.00068467173 -0.0031905236    1.3673808 0.00029275943 -0.0031905236    1.3705713      329 
 5357000 0.00074817719 -0.0072149511    1.4636567 0.00031787545 -0.0072149511    1.4708717      335 
 5358000 0.00068601696 -0.0038860041    1.4124272 0.00029352669 -0.0038860041    1.4163132      319 
 5359000 0.00069607168 -0.0038339168    1.3811384 0.00029699614 -0.0038339168    1.3849723      331 
 5360000 0.00069063284 -0.0098529645    1.4340959 0.00029355683 -0.0098529645    1.4439488      315 
 5361000 0.00070980421 -0.0054273177    1.4285296 0.00030274805 -0.0054273177    1.4339569      326 
 5362000 0.0006452324 -0.0033930516     1.376294 0.00027592069 -0.0033930516     1.379687      308 
 5363000 0.00067691334 -0.0073383287    1.3858128 0.00028821314 -0.0073383287    1.3931511      320 
 5364000 0.00069029938 -0.0037475336    1.4487262 0.00029461271 -0.0037475336    1.4524737      313 
 5365000 0.00070056676 -0.0078823513    1.4384696 0.00029834289 -0.0078823513    1.4463519      319 
 5366000 0.0006820645 -0.0036845051    1.3913492 0.0002919009 -0.0036845051    1.3950337      322 
 5367000 0.00071523899 -0.0049915957    1.4809682 0.0003047565 -0.0049915957    1.4859598      317 
 5368000 0.00070053575 -0.0031428984    1.4522698 0.0003005289 -0.0031428984    1.4554127      317 
 5369000 0.00070736203 -0.0031056835    1.4436693 0.00030270939 -0.0031056835     1.446775      322 
 5370000  0.000722511 -0.0046778867    1.4504858  0.000315389 -0.0046778867    1.4551637      327 
 5371000 0.0007283121 -0.0082262482      1.43653 0.00031286216 -0.0082262482    1.4447562      332 
 5372000  0.000731404 -0.0039912523    1.4690833 0.00031217103 -0.0039912523    1.4730745      327 
 5373000 0.0007330045 -0.0034633471    1.4819195 0.00031333759 -0.0034633471    1.4853829      325 
 5374000 0.00075067309 -0.0065090713    1.4781329 0.00032034277 -0.0065090713     1.484642      333 
 5375000 0.00073647158 -0.0080643698    1.4752164 0.00031356119 -0.0080643698    1.4832808      327 
 5376000 0.00073413971 -0.0028962667    1.4318131 0.00031446513 -0.0028962667    1.4347094      337 
 5377000 0.0007598175 -0.0087618301    1.4939655 0.00032396159 -0.0087618301    1.5027273      333 
 5378000 0.00080217875 -0.0026125765    1.5111608 0.00034311105 -0.0026125765    1.5137734      349 
 5379000 0.00077407588 -0.0046228919    1.4687836 0.00033083464 -0.0046228919    1.4734065      346 
 5380000 0.00075206021 -0.0068715518    1.4585111 0.00031991152 -0.0068715518    1.4653826      338 
 5381000 0.00075629813 -0.0035993309    1.4318197 0.00032272868 -0.0035993309     1.435419      347 
 5382000 0.00075754935 -0.0049999431    1.5114573 0.00032402872 -0.0049999431    1.5164572      329 
 5383000 0.0008286823 -0.002702673     1.556617 0.00035470224 -0.002702673    1.5593197      350 
 5384000 0.00075892456 -0.0029388999     1.484621 0.00032463817 -0.0029388999    1.4875599      336 
 5385000 0.00075607167 -0.0057908842    1.4761771 0.00032348935 -0.0057908842     1.481968      336 
 5386000 0.00075937599 -0.0037848381    1.4585468 0.00033157846 -0.0037848381    1.4623317      342 
 5387000 0.00077760258 -0.0044531365    1.4671598 0.00033175236 -0.0044531365    1.4716129      348 
 5388000  0.000794124 -0.0058965913    1.5233494 0.00033895029 -0.0058965913     1.529246      342 
 5389000 0.00080606351 -0.0031381291    1.5267333 0.00034434969 -0.0031381291    1.5298714      347 
 5390000 0.00079947202 -0.004356543    1.4788104 0.0003416998 -0.004356543     1.483167      355 
 5391000 0.00077835974 -0.0029411371    1.4210031 0.00033327929 -0.0029411371    1.4239443      360 
 5392000 0.00077913049 -0.0078566236    1.4096228 0.00033063324 -0.0078566236    1.4174794      362 
 5393000 0.00079692096 -0.0088615869    1.4369901 0.00033928739 -0.0088615869    1.4458517      363 
 5394000 0.00082693197 -0.0055324655    1.5329114 0.00035476046 -0.0055324655    1.5384439      354 
 5395000 0.00082336276 -0.0087323145    1.4728482 0.00035372214 -0.0087323145    1.4815806      366 
 5396000 0.00079456543 -0.0044822061    1.4906402 0.00033950673 -0.0044822061    1.4951224      350 
 5397000 0.00075942176 -0.0051876456    1.4658346 0.00033060332 -0.0051876456    1.4710223      340 
 5398000 0.00077357906 -0.0054499635    1.4501827 0.00032924374 -0.0054499635    1.4556327      350 
 5399000 0.00079240209 -0.0074981638    1.4667055 0.00033727388 -0.0074981638    1.4742036      354 
 5400000 0.00079498458 -0.0084670886     1.422049 0.00034345269 -0.0084670886    1.4305161      366 
 5401000 0.00077346371 -0.011316226     1.427654 0.0003291503 -0.011316226    1.4389702      354 
 5402000 0.00079234878 -0.0030707624    1.4464653 0.00033753336 -0.0030707624    1.4495361      360 
 5403000 0.0008101579 -0.0042380866    1.4535813 0.00034564347 -0.0042380866    1.4578194      366 
 5404000 0.00084104158 -0.0014363362    1.4756345 0.00035958855 -0.0014363362    1.4770709      375 
 5405000 0.00080713047 -0.002111876     1.407883  0.000344641 -0.002111876    1.4099949      377 
 5406000 0.00085698456 -0.0061846502    1.4484583 0.00036923283 -0.0061846502    1.4546429      388 
 5407000 0.00080210967 -0.0035376373    1.3829752 0.00034419605 -0.0035376373    1.3865129      381 
 5408000 0.00078605981 -0.005065448    1.3608742 0.00033482364 -0.005065448    1.3659397      379 
 5409000 0.00084443965 -0.0026169694    1.4532456 0.0003601684 -0.0026169694    1.4558626      382 
 5410000 0.00082168409 -0.0025225237    1.4482896 0.00035048413 -0.0025225237    1.4508121      373 
 5411000 0.00084302785 -0.0023713514    1.4587068 0.00035973547 -0.0023713514    1.4610782      380 
 5412000 0.00087868245 -0.0040153368    1.4610264 0.00037362277 -0.0040153368    1.4650417      395 
 5413000 0.00086098194 -0.0021155592    1.4783912 0.00036791532 -0.0021155592    1.4805068      383 
 5414000 0.00086127502 3.9315968e-05    1.4695396 0.00038388314 3.9315968e-05    1.4695003      386 
 5415000 0.00085568235 -0.0058278983    1.4694177 0.00036376883 -0.0058278983    1.4752456      382 
 5416000 0.00084548548 -0.0016639146    1.4446433 0.00036143501 -0.0016639146    1.4463072      385 
 5417000 0.00086407844 -0.0030484561    1.4598652 0.0003684669 -0.0030484561    1.4629137      389 
 5418000 0.00083461249 -0.0024666353    1.4440266 0.00035625476 -0.0024666353    1.4464933      380 
 5419000 0.00083647299 -0.0017044651    1.4366578 0.00035734588 -0.0017044651    1.4383623      383 
 5420000 0.00079892988 -0.0065777352    1.4271204 0.00034155242 -0.0065777352    1.4336982      367 
 5421000 0.00079050069 -0.0069787165    1.3962985 0.0003372184 -0.0069787165    1.4032772      371 
 5422000 0.00079257042 -0.0040872954    1.4498931 0.00033811658 -0.0040872954    1.4539804      359 
 5423000 0.00082017113 -0.0055680592    1.4543144 0.00034817425 -0.0055680592    1.4598824      370 
 5424000 0.00079416706 -0.0061743103    1.3960522 0.00034328088 -0.0061743103    1.4022265      373 
 5425000 0.0007415296 -0.0023467626    1.3617984 0.00032947601 -0.0023467626    1.3641452      358 
 5426000 0.00080860824 -0.0033958302    1.4516351 0.00034466134 -0.0033958302    1.4550309      366 
 5427000 0.00076871236 -0.0056996442    1.3625876 0.00032856193 -0.0056996442    1.3682872      370 
 5428000 0.00084469506 -0.0059068002    1.4315808 0.00035948869 -0.0059068002    1.4374876      387 
 5429000 0.00082763699 -0.0053265882    1.4290772 0.00035272357 -0.0053265882    1.4344038      380 
 5430000 0.0008461068 -0.0056701029       1.4417 0.00035973347 -0.0056701029    1.4473701      385 
 5431000 0.00081600444 -0.0058697147    1.4272299 0.00034692145 -0.0058697147    1.4330996      375 
 5432000 0.0008365663 -0.002947973    1.4393405 0.00035669373 -0.002947973    1.4422885      382 
 5433000 0.00082172118 -0.0032172626    1.4246913 0.00034994947 -0.0032172626    1.4279086      379 
 5434000 0.00085550474 -0.0063243473    1.4802901 0.00036270506 -0.0063243473    1.4866144      379 
 5435000 0.00086649646 -0.011176391    1.4558311 0.00037402974 -0.011176391    1.4670075      389 
 5436000 0.00085946563 -0.0056940805    1.4569299 0.00036697422 -0.0056940805     1.462624      387 
 5437000 0.00082892777 -0.0054453792    1.4349861 0.00035200951 -0.0054453792    1.4404315      379 
 5438000 0.00082170238 0.0013613374    1.3997204 0.00036757539 0.0013613374    1.3983591      387 
 5439000 0.00085662038 -0.008699176    1.4490828 0.00036457089 -0.008699176    1.4577819      387 
 5440000 0.00087627821 -0.004113437    1.5226275 0.00037293784 -0.004113437    1.5267409      378 
 5441000 0.00085528213 -0.0035412326    1.4519633 0.00036409724 -0.0035412326    1.4555045      387 
 5442000 0.00089285314 -0.0064168522    1.4599775 0.00038098197 -0.0064168522    1.4663944      401 
 5443000 0.00087676792 -0.0031352384    1.4440592 0.00037633147 -0.0031352384    1.4471945      399 
 5444000 0.00084282092 -0.0058525334    1.3923173 0.00035784036 -0.0058525334    1.3981698      397 
 5445000 0.00092829248 -0.0045783075    1.5049628 0.00039520834 -0.0045783075    1.5095411      405 
 5446000 0.00090705706 -0.0033659168    1.5166817 0.00038638767 -0.0033659168    1.5200476      393 
 5447000 0.00088911927 -0.004989613     1.458923 0.00037768384 -0.004989613    1.4639126      400 
 5448000 0.00086021062 -0.0058991734    1.4430167 0.00036654987 -0.0058991734    1.4489159      391 
 5449000 0.0008591078 -0.0052181765    1.4163894 0.00036480548 -0.0052181765    1.4216076      398 
 5450000 0.00084792227 -0.0088541479    1.4378638 0.00036417705 -0.0088541479     1.446718      386 
 5451000 0.00083346291 -0.0048808653    1.4320572 0.00035436671 -0.0048808653    1.4369381      382 
 5452000 0.00085120483 -0.0053257501    1.4583687 0.00036643024 -0.0053257501    1.4636945      383 
 5453000 0.00081574263 -0.0030920144    1.4032953  0.000347623 -0.0030920144    1.4063873      382 
 5454000 0.00084459602 -0.0057689295    1.4278457 0.00036135511 -0.0057689295    1.4336147      388 
 5455000 0.00085835409 -0.0044539586    1.4487682 0.00036484839 -0.0044539586    1.4532222      389 
 5456000 0.00080461488 -0.0053341723    1.3362135 0.00034135424 -0.0053341723    1.3415476      395 
 5457000 0.00083866477 -0.0049271018    1.4040939 0.0003581543 -0.0049271018     1.409021      392 
 5458000 0.00079289502 -0.0030852427    1.4006586 0.00033779603 -0.0030852427    1.4037439      372 
 5459000 0.00082471251 -0.002039411    1.4161001 0.00035198943 -0.002039411    1.4181395      383 
 5460000 0.00083137459 -0.0015063429    1.3952666  0.000360723 -0.0015063429    1.3967729      392 
 5461000 0.00083085978 -0.0012797208    1.4311704 0.00035534846 -0.0012797208    1.4324501      382 
 5462000 0.00083767635 -5.0134423e-06    1.4002114 0.00035913453 -5.0134423e-06    1.4002164      394 
 5463000 0.00083374306 -0.0034083111    1.3831948 0.00035567434 -0.0034083111    1.3866031      396 
 5464000 0.00080857275 -0.0006107515    1.3897755 0.00034616817 -0.0006107515    1.3903862      383 
 5465000 0.00082480327 -0.0015163663    1.3985021 0.00035235661 -0.0015163663    1.4000185      388 
 5466000 0.00080338859 -0.0015710354     1.365622 0.00034349714 -0.0015710354     1.367193      387 
 5467000 0.00080885867 -0.00038206797    1.3868737 0.00034647195 -0.00038206797    1.3872558      384 
 5468000 0.00084022134 -0.0058677916    1.4351774 0.00035890343 -0.0058677916    1.4410452      384 
 5469000 0.00085734789 -0.0025234584    1.4564966 0.00036581166 -0.0025234584      1.45902      387 
 5470000 0.00091651589 -0.0051605339    1.5465315 0.00039089663 -0.0051605339     1.551692      389 
 5471000 0.00088557964 -0.0024475229    1.5046168 0.00038057794 -0.0024475229    1.5070643      387 
 5472000 0.00087951858 -0.0027457963    1.4863086 0.0003756046 -0.0027457963    1.4890543      389 
 5473000 0.00086022002 -0.0052698309     1.454865 0.00037148325 -0.0052698309    1.4601348      388 
 5474000 0.00084787132 -0.0014704901    1.4796955 0.00036254833 -0.0014704901     1.481166      377 
 5475000 0.00082699201 -0.0028366265    1.4418548 0.00035711092 -0.0028366265    1.4446914      377 
 5476000 0.0007901713 -0.003321999    1.4031616 0.00033684934 -0.003321999    1.4064836      370 
 5477000 0.00083784441 -0.0026578678    1.4268653 0.00035999579 -0.0026578678    1.4295232      386 
 5478000 0.00084008586 -0.0016080925    1.4098004 0.00035903288 -0.0016080925    1.4114085      392 
 5479000 0.00081322262 -0.0029605474    1.4252536 0.00034768801 -0.0029605474    1.4282141      375 
 5480000 0.00083118153 -0.0026175205    1.4649638 0.00035467981 -0.0026175205    1.4675814      373 
 5481000 0.00077793638 -0.0075803958    1.3696807 0.00032949546 -0.0075803958    1.3772611      372 
 5482000 0.00081922569 -0.0058008892    1.4805183 0.0003486368 -0.0058008892    1.4863191      363 
 5483000 0.00081873746 -0.0060965875    1.4166272 0.00035673802 -0.0060965875    1.4227238      379 
 5484000 0.00082860281 -0.0051833645    1.4697072 0.00035309819 -0.0051833645    1.4748906      370 
 5485000 0.0007915594 -0.0018682681    1.4422123 0.00033829557 -0.0018682681    1.4440806      361 
 5486000 0.00082049361 -0.0066810106    1.4537754 0.00035056023 -0.0066810106    1.4604565      370 
 5487000 0.00082910089 -0.0045486181    1.4792491 0.00035269469 -0.0045486181    1.4837977      368 
 5488000 0.00081231523 -0.0024682311    1.4279668 0.00035062151 -0.0024682311     1.430435      374 
 5489000 0.00075035753 -0.0017533089    1.3671607 0.00032058528 -0.0017533089     1.368914      361 
 5490000 0.00082652564 -0.0028421866    1.4372147 0.00035640466 -0.0028421866    1.4400569      378 
 5491000 0.00080020101 -0.0044545613    1.3823991 0.00034049275 -0.0044545613    1.3868536      380 
 5492000  0.000788346 -0.006283814     1.378241 0.0003367632 -0.006283814    1.3845248      375 
 5493000 0.00083240426 -0.0033775746    1.4131938 0.00035467981 -0.0033775746    1.4165714      387 
 5494000 0.00082647578 -0.0023393084    1.4225525 0.00035347023 -0.0023393084    1.4248918      382 
 5495000 0.00078820454 -0.0021147485    1.3933251 0.00033666027 -0.0021147485    1.3954399      372 
 5496000 0.00076463786 -0.004312308    1.3641193 0.00032523893 -0.004312308    1.3684317      368 
 5497000 0.00077714835 -0.0051294165    1.3819224 0.00033055945 -0.0051294165    1.3870518      369 
 5498000 0.00079696539 -0.0037810598     1.384773 0.00033971026 -0.0037810598    1.3885541      378 
 5499000 0.00080814095 -0.0057012119    1.3767236 0.00034365333 -0.0057012119    1.3824248      385 
 5500000 0.00081717692 -0.0056812431     1.421864 0.00034738445 -0.0056812431    1.4275452      377 
 5501000 0.0008847256 -0.0039366509    1.4637496 0.00038504349 -0.0039366509    1.4676862      397 
 5502000 0.00086789685 -0.0022927321    1.3952334 0.00037047161 -0.0022927321    1.3975261      409 
 5503000 0.00084970084 -0.0033185394     1.427895 0.0003665484 -0.0033185394    1.4312135      391 
 5504000 0.00080311387 -0.0030393495    1.3815752 0.00034225895 -0.0030393495    1.3846146      382 
 5505000 0.00083175759 -0.0032448549    1.4013378 0.00035708371 -0.0032448549    1.4045826      390 
 5506000 0.00089792355 -0.0038402446    1.4745684 0.00038704215 -0.0038402446    1.4784087      400 
 5507000 0.0008848075 -0.0029022381    1.4649199 0.00037828264 -0.0029022381    1.4678221      397 
 5508000 0.00087561706 -0.0020830422    1.4395986 0.00037402359 -0.0020830422    1.4416816      400 
 5509000 0.00087350866 -0.0050138105     1.411942 0.00037134316 -0.0050138105    1.4169558      406 
 5510000 0.00087093546 -0.0031462797    1.4526643 0.00037146363 -0.0031462797    1.4558106      394 
 5511000 0.00088054904 -0.0043816495    1.4275215 0.00037463527 -0.0043816495    1.4319032      405 
 5512000 0.00088114724 -0.0047260075    1.4316967 0.00038171167 -0.0047260075    1.4364227      404 
 5513000 0.00093981139 -0.0068263724    1.4918428 0.00039870262 -0.0068263724    1.4986692      413 
 5514000 0.00093464175 -0.002536305    1.4878891 0.00040052792 -0.002536305    1.4904255      413 
 5515000 0.00091149159 -0.0039070784     1.456675 0.00038805843 -0.0039070784    1.4605821      411 
 5516000 0.00090287916 -0.0024143814    1.4514418 0.00038874702 -0.0024143814    1.4538562      409 
 5517000 0.00092069646 -0.0040095158    1.4931793 0.0003919647 -0.0040095158    1.4971888      405 
 5518000 0.00090950045 -0.0019478453    1.4554436 0.00038855914 -0.0019478453    1.4573915      411 
 5519000 0.0008597142 -9.8668723e-07    1.4084547 0.00036858675 -9.8668723e-07    1.4084557      402 
 5520000 0.00090895257 -0.00039540524    1.4813548 0.0003893709 -0.00039540524    1.4817502      404 
 5521000 0.00086931052 -0.00098062901    1.4558113 0.00037915321 -0.00098062901    1.4567919      393 
 5522000 0.00085294061            0    1.4149576 0.00036571495            0    1.4149576      397 
 5523000 0.00087354612 -0.00040762011    1.4414689 0.00037418285 -0.00040762011    1.4418765      399 
 5524000 0.00084965942 -0.0031068249    1.3717757 0.00036219962 -0.0031068249    1.3748825      407 
 5525000 0.00090098166  -0.00421458    1.4501421 0.00038321058  -0.00421458    1.4543566      408 
 5526000 0.00090552292 -0.00079161879    1.4502262 0.00038759625 -0.00079161879    1.4510179      411 
 5527000 0.00087668074 -0.0012046677    1.4208967 0.00037478944 -0.0012046677    1.4221014      406 
 5528000 0.00088106966 -0.0028981415    1.4158394 0.00037610223 -0.0028981415    1.4187376      409 
 5529000 0.00091741712 -0.0022667997    1.4749991 0.00039157969 -0.0022667997    1.4772659      409 
 5530000 0.00093569774 -0.0036070707    1.4777419 0.00040087714 -0.0036070707     1.481349      416 
 5531000 0.00091653182 -0.0045159341    1.5045308 0.00039218562 -0.0045159341    1.5090467      400 
 5532000 0.00095935672 -0.0059209435     1.520221 0.00040791555 -0.0059209435    1.5261419      414 
 5533000 0.00094199355 -0.0010887856    1.5120515 0.0004096172 -0.0010887856    1.5131403      410 
 5534000 0.00090293204 -0.0057791589     1.469809 0.00038355383 -0.0057791589    1.4755881      403 
 5535000 0.00094191526 -0.0014912638    1.4825661 0.00040267226 -0.0014912638    1.4840573      418 
 5536000 0.00089861226 -0.0016329096    1.4383112 0.00038385441 -0.0016329096    1.4399442      411 
 5537000 0.00089266893 -0.0031908675    1.4412878 0.00038101643 -0.0031908675    1.4444787      407 
 5538000 0.0009442804 -0.0024163645    1.4677813 0.00040650736 -0.0024163645    1.4701977      423 
 5539000 0.00093690367 -0.0046874781    1.4785707 0.00040226447 -0.0046874781    1.4832581      416 
 5540000 0.00090328258 -0.0017512162    1.4456767 0.00038587557 -0.0017512162    1.4474279      411 
 5541000 0.00090149175 -0.0033970369     1.451783 0.00038451471 -0.0033970369      1.45518      408 
 5542000 0.00091379997 -0.0014822247    1.4844919 0.00039075416 -0.0014822247    1.4859741      405 
 5543000 0.00095920606 -0.0032826207    1.4901536 0.00041055135 -0.0032826207    1.4934362      423 
 5544000 0.00093787328 -0.0038607779    1.4881053 0.0004021236 -0.0038607779    1.4919661      414 
 5545000 0.00095886066 -0.002171291    1.5013907 0.00040938105 -0.002171291     1.503562      420 
 5546000 0.0008917906 -0.0012175369    1.4707734 0.00038137704 -0.0012175369    1.4719909      399 
 5547000 0.00089737471 -0.00062790015    1.4731926 0.00038415018 -0.00062790015    1.4738205      401 
 5548000 0.00088237366 -0.0030563473    1.4389349 0.00037709242 -0.0030563473    1.4419912      403 
 5549000 0.00088426896 -0.00056556076    1.4812937 0.00037867126 -0.00056556076    1.4818593      393 
 5550000 0.00087293796 -0.0024733002    1.4347972 0.00037250118 -0.0024733002    1.4372705      400 
 5551000 0.00086786393 -0.0067399288    1.4293568 0.00036868459 -0.0067399288    1.4360967      398 
 5552000 0.00083834912 -0.00096237752    1.4183907 0.00035872359 -0.00096237752    1.4193531      389 
 5553000 0.00082666402 -0.0028835852    1.4374144 0.00035238438 -0.0028835852     1.440298      378 
 5554000 0.00086298358 -0.0031925945    1.4541211 0.00036881501 -0.0031925945    1.4573137      390 
 5555000 0.00079105867 -0.0021972889    1.3616334 0.00034193821 -0.0021972889    1.3638307      382 
 5556000 0.00079660122  -0.00449187    1.3834277 0.00033896708  -0.00449187    1.3879196      378 
 5557000 0.00078606927 -0.0041837325    1.3987901 0.00033646449 -0.0041837325    1.4029739      369 
 5558000 0.00080868819 -0.0032521619    1.3983109 0.00034435285 -0.0032521619     1.401563      380 
 5559000 0.00079067063 -0.0021180258    1.4090683 0.00033747987 -0.0021180258    1.4111864      369 
 5560000 0.00080682094 -0.0019194395    1.3890863 0.00034444897 -0.0019194395    1.3910058      382 
 5561000 0.00078364471 -0.0020268213    1.3669402 0.00033448963 -0.0020268213     1.368967      377 
 5562000 0.00072441294 -0.0045937506    1.2918495 0.00030752128 -0.0045937506    1.2964433      368 
 5563000 0.00071582985 -0.0039194453     1.302004 0.00030490642 -0.0039194453    1.3059235      361 
 5564000 0.00077865293 -0.0015337544    1.3515349 0.00033268064 -0.0015337544    1.3530687      379 
 5565000 0.00075085068 -0.0033278655    1.3818339 0.0003205315 -0.0033278655    1.3851618      357 
 5566000 0.00078542018 -0.0057327845    1.3627061 0.00034021503 -0.0057327845    1.3684388      378 
 5567000 0.00080739946 -0.0023801878    1.4193984 0.00034471551 -0.0023801878    1.4217786      374 
 5568000 0.00080658647 -0.0014319486    1.3928194 0.00034478684 -0.0014319486    1.3942514      381 
 5569000 0.0008076032 -0.0046924655    1.4289447 0.00034375188 -0.0046924655    1.4336372      371 
 5570000 0.0007855117 -0.0035022043    1.3946874 0.00033673049 -0.0035022043    1.3981896      370 
 5571000 0.00084959635 -0.0066827642    1.4696646 0.00036544332 -0.0066827642    1.4763474      379 
 5572000 0.00078292267 -0.0023707965    1.4220078 0.00033407322 -0.0023707965    1.4243786      362 
 5573000 0.00082338163 -0.0016081729    1.4329709 0.0003517955 -0.0016081729    1.4345791      378 
 5574000 0.00081480468 -0.0076515132    1.4426788 0.00034563153 -0.0076515132    1.4503303      370 
 5575000 0.00080617451 -0.0019220636    1.4408455 0.00034439079 -0.0019220636    1.4427676      368 
 5576000 0.00076802845 -0.0078501408     1.425056 0.00033163065 -0.0078501408    1.4329061      353 
 5577000 0.00082710311 -0.0038046683    1.4764177 0.00036436104 -0.0038046683    1.4802224      368 
 5578000 0.00078153302 -0.010407353     1.411443 0.0003344687 -0.010407353    1.4218504      362 
 5579000 0.00077388339 -0.0048503885    1.3992043 0.00032918271 -0.0048503885    1.4040547      363 
 5580000 0.00084786699 -0.0063389365    1.4554326 0.00036421395 -0.0063389365    1.4617715      382 
 5581000 0.0008165128 -0.0052412339    1.4287512 0.00035078625 -0.0052412339    1.4339924      375 
 5582000 0.00079488654 -0.0029397873    1.4043299 0.00033899693 -0.0029397873    1.4072697      372 
 5583000 0.00081473247 -0.0025719367    1.3984063 0.0003477471 -0.0025719367    1.4009782      383 
 5584000 0.0008066214 -0.003102605    1.4135182 0.00034407012 -0.003102605    1.4166208      375 
 5585000 0.00081466147 -0.0096381605    1.4365287 0.00034368269 -0.0096381605    1.4461668      371 
 5586000 0.00077663415 -0.0012849455    1.3962109 0.00033183266 -0.0012849455    1.3974959      366 
 5587000 0.00082000984 -0.0014931172    1.4234417  0.000350502 -0.0014931172    1.4249348      379 
 5588000 0.00080260603 -0.0063289404    1.4339662 0.00034612608 -0.0063289404    1.4402951      367 
 5589000 0.00081192763 -0.0017894453    1.4317961 0.00034677389 -0.0017894453    1.4335856      373 
 5590000 0.0008034788 -0.0051368515    1.4250337 0.00035567547 -0.0051368515    1.4301706      370 
 5591000 0.00074929982 -0.004531999    1.3586762 0.0003191158 -0.004531999    1.3632082      362 
 5592000 0.0008043357 -0.0021322222    1.3882285 0.00034335916 -0.0021322222    1.3903608      381 
 5593000 0.00083859557 -0.00089933161    1.4411128 0.00035869142 -0.00089933161    1.4420122      383 
 5594000 0.00084011694 -0.0013405951    1.4432876 0.00035921271 -0.0013405951    1.4446282      383 
 5595000 0.00078548036 -2.86788e-05    1.4133853 0.00033670628 -2.86788e-05     1.413414      366 
 5596000 0.00079139993 -0.00010909551    1.3678911 0.00033921681 -0.00010909551    1.3680002      381 
 5597000 0.0007886502 -0.0013641244    1.3654704 0.00033717837 -0.0013641244    1.3668346      380 
 5598000 0.00083823848 -0.0038458353    1.4153199 0.00035693002 -0.0038458353    1.4191658      389 
 5599000 0.00083402678 -2.9073055e-05    1.4229805 0.00035755186 -2.9073055e-05    1.4230096      386 
 5600000 0.00082483625 -0.004924299    1.3951502 0.0003543092 -0.004924299    1.4000745      388 
 5601000 0.00084382211 -0.00025407231     1.432047 0.00036142706 -0.00025407231     1.432301      388 
 5602000 0.00081873818 -0.0022548589    1.4019451 0.00034986393 -0.0022548589    1.4041999      384 
 5603000 0.0008093461 -0.00049542127    1.4059089 0.00034647436 -0.00049542127    1.4064043      379 
 5604000 0.00084390111 -0.0011341462    1.4462222 0.0003609876 -0.0011341462    1.4473563      384 
 5605000 0.00084175367 -0.0015551238     1.423562 0.00035966097 -0.0015551238    1.4251171      389 
 5606000 0.00083377118 -0.00032007824    1.4409223 0.0003571688 -0.00032007824    1.4412424      381 
 5607000 0.00087800167 -0.0033543363    1.4831318 0.0003744192 -0.0033543363    1.4864862      389 
 5608000 0.00086982005 -0.0011907367     1.463911 0.00037200834 -0.0011907367    1.4651018      391 
 5609000 0.00082217354 -0.0041490606    1.4514296 0.00035241288 -0.0041490606    1.4555787      372 
 5610000 0.00080452825 -5.2085051e-05    1.4397693 0.0003448567 -5.2085051e-05    1.4398214      368 
 5611000 0.00084838637 -0.0039370815    1.4664281  0.000364621 -0.0039370815    1.4703652      380 
 5612000 0.00085112739 -0.0060994362    1.4574619 0.00036210556 -0.0060994362    1.4635613      383 
 5613000 0.00085251684 -0.0027255297     1.440614 0.00037805956 -0.0027255297    1.4433395      389 
 5614000 0.0008633369 -0.0096075733    1.4710827 0.0003666036 -0.0096075733    1.4806902      384 
 5615000 0.00083735479 -0.0094732457    1.4456019 0.00035855548 -0.0094732457    1.4550752      379 
 5616000 0.00077013497 -0.0034935783    1.3823075 0.00033276376 -0.0034935783    1.3858011      366 
 5617000 0.00081797717 -0.0060012059    1.4191617 0.00034904738 -0.0060012059    1.4251629      378 
 5618000 0.00080307257 -0.0076771935    1.4614771 0.00034655026 -0.0076771935    1.4691543      360 
 5619000 0.00080962947 -0.0029863887    1.4499125 0.00034608761 -0.0029863887    1.4528988      367 
 5620000 0.00085550567 -0.0042433562    1.5062861 0.0003637736 -0.0042433562    1.5105294      373 
 5621000 0.0007906624 -0.0024576349    1.4399866 0.00034062069 -0.0024576349    1.4424442      361 
 5622000 0.00083489377 -0.0067485627    1.4713501 0.00035521828 -0.0067485627    1.4780986      372 
 5623000 0.0008556603 -0.0027675604    1.4880507 0.00036507892 -0.0027675604    1.4908183      378 
 5624000 0.00083588159 -0.0019162266    1.5230235 0.0003570384 -0.0019162266    1.5249398      361 
 5625000 0.00082726015 -0.0040268648    1.4805106 0.00035264359 -0.0040268648    1.4845375      367 
 5626000 0.00078349034 -0.0069984425     1.475757 0.00033338034 -0.0069984425    1.4827555      348 
 5627000 0.00084961112 -0.0057968318    1.5024118 0.00036400997 -0.0057968318    1.5082086      371 
 5628000 0.00082646531 -0.002439222    1.4490322 0.00035595129 -0.002439222    1.4514714      375 
 5629000 0.0008548239 -0.003145886    1.4667718 0.00036497562 -0.003145886    1.4699177      383 
 5630000 0.00082932234 -0.004022869    1.4524662 0.00035677212 -0.004022869    1.4564891      375 
 5631000 0.00076274102 -0.0048781226    1.3827838 0.00032422134 -0.0048781226    1.3876619      362 
 5632000 0.00082903368 -0.0084546357    1.4553344 0.00035430154 -0.0084546357     1.463789      373 
 5633000 0.00081040444 -0.0077397209    1.4545185 0.0003445848 -0.0077397209    1.4622582      365 
 5634000 0.00080694006 -0.0026897046    1.4653839 0.00034446861 -0.0026897046    1.4680736      362 
 5635000 0.00078307991 -0.00018341846    1.4484924 0.0003356048 -0.00018341846    1.4486758      356 
 5636000 0.00075981992 -0.00031392365    1.4132731 0.00032544814 -0.00031392365     1.413587      354 
 5637000 0.00080911898 -0.0019254696    1.4540244 0.00034591595 -0.0019254696    1.4559499      366 
 5638000 0.00078966042 -0.0040218461    1.4365944 0.00033608053 -0.0040218461    1.4406162      361 
 5639000 0.00078852212 -0.00041211702    1.4461416 0.00033771883 -0.00041211702    1.4465537      359 
 5640000 0.00074698646 -0.001114165    1.3846825 0.00031940758 -0.001114165    1.3857967      355 
 5641000 0.0007902012 -0.0012894821    1.4403133 0.00033782028 -0.0012894821    1.4416028      361 
 5642000 0.00077817821            0    1.4396078 0.00033365911            0    1.4396078      356 
 5643000 0.00079633197 -0.0037031536    1.4612585 0.0003388982 -0.0037031536    1.4649617      358 
 5644000 0.00079848378 -0.00095423616    1.4803794 0.00034802178 -0.00095423616    1.4813336      355 
 5645000 0.00083021806 -0.00036876674     1.518446 0.00035555914 -0.00036876674    1.5188148      360 
 5646000 0.00084965027 -0.0010431611    1.5195307  0.000363588 -0.0010431611    1.5205738      368 
 5647000 0.00082387883 -0.0027341127    1.5044835 0.00035151949 -0.0027341127    1.5072177      360 
 5648000 0.00086565857 -0.0018248992    1.5951333 0.00036968305 -0.0018248992    1.5969582      357 
 5649000 0.00087003324 -0.002770581    1.5585242 0.00037257283 -0.002770581    1.5612948      367 
 5650000 0.00080572579 -0.0031682632    1.4708399 0.00034517314 -0.0031682632    1.4740082      360 
 5651000 0.00084294594 -0.0013891365    1.5195856 0.00036036724 -0.0013891365    1.5209747      365 
 5652000 0.00086042021 -0.00022517971    1.5608331 0.00036873539 -0.00022517971    1.5610583      363 
 5653000 0.00087553636 -0.0016298236    1.6045526 0.00037422809 -0.0016298236    1.6061824      359 
 5654000 0.00086221009 -0.00030116287    1.6083191 0.00036942323 -0.00030116287    1.6086202      353 
 5655000 0.00087579528 -0.00015997505    1.5931826 0.00037530756 -0.00015997505    1.5933426      362 
 5656000 0.00088674904 -0.00016474672    1.5613434 0.00037999706 -0.00016474672    1.5615082      374 
 5657000 0.00090120554 -0.00068957702    1.6034319 0.00038583898 -0.00068957702    1.6041215      370 
 5658000 0.00090318083 -0.0030245611    1.6266353 0.00038585826 -0.0030245611    1.6296599      365 
 5659000 0.00089990367 -8.5482414e-05    1.5845871 0.00038569438 -8.5482414e-05    1.5846726      374 
 5660000 0.00092255522 -0.0057817968    1.5931278 0.00039361221 -0.0057817968    1.5989096      380 
 5661000 0.00090254505 -0.00016265719    1.5891613 0.00038680398 -0.00016265719    1.5893239      374 
 5662000 0.00087558254 -0.00043805268    1.5665454 0.00037502094 -0.00043805268    1.5669834      368 
 5663000 0.00088966763 -0.0062557544    1.5816201 0.00037788531 -0.0062557544    1.5878759      369 
 5664000 0.00091058081 -0.00097381669    1.6330845 0.00038967453 -0.00097381669    1.6340583      367 
 5665000 0.00086289039 -0.0025714797    1.5804118 0.0003684441 -0.0025714797    1.5829832      359 
 5666000 0.00091583087 -0.0028092189    1.6056096 0.00039222022 -0.0028092189    1.6084188      375 
 5667000 0.00087785183 -0.0050858716    1.5659588 0.00037404461 -0.0050858716    1.5710447      368 
 5668000 0.00090152604 -0.0035081192    1.6055326 0.00038548464 -0.0035081192    1.6090407      369 
 5669000 0.00082456736 -0.0030814315     1.522345 0.00035190041 -0.0030814315    1.5254264      356 
 5670000 0.00086538542 -0.0023639566    1.5807866 0.00036930739 -0.0023639566    1.5831505      360 
 5671000 0.00087605043 -0.0032635447    1.5435409 0.00037489122 -0.0032635447    1.5468044      373 
 5672000 0.00088620397 -0.0016770469    1.5757421 0.00037873243 -0.0016770469    1.5774191      370 
 5673000 0.00085361991 -0.001222686    1.5390117 0.00036507553 -0.001222686    1.5402343      365 
 5674000 0.00091165478 -0.00074196818    1.6003426 0.00039025893 -0.00074196818    1.6010846      375 
 5675000 0.00094302553 -0.0015297434    1.6502447 0.00041362143 -0.0015297434    1.6517744      376 
 5676000 0.00091581086 -0.0045342936    1.5702539 0.00039015735 -0.0045342936    1.5747882      383 
 5677000 0.00087877015 -0.00011276957    1.5598582 0.00037658218 -0.00011276957     1.559971      371 
 5678000 0.00088923738 -0.0015939545    1.5559668 0.00037990625 -0.0015939545    1.5575608      376 
 5679000 0.00091488189 -0.0030817572    1.6297965 0.00039361886 -0.0030817572    1.6328782      369 
 5680000 0.00093928348 -0.0021581436    1.6087864 0.00040827625 -0.0021581436    1.6109445      384 
 5681000 0.00087182315 -0.0038868253    1.5110842 0.00037384956 -0.0038868253     1.514971      379 
 5682000 0.00086122277 -0.0020536876    1.5604607 0.00036793151 -0.0020536876    1.5625143      363 
 5683000 0.00087426269 -3.5863184e-05    1.5151764 0.00037476738 -3.5863184e-05    1.5152123      380 
 5684000 0.00085625806 -0.0051372941    1.5231093 0.00036399136 -0.0051372941    1.5282466      369 
 5685000 0.00088342575 -0.0080511017    1.5352257 0.00037675116 -0.0080511017    1.5432768      377 
 5686000 0.00087970124 -0.0067715349    1.5299989 0.00037342502 -0.0067715349    1.5367704      377 
 5687000 0.00087646878  -0.00147115    1.5670984 0.00037482141  -0.00147115    1.5685695      368 
 5688000  0.000878068 -0.0016819312    1.5570426 0.00037516987 -0.0016819312    1.5587245      371 
 5689000  0.000876061 -0.0057093778    1.4968037 0.00037256561 -0.0057093778    1.5025131      384 
 5690000 0.00083802157 -0.0029795103    1.4494221 0.00035817722 -0.0029795103    1.4524016      380 
 5691000 0.00086450031 -0.0054894592    1.4928033 0.0003699731 -0.0054894592    1.4982928      380 
 5692000 0.00081903035 -0.004701412    1.4571013 0.0003515033 -0.004701412    1.4618027      369 
 5693000 0.00080201751 -0.0016762719    1.4031129 0.00034278234 -0.0016762719    1.4047891      376 
 5694000 0.00079366666 -0.0033991796    1.4017108 0.0003407255 -0.0033991796      1.40511      372 
 5695000 0.00082212699 -0.0027644743    1.3714604 0.00035088468 -0.0027644743    1.3742249      394 
 5696000 0.00080831456 -0.0021004994    1.4484387 0.00034529899 -0.0021004994    1.4505392      367 
 5697000 0.00082237366 -0.0040246688    1.4597782 0.00035167167 -0.0040246688    1.4638029      370 
 5698000 0.00080947851 -0.0025590335    1.4620411 0.00034576504 -0.0025590335    1.4646001      364 
 5699000 0.00082185011 -0.0039233904    1.4871572 0.00035126909 -0.0039233904    1.4910806      363 
 5700000 0.0008011692 -0.0038742697     1.461798 0.00034160108 -0.0038742697    1.4656723      360 
 5701000 0.00078615738 -0.0013590683    1.4289044 0.00033613904 -0.0013590683    1.4302635      362 
 5702000 0.0007683085 -0.004870109    1.3738773 0.00032820509 -0.004870109    1.3787474      367 
 5703000 0.00078908606 -0.0014226144    1.4146106 0.00033739744 -0.0014226144    1.4160332      367 
 5704000 0.00078449801 -0.0031975641    1.4084487 0.00033408552 -0.0031975641    1.4116463      366 
 5705000 0.00075619173 -0.0029967553    1.3842464 0.00032718894 -0.0029967553    1.3872432      359 
 5706000 0.00074668477 -0.0035720127    1.3586416 0.00031854877 -0.0035720127    1.3622136      361 
 5707000 0.00076780809 -0.0057843337    1.3758297 0.00032661343 -0.0057843337     1.381614      366 
 5708000 0.00079869619 -0.0064371409    1.3962651 0.00034005732 -0.0064371409    1.4027022      375 
 5709000 0.00078801709 -0.0024248786    1.3705386 0.00033624942 -0.0024248786    1.3729634      378 
 5710000 0.00082894529  -0.01021044    1.4302515 0.00035454069  -0.01021044    1.4404619      379 
 5711000 0.00080000133 -0.0059379619    1.3733104 0.00034372928 -0.0059379619    1.3792484      382 
 5712000 0.00078593012 -0.003373469    1.3843094 0.00033496138 -0.003373469    1.3876829      373 
 5713000 0.00077870051 -0.0058793236    1.3915168 0.00033159421 -0.0058793236    1.3973961      367 
 5714000 0.0007885311 -0.0064589168    1.4047332 0.00033596501 -0.0064589168    1.4111921      368 
 5715000 0.00079435092 -0.0063321874    1.4468666 0.00033942485 -0.0063321874    1.4531988      360 
 5716000 0.00077011141 -0.0063405919    1.3870321 0.00032807485 -0.0063405919    1.3933727      364 
 5717000 0.00082449337 -0.0079232427    1.4439567 0.00035440952 -0.0079232427    1.4518799      374 
 5718000 0.00080628852 -0.004410867    1.4544176 0.00034303483 -0.004410867    1.4588284      364 
 5719000 0.00081794492 -0.0067469248     1.469117 0.00035119533 -0.0067469248     1.475864      365 
 5720000 0.0007855491 -0.007420194    1.4217367 0.00034215116 -0.007420194    1.4291569      362 
 5721000 0.00078608322 -0.0066140454    1.4599767 0.00033435151 -0.0066140454    1.4665908      353 
 5722000 0.0007978466 -0.0048974295    1.4386569 0.00033888769 -0.0048974295    1.4435544      364 
 5723000 0.00074510417 -0.014307337    1.4039532 0.00031384329 -0.014307337    1.4182606      346 
 5724000 0.00077609673 -0.0072090998    1.4245263 0.00032872665 -0.0072090998    1.4317354      357 
 5725000 0.00074931864 -0.0054528523    1.3807656 0.00032065336 -0.0054528523    1.3862184      356 
 5726000 0.00072404519 -0.0061651019    1.3963317 0.00030776427 -0.0061651019    1.4024968      340 
 5727000 0.0007425732 -0.011027756     1.394292 0.00032085173 -0.011027756    1.4053198      348 
 5728000 0.00075802368 -0.0083244734    1.4221248 0.0003213965 -0.0083244734    1.4304493      349 
 5729000 0.00072829054 -0.0063322763    1.3920493 0.00031331619 -0.0063322763    1.3983815      343 
 5730000 0.00075112504 -0.0078442526    1.4343815 0.00031898898 -0.0078442526    1.4422258      343 
 5731000 0.00069360161 -0.013093344    1.3186824 0.0002957759 -0.013093344    1.3317758      343 
 5732000 0.00068808405 -0.008659509     1.377167 0.00029522137 -0.008659509    1.3858265      327 
 5733000 0.00072253471 -0.0046762277    1.3786207 0.00030934312 -0.0046762277    1.3832969      344 
 5734000 0.00074245535 -0.0039748371    1.4051712 0.00031609441 -0.0039748371     1.409146      347 
 5735000 0.00073624024 -0.0092757328    1.3721501 0.00031663474 -0.0092757328    1.3814258      351 
 5736000 0.00069039789 -0.0052286224    1.3602042 0.00029355066 -0.0052286224    1.3654329      333 
 5737000 0.00075731288 -0.0066414752    1.4183833 0.00032380681 -0.0066414752    1.4250248      350 
 5738000 0.00069359684 -0.0056008469    1.3744473 0.00029981526 -0.0056008469    1.3800482      331 
 5739000 0.00071364307 -0.0080469917    1.4076102 0.00030497384 -0.0080469917    1.4156572      332 
 5740000 0.00072501209 -0.0059072452    1.3661781 0.00030834592 -0.0059072452    1.3720854      348 
 5741000 0.00068031818 -0.0054506214    1.3647352 0.00029062456 -0.0054506214    1.3701858      327 
 5742000 0.00069377448 -0.0024055035    1.3375151 0.00029607697 -0.0024055035    1.3399206      341 
 5743000 0.00072930998 -0.0017366818    1.3589326 0.00031155567 -0.0017366818    1.3606693      353 
 5744000 0.00073184434 -0.0050766271    1.3720244 0.00031301817 -0.0050766271     1.377101      350 
 5745000 0.00069923722 -0.0028013923     1.320505 0.00029803842 -0.0028013923    1.3233064      348 
 5746000 0.00070725434 -0.0013496094    1.3371292 0.00030229597 -0.0013496094    1.3384788      348 
 5747000 0.00073424067 -0.0047640147    1.3384681 0.00031191178 -0.0047640147    1.3432321      360 
 5748000  0.000725389 -0.0052255449    1.3558398 0.00030812461 -0.0052255449    1.3610654      351 
 5749000 0.00072776325 -0.0032488796    1.3098952 0.00031361138 -0.0032488796    1.3131441      365 
 5750000 0.00073551064 -0.0063306934    1.3354974 0.00031603204 -0.0063306934    1.3418281      361 
 5751000 0.00072703603 -0.0034744351    1.3265774 0.00030967299 -0.0034744351    1.3300518      360 
 5752000 0.00074667452 -0.0043150451     1.346653 0.00031820314 -0.0043150451    1.3509681      364 
 5753000 0.00073813099 -0.0029911031    1.3436174 0.0003146511 -0.0029911031    1.3466085      361 
 5754000 0.00072065091 -0.0031494233    1.3528891 0.00030687521 -0.0031494233    1.3560385      350 
 5755000 0.00072362937 -0.0046593405    1.3608853 0.00031350145 -0.0046593405    1.3655446      349 
 5756000 0.00070113031 -0.0065551881    1.3515548 0.00029887912 -0.0065551881      1.35811      340 
 5757000 0.0006667514 -0.0018297098    1.3089637 0.00028487327 -0.0018297098    1.3107934      335 
 5758000 0.0006703435 -0.0050705823    1.3049636 0.00028524767 -0.0050705823    1.3100342      337 
 5759000 0.00068585769 -0.0037097634    1.3568294 0.00029237759 -0.0037097634    1.3605392      332 
 5760000 0.00072756189 -0.0065211714    1.3986547 0.00031142373 -0.0065211714    1.4051759      341 
 5761000 0.00067752341 -0.0021458809    1.3418606 0.0002936838 -0.0021458809    1.3440064      332 
 5762000 0.00074262254 -0.002771016    1.4107659 0.00031789469 -0.002771016    1.4135369      346 
 5763000 0.00074708103 -0.0047302257    1.3812419 0.00031852093 -0.0047302257    1.3859721      355 
 5764000 0.00073129654 -0.0017174026    1.3782957 0.00031263729 -0.0017174026    1.3800131      349 
 5765000  0.000712849 -0.0035515133    1.3416497 0.00030357524 -0.0035515133    1.3452012      349 
 5766000 0.00075131074 -0.0019059954     1.391913 0.00032101256 -0.0019059954     1.393819      355 
 5767000 0.00080683255 -0.0060848725    1.4457508 0.00034702653 -0.0060848725    1.4518356      366 
 5768000 0.00076473858 -0.0069493643    1.3959731 0.00032559215 -0.0069493643    1.4029225      359 
 5769000 0.00077125078 -0.0054353128    1.4294179 0.00033289051 -0.0054353128    1.4348533      354 
 5770000 0.00075057109 -0.0027480136    1.3857874 0.00032246056 -0.0027480136    1.3885354      356 
 5771000 0.00074993637 -0.0053770799     1.378098 0.00032252208 -0.0053770799     1.383475      357 
 5772000 0.00077296783 -0.0090192465    1.3705712 0.00033060774 -0.0090192465    1.3795905      369 
 5773000 0.00073336769 -0.0056085106     1.378313 0.00031101752 -0.0056085106    1.3839216      349 
 5774000 0.00073571352 -0.0016900336    1.3748258 0.00031444519 -0.0016900336    1.3765158      352 
 5775000 0.00075579328 -0.0021789975    1.4322818 0.00032282629 -0.0021789975    1.4344608      347 
 5776000 0.00080404312 -0.012546361    1.4543089 0.00034400017 -0.012546361    1.4668553      361 
 5777000 0.00074026793 -0.0053538085    1.3679787 0.00031906155 -0.0053538085    1.3733326      355 
 5778000 0.00074580543 -0.006504164    1.3732149 0.00032313615 -0.006504164    1.3797191      356 
 5779000 0.00070136195 -0.00012744287    1.3272001 0.00030054197 -0.00012744287    1.3273275      348 
 5780000 0.00071853804 -9.7116556e-05     1.340475 0.00030792584 -9.7116556e-05    1.3405721      353 
 5781000 0.00068692743            0    1.3113146 0.00029453355            0    1.3113146      345 
 5782000 0.00071287454 -0.00049289178    1.3370913 0.00030520223 -0.00049289178    1.3375842      351 
 5783000 0.00074379103  -0.00320404    1.3844825 0.00031680046  -0.00320404    1.3876865      353 
 5784000 0.00075268872 -0.0017606187    1.4350894 0.00032177029 -0.0017606187      1.43685      345 
 5785000 0.00075664881 -0.00091812081    1.4310398 0.00032375321 -0.00091812081    1.4319579      348 
 5786000 0.00074554655 -0.0033685586    1.4075783 0.00031892553 -0.0033685586    1.4109468      348 
 5787000 0.00070142846 -0.0063432252    1.3211101 0.00029864127 -0.0063432252    1.3274534      348 
 5788000 0.00073300762 -0.0014118994    1.3432998 0.00031967698 -0.0014118994    1.3447117      359 
 5789000 0.00074392206 -0.0010209995    1.3675255 0.00032486383 -0.0010209995    1.3685465      358 
 5790000 0.00074754849 -0.0051697001    1.4014816 0.00031879485 -0.0051697001    1.4066513      350 
 5791000 0.00071451737 -0.0032064806    1.3451431 0.00031330934 -0.0032064806    1.3483496      349 
 5792000 0.00071659835            0    1.3522765 0.00030725554            0    1.3522765      349 
 5793000 0.00072057966 -0.0015525189    1.3277656 0.00030779011 -0.0015525189    1.3293181      357 
 5794000 0.00072482489 -0.0036573235    1.3486442 0.00030846024 -0.0036573235    1.3523015      353 
 5795000 0.00074960251 -0.0061160993    1.3728803 0.00032126031 -0.0061160993    1.3789964      358 
 5796000 0.00077011367 -0.0081049274    1.3626766 0.00033019422 -0.0081049274    1.3707815      370 
 5797000 0.00072341872 -3.9414211e-05    1.3612073 0.00031012154 -3.9414211e-05    1.3612467      350 
 5798000 0.00071186949 -0.0020075204    1.3529929 0.00030386353 -0.0020075204    1.3550004      346 
 5799000 0.00072468462 -0.0034723049    1.3485675 0.00030964679 -0.0034723049    1.3520398      353 
 5800000 0.00073167265 -0.0022968477    1.4108184 0.00031783804 -0.0022968477    1.4131152      341 
 5801000 0.00069434537 -0.0020816249    1.3428858 0.00029622331 -0.0020816249    1.3449674      340 
 5802000 0.00072235302 -0.00078118119    1.3623548 0.00030905211 -0.00078118119     1.363136      349 
 5803000 0.00073565744 -0.0030965157     1.335292 0.00031590178 -0.0030965157    1.3383885      362 
 5804000 0.00071759773 -0.00097828818     1.341643 0.00031359858 -0.00097828818    1.3426213      352 
 5805000 0.00072710013 -0.0010842238    1.3327901 0.00031086446 -0.0010842238    1.3338743      359 
 5806000 0.00067579645 -0.00080013999    1.2855374 0.00028919431 -0.00080013999    1.2863375      346 
 5807000 0.00073311155 -0.0023783283    1.3810599 0.00031297236 -0.0023783283    1.3834382      349 
 5808000 0.00073572166 -0.0012755441    1.3674785 0.00031449804 -0.0012755441     1.368754      354 
 5809000 0.00073598132 -0.002024961    1.3988708 0.00031436485 -0.002024961    1.4008958      346 
 5810000 0.00074281045 -0.0021619321    1.3758875 0.00031752272 -0.0021619321    1.3780494      355 
 5811000 0.00073186492 -0.00012891803    1.3576145 0.00031361812 -0.00012891803    1.3577434      355 
 5812000 0.00076061802 -0.0035578833    1.4075278 0.00032378707 -0.0035578833    1.4110857      355 
 5813000 0.0007155039 -0.0027177647    1.3436357 0.00030549859 -0.0027177647    1.3463535      350 
 5814000 0.00072683886 -0.001673814    1.3738687 0.00031043692 -0.001673814    1.3755426      348 
 5815000 0.0006888844 -0.0017334806    1.2908374 0.00029412667 -0.0017334806    1.2925709      351 
 5816000 0.00071079094 -0.0021871998    1.3586262 0.00030344825 -0.0021871998    1.3608134      344 
 5817000 0.00070489392 -0.0048978483    1.3177121 0.00030179828 -0.0048978483    1.3226099      351 
 5818000 0.00073270059 -0.009688554    1.3849626 0.0003100961 -0.009688554    1.3946511      346 
 5819000 0.0007557157 -0.0027162462    1.4568345 0.00032298189 -0.0027162462    1.4595507      341 
 5820000 0.00077064788 -0.0030617533     1.442924 0.0003289936 -0.0030617533    1.4459857      351 
 5821000 0.00072642436 -0.0010582777    1.4313244 0.0003105864 -0.0010582777    1.4323827      334 
 5822000 0.00073200991 -0.0034455441     1.448646 0.00031205457 -0.0034455441    1.4520916      332 
 5823000 0.00077335753 -0.0047973753    1.4844586 0.00033196022 -0.0047973753     1.489256      342 
 5824000 0.00074768748 -7.621131e-05    1.4231015 0.00032043945 -7.621131e-05    1.4231777      346 
 5825000 0.00073080757 -0.0014894638    1.3619739 0.00031214716 -0.0014894638    1.3634633      353 
 5826000 0.00068588211 -0.0021969918    1.3543048 0.0002926745 -0.0021969918    1.3565018      333 
 5827000 0.00069683684 -0.00079018336    1.3773773 0.00029813235 -0.00079018336    1.3781675      333 
 5828000 0.00070682349 -0.00092512224    1.3641977 0.00030235241 -0.00092512224    1.3651228      341 
 5829000 0.00068776047 -0.002599204    1.3103056 0.00029350135 -0.002599204    1.3129048      345 
 5830000 0.0006823036 -0.0066235264     1.284636 0.00029528498 -0.0066235264    1.2912596      348 
 5831000 0.00069304321 -0.00088766784    1.3032018 0.00029641863 -0.00088766784    1.3040895      350 
 5832000 0.00070736295 -0.00083682634     1.315158 0.00030268969 -0.00083682634    1.3159948      354 
 5833000 0.00071851927 -0.0002185498    1.3365317 0.00030786803 -0.0002185498    1.3367503      354 
 5834000 0.00070003355 -0.0019871363    1.3382312 0.00029871126 -0.0019871363    1.3402183      344 
 5835000 0.0007545674 -0.0063303528    1.4094832 0.00032143187 -0.0063303528    1.4158135      351 
 5836000 0.00070838517 -0.0075029259    1.3566356 0.00030128532 -0.0075029259    1.3641386      342 
 5837000 0.00068894667 -0.0047214919    1.3578412 0.00029439924 -0.0047214919    1.3625627      333 
 5838000 0.00073415715 -0.0035592803    1.4019889 0.0003131518 -0.0035592803    1.4055481      344 
 5839000 0.0007597771 -0.0019966382    1.4358815 0.00032432753 -0.0019966382    1.4378782      348 
 5840000 0.00074616255 -0.00043023508    1.3799495 0.00031961611 -0.00043023508    1.3803798      356 
 5841000 0.00069977926 -0.0065814513     1.381574 0.00029976634 -0.0065814513    1.3881555      332 
 5842000 0.00070297481 -0.0032165776    1.3829277 0.0003021638 -0.0032165776    1.3861443      334 
 5843000 0.00075933643 -0.0033116212    1.4133778 0.00032590459 -0.0033116212    1.4166895      353 
 5844000 0.00077067415 -0.0060368855    1.4608946 0.00033155456 -0.0060368855    1.4669315      346 
 5845000 0.00075515722 -0.0044280367    1.3965269 0.00032232801 -0.0044280367    1.4009549      355 
 5846000 0.00074167148 -0.0042384185    1.4156959 0.00031650823 -0.0042384185    1.4199344      344 
 5847000 0.00077190862 -0.0046972898     1.423312 0.00032873607 -0.0046972898    1.4280093      356 
 5848000 0.00079270649 -0.0054741968    1.4447163 0.00033720566 -0.0054741968    1.4501905      360 
 5849000 0.00075128633 -0.0028806648    1.3948303 0.00032118141 -0.0028806648    1.3977109      354 
 5850000 0.00070970675 -0.0031775476    1.3438131 0.00030338652 -0.0031775476    1.3469907      347 
 5851000 0.00077824522 -0.0040573912    1.4276312 0.00033235206 -0.0040573912    1.4316886      358 
 5852000 0.0007952248 -0.0060962675    1.4446713 0.00033980861 -0.0060962675    1.4507676      361 
 5853000 0.00077059715 -0.0051726203    1.4124463 0.00032976526 -0.0051726203    1.4176189      358 
 5854000 0.00079983827 -0.0028712077    1.4644421 0.00034377063 -0.0028712077    1.4673133      359 
 5855000 0.00080891492 -0.0054641013    1.4621482 0.0003465871 -0.0054641013    1.4676123      363 
 5856000 0.00078768794 -0.0060282294    1.4470905 0.00033651463 -0.0060282294    1.4531188      357 
 5857000 0.00081998306 -0.0031514859      1.47639 0.00035054501 -0.0031514859    1.4795415      365 
 5858000 0.00078113909 -0.0069443082     1.462914 0.00033375041 -0.0069443082    1.4698583      350 
 5859000 0.00080850677 -0.0054617067    1.4736341 0.00034416548 -0.0054617067    1.4790958      360 
 5860000 0.00085111236 -0.006553065    1.5333757 0.00036209684 -0.006553065    1.5399288      364 
 5861000 0.00080393163 -0.005314353    1.4492497 0.0003434816 -0.005314353    1.4545641      364 
 5862000 0.00082553421 -0.00012895284    1.5017732 0.00035374699 -0.00012895284    1.5019021      362 
 5863000 0.00085026094 -0.00027441304    1.5297074 0.00036434503 -0.00027441304    1.5299818      366 
 5864000 0.00084180007 -0.00087045384    1.5348667 0.00036009606 -0.00087045384    1.5357371      361 
 5865000 0.00089994248 -0.0018668432    1.6131008 0.0003846525 -0.0018668432    1.6149676      367 
 5866000 0.00085667969 -0.0021470356    1.5607357 0.00036606422 -0.0021470356    1.5628828      361 
 5867000 0.0008409928 -0.00041458121    1.5866039 0.00036019361 -0.00041458121    1.5870185      349 
 5868000 0.0008151718 -5.4712031e-06    1.5743758 0.00034948548 -5.4712031e-06    1.5743812      341 
 5869000 0.00082142176 -0.0015109325    1.5943007 0.00035102792 -0.0015109325    1.5958117      339 
 5870000 0.00081976662 -0.0001580239     1.560218 0.00035135485 -0.0001580239     1.560376      346 
 5871000 0.00082643624 -0.003258771    1.5562904 0.00035251315 -0.003258771    1.5595491      349 
 5872000 0.00082057839            0    1.5988897 0.00035183901            0    1.5988897      338 
 5873000 0.00083364309 -0.0007410893    1.5545819 0.00035672114 -0.0007410893     1.555323      353 
 5874000 0.00081074769 -0.0017017282    1.5152026 0.00034661664 -0.0017017282    1.5169043      352 
 5875000 0.00080900197 -0.00015387777    1.4359664 0.00034663844 -0.00015387777    1.4361202      371 
 5876000 0.0008300696 -0.00037172681    1.5181714 0.00035559214 -0.00037172681    1.5185432      360 
 5877000 0.00084867922 -0.0016649584    1.5213096 0.00036292191 -0.0016649584    1.5229745      367 
 5878000 0.00080520497 -0.0038119324    1.4570695 0.0003436242 -0.0038119324    1.4608814      363 
 5879000 0.00081986251 -0.0030517411    1.5352766 0.0003498668 -0.0030517411    1.5383284      351 
 5880000 0.00083835074 -0.00098451935    1.5158545 0.00035874494 -0.00098451935    1.5168391      364 
 5881000 0.00084312304 -0.0027868172    1.5791858 0.00036358956 -0.0027868172    1.5819727      351 
 5882000 0.00082922525 -2.6728984e-06    1.5470779 0.00035551296 -2.6728984e-06    1.5470806      353 
 5883000 0.00083516845 -0.0006444074    1.5531228 0.00035757325 -0.0006444074    1.5537672      354 
 5884000 0.00083981615 -0.00048093044    1.5934514 0.00035964268 -0.00048093044    1.5939323      347 
 5885000 0.00081229304 -0.00036713426    1.5368974 0.00034791514 -0.00036713426    1.5372646      348 
 5886000 0.0008299042 -0.0015543128    1.5337451 0.00035480304 -0.0015543128    1.5352995      356 
 5887000 0.00084309638 -0.0005776471    1.5504135 0.00036108574 -0.0005776471    1.5509912      358 
 5888000 0.00081222881 -0.0012224847     1.497169 0.00034734531 -0.0012224847    1.4983915      357 
 5889000 0.00076860936 -0.0037445104    1.4592568 0.00032775789 -0.0037445104    1.4630013      346 
 5890000 0.00073567363 -0.00077750184    1.4412085 0.00031485869 -0.00077750184     1.441986      336 
 5891000 0.00072209445 -0.0013332618    1.3932831 0.0003086566 -0.0013332618    1.3946164      341 
 5892000 0.00074278369 -0.0017966592    1.3919068 0.00031718563 -0.0017966592    1.3937035      351 
 5893000 0.00073779081 -0.0045845275    1.4079203 0.00031552301 -0.0045845275    1.4125048      344 
 5894000 0.00073226388 -0.00015006226     1.414107 0.00031374705 -0.00015006226    1.4142571      341 
 5895000 0.00076897915 -0.003510547    1.4559764 0.00032897675 -0.003510547     1.459487      347 
 5896000 0.0007726166 -0.00050707657    1.4368872 0.00033084036 -0.00050707657    1.4373943      354 
 5897000 0.00074873069 -0.0020656319    1.4355628 0.00031966776 -0.0020656319    1.4376284      343 
 5898000 0.00072968359 -0.0060095198    1.3788963 0.00031619933 -0.0060095198    1.3849058      347 
 5899000 0.0007569256 -0.0036779933    1.4454605 0.00032217001 -0.0036779933    1.4491385      344 
 5900000 0.00076702274 -0.0021848154    1.4494057 0.00033182025 -0.0021848154    1.4515905      348 
 5901000 0.0007116487 -0.0031161777    1.3633116 0.00030447977 -0.0031161777    1.3664277      343 
 5902000 0.00073266596 -0.0039164983    1.4111172 0.00031507234 -0.0039164983    1.4150337      341 
 5903000 0.00081474172 -0.0025625253    1.4920914 0.00034808385 -0.0025625253    1.4946539      359 
 5904000 0.00074224021 -0.00057954721    1.4456689 0.00031771843 -0.00057954721    1.4462485      338 
 5905000 0.00078888672 -0.0017812457    1.5129503 0.00034227569 -0.0017812457    1.5147315      343 
 5906000 0.00078019733 -0.0013312558    1.4501664 0.00033353937 -0.0013312558    1.4514976      354 
 5907000 0.00082737319 -1.9022122e-05    1.5305981 0.00035470758 -1.9022122e-05    1.5306172      356 
 5908000 0.00079521275            0    1.5136392  0.000340963            0    1.5136392      346 
 5909000 0.00080707758 -0.0014152693    1.5437394 0.00034500466 -0.0014152693    1.5451547      344 
 5910000 0.00080143952 -0.0016375082    1.4810031 0.00034244055 -0.0016375082    1.4826406      356 
 5911000 0.00080389297 -0.00067684201    1.4906918 0.00034411194 -0.00067684201    1.4913687      355 
 5912000 0.00083716228 -0.00026439961    1.5185971 0.00035863866 -0.00026439961    1.5188615      363 
 5913000 0.00082186855 -0.0031503447    1.4962248 0.00035026684 -0.0031503447    1.4993751      361 
 5914000 0.00083634688 -0.0017100483    1.5283169 0.00035766796 -0.0017100483    1.5300269      360 
 5915000 0.00083202741 -4.2840605e-06    1.5746076 0.00035668164 -4.2840605e-06    1.5746119      348 
 5916000 0.00077563819 -0.0013043145    1.4967237 0.00034123211 -0.0013043145     1.498028      341 
 5917000 0.0007882969 -0.0046431188    1.4495991 0.00033594366 -0.0046431188    1.4542422      357 
 5918000 0.00079492854 -0.00079051871    1.5255418 0.00034017165 -0.00079051871    1.5263323      343 
 5919000 0.00080543386 -0.0014096648    1.5055525 0.00034437596 -0.0014096648    1.5069622      352 
 5920000 0.00076470433 -0.00015845505    1.4554098 0.00032771301 -0.00015845505    1.4555683      346 
 5921000 0.00078391967 -0.0030531717    1.4847902 0.00033393187 -0.0030531717    1.4878434      347 
 5922000 0.0007578792 -8.1617818e-05    1.4810212 0.00032483897 -8.1617818e-05    1.4811029      337 
 5923000 0.00079869538 -0.0021310907    1.5050689 0.00034859407 -0.0021310907       1.5072      349 
 5924000 0.00079765113 -0.0031826182    1.4766063 0.00034026471 -0.0031826182    1.4797889      355 
 5925000 0.00082502141 -0.0040080745    1.4805571 0.00035243365 -0.0040080745    1.4845652      366 
 5926000 0.00080655121 -0.00060449906    1.4586992 0.00034534781 -0.00060449906    1.4593037      364 
 5927000 0.00077745193 -0.00035449764    1.4101746 0.00033307558 -0.00035449764    1.4105291      363 
 5928000 0.00083020705 -0.0069255749    1.4511173 0.00035339892 -0.0069255749    1.4580428      375 
 5929000 0.00082150084 -0.0020723125    1.4802078 0.00035087498 -0.0020723125    1.4822801      365 
 5930000 0.00079550218 -0.0041817726     1.407974 0.00034078095 -0.0041817726    1.4121557      371 
 5931000 0.00082215938 -0.0014702201    1.4739138 0.0003514079 -0.0014702201     1.475384      367 
 5932000 0.00084057934 -0.014287199    1.4738772 0.00035758879 -0.014287199    1.4881644      372 
 5933000 0.00084666209 -0.0030220932    1.4721186 0.00036377757 -0.0030220932    1.4751407      378 
 5934000 0.00085933876 -0.0025238626    1.5066812 0.00036777767 -0.0025238626    1.5092051      375 
 5935000 0.00084406178 -0.0023026503    1.4605675 0.00036009283 -0.0023026503    1.4628701      380 
 5936000 0.0008575752 -0.0029241307    1.4717246 0.00036643665 -0.0029241307    1.4746487      383 
 5937000 0.00080415075 -0.0050477673    1.4186233 0.00034295447 -0.0050477673    1.4236711      372 
 5938000 0.00084324747 -0.0048876752    1.4338542 0.00036042089 -0.0048876752    1.4387418      386 
 5939000 0.00080629511 -0.0053767215    1.4182637 0.00034397471 -0.0053767215    1.4236405      373 
 5940000 0.00086663253 -0.0042379169    1.4443801 0.00036906693 -0.0042379169    1.4486181      394 
 5941000  0.000821486 -0.0022374551    1.4252624 0.00035127674 -0.0022374551    1.4274999      379 
 5942000 0.00086353371 -0.0025075145    1.4157335 0.0003698503 -0.0025075145    1.4182411      401 
 5943000 0.0009064457 -0.006905113    1.4744251 0.00038742299 -0.006905113    1.4813302      403 
 5944000 0.00087549639 -0.0046301402    1.4550994 0.0003743042 -0.0046301402    1.4597295      395 
 5945000 0.00085867179 -0.0038264487    1.4099552 0.00036557107 -0.0038264487    1.4137816      400 
 5946000 0.00086812311 -0.0021216895    1.4380224 0.00037512172 -0.0021216895    1.4401441      397 
 5947000   0.00089152 -0.0013563231    1.4776012 0.0003809701 -0.0013563231    1.4789576      397 
 5948000 0.00086192927 -0.0020330764    1.4206687  0.000368119 -0.0020330764    1.4227017      399 
 5949000 0.0008718964 -0.00047528204    1.4756745 0.00037333162 -0.00047528204    1.4761498      389 
 5950000 0.00091014603 -0.0021598232    1.4852175 0.0003935849 -0.0021598232    1.4873774      403 
 5951000 0.00086591308 -0.0055673563    1.4529536 0.0003683345 -0.0055673563     1.458521      391 
 5952000 0.00086909713 -0.0049149375    1.4664955 0.00037139862 -0.0049149375    1.4714105      389 
 5953000 0.00087982365 -0.0063148031    1.4422928 0.00037805262 -0.0063148031    1.4486076      400 
 5954000 0.00088925003 -0.0058897636    1.4582382 0.00038054659 -0.0058897636    1.4641279      400 
 5955000 0.00087753559 -0.0045075298    1.4403329 0.00037356166 -0.0045075298    1.4448404      400 
 5956000 0.00085663455 -0.0028514506    1.4290545 0.00036558407 -0.0028514506     1.431906      394 
 5957000 0.00088874534 -0.003043176    1.4825375 0.00037924384 -0.003043176    1.4855807      394 
 5958000 0.0008678787 -0.0039008887     1.428621 0.00036986057 -0.0039008887    1.4325219      399 
 5959000 0.00091481473 -0.0036215282     1.506373 0.00039117875 -0.0036215282    1.5099946      399 
 5960000 0.00088404311 -0.0047824995    1.4363609 0.00037869793 -0.0047824995    1.4411434      404 
 5961000 0.00088625305 -0.0028777703    1.4785369 0.00037999906 -0.0028777703    1.4814147      394 
 5962000 0.00094953839 -0.0049545333    1.5055684 0.00040493318 -0.0049545333    1.5105229      414 
 5963000 0.00089000135 -0.0050982874    1.4825819 0.00037963751 -0.0050982874    1.4876802      394 
 5964000 0.00088840738 -0.0047079326    1.4955388 0.00037841729 -0.0047079326    1.5002467      390 
 5965000 0.00091800706 -0.0035345188    1.5427322 0.00039165834 -0.0035345188    1.5462667      391 
 5966000 0.0009190823 -0.0023543678    1.5033631 0.00039289198 -0.0023543678    1.5057174      402 
 5967000 0.00083209293 -0.0048084172    1.4449484 0.00035645115 -0.0048084172    1.4497568      378 
 5968000 0.00083168159 -0.0029078166    1.4051569 0.00036390871 -0.0029078166    1.4080647      389 
 5969000 0.00085952202 -0.00044929287    1.4510189 0.00036807684 -0.00044929287    1.4514682      390 
 5970000 0.00085695417 -0.0025445986    1.4408862 0.00036724909 -0.0025445986    1.4434308      391 
 5971000 0.00086946283 -0.0062012092    1.4696223 0.00037406655 -0.0062012092    1.4758235      388 
 5972000 0.00088575579 -0.0015102107    1.5058539 0.0003782985 -0.0015102107    1.5073641      387 
 5973000 0.00086799959 -0.0038404885    1.4926408 0.00036952504 -0.0038404885    1.4964813      382 
 5974000 0.00085174798 -0.0016727671    1.4982008 0.0003639453 -0.0016727671    1.4998735      374 
 5975000 0.00082964024 -0.0043086708    1.4411748 0.00035312198 -0.0043086708    1.4454835      378 
 5976000 0.00084035978 -0.007506865    1.4337758 0.00035971272 -0.007506865    1.4412827      384 
 5977000 0.00083279013 -0.0062532643    1.4332933 0.00035432357 -0.0062532643    1.4395466      381 
 5978000 0.00080882178 -0.0029624539    1.4328379 0.00034481746 -0.0029624539    1.4358004      371 
 5979000 0.00085255528 -0.0039655169    1.4620512 0.00036619092 -0.0039655169    1.4660167      383 
 5980000 0.00082209279 -0.0019068627     1.400741 0.00035108527 -0.0019068627    1.4026479      386 
 5981000 0.00090343401 -0.0015437082    1.5085898 0.00038606139 -0.0015437082    1.5101335      394 
 5982000 0.00086700132 -0.0026693449     1.468976 0.00036977332 -0.0026693449    1.4716454      388 
 5983000 0.00086090267 -0.0017624824    1.4709177 0.00036785214 -0.0017624824    1.4726802      385 
 5984000 0.00088456338 -0.0030372213    1.4945581 0.0003775899 -0.0030372213    1.4975954      389 
 5985000 0.00086855334 -0.0032451669    1.4981211 0.0003701674 -0.0032451669    1.5013663      381 
 5986000 0.00089362595 -0.001304486    1.4924344 0.00038225218 -0.001304486    1.4937389      394 
 5987000 0.00083816558 -0.00041795922    1.4637928 0.00035902146 -0.00041795922    1.4642108      377 
 5988000 0.00084039266 -0.00089422906    1.4292717 0.00037301938 -0.00089422906    1.4301659      387 
 5989000 0.00083894911 -0.00051314565    1.4198557 0.00035924812 -0.00051314565    1.4203689      389 
 5990000 0.00087125481 -0.00011778155    1.4599324 0.00037344722 -0.00011778155    1.4600501      393 
 5991000 0.00080916723 -0.00035472927    1.4020386 0.00034656307 -0.00035472927    1.4023933      380 
 5992000 0.00088427907 -0.0005699944    1.5004026 0.00037860617 -0.0005699944    1.5009726      388 
 5993000 0.00087572368 -0.0069311646    1.5310498 0.00037492566 -0.0069311646     1.537981      375 
 5994000 0.00083137595 -0.00056846486    1.4216027 0.0003559672 -0.00056846486    1.4221711      385 
 5995000 0.00082241674 -0.00090478654    1.4629748  0.000351972 -0.00090478654    1.4638796      370 
 5996000 0.0008478155 -0.0013401427     1.464179 0.00036238625 -0.0013401427    1.4655192      381 
 5997000 0.00087188944 -0.00078065618    1.4829859 0.00037308666 -0.00078065618    1.4837666      387 
 5998000 0.00083744475 -0.0024897383    1.4565916 0.00035777752 -0.0024897383    1.4590813      378 
 5999000 0.00089334927 -0.0009491068    1.5352151 0.00038229663 -0.0009491068    1.5361642      383 
 6000000 0.0009065554 -0.0040175749    1.5268756 0.0003892323 -0.0040175749    1.5308931      390 
 6001000 0.00090179667 -0.0042515327    1.5147108 0.00038444536 -0.0042515327    1.5189623      391 
 6002000 0.00090135953 -0.0026178981    1.5078818 0.00038608273 -0.0026178981    1.5104997      393 
 6003000 0.00091170821 -0.00026051447    1.5593289 0.00039062636 -0.00026051447    1.5595894      385 
 6004000 0.00087528399 -0.0042729052     1.537046 0.00037255822 -0.0042729052    1.5413189      374 
 6005000 0.00085708661 -0.00023184812     1.521247 0.00036723288 -0.00023184812    1.5214789      371 
 6006000 0.00089963669 -0.00012176669    1.5269188 0.00038555046 -0.00012176669    1.5270405      388 
 6007000 0.0008918825 -0.0010942321    1.5166962 0.00038158753 -0.0010942321    1.5177904      387 
 6008000 0.00088316564 -0.00039863785    1.5103652 0.00037822156 -0.00039863785    1.5107638      385 
 6009000 0.00084208973 -0.00033649253    1.4707295 0.0003606951 -0.00033649253     1.471066      377 
 6010000 0.00084578265 -0.00019799964    1.4851993 0.00036244041 -0.00019799964    1.4853973      375 
 6011000 0.00084807945 -0.00094075519    1.4964765 0.00036283218 -0.00094075519    1.4974173      373 
 6012000 0.00082638458 -0.0009933634    1.4739352 0.00035351985 -0.0009933634    1.4749285      369 
 6013000 0.0008479885 -0.0021909028    1.4674848 0.00036236333 -0.0021909028    1.4696757      380 
 6014000 0.00083619928 -7.3748124e-06    1.5005716 0.0003584998 -7.3748124e-06     1.500579      367 
 6015000 0.00088040036 -0.0014096129    1.5124882 0.00037644624 -0.0014096129    1.5138978      383 
 6016000 0.00085698795 -0.0030276159    1.4901039 0.00036556208 -0.0030276159    1.4931315      378 
 6017000 0.00086122616 -7.6165942e-05    1.5004395 0.00036914869 -7.6165942e-05    1.5005157      378 
 6018000 0.00090061612 -0.0023178183     1.506936  0.000384717 -0.0023178183    1.5092539      393 
 6019000 0.00090633632 -0.0046857569    1.5538104 0.00038612991 -0.0046857569    1.5584962      383 
 6020000 0.00090446299 -0.00075996591    1.5424273 0.00038699558 -0.00075996591    1.5431873      386 
 6021000 0.00087076128 -0.00014516288    1.5089987 0.00037318692 -0.00014516288    1.5091439      380 
 6022000 0.00091109778 -0.0033181801    1.6010665 0.00038827581 -0.0033181801    1.6043847      374 
 6023000 0.00092056645 -0.0020937758    1.5645105 0.0003970688 -0.0020937758    1.5666043      387 
 6024000 0.00098493373 -0.0022385827    1.6073582 0.00042113827 -0.0022385827    1.6095968      403 
 6025000 0.00091124835 -0.0045154583    1.5382585 0.00039020297 -0.0045154583    1.5427739      389 
 6026000 0.00091280606 -0.0028460037    1.5626877 0.00039100025 -0.0028460037    1.5655337      384 
 6027000 0.00089820982 -0.00069436365    1.5478711 0.00038453693 -0.00069436365    1.5485655      382 
 6028000 0.00087312102 -0.0017464138    1.5235288 0.00037295072 -0.0017464138    1.5252753      377 
 6029000 0.00087787185 -0.0022071284    1.4726848 0.00038499905 -0.0022071284    1.4748919      392 
 6030000 0.00085264833 -0.00073342169    1.4848371 0.00036496002 -0.00073342169    1.4855705      378 
 6031000 0.00085350414 -0.0027714494    1.4922001 0.00036627726 -0.0027714494    1.4949715      376 
 6032000 0.00092327677 -0.0038907341    1.5878916 0.00039371254 -0.0038907341    1.5917823      382 
 6033000 0.00089036613 -0.0006243341    1.5344182 0.00038119431 -0.0006243341    1.5350425      382 
 6034000 0.00082951731 -0.00040176081    1.4761166 0.00035526012 -0.00040176081    1.4765184      370 
 6035000 0.00084288652 -0.0055533168    1.4747577 0.00035790717 -0.0055533168     1.480311      375 
 6036000 0.00087360504 -0.003740402    1.5682474 0.00038060419 -0.003740402    1.5719878      366 
 6037000 0.00083168381 -0.0029789234    1.4734055 0.00036005668 -0.0029789234    1.4763845      371 
 6038000 0.0008212391 -0.0034233004    1.4743359 0.00035016874 -0.0034233004    1.4777592      366 
 6039000 0.00083842094 -0.0070044939    1.4309529 0.00035722925 -0.0070044939    1.4379574      384 
 6040000 0.00083521733 -0.0024661768    1.4079589 0.00035635118 -0.0024661768    1.4104251      390 
 6041000 0.00081528886 -0.0033561386    1.4284868 0.00034734068 -0.0033561386    1.4318429      375 
 6042000 0.00077912843 -0.0026472849    1.3656892 0.00033244405 -0.0026472849    1.3683365      375 
 6043000 0.00082864175 -0.0038738997    1.4398699 0.00035344022 -0.0038738997    1.4437438      378 
 6044000 0.00080773395 -0.0033365658    1.3892433 0.00034577468 -0.0033365658    1.3925798      382 
 6045000 0.00083631375 -0.0025923893    1.4506738 0.00035923503 -0.0025923893    1.4532661      379 
 6046000 0.00084399398 -0.0041707053    1.4509235 0.00036159198 -0.0041707053    1.4550942      382 
 6047000 0.00081268313 -0.0058768024    1.4138181 0.00034790203 -0.0058768024    1.4196949      377 
 6048000 0.00084931227 -0.0045343043    1.4408108 0.00036216582 -0.0045343043    1.4453451      387 
 6049000 0.00087914212 -0.0025295032    1.5052679 0.00037587616 -0.0025295032    1.5077974      384 
 6050000 0.00086301748 -0.0054111562    1.5062236 0.00037260594 -0.0054111562    1.5116348      376 
 6051000 0.00085701092 -0.0032265454    1.4477216 0.00036541315 -0.0032265454    1.4509481      389 
 6052000 0.00085552285 -0.007585684     1.475148 0.00036354969 -0.007585684    1.4827337      380 
 6053000 0.00088746211 -0.003884475    1.5221564 0.00037793789 -0.003884475    1.5260409      383 
 6054000 0.00081125098 -0.010744949    1.3915694 0.00034434444 -0.010744949    1.4023144      381 
 6055000 0.00084269361 -0.0065328637    1.4425261 0.00036204489 -0.0065328637     1.449059      383 
 6056000 0.00082168613 -0.0016165511     1.403979 0.00035114732 -0.0016165511    1.4055955      385 
 6057000 0.00085130438 -0.0040630966    1.4484254 0.00036346173 -0.0040630966    1.4524885      386 
 6058000 0.00084693119 -0.007324835    1.4228814 0.00036002633 -0.007324835    1.4302062      390 
 6059000 0.00086261702 -0.0033649066    1.4799535 0.00036959618 -0.0033649066    1.4833184      383 
 6060000 0.00084984065 -0.0029662683    1.4321531 0.00036206344 -0.0029662683    1.4351194      390 
 6061000 0.00082527263 -0.0038699992    1.4189475 0.00035469192 -0.0038699992    1.4228175      382 
 6062000 0.00082875376 -0.0012137117    1.4127991 0.00035424311 -0.0012137117    1.4140128      386 
 6063000 0.00077572425 -0.0038889892    1.3881661 0.00033053598 -0.0038889892    1.3920551      367 
 6064000 0.00079671307 -0.0024858366    1.4233491 0.00034389665 -0.0024858366     1.425835      368 
 6065000 0.00080876521 -0.0054704678    1.4380111 0.00034745141 -0.0054704678    1.4434815      369 
 6066000 0.00080642917 -0.0032507183    1.4168193 0.00034425076 -0.0032507183      1.42007      374 
 6067000 0.00081874116 -0.0031217585    1.4386289 0.00034958671 -0.0031217585    1.4417506      374 
 6068000 0.0008323988 -0.0032779751    1.4431852 0.00035709249 -0.0032779751    1.4464631      379 
 6069000 0.00082414238 -0.0011663003    1.4657849 0.00035237276 -0.0011663003    1.4669512      370 
 6070000 0.00081153765 -0.007983269    1.4365318 0.00034484513 -0.007983269    1.4445151      370 
 6071000 0.00080797333 -0.00023409789    1.4457527 0.00034610986 -0.00023409789    1.4459868      368 
 6072000 0.00080274166 -0.0012769413    1.4160894 0.00034323844 -0.0012769413    1.4173663      373 
 6073000 0.00084359243 -0.001004158    1.5005676 0.00036095521 -0.001004158    1.5015717      370 
 6074000 0.00079295224 -0.002380508    1.3939575 0.00034178626 -0.002380508     1.396338      374 
 6075000 0.00077501097 -0.0055317211    1.3519536 0.00033048521 -0.0055317211    1.3574853      376 
 6076000 0.00080076992 -0.00098866986    1.3978948 0.00034254048 -0.00098866986    1.3988835      377 
 6077000 0.00082647749 -0.00062592283    1.4508669 0.00035376648 -0.00062592283    1.4514928      375 
 6078000 0.00080957251 -0.00015974701    1.4141011 0.00034694089 -0.00015974701    1.4142609      377 
 6079000 0.00081990578 -0.0012695325    1.4197351 0.00035066356 -0.0012695325    1.4210046      380 
 6080000 0.00081344221 -0.0032386251    1.4291809 0.00034647948 -0.0032386251    1.4324195      374 
 6081000 0.00083033524 -0.0031713334    1.4283744 0.00035668272 -0.0031713334    1.4315458      382 
 6082000 0.00080481802 -0.00059071408    1.4242617 0.00034447288 -0.00059071408    1.4248524      372 
 6083000 0.00085366778 -9.4499872e-05    1.4716779 0.00036586187 -9.4499872e-05    1.4717724      382 
 6084000 0.00085084301 -0.00017938342    1.4822457 0.00036462243 -0.00017938342    1.4824251      378 
 6085000 0.00087461911 -0.0008152441    1.4992249 0.00037430463 -0.0008152441    1.5000401      384 
 6086000 0.00082894255 -0.0061407659    1.4496813 0.00035330459 -0.0061407659    1.4558221      375 
 6087000 0.00085382466 -0.0040169001    1.4995135 0.00036373724 -0.0040169001    1.5035304      374 
 6088000 0.00083042095 -4.3000569e-05    1.4544967 0.00035599628 -4.3000569e-05    1.4545397      376 
 6089000 0.00088293443 -0.0022290624    1.5280125 0.00037725075 -0.0022290624    1.5302415      380 
 6090000 0.00080119307 -0.00050128958     1.406586 0.00035594667 -0.00050128958    1.4070873      375 
 6091000 0.00085797155 -0.0015938312    1.4622701 0.00036664509 -0.0015938312     1.463864      386 
 6092000 0.00085234058 -0.0053913603    1.4451073 0.00036996234 -0.0053913603    1.4504987      387 
 6093000 0.00080836707 -0.00066361719    1.4266352 0.00034597342 -0.00066361719    1.4272988      373 
 6094000 0.00081284944 -0.0024829172    1.4763417 0.00034665065 -0.0024829172    1.4788246      362 
 6095000 0.00083309511 -0.0036747699    1.5036552 0.0003574538 -0.0036747699      1.50733      364 
 6096000 0.00082107002 -0.0020476262    1.4361133 0.00035072215 -0.0020476262    1.4381609      376 
 6097000 0.00084914181 -0.0065139363    1.5214541 0.00036518204 -0.0065139363    1.5279681      366 
 6098000 0.00087110898 -0.0035963815    1.5303706 0.00037154276 -0.0035963815     1.533967      374 
 6099000 0.00084535893 -0.0042144924    1.4964457 0.00036082391 -0.0042144924    1.5006602      371 
 6100000 0.00081062269 -0.0018554127    1.4568003 0.00034626068 -0.0018554127    1.4586557      366 
 6101000 0.00086706387 -0.00063116184    1.5221411 0.00037126861 -0.00063116184    1.5227722      375 
 6102000 0.00085269789 -2.9578302e-05    1.4975126 0.00036555771 -2.9578302e-05    1.4975421      375 
 6103000 0.00084391497 -0.0029163991    1.5033003 0.00036145994 -0.0029163991    1.5062167      369 
 6104000 0.00083702257 -0.00072862626    1.4891489 0.00035831023 -0.00072862626    1.4898775      370 
 6105000 0.0007919166 -0.0016631982    1.4233323 0.00033833336 -0.0016631982    1.4249955      366 
 6106000 0.00082379565 -0.0084933908    1.4043805 0.00034935655 -0.0084933908    1.4128739      384 
 6107000 0.00079305014 -0.0044443587    1.4187025 0.00033730636 -0.0044443587    1.4231469      367 
 6108000 0.00080096823 -9.572246e-05    1.4372603 0.00034323603 -9.572246e-05     1.437356      367 
 6109000 0.00082090936 -0.004531915     1.418212 0.0003577342 -0.004531915    1.4227439      380 
 6110000 0.00081837372 -0.0017959389    1.4588348 0.00034977176 -0.0017959389    1.4606308      369 
 6111000 0.00084973862 -0.0023379035    1.5351054 0.00036282856 -0.0023379035    1.5374433      364 
 6112000 0.00090244113 -7.7503832e-05    1.5476795 0.00038681836 -7.7503832e-05     1.547757      384 
 6113000 0.00086160565 0.00093303703     1.494209 0.00038012649 0.00093303703     1.493276      380 
 6114000 0.00083893396 0.0017580618    1.5072445 0.00037266469 0.0017580618    1.5054864      367 
 6115000 0.00086446514 -0.0051147019    1.4970703 0.00037101256 -0.0051147019     1.502185      379 
 6116000 0.00084415821 -0.0059175716    1.4456599 0.00035859359 -0.0059175716    1.4515774      383 
 6117000 0.0008478866 -0.0022687198    1.4595366 0.00036266877 -0.0022687198    1.4618053      382 
 6118000 0.00084623424 -0.0052081794    1.4652969 0.00036108961 -0.0052081794     1.470505      379 
 6119000 0.00085215295 -0.0033490354    1.4735442 0.00036399886 -0.0033490354    1.4768932      380 
 6120000 0.00087605962 -0.0064816975     1.499952 0.00037669826 -0.0064816975    1.5064337      383 
 6121000 0.0008153867 -0.0047721278    1.4465942 0.00034750392 -0.0047721278    1.4513663      370 
 6122000 0.00084372681 -0.0049790777    1.4728668 0.00036032437 -0.0049790777    1.4778459      376 
 6123000 0.00088008073 -0.0062779425    1.5270881 0.00037457364 -0.0062779425     1.533366      378 
 6124000 0.00086237284 -0.0075882844    1.4562007 0.00036676336 -0.0075882844     1.463789      388 
 6125000 0.0008612051 -0.0047115505    1.4839527 0.00036831779 -0.0047115505    1.4886642      381 
 6126000 0.00083144479 -0.0025307191    1.4499394 0.00035585571 -0.0025307191    1.4524701      377 
 6127000 0.00080259469 -0.0026419733    1.4221042 0.00034437333 -0.0026419733    1.4247462      371 
 6128000 0.00084701588 -0.0050052566    1.4401662 0.00036885235 -0.0050052566    1.4451715      386 
 6129000 0.0008553116 -0.0061493529    1.4569667 0.00037425996 -0.0061493529     1.463116      385 
 6130000 0.0008475027 -0.0044020703    1.4800575 0.0003615607 -0.0044020703    1.4844596      376 
 6131000 0.00084575564 -0.0042884254    1.4239326 0.00036079835 -0.0042884254     1.428221      390 
 6132000 0.00085587613 -0.0028722583    1.4461546 0.00036652702 -0.0028722583    1.4490269      389 
 6133000 0.00086139925 -0.0031823601    1.4858175 0.00036817999 -0.0031823601    1.4889998      381 
 6134000 0.00084710131 -0.0035202836     1.453118 0.00036268105 -0.0035202836    1.4566383      383 
 6135000 0.00088799556 -0.0059654811    1.4783619 0.00037962469 -0.0059654811    1.4843274      394 
 6136000 0.00082035871 -0.0046972809     1.463455 0.00035052791 -0.0046972809    1.4681523      368 
 6137000 0.00085121035 -0.0026772312    1.4648584 0.00036433726 -0.0026772312    1.4675357      382 
 6138000 0.00083816278 -0.0054597982    1.4864473 0.00036885206 -0.0054597982    1.4919071      370 
 6139000 0.00083500128 -0.0060914957    1.4525915 0.00035569502 -0.0060914957     1.458683      377 
 6140000 0.00087600699 -0.0028695413     1.484062 0.00037473753 -0.0028695413    1.4869316      388 
 6141000 0.00084611069 -0.0035005796    1.4745897 0.0003621792 -0.0035005796    1.4780903      377 
 6142000 0.00082783684 -0.0062572122    1.4322786 0.00035300586 -0.0062572122    1.4385358      379 
 6143000 0.00084344335 -0.0037905461    1.4618647 0.00036094004 -0.0037905461    1.4656553      379 
 6144000 0.0008532131 -0.0033900094    1.4871076 0.00037189232 -0.0033900094    1.4904976      377 
 6145000 0.00085210338 -0.0033572077    1.4852018 0.00036448812 -0.0033572077     1.488559      377 
 6146000 0.00080471491 -0.0028821878    1.4028929 0.00034453151 -0.0028821878     1.405775      377 
 6147000 0.00085547166 -0.004403531    1.4782414 0.00036941143 -0.004403531     1.482645      380 
 6148000 0.00080651661 -0.006276711    1.4063929 0.00034574174 -0.006276711    1.4126696      376 
 6149000 0.0007988962 -0.0078714344    1.4103093 0.00033942732 -0.0078714344    1.4181807      371 
 6150000 0.00082969353 -0.0045451333    1.4487205 0.00035453851 -0.0045451333    1.4532656      376 
 6151000 0.0007773209 -0.0028848226    1.3732866 0.00033244713 -0.0028848226    1.3761714      372 
 6152000 0.00077223312 -0.004176529    1.3968841 0.00032996565 -0.004176529    1.4010606      363 
 6153000 0.00079199689 -0.006074276    1.3774834 0.00034028209 -0.006074276    1.3835576      377 
 6154000 0.00077902489 -0.005014158    1.3558824 0.00033175972 -0.005014158    1.3608966      377 
 6155000 0.00074299763 -0.0043329248    1.3436858 0.00031765676 -0.0043329248    1.3480188      363 
 6156000 0.0007838234 -0.0053570725    1.3936084 0.00033405383 -0.0053570725    1.3989655      369 
 6157000 0.00079643122 -0.0034469083    1.3841765 0.00034097006 -0.0034469083    1.3876234      378 
 6158000 0.00079992443 -0.0033288747    1.3830454 0.00034161202 -0.0033288747    1.3863743      380 
 6159000 0.00078560854 -0.0036556656    1.4099889 0.00034252384 -0.0036556656    1.4136446      366 
 6160000 0.00082519706 -0.002882573    1.4502365 0.00035307436 -0.002882573    1.4531191      374 
 6161000 0.00080609379 -0.0027221898    1.4017363  0.000345028 -0.0027221898    1.4044585      378 
 6162000 0.00075145736 -0.0060772029    1.3763315 0.00032017319 -0.0060772029    1.3824087      358 
 6163000 0.00081695113 -0.0051580176    1.4935491 0.00034826942 -0.0051580176    1.4987071      359 
 6164000 0.00080723246 -0.0054685857    1.4510663 0.00034495138 -0.0054685857    1.4565349      365 
 6165000 0.00078361274 -0.0041099145    1.4254732 0.00033439556 -0.0041099145    1.4295831      361 
 6166000 0.00077998888 -0.0028279235     1.412304 0.0003343877 -0.0028279235    1.4151319      363 
 6167000 0.00073202245 -0.0043754361    1.3498455 0.00031206371 -0.0043754361     1.354221      356 
 6168000 0.00072033085 -0.0057991558    1.3267927 0.00030828778 -0.0057991558    1.3325918      356 
 6169000 0.00076898241 -0.0063564582    1.3811617 0.00032903413 -0.0063564582    1.3875181      365 
 6170000 0.00076663276 -0.0053195067    1.4050064 0.0003270015 -0.0053195067    1.4103259      358 
 6171000 0.00076676903 -0.0048740934    1.3939802 0.00032673541 -0.0048740934    1.3988543      361 
 6172000 0.00076493537 -0.0047550808    1.4103539 0.00032721566 -0.0047550808     1.415109      356 
 6173000 0.00076326133 -0.0063351468     1.417677 0.00032700193 -0.0063351468    1.4240121      353 
 6174000 0.00073542492 -0.0081545349    1.3836371 0.00031389466 -0.0081545349    1.3917917      348 
 6175000 0.00072863247 -0.0042125443    1.3362066 0.00031141928 -0.0042125443    1.3404192      358 
 6176000 0.00073626186 -0.0014492742    1.3380388 0.00031449222 -0.0014492742    1.3394881      362 
 6177000 0.0007729452 -0.0034403186    1.4305146 0.00033143732 -0.0034403186    1.4339549      355 
 6178000 0.00081846338 -0.00046128536    1.4682902 0.00035045036 -0.00046128536    1.4687515      367 
 6179000 0.00082101243 -0.00055159522     1.484917 0.00035151723 -0.00055159522    1.4854686      364 
 6180000 0.00077453463 -0.0034041211    1.4416405 0.00033218727 -0.0034041211    1.4450447      353 
 6181000 0.00078687165 -0.0018826084    1.4456755 0.00033584825 -0.0018826084    1.4475581      358 
 6182000 0.0007922631 -0.00048318914    1.5031956 0.00033918879 -0.00048318914    1.5036788      347 
 6183000 0.00078980713 -0.0023936498     1.475331 0.0003372389 -0.0023936498    1.4777246      352 
 6184000 0.00078007407 -0.00086290847    1.4882646 0.0003338763 -0.00086290847    1.4891275      345 
 6185000 0.00073606897 -0.00013186052    1.4009307 0.00031545263 -0.00013186052    1.4010626      346 
 6186000 0.00081791082 -0.00073364225    1.5209271 0.00035016566 -0.00073364225    1.5216607      354 
 6187000 0.0008055284 -0.0029551761    1.4625502 0.00034354916 -0.0029551761    1.4655054      362 
 6188000 0.0008469442 -0.0030124939    1.5168485 0.00036415283 -0.0030124939     1.519861      367 
 6189000 0.00079907979 -0.004289086    1.4781502 0.00033970264 -0.004289086    1.4824393      355 
 6190000 0.00078101434 -0.0020132517    1.4634233 0.00033354137 -0.0020132517    1.4654366      351 
 6191000 0.00083138293 -0.0057271183    1.5152187 0.00035359925 -0.0057271183    1.5209458      360 
 6192000 0.00077823788 -0.0021706927    1.4622284 0.00033833543 -0.0021706927    1.4643991      350 
 6193000 0.0008406663 -0.00081721875    1.5500355 0.00035967837 -0.00081721875    1.5508527      357 
 6194000 0.00082077965 -0.0056892897    1.5042472 0.00035034633 -0.0056892897    1.5099365      358 
 6195000 0.0008452377 -0.0013684675    1.5113084 0.00036146713 -0.0013684675    1.5126769      368 
 6196000 0.00084515622 -0.002483508    1.5436594 0.00036088471 -0.002483508    1.5461429      360 
 6197000 0.00088618214 -0.0021437068    1.5795113 0.00037900591 -0.0021437068     1.581655      369 
 6198000 0.00083233181 -0.0004320345    1.4891479 0.00035651477 -0.0004320345    1.4895799      368 
 6199000 0.00082210394 -0.0006252626    1.4991793 0.00035190734 -0.0006252626    1.4998045      361 
 6200000 0.00083736231 -0.00055709556    1.5062146 0.00035856185 -0.00055709556    1.5067717      366 
 6201000 0.00084652143 -0.00056362975    1.5310588 0.00036244845 -0.00056362975    1.5316224      364 
 6202000 0.00083832171 -0.0013334344    1.5071646 0.00035834488 -0.0013334344    1.5084981      366 
 6203000 0.00084730445 -8.1926496e-05     1.571823 0.00036317877 -8.1926496e-05    1.5719049      355 
 6204000 0.00080244983 -0.0038203866    1.4682839 0.00034355815 -0.0038203866    1.4721043      359 
 6205000 0.00080880387 -0.0013497215    1.4382993 0.00034563115 -0.0013497215     1.439649      370 
 6206000 0.00084174208 -9.9079735e-05    1.4861286 0.00036081073 -9.9079735e-05    1.4862277      373 
 6207000 0.00082840344 -0.0051743855    1.4458315 0.00035446318 -0.0051743855    1.4510059      376 
 6208000 0.00076263265 -0.0056127032    1.4335341 0.00032399259 -0.0056127032    1.4391468      349 
 6209000 0.00078915367 -0.00037071127     1.455452 0.00033805373 -0.00037071127    1.4558227      357 
 6210000 0.00082562426 -0.0032019299    1.4783999 0.00035261084 -0.0032019299    1.4816019      367 
 6211000 0.00083402923 -0.00045585229    1.4800922 0.00035718962 -0.00045585229     1.480548      371 
 6212000  0.000807372 -0.00035107847     1.480783 0.00034590915 -0.00035107847    1.4811341      359 
 6213000 0.00081109263 -0.0056427361     1.511907 0.00034723061 -0.0056427361    1.5175497      352 
 6214000 0.00091961011 -0.0044448361    1.5851773 0.00039363525 -0.0044448361    1.5896221      381 
 6215000 0.00085803535 -0.0038572514    1.5152113 0.00036688651 -0.0038572514    1.5190685      372 
 6216000 0.00087400741 -0.0022514396    1.5245723 0.0003734812 -0.0022514396    1.5268237      377 
 6217000 0.00089791785 -0.0025844162    1.5743748 0.00038406751 -0.0025844162    1.5769592      375 
 6218000 0.00089206818 -0.0016542937     1.586203 0.00038142243 -0.0016542937    1.5878573      370 
 6219000 0.00088015098 -8.9345078e-05    1.5213244 0.00037725282 -8.9345078e-05    1.5214137      381 
 6220000 0.00085575281 -0.0019948852     1.521222 0.00037554773 -0.0019948852    1.5232169      370 
 6221000 0.00092469967 -0.0030826799     1.608023 0.00039594604 -0.0030826799    1.6111057      378 
 6222000 0.00083242112 -0.0033824241    1.4863573 0.0003561002 -0.0033824241    1.4897397      368 
 6223000 0.0008592201 -0.0014886305    1.5446145 0.00036749144 -0.0014886305    1.5461032      366 
 6224000 0.00085138719 -0.0007777363    1.5270563 0.00036434933 -0.0007777363     1.527834      367 
 6225000 0.00088717294 -0.00010986779    1.5294274 0.0003802806 -0.00010986779    1.5295372      382 
 6226000 0.00086390987 -0.0022008479    1.4911388 0.00036885048 -0.0022008479    1.4933396      381 
 6227000 0.00082337738 -0.0033134827    1.4782934 0.00035184318 -0.0033134827    1.4816068      366 
 6228000 0.00082102636 -0.0010593123      1.44086  0.000351122 -0.0010593123    1.4419193      375 
 6229000 0.00084457487 -0.00060224451    1.4709019 0.00036150402 -0.00060224451    1.4715041      378 
 6230000 0.00082276057 -0.00080128403    1.4716495 0.00035209961 -0.00080128403    1.4724508      368 
 6231000 0.00084776877 -0.0037289027    1.4617095 0.00036336092 -0.0037289027    1.4654384      381 
 6232000 0.00085620306 0.00066199373    1.4729512 0.00038360123 0.00066199373    1.4722892      383 
 6233000 0.00086097454 -0.0012775334    1.5312339 0.00036831987 -0.0012775334    1.5325114      370 
 6234000 0.00085116314 -0.0025937806    1.4803891 0.00036397059 -0.0025937806    1.4829829      378 
 6235000 0.00084483598 -0.00014596242    1.4375815 0.00036206811 -0.00014596242    1.4377275      387 
 6236000 0.00081015614 -0.0026022698    1.4089341 0.00034738995 -0.0026022698    1.4115363      378 
 6237000 0.00081195141 -0.0027218844    1.4119424 0.00034719053 -0.0027218844    1.4146642      378 
 6238000 0.00076864269 -0.0025947023    1.3618807 0.00032840103 -0.0025947023    1.3644754      371 
 6239000 0.00082342143 -0.0031655977    1.4352883 0.00035093063 -0.0031655977    1.4384539      377 
 6240000 0.00083690695 -0.00076442748    1.4458984 0.00035816796 -0.00076442748    1.4466629      381 
 6241000 0.00081107873 -0.0017861179     1.415106 0.00034651492 -0.0017861179    1.4168922      377 
 6242000 0.00085716667 -0.0053037738    1.4274917 0.00036642613 -0.0053037738    1.4327954      394 
 6243000 0.00084386817 -0.0029722205    1.4443276 0.00036377478 -0.0029722205    1.4472998      384 
 6244000 0.00085418155 -0.00020945934     1.457188 0.0003659646 -0.00020945934    1.4573975      386 
 6245000 0.00085502157 -0.0019551168    1.4308913 0.00036501515 -0.0019551168    1.4328465      393 
 6246000 0.00084503558 -0.0058797433    1.4472064 0.0003631595 -0.0058797433    1.4530861      383 
 6247000 0.00080300882 -0.0025427209    1.3675443 0.00034256488 -0.0025427209     1.370087      386 
 6248000 0.00085918867 -0.0024390286    1.4521961 0.00036963637 -0.0024390286    1.4546351      389 
 6249000 0.00086034897 -0.0031385676    1.4647817 0.00036673411 -0.0031385676    1.4679203      386 
 6250000 0.00086181487 -0.0065712687    1.4753678 0.00036886161 -0.0065712687    1.4819391      383 
 6251000 0.00081928773 -0.0041096521    1.4047016 0.00034897633 -0.0041096521    1.4088112      383 
 6252000 0.00081465183 -0.0029797513    1.4549592 0.00034771629 -0.0029797513     1.457939      368 
 6253000 0.0007981049 -0.0035462571    1.4444535 0.00034072398 -0.0035462571    1.4479997      363 
 6254000 0.00079307746 -0.003955407    1.4001115 0.00033786372 -0.003955407    1.4040669      372 
 6255000 0.00081703941 -0.0070780361    1.4394112 0.00034919079 -0.0070780361    1.4464892      372 
 6256000 0.00079699226 -0.0096275603    1.4128416 0.00034577253 -0.0096275603    1.4224692      369 
 6257000 0.00084000608 -0.010872559    1.4802854 0.0003577399 -0.010872559     1.491158      371 
 6258000 0.00081650198 -0.0049979601    1.4405398 0.00035134184 -0.0049979601    1.4455377      372 
 6259000 0.00080718222 -0.010865361    1.4536033 0.00034117662 -0.010865361    1.4644687      363 
 6260000 0.00082617395 -0.0065470683    1.5048693 0.00035432899 -0.0065470683    1.5114164      360 
 6261000 0.00078498301 -0.0066488139    1.4097401 0.0003329786 -0.0066488139    1.4163889      365 
 6262000 0.00081854637 -0.0073774482    1.4075476 0.00035297355 -0.0073774482    1.4149251      381 
 6263000 0.00077221116 -0.0054706771     1.403312 0.00032811533 -0.0054706771    1.4087827      361 
 6264000 0.00076465166 -0.0031350103    1.3841706 0.0003285483 -0.0031350103    1.3873056      363 
 6265000 0.00078520432 -0.0026193443    1.3988108 0.00033501967 -0.0026193443    1.4014301      369 
 6266000 0.00074929972 -0.0063150298    1.3956205 0.00032012843 -0.0063150298    1.4019355      352 
 6267000 0.00078689103 -0.0024229339    1.4096712 0.00033612935 -0.0024229339    1.4120942      367 
 6268000 0.00080786751 -0.0022544041    1.4797887 0.00034543896 -0.0022544041    1.4820431      359 
 6269000 0.00081025472 -0.005250424    1.4688536 0.00034556746 -0.005250424     1.474104      362 
 6270000 0.00082498286 -0.0089767159    1.4755191 0.00035119785 -0.0089767159    1.4844958      366 
 6271000 0.00084961852 -0.0031511045    1.4693496 0.00036452567 -0.0031511045    1.4725007      380 
 6272000 0.00080704135 -0.0025448823    1.4697802 0.00034449863 -0.0025448823    1.4723251      361 
 6273000 0.00085530754 -0.0040239865    1.5102152 0.00036641846 -0.0040239865    1.5142392      372 
 6274000 0.00086730333 -0.0024632094    1.5086408 0.00037036698 -0.0024632094     1.511104      378 
 6275000 0.00080755276 -0.0069809474    1.4304411 0.00034360321 -0.0069809474    1.4374221      370 
 6276000 0.00085722128 -1.107544e-05    1.5382924 0.00036751077 -1.107544e-05    1.5383034      367 
 6277000 0.00084857214 -0.0030823674    1.5493096 0.00036365332 -0.0030823674     1.552392      360 
 6278000 0.00085002658 -0.00060359823    1.5415975 0.00036397004 -0.00060359823    1.5422011      363 
 6279000 0.00085265693 -0.0011149777    1.5762764 0.00036468907 -0.0011149777    1.5773914      356 
 6280000 0.00088536506 -0.0020346629     1.578162 0.0003833736 -0.0020346629    1.5801967      369 
 6281000 0.0008895379 -0.0028221347    1.5891365 0.00038722481 -0.0028221347    1.5919586      368 
 6282000 0.0008865228 -0.0022812751    1.6195383 0.00037860973 -0.0022812751    1.6218196      360 
 6283000 0.00086986431 -0.00098075797    1.5728762 0.00037214802 -0.00098075797     1.573857      364 
 6284000 0.00086193585 -0.0010484038    1.5670796 0.00037503647 -0.0010484038     1.568128      362 
 6285000 0.00087493498 -0.0011236794    1.5689674 0.00037419267 -0.0011236794    1.5700911      367 
 6286000 0.00088188523 -0.00016255004     1.595444 0.00037798098 -0.00016255004    1.5956066      364 
 6287000 0.00086030566 -0.0050856494    1.5303851 0.00036590436 -0.0050856494    1.5354708      369 
 6288000 0.0008652023 -0.0045516071    1.5396586 0.00036790467 -0.0045516071    1.5442102      369 
 6289000 0.00079556279 -0.0027036307    1.4773803 0.00034243458 -0.0027036307    1.4800839      354 
 6290000 0.00081261772 -0.00089711339    1.5109162 0.0003476343 -0.00089711339    1.5118133      354 
 6291000 0.00085848214 -0.00094453061     1.596196 0.00036737266 -0.00094453061    1.5971405      354 
 6292000 0.00086931329 -0.00091463271    1.5590882 0.00037197937 -0.00091463271    1.5600028      367 
 6293000 0.00084954799 -0.0043554681    1.5628821 0.00036186547 -0.0043554681    1.5672376      357 
 6294000 0.00082630029 -0.0042930308    1.5243393 0.00035181841 -0.0042930308    1.5286323      356 
 6295000 0.00082963473 -0.0041045753    1.5570072 0.00035347672 -0.0041045753    1.5611118      350 
 6296000 0.00084484942 -0.0062252622    1.5611251 0.00036167243 -0.0062252622    1.5673504      355 
 6297000 0.00085274909 -0.0046393541    1.5999664 0.0003632751 -0.0046393541    1.6046058      350 
 6298000 0.00084278327 -0.0012529281    1.5278067 0.00036035409 -0.0012529281    1.5290596      363 
 6299000 0.00075047962 -0.001039436    1.4832199 0.00032102248 -0.001039436    1.4842594      333 
 6300000 0.00078665231 -0.0013529295    1.4377619 0.00033630397 -0.0013529295    1.4391148      360 
 6301000 0.00084496161 -0.00010510948    1.5120777 0.00036215599 -0.00010510948    1.5121828      368 
 6302000 0.00082249459 -0.00091836397    1.5292701 0.00035195095 -0.00091836397    1.5301884      354 
 6303000 0.00084570455 -0.001338891    1.5675979 0.00036164872 -0.001338891    1.5689368      355 
 6304000 0.00083888823 -0.00084663633    1.5295783 0.00035899903 -0.00084663633    1.5304249      361 
 6305000 0.00080158967 -0.00064975874    1.5076901 0.00034310998 -0.00064975874    1.5083398      350 
 6306000 0.00081651906 -0.00061548658    1.5141769 0.00034952333 -0.00061548658    1.5147924      355 
 6307000 0.00087065181 -0.0036775033    1.5629962 0.00037559013 -0.0036775033    1.5666737      366 
 6308000 0.00082083461 -0.00065857548     1.509379 0.00035141338 -0.00065857548    1.5100376      358 
 6309000 0.00080993885 -0.0033338965    1.5034956 0.00034600232 -0.0033338965    1.5068295      354 
 6310000 0.00084272056 -0.0042704358    1.5905782 0.00035903018 -0.0042704358    1.5948487      348 
 6311000 0.00084482525 -0.004583274    1.5366729 0.00035962518 -0.004583274    1.5412561      361 
 6312000 0.00079535787 -0.0010519836    1.4828425 0.0003402086 -0.0010519836    1.4838944      353 
 6313000 0.00080718465 -0.0005336662     1.484393 0.00034560735 -0.0005336662    1.4849266      358 
 6314000 0.00083866403 -0.00080252156    1.5083115 0.00035897397 -0.00080252156     1.509114      366 
 6315000 0.00079350654 -0.0005662033    1.4798742 0.00033979957 -0.0005662033    1.4804404      353 
 6316000 0.00079088858 -0.00044388167    1.4793042  0.000338719 -0.00044388167     1.479748      352 
 6317000 0.00084198752 -0.0031132039    1.4996634 0.00036133439 -0.0031132039    1.5027766      369 
 6318000 0.00078767735 -0.0025680783    1.4669969 0.00033648439 -0.0025680783    1.4695649      353 
 6319000 0.00078628243 -3.8872245e-05    1.4710911 0.00033704402 -3.8872245e-05      1.47113      352 
 6320000 0.00077766707            0    1.4802421 0.00033343995            0    1.4802421      346 
 6321000 0.00077896826 -0.00044449131     1.486572 0.00033361232 -0.00044449131    1.4870165      345 
 6322000 0.00077634428 -8.1008844e-06    1.4863075 0.00033283564 -8.1008844e-06    1.4863156      344 
 6323000 0.0007592369 -0.00098901043    1.4400076 0.0003247842 -0.00098901043    1.4409966      347 
 6324000 0.00075406144 -0.0035582107    1.4235031 0.00032538147 -0.0035582107    1.4270613      348 
 6325000 0.00079501161 -0.0030721849    1.4393154 0.0003398109 -0.0030721849    1.4423876      363 
 6326000 0.00076860734 -0.00060106823    1.4456764 0.00032903041 -0.00060106823    1.4462774      350 
 6327000 0.00078259136 -0.0029514376    1.4488988 0.00033528538 -0.0029514376    1.4518503      355 
 6328000 0.00078919197 -0.0026655679    1.4908802 0.00033703245 -0.0026655679    1.4935458      348 
 6329000 0.00074091973 -0.00043166679    1.4561723 0.00031731744 -0.00043166679     1.456604      335 
 6330000 0.00071489736 -7.3895344e-06    1.4224224 0.00030648973 -7.3895344e-06    1.4224298      331 
 6331000 0.00072056473 -0.00014618622    1.4206823 0.00030883111 -0.00014618622    1.4208285      334 
 6332000 0.00073261388 -0.0014163219    1.4303112 0.0003131211 -0.0014163219    1.4317275      337 
 6333000 0.00074722097 -0.0030493677     1.423363 0.00032097155 -0.0030493677    1.4264124      345 
 6334000 0.00077242853 -0.0062246386    1.4514078 0.00032789422 -0.0062246386    1.4576324      349 
 6335000 0.00075153163 -0.0020601813    1.4494097 0.00032126088 -0.0020601813    1.4514698      341 
 6336000 0.0007920128 -0.0024414281      1.44648 0.00033828579 -0.0024414281    1.4489214      360 
 6337000 0.00074810821 -0.0024899638    1.4256161 0.00031917516 -0.0024899638     1.428106      345 
 6338000 0.00075336468  -0.00165734    1.4078837 0.00032200255  -0.00165734     1.409541      352 
 6339000 0.00077397409 -0.0050764579    1.4853668 0.00033067024 -0.0050764579    1.4904433      342 
 6340000 0.00077754944 -0.0014629015    1.4574724 0.00033254767 -0.0014629015    1.4589353      351 
 6341000 0.00076388737 -0.0044473318    1.4708857 0.00032472587 -0.0044473318    1.4753331      341 
 6342000 0.00079858351 -0.00087354944    1.4975285 0.00034170312 -0.00087354944     1.498402      351 
 6343000 0.00079679458 -0.0078222664    1.4914947  0.000341106 -0.0078222664     1.499317      350 
 6344000 0.0007778389 -0.0074833465    1.5171504 0.0003305739 -0.0074833465    1.5246337      336 
 6345000 0.00082472361 -0.00038299752    1.5785552 0.00035327168 -0.00038299752    1.5789382      344 
 6346000 0.00078236973 -0.0023769222    1.5403203 0.00033394531 -0.0023769222    1.5426973      334 
 6347000 0.00079856034 -0.002351777    1.5444831 0.00034135433 -0.002351777    1.5468349      340 
 6348000 0.00083790142 -0.002608255      1.61094 0.00035761424 -0.002608255    1.6135482      342 
 6349000 0.00084229286  -0.00132193    1.5836085  0.000360175  -0.00132193    1.5849304      350 
 6350000 0.00083221419 -0.00043179614    1.5220347 0.0003565084 -0.00043179614    1.5224665      360 
 6351000 0.00082704392 -0.003500655    1.5265074 0.00035234594 -0.003500655     1.530008      356 
 6352000 0.00079198509 -0.0010641092     1.510801 0.00033874191 -0.0010641092    1.5118651      345 
 6353000 0.00082274456 -0.001638162    1.5204162 0.00035169478 -0.001638162    1.5220543      356 
 6354000 0.00080215686 -0.0010488804    1.5391624 0.00034311685 -0.0010488804    1.5402113      343 
 6355000 0.00080023225 -0.00078060833     1.540228 0.00034248801 -0.00078060833    1.5410086      342 
 6356000 0.00085265209 -0.00014699141     1.572817 0.00036536339 -0.00014699141     1.572964      357 
 6357000 0.00083554876 -0.0043587102    1.5589483 0.00035600145 -0.0043587102     1.563307      352 
 6358000 0.00085019227 0.0045817684    1.5428459 0.0003846567 0.0045817684    1.5382641      364 
 6359000 0.00081952453 -0.004931576    1.5111658 0.00034922366 -0.004931576    1.5160974      356 
 6360000 0.00083784986 -0.0061255258    1.5395314 0.00035718113 -0.0061255258     1.545657      357 
 6361000 0.00087199015 -0.0046007969    1.5559535 0.00037148058 -0.0046007969    1.5605543      368 
 6362000 0.00082207725 -0.0007427855    1.4785246 0.00035184273 -0.0007427855    1.4792674      366 
 6363000 0.00077775592            0    1.4551769 0.00033347804            0    1.4551769      352 
 6364000 0.00079790751 -0.0032760235    1.4981351 0.00034817695 -0.0032760235    1.5014112      350 
 6365000 0.00085242404 -0.001772778    1.5490503 0.00036417454 -0.001772778    1.5508231      362 
 6366000 0.00077732992 -0.0002428451    1.4750935 0.00033303844 -0.0002428451    1.4753364      347 
 6367000 0.00083974454 -0.00019492505    1.4864915 0.00035979032 -0.00019492505    1.4866864      372 
 6368000 0.00078466248 -0.0039041197    1.4683775 0.00033534885 -0.0039041197    1.4722817      351 
 6369000 0.0007931844 -0.0018324167    1.4254444 0.00034413449 -0.0018324167    1.4272768      366 
 6370000 0.00078719661 -0.005683589    1.4264706 0.00033633758 -0.005683589    1.4321542      362 
 6371000 0.00077573181 -3.4011436e-05    1.4513558 0.00033252357 -3.4011436e-05    1.4513898      352 
 6372000 0.00076850655 -0.0007551192    1.4371163 0.00032882202 -0.0007551192    1.4378714      352 
 6373000 0.00074435223 -5.8951885e-05    1.3886746 0.00031905189 -5.8951885e-05    1.3887335      353 
 6374000 0.0007335208 -2.0268344e-06    1.3569909 0.00031447824 -2.0268344e-06    1.3569929      356 
 6375000 0.00073159728 -0.0010599058     1.360021 0.00031290216 -0.0010599058    1.3610809      354 
 6376000 0.00068967764 -0.0050148037    1.3115498 0.00029284602 -0.0050148037    1.3165646      345 
 6377000 0.00072635803 -0.00035730395    1.3358777 0.00031110248 -0.00035730395     1.336235      358 
 6378000 0.00075199525 -0.0051922048    1.3743525 0.00031993859 -0.0051922048    1.3795447      359 
 6379000 0.00075804268 -0.0041397373    1.3864991 0.00032244763 -0.0041397373    1.3906388      359 
 6380000 0.00077602449 -0.00010398192    1.4477203 0.00033253806 -0.00010398192    1.4478243      353 
 6381000 0.00072907419 -0.0018205445    1.3980657 0.00031124874 -0.0018205445    1.3998862      343 
 6382000 0.00073070651 -0.0048854761    1.3661573 0.00031332986 -0.0048854761    1.3710427      351 
 6383000 0.00073053865 -0.00041592955    1.3472744 0.00031289346 -0.00041592955    1.3476903      357 
 6384000 0.00076036814 -0.00016132474    1.4064984 0.00032581715 -0.00016132474    1.4066597      356 
 6385000 0.00074248781 -0.0013522244     1.403806 0.00032776741 -0.0013522244    1.4051582      348 
 6386000 0.00076986778 -0.0018989219    1.4344388 0.00032890402 -0.0018989219    1.4363377      353 
 6387000 0.00077981243 -0.00052712194    1.4710393 0.00033391814 -0.00052712194    1.4715664      349 
 6388000 0.00077229706 -0.00062371577    1.4525966 0.0003306778 -0.00062371577    1.4532203      350 
 6389000 0.00075665721 -0.0012296878     1.443196 0.00032357826 -0.0012296878    1.4444257      345 
 6390000 0.00075379002 -0.0014359939    1.4459068 0.00032213267 -0.0014359939    1.4473428      343 
 6391000 0.00077006719 -0.0020358957    1.4511405 0.00032879479 -0.0020358957    1.4531764      349 
 6392000 0.00077142466 -0.0029621474    1.4444811 0.00032887783 -0.0029621474    1.4474432      351 
 6393000 0.00075669904 -6.1759765e-05    1.4361181 0.00032434465 -6.1759765e-05    1.4361799      347 
 6394000 0.00075804939 -0.0028027587    1.4698927 0.00032418008 -0.0028027587    1.4726954      339 
 6395000 0.00076268979 -0.0012458236    1.4463042 0.00032603747 -0.0012458236    1.4475501      347 
 6396000 0.00074974529 -0.00021235194    1.4351794 0.00032120066 -0.00021235194    1.4353917      344 
 6397000 0.00075890334 -0.00021280005    1.4156687 0.00032515506 -0.00021280005    1.4158815      353 
 6398000 0.00080967226 -0.00053701383    1.5015533 0.00034671279 -0.00053701383    1.5020903      355 
 6399000 0.00082698204 -1.8292228e-05    1.5086856 0.0003545402 -1.8292228e-05    1.5087039      361 
 6400000 0.00080516827 -0.003032425    1.4618178 0.00034458161 -0.003032425    1.4648502      362 
 6401000 0.00077010558            0    1.4327227 0.00033019781            0    1.4327227      354 
 6402000 0.00079358948 -0.00021192315    1.4679063 0.00034002722 -0.00021192315    1.4681182      356 
 6403000 0.00080499413 -0.0041591147    1.4934711 0.00034281734 -0.0041591147    1.4976302      354 
 6404000 0.00081347226 -0.002521224    1.4261313 0.00034723936 -0.002521224    1.4286525      375 
 6405000 0.00082844419 -0.00055610564    1.4466722 0.00035465491 -0.00055610564    1.4472283      377 
 6406000 0.00075673396 -7.5818445e-05    1.4320432 0.00032435008 -7.5818445e-05     1.432119      348 
 6407000 0.00073357359 -0.001083079    1.4240622 0.00031375849 -0.001083079    1.4251452      339 
 6408000 0.00072771796 -0.00071921808    1.3493308 0.00031138769 -0.00071921808    1.3500501      355 
 6409000 0.00071224953 -0.00048969971    1.3208636 0.00030496844 -0.00048969971    1.3213533      355 
 6410000 0.00073283974 -0.0024576125    1.3382116 0.0003126514 -0.0024576125    1.3406692      360 
 6411000 0.00072680165 -0.0027869869    1.2979312 0.00031051162 -0.0027869869    1.3007182      368 
 6412000 0.00073824976 -0.0016270048    1.3757212 0.00031541888 -0.0016270048    1.3773482      353 
 6413000 0.00073323964 -0.0029996365    1.3611368 0.0003123443 -0.0029996365    1.3641364      354 
 6414000 0.00074659541 -0.0011497532    1.3459743 0.00031922548 -0.0011497532     1.347124      365 
 6415000 0.0007315081 -0.0018801623    1.3475986 0.00031244678 -0.0018801623    1.3494788      357 
 6416000 0.00072860655 -0.0031128412    1.3639897 0.00031112926 -0.0031128412    1.3671025      351 
 6417000 0.00071556123 -0.0016493352    1.3295978 0.00030550837 -0.0016493352    1.3312471      354 
 6418000 0.00073845415 -0.0041975559    1.3657701 0.00031539749 -0.0041975559    1.3699677      355 
 6419000 0.00074447567 -6.2174178e-05     1.408858 0.00031913507 -6.2174178e-05    1.4089202      348 
 6420000 0.0007158909 -0.0074824806    1.3551724 0.00030700644 -0.0074824806    1.3626549      346 
 6421000 0.00077490375 -0.0031195766    1.4550057 0.00033063149 -0.0031195766    1.4581253      350 
 6422000 0.00073616626 -0.0012334232    1.3800536 0.00031476799 -0.0012334232     1.381287      351 
 6423000 0.00074936593 -0.00028996634    1.3821327 0.00032104578 -0.00028996634    1.3824227      357 
 6424000 0.00071765279 -0.0022765216    1.3519898 0.00030642142 -0.0022765216    1.3542663      349 
 6425000 0.00072517924 -0.00055027808    1.3878096 0.00031049033 -0.00055027808    1.3883599      344 
 6426000 0.00077909912 -0.0019394269    1.4767548 0.00033278237 -0.0019394269    1.4786942      347 
 6427000 0.00077491973 -0.0011262021    1.4738865 0.00033141693 -0.0011262021    1.4750127      346 
 6428000 0.00072721062 -0.00038307654    1.3959249 0.00031149539 -0.00038307654     1.396308      343 
 6429000 0.00071438121 -5.095756e-05    1.3558116 0.00030620727 -5.095756e-05    1.3558626      347 
 6430000 0.00072145884 -0.0040687417      1.38932 0.00030729285 -0.0040687417    1.3933888      341 
 6431000 0.00076370945 -0.0011145037    1.4157064 0.00032666035 -0.0011145037    1.4168209      355 
 6432000 0.00072033339            0    1.4161324 0.00030885701            0    1.4161324      335 
 6433000 0.00075068046 -0.00079459981    1.4322218 0.00032129879 -0.00079459981    1.4330164      345 
 6434000 0.00076095735 -0.00078806526    1.4560692 0.00032570663 -0.00078806526    1.4568573      344 
 6435000 0.00073150564 -0.00017678214     1.404378 0.00031346758 -0.00017678214    1.4045548      343 
 6436000 0.00075653319 -0.00045000646     1.464977 0.00032399572 -0.00045000646     1.465427      340 
 6437000 0.00077916234 -0.0024841551    1.4636545 0.00033320705 -0.0024841551    1.4661387      350 
 6438000 0.00074511144 -0.0035300765    1.4925765 0.00031816176 -0.0035300765    1.4961065      328 
 6439000 0.00077713955 -0.0028589034    1.4763791 0.00033690482 -0.0028589034     1.479238      346 
 6440000 0.00079087903 -0.0020118253    1.4861739 0.00033775311 -0.0020118253    1.4881858      350 
 6441000 0.00081649206 -0.0055883313    1.4922766 0.00034940082 -0.0055883313    1.4978649      359 
 6442000 0.0008305278 -0.0017045629    1.5219091 0.00035471243 -0.0017045629    1.5236137      359 
 6443000 0.00082630329 -5.6755314e-05     1.545952 0.00035422344 -5.6755314e-05    1.5460088      352 
 6444000 0.00089513926 -0.0034673775    1.6478765 0.00038208965 -0.0034673775    1.6513439      357 
 6445000 0.00085423998 -0.0032454396    1.5995862 0.00036494855 -0.0032454396    1.6028317      351 
 6446000 0.00085110811 -0.0016738963    1.5772875 0.00036374111 -0.0016738963    1.5789614      355 
 6447000 0.00088324601 -0.0069787639    1.6270015 0.0003798609 -0.0069787639    1.6339803      356 
 6448000 0.00087736507 -0.0058072377    1.5948129 0.00037580549 -0.0058072377    1.6006201      361 
 6449000 0.0008085066 -0.0019398472    1.5459507 0.00034556216 -0.0019398472    1.5478906      344 
 6450000 0.00083415462 -0.0011121028    1.5420505 0.00035683048 -0.0011121028    1.5431626      356 
 6451000 0.00080923591 -0.00075485897    1.4714956 0.00034633133 -0.00075485897    1.4722505      362 
 6452000 0.00076646845 -0.0014281151     1.424528 0.00032759731 -0.0014281151    1.4259561      354 
 6453000 0.00082200409 -0.0014244003     1.473681 0.00035132072 -0.0014244003    1.4751054      367 
 6454000 0.00077825934 -0.0030157154    1.4531031 0.00033224158 -0.0030157154    1.4561188      352 
 6455000 0.00080599692 -0.00055559741    1.5204229 0.00034516334 -0.00055559741    1.5209785      349 
 6456000 0.00076409823 -0.0044862132    1.4887703 0.00032564729 -0.0044862132    1.4932565      337 
 6457000 0.00079746017 -0.0018802631    1.4733987 0.00034692414 -0.0018802631    1.4752789      356 
 6458000 0.00080984073 -0.0057234049    1.4475545 0.00034467345 -0.0057234049    1.4532779      367 
 6459000 0.00082164443 -0.00085434191    1.5106731 0.0003515651 -0.00085434191    1.5115274      358 
 6460000 0.00080031004 -0.0039636998    1.4642151 0.0003418054 -0.0039636998    1.4681788      359 
 6461000 0.00082173692 -0.00028500425    1.4947087 0.00035204337 -0.00028500425    1.4949937      362 
 6462000 0.00083159658 -0.0031345175    1.5483703 0.00035462728 -0.0031345175    1.5515048      353 
 6463000 0.00080457218 -0.0051820989    1.5174708 0.00034194684 -0.0051820989    1.5226529      348 
 6464000 0.00082765074 -0.00088355573    1.5259582 0.00036117012 -0.00088355573    1.5268417      357 
 6465000 0.00080000688 -0.0024912634    1.5071836 0.00034131011 -0.0024912634    1.5096749      349 
 6466000 0.00078125538 -0.0031958638    1.4881867 0.00033386057 -0.0031958638    1.4913825      345 
 6467000 0.00076722462 -0.0015056554    1.4978607 0.00032790627 -0.0015056554    1.4993664      337 
 6468000 0.00083161186 -0.001690265    1.4745665 0.00035528101 -0.001690265    1.4762568      371 
 6469000 0.00082413787 -0.0014688877    1.5317768 0.00035225295 -0.0014688877    1.5332456      354 
 6470000 0.00082094611 -0.0071673283    1.5288182 0.00034886493 -0.0071673283    1.5359855      352 
 6471000 0.00083234129 -0.0063264451    1.4914103 0.00035782095 -0.0063264451    1.4977367      366 
 6472000 0.00084933457 -0.0034071008    1.5417953 0.00036707758 -0.0034071008    1.5452024      362 
 6473000 0.00084279213 -0.0018884684    1.5356585 0.00036504918 -0.0018884684     1.537547      361 
 6474000 0.00082589031 -0.0024206464    1.5340853 0.0003524474 -0.0024206464    1.5365059      354 
 6475000 0.00083902272 -0.0012782563    1.5552625 0.00035889311 -0.0012782563    1.5565408      355 
 6476000 0.00081730574 -0.0050776868    1.5461309 0.00034964905 -0.0050776868    1.5512086      347 
 6477000 0.00081111975 -0.0053687728    1.5079325 0.0003467423 -0.0053687728    1.5133013      353 
 6478000 0.00079838441 -0.0034148523    1.4988937 0.00034004397 -0.0034148523    1.5023085      350 
 6479000 0.00086002346 -0.00068130882    1.5683017 0.00036819644 -0.00068130882     1.568983      361 
 6480000 0.00082544874 -0.0066491244    1.5290353 0.00035191662 -0.0066491244    1.5356844      354 
 6481000 0.00083801939 -0.0015515553    1.5064025 0.00035816605 -0.0015515553    1.5079541      366 
 6482000 0.0008350703 -0.0031652471    1.5416914 0.00035604944 -0.0031652471    1.5448566      356 
 6483000 0.00083892067 -0.0043541763    1.4970175 0.00035671383 -0.0043541763    1.5013716      368 
 6484000 0.00080121503 -0.0031961996    1.5131032 0.00034150142 -0.0031961996    1.5162994      348 
 6485000 0.00084277112 -0.0039483386    1.5507873 0.00035906142 -0.0039483386    1.5547357      357 
 6486000 0.00080466776 -0.0046471144    1.4633477 0.00034249678 -0.0046471144    1.4679949      361 
 6487000 0.00079163949 -0.0015627444      1.48381 0.00033842658 -0.0015627444    1.4853728      351 
 6488000 0.00079621413 -0.0015345151    1.4797612 0.00034023932 -0.0015345151    1.4812957      354 
 6489000 0.00082222992 -0.0023340013    1.5582205 0.00035576962 -0.0023340013    1.5605545      347 
 6490000 0.00085200248 -0.0030786404    1.5342373 0.00036450765 -0.0030786404    1.5373159      365 
 6491000 0.00081466028 -7.2267752e-06    1.5329274 0.00034926487 -7.2267752e-06    1.5329346      350 
 6492000 0.00082392155 -0.0025678825    1.5567037 0.00035217778 -0.0025678825    1.5592715      348 
 6493000 0.00084159338 -0.00099111171    1.5647292 0.0003600627 -0.00099111171    1.5657203      354 
 6494000 0.00084382738 -0.0023879185     1.549948  0.000360197 -0.0023879185     1.552336      358 
 6495000 0.00081993765 -0.00051707203    1.5556868 0.00035109497 -0.00051707203    1.5562038      347 
 6496000 0.00085312313 -0.0025517107    1.6027579 0.0003648505 -0.0025517107    1.6053096      350 
 6497000 0.00088348027 -0.0010116318     1.638006 0.00037802325 -0.0010116318    1.6390177      355 
 6498000 0.00090236717 -0.00085978455    1.6499458 0.00038621844 -0.00085978455    1.6508055      360 
 6499000 0.00085889175 -0.0020394482    1.6328089 0.00036679625 -0.0020394482    1.6348483      346 
 6500000 0.00082493651 -0.0058734282     1.559818 0.00035537132 -0.0058734282    1.5656915      347 
 6501000 0.00085460843 -0.00086181253    1.5625731 0.00036565086 -0.00086181253    1.5634349      360 
 6502000 0.00086359094 -0.0020645739    1.5647463 0.00036868804 -0.0020645739    1.5668109      363 
 6503000 0.00084456887 -0.0014206738    1.5566315 0.00036125369 -0.0014206738    1.5580521      357 
 6504000 0.00077809847 -0.0045868225    1.5070588 0.00033227522 -0.0045868225    1.5116456      339 
 6505000 0.00082809777 -0.0031314206    1.5118044 0.00036272759 -0.0031314206    1.5149359      360 
 6506000 0.00080759015 -0.0041492865    1.5025668 0.0003440549 -0.0041492865    1.5067161      353 
 6507000 0.00082642313 -0.00097468959    1.5108976 0.00035353761 -0.00097468959    1.5118723      360 
 6508000 0.00087016787 -0.010999412    1.6310747  0.000372146 -0.010999412    1.6420741      349 
 6509000 0.00083825716            0    1.5728427 0.00035941913            0    1.5728427      351 
 6510000 0.00078715291 -0.0070325757    1.4783859 0.00033377267 -0.0070325757    1.4854184      349 
 6511000 0.00081152709 -0.0091247323    1.5222897 0.00034815973 -0.0091247323    1.5314144      349 
 6512000 0.00079303646 -0.00080712955    1.5263446 0.00033946443 -0.00080712955    1.5271517      342 
 6513000 0.00081759989 -0.0025686385    1.5315143 0.0003488411 -0.0025686385    1.5340829      351 
 6514000 0.00084474949 -0.0019525491    1.5564328 0.00036697403 -0.0019525491    1.5583853      357 
 6515000 0.00077538627 -0.0030005113    1.4989455 0.0003333888 -0.0030005113     1.501946      340 
 6516000 0.00079637194 -2.2587035e-05    1.5425733 0.00034134996 -2.2587035e-05    1.5425959      340 
 6517000 0.00078734844 -0.0042616395    1.5344321 0.00033742572 -0.0042616395    1.5386938      337 
 6518000 0.00079529787 -0.0029821613     1.551247 0.0003394282 -0.0029821613    1.5542291      337 
 6519000 0.00084314019 -0.00081147787    1.5502603 0.00036081312 -0.00081147787    1.5510718      358 
 6520000 0.00086741334 -0.0042829221    1.6004074 0.00036993234 -0.0042829221    1.6046903      356 
 6521000 0.00084992098 -0.0029528849    1.5649728 0.00036551202 -0.0029528849    1.5679257      357 
 6522000 0.00084799208 -0.0039089155    1.5648526 0.00036171351 -0.0039089155    1.5687615      356 
 6523000 0.00088577998 -0.00039183681    1.5552504 0.00037942236 -0.00039183681    1.5556422      375 
 6524000 0.00088777266 -0.00095735935    1.6231487 0.00037989331 -0.00095735935    1.6241061      360 
 6525000 0.00092159855 -0.0042141492    1.5601044 0.00039997011 -0.0042141492    1.5643185      388 
 6526000 0.00085058551 -0.001032212    1.5593776 0.00036394268 -0.001032212    1.5604098      359 
 6527000 0.00084085293 -0.0052185768    1.5245531 0.00036075365 -0.0052185768    1.5297716      362 
 6528000 0.00083265968 -0.0012303235    1.5053118 0.00035609358 -0.0012303235    1.5065421      364 
 6529000 0.00078761412 -0.0049021418    1.4399858 0.00033626037 -0.0049021418     1.444888      359 
 6530000 0.00082100256 -0.0069783126    1.4465273 0.00035049579 -0.0069783126    1.4535056      372 
 6531000 0.00082954279 -0.0021293922    1.4625585 0.0003541665 -0.0021293922    1.4646879      373 
 6532000 0.00078844526 -0.0038448199    1.4187912 0.00033940518 -0.0038448199    1.4226361      365 
 6533000 0.00080935594 -0.00045320032    1.4843204 0.00034659539 -0.00045320032    1.4847736      359 
 6534000 0.00083647265 -0.00037653452    1.5172337 0.00035836756 -0.00037653452    1.5176103      363 
 6535000 0.00081403772 -0.0043457805    1.4725608 0.00034676237 -0.0043457805    1.4769066      363 
 6536000 0.00081928089 -0.0037512514     1.482668 0.0003502349 -0.0037512514    1.4864193      363 
 6537000 0.00080826152 -0.0043662817    1.4540254 0.00034639617 -0.0043662817    1.4583917      365 
 6538000 0.00083850874 -0.00053217448    1.4919907 0.00035902754 -0.00053217448    1.4925229      370 
 6539000 0.00085886193 -0.0016866275    1.5188453 0.00036717318 -0.0016866275    1.5205319      372 
 6540000 0.00086684074 -0.00050952918    1.5635799 0.00037119298 -0.00050952918    1.5640894      365 
 6541000 0.00084829671 -0.0033353948    1.5357272 0.00036200971 -0.0033353948    1.5390626      363 
 6542000 0.00086596995 -0.0015751421    1.5112077 0.00037012329 -0.0015751421    1.5127829      377 
 6543000 0.00090572788 -0.002218842    1.5675267 0.00038676334 -0.002218842    1.5697456      380 
 6544000 0.00086703804 -0.00073539965     1.538409 0.00037112323 -0.00073539965    1.5391444      371 
 6545000 0.00088547123 -0.00018669992    1.5716799 0.00037943549 -0.00018669992    1.5718666      371 
 6546000 0.00088975755 -0.00030304114    1.5581688 0.00038119003 -0.00030304114    1.5584719      376 
 6547000 0.0008738654 -0.0038189265    1.5107048 0.00037301395 -0.0038189265    1.5145237      380 
 6548000 0.00085991343 -0.00046057041    1.5057373 0.00036818674 -0.00046057041    1.5061978      376 
 6549000 0.00082908647 -0.0031135046    1.5136311 0.00035737455 -0.0031135046    1.5167446      360 
 6550000 0.00085492867 -0.0015945751    1.5580937 0.00036520509 -0.0015945751    1.5596883      361 
 6551000 0.00081343079 -0.0011153762    1.4706357 0.00034788976 -0.0011153762    1.4717511      364 
 6552000 0.00079451113  -0.00594477    1.4721826 0.00033988483  -0.00594477    1.4781274      354 
 6553000 0.00082486547 -0.0014924312    1.5202111 0.00035278231 -0.0014924312    1.5217035      357 
 6554000 0.0008341104 -0.0027377162    1.5189708 0.00035814853 -0.0027377162    1.5217085      361 
 6555000 0.0008459995 -0.0046023245    1.5094379 0.00036682968 -0.0046023245    1.5140402      368 
 6556000 0.00084214889 -0.0049068312    1.5230018 0.00035960475 -0.0049068312    1.5279087      363 
 6557000 0.00088675624 -0.00054118034    1.5693749 0.00037981503 -0.00054118034    1.5699161      372 
 6558000 0.00085704123 -0.004485776    1.5293153 0.00036438268 -0.004485776     1.533801      368 
 6559000 0.00083775732 -0.0013517921      1.52701 0.00035811326 -0.0013517921    1.5283618      361 
 6560000 0.00085298943 -0.0014458594    1.5376509 0.00036470853 -0.0014458594    1.5390967      365 
 6561000 0.0008694451 -0.0020649784    1.5455238 0.00037125027 -0.0020649784    1.5475888      370 
 6562000 0.00082728403 -0.0021596588    1.5029259 0.00035335178 -0.0021596588    1.5050856      362 
 6563000 0.00083495941 -0.00026231138    1.5400624 0.00035773107 -0.00026231138    1.5403247      357 
 6564000 0.00081683436 -0.0016332648    1.4722268 0.00034931577 -0.0016332648    1.4738601      365 
 6565000 0.00080950198 -1.4823675e-05    1.4933463 0.00034704781 -1.4823675e-05    1.4933611      357 
 6566000 0.00083899408 -0.00015325231    1.4852046 0.00035956216 -0.00015325231    1.4853578      372 
 6567000 0.00081262952  -0.00220268    1.5053739 0.00035099832  -0.00220268    1.5075766      355 
 6568000 0.00080740937 -0.00014703386    1.5019765 0.00034606137 -0.00014703386    1.5021235      354 
 6569000 0.00084090265 -0.0021701706    1.5622651 0.00035901037 -0.0021701706    1.5644353      354 
 6570000 0.00083543176 -0.0036651098    1.5078926 0.00035591902 -0.0036651098    1.5115577      364 
 6571000 0.00081739823 -0.0086883466    1.4784119 0.00034789362 -0.0086883466    1.4871003      362 
 6572000 0.0008151936 -0.0033286966    1.5005322 0.00034911526 -0.0033286966    1.5038609      357 
 6573000 0.00080741558 -0.0014569445    1.4838945 0.00034526583 -0.0014569445    1.4853515      358 
 6574000 0.00081037631 -0.0026991538    1.5092151 0.00034681361 -0.0026991538    1.5119143      353 
 6575000 0.00082810179 -0.0012140575    1.4688117 0.00035415493 -0.0012140575    1.4700258      371 
 6576000 0.00085350733 -0.0028963036    1.5245803 0.00036391143 -0.0028963036    1.5274766      368 
 6577000 0.00087042482 -0.0030261495    1.5718449 0.00037108079 -0.0030261495    1.5748711      364 
 6578000 0.00087199111 -0.00085626874    1.5768488 0.00037324336 -0.00085626874     1.577705      364 
 6579000 0.00088378931 -0.00099825766    1.5594704 0.0003781776 -0.00099825766    1.5604686      373 
 6580000 0.00094602418 -0.0033119244    1.6715323 0.00040346284 -0.0033119244    1.6748443      372 
 6581000 0.00095663458 -0.00055991748    1.6976341 0.00040962311 -0.00055991748     1.698194      371 
 6582000 0.00096638853 -0.0021606097    1.6815797 0.00041302244 -0.0021606097    1.6837403      378 
 6583000 0.0009277864 -0.00075630849    1.6462271 0.0003971219 -0.00075630849    1.6469834      371 
 6584000 0.00095796735 -0.0026672343    1.7164274 0.00040900743 -0.0026672343    1.7190946      367 
 6585000 0.00099087254 -0.00072019333    1.6811838 0.00043204227 -0.00072019333     1.681904      388 
 6586000 0.00091395959 -0.0014425679    1.6752278 0.00039072314 -0.0014425679    1.6766703      359 
 6587000 0.00094142335 -0.00014128811    1.6444529 0.0004034558 -0.00014128811    1.6445942      377 
 6588000 0.00092483173 -0.0051969799    1.6454397 0.00039710558 -0.0051969799    1.6506367      369 
 6589000 0.00091587136 -0.0025185797    1.6455244 0.00039391119 -0.0025185797    1.6480429      366 
 6590000 0.00092661768 -0.008218389    1.6019693 0.00039416871 -0.008218389    1.6101877      379 
 6591000 0.00092887505 -0.005014099    1.6306753 0.00039614887 -0.005014099    1.6356894      374 
 6592000 0.00092995927 -0.00038602422    1.6416029 0.00039840311 -0.00038602422    1.6419889      373 
 6593000 0.00098217333 -0.0059330222    1.6612049 0.00041956451 -0.0059330222     1.667138      388 
 6594000 0.00090954139 -0.0003537672    1.6498249 0.00038967949 -0.0003537672    1.6501787      363 
 6595000 0.00092148259 -0.0031416828    1.6459866 0.00039434783 -0.0031416828    1.6491283      368 
 6596000 0.00087804048 -0.0015295062    1.6047724 0.00037541832 -0.0015295062    1.6063019      360 
 6597000 0.00085410998 -0.00050249642    1.5576922 0.00036564748 -0.00050249642    1.5581947      361 
 6598000 0.00089189143 -0.0022598116    1.5767476 0.00038904352 -0.0022598116    1.5790075      372 
 6599000 0.00086819181            0     1.520698 0.0003722542            0     1.520698      376 
 6600000 0.00084487563 -0.00047788359    1.5323779 0.00036180167 -0.00047788359    1.5328558      363 
 6601000 0.00082533892 -0.0013287703    1.4878766 0.00035288499 -0.0013287703    1.4892054      365 
 6602000 0.00084632203 -0.0037422363    1.5150023 0.0003625823 -0.0037422363    1.5187445      367 
 6603000 0.00086672627 -0.0032545544    1.5563554 0.00037000021 -0.0032545544      1.55961      366 
 6604000 0.00086583705 -0.00038377568    1.5491587 0.00037084797 -0.00038377568    1.5495424      368 
 6605000 0.0008487563 -0.00081433675     1.497798 0.00036323303 -0.00081433675    1.4986124      373 
 6606000 0.0008033814 -0.00091262627    1.4447129 0.00034381002 -0.00091262627    1.4456256      366 
 6607000 0.00080867409 -0.0011968776    1.4823259 0.00034573878 -0.0011968776    1.4835228      359 
 6608000 0.0007745868 -9.7911009e-05    1.4328659 0.00033195672 -9.7911009e-05    1.4329638      356 
 6609000 0.00080404254 -0.00045835838    1.4503207 0.0003443762 -0.00045835838    1.4507791      365 
 6610000 0.0008296493 -0.00069701439    1.4840821 0.00035516251 -0.00069701439    1.4847792      368 
 6611000 0.00081396251 -0.00086387863    1.5007259 0.00034827314 -0.00086387863    1.5015898      357 
 6612000 0.00076711803 -0.00011625287    1.4150554 0.00032877344 -0.00011625287    1.4151716      357 
 6613000 0.00080282442 -0.00037130962    1.4561911 0.00034384387 -0.00037130962    1.4565624      363 
 6614000 0.00087113769 -0.0045576427    1.5544711 0.00037600179 -0.0045576427    1.5590287      368 
 6615000 0.00085120131 -0.00010714924    1.5570947 0.00036479953 -0.00010714924    1.5572019      360 
 6616000 0.00081256526 -0.0010533582    1.4896078 0.00034751269 -0.0010533582    1.4906612      359 
 6617000 0.00081222039 -0.0026320439    1.4915585 0.00035285896 -0.0026320439    1.4941906      358 
 6618000 0.00083210668 -0.006236863    1.4669275 0.00035354549 -0.006236863    1.4731643      372 
 6619000 0.00080893642 -0.0020076149    1.4496475 0.00034570761 -0.0020076149    1.4516551      367 
 6620000 0.00082224215 -0.00094422621    1.4547559 0.00035174027 -0.00094422621    1.4557002      372 
 6621000 0.00079966485 -0.00023038104    1.4347867 0.00034268015 -0.00023038104    1.4350171      367 
 6622000 0.00082852401 -0.0030199759    1.4919324 0.00035460519 -0.0030199759    1.4949524      365 
 6623000 0.0008000125 -0.004184832    1.4393227 0.00034026633 -0.004184832    1.4435075      365 
 6624000 0.0008036476 -0.0051059772     1.425365 0.0003478947 -0.0051059772     1.430471      370 
 6625000 0.00077975108 -0.0013315133    1.3866043 0.0003333019 -0.0013315133    1.3879358      370 
 6626000 0.00075668143 -0.00087661875    1.3872649 0.00032367692 -0.00087661875    1.3881416      359 
 6627000 0.00077847473 -9.7771418e-05    1.3968932 0.00033368566 -9.7771418e-05    1.3969909      367 
 6628000 0.00083846542 -0.00018708886    1.4762967 0.0003593437 -0.00018708886    1.4764838      374 
 6629000 0.00083940405 -0.0087170009    1.4384639 0.00036673589 -0.0087170009    1.4471809      382 
 6630000 0.00080003508 -4.0382615e-06    1.4240368 0.0003429643 -4.0382615e-06    1.4240408      370 
 6631000 0.00085730527 -0.0010116247    1.4966347 0.00038874755 -0.0010116247    1.4976464      377 
 6632000 0.00082937597 -0.0030724721    1.4613209 0.00035402918 -0.0030724721    1.4643934      373 
 6633000 0.00087423252 -2.0251558e-05    1.4993568 0.00037476575 -2.0251558e-05    1.4993771      384 
 6634000 0.00086106757 -0.0022272924    1.5181226 0.00037192773 -0.0022272924    1.5203498      373 
 6635000 0.00083743033 -0.0029376294    1.4522688 0.00035803121 -0.0029376294    1.4552064      379 
 6636000 0.00078493843 -0.0049794662    1.3772467 0.00033891444 -0.0049794662    1.3822262      374 
 6637000 0.00080478677 -0.00067823734    1.3831978 0.00034449067 -0.00067823734     1.383876      383 
 6638000 0.00081904803 -0.0015955756    1.4104904 0.00035001994 -0.0015955756     1.412086      382 
 6639000 0.00078913258 -0.0022181748    1.4062231 0.00033697383 -0.0022181748    1.4084413      369 
 6640000 0.00083438232 -0.00062327992    1.4531224 0.00035712203 -0.00062327992    1.4537456      378 
 6641000 0.00084315476 -0.0032746471    1.4428016 0.00036160812 -0.0032746471    1.4460763      384 
 6642000 0.00090861506 -3.4940078e-05    1.5110883 0.00038952801 -3.4940078e-05    1.5111232      396 
 6643000 0.0008261179 -0.0027837829    1.4797039 0.00035280268 -0.0027837829    1.4824877      367 
 6644000 0.00084792485 -0.0047039223    1.4648614 0.00036152372 -0.0047039223    1.4695653      380 
 6645000 0.00088210102 -0.0010680822    1.5648158 0.00037731474 -0.0010680822    1.5658839      371 
 6646000 0.00089736178 -0.0021744936    1.5530716 0.00038330701 -0.0021744936     1.555246      380 
 6647000 0.00085051875 -0.00016903299    1.4623457 0.00036439378 -0.00016903299    1.4625147      383 
 6648000 0.00085488779 -0.00072581373    1.4848165 0.00036594114 -0.00072581373    1.4855423      379 
 6649000 0.00087451361 -0.0040333631    1.4997419 0.00038155926 -0.0040333631    1.5037752      383 
 6650000 0.00087253224 -0.00046781959    1.4921062 0.00037375255 -0.00046781959     1.492574      385 
 6651000 0.00082912618 -0.00010463099    1.4837383 0.00035536643 -0.00010463099     1.483843      368 
 6652000 0.00090063739 -0.0059296308     1.484399 0.00038201924 -0.0059296308    1.4903286      398 
 6653000 0.00086493659 -0.00058121519    1.4525784 0.00037023458 -0.00058121519    1.4531597      392 
 6654000 0.00086934967 -0.00026574374    1.4753657 0.00037236202 -0.00026574374    1.4756314      388 
 6655000 0.0008627263 -0.0033601477    1.4686163 0.00036770419 -0.0033601477    1.4719765      386 
 6656000 0.00084727208 -0.0002158324     1.452922 0.0003629989 -0.0002158324    1.4531378      384 
 6657000 0.00082747363 -0.00014431478    1.4302123 0.00035462659 -0.00014431478    1.4303566      381 
 6658000 0.00087238428 -0.0023663162    1.4899546 0.00037586931 -0.0023663162     1.492321      385 
 6659000 0.00082863363 -0.0016875435    1.4306742 0.0003541399 -0.0016875435    1.4323617      381 
 6660000 0.00082874009 -0.0045782329    1.3842257 0.0003554185 -0.0045782329    1.3888039      393 
 6661000 0.00087754518 -0.00037588259    1.4517409 0.00037581984 -0.00037588259    1.4521168      398 
 6662000 0.0008033675 -0.0033943005    1.4265781 0.00034657531 -0.0033943005    1.4299724      370 
 6663000 0.0008376542 -0.00098210994    1.4356603 0.0003582501 -0.00098210994    1.4366424      384 
 6664000 0.00082447191 -0.0085032245    1.4394673 0.00035287797 -0.0085032245    1.4479705      375 
 6665000 0.00083073536 -0.0027002202    1.4640934 0.00035748698 -0.0027002202    1.4667936      373 
 6666000 0.00084104526 -0.0029817326     1.490021 0.00035847845 -0.0029817326    1.4930027      371 
 6667000 0.00083063531 -0.0013101513    1.4732131 0.00035511089 -0.0013101513    1.4745232      371 
 6668000 0.00084812715 -0.0005831821    1.4929143 0.00036304635 -0.0005831821    1.4934975      374 
 6669000 0.00083083797 -0.0042120585    1.4510581 0.00035477176 -0.0042120585    1.4552702      376 
 6670000 0.00083854862 -0.00057213564    1.4565776 0.00035900442 -0.00057213564    1.4571497      379 
 6671000 0.00087952155 -0.003651743    1.4517354 0.00037534312 -0.003651743    1.4553872      398 
 6672000 0.00088640518 -0.0067957368    1.5016735 0.00037741714 -0.0067957368    1.5084692      387 
 6673000 0.00082466695 -0.005862402    1.3761157 0.00035108021 -0.005862402    1.3819781      393 
 6674000 0.0008167202 -0.0067095102    1.3795888 0.00034669014 -0.0067095102    1.3862983      388 
 6675000 0.0008030023 -2.3593587e-05    1.4102412 0.00034425408 -2.3593587e-05    1.4102648      375 
 6676000 0.00085464681 -0.0017804524    1.4340916 0.00036526291 -0.0017804524    1.4358721      392 
 6677000 0.00082857242 -0.0042688349    1.3565529 0.00035224595 -0.0042688349    1.3608217      401 
 6678000 0.00084227414 -0.0015256189    1.3852577 0.00036621623 -0.0015256189    1.3867833      400 
 6679000 0.00082520443 -0.0020418736    1.4169435 0.00035222625 -0.0020418736    1.4189853      383 
 6680000 0.00083833466 -0.0019412372    1.3958279 0.00035786443 -0.0019412372    1.3977692      395 
 6681000 0.00088936316 -0.0014832383    1.4555458 0.00038006866 -0.0014832383    1.4570291      402 
 6682000 0.00084414218 -0.0041350029    1.3927082 0.00037115396 -0.0041350029    1.3968432      398 
 6683000 0.00087176662 -0.005875702     1.411746 0.00037048396 -0.005875702    1.4176217      405 
 6684000 0.0008425715 -0.0031944866    1.3910496 0.00036112933 -0.0031944866    1.3942441      398 
 6685000 0.00086861828 -0.00038518367    1.4442191 0.00037205096 -0.00038518367    1.4446043      396 
 6686000 0.00083563581 -0.0027177617    1.3905516 0.0003641582 -0.0027177617    1.3932693      395 
 6687000 0.00089345686 -0.0004060248    1.4817646 0.00038262299 -0.0004060248    1.4821707      397 
 6688000 0.00086271201 -0.0029174688    1.4465047 0.00036792756 -0.0029174688    1.4494222      392 
 6689000 0.00087573375  -0.00375145    1.4381223 0.00037316399  -0.00375145    1.4418737      400 
 6690000 0.00088605485 -0.0021778195    1.4603456 0.00037877508 -0.0021778195    1.4625235      399 
 6691000 0.0008704507 -0.0051572057    1.4723431 0.00037086462 -0.0051572057    1.4775003      388 
 6692000  0.000872249 -0.0024269085    1.4445617 0.00037713115 -0.0024269085    1.4469886      397 
 6693000 0.00084989447 -0.00075162433    1.4530977 0.00036380803 -0.00075162433    1.4538493      385 
 6694000 0.00085690945 -0.00059844167    1.4281408 0.00036685233 -0.00059844167    1.4287392      395 
 6695000 0.00086557995 -0.00091303038    1.4683197 0.00037041936 -0.00091303038    1.4692327      388 
 6696000 0.00085994588 -0.00095668611    1.4220377 0.00036785281 -0.00095668611    1.4229944      398 
 6697000 0.00088569441 -0.0049921406    1.4717407 0.00037830448 -0.0049921406    1.4767329      395 
 6698000 0.00086361905 -0.0058731118    1.4869638 0.00036798118 -0.0058731118    1.4928369      381 
 6699000 0.0009034677 -0.0029592498    1.4735043 0.00038798565 -0.0029592498    1.4764635      403 
 6700000 0.00090196859 -0.0040709408      1.49222 0.00038740353 -0.0040709408    1.4962909      397 
 6701000 0.00086859636 -0.0024676577    1.4240881 0.00037207092 -0.0024676577    1.4265558      401 
 6702000 0.00090562209 -0.0061255093    1.4849586 0.00038505098 -0.0061255093    1.4910841      400 
 6703000 0.00088849512 -0.0043373614    1.4696022 0.00038114963 -0.0043373614    1.4739395      397 
 6704000 0.00090384256 -0.0034700253    1.4519375 0.00038895239 -0.0034700253    1.4554075      409 
 6705000 0.0009133712 -0.0042890055    1.4846643 0.00038941093 -0.0042890055    1.4889533      404 
 6706000 0.00089922289 -0.0056015453    1.4823864 0.00038213503 -0.0056015453     1.487988      398 
 6707000 0.00096993086 -0.0057914959    1.5260713 0.00041406454 -0.0057914959    1.5318628      417 
 6708000 0.0008895657 -0.0025062471    1.4732093 0.00037970027 -0.0025062471    1.4757156      397 
 6709000 0.00089520591 -0.0091187136    1.4948957 0.00038331666 -0.0091187136    1.5040144      392 
 6710000 0.00088194395 -0.0083262735    1.4696367 0.0003737492 -0.0083262735     1.477963      393 
 6711000 0.00091674838 -0.0085758473    1.4858828 0.00038985594 -0.0085758473    1.4944587      404 
 6712000 0.00090794757 -0.0041959976    1.4686247 0.00039068823 -0.0041959976    1.4728207      406 
 6713000 0.00091344068 -0.0036438967    1.5193508 0.00038940393 -0.0036438967    1.5229947      395 
 6714000 0.00098634254 -0.0073985428    1.5466573 0.00041950349 -0.0073985428    1.5540558      418 
 6715000 0.00090842422 -0.011482607     1.503148 0.00038622616 -0.011482607    1.5146306      395 
 6716000 0.00092335143 -0.0074189224    1.5204957 0.00039147172 -0.0074189224    1.5279146      398 
 6717000 0.00089701538 -0.011402555    1.4995063 0.00038042514 -0.011402555    1.5109088      391 
 6718000 0.00090804638 -0.0079803244    1.4577801 0.0003865889 -0.0079803244    1.4657605      408 
 6719000 0.00093169958 -0.0069404744     1.500696 0.00039593326 -0.0069404744    1.5076364      407 
 6720000 0.00088819351 -0.0075810406    1.4511605 0.00037871072 -0.0075810406    1.4587416      401 
 6721000 0.00085931876 -0.0027165931      1.41924 0.00037484634 -0.0027165931    1.4219566      398 
 6722000 0.0008662714 -0.0057941652    1.4422203 0.00036882324 -0.0057941652    1.4480144      394 
 6723000 0.00087855377 -0.0059935485    1.4086928 0.00037382302 -0.0059935485    1.4146864      409 
 6724000 0.00084046674 -0.0089740709    1.4250233 0.00035521935 -0.0089740709    1.4339974      386 
 6725000 0.00088751981 -0.0046601398    1.4350238 0.00038333876 -0.0046601398    1.4396839      406 
 6726000 0.00090261522  -0.00406793    1.4783594 0.00038492317  -0.00406793    1.4824273      401 
 6727000 0.00085359566 -0.0094123879    1.4174139 0.00036332448 -0.0094123879    1.4268263      394 
 6728000 0.00083175154 -0.0069040285    1.4049085 0.00035406196 -0.0069040285    1.4118125      388 
 6729000 0.00080972443 -0.0058911419     1.375654 0.00034481147 -0.0058911419    1.3815451      386 
 6730000 0.00082878759 -0.010333602    1.4148132 0.00035228459 -0.010333602    1.4251468      383 
 6731000 0.00083300487 -0.0079508489    1.3987381 0.00036172938 -0.0079508489    1.4066889      390 
 6732000 0.00080464083 -0.0072001437    1.3656714 0.00034353389 -0.0072001437    1.3728715      386 
 6733000 0.00083073667 -0.0065878484    1.3998771 0.00035415287 -0.0065878484    1.4064649      389 
 6734000 0.00084943263 -0.0070978073    1.4163827 0.00036026287 -0.0070978073    1.4234805      393 
 6735000 0.00086738508 -0.0038973896     1.442308 0.00037177827 -0.0038973896    1.4462054      395 
 6736000 0.00085041298 -0.0047710747    1.4387173 0.00036179382 -0.0047710747    1.4434884      388 
 6737000 0.00082728561 -0.0058862823    1.3983458 0.00035185714 -0.0058862823     1.404232      388 
 6738000 0.00081208899 -0.005915631    1.4015414 0.00034728287 -0.005915631    1.4074571      380 
 6739000 0.00079953505 -0.0043917213    1.3813077 0.0003423225 -0.0043917213    1.3856994      380 
 6740000 0.00078073758 -0.0076799935    1.3209659 0.00033325939 -0.0076799935    1.3286459      387 
 6741000 0.00082549236 -0.005207269    1.4254796 0.00035072049 -0.005207269    1.4306869      380 
 6742000 0.00081196679 -0.0056901965    1.4052681 0.0003447222 -0.0056901965    1.4109583      379 
 6743000  0.000840779 -0.0079418406    1.4010369 0.0003588053 -0.0079418406    1.4089787      393 
 6744000 0.00079853391 -0.0053023196     1.393385 0.00033904069 -0.0053023196    1.3986874      376 
 6745000 0.00080411644 -0.0078813063    1.3894354 0.00034233841 -0.0078813063    1.3973167      379 
 6746000 0.00081400256 -0.0056255217    1.3904525 0.00034671699 -0.0056255217     1.396078      384 
 6747000 0.00078848882 -0.0053225619    1.3906206 0.00033479174 -0.0053225619    1.3959431      372 
 6748000 0.00079574348 -0.0077592214     1.357003 0.00034262608 -0.0077592214    1.3647622      384 
 6749000 0.0007833377 -0.005978382    1.3480856 0.00033272199 -0.005978382     1.354064      381 
 6750000 0.00079346435 -0.0042282595    1.3673405 0.00033993789 -0.0042282595    1.3715687      381 
 6751000 0.00082931135 -0.003990597    1.4295426 0.00035310918 -0.003990597    1.4335332      381 
 6752000 0.00079525379 -0.0059137389    1.4096165 0.00034139836 -0.0059137389    1.4155303      370 
 6753000 0.00078141888 -0.0068344962    1.4227062 0.00033214635 -0.0068344962    1.4295407      360 
 6754000 0.0008468076 -0.0071700811    1.4265035 0.00036232682 -0.0071700811    1.4336736      389 
 6755000 0.00081917652 -0.0088955979    1.4108451 0.0003479307 -0.0088955979    1.4197407      380 
 6756000 0.00084938719 -0.0061245745    1.4356226 0.00036302575 -0.0061245745    1.4417472      388 
 6757000 0.00085385723 -0.0082042398    1.4834187 0.00036247534 -0.0082042398    1.4916229      377 
 6758000 0.00081881984 -0.0077189221    1.4419224 0.00034955246 -0.0077189221    1.4496413      372 
 6759000 0.0008031232 -0.0070592446    1.4224783 0.00034199305 -0.0070592446    1.4295376      370 
 6760000 0.00080719195 -0.0086030771    1.4052494 0.00034179153 -0.0086030771    1.4138525      376 
 6761000 0.0008353598 -0.0071316694    1.3892125 0.00035689984 -0.0071316694    1.3963442      394 
 6762000 0.00082614256 -0.0047016107     1.446203 0.00035284435 -0.0047016107    1.4509046      375 
 6763000 0.00081177278 -0.0043841789    1.4366547 0.00034830555 -0.0043841789    1.4410389      371 
 6764000 0.00079158934 -0.0032938647    1.3943813 0.00033753622 -0.0032938647    1.3976751      373 
 6765000 0.00081629682 -0.0035243352    1.4300888 0.00035120834 -0.0035243352    1.4336131      375 
 6766000 0.00081173279 -0.0045420292    1.4022977 0.00034527001 -0.0045420292    1.4068397      380 
 6767000  0.000758781 -0.0027679922    1.3019985 0.00032564776 -0.0027679922    1.3047665      383 
 6768000 0.00083915419 -0.0019482663     1.407895 0.00035877284 -0.0019482663    1.4098433      392 
 6769000 0.00077491136 -0.002780417    1.3765409 0.00033147074 -0.002780417    1.3793213      370 
 6770000 0.0007554466 -0.0024320282    1.3386181 0.00032278004 -0.0024320282    1.3410501      371 
 6771000 0.00074299007 -0.0036886048    1.3332672 0.00031659418 -0.0036886048    1.3369558      366 
 6772000 0.00079828936 -0.0075823933      1.35799 0.00034372858 -0.0075823933    1.3655724      385 
 6773000 0.00077200487 -0.0024943203    1.3497256 0.00032966805 -0.0024943203    1.3522199      376 
 6774000 0.00078704815 -0.0027231031    1.3758461 0.00033777928 -0.0027231031    1.3785693      376 
 6775000 0.0007647573 -0.0020547517    1.3446338 0.00032667766 -0.0020547517    1.3466885      374 
 6776000 0.00078276137 -0.0051117585    1.3408904 0.00033603777 -0.0051117585    1.3460021      383 
 6777000 0.00079941247 -0.0066912018    1.3432705 0.00034067496 -0.0066912018    1.3499617      390 
 6778000 0.0007987339 -0.0049320071    1.3614009 0.00034257643 -0.0049320071    1.3663329      385 
 6779000 0.00082907322 -0.0074082307    1.3784276 0.00035348434 -0.0074082307    1.3858359      394 
 6780000 0.00077689503 -0.0065086177    1.3155981 0.00033758398 -0.0065086177    1.3221067      387 
 6781000 0.00078389082 -0.003291905    1.3588787 0.00033451145 -0.003291905    1.3621706      379 
 6782000 0.0008361646 -0.0037780044    1.3974679 0.00035738342 -0.0037780044    1.4012459      393 
 6783000 0.00082395257 -0.0060324896    1.3889467 0.00034963345 -0.0060324896    1.3949792      389 
 6784000 0.00085194054 -0.0061870187    1.4436309 0.00036597383 -0.0061870187    1.4498179      387 
 6785000 0.0008067747 -0.0030050014    1.4101167 0.00034434053 -0.0030050014    1.4131217      376 
 6786000 0.0007922043 -0.0024650174    1.3669256 0.00034085447 -0.0024650174    1.3693906      381 
 6787000 0.00078929344 -0.0030355432    1.3943321 0.00033684574 -0.0030355432    1.3973677      372 
 6788000 0.00086851466 -0.0025569494    1.4831445 0.00038306771 -0.0025569494    1.4857015      385 
 6789000 0.00079006936 -0.003149402    1.3589757 0.00033698143 -0.003149402    1.3621251      382 
 6790000 0.00081645033 -0.0034218738    1.4190808 0.00035098045 -0.0034218738    1.4225027      378 
 6791000 0.00083413383 -0.0034028183    1.4309371 0.00035593814 -0.0034028183    1.4343399      383 
 6792000 0.00080069687 -0.0043510899    1.3907043 0.00034201946 -0.0043510899    1.3950554      378 
 6793000 0.00080255573 -0.004607548    1.4474671 0.00034223313 -0.004607548    1.4520747      364 
 6794000 0.00085576138 -0.0033703637    1.4605151 0.00036538455 -0.0033703637    1.4638854      385 
 6795000 0.00086129324 -0.0024476356    1.4863689 0.00036751207 -0.0024476356    1.4888166      381 
 6796000 0.00080001903 -0.0024591896    1.3951125 0.00034138368 -0.0024591896    1.3975717      377 
 6797000 0.00085382846 -0.0012928639    1.4902798 0.00036495543 -0.0012928639    1.4915726      377 
 6798000 0.00084526095 -0.0021957596     1.466618 0.00036098248 -0.0021957596    1.4688137      379 
 6799000 0.00082941357 -0.0054705547    1.4244862 0.0003539286 -0.0054705547    1.4299568      382 
 6800000 0.0008569529 -0.00049444577    1.5085446 0.00036695546 -0.00049444577    1.5090391      374 
 6801000 0.00085801633 -0.0017718101    1.4852834 0.00036649372 -0.0017718101    1.4870552      380 
 6802000 0.0008231496 -0.0017648438    1.4555419 0.00035191203 -0.0017648438    1.4573067      372 
 6803000 0.00080237055 -0.0025885041    1.4179309 0.00034237808 -0.0025885041    1.4205194      372 
 6804000 0.00077520463 -0.0032875714    1.3654578 0.0003302232 -0.0032875714    1.3687454      373 
 6805000 0.00080616796 -0.003512457    1.4160976 0.00034627885 -0.003512457    1.4196101      374 
 6806000 0.00082090509 -0.002865348    1.4426958 0.00035021672 -0.002865348    1.4455612      374 
 6807000 0.00079544026 -0.0042745278    1.3927095 0.00034007823 -0.0042745278     1.396984      375 
 6808000 0.00080124242 -0.0029831862    1.3967257 0.00034190157 -0.0029831862    1.3997089      377 
 6809000 0.00081763913 -0.00089294688    1.4199222 0.00034996147 -0.00089294688    1.4208152      379 
 6810000 0.00081070015 -0.0051759629    1.4262423 0.00034533372 -0.0051759629    1.4314183      373 
 6811000 0.00077369065 -0.0014493016    1.3831836 0.00033069601 -0.0014493016    1.3846329      368 
 6812000 0.00079404413  -0.00368035    1.3652975 0.00033902029  -0.00368035    1.3689778      382 
 6813000 0.00078248513 -0.0028728681    1.3750332 0.0003335752 -0.0028728681    1.3779061      374 
 6814000 0.00076928187 -0.0043022236    1.3613079 0.00032872265 -0.0043022236    1.3656101      371 
 6815000 0.00078946667 -0.0018415248    1.4148747 0.00033702789 -0.0018415248    1.4167162      367 
 6816000 0.00082825639 -0.0025423406     1.448206 0.00035600501 -0.0025423406    1.4507483      376 
 6817000 0.00076972468 -0.0032456295    1.3780431 0.00032774315 -0.0032456295    1.3812888      367 
 6818000 0.00078108998 -0.0069506527    1.4062858 0.00033725507 -0.0069506527    1.4132364      364 
 6819000 0.00073175621 -0.0077668966    1.3574663 0.00032954358 -0.0077668966    1.3652332      353 
 6820000 0.00077642965 -0.0046321682     1.439856 0.00033427609 -0.0046321682    1.4444881      354 
 6821000 0.00075230243 -0.0037326265    1.3919261 0.00032037434 -0.0037326265    1.3956588      355 
 6822000 0.00076539628 -0.0040086608    1.3657803 0.00033024695 -0.0040086608     1.369789      368 
 6823000 0.00076417118 -0.0011220574    1.4007596 0.00032683999 -0.0011220574    1.4018816      359 
 6824000 0.00080930676 -0.0026680331      1.47379 0.00034911004 -0.0026680331     1.476458      361 
 6825000 0.00078953841 -0.00090535313    1.4355093 0.00033789164 -0.00090535313    1.4364146      362 
 6826000 0.00075464079 -0.003221503    1.4290519 0.00032307897 -0.003221503    1.4322734      347 
 6827000 0.00078821432 -0.005469026     1.473477 0.00033702466 -0.005469026    1.4789461      351 
 6828000 0.00080410439 -0.0053830929    1.5120241 0.00034313819 -0.0053830929    1.5174072      349 
 6829000 0.00083325027 -0.0015626396    1.5270454 0.00035634311 -0.0015626396    1.5286081      359 
 6830000 0.00081535093 -0.0027516868    1.5227653 0.00034797418 -0.0027516868     1.525517      352 
 6831000 0.00078509095 -0.0019712863    1.4753231 0.00033551512 -0.0019712863    1.4772944      350 
 6832000 0.00085037424 0.0041256931    1.5512195 0.00039087275 0.0041256931    1.5470938      362 
 6833000 0.00082947491 -0.0032164375    1.5269905  0.000353483 -0.0032164375     1.530207      357 
 6834000 0.00079855906 -0.0057489887    1.4883505 0.00034352605 -0.0057489887    1.4940995      352 
 6835000 0.00082249084 -0.0028992582    1.4893438 0.00035073196 -0.0028992582    1.4922431      363 
 6836000 0.00083130507 -0.004115596    1.5166878 0.00035406309 -0.004115596    1.5208034      360 
 6837000 0.00079551582 -0.0035507557      1.49336 0.00033998229 -0.0035507557    1.4969108      350 
 6838000 0.00079015037 -0.0041325755    1.4826821 0.00033790466 -0.0041325755    1.4868147      350 
 6839000 0.00074223397 -0.0041710575    1.4506738 0.00031548943 -0.0041710575    1.4548449      336 
 6840000 0.00072635875 -0.0030559488    1.4334984 0.00030953664 -0.0030559488    1.4365544      333 
 6841000 0.00071208983 -0.0010054834    1.3783335 0.00030463158 -0.0010054834    1.3793389      340 
 6842000 0.00075383263 -0.0051917699    1.4901896 0.00032128013 -0.0051917699    1.4953814      332 
 6843000 0.00076515533 -0.0028028207    1.4749791 0.00032645642 -0.0028028207     1.477782      341 
 6844000 0.00074037935 -0.0020151996    1.4666789 0.00031610645 -0.0020151996    1.4686941      332 
 6845000 0.00072961903 -0.0032775373    1.4268409 0.00031434512 -0.0032775373    1.4301185      336 
 6846000 0.00071146477 -0.00090505396    1.4276424 0.00030435819 -0.00090505396    1.4285475      328 
 6847000 0.00078326174 -0.0014334357    1.5476607 0.00034195004 -0.0014334357    1.5490941      333 
 6848000 0.00072133145 -0.0050010073    1.4389555 0.00030729504 -0.0050010073    1.4439565      329 
 6849000 0.00072576901 -0.001855183    1.4688655 0.00031004011 -0.001855183    1.4707206      325 
 6850000 0.00068749134 -0.0019166712    1.4681318 0.00029365315 -0.0019166712    1.4700484      308 
 6851000 0.00070671351 -0.0018640896    1.4617663 0.00030182164 -0.0018640896    1.4636303      318 
 6852000 0.00074112838 -0.001095815    1.5007495 0.00031702356 -0.001095815    1.5018454      325 
 6853000 0.00080223871 -0.0025492913    1.5378192 0.00034253638 -0.0025492913    1.5403685      343 
 6854000 0.00078963711 -0.0021970939    1.5273532 0.00033696406 -0.0021970939    1.5295503      340 
 6855000 0.00076955727 -0.0040289829    1.5088747 0.00032839525 -0.0040289829    1.5129037      335 
 6856000 0.0007818822 -0.0050218665    1.5275371 0.00033715866 -0.0050218665    1.5325589      336 
 6857000 0.00075494656 -0.00082998393    1.4701767 0.00032306391 -0.00082998393    1.4710067      338 
 6858000 0.00079192972 -0.0092168392    1.5476697 0.00033861296 -0.0092168392    1.5568865      335 
 6859000 0.00079607662 -0.0027551435    1.5392687 0.0003403616 -0.0027551435    1.5420238      340 
 6860000 0.00077627662 -0.0011208365    1.5249926  0.000332061 -0.0011208365    1.5261135      335 
 6861000 0.00080771995 -0.0040144704    1.5651781 0.00034486924 -0.0040144704    1.5691926      339 
 6862000 0.00077101496 -0.0033230485    1.5400895 0.00032859117 -0.0033230485    1.5434126      329 
 6863000 0.00080046364 -0.0054105402    1.5270818 0.00034400039 -0.0054105402    1.5324923      344 
 6864000 0.00076080927 -0.0029746567    1.5062464 0.00032471276 -0.0029746567     1.509221      332 
 6865000 0.00072740967 -0.0021874367    1.4673363 0.00031046751 -0.0021874367    1.4695237      326 
 6866000 0.00072555686 -0.0011796501    1.4209766 0.00031017506 -0.0011796501    1.4221562      336 
 6867000 0.00074157187 -0.0039897298    1.4452442 0.00032034102 -0.0039897298    1.4492339      337 
 6868000 0.00073048741 -0.0026279803    1.4464434 0.00031169549 -0.0026279803    1.4490714      332 
 6869000 0.00074881035 -0.0046325829    1.4807861 0.00031873734 -0.0046325829    1.4854187      332 
 6870000 0.00077458945 -0.0058348695    1.5169617 0.00032951167 -0.0058348695    1.5227966      335 
 6871000 0.00072596103 -0.0049462594    1.4351461 0.00030874907 -0.0049462594    1.4400924      332 
 6872000 0.00073364468 -0.0045155756    1.4552157 0.00031223182 -0.0045155756    1.4597313      331 
 6873000 0.00071283973 -0.0031844418    1.4108792 0.00030482448 -0.0031844418    1.4140636      332 
 6874000 0.00071331288 -0.0097673703    1.4628995 0.00030559441 -0.0097673703    1.4726669      319 
 6875000 0.00070955308 -0.005419059    1.4236469 0.00030131146 -0.005419059    1.4290659      327 
 6876000 0.00072301467 -0.0040560588    1.4476825 0.00030895689 -0.0040560588    1.4517385      328 
 6877000 0.00071967322 -0.0048407611    1.3891874 0.00030647838 -0.0048407611    1.3940282      340 
 6878000 0.00070267811 -0.0047865084    1.3807727 0.00029877639 -0.0047865084    1.3855592      334 
 6879000 0.00072972906 -0.0058435707    1.4118327 0.00031514627 -0.0058435707    1.4176763      339 
 6880000 0.00077384535 -0.0055952421    1.4381634 0.00032872931 -0.0055952421    1.4437587      353 
 6881000 0.00080352811 -0.010641011    1.4593467 0.00033999794 -0.010641011    1.4699877      360 
 6882000 0.00075769775 -0.0061258453    1.4115223 0.00032402405 -0.0061258453    1.4176482      352 
 6883000 0.0007967408 -0.012213254    1.4700622 0.00034008498 -0.012213254    1.4822755      354 
 6884000 0.00078044987 -0.0091703985     1.426574 0.00033115592 -0.0091703985    1.4357444      358 
 6885000 0.00078253813 -0.0088959078    1.4635949 0.00033231349 -0.0088959078    1.4724908      350 
 6886000 0.0007476761 -0.0047049235    1.3941928 0.0003182725 -0.0047049235    1.3988977      352 
 6887000 0.00075443013 -0.007082889    1.4165851 0.00032263254 -0.007082889     1.423668      349 
 6888000 0.0007952785 -0.0051651011    1.4457005 0.00033959272 -0.0051651011    1.4508656      361 
 6889000 0.00078150795 -0.0043376495    1.4293485 0.00033300719 -0.0043376495    1.4336861      359 
 6890000 0.00078663927 -0.0044286233    1.4631996 0.00033454771 -0.0044286233    1.4676282      353 
 6891000 0.00075638068 -0.0055553325    1.3781801 0.00032481377 -0.0055553325    1.3837354      360 
 6892000 0.00078752954  -0.01009886     1.418714 0.00033760031  -0.01009886    1.4288129      363 
 6893000 0.00080711874 -0.0025819631    1.4225128 0.00034433885 -0.0025819631    1.4250947      373 
 6894000 0.00077367019 -0.0027823404    1.3931942 0.00033128217 -0.0027823404    1.3959766      365 
 6895000 0.00084042512 -0.0067046296    1.4973594 0.00035888326 -0.0067046296    1.5040641      368 
 6896000 0.00078174049 -0.006072268    1.3779236 0.00033269909 -0.006072268    1.3839959      372 
 6897000 0.00077374387 -0.0031306689    1.4084482 0.00033059439 -0.0031306689    1.4115789      361 
 6898000 0.00075525805 -0.0044270726    1.4046534 0.00032183116 -0.0044270726    1.4090804      353 
 6899000 0.0008072993 -0.0026847577    1.4113558 0.00034535307 -0.0026847577    1.4140405      376 
 6900000 0.00080007031 -0.0026587339    1.4253042 0.0003436274 -0.0026587339    1.4279629      369 
 6901000 0.00082674423 -0.0033494463    1.4524941 0.00035475047 -0.0033494463    1.4558435      374 
 6902000 0.00082082005 -0.0058523614    1.4434342 0.00034981908 -0.0058523614    1.4492865      373 
 6903000 0.00086392535 -0.0023503852     1.467863 0.0003694879 -0.0023503852    1.4702134      387 
 6904000 0.00083767857 -0.0030428857    1.4487643 0.00035793406 -0.0030428857    1.4518072      380 
 6905000 0.00081833377 -0.0044035431    1.4601248 0.00034955971 -0.0044035431    1.4645284      368 
 6906000 0.00079456505 -0.0030441236    1.3776751 0.00034146936 -0.0030441236    1.3807193      379 
 6907000 0.00079350097 -0.0035732973    1.3608962 0.00033942693 -0.0035732973    1.3644695      383 
 6908000 0.00077970263 -0.0034854827    1.3843641 0.0003328114 -0.0034854827    1.3878496      370 
 6909000 0.00080662795 -0.0078636579    1.4087686 0.00034678475 -0.0078636579    1.4166323      375 
 6910000 0.00075620351 -0.0044543678    1.4103981  0.000323055 -0.0044543678    1.4148525      352 
 6911000 0.00077770939 -0.0044560795    1.4026638 0.00033921212 -0.0044560795    1.4071199      364 
 6912000 0.0007749438 -0.0050323459    1.4009463 0.00033053289 -0.0050323459    1.4059786      363 
 6913000 0.00082186283 -0.002634525    1.4369151 0.00035139967 -0.002634525    1.4395496      376 
 6914000 0.00078954882 -0.0027690795    1.3513688 0.00033737911 -0.0027690795    1.3541379      384 
 6915000 0.00080988486 -0.0060636272    1.4012769 0.00034627179 -0.0060636272    1.4073405      379 
 6916000 0.00082987342 -0.002641578     1.428108 0.00035682814 -0.002641578    1.4307496      382 
 6917000 0.00083478064 -0.015323857    1.4391158 0.00035606521 -0.015323857    1.4544396      378 
 6918000 0.00083819525 -0.0034085372     1.480535 0.0003575689 -0.0034085372    1.4839436      372 
 6919000 0.00082796103 -0.0010724822    1.4301266 0.00035422223 -0.0010724822    1.4311991      381 
 6920000 0.00083870037 -0.0023997956    1.4588692 0.00035811597 -0.0023997956     1.461269      378 
 6921000 0.00085048415 0.00084197225    1.4117245 0.00037727219 0.00084197225    1.4108825      397 
 6922000 0.00081427618 -0.0028967106    1.4083511 0.00034703241 -0.0028967106    1.4112478      380 
 6923000 0.00086352794 -0.0030172831    1.4589644 0.00038972681 -0.0030172831    1.4619817      389 
 6924000 0.00081750165 -0.0046480859    1.3865623 0.00034750599 -0.0046480859    1.3912104      387 
 6925000 0.00084682978 -0.0010440934    1.4216947 0.00037002424 -0.0010440934    1.4227388      392 
 6926000 0.00086602907 -0.0037388005    1.4438705 0.00036954883 -0.0037388005    1.4476093      394 
 6927000 0.00082163566 -0.0029543631    1.4173108 0.00035128314 -0.0029543631    1.4202652      381 
 6928000 0.00079126349 -0.0026980472    1.3722841 0.00034124529 -0.0026980472    1.3749821      379 
 6929000 0.00085606963 -0.00071490581    1.4486396 0.00036641722 -0.00071490581    1.4493545      389 
 6930000 0.00085622498 -0.001279288    1.4710476 0.00036623023 -0.001279288    1.4723269      383 
 6931000 0.00085993776 -0.00052050092    1.4296472 0.00036826726 -0.00052050092    1.4301677      396 
 6932000 0.0008770791 -2.4128776e-05    1.4476839 0.00037601445 -2.4128776e-05    1.4477081      399 
 6933000 0.00085137858 -0.00047286791    1.4521422 0.00036444071 -0.00047286791    1.4526151      386 
 6934000 0.00085657576 -0.0037820879    1.4353307 0.00036600384 -0.0037820879    1.4391128      392 
 6935000 0.00083565592 -0.001010021    1.4174298 0.00035740621 -0.001010021    1.4184398      388 
 6936000 0.00083969813 -0.0037126866    1.4179243 0.00035833259 -0.0037126866     1.421637      389 
 6937000 0.0008393852 -0.0035338792    1.4249175 0.00035783682 -0.0035338792    1.4284514      387 
 6938000 0.0008525435 -0.0020165682    1.4716754 0.00036837589 -0.0020165682    1.4736919      381 
 6939000 0.00087727079  -0.00342402    1.4818247 0.0003740285  -0.00342402    1.4852488      389 
 6940000 0.00086445001 -9.3709194e-05    1.4941796 0.00037054958 -9.3709194e-05    1.4942733      381 
 6941000 0.00082704459 -0.0013499905    1.4787677 0.00035362614 -0.0013499905    1.4801177      368 
 6942000 0.00083544134 -0.0018607302     1.446069 0.00035688809 -0.0018607302    1.4479298      380 
 6943000 0.00083275067 -0.0011951378    1.4420713 0.00035599634 -0.0011951378    1.4432665      380 
 6944000 0.00081080818 -0.0029015615    1.4804044 0.00034814679 -0.0029015615     1.483306      360 
 6945000 0.00084470778 -0.0027889361    1.5007681 0.00036046953 -0.0027889361     1.503557      370 
 6946000 0.00084654359 -0.0002465731     1.463074 0.00036269843 -0.0002465731    1.4633206      381 
 6947000 0.00088564448 -0.0015012713    1.4714194 0.00037840704 -0.0015012713    1.4729207      396 
 6948000 0.00084117982 -0.0010840072    1.4606379 0.00035971193 -0.0010840072    1.4617219      379 
 6949000 0.0008979795 -0.0023838796    1.5101489 0.00038351375 -0.0023838796    1.5125328      391 
 6950000 0.00082713762 -0.00075653778    1.3996151 0.00035397766 -0.00075653778    1.4003716      389 
 6951000 0.00085859775 -0.0031637848    1.4175998 0.00036687999 -0.0031637848    1.4207635      398 
 6952000 0.00083160722 -0.00058426216    1.4256871 0.00035601527 -0.00058426216    1.4262713      384 
 6953000 0.00084553946 -0.00056360148    1.4496026 0.00036198179 -0.00056360148    1.4501662      384 
 6954000 0.00080856896 -0.0025529779     1.406218 0.00034556709 -0.0025529779     1.408771      378 
 6955000 0.00082192167 -0.0033562056    1.4636069 0.00035006731 -0.0033562056    1.4669631      369 
 6956000 0.00081937775 -0.0019606983    1.3924424 0.00035557869 -0.0019606983    1.3944031      387 
 6957000 0.00076913117 -0.0033125802    1.3694302 0.00033231962 -0.0033125802    1.3727428      369 
 6958000 0.0007658512 -0.00010966948    1.4009513 0.00032820233 -0.00010966948    1.4010609      360 
 6959000 0.00075418434 -0.00034752036     1.349376 0.00032296803 -0.00034752036    1.3497236      368 
 6960000 0.00077791864 -0.0025376119    1.4049608 0.00033251667 -0.0025376119    1.4074984      364 
 6961000 0.00077064448 -2.6317547e-06    1.4216745 0.00033039532 -2.6317547e-06    1.4216772      357 
 6962000 0.00074859496 -0.0041773141    1.3924718 0.00031902394 -0.0041773141    1.3966492      353 
 6963000 0.00073149843 -0.0063664026    1.3981746 0.00032241689 -0.0063664026     1.404541      343 
 6964000 0.00072694391 -0.0015945382    1.3585134 0.00031074001 -0.0015945382    1.3601079      352 
 6965000 0.00069694145 -0.0046700998    1.3413671 0.00029777486 -0.0046700998    1.3460372      341 
 6966000 0.00071917484 -0.00051869167     1.368387 0.00030792716 -0.00051869167    1.3689057      346 
 6967000 0.0006911607 -0.0014559817     1.295386 0.00029521306 -0.0014559817     1.296842      351 
 6968000 0.00068446534 -0.0016105568    1.3012277 0.00029225196 -0.0016105568    1.3028382      346 
 6969000 0.00070755586 -0.0024318316    1.3366176 0.00030241014 -0.0024318316    1.3390495      348 
 6970000 0.00067083451 -0.00044692878     1.287614 0.0002873175 -0.00044692878    1.2880609      343 
 6971000 0.0007303408 -0.00014402099    1.3249115 0.00031292026 -0.00014402099    1.3250555      363 
 6972000  0.000712205 -0.0061125835     1.307756 0.00030516393 -0.0061125835    1.3138686      357 
 6973000 0.0007310388 -0.00099770642    1.3326722 0.00031279827 -0.00099770642    1.3336699      361 
 6974000 0.00074827361 -0.0035539428     1.354037 0.00032156516 -0.0035539428     1.357591      363 
 6975000 0.0007050238 -0.00073777098    1.3221159 0.00030164476 -0.00073777098    1.3228536      351 
 6976000 0.00072026622 -0.0003166084    1.3472974 0.00030852036 -0.0003166084     1.347614      352 
 6977000 0.00074237343 -0.002470115    1.3481368 0.00031677321 -0.002470115     1.350607      362 
 6978000 0.00074153844 -0.0042301131    1.3301136 0.00031484416 -0.0042301131    1.3343437      366 
 6979000 0.00076448722 -0.0026313541    1.3544674 0.00032748075 -0.0026313541    1.3570988      371 
 6980000 0.00078751281 -0.0065098412    1.3441362 0.00034456221 -0.0065098412     1.350646      384 
 6981000 0.00076132062 -0.0014811998    1.3536489 0.00032535793 -0.0014811998    1.3551301      370 
 6982000 0.00072923363 -0.0031666894    1.3126305 0.00031038657 -0.0031666894    1.3157972      365 
 6983000 0.00076514199 -0.0021132348    1.3416597 0.00032695839 -0.0021132348     1.343773      375 
 6984000 0.00073275972 -0.0014641856    1.3170829 0.00031323051 -0.0014641856    1.3185471      366 
 6985000 0.0007168584 -0.003389719    1.3044102 0.00030505477 -0.003389719    1.3077999      361 
 6986000 0.00076894996 -0.00090545904    1.3678047 0.00032888632 -0.00090545904    1.3687102      370 
 6987000  0.000752879 -0.0028264798    1.3264995 0.00032256088 -0.0028264798     1.329326      373 
 6988000 0.00078545683 -0.0016514907    1.3741305 0.00033571242 -0.0016514907     1.375782      376 
 6989000 0.00081006778  -0.00180903    1.4439973 0.00034628016  -0.00180903    1.4458063      369 
 6990000  0.000745125 -0.0018383267    1.3500401 0.00031816542 -0.0018383267    1.3518784      363 
 6991000 0.00078219946 -0.0032632274    1.4158793 0.00033356092 -0.0032632274    1.4191425      363 
 6992000 0.00073547866 -0.0030784234    1.3537252 0.00031419407 -0.0030784234    1.3568036      357 
 6993000 0.00074785107 -0.00022043126    1.3454824 0.00032043929 -0.00022043126    1.3457028      366 
 6994000 0.00070271789 -0.0027964065    1.3045566 0.00030105958 -0.0027964065     1.307353      354 
 6995000 0.00080970933 -0.0030488354    1.3892918 0.00034929007 -0.0030488354    1.3923406      383 
 6996000 0.00078923278 -0.0010569183    1.3740246 0.00033753329 -0.0010569183    1.3750815      378 
 6997000 0.0007885599 -0.0014130582    1.4136759 0.00033715344 -0.0014130582     1.415089      367 
 6998000 0.00078727721 -0.0029576527    1.3760128 0.00033803878 -0.0029576527    1.3789705      376 
 6999000 0.00082271595 -0.00092710346    1.4362944 0.00035197662 -0.00092710346    1.4372215      377 
 7000000 0.0007869523 -0.0017372205    1.3990166 0.00034114332 -0.0017372205    1.4007538      370 
 7001000 0.00077102564 -0.0032898237    1.3841139 0.00033096329 -0.0032898237    1.3874038      366 
 7002000 0.00077199939 -0.00032417682    1.3591172 0.00033065141 -0.00032417682    1.3594414      374 
 7003000 0.00081744277 -0.0029075691    1.4101098 0.0003486087 -0.0029075691    1.4130174      381 
 7004000 0.00077602174 -0.0026433173    1.3494206 0.00033139709 -0.0026433173    1.3520639      378 
 7005000 0.00079985783 -0.00058363479    1.3930099 0.00034231259 -0.00058363479    1.3935936      378 
 7006000 0.00083449559 -0.00026584769    1.4089404 0.00035751398 -0.00026584769    1.4092063      390 
 7007000 0.00082602389 -0.0005499967    1.4161455 0.00035364576 -0.0005499967    1.4166955      384 
 7008000 0.00082162824 -0.00025996772    1.4237299 0.00035200639 -0.00025996772    1.4239898      380 
 7009000 0.00088114501 -2.772744e-05    1.4654099 0.00037772345 -2.772744e-05    1.4654376      396 
 7010000 0.00077693227 -0.0026181718    1.3298814 0.00033580498 -0.0026181718    1.3324995      384 
 7011000 0.00082674856 -0.00019557099    1.3713116 0.00035424057 -0.00019557099    1.3715071      397 
 7012000 0.00086661625 -0.0056183371    1.4356564 0.00037096759 -0.0056183371    1.4412747      396 
 7013000 0.00077567079 -0.0021724871     1.331637 0.00034164217 -0.0021724871    1.3338095      383 
 7014000 0.00083730856 -0.00064299144    1.3779646  0.000358483 -0.00064299144    1.3786076      400 
 7015000 0.00084115757 -0.0038020935    1.3916084 0.00036242982 -0.0038020935    1.3954105      397 
 7016000 0.00089886406 -0.0025551189    1.4811112 0.00038858947 -0.0025551189    1.4836664      399 
 7017000 0.00088490527 -0.0038782795    1.4422502 0.00037760906 -0.0038782795    1.4461284      403 
 7018000 0.00085468394 -0.00059441859    1.4172552 0.00036585852 -0.00059441859    1.4178496      397 
 7019000 0.0008669745 -0.00041822175    1.4129004 0.00037125013 -0.00041822175    1.4133187      404 
 7020000 0.00086040411 -0.0015857462    1.4257531 0.00037260699 -0.0015857462    1.4273389      397 
 7021000 0.00085319375 -0.0022288064    1.4131487 0.0003640183 -0.0022288064    1.4153775      397 
 7022000 0.00083140946 -0.0022759107    1.3945556 0.00035486559 -0.0022759107    1.3968315      392 
 7023000 0.00088330963 -0.0021888109     1.441332 0.00037732019 -0.0021888109    1.4435208      403 
 7024000 0.00084352006 -0.00038629455     1.402477 0.00036132716 -0.00038629455    1.4028633      396 
 7025000 0.0008526609 -0.0005285124    1.3894565 0.00036503185 -0.0005285124     1.389985      404 
 7026000 0.00090265149 -0.0012136142    1.4630161 0.00038588992 -0.0012136142    1.4642297      406 
 7027000 0.00087109331 -0.00080646339    1.4262914 0.00037269583 -0.00080646339    1.4270979      402 
 7028000 0.00084857112 -0.0034287928     1.397224 0.00036875856 -0.0034287928    1.4006528      399 
 7029000 0.00089010594 -0.00034899406    1.4294434 0.00038112133 -0.00034899406    1.4297924      410 
 7030000 0.00089344732 -0.00031874559     1.452559 0.00038274257 -0.00031874559    1.4528777      405 
 7031000 0.00091251023 -0.00080405744    1.4685605 0.00039045155 -0.00080405744    1.4693646      409 
 7032000 0.00088147756 -0.0034274099    1.3954456 0.00037527039 -0.0034274099     1.398873      415 
 7033000 0.00089696117 -0.002399715    1.4348987 0.00038283196 -0.002399715    1.4372984      411 
 7034000 0.00088268254 -0.0018744586    1.4334981 0.00037719031 -0.0018744586    1.4353726      405 
 7035000 0.00087043196 -0.0010731071    1.4356632 0.00037234544 -0.0010731071    1.4367363      399 
 7036000 0.00088191283 -0.00049494281    1.4736649 0.00037757578 -0.00049494281    1.4741598      394 
 7037000 0.00084475687 -0.0030980603    1.3947623 0.00036005492 -0.0030980603    1.3978604      398 
 7038000 0.00093113329 -0.0027885497    1.5113721 0.00040254176 -0.0027885497    1.5141607      405 
 7039000 0.0008776613 -0.0067299417    1.4275603 0.00037653535 -0.0067299417    1.4342902      403 
 7040000 0.00089000277 -0.0022197512     1.448639 0.00038038254 -0.0022197512    1.4508587      404 
 7041000 0.0008850341 -0.0031206583    1.4220006 0.00037784884 -0.0031206583    1.4251213      409 
 7042000 0.00087330743 -0.0012466948    1.4811026 0.00037350128 -0.0012466948    1.4823493      388 
 7043000 0.00091420328 -0.00059097895    1.4607807 0.00039146867 -0.00059097895    1.4613717      412 
 7044000 0.00087991608 -0.00036122344    1.4447857 0.00037694616 -0.00036122344     1.445147      401 
 7045000 0.00086308125 -0.00043170028    1.4170663 0.00036960941 -0.00043170028     1.417498      401 
 7046000 0.00089458684 -0.0031891749    1.4338009 0.00038579925 -0.0031891749    1.4369901      410 
 7047000 0.00086393757 -0.0012721262    1.4036183 0.00036949873 -0.0012721262    1.4048905      405 
 7048000 0.00088839773 -0.0060686325    1.4421736 0.00038162623 -0.0060686325    1.4482422      404 
 7049000 0.00089644431 -0.0085624991    1.4491888 0.00038417379 -0.0085624991    1.4577512      405 
 7050000 0.00086109874 -0.0033765017    1.4003636 0.00036719963 -0.0033765017    1.4037401      404 
 7051000 0.00090664608 -0.0066346582    1.4568654 0.00038872423 -0.0066346582    1.4635001      408 
 7052000 0.00087257796 -0.0052804719    1.4242497 0.00037200944 -0.0052804719    1.4295302      402 
 7053000 0.00085111931 -0.006267206    1.4273355 0.00037122938 -0.006267206    1.4336027      391 
 7054000 0.00090258088 -0.0052806121    1.5034269 0.00038597082 -0.0052806121    1.5087075      394 
 7055000 0.00088730259 -0.0040620437    1.4568595 0.00037809048 -0.0040620437    1.4609215      400 
 7056000 0.00090665441 -0.0071189258    1.4782381 0.00038374055 -0.0071189258     1.485357      402 
 7057000 0.00091176471 -0.0031168522    1.4832176 0.00038891485 -0.0031168522    1.4863345      404 
 7058000 0.00091486974 -0.0050286952    1.5050567 0.00038924379 -0.0050286952    1.5100854      399 
 7059000 0.00090259148 -0.0010374821    1.4776633 0.00038620897 -0.0010374821    1.4787008      402 
 7060000 0.00090058986 -0.0049539471     1.485296 0.00038391225 -0.0049539471    1.4902499      398 
 7061000 0.00091188959 -0.004884976    1.4706958 0.00039179131 -0.004884976    1.4755808      407 
 7062000 0.00092922826 -0.0044732911    1.4954788 0.00039647412 -0.0044732911    1.4999521      408 
 7063000 0.00090812184 -0.001742776    1.4897285 0.00038796674 -0.001742776    1.4914712      401 
 7064000 0.00091421743 -0.001502854    1.4634472 0.00039076852 -0.001502854      1.46495      411 
 7065000 0.00092487467 -0.0035799346    1.4856944 0.00039469387 -0.0035799346    1.4892743      409 
 7066000 0.00091400668 -0.0061020333    1.5025588 0.00039020472 -0.0061020333    1.5086608      399 
 7067000 0.00092914858 -0.0030122696    1.5461724 0.00039606521 -0.0030122696    1.5491847      395 
 7068000 0.00093410684 -0.0063689373    1.5201656 0.00040039064 -0.0063689373    1.5265345      403 
 7069000 0.00090084331 -0.0033273536    1.4652033 0.00038685618 -0.0033273536    1.4685307      404 
 7070000 0.00089267113 -0.0044524844     1.457996 0.00038095685 -0.0044524844    1.4624485      402 
 7071000 0.0009110369 -0.0010400614    1.4914967 0.00038972002 -0.0010400614    1.4925368      402 
 7072000 0.00090807125 -0.0052617709    1.4824164 0.00038707684 -0.0052617709    1.4876782      402 
 7073000 0.00091692347 -0.0017167058    1.5117586 0.00039179355 -0.0017167058    1.5134753      399 
 7074000 0.00095103764 -0.0035971617    1.5020372 0.00041577153 -0.0035971617    1.5056343      416 
 7075000   0.00095319 -0.0036787879    1.5311902 0.00040858059 -0.0036787879     1.534869      409 
 7076000 0.0009141395 -0.0073425184    1.4574826 0.0003890068 -0.0073425184    1.4648251      411 
 7077000 0.00093983617 -0.0040580909    1.5093079 0.00040078842 -0.0040580909     1.513366      409 
 7078000 0.00092070198 -0.0019853289    1.5177267 0.00039300108 -0.0019853289    1.5197121      399 
 7079000 0.00093287845 -0.0040960163    1.5204311 0.00040249346 -0.0040960163    1.5245271      403 
 7080000 0.00091141282 -0.0042955149    1.4963229 0.00038827128 -0.0042955149    1.5006184      400 
 7081000 0.00087737938 -0.0038545638    1.4664591 0.00037371292 -0.0038545638    1.4703137      393 
 7082000 0.00090284505 -0.0044257933    1.5009026 0.00039431029 -0.0044257933    1.5053284      395 
 7083000 0.00093563832 -0.0047517499    1.5242856 0.00039895583 -0.0047517499    1.5290373      403 
 7084000 0.0009063687 -0.0039302103    1.4699596 0.00038685213 -0.0039302103    1.4738898      405 
 7085000 0.00088528054 -0.006902944    1.4919066 0.00038053402 -0.006902944    1.4988095      389 
 7086000 0.00091407058 -0.0014054742    1.5187908 0.00039079576 -0.0014054742    1.5201963      396 
 7087000 0.00089172182 -0.0072163772     1.514232 0.00038148754 -0.0072163772    1.5214484      386 
 7088000 0.00086825102 -0.0032147962    1.4897916 0.00037684802 -0.0032147962    1.4930064      383 
 7089000 0.00087944062 -0.0042019716    1.4401641 0.00037843255 -0.0042019716    1.4443661      401 
 7090000 0.00082784026 -0.0015557689    1.4446175 0.00035389064 -0.0015557689    1.4461733      377 
 7091000 0.00083910441 -0.0079217396    1.3840827 0.00035635076 -0.0079217396    1.3920045      397 
 7092000 0.00087140118 -0.0029565138    1.4353796 0.00037450435 -0.0029565138    1.4383361      399 
 7093000 0.00077892148 -0.0024401411    1.3655329 0.00033216419 -0.0024401411    1.3679731      375 
 7094000 0.00084714743 -0.004847086    1.4633709 0.0003618694 -0.004847086     1.468218      380 
 7095000 0.00085422287 -0.0040246319    1.4422032 0.00036339153 -0.0040246319    1.4462279      389 
 7096000 0.00080947478 -0.0058728304    1.4044764 0.0003452098 -0.0058728304    1.4103492      378 
 7097000 0.00079957797 -0.0092071502    1.3802231 0.00034067768 -0.0092071502    1.3894302      379 
 7098000 0.0007740852 -0.0084118109    1.3510676 0.00032996475 -0.0084118109    1.3594794      375 
 7099000 0.0007902478 -0.0055374295     1.389769 0.00033561939 -0.0055374295    1.3953064      373 
 7100000 0.00083827751 -0.0061288647    1.4391098 0.00035662358 -0.0061288647    1.4452387      382 
 7101000 0.00081754979 -0.0062344968    1.4181838 0.00035688347 -0.0062344968    1.4244183      378 
 7102000 0.00081648966 -0.0070533653    1.4155179 0.00034636043 -0.0070533653    1.4225712      378 
 7103000 0.00083050018 -0.009019242     1.461301 0.00035116715 -0.009019242    1.4703202      372 
 7104000 0.00085000925 -0.0072731529    1.4697917 0.00036091483 -0.0072731529    1.4770649      379 
 7105000 0.00082117972 -0.012406455     1.410806 0.00035053922 -0.012406455    1.4232125      380 
 7106000 0.00085184618 -0.0089225165    1.4113746 0.0003613247 -0.0089225165    1.4202971      395 
 7107000 0.00081386495 -0.0066965884     1.381913 0.00035389421 -0.0066965884    1.3886096      386 
 7108000 0.00084388801 -0.0069904084    1.4254225 0.00035838561 -0.0069904084    1.4324129      388 
 7109000 0.00084400851 -0.0077874408    1.4211472 0.00035896633 -0.0077874408    1.4289346      389 
 7110000 0.00084054798 -0.0094651006    1.4359043 0.00035661682 -0.0094651006    1.4453694      383 
 7111000 0.00087402605 -0.0074064398    1.4685546 0.00037271425 -0.0074064398    1.4759611      390 
 7112000 0.00087398031 -0.010039207    1.4696387 0.00037257524 -0.010039207    1.4796779      389 
 7113000 0.00087472107 -0.0056156079    1.5306045 0.00037258538 -0.0056156079    1.5362201      375 
 7114000 0.00088860554 -0.0083464265    1.5038673 0.00038741063 -0.0083464265    1.5122138      387 
 7115000 0.00090047587 -0.0033420625    1.5330424 0.0003845172 -0.0033420625    1.5363845      386 
 7116000 0.00088135647 -0.0028271595    1.5246796 0.00037633798 -0.0028271595    1.5275067      380 
 7117000 0.00085131087 -0.0046077166    1.4669535 0.00036244549 -0.0046077166    1.4715612      381 
 7118000 0.00087589631 -0.0029566163     1.499274 0.00037474588 -0.0029566163    1.5022306      384 
 7119000 0.00083501111 -0.0075172249      1.47878 0.00035759096 -0.0075172249    1.4862972      370 
 7120000 0.00084721572  -0.00497546    1.4633609 0.00035999089  -0.00497546    1.4683363      380 
 7121000 0.00090856381 -0.0044474137     1.537746 0.00038685919 -0.0044474137    1.5421934      388 
 7122000 0.00082985155 -0.0034061773    1.4273057 0.00035455325 -0.0034061773    1.4307119      382 
 7123000 0.00085636721 -0.0034133647    1.4316881 0.00036600627 -0.0034133647    1.4351015      393 
 7124000 0.00083253053 -0.0035493445    1.4280336 0.00035506135 -0.0035493445     1.431583      383 
 7125000 0.00086769744 -0.0048466398    1.4833223 0.00037352771 -0.0048466398    1.4881689      384 
 7126000 0.00086642883 -0.0049459863     1.516711 0.00036930357 -0.0049459863     1.521657      375 
 7127000 0.00090497304 -0.0067741944    1.5412938 0.00038715311 -0.0067741944     1.548068      385 
 7128000  0.000887968 -0.0033143985    1.5858346 0.00037880585 -0.0033143985     1.589149      368 
 7129000 0.00084987087 -0.0022766686    1.5023375 0.00036321254 -0.0022766686    1.5046141      372 
 7130000 0.00085567353 -0.0056692828    1.4891266 0.00036803931 -0.0056692828    1.4947958      377 
 7131000 0.00086242511 -0.0058434547    1.4927965 0.00036697915 -0.0058434547      1.49864      379 
 7132000 0.00083483316 -0.006135038     1.456133 0.00035758619 -0.006135038     1.462268      376 
 7133000 0.00084906426 -0.0067582638    1.4647818 0.00036099522 -0.0067582638    1.4715401      380 
 7134000 0.00084529816  -0.00616351    1.5148882 0.0003615661  -0.00616351    1.5210517      366 
 7135000 0.00080800361 -0.0087482876    1.4412329 0.00034313272 -0.0087482876    1.4499812      367 
 7136000 0.00081754224 -0.0041623259    1.4354771 0.00034849556 -0.0041623259    1.4396394      374 
 7137000 0.00080286546 -0.0049993916    1.3901435 0.00034326699 -0.0049993916    1.3951429      379 
 7138000 0.00076904947 -0.004523551    1.3946154 0.00032737861 -0.004523551    1.3991389      362 
 7139000 0.00079928868 -0.0083175277    1.3954252 0.00034482932 -0.0083175277    1.4037428      375 
 7140000 0.00077557012 -0.0074366357     1.361954 0.00033482374 -0.0074366357    1.3693907      373 
 7141000 0.00079222938 -0.0028190863    1.4545953 0.00033821051 -0.0028190863    1.4574144      358 
 7142000 0.00083607888 -0.0075501839    1.4453078 0.00035766281 -0.0075501839     1.452858      379 
 7143000 0.00079783844 -0.0037140713    1.3863611 0.00034093098 -0.0037140713    1.3900752      378 
 7144000 0.00079531579 -0.0065097459    1.3939903 0.0003380572 -0.0065097459    1.4005001      374 
 7145000 0.00082518595 -0.0043127989      1.43341 0.00035144187 -0.0043127989    1.4377228      378 
 7146000 0.00085942955 -0.0050475608    1.4844569 0.00036779272 -0.0050475608    1.4895045      380 
 7147000 0.00081349338 -0.0038892621    1.3840864 0.00035635514 -0.0038892621    1.3879757      386 
 7148000 0.00081883928 -0.0025147826    1.4241502 0.00034937578 -0.0025147826     1.426665      378 
 7149000 0.00080292517 -0.0046601363    1.4283981 0.00034396262 -0.0046601363    1.4330582      369 
 7150000 0.00079692034 -0.012464034    1.4413968 0.00033521957 -0.012464034    1.4538608      361 
 7151000 0.00086405331 -0.0070708347    1.5063783 0.00036760109 -0.0070708347    1.5134491      376 
 7152000 0.00084340206 -0.0011062562    1.4606205 0.00036061773 -0.0011062562    1.4617267      380 
 7153000 0.00085683291 -0.0060583858     1.482864  0.000365397 -0.0060583858    1.4889224      379 
 7154000 0.00087879446 -0.0025048207    1.5617256 0.00037903728 -0.0025048207    1.5642304      370 
 7155000 0.00087006328 -0.0061440679    1.5552046 0.00037057209 -0.0061440679    1.5613487      367 
 7156000 0.00087160305 -0.0011793183    1.5295648 0.00037273217 -0.0011793183    1.5307441      375 
 7157000 0.00086640202 -0.0013081945    1.5203017 0.00037059112 -0.0013081945    1.5216099      375 
 7158000 0.00086065129 -0.0010272283    1.5226726 0.00036815608 -0.0010272283    1.5236998      372 
 7159000 0.00087765168 -0.0069116458    1.5222223 0.00037306382 -0.0069116458    1.5291339      378 
 7160000 0.00089674716 -0.00030158291    1.5538792 0.00038415313 -0.00030158291    1.5541808      380 
 7161000 0.00082406576 -7.8064814e-05    1.4707118 0.0003531835 -7.8064814e-05    1.4707899      369 
 7162000 0.00086305915 -0.0025039239    1.5213624 0.00037149926 -0.0025039239    1.5238663      373 
 7163000 0.00085684605 -0.0037178874    1.4971072 0.00036511112 -0.0037178874    1.5008251      376 
 7164000 0.00089414638 -0.002843139    1.5306878 0.00038207353 -0.002843139    1.5335309      384 
 7165000 0.00087458153 -0.0055790553    1.5427829 0.00037397846 -0.0055790553     1.548362      372 
 7166000 0.00085817389 -0.0030118678    1.5412087 0.0003692693 -0.0030118678    1.5442206      366 
 7167000 0.00091661416 -0.0047413726    1.5838716 0.00039020394 -0.0047413726     1.588613      380 
 7168000 0.00093562093 -0.0086553469    1.5753822 0.00039945165 -0.0086553469    1.5840375      389 
 7169000 0.00091891082 -0.00056621161    1.5754376 0.00039352887 -0.00056621161    1.5760038      384 
 7170000 0.00084318965 -0.0020974044    1.4669933 0.00036010088 -0.0020974044    1.4690907      378 
 7171000 0.00089103196 -0.0030394498    1.5172319  0.000382134 -0.0030394498    1.5202713      386 
 7172000 0.00086897896 -0.0032484407    1.5519169 0.00037059946 -0.0032484407    1.5551654      368 
 7173000 0.00086754275 -0.007755903    1.5281446 0.00036718597 -0.007755903    1.5359005      372 
 7174000 0.00081796399 -0.0047063593     1.463149 0.00034811351 -0.0047063593    1.4678553      367 
 7175000 0.00086477593 -0.0015415266     1.525356 0.00036957052 -0.0015415266    1.5268975      373 
 7176000 0.00086607384 -0.001575945    1.5194576 0.00037008885 -0.001575945    1.5210335      375 
 7177000 0.00087724838 -0.0074903738     1.508906 0.00037463644 -0.0074903738    1.5163964      381 
 7178000 0.00087169761 -0.0027328632    1.5080338 0.00037193636 -0.0027328632    1.5107667      380 
 7179000 0.00090968074 -0.0068319564    1.5533416 0.00038848771 -0.0068319564    1.5601735      384 
 7180000 0.00083599027 -0.00027224683     1.471853 0.00035812681 -0.00027224683    1.4721252      374 
 7181000 0.00080122132 -0.0050556616    1.4940249 0.00034850718 -0.0050556616    1.4990805      352 
 7182000 0.0008958033 -0.0007457324     1.606794 0.00038345288 -0.0007457324    1.6075398      367 
 7183000 0.00084161891 -0.0019610065    1.5207912 0.00035933954 -0.0019610065    1.5227522      364 
 7184000 0.00086784238 -0.00052158089    1.5526097 0.00037161593 -0.00052158089    1.5531313      368 
 7185000 0.0008483545 -0.0031834774    1.5751154 0.00036257072 -0.0031834774    1.5782988      354 
 7186000 0.00089206569 -0.0030897941    1.5933927 0.00038446221 -0.0030897941    1.5964824      368 
 7187000 0.00081492222 -0.0015791124    1.4892532 0.0003482364 -0.0015791124    1.4908323      360 
 7188000 0.00082757544 -0.00025086421    1.5221874 0.00035460444 -0.00025086421    1.5224383      358 
 7189000 0.00081018552 -0.00025797456    1.4418504 0.00034713776 -0.00025797456    1.4421083      370 
 7190000 0.00084703293 -0.002332329    1.5218409 0.00036172591 -0.002332329    1.5241733      366 
 7191000 0.00088370398 -0.00054594645    1.5514503 0.00037842597 -0.00054594645    1.5519963      375 
 7192000 0.00084088947 -0.00069089318    1.5249328 0.00035995458 -0.00069089318    1.5256237      363 
 7193000 0.00088992238 -0.0065062357      1.56059 0.00037738089 -0.0065062357    1.5670962      374 
 7194000 0.00090491916 -0.0044381124    1.5933386 0.00038614232 -0.0044381124    1.5977767      373 
 7195000 0.00095273781 -0.0039311718    1.6429549 0.00040591944 -0.0039311718    1.6468861      381 
 7196000 0.00092212189 -0.0018330609    1.6176343 0.00039407386 -0.0018330609    1.6194673      375 
 7197000 0.00087824059 -0.0031836069    1.5685568 0.00037469017 -0.0031836069    1.5717404      368 
 7198000 0.00095495838 -0.0023594437    1.6527091 0.00040776487 -0.0023594437    1.6550685      380 
 7199000 0.0009331118 -0.0035449139    1.5721938 0.00039731363 -0.0035449139    1.5757387      390 
 7200000 0.00088479846 -0.0030446013    1.5304275 0.00038231056 -0.0030446013    1.5334721      380 
 7201000 0.00091293047 -0.0053124017    1.5563678 0.00039077801 -0.0053124017    1.5616802      385 
 7202000 0.00088091721 -0.00033275028    1.5344907 0.00037734314 -0.00033275028    1.5348235      378 
 7203000 0.00085597052 -0.0030822249    1.5002074 0.00036543604 -0.0030822249    1.5032897      375 
 7204000 0.0008544285 -0.0038455892    1.5294461 0.00036850639 -0.0038455892    1.5332917      367 
 7205000 0.00087590245 -0.0011617155    1.5412463 0.0003746233 -0.0011617155     1.542408      374 
 7206000 0.00087362484 -0.0023113848    1.5485258 0.00037262793 -0.0023113848    1.5508371      371 
 7207000 0.0008207308 -0.00069135571    1.4681268 0.00035129373 -0.00069135571    1.4688182      368 
 7208000 0.00084633579 -0.0039478345    1.5106943 0.00036821508 -0.0039478345    1.5146421      368 
 7209000 0.00086300052 -0.0028408338    1.4657987 0.00036798069 -0.0028408338    1.4686396      387 
 7210000 0.00088536175 -0.0012581463    1.4824324 0.00037853609 -0.0012581463    1.4836906      393 
 7211000 0.0008570109 -0.0063105064    1.4673678 0.00036894799 -0.0063105064    1.4736784      383 
 7212000 0.00087111682 -0.0054606604    1.4693692 0.0003732972 -0.0054606604    1.4748299      389 
 7213000 0.00085494038 -0.0038727543    1.4510502 0.00036462998 -0.0038727543     1.454923      387 
 7214000 0.00086141608 -0.0032299475    1.4551763 0.00036704067 -0.0032299475    1.4584062      389 
 7215000 0.00089749131 -0.0051268875    1.4725701 0.00038171263 -0.0051268875     1.477697      400 
 7216000 0.00091476301 -0.0029366321    1.4994419 0.00039857261 -0.0029366321    1.5023785      401 
 7217000 0.00092707049 -0.0030014799    1.5008393 0.00039743811 -0.0030014799    1.5038408      406 
 7218000 0.00090667976 -0.0062297633    1.5016748 0.0003877864 -0.0062297633    1.5079046      396 
 7219000 0.0009336733 -0.003456088     1.485425 0.00039841241 -0.003456088    1.4888811      413 
 7220000 0.00087301364 -0.0021028084    1.4388948 0.00037264664 -0.0021028084    1.4409976      399 
 7221000 0.00087454141 -0.0070343268    1.4328762 0.00037440809 -0.0070343268    1.4399106      400 
 7222000 0.0008899882 -0.0057298311    1.4308813 0.00037878946 -0.0057298311    1.4366111      408 
 7223000 0.00086719911 -0.0051597071    1.4155584 0.0003689413 -0.0051597071    1.4207181      402 
 7224000 0.0008776957 -0.0033563072    1.4203915 0.00038144367 -0.0033563072    1.4237478      406 
 7225000 0.00091811259 -0.0084437167    1.4450653 0.00039381882 -0.0084437167    1.4535091      416 
 7226000 0.00097347568 -0.0043080077    1.5442943 0.00041587234 -0.0043080077    1.5486023      414 
 7227000 0.00090915423 -0.0044966946    1.4886701 0.00038727418 -0.0044966946    1.4931668      401 
 7228000 0.00093761685 -0.006491362    1.5107201 0.00040311806 -0.006491362    1.5172115      407 
 7229000 0.00096039605 -0.0050526221    1.5605593 0.00041090314 -0.0050526221     1.565612      404 
 7230000 0.00092696568 -0.0029346484    1.5387076 0.00039538829 -0.0029346484    1.5416422      396 
 7231000 0.00096111141 -0.0052446397    1.5461729 0.00041030938 -0.0052446397    1.5514175      408 
 7232000 0.00096784745 -0.003922568    1.5738365 0.00041918161 -0.003922568     1.577759      404 
 7233000 0.00093429284 -0.0040373994    1.5004025 0.00040371661 -0.0040373994    1.5044399      409 
 7234000 0.0009396368 -0.008149669    1.5236211 0.0004017639 -0.008149669    1.5317708      404 
 7235000 0.00092271292 -0.0033755983    1.5008063 0.00039326314 -0.0033755983    1.5041819      404 
 7236000 0.0010010056 -0.0047180683    1.5428224 0.00042521946 -0.0047180683    1.5475405      426 
 7237000 0.00091846773 -0.0039408421    1.5045221 0.00039193043 -0.0039408421     1.508463      401 
 7238000 0.00092554412 -0.0056453128     1.503152 0.00039361368 -0.0056453128    1.5087973      404 
 7239000 0.00091755683 -0.0047386392    1.4984796 0.00039107275 -0.0047386392    1.5032183      402 
 7240000 0.00092558101 -0.004449039    1.5081525 0.00039451836 -0.004449039    1.5126015      403 
 7241000 0.00093397846 -0.0086418534    1.4989779 0.00039768829 -0.0086418534    1.5076198      408 
 7242000 0.00097223207 -0.005126006    1.5303712 0.00041458587 -0.005126006    1.5354972      417 
 7243000 0.00093420116 -0.006451205    1.5089565 0.00040692693 -0.006451205    1.5154077      406 
 7244000 0.00088713292 -0.0041819318    1.4862693 0.00037839764 -0.0041819318    1.4904512      392 
 7245000 0.00092073274 -0.0029375673    1.5168253 0.00039349433 -0.0029375673    1.5197628      399 
 7246000 0.00086529069 -0.0052961274    1.4374173 0.00037018733 -0.0052961274    1.4427134      395 
 7247000 0.00087908957 -0.0033388692    1.4773762 0.00037540512 -0.0033388692    1.4807151      391 
 7248000 0.00089728349 -0.0030851716    1.5160458 0.00038396031 -0.0030851716    1.5191309      389 
 7249000 0.00091623263 -0.0027006923    1.5134341 0.00039165934 -0.0027006923    1.5161348      398 
 7250000 0.00084665925 -0.0069110186     1.437652 0.00036190831 -0.0069110186     1.444563      386 
 7251000 0.00090632459 -0.0083165413    1.4952006 0.00039493625 -0.0083165413    1.5035172      397 
 7252000 0.0008872659 -0.0040382347    1.4641639 0.00037914423 -0.0040382347    1.4682021      398 
 7253000 0.00088207949 -0.0032665887      1.46003 0.00037656729 -0.0032665887    1.4632965      397 
 7254000 0.00089313401 -0.0037698098    1.4704385 0.00038153476 -0.0037698098    1.4742083      399 
 7255000  0.000874157 -0.0090530011    1.4124558 0.00037131928 -0.0090530011    1.4215088      405 
 7256000 0.00088409639 -0.003395992    1.4895708 0.0003781645 -0.003395992    1.4929668      390 
 7257000 0.00092721765 -0.0020652578    1.4837164 0.00039652453 -0.0020652578    1.4857817      411 
 7258000 0.00090067863 -0.0055874878    1.4518522 0.00038317916 -0.0055874878    1.4574397      407 
 7259000 0.00091703842 -0.0044304204    1.4614733 0.00039044977 -0.0044304204    1.4659037      412 
 7260000 0.00087143017 -0.0030809142    1.3933064 0.00037135775 -0.0030809142    1.3963873      411 
 7261000 0.00087153909 -0.0064918795    1.4429701 0.00037049991 -0.0064918795    1.4494619      396 
 7262000 0.00084266332 -0.0078177561    1.4079211 0.00035964745 -0.0078177561    1.4157389      392 
 7263000 0.00082315687 -0.0034599943    1.3759875 0.00035082887 -0.0034599943    1.3794475      393 
 7264000 0.00089477655 -0.0035080014    1.4479474 0.00038114683 -0.0035080014    1.4514554      406 
 7265000 0.00082498562 -0.0041163563    1.4256923 0.00035398454 -0.0041163563    1.4298086      380 
 7266000 0.00083159779 -0.0029788206    1.4158864 0.00035482092 -0.0029788206    1.4188653      386 
 7267000 0.00085006934 -0.0016092365    1.4375866 0.00036336381 -0.0016092365    1.4391958      389 
 7268000 0.00088828928 -0.0030657147    1.4668299 0.00037897777 -0.0030657147    1.4698956      398 
 7269000 0.00082568445 -0.0025578292    1.4062181 0.00035515274 -0.0025578292     1.408776      386 
 7270000 0.00083761512 -0.0025029211    1.4011738 0.00035748104 -0.0025029211    1.4036767      393 
 7271000 0.00083720389 -0.0018386059    1.3800514 0.0003576576 -0.0018386059      1.38189      399 
 7272000 0.0008271132 -0.0027636231    1.4158001 0.00035455386 -0.0027636231    1.4185638      384 
 7273000 0.00084938757 -0.010622714     1.473192 0.00036616126 -0.010622714    1.4838148      377 
 7274000 0.00081601241 -0.0025443835    1.4080005 0.00035172104 -0.0025443835    1.4105449      381 
 7275000 0.00081196766 -0.0049118981    1.3913121 0.00034803104 -0.0049118981     1.396224      383 
 7276000 0.0008333312 -0.0082536262    1.4247062 0.00035460906 -0.0082536262    1.4329598      383 
 7277000 0.00080527016 -0.003542573    1.4032025 0.00035343687 -0.003542573     1.406745      377 
 7278000 0.0008166772 -0.0056044534    1.3950607 0.00034795088 -0.0056044534    1.4006652      384 
 7279000 0.00085515788 -0.0040112104    1.4437997 0.00036384855 -0.0040112104    1.4478109      389 
 7280000 0.00090107675 -0.0064380187    1.4697812 0.00038414217 -0.0064380187    1.4762192      402 
 7281000 0.00087038962 -0.0024320474    1.4598891 0.00037137537 -0.0024320474    1.4623212      392 
 7282000 0.0008562867 -0.0013802319    1.4483418 0.00036623684 -0.0013802319     1.449722      389 
 7283000 0.00082614428 -0.0043498085    1.4504372 0.0003516571 -0.0043498085    1.4547871      374 
 7284000 0.00087612634 -0.0030953824     1.503453 0.00037560768 -0.0030953824    1.5065484      383 
 7285000 0.00087038481 -0.0026294766    1.4940461 0.00037288398 -0.0026294766    1.4966755      383 
 7286000 0.00082039053 -0.0064810944    1.4343216 0.00034867137 -0.0064810944    1.4408027      375 
 7287000 0.00082320785 -0.0037066531    1.3972144 0.00035208836 -0.0037066531    1.4009211      387 
 7288000 0.0008220585 -0.0056372508     1.445836 0.0003490426 -0.0056372508    1.4514732      373 
 7289000 0.00080736481 -0.00043978927    1.4099644 0.00035684761 -0.00043978927    1.4104042      377 
 7290000 0.00082718206 -0.0026891937    1.4423342 0.00035472394 -0.0026891937    1.4450234      377 
 7291000 0.0007932326 -0.0022287134    1.3689394 0.00033879238 -0.0022287134    1.3711681      381 
 7292000 0.00082570691 -0.0071459383    1.4314845 0.00035191391 -0.0071459383    1.4386305      378 
 7293000 0.0008163213 -0.014143543    1.4310743 0.00034453456 -0.014143543    1.4452179      372 
 7294000 0.00079749683 -0.0026923202    1.3544742 0.00034022793 -0.0026923202    1.3571665      387 
 7295000 0.00082975384 -0.0084068503    1.4725351 0.00035280249 -0.0084068503     1.480942      369 
 7296000 0.00080702259 -0.0038146484    1.4097412 0.00034369641 -0.0038146484    1.4135559      376 
 7297000 0.00077846556 -0.0025915883    1.4097766 0.00033286274 -0.0025915883    1.4123681      363 
 7298000 0.00078975863 -0.005211262    1.4395863 0.00033664893 -0.005211262    1.4447976      360 
 7299000 0.00083011919 -0.0047020126    1.4454524 0.00035531651 -0.0047020126    1.4501544      377 
 7300000 0.00089856094 -0.0043854508    1.4976025 0.00038470607 -0.0043854508    1.5019879      394 
 7301000 0.00085397996 -0.0036204841    1.4764391 0.0003640703 -0.0036204841    1.4800596      380 
 7302000 0.00084045769 -0.0046225617    1.4443749 0.00035843996 -0.0046225617    1.4489975      382 
 7303000 0.00090046356 0.00057998028    1.5172969 0.00040810042 0.00057998028    1.5167169      391 
 7304000 0.00089229121 -0.0030981157    1.4884097 0.00038066424 -0.0030981157    1.4915078      394 
 7305000 0.00089582893 -0.0022908739    1.5341257 0.00038266885 -0.0022908739    1.5364166      384 
 7306000 0.00089624466 -0.0032319513    1.5219819 0.00038432084 -0.0032319513    1.5252139      387 
 7307000 0.00090596208 -0.0070055359    1.5347453 0.00038544812 -0.0070055359    1.5417508      387 
 7308000 0.00088729517 -0.0043004863    1.5581694 0.00037878539 -0.0043004863    1.5624699      374 
 7309000 0.00088484844 -0.0083747659    1.5373874 0.00037583762 -0.0083747659    1.5457622      377 
 7310000 0.00085782488 -0.0053231095    1.5174663 0.00036486866 -0.0053231095    1.5227894      371 
 7311000 0.00089493413 -0.0052124677    1.6007675 0.00038149312 -0.0052124677      1.60598      367 
 7312000 0.0008887373 -0.0046887846    1.5687346 0.00037811537 -0.0046887846    1.5734234      372 
 7313000 0.00086616315 -0.0038615535    1.5213962 0.00036933525 -0.0038615535    1.5252577      374 
 7314000 0.00091149343 -0.0047803391    1.5960209 0.00038936375 -0.0047803391    1.6008012      375 
 7315000 0.00091982434 -0.0040377652    1.5859546 0.0003943122 -0.0040377652    1.5899924      381 
 7316000 0.00094373034 -0.0040654907    1.5774393 0.00040251241 -0.0040654907    1.5815048      393 
 7317000 0.00088645455 -0.0043457962    1.5319966 0.00037780144 -0.0043457962    1.5363424      380 
 7318000 0.00087353498 -0.0026904512    1.5273665 0.00037258545 -0.0026904512    1.5300569      376 
 7319000 0.00089739825 -0.0038225865    1.5474045 0.00038248585 -0.0038225865    1.5512271      381 
 7320000 0.00093390241 -0.0043046104     1.601593 0.00039975593 -0.0043046104    1.6058976      383 
 7321000 0.00090720627 -0.0055251364    1.5304054 0.00038713683 -0.0055251364    1.5359305      389 
 7322000 0.00088220336 -0.0022748097    1.4951744 0.00037668541 -0.0022748097    1.4974492      388 
 7323000 0.00091352326 -0.0058435468    1.5058079 0.00038785949 -0.0058435468    1.5116515      398 
 7324000 0.00090771841 -0.0058806633    1.5269764 0.00038794217 -0.0058806633    1.5328571      390 
 7325000 0.00094231239 -0.0031447015    1.5600732 0.00040205644 -0.0031447015    1.5632179      397 
 7326000 0.00088223227 -0.0023967557     1.472297 0.00037688609 -0.0023967557    1.4746938      394 
 7327000 0.00090793109 -0.0038992367    1.5099092 0.00038706528 -0.0038992367    1.5138085      395 
 7328000 0.00091192929 -0.011143128    1.4865813 0.00038834683 -0.011143128    1.4977245      401 
 7329000 0.00091023328 -0.0053805806    1.5122663 0.00038736878 -0.0053805806    1.5176469      395 
 7330000  0.000864753 -0.0043080527    1.4559937 0.00036923078 -0.0043080527    1.4603017      390 
 7331000 0.00086223464 -0.004704342    1.4513447 0.00036839844 -0.004704342     1.456049      390 
 7332000 0.00088580294 -0.0056292253    1.4601521 0.00037862751 -0.0056292253    1.4657813      398 
 7333000 0.00090161887 -0.0028842191    1.5003998 0.00038707097 -0.0028842191     1.503284      395 
 7334000 0.00085792405 -0.0052443219    1.4324661 0.00037195727 -0.0052443219    1.4377104      393 
 7335000 0.0008561942 -0.0016663248    1.4441822 0.00036604095 -0.0016663248    1.4458486      390 
 7336000 0.0007956256 -0.0039312429    1.3822885 0.00033846773 -0.0039312429    1.3862198      378 
 7337000  0.000815747 -0.0017211463    1.4120757 0.0003485214 -0.0017211463    1.4137969      380 
 7338000 0.00082123735 -0.0032282223    1.3979601 0.00034982286 -0.0032282223    1.4011884      386 
 7339000 0.00079808834 -0.0024381875    1.4029442 0.00034131763 -0.0024381875    1.4053824      374 
 7340000 0.00076338382 -0.0029597471    1.3558428 0.0003288544 -0.0029597471    1.3588026      370 
 7341000 0.00077702458 -0.0066984646     1.361592 0.00033151684 -0.0066984646    1.3682904      374 
 7342000 0.00079869274 -0.0070154561     1.373591 0.00034347761 -0.0070154561    1.3806064      381 
 7343000 0.00082066257 -0.0018294935    1.4204867 0.00035072781 -0.0018294935    1.4223162      380 
 7344000 0.00080153448 -0.0019749942    1.3655965 0.0003423235 -0.0019749942    1.3675715      386 
 7345000 0.00076570254 -0.0031501762    1.3746751 0.00033240753 -0.0031501762    1.3778252      366 
 7346000 0.0007993161 -0.0032914948     1.360495 0.00034074561 -0.0032914948    1.3637865      386 
 7347000 0.00080156647 -0.0060915749    1.3867941 0.00034605754 -0.0060915749    1.3928856      379 
 7348000 0.00076876528 -0.0047368442    1.3599562 0.0003316151 -0.0047368442    1.3646931      371 
 7349000 0.00079630056 -0.004245564    1.4169891 0.00033989858 -0.004245564    1.4212346      369 
 7350000 0.00080496648 -0.0019230422    1.4005713 0.00034416872 -0.0019230422    1.4024944      378 
 7351000 0.00075684501 -0.0040316913    1.3541442 0.00032214451 -0.0040316913    1.3581759      367 
 7352000 0.0007691188 -0.0029029955     1.373548 0.00032786562 -0.0029029955     1.376451      368 
 7353000  0.000766022 -0.0047729553    1.3698713 0.00032556877 -0.0047729553    1.3746442      367 
 7354000 0.0007724662 -0.0020421803    1.3803994 0.00033013097 -0.0020421803    1.3824416      368 
 7355000 0.00077248043 -0.002653621    1.3760669 0.00033097169 -0.002653621    1.3787206      369 
 7356000 0.00080599888 -0.0028197284    1.3795313 0.00034759003 -0.0028197284    1.3823511      384 
 7357000 0.00084513677 -0.0043043924    1.4642936 0.00036070317 -0.0043043924     1.468598      379 
 7358000 0.0008882393 -0.0030409556     1.516402 0.00037882659 -0.0030409556    1.5194429      385 
 7359000 0.00084147863 -0.0020101704    1.4679883 0.0003594027 -0.0020101704    1.4699984      377 
 7360000 0.00080650711 -0.0015657632    1.4036128 0.00034466238 -0.0015657632    1.4051786      378 
 7361000 0.0008506078 -0.0028233685    1.4560355 0.00036278035 -0.0028233685    1.4588588      384 
 7362000 0.00085290067  -0.00298669    1.4674632 0.00036389995  -0.00298669    1.4704499      382 
 7363000 0.00082115289 -0.0031923364    1.4351137 0.00035185399 -0.0031923364    1.4383061      376 
 7364000 0.0008583777 -0.0049776681    1.4408509 0.00036824114 -0.0049776681    1.4458286      391 
 7365000 0.00083864528 -0.0059602933    1.4949185 0.00035680329 -0.0059602933    1.5008788      368 
 7366000 0.00083917751 -0.0021248212    1.4522802 0.00035843321 -0.0021248212     1.454405      380 
 7367000 0.00083872099 -0.0039803659    1.4729535 0.00036093742 -0.0039803659    1.4769338      374 
 7368000 0.0008723161 -0.0013913118    1.5144363 0.00037316639 -0.0013913118    1.5158276      379 
 7369000 0.00087569093 -0.0018018969    1.4845932 0.00037427765 -0.0018018969    1.4863951      388 
 7370000 0.00080719158 -0.0057429169    1.4233117 0.00034296639 -0.0057429169    1.4290546      372 
 7371000 0.00083592855 -0.0031220377    1.4305607 0.00035883274 -0.0031220377    1.4336828      384 
 7372000 0.00083401142 -0.0023738522    1.4280209 0.00035892948 -0.0023738522    1.4303947      384 
 7373000 0.00087471898 -0.0035721964    1.4888661 0.00037298985 -0.0035721964    1.4924383      386 
 7374000 0.0008372779 -0.0023176531    1.4526239 0.00036112319 -0.0023176531    1.4549416      379 
 7375000 0.00087298026 -0.0040028825    1.4777911 0.00037573014 -0.0040028825     1.481794      388 
 7376000 0.00084321807 -0.0026830522    1.5063794 0.00036260109 -0.0026830522    1.5090625      368 
 7377000 0.00081880682 -0.0028885621    1.4624864 0.00035078886 -0.0028885621     1.465375      368 
 7378000 0.00079634566 -0.0067182806    1.4223424 0.00034203548 -0.0067182806    1.4290607      367 
 7379000 0.00081610223 -0.0078894843    1.4253819 0.00034751648 -0.0078894843    1.4332714      375 
 7380000 0.00078802321 -0.0024869515    1.4077962 0.00033648361 -0.0024869515    1.4102832      368 
 7381000 0.00079763182 -0.0039252755    1.4593403 0.00034451109 -0.0039252755    1.4632656      359 
 7382000 0.00076615642 -0.0043298571    1.3895457 0.00032589185 -0.0043298571    1.3938756      362 
 7383000 0.00081888626 -0.0061249052    1.4878094 0.00034814598 -0.0061249052    1.4939344      361 
 7384000 0.00077267864 -0.0043814131    1.4331283 0.0003295337 -0.0043814131    1.4375097      354 
 7385000 0.00082168763 -0.0024053582    1.4883805 0.00035079983 -0.0024053582    1.4907858      363 
 7386000 0.00080288028 -0.0019393123    1.4310388 0.00034311549 -0.0019393123    1.4329781      369 
 7387000 0.00077350884 -0.0027012488    1.3891709 0.00033016655 -0.0027012488    1.3918721      366 
 7388000 0.00078156941 -0.0065109066    1.4193445 0.00033484629 -0.0065109066    1.4258554      361 
 7389000 0.00077432796 -0.002962533    1.3903835 0.00033079602 -0.002962533     1.393346      366 
 7390000 0.00077587041 -0.0037961214    1.3698073 0.00033150925 -0.0037961214    1.3736035      372 
 7391000 0.00081181554 -0.0029238974    1.4381909 0.00034897211 -0.0029238974    1.4411148      371 
 7392000 0.0008191802 -0.0039713911    1.4270734 0.00035261216 -0.0039713911    1.4310448      377 
 7393000 0.0008223015 -0.0015935924    1.4581356 0.00036396778 -0.0015935924    1.4597292      371 
 7394000 0.00082860354 -0.0033111198    1.4755778 0.00035536988 -0.0033111198    1.4788889      369 
 7395000 0.00078374225 -0.0054991587    1.3895409 0.00033372624 -0.0054991587      1.39504      370 
 7396000 0.0008199525 -0.0060838122    1.4494755 0.00034790201 -0.0060838122    1.4555593      371 
 7397000 0.00081239321 -0.0012009901    1.4566574 0.00034723763 -0.0012009901    1.4578584      367 
 7398000 0.00081529389  -0.00143946    1.4266042 0.00034848273  -0.00143946    1.4280436      376 
 7399000 0.00081874298 -0.0044919545     1.410773 0.00034855732 -0.0044919545    1.4152649      381 
 7400000 0.00083528945 -0.0013827443    1.4462838 0.00035725581 -0.0013827443    1.4476665      380 
 7401000 0.00083612643 -0.0026745754    1.4502661 0.00036489853 -0.0026745754    1.4529407      379 
 7402000 0.0008637509 -0.0018782421     1.441923 0.00036868613 -0.0018782421    1.4438013      394 
 7403000 0.00079332563 -0.0012033727    1.3629646 0.00033920665 -0.0012033727     1.364168      383 
 7404000 0.00079698243 -0.0024117858    1.3898552 0.0003402808 -0.0024117858     1.392267      377 
 7405000 0.0007739569 -0.00077053852    1.3548685 0.00033114842 -0.00077053852     1.355639      376 
 7406000 0.00083518814 -0.0029925924    1.4183163 0.00035601491 -0.0029925924    1.4213089      387 
 7407000 0.00087301302 -0.0011951474    1.4184534 0.00037331136 -0.0011951474    1.4196485      405 
 7408000 0.00085043467 -0.0002830381    1.4358394 0.0003643018 -0.0002830381    1.4361225      390 
 7409000 0.00085688228 -0.0061241235    1.4711903 0.00036414983 -0.0061241235    1.4773144      382 
 7410000 0.00091157676 -0.0015256798     1.526096 0.0003896086 -0.0015256798    1.5276217      393 
 7411000 0.00087377571 -0.0029604955    1.4725778 0.00037482479 -0.0029604955    1.4755383      390 
 7412000 0.00083381437 -0.00081237288    1.4072435 0.00035679821 -0.00081237288    1.4080559      390 
 7413000 0.00080793623 -0.00017318059    1.3606931 0.00034619286 -0.00017318059    1.3608663      391 
 7414000 0.00080040754 -0.0074707844     1.383401 0.00034467013 -0.0074707844    1.3908718      379 
 7415000 0.00084219893 -0.00082506166    1.4324147   0.00036043 -0.00082506166    1.4332398      387 
 7416000 0.00087494552 -0.0044447402    1.4361312 0.00037323724 -0.0044447402    1.4405759      400 
 7417000 0.00087604101 -0.0015982972    1.4590393 0.00037437611 -0.0015982972    1.4606376      395 
 7418000 0.00087721042 -0.00078465731    1.4692459  0.000375387 -0.00078465731    1.4700306      393 
 7419000 0.00082006156 -0.0036877886    1.4027819 0.00035838045 -0.0036877886    1.4064696      384 
 7420000 0.00086968942 -0.0048031842    1.4790537 0.00037352511 -0.0048031842    1.4838569      386 
 7421000 0.00084255693 -0.0048105229    1.4631777 0.00036252532 -0.0048105229    1.4679883      378 
 7422000 0.00086732866 -0.00042121946      1.46423 0.00037151678 -0.00042121946    1.4646512      390 
 7423000 0.00086458033 -0.004169512    1.4825249 0.00037154431 -0.004169512    1.4866944      383 
 7424000 0.00089798885 -0.00075646895    1.5040946 0.00038436911 -0.00075646895    1.5048511      393 
 7425000 0.00083616867 -0.00093721639    1.4183729 0.00035772793 -0.00093721639    1.4193101      388 
 7426000 0.0008788293 -0.0038136745    1.4726868 0.00037418243 -0.0038136745    1.4765005      392 
 7427000 0.00083299038 -6.7052929e-05    1.4360563 0.00035704811 -6.7052929e-05    1.4361234      382 
 7428000 0.00085244237 -0.0012871863     1.427237 0.0003643843 -0.0012871863    1.4285242      393 
 7429000 0.00087798099 -0.0011145073    1.4517234 0.00037552929 -0.0011145073    1.4528379      398 
 7430000 0.00088076417 -0.0028412839    1.4656713 0.00037620899 -0.0028412839    1.4685126      395 
 7431000 0.00093183265 -0.0024689716    1.5165797 0.0004020081 -0.0024689716    1.5190487      404 
 7432000 0.00088986191 -0.0032034969    1.5190151 0.00038157764 -0.0032034969    1.5222186      385 
 7433000 0.00086059556 -0.001367503    1.4519136 0.00036807124 -0.001367503    1.4532811      390 
 7434000 0.00087207575 -0.0038279442    1.4688397 0.00037402416 -0.0038279442    1.4726676      390 
 7435000 0.00090626336 -0.00087569565    1.5063364 0.00038777126 -0.00087569565    1.5072121      396 
 7436000 0.0008707072 -0.0008169411    1.4809377 0.00037257567 -0.0008169411    1.4817547      387 
 7437000 0.00088792871 -0.00012052866    1.4878718 0.00038056226 -0.00012052866    1.4879923      393 
 7438000 0.00089911173 -0.0024983856    1.5080781 0.00038404049 -0.0024983856    1.5105765      392 
 7439000 0.00092860696            0    1.5100525 0.00039815837            0    1.5100525      405 
 7440000 0.00091855297  -0.00396077    1.5008895 0.00039698805  -0.00396077    1.5048503      402 
 7441000 0.00085459828 -0.00067983754    1.4314573 0.00036581054 -0.00067983754    1.4321371      393 
 7442000 0.00085955318 -0.0011648232    1.4211797 0.00036753239 -0.0011648232    1.4223445      398 
 7443000 0.00084043223 -0.0022129616    1.4133887 0.00035903239 -0.0022129616    1.4156017      391 
 7444000 0.00080760383 -0.001155469    1.3661448 0.00034546876 -0.001155469    1.3673003      389 
 7445000 0.00080515846 -0.0038145347    1.3454712 0.00034603787 -0.0038145347    1.3492858      393 
 7446000 0.00081575922 -0.0012160901    1.3319126 0.00034872898 -0.0012160901    1.3331287      403 
 7447000 0.00088989359 -0.00042151422    1.4502592 0.0003810456 -0.00042151422    1.4506807      404 
 7448000 0.00086822836 -0.0055364338    1.4098262 0.00036951412 -0.0055364338    1.4153627      404 
 7449000 0.00085139837 -0.0046487644    1.4442465 0.00036245776 -0.0046487644    1.4488952      387 
 7450000 0.00089585285 -0.00030677306    1.4637124 0.00038372118 -0.00030677306    1.4640192      403 
 7451000 0.00084759344 -0.0011471319    1.4084907 0.00036228133 -0.0011471319    1.4096378      396 
 7452000 0.00087762608 -0.004370015    1.4370159 0.00038738859 -0.004370015    1.4413859      401 
 7453000 0.0008782051 -0.0010108158    1.4782145 0.00037565508 -0.0010108158    1.4792253      391 
 7454000 0.00086620322 -0.00063939182    1.4509453 0.00037085049 -0.00063939182    1.4515847      393 
 7455000 0.00084895779 -0.003022819    1.4053276 0.00036274377 -0.003022819    1.4083504      397 
 7456000 0.00081638454 -0.004463621    1.3956996 0.00034996847 -0.004463621    1.4001633      384 
 7457000 0.00082653131 -0.00089515301    1.4093257 0.0003537318 -0.00089515301    1.4102209      386 
 7458000 0.00087108066 -0.0016853793    1.4655397 0.00037219571 -0.0016853793    1.4672251      391 
 7459000 0.00086132331 -0.0037480557    1.4545011 0.00037004001 -0.0037480557    1.4582492      389 
 7460000 0.00083634855 -0.00012747004    1.4570439 0.00035844474 -0.00012747004    1.4571714      378 
 7461000 0.00082969998 -0.0019258202    1.3991822 0.0003542739 -0.0019258202     1.401108      390 
 7462000 0.00082292802 -0.0022416319    1.4430175 0.00035156361 -0.0022416319    1.4452591      375 
 7463000 0.00083762442 -0.0026069634    1.4529367 0.00035778968 -0.0026069634    1.4555437      379 
 7464000 0.0008327964 -0.00015263618    1.4097995 0.00035680464 -0.00015263618    1.4099521      389 
 7465000 0.00080766374 -0.0026588937    1.4427739 0.00034450999 -0.0026588937    1.4454328      368 
 7466000 0.00082722752 -0.0004702066    1.4370068 0.00035413121 -0.0004702066     1.437477      379 
 7467000 0.00079872613 -0.0024401433    1.3674376 0.00034168703 -0.0024401433    1.3698777      384 
 7468000 0.00082083502 -0.0034688184    1.4154124 0.00035158396 -0.0034688184    1.4188812      381 
 7469000 0.00079109632 -0.00043591319    1.4038987 0.0003388673 -0.00043591319    1.4043346      371 
 7470000 0.00083298087 -0.0015184912     1.453635 0.00035601051 -0.0015184912    1.4551535      377 
 7471000 0.00083143613 -0.0007082365    1.4440821 0.00035586574 -0.0007082365    1.4447903      379 
 7472000 0.00083080623 -0.003165035    1.4405307 0.00035592795 -0.003165035    1.4436957      379 
 7473000 0.00079239415 -0.0029498821    1.3924054 0.00034635773 -0.0029498821    1.3953552      374 
 7474000 0.00083148804 -0.0053422662    1.4395382 0.00035341976 -0.0053422662    1.4448805      379 
 7475000 0.00076000239 -0.0010256892    1.4010191 0.0003322343 -0.0010256892    1.4020447      357 
 7476000 0.00077637216 -0.0018996156    1.4105616 0.00033158755 -0.0018996156    1.4124612      362 
 7477000 0.00079165537 -0.0021994772    1.4107445 0.00033798092 -0.0021994772    1.4129439      369 
 7478000 0.00079224684 -0.0031999263    1.3918959 0.00034806367 -0.0031999263    1.3950958      374 
 7479000 0.0007598657 -0.00029846613    1.3670238 0.00032553586 -0.00029846613    1.3673223      366 
 7480000 0.00080080904 -0.004586329    1.3980861 0.0003409317 -0.004586329    1.4026724      376 
 7481000 0.00077809848 -0.00076235556    1.3585158 0.00033288718 -0.00076235556    1.3592782      377 
 7482000 0.00073960588 -0.0027179888    1.3209153 0.00031526623 -0.0027179888    1.3236333      368 
 7483000 0.00079032987 -0.00059169576    1.4061741 0.00033832755 -0.00059169576    1.4067658      370 
 7484000 0.00081865939 -0.0023078271    1.4240437 0.00034937136 -0.0023078271    1.4263516      378 
 7485000 0.00080818524 -0.0015086678    1.4527611 0.00035151329 -0.0015086678    1.4542697      366 
 7486000 0.00082240912 -0.0023552416    1.3935995 0.00035570834 -0.0023552416    1.3959547      388 
 7487000 0.0008345965 -0.0030813229    1.4665896 0.00035671913 -0.0030813229    1.4696709      374 
 7488000 0.00085779405 -0.00095449431    1.5468115 0.00036703501 -0.00095449431     1.547766      365 
 7489000 0.00081235449 -0.0027793439    1.4392922 0.00034642887 -0.0027793439    1.4420715      371 
 7490000  0.000820416 -0.0090445867    1.4395285 0.00034848504 -0.0090445867    1.4485731      373 
 7491000 0.00082265423 -0.0032386016     1.477067 0.00035431826 -0.0032386016    1.4803056      366 
 7492000 0.00085536132 -0.0064702166    1.4997662 0.00036460885 -0.0064702166    1.5062364      374 
 7493000 0.00085944623 -0.0035303462    1.4704871 0.00037014984 -0.0035303462    1.4740174      384 
 7494000 0.00085995579 -0.0011323989    1.4971699 0.00036787811 -0.0011323989    1.4983023      378 
 7495000 0.00086210804 -0.00086742027    1.4662533  0.000368761 -0.00086742027    1.4671208      387 
 7496000 0.00084264273 -0.0014141234    1.4475574 0.00036022703 -0.0014141234    1.4489715      383 
 7497000 0.00086926763 -0.0035662374    1.4911883 0.00037068472 -0.0035662374    1.4947545      383 
 7498000 0.00084358352 -0.0074116547    1.4701832 0.0003638121 -0.0074116547    1.4775949      376 
 7499000 0.00085372789 -0.0012399461    1.4941235 0.00036516415 -0.0012399461    1.4953634      376 
 7500000 0.00084135519 -0.00013056115    1.4504142 0.00036055617 -0.00013056115    1.4505448      382 
 7501000 0.00085362763 -0.0037438437     1.487478 0.00036356513 -0.0037438437    1.4912218      377 
 7502000 0.00087723008 -0.00013281227    1.5122624 0.00037593669 -0.00013281227    1.5123952      382 
 7503000 0.00084679587 -0.0018201454     1.489333 0.00036201446 -0.0018201454    1.4911532      374 
 7504000 0.00083883143 -0.0030213258    1.4981906 0.00035884412 -0.0030213258    1.5012119      368 
 7505000 0.00083582163 -0.0025814463    1.4575346 0.00035656884 -0.0025814463    1.4601161      377 
 7506000 0.0008242583 -0.0026847789    1.4724464 0.00035206567 -0.0026847789    1.4751312      368 
 7507000 0.00086392802 -0.0031392493    1.5020839 0.00037188849 -0.0031392493    1.5052232      378 
 7508000 0.00086544085 -8.1104077e-05    1.5077779 0.00037098403 -8.1104077e-05     1.507859      378 
 7509000 0.00089095877 -0.001170087     1.547053 0.00038125513 -0.001170087    1.5482231      379 
 7510000 0.00090595651 -0.0030022448    1.5268795 0.00038729534 -0.0030022448    1.5298818      390 
 7511000 0.00087013586 -0.0035449514    1.5005568 0.00037036084 -0.0035449514    1.5041018      381 
 7512000 0.00084566606 -0.0040943511     1.469311 0.00036355321 -0.0040943511    1.4734053      378 
 7513000 0.00084249324 -0.0034907356    1.4761296 0.00035954103 -0.0034907356    1.4796203      375 
 7514000 0.00088592852 -0.0042572539    1.5073066  0.000379324 -0.0042572539    1.5115639      386 
 7515000 0.00087814808 -0.005482019    1.5491942 0.00037635075 -0.005482019    1.5546762      372 
 7516000 0.00086168773 -0.0010906791    1.4923275 0.00036867292 -0.0010906791    1.4934182      380 
 7517000 0.00087859297 -0.0040489227     1.526725 0.00037459652 -0.0040489227    1.5307739      378 
 7518000 0.00088275296 -0.0033905282     1.538711 0.00037632717 -0.0033905282    1.5421015      377 
 7519000 0.00087801723 -0.0047787226    1.5496658 0.00038271544 -0.0047787226    1.5544445      372 
 7520000 0.0008312803 -0.0047193861    1.5076367 0.00035479336 -0.0047193861    1.5123561      362 
 7521000 0.00084299927 -0.002402152    1.5355227 0.00035976672 -0.002402152    1.5379249      361 
 7522000 0.0008527316 -0.0024758988    1.5194767 0.00036373866 -0.0024758988    1.5219526      369 
 7523000 0.00083428998 -0.0014967972    1.5163348 0.00035659042 -0.0014967972    1.5178316      362 
 7524000 0.00076822795 -0.0036177644    1.4460878 0.00032720069 -0.0036177644    1.4497056      349 
 7525000 0.00078518976 -0.0014594611    1.4593262 0.00033558894 -0.0014594611    1.4607857      354 
 7526000 0.00076965563 -0.0017162852    1.4261358 0.00032875775 -0.0017162852    1.4278521      355 
 7527000 0.00075984852 -0.0024861423    1.4607555 0.00032421534 -0.0024861423    1.4632416      342 
 7528000 0.00078439233 -0.0077976323    1.4895732 0.00033311757 -0.0077976323    1.4973709      345 
 7529000 0.0007095925 -0.0019651226    1.4056569 0.00030294578 -0.0019651226    1.4076221      332 
 7530000 0.00076648021 -0.0056825522    1.4790122 0.00032640558 -0.0056825522    1.4846947      340 
 7531000 0.00081044269 -0.0038483378    1.5343345 0.00034598238 -0.0038483378    1.5381829      347 
 7532000 0.0008308006 -0.0018975356    1.5481222 0.00036061237 -0.0018975356    1.5500197      353 
 7533000 0.00078904398 -0.0030617166    1.5119717 0.0003386232 -0.0030617166    1.5150335      343 
 7534000 0.00081098878 -0.0019653719    1.5110916 0.00034624366 -0.0019653719    1.5130569      353 
 7535000 0.0007777182 -0.0031738605    1.4437115 0.00033246359 -0.0031738605    1.4468854      354 
 7536000 0.00077946032 -0.0050830872    1.4828728 0.00033200966 -0.0050830872    1.4879559      345 
 7537000 0.00083807898 -0.0031784519    1.5173462 0.00035809493 -0.0031784519    1.5205246      363 
 7538000 0.0007679254 -0.0030727133    1.4671249 0.00032772317 -0.0030727133    1.4701976      344 
 7539000 0.00078795618 -0.0068967579    1.4715649 0.00033500314 -0.0068967579    1.4784617      351 
 7540000 0.00075964982 -0.0053043254     1.440643 0.00032391977 -0.0053043254    1.4459473      346 
 7541000 0.00079398114 -0.0059211365    1.4227894 0.00033796181 -0.0059211365    1.4287105      366 
 7542000 0.00076463004 -0.0022692827    1.4283492 0.00032647656 -0.0022692827    1.4306185      352 
 7543000 0.00081065285 -0.0024869096      1.48882 0.00034604488 -0.0024869096    1.4913069      358 
 7544000 0.0007804907 -0.0065328602    1.4173546 0.00033396002 -0.0065328602    1.4238874      361 
 7545000 0.00082847844 -0.0029344396    1.4677599 0.00035411873 -0.0029344396    1.4706944      371 
 7546000 0.00082572481 -0.0031679323    1.4745878 0.00035539867 -0.0031679323    1.4777557      368 
 7547000 0.00084389277 -0.0046910645    1.5055789 0.00036732484 -0.0046910645    1.5102699      368 
 7548000 0.00086642194 -0.0077331844      1.49389 0.00036887301 -0.0077331844    1.5016232      380 
 7549000 0.00087277927 -0.0056159151    1.5563507 0.00037465723 -0.0056159151    1.5619666      368 
 7550000 0.00091401635 -0.0047221855     1.609117 0.00038922748 -0.0047221855    1.6138392      373 
 7551000 0.00087028715 -0.0026876815    1.5463999 0.00037158093 -0.0026876815    1.5490876      370 
 7552000 0.00084783153 -0.0058468346    1.4831488 0.00036918516 -0.0058468346    1.4889956      375 
 7553000 0.00084020449 -0.0051511025    1.5234408 0.00036157661 -0.0051511025    1.5285919      362 
 7554000 0.00087962051 -0.0063263534    1.4983731 0.00037619616 -0.0063263534    1.5046994      385 
 7555000 0.00088880682 -0.0040462565    1.5445233 0.00037870113 -0.0040462565    1.5485695      378 
 7556000 0.0008134411 -0.0027950802    1.4853276 0.00034712003 -0.0027950802    1.4881227      360 
 7557000 0.00081488829 -0.0064752495    1.4760587 0.00034689904 -0.0064752495    1.4825339      362 
 7558000 0.00080072159 -0.0064331577     1.446314 0.00034088117 -0.0064331577    1.4527472      363 
 7559000 0.00082516888 -0.011946656    1.4648141 0.00035180477 -0.011946656    1.4767608      368 
 7560000 0.0008360393 -0.0050149458    1.4871453 0.00036703158 -0.0050149458    1.4921602      369 
 7561000 0.00082774765 -0.0041303264    1.4613168 0.00035503749 -0.0041303264    1.4654471      372 
 7562000 0.00080283949 -0.009001385    1.4277977 0.00034130916 -0.009001385    1.4367991      368 
 7563000 0.00079464222 -0.0046613622    1.4410387 0.00033770744 -0.0046613622    1.4457001      362 
 7564000 0.00080598485 -0.0066990451    1.4677831 0.00034278867 -0.0066990451    1.4744821      360 
 7565000 0.00085190699 -0.0026777796    1.5055411 0.00036485752 -0.0026777796    1.5082189      372 
 7566000 0.00081376834 -0.0040234342    1.4683384 0.00034806426 -0.0040234342    1.4723618      364 
 7567000 0.00077584509 -0.00014854808    1.4555888 0.00033249564 -0.00014854808    1.4557374      351 
 7568000 0.0008044949 -0.0021195901    1.4298596 0.00034847721 -0.0021195901    1.4319792      370 
 7569000 0.0007900442 -0.0015555537    1.4200707 0.00033753392 -0.0015555537    1.4216263      366 
 7570000 0.00080742781 -0.00010774599     1.452799 0.00034606101 -0.00010774599    1.4529068      366 
 7571000 0.00081334557 -0.002761579    1.4410693 0.00034920198 -0.002761579    1.4438309      371 
 7572000 0.00080476471 -0.0052567046    1.4272027 0.00034252835 -0.0052567046    1.4324594      370 
 7573000 0.00077584311 -0.0045503686    1.3400878 0.00033182819 -0.0045503686    1.3446382      380 
 7574000 0.00079631223 -0.0003203677    1.4056938 0.00034111229 -0.0003203677    1.4060141      373 
 7575000 0.0007707106 -0.0023758633     1.347577 0.00032921072 -0.0023758633    1.3499529      376 
 7576000 0.00075877265 -0.00088855206    1.3682076 0.0003246768 -0.00088855206    1.3690961      365 
 7577000 0.00075800412 -0.0014056093     1.333391 0.00032376774 -0.0014056093    1.3347966      374 
 7578000 0.00078585034 -0.00011768781    1.3874243 0.0003368329 -0.00011768781     1.387542      373 
 7579000 0.00080263735 -0.0010887224     1.375497 0.00034334398 -0.0010887224    1.3765858      384 
 7580000 0.00079542173 -0.0051116024    1.4184123 0.0003381797 -0.0051116024    1.4235239      368 
 7581000 0.00083320867 -0.0033039501    1.4331958 0.00035596348 -0.0033039501    1.4364997      382 
 7582000 0.00086263892 -0.0010832776    1.4445283 0.00036901283 -0.0010832776    1.4456116      393 
 7583000 0.00086708819 -0.0018404507    1.4475393 0.00037072859 -0.0018404507    1.4493797      394 
 7584000 0.00087872144 -0.00032338657    1.4500955  0.000376365 -0.00032338657    1.4504189      399 
 7585000 0.00092789112 0.0014660428    1.4883269 0.00040895373 0.0014660428    1.4868609      411 
 7586000 0.00087774815 -0.0010177022    1.4587706 0.00037552861 -0.0010177022    1.4597883      396 
 7587000 0.00092889794 -0.002564302    1.4787018 0.00039737808 -0.002564302    1.4812661      413 
 7588000 0.00085583655 -4.9709935e-05    1.4232972 0.00036685517 -4.9709935e-05     1.423347      396 
 7589000 0.00087760325 -0.005905528    1.4354429 0.00037459911 -0.005905528    1.4413484      401 
 7590000 0.00085343268 -0.0029923297    1.3951724 0.00037027536 -0.0029923297    1.3981647      402 
 7591000 0.0008700246 -0.0023186631    1.4631276 0.00037702917 -0.0023186631    1.4654463      391 
 7592000 0.00087373961 -0.00048719068    1.4563132 0.00037411004 -0.00048719068    1.4568004      395 
 7593000 0.00086491077 -0.00036977602    1.4564629 0.00037051204 -0.00036977602    1.4568327      391 
 7594000 0.00085873335 -4.0416567e-05    1.4575709 0.00036813671 -4.0416567e-05    1.4576113      388 
 7595000 0.00085597859 -0.0015140403    1.4329362 0.00036590971 -0.0015140403    1.4344502      393 
 7596000 0.00085171956 -0.0015000495    1.4258129 0.00037462378 -0.0015000495    1.4273129      393 
 7597000 0.00086164536 -0.0056855337    1.4493684 0.0003658847 -0.0056855337    1.4550539      390 
 7598000 0.00084704786 -0.0002080272    1.4301952 0.0003629064 -0.0002080272    1.4304032      390 
 7599000 0.00083665638 -0.0030873811    1.4623741 0.00036215121 -0.0030873811    1.4654615      376 
 7600000 0.00083339428 -2.040225e-05    1.4001458 0.00035728688 -2.040225e-05    1.4001662      392 
 7601000 0.00081772227 -0.0012482537    1.4425687 0.00034960137 -0.0012482537    1.4438169      373 
 7602000 0.00087273647 -0.0062180733     1.463796 0.00037432478 -0.0062180733    1.4700141      391 
 7603000 0.00087717723 -0.0032549691    1.4895103 0.00037671385 -0.0032549691    1.4927652      387 
 7604000 0.00086321335 -0.0017090051    1.4672928 0.00036903105 -0.0017090051    1.4690018      387 
 7605000 0.00084445086 -0.00024490753    1.4788692 0.00036186915 -0.00024490753    1.4791141      376 
 7606000 0.00081773419 -0.0012658035    1.4503557 0.00034969041 -0.0012658035    1.4516215      371 
 7607000 0.00085030571 -0.00055240795    1.4967814 0.00036390401 -0.00055240795    1.4973338      374 
 7608000 0.00080038176 -0.00090435845    1.4199135 0.00034249031 -0.00090435845    1.4208179      371 
 7609000 0.00083251879 -0.002519038    1.4793419 0.00035537145 -0.002519038    1.4818609      370 
 7610000 0.00080830013 -3.638823e-05    1.4271443 0.00034648475 -3.638823e-05    1.4271806      373 
 7611000 0.00085558053 -0.00034358552    1.5434284 0.00036651167 -0.00034358552     1.543772      365 
 7612000 0.00084656008 -0.00037975094    1.5187919 0.00036255312 -0.00037975094    1.5191717      367 
 7613000 0.00084889441 -0.0019874036    1.5339284 0.00037009419 -0.0019874036    1.5359158      364 
 7614000 0.00087409128 -0.0041784412    1.5309356 0.00037221356 -0.0041784412    1.5351141      375 
 7615000 0.00082543394 -0.0021134431    1.4751217 0.00035234399 -0.0021134431    1.4772352      368 
 7616000 0.00085165042 -0.0019364333    1.4818954 0.00036367693 -0.0019364333    1.4838319      378 
 7617000 0.00085883736 -0.0054819941     1.498831 0.00036566728 -0.0054819941     1.504313      376 
 7618000 0.00089100461 -0.0011127943    1.5310197 0.00038097607 -0.0011127943    1.5321324      383 
 7619000 0.00081892023 -0.00047494356    1.4493441 0.00035060017 -0.00047494356     1.449819      372 
 7620000 0.00086941595 -0.00037262301    1.5265304 0.00037242308 -0.00037262301    1.5269031      375 
 7621000 0.00084540333 -0.00020823427    1.4497245 0.00036220246 -0.00020823427    1.4499328      384 
 7622000 0.00084067958 -0.00024280392    1.4921107 0.0003601901 -0.00024280392    1.4923535      371 
 7623000 0.00086065178 -0.0042244227     1.499268 0.00036692991 -0.0042244227    1.5034925      377 
 7624000 0.00084438809 -0.0075226044    1.4873848 0.00035953621 -0.0075226044    1.4949074      372 
 7625000 0.00082490554 -0.00017502448    1.4408715 0.00035347286 -0.00017502448    1.4410465      377 
 7626000 0.00084255047 -0.0021631547     1.454255 0.00035984917 -0.0021631547    1.4564181      381 
 7627000 0.0008719049 -0.00035610423    1.5107698 0.00037342935 -0.00035610423    1.5111259      380 
 7628000 0.00082563326 -0.0058486769    1.5215497 0.00035064673 -0.0058486769    1.5273983      356 
 7629000 0.00083676142 -0.0086095813    1.5053539 0.00036262209 -0.0086095813    1.5139635      364 
 7630000 0.00079742939 -4.3124759e-06    1.4310012 0.00034187862 -4.3124759e-06    1.4310055      367 
 7631000 0.00077570835 -0.002861185    1.4321775 0.00033095179 -0.002861185    1.4350387      356 
 7632000 0.00076959662 -0.0040700029    1.3883713 0.00033077447 -0.0040700029    1.3924413      364 
 7633000 0.00077540872 -0.0029601371    1.4195369 0.00033648295 -0.0029601371     1.422497      359 
 7634000 0.00080661753 -0.0017544425     1.430133 0.0003445936 -0.0017544425    1.4318874      371 
 7635000 0.00080869987 -0.0022086462     1.456974 0.00034986312 -0.0022086462    1.4591826      365 
 7636000 0.00079428399 -0.0051812621     1.378701 0.00033952353 -0.0051812621    1.3838823      378 
 7637000 0.00077000278 -0.0029934248    1.4017604 0.00033020101 -0.0029934248    1.4047538      361 
 7638000 0.00078523434 -0.0021153419    1.3918132 0.00034801451 -0.0021153419    1.3939285      371 
 7639000 0.00075709486 -0.0029794912    1.3706158 0.00032457239 -0.0029794912    1.3735953      363 
 7640000 0.0007772485 -0.0024180172    1.3517833 0.00033162049 -0.0024180172    1.3542013      378 
 7641000 0.00081733774 -0.0046184667    1.3899164 0.00034737087 -0.0046184667    1.3945349      386 
 7642000 0.00083189032 -0.0041222056    1.4189288 0.00035474178 -0.0041222056     1.423051      385 
 7643000 0.00083850914 -0.0036053371     1.445827 0.00036703483 -0.0036053371    1.4494324      381 
 7644000 0.00079420483 -0.0013836651     1.353682 0.00033950853 -0.0013836651    1.3550657      386 
 7645000 0.00084581982 -0.0025299433    1.4368718 0.00036068297 -0.0025299433    1.4394017      387 
 7646000 0.00083187559 -0.0019824383    1.4359833 0.00035566162 -0.0019824383    1.4379657      381 
 7647000 0.00084711628 -0.0047046312    1.4443923 0.00036014803 -0.0047046312    1.4490969      385 
 7648000 0.00081033077 -0.0053196774    1.4254464 0.00034567396 -0.0053196774    1.4307661      373 
 7649000 0.00079895475 -0.0011771518    1.4132949 0.00034168987 -0.0011771518    1.4144721      372 
 7650000 0.00082307683 -0.0019441213    1.4435763 0.00035625854 -0.0019441213    1.4455205      375 
 7651000 0.00081505115 -0.0038572712    1.4587709 0.00034856161 -0.0038572712    1.4626282      367 
 7652000 0.00081124871 -0.0047429758    1.4162152 0.00034608548 -0.0047429758    1.4209582      376 
 7653000 0.00081941559 -0.0012808131    1.3967993 0.00035029848 -0.0012808131    1.3980801      386 
 7654000 0.00078526467 -0.0031130956    1.3723323 0.00033470808 -0.0031130956    1.3754454      376 
 7655000 0.0007730288 -0.00051323148    1.3680594 0.00034357303 -0.00051323148    1.3685727      372 
 7656000 0.00078970847 -0.0022285018    1.3958739 0.00033695107 -0.0022285018    1.3981024      372 
 7657000 0.00078255586 -0.0039061359     1.377819 0.00033381321 -0.0039061359    1.3817251      373 
 7658000 0.00080878558 -0.0052273433    1.4039211 0.00035158532 -0.0052273433    1.4091484      378 
 7659000 0.00079696223 -0.0031463094    1.4040155 0.00033979971 -0.0031463094    1.4071618      373 
 7660000 0.00082268233 -0.0029889624    1.4418387  0.000350635 -0.0029889624    1.4448276      375 
 7661000 0.00085108233 -0.0036680412     1.479174 0.00036317857 -0.0036680412    1.4828421      378 
 7662000 0.00079578821 -0.0012487266    1.3889321 0.0003402735 -0.0012487266    1.3901808      377 
 7663000 0.00079993706 -0.00024205816    1.4391857 0.00034269313 -0.00024205816    1.4394277      366 
 7664000 0.00084763736  -0.00364756    1.4425843 0.00036096629  -0.00364756    1.4462318      386 
 7665000 0.00086753129 -0.0017870428    1.4899817 0.00037050513 -0.0017870428    1.4917688      383 
 7666000 0.0008306257 -0.0024929595    1.4333122 0.00035479437 -0.0024929595    1.4358052      381 
 7667000 0.00082643691 -8.3307545e-05    1.4210214 0.00035422605 -8.3307545e-05    1.4211047      383 
 7668000 0.0008125034 -0.0033720804    1.3937731 0.00034700126 -0.0033720804    1.3971452      383 
 7669000 0.00080650859 -0.0048699731    1.4306935 0.00034978105 -0.0048699731    1.4355635      370 
 7670000 0.00080509251 -0.0076335555    1.4100827 0.0003408178 -0.0076335555    1.4177163      374 
 7671000 0.00081762855 -8.9746527e-05    1.4320432 0.00035047769 -8.9746527e-05    1.4321329      376 
 7672000 0.0008374115 -0.001345521    1.4732824 0.00036932402 -0.001345521    1.4746279      374 
 7673000 0.00083065144 -8.1506898e-05    1.4320094 0.00035606647 -8.1506898e-05    1.4320909      382 
 7674000 0.00082236833 -0.0034792934    1.3888178 0.00035028136 -0.0034792934    1.3922971      389 
 7675000 0.00084141084 -0.00038878068    1.4025094 0.00036035154 -0.00038878068    1.4028981      395 
 7676000 0.00082339479 -0.0018674569    1.3957603 0.00035146258 -0.0018674569    1.3976278      388 
 7677000 0.00083647161 -0.008468605    1.4336566 0.00035731457 -0.008468605    1.4421252      382 
 7678000 0.00081424027            0    1.4074816 0.00034912142            0    1.4074816      381 
 7679000 0.00079547955 -0.00026612752    1.3856992 0.00034075776 -0.00026612752    1.3859653      378 
 7680000 0.00080145985 -0.0028424601    1.3789205 0.00034184886 -0.0028424601    1.3817629      382 
 7681000 0.00078019915 -0.0040914257    1.3998194 0.00033309385 -0.0040914257    1.4039108      366 
 7682000 0.00078306034 -0.00064834005     1.408411 0.00033525436 -0.00064834005    1.4090593      366 
 7683000 0.00084477472 -0.00063117871    1.4482235 0.00036162619 -0.00063117871    1.4488546      384 
 7684000 0.0008121114 -0.00045150427    1.4411885 0.00034772867 -0.00045150427      1.44164      371 
 7685000 0.0007799148 -0.0026098207    1.3818756 0.00033260476 -0.0026098207    1.3844854      371 
 7686000 0.00080432134 -0.00044254252    1.4009278 0.00034442376 -0.00044254252    1.4013704      378 
 7687000 0.00076528845 -0.00079869986    1.3468252 0.0003275147 -0.00079869986    1.3476239      374 
 7688000 0.00075975619 -0.0033895654    1.3416852 0.00032475791 -0.0033895654    1.3450748      372 
 7689000 0.00078015838 -0.00017476877     1.330925 0.00033428351 -0.00017476877    1.3310998      386 
 7690000 0.00074699912 -0.0011935993    1.3037564 0.00031939924 -0.0011935993      1.30495      377 
 7691000 0.00077157669 0.0019037133    1.3356378 0.00034431895 0.0019037133    1.3337341      381 
 7692000 0.00073166062 -0.00055769532    1.2742158 0.00031312031 -0.00055769532    1.2747735      378 
 7693000 0.00076698411 -0.0041310987    1.2943986 0.00032664972 -0.0041310987    1.2985297      389 
 7694000 0.00075509346 -0.0033389826    1.3053373 0.00032349174 -0.0033389826    1.3086763      380 
 7695000 0.00077485949 -0.00028835358    1.3252044 0.00033189606 -0.00028835358    1.3254928      385 
 7696000 0.00075895393 -0.00094831095    1.3144187 0.00032469731 -0.00094831095     1.315367      380 
 7697000 0.00078146551 0.00030692491    1.3440807  0.000343657 0.00030692491    1.3437738      383 
 7698000 0.00074332582 -0.00085517621    1.2908254 0.00031800809 -0.00085517621    1.2916806      379 
 7699000 0.00072120571 -0.00064472051    1.2659656 0.00030871604 -0.00064472051    1.2666103      375 
 7700000 0.00075821881 -0.00031733878    1.3277553 0.00032477819 -0.00031733878    1.3280727      376 
 7701000 0.00073371605 -0.0023683976     1.256012 0.00031293914 -0.0023683976    1.2583803      384 
 7702000 0.00076271356 -0.0026191299    1.3192638 0.00032641641 -0.0026191299     1.321883      380 
 7703000 0.00075378693 -0.00051410546    1.3233167 0.00032260996 -0.00051410546    1.3238308      375 
 7704000 0.00079355009 -0.00087005408    1.3089649 0.00034702148 -0.00087005408     1.309835      399 
 7705000 0.00078527516            0    1.3226966 0.00033670206            0    1.3226966      391 
 7706000 0.00077078221 -0.0019233602     1.362672 0.00032914288 -0.0019233602    1.3645953      372 
 7707000 0.00076039579 -0.0021568726     1.358683 0.00032914064 -0.0021568726    1.3608399      368 
 7708000 0.0007578847 -0.0010089369    1.3229573 0.00032417093 -0.0010089369    1.3239663      377 
 7709000 0.00073038047 -0.0016889884    1.3382031 0.00031215018 -0.0016889884    1.3398921      359 
 7710000 0.00074516353 -0.0018453677    1.2930286 0.00031846631 -0.0018453677     1.294874      379 
 7711000 0.00071795586 -0.00079343259    1.3311461 0.00030730694 -0.00079343259    1.3319396      355 
 7712000 0.00079626026 -0.0060303932    1.4228771 0.00034410774 -0.0060303932    1.4289075      367 
 7713000 0.00074999476 -0.00011135971    1.3421143 0.00032136886 -0.00011135971    1.3422257      368 
 7714000 0.00078364026 -0.0038401439    1.4062627 0.00033383174 -0.0038401439    1.4101028      366 
 7715000 0.00076782428 -0.0023919463    1.3606307 0.00033305453 -0.0023919463    1.3630226      371 
 7716000 0.00078800901 -0.00081497192    1.3980391 0.00033719087 -0.00081497192     1.398854      371 
 7717000 0.00081304337 -0.00093513914    1.3862727 0.00034783719 -0.00093513914    1.3872079      386 
 7718000 0.00077265749 -7.7308379e-05    1.3605229 0.00033117277 -7.7308379e-05    1.3606003      374 
 7719000 0.00080785265 -0.00053874554    1.3886092 0.00034583612 -0.00053874554     1.389148      383 
 7720000 0.00078413535 -0.00014130863    1.3624542 0.00033601537 -0.00014130863    1.3625955      379 
 7721000 0.00079543689 -1.3685465e-06    1.4007119 0.00034102637 -1.3685465e-06    1.4007133      374 
 7722000 0.00079625009 -0.0016373625    1.4550358 0.00034015599 -0.0016373625    1.4566732      360 
 7723000 0.00078238139 -0.0019352913    1.4097594 0.00033972498 -0.0019352913    1.4116947      365 
 7724000 0.00075130063 -0.0049778553    1.3888224 0.00031905663 -0.0049778553    1.3938002      355 
 7725000 0.00078042219 -0.00017428444    1.4079853 0.00033443657 -0.00017428444    1.4081596      365 
 7726000 0.00082214644 -4.4253797e-05    1.4554865 0.00035244785 -4.4253797e-05    1.4555307      372 
 7727000 0.00077890039 -0.00035606346    1.3712375 0.00033365241 -0.00035606346    1.3715936      374 
 7728000 0.00075629021 -0.0041671886    1.3456571 0.00032153107 -0.0041671886    1.3498243      369 
 7729000 0.00076892033 -0.0048551383    1.3979239 0.00032786916 -0.0048551383    1.4027791      361 
 7730000 0.00077268444 -0.0098594977    1.4115993 0.00032813594 -0.0098594977    1.4214588      358 
 7731000 0.00080477465 -0.0032910954    1.4253249 0.00034625561 -0.0032910954     1.428616      371 
 7732000 0.00077170101 -0.0035323897    1.3775398 0.00032885361 -0.0035323897    1.3810722      368 
 7733000 0.00076134577 -0.00051947769    1.3961789 0.00032596019 -0.00051947769    1.3966984      359 
 7734000 0.0007326662 -0.00068821331    1.3585417 0.00031355964 -0.00068821331    1.3592299      355 
 7735000  0.000730868 -0.00063095028    1.3629451 0.00031279057 -0.00063095028    1.3635761      353 
 7736000 0.00079308548 -0.0033478002    1.4515775 0.00034000582 -0.0033478002    1.4549253      359 
 7737000 0.00078186578 -0.0023763725    1.4522253 0.00033365378 -0.0023763725    1.4546017      354 
 7738000 0.00076400304 -0.0010271556     1.392781 0.00032673687 -0.0010271556    1.3938082      361 
 7739000 0.00078491091 -0.0025908109    1.4021224 0.00033518292 -0.0025908109    1.4047133      368 
 7740000 0.00078152393 -0.0056664479    1.4524181 0.00033237981 -0.0056664479    1.4580846      353 
 7741000 0.00082799093 -0.001153505    1.5010684 0.00035416477 -0.001153505    1.5022219      363 
 7742000 0.00076890489 -0.0010021363     1.375066 0.00032880243 -0.0010021363    1.3760681      368 
 7743000 0.00072759117 -0.00088834189    1.3338868 0.00031125063 -0.00088834189    1.3347751      359 
 7744000 0.00075488102 -0.0011403196    1.3684384 0.00032286222 -0.0011403196    1.3695788      363 
 7745000 0.00080422638 -0.001530209    1.4261125 0.00034354778 -0.001530209    1.4276427      371 
 7746000 0.0007821654 -0.0069646281    1.4043403 0.00033290153 -0.0069646281     1.411305      365 
 7747000 0.00077710841 -0.0061941538    1.3883449 0.00033154488 -0.0061941538     1.394539      367 
 7748000 0.00082662447 -0.0041584661    1.4672107 0.00035214073 -0.0041584661    1.4713692      370 
 7749000 0.00086508586 -0.0017500537    1.5054904 0.00036966498 -0.0017500537    1.5072405      378 
 7750000 0.00079529255 -1.0278322e-05    1.4349807 0.00034095822 -1.0278322e-05     1.434991      365 
 7751000 0.00087800549 -0.00015498759    1.4978907 0.00037628363 -0.00015498759    1.4980457      386 
 7752000 0.00082321257            0    1.4535109 0.00035296847            0    1.4535109      373 
 7753000 0.00085925267 -0.0009188948    1.4689388 0.00036763359 -0.0009188948    1.4698577      385 
 7754000 0.00090338005 -0.0011566532     1.512729 0.00038643302 -0.0011566532    1.5138857      393 
 7755000 0.00090421445 -0.0031046507    1.5806895 0.00038544887 -0.0031046507    1.5837941      376 
 7756000 0.00089771543 -0.0039584696    1.5478169 0.00038327099 -0.0039584696    1.5517753      381 
 7757000 0.00086147389 -0.00055875429     1.536997 0.00036875661 -0.00055875429    1.5375558      369 
 7758000 0.00084926637 -0.0019568438    1.5431214 0.00036249141 -0.0019568438    1.5450783      362 
 7759000 0.00084399083 -0.0021766501    1.5082688 0.00036072852 -0.0021766501    1.5104454      368 
 7760000 0.00081979806 -0.0022044757    1.4975478 0.00034988009 -0.0022044757    1.4997522      360 
 7761000 0.0008657724 -0.0014421575    1.5396093 0.00037008933 -0.0014421575    1.5410515      370 
 7762000 0.00087696156 -0.00044568933    1.5315387 0.00037567268 -0.00044568933    1.5319844      377 
 7763000 0.00087623688 -0.00067368199    1.5219671 0.00037513428 -0.00067368199    1.5226408      379 
 7764000 0.00090423866 -0.00016092185    1.5670037 0.00038752999 -0.00016092185    1.5671646      380 
 7765000 0.00085359893 -0.00076803145    1.4904036 0.00036535759 -0.00076803145    1.4911717      377 
 7766000 0.00091190804 -0.0024605644    1.5335331 0.00038931208 -0.0024605644    1.5359936      391 
 7767000 0.00085167261 -0.0011195512     1.518943 0.00036413551 -0.0011195512    1.5200625      369 
 7768000 0.00087589819 -0.0023820755    1.5236967 0.00037381502 -0.0023820755    1.5260788      378 
 7769000 0.00086895122 -0.0021514063    1.4881678 0.00037088812 -0.0021514063    1.4903192      384 
 7770000 0.0008512257 -0.0035030454    1.5157618 0.0003688522 -0.0035030454    1.5192649      369 
 7771000 0.00086371194 -0.0018255163    1.4990506 0.00036902178 -0.0018255163    1.5008761      379 
 7772000 0.00084802738 -0.0043375757    1.5092189 0.00036219821 -0.0043375757    1.5135565      369 
 7773000 0.00082168997 -0.0044008425    1.4741696 0.00035362075 -0.0044008425    1.4785705      366 
 7774000 0.0008447014 -0.00023540801    1.4714892 0.00036191759 -0.00023540801    1.4717246      378 
 7775000 0.00082366468 -0.0074250167    1.4586758 0.00035376945 -0.0074250167    1.4661009      370 
 7776000 0.00085119831 -0.0036512072    1.4833268 0.00036765948 -0.0036512072     1.486978      377 
 7777000 0.00083185932 -0.0024643058    1.4584803 0.00035577426 -0.0024643058    1.4609446      375 
 7778000 0.00084009671 -0.00088281197     1.527513 0.00035951688 -0.00088281197    1.5283958      362 
 7779000 0.00079117107 -0.0018255414     1.410254 0.00034259581 -0.0018255414    1.4120795      369 
 7780000 0.00083877959 -0.00055101045     1.476486 0.00035915713 -0.00055101045     1.477037      374 
 7781000 0.00083753816 -0.00087734332    1.4700407 0.00035846344 -0.00087734332     1.470918      375 
 7782000 0.00081594305 -0.00012038901    1.4681089 0.00034967171 -0.00012038901    1.4682293      366 
 7783000 0.00084199498 -0.0032326816    1.5243967 0.0003589811 -0.0032326816    1.5276294      363 
 7784000 0.00082545102 -0.0024264979    1.4589546 0.00035228108 -0.0024264979    1.4613811      372 
 7785000 0.00082435342 -0.00047831872    1.4511551 0.00035306131 -0.00047831872    1.4516335      374 
 7786000 0.0008409476 -0.0019667249     1.478888 0.00035901673 -0.0019667249    1.4808548      374 
 7787000 0.00081308504 -0.0048484819    1.3896559 0.00034572661 -0.0048484819    1.3945044      384 
 7788000 0.00084920978 -0.001257884     1.459006 0.00036312956 -0.001257884    1.4602639      383 
 7789000 0.00079495196 -0.0049871759    1.3655558 0.00034055508 -0.0049871759     1.370543      382 
 7790000 0.00083125049 -0.0020866252    1.4272953 0.00035510647 -0.0020866252    1.4293819      383 
 7791000 0.00083795098 -8.3451112e-05    1.4185956 0.00035913013 -8.3451112e-05     1.418679      389 
 7792000 0.00086473105 -0.0014376382     1.458827 0.00036961054 -0.0014376382    1.4602647      390 
 7793000 0.00084319602 -0.0038571278    1.4385337 0.00035954573 -0.0038571278    1.4423908      385 
 7794000 0.00079935337 -0.0034037532    1.4004526 0.00034045759 -0.0034037532    1.4038564      375 
 7795000 0.00083098338 -0.0043862539    1.4208152 0.00035923854 -0.0043862539    1.4252014      384 
 7796000 0.00083037476 -0.0002834434    1.4426625 0.00035574004 -0.0002834434    1.4429459      379 
 7797000 0.00083891529 -0.0012475238    1.4450908 0.00035885522 -0.0012475238    1.4463383      382 
 7798000 0.00084429475 -0.0030146575    1.4412557 0.00036074463 -0.0030146575    1.4442703      385 
 7799000 0.00084648736 -0.0016367513    1.4351883 0.00036196728 -0.0016367513     1.436825      388 
 7800000 0.00086402322 -0.0021213528    1.4606988 0.00036897501 -0.0021213528    1.4628202      389 
 7801000 0.00081292288 -0.00022463252    1.4049798 0.0003483292 -0.00022463252    1.4052044      381 
 7802000 0.00081851702 -0.0025494331    1.3939975 0.00034911205 -0.0025494331    1.3965469      386 
 7803000 0.00078188008 -0.00055251803    1.4180106 0.00033478102 -0.00055251803    1.4185631      363 
 7804000 0.0008006828 -0.0029972041    1.3957341 0.00034239978 -0.0029972041    1.3987313      377 
 7805000 0.00080459049 -0.0014299816    1.4004093 0.00035058811 -0.0014299816    1.4018393      378 
 7806000 0.0007670349 -0.004099348    1.3358516 0.00032746468 -0.004099348     1.339951      377 
 7807000 0.0008017248 -0.00052249037    1.4112634 0.00034325707 -0.00052249037    1.4117859      374 
 7808000 0.00081483184 -0.00032763716    1.3899317 0.00035646611 -0.00032763716    1.3902593      386 
 7809000 0.00079704733 -0.002676278    1.3643222 0.00034008249 -0.002676278    1.3669984      384 
 7810000 0.00080041925 -0.0044897384    1.3647261 0.00034595978 -0.0044897384    1.3692159      385 
 7811000 0.00081512875 -0.00059454887    1.3901714 0.00034898287 -0.00059454887    1.3907659      386 
 7812000 0.00082613714 -0.0027192838    1.3995633 0.00035238885 -0.0027192838    1.4022826      388 
 7813000  0.000820824 -0.0021828089    1.4019379 0.00035701955 -0.0021828089    1.4041207      385 
 7814000 0.00081104094 -0.002457458     1.433412 0.00034629201 -0.002457458    1.4358695      372 
 7815000 0.00080337463 -0.0047070357    1.3767407 0.00034874388 -0.0047070357    1.3814478      383 
 7816000 0.0008246782 -0.00075864312    1.4099552 0.0003529727 -0.00075864312    1.4107138      385 
 7817000 0.0008027616 -0.00034164575    1.3764572 0.00034385622 -0.00034164575    1.3767989      384 
 7818000 0.00078346411 -0.0024120638    1.3626187 0.00033486097 -0.0024120638    1.3650308      378 
 7819000 0.00080212201 -0.0020204811    1.3845137 0.00034245059 -0.0020204811    1.3865342      381 
 7820000 0.00081445991 -0.00039601035    1.3785118 0.00036117392 -0.00039601035    1.3789079      389 
 7821000 0.00077393828 -0.0032766091    1.3380603 0.00032967827 -0.0032766091    1.3413369      380 
 7822000 0.00083828231 -0.003254237    1.4087262 0.0003571604 -0.003254237    1.4119804      391 
 7823000 0.00081796865 -0.001332087    1.4429198 0.00034961103 -0.001332087    1.4442519      373 
 7824000 0.0008393624 -0.003491957    1.4398388 0.00035840969 -0.003491957    1.4433308      383 
 7825000 0.00079439253 -0.0015874827     1.367991 0.00033948329 -0.0015874827    1.3695785      382 
 7826000 0.00085529049 -0.0017629438     1.424277 0.0003654443 -0.0017629438    1.4260399      395 
 7827000 0.00088585466 -0.0017630402    1.4715072 0.00037844738 -0.0017630402    1.4732703      396 
 7828000 0.00083722938 -0.0030769818    1.4180336 0.00035666804 -0.0030769818    1.4211106      388 
 7829000 0.00081245013 0.0011643253    1.3696337 0.00035971104 0.0011643253    1.3684694      391 
 7830000 0.00082042051 -6.9917112e-05    1.3782993 0.00035165513 -6.9917112e-05    1.3783692      392 
 7831000 0.00083474376 -0.0056207417    1.3896937 0.00035905392 -0.0056207417    1.3953145      394 
 7832000 0.00087517872 -0.0005067769    1.4053078 0.00037472982 -0.0005067769    1.4058145      410 
 7833000 0.00084144132 -0.0015404244    1.4230478 0.00035950376 -0.0015404244    1.4245883      389 
 7834000 0.00086517572 -0.00039698472     1.456882  0.000370571 -0.00039698472     1.457279      391 
 7835000 0.00090004365 -0.0009870733    1.4626172 0.00038505383 -0.0009870733    1.4636043      405 
 7836000 0.00088318253 -0.00068012412    1.4462233 0.00037797544 -0.00068012412    1.4469034      402 
 7837000 0.00088966582 -0.002319977    1.4588397 0.00037973567 -0.002319977    1.4611596      401 
 7838000 0.00087075005 -0.0035127681    1.4669161 0.00037357637 -0.0035127681    1.4704289      390 
 7839000 0.00085584392 -2.8952973e-07    1.4056113 0.00036692783 -2.8952973e-07    1.4056116      401 
 7840000 0.00088482037 -0.00045752193    1.4823258 0.00037878445 -0.00045752193    1.4827833      393 
 7841000 0.00086518656 -0.00024478065    1.4607891 0.00037068753 -0.00024478065    1.4610339      390 
 7842000 0.00091037977 -0.0019995574    1.5120586 0.00038875498 -0.0019995574    1.5140581      396 
 7843000 0.00087581932 -0.0046850612    1.4743043 0.00037335181 -0.0046850612    1.4789893      390 
 7844000 0.00086302848 -0.0034135961    1.4577225 0.00036825874 -0.0034135961    1.4611361      389 
 7845000 0.00089449546 -0.008927491    1.5016001 0.0003796545 -0.008927491    1.5105276      390 
 7846000 0.00088736676 -0.0038559364    1.5023577  0.000386683 -0.0038559364    1.5062136      388 
 7847000 0.00082620363 -0.0015061394    1.4341916 0.0003530865 -0.0015061394    1.4356978      379 
 7848000 0.0008652807 -0.0017862653    1.4594066 0.0003697783 -0.0017862653    1.4611929      390 
 7849000 0.00085467461 -0.00093059236    1.4764451 0.00036567322 -0.00093059236    1.4773757      381 
 7850000 0.00088625496 -0.0037674782     1.532229 0.00037928939 -0.0037674782    1.5359965      380 
 7851000 0.00088254984 -0.0059551783    1.4959531 0.00037885929 -0.0059551783    1.5019083      387 
 7852000 0.00087357414 -0.0018884337    1.4963595 0.00037322882 -0.0018884337    1.4982479      384 
 7853000 0.00091702542 -0.0040891298     1.564596 0.00039301627 -0.0040891298    1.5686851      385 
 7854000 0.00085904266 -0.001684372    1.5273883 0.00036702027 -0.001684372    1.5290727      370 
 7855000 0.00086840974 -0.0046518781    1.4925365 0.00037028239 -0.0046518781    1.4971884      382 
 7856000 0.00087210594 -0.0029977369    1.5084766 0.00037179035 -0.0029977369    1.5114743      380 
 7857000 0.00090643727 -0.0042292853    1.5303993 0.0003859332 -0.0042292853    1.5346286      389 
 7858000 0.00086177839 -0.0019416788    1.4722366 0.00036827809 -0.0019416788    1.4741783      385 
 7859000 0.00090583376 -0.0031285826    1.5187415 0.00038618222 -0.0031285826      1.52187      392 
 7860000 0.00090287804 -0.0067653084    1.5417411 0.00038926242 -0.0067653084    1.5485064      384 
 7861000 0.00088322349 -0.0056307473    1.5372928 0.00037463606 -0.0056307473    1.5429235      377 
 7862000 0.00089631496 -0.0037571755    1.5215763 0.00038592049 -0.0037571755    1.5253335      387 
 7863000 0.00093954943 -0.010210777    1.5484236 0.00040515886 -0.010210777    1.5586344      397 
 7864000 0.00092414313 -0.0079980081    1.5097861 0.00039153041 -0.0079980081    1.5177841      401 
 7865000 0.0008512783 -0.0017176475    1.4854001 0.00036374098 -0.0017176475    1.4871177      377 
 7866000 0.00086212175 -0.0026263568    1.5114663 0.00037151021 -0.0026263568    1.5140927      375 
 7867000 0.00083216657 -0.00024545606    1.4612388 0.00035660209 -0.00024545606    1.4614842      375 
 7868000 0.00087377389 -0.0090069953    1.4934963 0.00037901791 -0.0090069953    1.5025033      383 
 7869000 0.00083807795 -0.0026035078     1.457581 0.00035732816 -0.0026035078    1.4601845      378 
 7870000 0.00084013567 -3.4401337e-06    1.4873755 0.00036019036 -3.4401337e-06    1.4873789      372 
 7871000 0.00083351546 -0.00049069302    1.4912075 0.00035691715 -0.00049069302    1.4916982      368 
 7872000 0.00087674311 -0.0050534823    1.4947238 0.00037371448 -0.0050534823    1.4997773      385 
 7873000 0.00084034221 -0.0011083298    1.4514927 0.00035942227 -0.0011083298     1.452601      381 
 7874000 0.00086228591 -0.0024375417    1.4959605 0.00036900006 -0.0024375417    1.4983981      379 
 7875000 0.00082212963 -0.00092954981    1.4744011 0.00035180729 -0.00092954981    1.4753307      367 
 7876000 0.0008513668 -0.0030020677    1.4803357 0.00036351122 -0.0030020677    1.4833377      378 
 7877000 0.00083237328 -0.0004395267    1.4771689 0.00036419627 -0.0004395267    1.4776084      371 
 7878000 0.00085704607 -0.0025498644    1.5026287 0.00036823019 -0.0025498644    1.5051786      375 
 7879000 0.00089383677 -0.00032574609    1.5570075 0.00038291997 -0.00032574609    1.5573332      378 
 7880000 0.00078247494 -0.0023729488    1.4290997 0.00033424242 -0.0023729488    1.4314727      360 
 7881000 0.00083549328 -0.0011564964    1.4780035 0.00035733205 -0.0011564964      1.47916      372 
 7882000 0.00085200136 -0.0014922268    1.5068937 0.00036419157 -0.0014922268    1.5083859      372 
 7883000 0.00078684337 -0.0013987058    1.4144679 0.00033644362 -0.0013987058    1.4158666      366 
 7884000 0.00083218606 -0.0033440662    1.5023412 0.0003547423 -0.0033440662    1.5056852      364 
 7885000 0.00078706213 -0.0015766876    1.4710121 0.00033618156 -0.0015766876    1.4725888      352 
 7886000 0.0007291326 -0.00063642063    1.3752932 0.0003121501 -0.00063642063    1.3759296      349 
 7887000 0.00072157037 -0.0031916734     1.339235 0.00030731854 -0.0031916734    1.3424266      354 
 7888000 0.00077062153 -0.0039525037    1.3827241 0.00032829638 -0.0039525037    1.3866766      366 
 7889000 0.00071384427 -0.00034935919    1.3352492 0.00030574475 -0.00034935919    1.3355986      352 
 7890000 0.00068871593 -0.001365242    1.2908895 0.00029427313 -0.001365242    1.2922548      351 
 7891000 0.00070614289 -0.0045029738    1.2731307 0.00029974874 -0.0045029738    1.2776336      364 
 7892000 0.00078907839 -0.0010522717    1.3665244 0.00033743911 -0.0010522717    1.3675767      380 
 7893000 0.00068623021 -0.00022955465    1.2800661 0.00029401646 -0.00022955465    1.2802956      353 
 7894000 0.00069901629 -0.00028286186    1.2928776 0.00029939658 -0.00028286186    1.2931605      356 
 7895000 0.00073789511 -0.0069776527    1.3171922 0.00032040717 -0.0069776527    1.3241699      367 
 7896000 0.00072638021 -0.0075669483    1.2784189 0.00030787551 -0.0075669483    1.2859859      372 
 7897000 0.0007722111 -0.00024199616    1.3105067 0.00033085974 -0.00024199616    1.3107487      388 
 7898000 0.00075322851  -0.00189976    1.3497862 0.00032187341  -0.00189976     1.351686      367 
 7899000 0.00079083911 -0.0057526549    1.3943515 0.00033693739 -0.0057526549    1.4001041      372 
 7900000 0.00076753267 -0.00032416067    1.3369492 0.00032880119 -0.00032416067    1.3372734      378 
 7901000 0.00076661412 -0.0024676637    1.3226882 0.00033552965 -0.0024676637    1.3251559      381 
 7902000 0.0007820706 -0.0058280074    1.3250864 0.00033341725 -0.0058280074    1.3309144      387 
 7903000 0.00075817754 -0.0035498931    1.3070227 0.00032356904 -0.0035498931    1.3105726      381 
 7904000 0.00076510209            0    1.3509077 0.00032805246            0    1.3509077      373 
 7905000 0.00079116614 -2.557599e-05    1.3675705 0.00033914562 -2.557599e-05    1.3675961      381 
 7906000 0.0007616502 -6.0784662e-05    1.3375798 0.0003264649 -6.0784662e-05    1.3376405      375 
 7907000 0.00075684302 -0.00012235308     1.339795 0.00032439239 -0.00012235308    1.3399173      372 
 7908000 0.00076619651 -6.0962362e-05     1.345564 0.00032838243 -6.0962362e-05     1.345625      375 
 7909000 0.00079773881 -0.0012717039    1.3849626 0.00034104638 -0.0012717039    1.3862343      379 
 7910000 0.00081103749 -0.00035633631    1.4316575 0.00034736826 -0.00035633631    1.4320139      373 
 7911000 0.00075369721 -0.0024290633    1.3247834 0.00032130707 -0.0024290633    1.3272124      374 
 7912000 0.00078633618 -0.0018139539    1.3791811 0.00033569991 -0.0018139539    1.3809951      375 
 7913000 0.0008121044 -0.0010995537    1.3917229 0.00035394818 -0.0010995537    1.3928225      384 
 7914000 0.00083918654 -0.0015068516    1.4119966 0.00035866545 -0.0015068516    1.4135035      391 
 7915000 0.00080469989 -8.3704316e-05    1.3800395 0.00034487351 -8.3704316e-05    1.3801232      384 
 7916000 0.00080051422 -0.00033548657    1.3726089 0.00034283149 -0.00033548657    1.3729444      384 
 7917000 0.00081713042 -0.0023579859    1.3882206 0.00034918052 -0.0023579859    1.3905786      387 
 7918000 0.00080741592 -0.0016153232    1.3514535 0.00034495276 -0.0016153232    1.3530688      393 
 7919000 0.00083564388 -0.0040749013    1.3752401 0.00035658175 -0.0040749013     1.379315      399 
 7920000 0.00089258272 -0.00011116353     1.440688 0.00038256174 -0.00011116353    1.4407992      408 
 7921000 0.00083314004            0    1.3751822 0.00035722507            0    1.3751822      399 
 7922000 0.0008062421 -0.0025986754    1.3519498 0.00034493983 -0.0025986754    1.3545484      392 
 7923000 0.00078041398 -0.00088655668    1.3102687 0.00033395209 -0.00088655668    1.3111552      392 
 7924000  0.000774161 -0.00041889574    1.3170351 0.00033160526 -0.00041889574     1.317454      387 
 7925000 0.00079771173 -0.0027714923    1.3306421 0.00033992955 -0.0027714923    1.3334136      394 
 7926000 0.00078141628 -0.00050801425    1.3023602 0.00033460824 -0.00050801425    1.3028682      395 
 7927000 0.00076704283 -0.0017357289    1.3103857 0.00032757423 -0.0017357289    1.3121214      385 
 7928000 0.0007654239 -0.00043245316    1.3055275 0.00032774387 -0.00043245316    1.3059599      386 
 7929000 0.00077285389 -0.0036124878    1.3082273 0.00032854054 -0.0036124878    1.3118398      388 
 7930000 0.00082476784 -0.0009832082     1.381164 0.0003527268 -0.0009832082    1.3821472      393 
 7931000 0.00078671709 -0.0033679526    1.3746214 0.00033797491 -0.0033679526    1.3779894      376 
 7932000 0.00078511044 -0.0039613859    1.3496142 0.00033539726 -0.0039613859    1.3535756      382 
 7933000 0.00080045787 -0.0046086682    1.3471184 0.00034285419 -0.0046086682    1.3517271      390 
 7934000 0.00080629581 -0.0025572647    1.3283158 0.00034400884 -0.0025572647    1.3308731      399 
 7935000 0.00074967766 -0.0034802232     1.299238 0.00031925525 -0.0034802232    1.3027182      379 
 7936000 0.00079362217 -0.0036687498    1.3399601 0.00033974507 -0.0036687498    1.3436288      389 
 7937000 0.00080456668 -0.010022014    1.3662886 0.00034166818 -0.010022014    1.3763106      385 
 7938000 0.00081775945 -0.0048321989    1.3382306 0.00034847142 -0.0048321989    1.3430628      401 
 7939000 0.00076366712 -0.010399246    1.3489076 0.00032376995 -0.010399246    1.3593068      370 
 7940000 0.00081017566 -0.0063120975    1.3760029 0.00034655633 -0.0063120975     1.382315      386 
 7941000 0.00075869804 -0.0038276177    1.3429943 0.00032285472 -0.0038276177     1.346822      371 
 7942000 0.00076070792 -0.0065653028    1.3660227 0.00032727453 -0.0065653028     1.372588      365 
 7943000 0.00078974244 -0.0028580443    1.4066717 0.00033706633 -0.0028580443    1.4095297      369 
 7944000 0.00075232678 -0.0023978008    1.3550677 0.00032108342 -0.0023978008    1.3574655      365 
 7945000 0.0007681016 -0.0072277642    1.3345867 0.00033382437 -0.0072277642    1.3418144      377 
 7946000 0.00079782073 -0.0069135952    1.3868179 0.00033919703 -0.0069135952    1.3937315      377 
 7947000 0.00073261107 -0.0024727913    1.3267017 0.00031257849 -0.0024727913    1.3291744      363 
 7948000 0.0007592275 -0.0026593524    1.3307264 0.00032374515 -0.0026593524    1.3333857      375 
 7949000 0.00069645732 -0.0041182153    1.3101506 0.00029654217 -0.0041182153    1.3142688      349 
 7950000 0.00071212754 -0.0048171052    1.3163099 0.00030685922 -0.0048171052     1.321127      355 
 7951000 0.00076707529 -0.001064508    1.3318857 0.00034555523 -0.001064508    1.3329502      379 
 7952000 0.00079310021 -0.0031961326    1.3749777 0.00033807239 -0.0031961326    1.3781738      379 
 7953000 0.00077529532 -0.0072872454     1.347094 0.00032964271 -0.0072872454    1.3543813      377 
 7954000 0.00075786788 -0.0018646145    1.3326921 0.0003238737 -0.0018646145    1.3345567      374 
 7955000 0.00075208068 -0.0036591164    1.3422996 0.00032095857 -0.0036591164    1.3459587      368 
 7956000 0.00076418068 -0.0053826559    1.3659573 0.00032987271 -0.0053826559    1.3713399      367 
 7957000 0.0007280434 -0.0031001768    1.3437597 0.00031102897 -0.0031001768    1.3468598      356 
 7958000 0.00071438678 -0.0061471354    1.2935434 0.00030357954 -0.0061471354    1.2996906      362 
 7959000 0.0007817427 -0.0059737263    1.4007146 0.00033526229 -0.0059737263    1.4066883      366 
 7960000 0.00074305184 -0.0025857002    1.3681888 0.00031746264 -0.0025857002    1.3707745      357 
 7961000 0.00071029433 -0.0081327824    1.3284179 0.00030610562 -0.0081327824    1.3365507      350 
 7962000 0.00075377117 -0.0052393186    1.3474205 0.00032364278 -0.0052393186    1.3526598      367 
 7963000 0.00073605334 -0.0033315538     1.385658 0.00031515999 -0.0033315538    1.3889896      349 
 7964000 0.00074131883 -0.0054414946    1.3737256 0.00031537638 -0.0054414946    1.3791671      354 
 7965000 0.0007144289 -0.0078137792    1.3442429 0.00030405382 -0.0078137792    1.3520567      348 
 7966000 0.00074774881 -0.0020943822    1.3471108 0.00033162272 -0.0020943822    1.3492052      365 
 7967000 0.00071502607 -0.0027542947    1.3543322 0.00030522486 -0.0027542947    1.3570865      347 
 7968000 0.00079697221 -0.0062333902    1.4123556 0.0003377553 -0.0062333902     1.418589      370 
 7969000 0.00078487009 -0.0069071353    1.4450805 0.00033544245 -0.0069071353    1.4519876      356 
 7970000 0.00075723112 -0.0040973819    1.3773565 0.00032319308 -0.0040973819    1.3814539      361 
 7971000 0.00073205534 -0.0020196518    1.3484687 0.00031275509 -0.0020196518    1.3504883      357 
 7972000 0.00070704006 -0.0029997117    1.3236371 0.0003089852 -0.0029997117    1.3266368      351 
 7973000 0.00074158515 -0.0029796208    1.3387802 0.00031941008 -0.0029796208    1.3417598      364 
 7974000 0.00073850015 -0.0034839112    1.3861413 0.00031487254 -0.0034839112    1.3896252      350 
 7975000 0.00079393879 -0.0043186795    1.4441028 0.00033815959 -0.0043186795    1.4484215      361 
 7976000 0.00073855247 -0.0041611271    1.4180707 0.00031621237 -0.0041611271    1.4222318      342 
 7977000 0.00075351455 -0.0057788021    1.3842972 0.00032200337 -0.0057788021     1.390076      357 
 7978000 0.00076688319 -0.0032673306    1.3804631 0.00032685375 -0.0032673306    1.3837304      365 
 7979000 0.00081950526 -0.0024254761    1.4926381 0.00035051686 -0.0024254761    1.4950636      361 
 7980000 0.00076664963 -0.0055533285    1.4167221 0.00032859142 -0.0055533285    1.4222754      355 
 7981000 0.00077412303 -0.0053551257    1.4187501 0.00032999894 -0.0053551257    1.4241053      358 
 7982000 0.00079991962 -0.0071189837    1.4685647 0.00034198154 -0.0071189837    1.4756837      357 
 7983000 0.00079281309 -0.0080652139     1.422452 0.00033597354 -0.0080652139    1.4305172      365 
 7984000 0.0007777845 -0.0051122058    1.4584338 0.00033227145 -0.0051122058     1.463546      350 
 7985000 0.00075283946 -0.007004661    1.4218499 0.00032878518 -0.007004661    1.4288546      347 
 7986000 0.00079027851 -0.0080070937     1.429754 0.00033437474 -0.0080070937    1.4377611      362 
 7987000 0.00078958453 -0.0036159474    1.4448868 0.0003413991 -0.0036159474    1.4485027      359 
 7988000 0.00079018796 -0.0044403336    1.4411427 0.00033618208 -0.0044403336     1.445583      360 
 7989000 0.0007888671 -0.0031718329    1.4644552 0.00033722919 -0.0031718329    1.4676271      354 
 7990000 0.00077775318 -0.003390969    1.4559266 0.00033491495 -0.003390969    1.4593176      351 
 7991000 0.00075738728 0.0049032179    1.4060484 0.00034580851 0.0049032179    1.4011452      356 
 7992000 0.00080778442 -0.0021503839    1.4474375 0.00034510392 -0.0021503839    1.4495878      367 
 7993000 0.00074595558 -0.0019567963    1.3897681 0.0003188731 -0.0019567963    1.3917249      353 
 7994000 0.00075929485 -0.0032609631    1.3896749 0.00032399157 -0.0032609631    1.3929359      359 
 7995000 0.00072702778 -0.0059274409    1.3543374 0.00031119604 -0.0059274409    1.3602648      352 
 7996000 0.00079192229 -0.0043573477    1.3939057 0.00033830691 -0.0043573477     1.398263      373 
 7997000 0.00076816144 -0.0029912385    1.4101469 0.00032773243 -0.0029912385    1.4131381      358 
 7998000 0.00081303413 -0.0030111233    1.4599838 0.00034666687 -0.0030111233    1.4629949      366 
 7999000 0.00083665399 -0.0052090312    1.4720348 0.00035939567 -0.0052090312    1.4772438      373 
 8000000 0.00079296203 -0.0044002283    1.4147217 0.00033940889 -0.0044002283    1.4191219      368 
Loop time of 3135.79 on 192 procs for 5000000 steps with 368 atoms

Performance: 688821.737 tau/day, 1594.495 timesteps/s
98.6% CPU use with 192 MPI tasks x 1 OpenMP threads

MPI task timing breakdown:
Section |  min time  |  avg time  |  max time  |%varavg|  %CPU | %total
-----------------------------------------------------------------------
Pair    | 132.81     | 315.23     | 462.11     | 415.8 |  99.0 | 10.05
Bond    | 3.2067     | 3.3234     | 3.4632     |   3.1 |  95.1 |  0.11
Neigh   | 83.583     | 159.98     | 231.36     | 239.4 |  99.3 |  5.10
Comm    | 429.02     | 681.86     | 954.08     | 417.4 |  97.8 | 21.74
Output  | 276.97     | 279.77     | 279.79     |   1.2 |  98.6 |  8.92
Modify  | 1605.4     | 1616.7     | 1682.3     |  45.0 |  98.9 | 51.55
Other   |            | 78.98      |            |       |       |  2.52

Nlocal:        1.91667 ave           6 max           0 min
Histogram: 27 53 0 54 0 33 18 0 6 1
Nghost:        2.78125 ave           8 max           0 min
Histogram: 6 33 61 35 0 27 19 7 3 1
Neighs:      0.0416667 ave           1 max           0 min
Histogram: 184 0 0 0 0 0 0 0 0 8

Total # of neighbors = 8
Ave neighs/atom = 0.021739130
Ave special neighs/atom = 0.0000000
Neighbor list builds = 493573
Dangerous builds = 217263

write_restart   restart_write.dat
System init for write_restart ...
write_data	data.write
System init for write_data ...
WARNING: Not all mixed pair coeffs generated from mixing. Use write_data with 'pair ij' option to store all pair coeffs. (src/write_data.cpp:312)

Total wall time: 0:52:19
