LAMMPS (24 Dec 2020)
OMP_NUM_THREADS environment is not set. Defaulting to 1 thread. (src/comm.cpp:94)
  using 1 OpenMP thread(s) per MPI task
# Simple rigid body system
# needed variables: startTemp, temp

units		lj
atom_style	full
dimension 	3
boundary	p p f
pair_style	lj/cut/opt 2.5

variable 	gcmcdisplace	equal 0
variable 	sigma		equal 1.0
variable 	epsilon 	equal 1.0


read_restart	restart.dat.3000000
Reading restart file ...
  restart file = 24 Dec 2020, LAMMPS = 24 Dec 2020
WARNING: Restart file used different # of processors: 48 vs. 192 (src/read_restart.cpp:697)
  restoring atom style full from restart
  orthogonal box = (0.0000000 0.0000000 0.0000000) to (80.000000 80.000000 160.00000)
  6 by 4 by 8 MPI processor grid
  restoring pair style lj/cut/opt from restart
  439061 atoms
Finding 1-2 1-3 1-4 neighbors ...
  special bond factors lj:    0        0        0       
  special bond factors coul:  0        0        0       
     0 = max # of 1-2 neighbors
     0 = max # of 1-3 neighbors
     0 = max # of 1-4 neighbors
     1 = max # of special neighbors
  special bonds CPU = 1.449 seconds
  read_restart CPU = 1.740 seconds

mass		1 1.0
mass		2 1.0
mass		3 1.0


group		solvent type 1
439061 atoms in group solvent


neighbor 	0.4 bin

pair_coeff	1 1 1.0 1.0
pair_coeff	2 2 0.0 0.0
pair_coeff	3 3 0.0 0.0
pair_coeff	2 3 0.0 0.0
pair_coeff	1 2*3 0.0 0.0

pair_modify 	shift yes


balance 	1.05 shift z 10 1.05
Balancing ...
Neighbor list info ...
  update every 1 steps, delay 10 steps, check yes
  max neighbors/atom: 2000, page size: 100000
  master list distance cutoff = 2.9
  ghost atom cutoff = 2.9
  binsize = 1.45, bins = 56 56 111
  1 neighbor lists, perpetual/occasional/extra = 1 0 0
  (1) pair lj/cut/opt, perpetual
      attributes: half, newton on
      pair build: half/bin/newton
      stencil: half/bin/3d/newton
      bin: standard
 rebalancing time: 0.022 seconds
  iteration count = 5
  initial/final maximal load/proc = 3162.0000 2575.0000
  initial/final imbalance factor  = 1.3827327 1.1260394
  x cuts: 0.0000000 0.16666667 0.33333333 0.50000000 0.66666667 0.83333333 1.0000000
  y cuts: 0.0000000 0.25000000 0.50000000 0.75000000 1.0000000
  z cuts: 0.0000000 0.097656250 0.18359375 0.27734375 0.37890625 0.47656250 0.57031250 0.67968750 1.0000000


####################### WALLS ###########################


variable       epsilonWall equal 2*${epsilon}
variable       epsilonWall equal 2*1

variable       cutoffTop   equal   0.7147*${sigma}
variable       cutoffTop   equal   0.7147*1

variable       cutoffLow   equal   3*${sigma}
variable       cutoffLow   equal   3*1


fix            topWall all wall/lj93 zhi EDGE                ${epsilonWall} ${sigma} ${cutoffTop} units box
fix            topWall all wall/lj93 zhi EDGE                2 ${sigma} ${cutoffTop} units box
fix            topWall all wall/lj93 zhi EDGE                2 1 ${cutoffTop} units box
fix            topWall all wall/lj93 zhi EDGE                2 1 0.7147 units box

fix            lowWall all wall/lj93 zlo EDGE                ${epsilonWall} ${sigma} ${cutoffLow} units box
fix            lowWall all wall/lj93 zlo EDGE                2 ${sigma} ${cutoffLow} units box
fix            lowWall all wall/lj93 zlo EDGE                2 1 ${cutoffLow} units box
fix            lowWall all wall/lj93 zlo EDGE                2 1 3 units box


###################### COMPUTES ##########################

compute        bin1 solvent chunk/atom bin/1d z upper 1.0



######################	FIXES ############################


fix 		peclet solvent ave/chunk 1000 1 1000 bin1 density/number norm 		 none ave one file density.profile

fix 		 temp solvent ave/chunk 1000 1 1000 bin1 temp norm none ave one file temp.profile

fix 		2 solvent nve

## Thermostat


region		regthermo block EDGE EDGE EDGE EDGE 0 20

group 		thermo dynamic solvent region regthermo every 1000
dynamic group thermo defined

fix 		3 thermo langevin ${startTemp} ${temp} 10 156453
fix 		3 thermo langevin 1.0 ${temp} 10 156453
fix 		3 thermo langevin 1.0 1.0 10 156453


## Evaporation

region		regevap block EDGE EDGE EDGE EDGE 140 158
fix 		gcmc solvent gcmc 100 100 0 1 780493 ${temp} ${mu} ${gcmcdisplace} region regevap
fix 		gcmc solvent gcmc 100 100 0 1 780493 1.0 ${mu} ${gcmcdisplace} region regevap
fix 		gcmc solvent gcmc 100 100 0 1 780493 1.0 -3.6 ${gcmcdisplace} region regevap
fix 		gcmc solvent gcmc 100 100 0 1 780493 1.0 -3.6 0 region regevap


#### Load balancing

fix 		bal all balance 1000 1.05 shift z 10 1.05

############### Diagnostics and computes ###################
#compute 	com cube	  rigid/local	1 mol x y z
#compute 	quat cube	  rigid/local	1 mol quatw quati quatj quatk

thermo 		1000
thermo_style 	custom step temp epair etotal press pe ke atoms

dump		1 all custom 100000 dump.lammpstrj id mol type x y z
dump 		2 all image 10000 image.*.png type type
dump 		3 all movie 1000 movie.avi type type
#dump 		com cube local 1000 dump.*.xyz c_com[*]
#dump		quat cube      local 1000 dump.*.quat c_quat[*]


restart 	1000000 restart.dat
timestep 	0.005
timer 		full
New timer settings: style=full  mode=nosync  timeout=off


run		5000000
Per MPI rank memory allocation (min/avg/max) = 9.923 | 9.986 | 10.01 Mbytes
Step Temp E_pair TotEng Press PotEng KinEng Atoms 
 3000000     1.016004   -3.1352716   -1.6112691  0.079025997   -3.1352716    1.5240025   439061 
 3001000    1.0146366   -3.1348252   -1.6124057  0.074308312   -3.1348252    1.5224195   438926 
 3002000    1.0156307   -3.1375741   -1.6133017   0.07326869   -3.1375741    1.5242723   438822 
 3003000    1.0149485   -3.1367247   -1.6129867  0.076120115   -3.1367247     1.523738   438681 
 3004000    1.0139379   -3.1369048   -1.6143299  0.076766304   -3.1369048    1.5225749   438579 
 3005000    1.0144465   -3.1376397   -1.6138042  0.074411071   -3.1376397    1.5238355   438436 
 3006000    1.0142265   -3.1390065   -1.6149802  0.074202589   -3.1390065    1.5240263   438286 
 3007000    1.0110321    -3.137269   -1.6174254  0.075105132    -3.137269    1.5198436   438108 
 3008000    1.0109653   -3.1370956   -1.6167312  0.079617114   -3.1370956    1.5203644   437929 
 3009000    1.0125704    -3.140551   -1.6172337  0.075490928    -3.140551    1.5233173   437774 
 3010000    1.0113031    -3.139316   -1.6173871  0.078640269    -3.139316    1.5219289   437625 
 3011000    1.0113633   -3.1405255   -1.6181025  0.071471833   -3.1405255     1.522423   437509 
 3012000    1.0110294   -3.1411456   -1.6186163   0.07350087   -3.1411456    1.5225293   437334 
 3013000    1.0103786    -3.139914   -1.6179575  0.074054063    -3.139914    1.5219565   437217 
 3014000    1.0072218   -3.1377352    -1.620159  0.072367436   -3.1377352    1.5175762   437109 
 3015000     1.009815   -3.1395133   -1.6176608  0.073991077   -3.1395133    1.5218525   437003 
 3016000    1.0091378    -3.139618   -1.6182397  0.072184942    -3.139618    1.5213783   436846 
 3017000    1.0083491   -3.1410868   -1.6203509  0.068260595   -3.1410868    1.5207359   436689 
 3018000    1.0066897   -3.1390097   -1.6203835   0.07332794   -3.1390097    1.5186262   436576 
 3019000    1.0054773   -3.1384669   -1.6213012  0.070143453   -3.1384669    1.5171657   436470 
 3020000    1.0044297   -3.1379049    -1.621858  0.067871926   -3.1379049    1.5160469   436337 
 3021000    1.0044844   -3.1388047   -1.6220947  0.068713089   -3.1388047      1.51671   436170 
 3022000    1.0056538   -3.1408318   -1.6217884  0.067010413   -3.1408318    1.5190434   436007 
 3023000    1.0033743   -3.1384389   -1.6222127  0.067045653   -3.1384389    1.5162261   435827 
 3024000    1.0029623   -3.1385149   -1.6223791   0.06313672   -3.1385149    1.5161358   435674 
 3025000    1.0027248   -3.1390997   -1.6229645  0.069797145   -3.1390997    1.5161352   435571 
 3026000    1.0029557   -3.1413846   -1.6242804  0.071359292   -3.1413846    1.5171042   435393 
 3027000    1.0027963   -3.1412324   -1.6238882  0.070124875   -3.1412324    1.5173442   435255 
 3028000    1.0030306   -3.1421307   -1.6239856  0.067453362   -3.1421307    1.5181451   435127 
 3029000    1.0015109   -3.1404556   -1.6240531   0.06916297   -3.1404556    1.5164025   434967 
 3030000    1.0005613   -3.1408018   -1.6253738  0.068016839   -3.1408018     1.515428   434834 
 3031000    1.0017842   -3.1423141   -1.6245556  0.071260893   -3.1423141    1.5177585   434697 
 3032000    1.0000653   -3.1421519   -1.6264397  0.068226634   -3.1421519    1.5157122   434537 
 3033000   0.99960922   -3.1417377   -1.6262564  0.070512292   -3.1417377    1.5154813   434405 
 3034000   0.99800142   -3.1396813   -1.6261776  0.068486387   -3.1396813    1.5135036   434273 
 3035000   0.99936867   -3.1420678   -1.6260019  0.065591278   -3.1420678    1.5160658   434133 
 3036000   0.99821417   -3.1418668   -1.6270883  0.065978463   -3.1418668    1.5147785   434000 
 3037000   0.99666841   -3.1419072   -1.6288608  0.069041793   -3.1419072    1.5130464   433824 
 3038000    0.9965707   -3.1436926   -1.6302328  0.063445661   -3.1436926    1.5134598   433663 
 3039000   0.99680347   -3.1439302   -1.6295058  0.066163767   -3.1439302    1.5144244   433488 
 3040000   0.99634582   -3.1466556    -1.632448  0.067466989   -3.1466556    1.5142076   433351 
 3041000   0.99671377   -3.1466481   -1.6314162  0.065337671   -3.1466481    1.5152319   433218 
 3042000   0.99588211   -3.1472618   -1.6329972   0.06350079   -3.1472618    1.5142647   433133 
 3043000   0.99626834    -3.147012   -1.6318663  0.061280175    -3.147012    1.5151458   433049 
 3044000   0.99541272   -3.1473271   -1.6330945  0.067323485   -3.1473271    1.5142327   432938 
 3045000   0.99499086    -3.148271    -1.634152  0.068672777    -3.148271     1.514119   432787 
 3046000    0.9945081    -3.148248   -1.6343354  0.066209947    -3.148248    1.5139126   432636 
 3047000   0.99415832   -3.1483456   -1.6345455  0.067897422   -3.1483456       1.5138   432516 
 3048000   0.99434813   -3.1496126   -1.6350509  0.063481227   -3.1496126    1.5145618   432381 
 3049000   0.99596224   -3.1523627   -1.6349703  0.064809115   -3.1523627    1.5173923   432275 
 3050000   0.99366834   -3.1511007   -1.6366112  0.063447004   -3.1511007    1.5144896   432106 
 3051000   0.99396985   -3.1530885   -1.6376168  0.065104977   -3.1530885    1.5154717   431957 
 3052000   0.99353488   -3.1534137   -1.6379877  0.066398545   -3.1534137     1.515426   431781 
 3053000   0.99413778    -3.155762   -1.6387629  0.063190019    -3.155762     1.516999   431595 
 3054000   0.99116279   -3.1534943   -1.6405336  0.072977358   -3.1534943    1.5129607   431452 
 3055000   0.99253748   -3.1568926   -1.6413523   0.06680088   -3.1568926    1.5155403   431315 
 3056000   0.99306403   -3.1592668   -1.6424125   0.06913746   -3.1592668    1.5168542   431170 
 3057000   0.99208832   -3.1575841   -1.6417773  0.071251721   -3.1575841    1.5158068   431044 
 3058000   0.99225347   -3.1586793   -1.6421979  0.066175267   -3.1586793    1.5164814   430924 
 3059000    0.9915343   -3.1597312   -1.6439092  0.062403249   -3.1597312    1.5158219   430799 
 3060000   0.98972965   -3.1580043    -1.644495  0.067981253   -3.1580043    1.5135092   430672 
 3061000   0.98939132   -3.1587263     -1.64526  0.067539255   -3.1587263    1.5134663   430537 
 3062000   0.98816754   -3.1577476   -1.6456687  0.065356146   -3.1577476    1.5120789   430399 
 3063000   0.98948874    -3.160886   -1.6463174  0.070743133    -3.160886    1.5145686   430266 
 3064000   0.98952932   -3.1607614   -1.6457504   0.06532334   -3.1607614     1.515011   430158 
 3065000   0.98745756   -3.1601231   -1.6477426  0.062971431   -3.1601231    1.5123805   430004 
 3066000   0.98690932    -3.158907   -1.6468773  0.061798096    -3.158907    1.5120296   429865 
 3067000   0.98624501   -3.1602426   -1.6488299  0.059363207   -3.1602426    1.5114127   429751 
 3068000   0.98603275    -3.161009   -1.6494046  0.063896825    -3.161009    1.5116044   429604 
 3069000   0.98479993   -3.1596143   -1.6494218  0.064723599   -3.1596143    1.5101926   429468 
 3070000   0.98514669   -3.1607707   -1.6495221  0.058509002   -3.1607707    1.5112487   429319 
 3071000   0.98551755   -3.1610179   -1.6486684  0.065469494   -3.1610179    1.5123495   429168 
 3072000   0.98468823   -3.1609972    -1.649304  0.062652158   -3.1609972    1.5116933   428993 
 3073000   0.98483756   -3.1631676   -1.6507515  0.060782248   -3.1631676    1.5124161   428853 
 3074000   0.98437241   -3.1642897   -1.6520661  0.061647518   -3.1642897    1.5122236   428705 
 3075000   0.98263015   -3.1627657   -1.6528559  0.061744021   -3.1627657    1.5099099   428602 
 3076000   0.98109388   -3.1635224   -1.6554419  0.056055586   -3.1635224    1.5080805   428451 
 3077000   0.98040443   -3.1616364   -1.6541512   0.06507119   -3.1616364    1.5074852   428319 
 3078000   0.98015921   -3.1619175   -1.6544221  0.058612747   -3.1619175    1.5074953   428209 
 3079000   0.98048296   -3.1636219   -1.6550826  0.061959291   -3.1636219    1.5085393   428054 
 3080000   0.97821796   -3.1613524   -1.6558337  0.064340876   -3.1613524    1.5055187   427922 
 3081000   0.97971598   -3.1643381    -1.656017  0.060118351   -3.1643381    1.5083212   427781 
 3082000   0.97889305   -3.1651376   -1.6575829  0.065331021   -3.1651376    1.5075547   427639 
 3083000   0.97916836   -3.1668317   -1.6583944  0.057708562   -3.1668317    1.5084372   427509 
 3084000   0.97876401   -3.1677724   -1.6594394  0.056749916   -3.1677724     1.508333   427362 
 3085000   0.97810864   -3.1680961   -1.6602862   0.05609623   -3.1680961    1.5078099   427224 
 3086000   0.97833973   -3.1703743   -1.6618304  0.059317779   -3.1703743    1.5085439   427117 
 3087000   0.97729869   -3.1686674   -1.6610722  0.060015145   -3.1686674    1.5075952   426931 
 3088000   0.97576118   -3.1684401   -1.6628217  0.060024996   -3.1684401    1.5056184   426819 
 3089000   0.97620462    -3.170785   -1.6640517   0.06046849    -3.170785    1.5067333   426697 
 3090000   0.97568541    -3.170472   -1.6640528  0.063591259    -3.170472    1.5064192   426559 
 3091000   0.97534376   -3.1708681   -1.6644396  0.061527027   -3.1708681    1.5064285   426407 
 3092000   0.97610433   -3.1717903   -1.6636495   0.05779803   -3.1717903    1.5081408   426255 
 3093000   0.97509338   -3.1717496   -1.6647642  0.057729237   -3.1717496    1.5069854   426140 
 3094000   0.97440375   -3.1730464   -1.6665647   0.05942983   -3.1730464    1.5064817   425981 
 3095000    0.9735294   -3.1737611   -1.6680905   0.06009417   -3.1737611    1.5056707   425828 
 3096000   0.97221874   -3.1738248    -1.669662  0.059769882   -3.1738248    1.5041628   425681 
 3097000   0.97372064   -3.1769713   -1.6699644  0.059280107   -3.1769713    1.5070069   425534 
 3098000   0.97379709   -3.1777648   -1.6702038  0.061123158   -3.1777648     1.507561   425411 
 3099000   0.97183439   -3.1756375   -1.6706692  0.061842268   -3.1756375    1.5049682   425285 
 3100000   0.97299206   -3.1771525   -1.6700691  0.065067179   -3.1771525    1.5070835   425194 
 3101000   0.97233993   -3.1776758   -1.6710958  0.059598082   -3.1776758      1.50658   425051 
 3102000   0.97183234   -3.1775704   -1.6712524  0.057279824   -3.1775704    1.5063181   424903 
 3103000   0.97066298   -3.1774814   -1.6725119  0.056440374   -3.1774814    1.5049696   424772 
 3104000   0.97017207   -3.1785688   -1.6737617  0.059965351   -3.1785688    1.5048071   424603 
 3105000   0.96971811   -3.1801424   -1.6754476  0.051912219   -3.1801424    1.5046948   424436 
 3106000   0.96915955   -3.1798395   -1.6755754  0.060606109   -3.1798395     1.504264   424313 
 3107000   0.96993582   -3.1818458   -1.6759297  0.056716221   -3.1818458    1.5059161   424187 
 3108000   0.96754044   -3.1791044   -1.6764326  0.057907537   -3.1791044    1.5026717   424053 
 3109000   0.97014408   -3.1841824   -1.6770582  0.053659823   -3.1841824    1.5071241   423938 
 3110000   0.96740878   -3.1823254   -1.6789825  0.055601554   -3.1823254    1.5033429   423806 
 3111000   0.96874906    -3.182505   -1.6766849  0.059695493    -3.182505    1.5058201   423695 
 3112000   0.96720695   -3.1802021     -1.67641  0.058640013   -3.1802021    1.5037922   423591 
 3113000   0.96646388   -3.1814845   -1.6783721  0.062384262   -3.1814845    1.5031123   423457 
 3114000   0.96711535   -3.1832923   -1.6788363  0.056726135   -3.1832923     1.504456   423364 
 3115000   0.96569574   -3.1817848   -1.6791432  0.061603813   -3.1817848    1.5026416   423253 
 3116000   0.96733041   -3.1850627   -1.6793012  0.051696924   -3.1850627    1.5057615   423091 
 3117000   0.96550117    -3.183141   -1.6796868    0.0597493    -3.183141    1.5034542   422939 
 3118000   0.96646332    -3.186233   -1.6807894  0.056388109    -3.186233    1.5054436   422801 
 3119000   0.96584378   -3.1874171    -1.682426  0.056830939   -3.1874171    1.5049912   422657 
 3120000   0.96457098   -3.1877038    -1.684326   0.05600668   -3.1877038    1.5033778   422553 
 3121000    0.9634586    -3.184922   -1.6829332  0.055991091    -3.184922    1.5019888   422456 
 3122000   0.96360487   -3.1857009   -1.6829255  0.058802821   -3.1857009    1.5027754   422299 
 3123000   0.96247179   -3.1853081   -1.6838696  0.059000628   -3.1853081    1.5014385   422178 
 3124000   0.96233571   -3.1868381   -1.6850499  0.058590152   -3.1868381    1.5017882   422020 
 3125000    0.9635614   -3.1903322   -1.6861322  0.051788017   -3.1903322       1.5042   421880 
 3126000   0.96450906   -3.1919123   -1.6858581  0.055726028   -3.1919123    1.5060542   421775 
 3127000   0.96251366   -3.1916491   -1.6882401  0.061961547   -3.1916491     1.503409   421643 
 3128000   0.96150431   -3.1914657   -1.6891772   0.05854889   -3.1914657    1.5022885   421515 
 3129000   0.96115474   -3.1912015   -1.6891207  0.059413832   -3.1912015    1.5020808   421420 
 3130000   0.96075149   -3.1913462    -1.689582   0.05911471   -3.1913462    1.5017642   421332 
 3131000   0.95938362    -3.189612   -1.6896086  0.056779325    -3.189612    1.5000035   421226 
 3132000   0.96003203    -3.191206   -1.6896148  0.058302268    -3.191206    1.5015912   421065 
 3133000   0.95968909   -3.1927356   -1.6911994  0.057345361   -3.1927356    1.5015362   420930 
 3134000   0.95852913   -3.1936615   -1.6934341  0.056152483   -3.1936615    1.5002274   420788 
 3135000   0.95794914   -3.1942172   -1.6945269  0.056822428   -3.1942172    1.4996903   420684 
 3136000    0.9587849   -3.1967919   -1.6953792  0.057117188   -3.1967919    1.5014127   420568 
 3137000   0.95828487   -3.1977871   -1.6968433  0.051575648   -3.1977871    1.5009438   420480 
 3138000   0.95878264   -3.1972801   -1.6951994  0.052688995   -3.1972801    1.5020806   420380 
 3139000   0.95798208   -3.1976593   -1.6964043  0.054081817   -3.1976593     1.501255   420260 
 3140000   0.95743635   -3.1984248    -1.697375  0.055229514   -3.1984248    1.5010498   420078 
 3141000   0.95683118   -3.1985846   -1.6981157  0.060572443   -3.1985846     1.500469   419975 
 3142000   0.95575858   -3.1968139   -1.6976271  0.057141819   -3.1968139    1.4991867   419863 
 3143000   0.95762223   -3.2010318   -1.6985424  0.051139826   -3.2010318    1.5024894   419757 
 3144000   0.95751881   -3.2022114   -1.6996516  0.052681177   -3.2022114    1.5025598   419692 
 3145000   0.95686145   -3.2015784   -1.6997389  0.049797731   -3.2015784    1.5018396   419605 
 3146000     0.956371    -3.200825   -1.6993867  0.061031358    -3.200825    1.5014383   419502 
 3147000   0.95524818   -3.2007141   -1.7008133  0.050208307   -3.2007141    1.4999008   419439 
 3148000   0.95508178   -3.2014053   -1.7012006  0.051939015   -3.2014053    1.5002047   419281 
 3149000   0.95382973   -3.1998809   -1.7012283  0.056128872   -3.1998809    1.4986526   419165 
 3150000   0.95403633   -3.2003191   -1.7009663  0.056389986   -3.2003191    1.4993528   419060 
 3151000    0.9550336   -3.2043799   -1.7031087   0.05328662   -3.2043799    1.5012712   418962 
 3152000   0.95583212   -3.2053359   -1.7024974  0.055945416   -3.2053359    1.5028385   418875 
 3153000   0.95356278   -3.2034377    -1.703709  0.056795489   -3.2034377    1.4997287   418747 
 3154000   0.95260062    -3.203717   -1.7051472  0.054310345    -3.203717    1.4985698   418648 
 3155000   0.95356836   -3.2060954   -1.7056018  0.055138591   -3.2060954    1.5004936   418536 
 3156000   0.95175094   -3.2026393   -1.7047693  0.051125005   -3.2026393      1.49787   418470 
 3157000   0.95115212   -3.2022257    -1.705019  0.053682114   -3.2022257    1.4972066   418392 
 3158000   0.95168244   -3.2049497   -1.7064498  0.053099202   -3.2049497    1.4984998   418264 
 3159000   0.95074409   -3.2042642   -1.7067263  0.047946116   -3.2042642    1.4975379   418120 
 3160000   0.94956876   -3.2035654   -1.7074172  0.053785043   -3.2035654    1.4961482   417991 
 3161000    0.9489189   -3.2046816   -1.7092102  0.043955595   -3.2046816    1.4954713   417894 
 3162000   0.94873087   -3.2059804   -1.7104798  0.053761633   -3.2059804    1.4955007   417803 
 3163000   0.94769253   -3.2032679   -1.7090499  0.055234046   -3.2032679     1.494218   417704 
 3164000    0.9489202   -3.2051211   -1.7084694  0.056086112   -3.2051211    1.4966517   417565 
 3165000   0.94911244   -3.2078705   -1.7102628  0.051678908   -3.2078705    1.4976076   417383 
 3166000   0.94848623   -3.2068665   -1.7097017  0.054022135   -3.2068665    1.4971647   417231 
 3167000   0.94846454   -3.2084821   -1.7109532  0.045406544   -3.2084821    1.4975289   417120 
 3168000   0.94957096   -3.2101512   -1.7104871  0.052246286   -3.2101512    1.4996641   417012 
 3169000   0.94700715   -3.2073939   -1.7113878  0.052693618   -3.2073939    1.4960061   416903 
 3170000   0.94905259   -3.2121312   -1.7123291  0.048729116   -3.2121312    1.4998021   416746 
 3171000   0.94629221     -3.20981   -1.7138568  0.053272352     -3.20981    1.4959532   416603 
 3172000    0.9465603   -3.2104471   -1.7138473  0.052496746   -3.2104471    1.4965997   416541 
 3173000   0.94757693   -3.2100083   -1.7115421  0.047214549   -3.2100083    1.4984661   416469 
 3174000   0.94584595   -3.2096768   -1.7136426  0.051430928   -3.2096768    1.4960341   416384 
 3175000   0.94561694   -3.2102514   -1.7140836  0.050141679   -3.2102514    1.4961678   416246 
 3176000     0.943084   -3.2087146   -1.7161098  0.055169735   -3.2087146    1.4926048   416122 
 3177000   0.94509024   -3.2137123   -1.7176806  0.052499533   -3.2137123    1.4960317   416052 
 3178000    0.9427218   -3.2134664   -1.7207138  0.045947698   -3.2134664    1.4927526   415921 
 3179000   0.94233724   -3.2142984   -1.7217493  0.048565575   -3.2142984    1.4925492   415808 
 3180000   0.94105979   -3.2147039   -1.7237478  0.044817287   -3.2147039    1.4909561   415688 
 3181000   0.94174936   -3.2161934   -1.7237714  0.046015078   -3.2161934     1.492422   415584 
 3182000   0.94397208   -3.2191621   -1.7229873  0.049514568   -3.2191621    1.4961748   415520 
 3183000   0.94170701   -3.2185674   -1.7256449   0.05357902   -3.2185674    1.4929225   415426 
 3184000   0.94204769   -3.2187212   -1.7249745  0.050267535   -3.2187212    1.4937466   415347 
 3185000   0.94129958   -3.2185143   -1.7255764  0.049664406   -3.2185143    1.4929378   415242 
 3186000   0.94205748   -3.2192305   -1.7247307  0.055337401   -3.2192305    1.4944998   415142 
 3187000   0.94297089   -3.2198773   -1.7236257   0.05191248   -3.2198773    1.4962516   415058 
 3188000   0.94362623   -3.2206692   -1.7230133  0.054207942   -3.2206692    1.4976559   414957 
 3189000   0.94273187   -3.2224778   -1.7257725  0.052639793   -3.2224778    1.4967053   414827 
 3190000   0.94170729   -3.2223494   -1.7268958  0.049119765   -3.2223494    1.4954536   414723 
 3191000   0.94140944   -3.2216711   -1.7263263  0.053042482   -3.2216711    1.4953448   414622 
 3192000   0.94144269   -3.2231234   -1.7272171   0.05459762   -3.2231234    1.4959063   414481 
 3193000   0.94153786   -3.2235963   -1.7271019   0.04956559   -3.2235963    1.4964944   414360 
 3194000    0.9398903   -3.2227388    -1.728589  0.051063675   -3.2227388    1.4941498   414284 
 3195000   0.93874784   -3.2229993   -1.7302657  0.048857977   -3.2229993    1.4927336   414173 
 3196000   0.93917784   -3.2244178   -1.7306903  0.051002681   -3.2244178    1.4937275   414087 
 3197000   0.93788733   -3.2231471   -1.7312307  0.048709651   -3.2231471    1.4919164   414020 
 3198000    0.9380343   -3.2243455   -1.7317772  0.046008099   -3.2243455    1.4925684   413904 
 3199000   0.93853654   -3.2257857   -1.7319526   0.04712572   -3.2257857    1.4938331   413775 
 3200000   0.93697638    -3.225219   -1.7333681  0.050936231    -3.225219     1.491851   413636 
 3201000   0.93821491   -3.2271607   -1.7328609  0.044201305   -3.2271607    1.4942998   413504 
 3202000   0.93566562   -3.2242703   -1.7335765   0.05391686   -3.2242703    1.4906938   413378 
 3203000   0.93577309   -3.2265927   -1.7354103  0.048777733   -3.2265927    1.4911825   413290 
 3204000   0.93690818   -3.2281294   -1.7349539  0.047664063   -3.2281294    1.4931755   413239 
 3205000   0.93751893   -3.2274384   -1.7329676  0.048753583   -3.2274384    1.4944708   413150 
 3206000   0.93564303   -3.2276628   -1.7358032  0.052881274   -3.2276628    1.4918596   413045 
 3207000   0.93585364   -3.2286939   -1.7361697  0.052024549   -3.2286939    1.4925242   412954 
 3208000   0.93587501   -3.2301759   -1.7372705   0.04578957   -3.2301759    1.4929054   412858 
 3209000   0.93410333   -3.2279303   -1.7374685   0.04801716   -3.2279303    1.4904619   412752 
 3210000    0.9353451   -3.2310885   -1.7380918  0.045205515   -3.2310885    1.4929967   412599 
 3211000   0.93485045   -3.2289422   -1.7364927  0.046642918   -3.2289422    1.4924495   412532 
 3212000   0.93304316   -3.2284702   -1.7384148  0.049523904   -3.2284702    1.4900554   412396 
 3213000   0.93345235     -3.22918   -1.7380843  0.049102781     -3.22918    1.4910958   412289 
 3214000   0.93208023   -3.2297473   -1.7405328   0.04609146   -3.2297473    1.4892146   412203 
 3215000   0.93154248   -3.2307993   -1.7421333  0.042120371   -3.2307993     1.488666   412117 
 3216000   0.93072991   -3.2298937   -1.7422699  0.046975789   -3.2298937    1.4876237   412046 
 3217000   0.92946801   -3.2288105   -1.7428322  0.049016424   -3.2288105    1.4859783   411943 
 3218000   0.93071436   -3.2326229   -1.7442944  0.042809749   -3.2326229    1.4883285   411844 
 3219000   0.93160079   -3.2327847   -1.7426298   0.04686762   -3.2327847    1.4901549   411731 
 3220000   0.93032541   -3.2333575   -1.7447835  0.044774928   -3.2333575     1.488574   411604 
 3221000   0.92989874   -3.2322343   -1.7440827  0.046068996   -3.2322343    1.4881516   411532 
 3222000   0.92888338   -3.2307118   -1.7438057  0.049016279   -3.2307118    1.4869061   411427 
 3223000   0.93001582    -3.232804   -1.7437015  0.044765739    -3.232804    1.4891025   411321 
 3224000   0.92943946   -3.2340343    -1.745471  0.041434092   -3.2340343    1.4885632   411215 
 3225000   0.92912093   -3.2343667    -1.745948  0.047732854   -3.2343667    1.4884187   411114 
 3226000   0.92968272   -3.2348412   -1.7452399  0.050356578   -3.2348412    1.4896013   411036 
 3227000   0.92887203   -3.2336926   -1.7450969   0.04979764   -3.2336926    1.4885957   410955 
 3228000   0.92997256   -3.2360024   -1.7454291  0.040831754   -3.2360024    1.4905733   410896 
 3229000    0.9315382   -3.2379163   -1.7444628  0.043574387   -3.2379163    1.4934535   410794 
 3230000   0.92938287   -3.2363329   -1.7460664  0.051891781   -3.2363329    1.4902665   410720 
 3231000   0.93011655   -3.2395522   -1.7477751  0.045781028   -3.2395522    1.4917771   410628 
 3232000   0.92852015   -3.2368622   -1.7473081  0.049207996   -3.2368622    1.4895541   410535 
 3233000   0.92824431   -3.2372204   -1.7479891  0.042526226   -3.2372204    1.4892313   410502 
 3234000   0.92812199   -3.2370586   -1.7477116  0.046226411   -3.2370586    1.4893471   410416 
 3235000   0.92700244   -3.2386507   -1.7506687   0.04870804   -3.2386507     1.487982   410297 
 3236000   0.92583548   -3.2391256   -1.7527089  0.049527516   -3.2391256    1.4864167   410212 
 3237000    0.9266901   -3.2399103   -1.7519619  0.045926848   -3.2399103    1.4879484   410168 
 3238000   0.92553276   -3.2382834   -1.7519577  0.048388778   -3.2382834    1.4863257   410103 
 3239000   0.92812034   -3.2418377   -1.7512439  0.045250407   -3.2418377    1.4905938   410072 
 3240000   0.92664048   -3.2390041   -1.7504966  0.046270524   -3.2390041    1.4885075   409992 
 3241000     0.928091   -3.2422006   -1.7509703  0.045129765   -3.2422006    1.4912303   409884 
 3242000   0.92599143   -3.2397255   -1.7516073  0.047349319   -3.2397255    1.4881182   409812 
 3243000   0.92642025   -3.2413184   -1.7522677   0.04600023   -3.2413184    1.4890508   409745 
 3244000   0.92644974   -3.2413387   -1.7519825  0.049844371   -3.2413387    1.4893563   409674 
 3245000   0.92747367   -3.2446239   -1.7534833  0.050150252   -3.2446239    1.4911406   409636 
 3246000    0.9266694   -3.2454135   -1.7551184   0.04534378   -3.2454135    1.4902951   409513 
 3247000   0.92463831    -3.244035   -1.7567921  0.048387665    -3.244035    1.4872429   409454 
 3248000     0.925818   -3.2456513   -1.7560963  0.053096248   -3.2456513    1.4895551   409340 
 3249000     0.926246   -3.2481235   -1.7574356   0.04294352   -3.2481235     1.490688   409218 
 3250000   0.92504533   -3.2459863   -1.7569396   0.04763623   -3.2459863    1.4890467   409138 
 3251000    0.9260208   -3.2483418   -1.7574625  0.046644269   -3.2483418    1.4908793   409066 
 3252000   0.92445991   -3.2469848   -1.7583783  0.042766588   -3.2469848    1.4886065   409000 
 3253000   0.92369012   -3.2478688   -1.7601854  0.050453493   -3.2478688    1.4876834   408913 
 3254000   0.92407949   -3.2493012   -1.7607177  0.047192585   -3.2493012    1.4885835   408838 
 3255000   0.92258028   -3.2503763   -1.7639206  0.043837819   -3.2503763    1.4864557   408759 
 3256000   0.92131659   -3.2505798   -1.7659241  0.045373974   -3.2505798    1.4846557   408694 
 3257000   0.92246831   -3.2520517   -1.7652999  0.046130663   -3.2520517    1.4867518   408628 
 3258000   0.92237742   -3.2520593   -1.7649882  0.049851453   -3.2520593    1.4870711   408500 
 3259000   0.92228519   -3.2522716   -1.7650252  0.044460656   -3.2522716    1.4872464   408411 
 3260000   0.92266178   -3.2527761   -1.7646674   0.04585133   -3.2527761    1.4881088   408341 
 3261000   0.92290984   -3.2529946   -1.7641685  0.043790372   -3.2529946     1.488826   408254 
 3262000    0.9221695   -3.2541508   -1.7661546  0.049215515   -3.2541508    1.4879962   408154 
 3263000   0.92188717   -3.2541601   -1.7663461  0.046023487   -3.2541601    1.4878141   408079 
 3264000   0.92198029   -3.2549117   -1.7665535  0.044032254   -3.2549117    1.4883582   407971 
 3265000   0.92250205   -3.2559806   -1.7664113  0.047399849   -3.2559806    1.4895693   407870 
 3266000   0.92080238    -3.254828    -1.767799  0.047516072    -3.254828     1.487029   407814 
 3267000   0.91928551   -3.2527281   -1.7679048  0.045378002   -3.2527281    1.4848233   407747 
 3268000   0.91997242   -3.2551327   -1.7688427  0.044902005   -3.2551327      1.48629   407649 
 3269000   0.91999352   -3.2557042   -1.7690154  0.045462248   -3.2557042    1.4866888   407549 
 3270000   0.92056424   -3.2566866   -1.7688492   0.04005673   -3.2566866    1.4878374   407487 
 3271000   0.91899473   -3.2555126   -1.7699786  0.043379069   -3.2555126     1.485534   407423 
 3272000   0.92032517   -3.2588057   -1.7707594  0.048197913   -3.2588057    1.4880463   407324 
 3273000   0.92032653   -3.2602571   -1.7718578  0.044966931   -3.2602571    1.4883993   407228 
 3274000   0.91999737   -3.2590962   -1.7710247  0.044544007   -3.2590962    1.4880715   407172 
 3275000   0.91764676   -3.2567072   -1.7721387  0.046839315   -3.2567072    1.4845685   407090 
 3276000   0.91670263   -3.2552815   -1.7721566   0.04433878   -3.2552815    1.4831249   407067 
 3277000   0.91742923   -3.2565226   -1.7720143  0.044244326   -3.2565226    1.4845083   407010 
 3278000   0.91713666   -3.2582095   -1.7738756   0.03910302   -3.2582095    1.4843339   406928 
 3279000   0.91584931   -3.2560381   -1.7735801  0.038451586   -3.2560381    1.4824581   406871 
 3280000   0.91349709    -3.253846   -1.7748901   0.04715671    -3.253846    1.4789559   406787 
 3281000   0.91461654   -3.2574958   -1.7763487    0.0375757   -3.2574958     1.481147   406683 
 3282000   0.91400879   -3.2569913   -1.7767121  0.042262521   -3.2569913    1.4802793   406651 
 3283000    0.9150877   -3.2589157   -1.7765209  0.041406482   -3.2589157    1.4823948   406550 
 3284000   0.91294431   -3.2577598    -1.778426  0.041989459   -3.2577598    1.4793338   406437 
 3285000   0.91432127   -3.2601589   -1.7784079  0.037930426   -3.2601589     1.481751   406386 
 3286000   0.91455037   -3.2610863   -1.7786358  0.043878768   -3.2610863    1.4824505   406296 
 3287000    0.9136172   -3.2585894   -1.7773999  0.041809689   -3.2585894    1.4811895   406227 
 3288000   0.91225752   -3.2576276   -1.7783366  0.039899368   -3.2576276     1.479291   406143 
 3289000   0.91383343   -3.2604468   -1.7783851   0.04037448   -3.2604468    1.4820617   406084 
 3290000   0.91502844   -3.2622653   -1.7782399   0.04240548   -3.2622653    1.4840254   406077 
 3291000   0.91359432   -3.2607545   -1.7787193  0.043364611   -3.2607545    1.4820353   405985 
 3292000   0.91348059   -3.2630991    -1.780686  0.044278914   -3.2630991    1.4824131   405831 
 3293000   0.91447365   -3.2633038   -1.7791951  0.040696451   -3.2633038    1.4841087   405808 
 3294000   0.91447032   -3.2642866   -1.7798248  0.045845353   -3.2642866    1.4844618   405710 
 3295000   0.91471181   -3.2657177   -1.7806369  0.040292649   -3.2657177    1.4850808   405648 
 3296000   0.91406268   -3.2654947   -1.7811604  0.045185542   -3.2654947    1.4843343   405564 
 3297000   0.91372219   -3.2662922   -1.7822839  0.047107471   -3.2662922    1.4840082   405502 
 3298000    0.9122911   -3.2662404   -1.7844396  0.047513943   -3.2662404    1.4818009   405470 
 3299000   0.91290603   -3.2666723   -1.7837739  0.044923717   -3.2666723    1.4828984   405443 
 3300000   0.91154022   -3.2647986   -1.7838156  0.042700105   -3.2647986     1.480983   405360 
 3301000   0.91284751   -3.2674934   -1.7842693  0.042696461   -3.2674934    1.4832241   405328 
 3302000   0.91126757   -3.2638269   -1.7830275  0.044012502   -3.2638269    1.4807994   405289 
 3303000   0.91253714   -3.2672327   -1.7840811  0.044162808   -3.2672327    1.4831515   405210 
 3304000   0.91107679   -3.2657993   -1.7848166  0.043551053   -3.2657993    1.4809827   405154 
 3305000   0.90902814   -3.2632413   -1.7854611   0.04436609   -3.2632413    1.4777802   405119 
 3306000   0.91005608   -3.2659407    -1.786263  0.037509608   -3.2659407    1.4796778   405057 
 3307000   0.91044996   -3.2675358   -1.7868704  0.042774301   -3.2675358    1.4806654   404962 
 3308000   0.91026173   -3.2687418   -1.7879876  0.044792468   -3.2687418    1.4807542   404854 
 3309000   0.90948421   -3.2684564   -1.7886856  0.044170236   -3.2684564    1.4797708   404777 
 3310000   0.91038459   -3.2693068   -1.7878367  0.041462993   -3.2693068      1.48147   404713 
 3311000   0.91030592   -3.2682755   -1.7867322  0.041149205   -3.2682755    1.4815434   404658 
 3312000   0.91149197   -3.2722781   -1.7884634  0.043334339   -3.2722781    1.4838147   404565 
 3313000   0.91068993   -3.2706861   -1.7878178  0.045377031   -3.2706861    1.4828683   404467 
 3314000   0.91060257   -3.2697487    -1.786997  0.041859665   -3.2697487    1.4827517   404460 
 3315000   0.91190324   -3.2707608   -1.7856195  0.046913462   -3.2707608    1.4851413   404386 
 3316000   0.91236821   -3.2735497   -1.7874013   0.04518581   -3.2735497    1.4861485   404318 
 3317000   0.91051046   -3.2714961   -1.7881389  0.046536844   -3.2714961    1.4833572   404254 
 3318000   0.91015134   -3.2716882   -1.7886702  0.046179599   -3.2716882    1.4830179   404187 
 3319000   0.90850366   -3.2714389   -1.7907063  0.044591739   -3.2714389    1.4807325   404078 
 3320000   0.90683485    -3.270802   -1.7925882  0.040207866    -3.270802    1.4782138   404023 
 3321000   0.90847703   -3.2736762   -1.7924115  0.044135162   -3.2736762    1.4812646   403921 
 3322000   0.90745785   -3.2723637   -1.7925264  0.046091937   -3.2723637    1.4798373   403857 
 3323000   0.90703818   -3.2746804   -1.7950365  0.039313712   -3.2746804    1.4796439   403723 
 3324000   0.90834678   -3.2765778    -1.794623  0.045613481   -3.2765778    1.4819548   403675 
 3325000   0.90705871   -3.2753433   -1.7953396  0.042832915   -3.2753433    1.4800037   403634 
 3326000   0.90690929    -3.274972   -1.7950141  0.042969637    -3.274972    1.4799578   403580 
 3327000   0.90731826   -3.2762339   -1.7954252  0.040247168   -3.2762339    1.4808087   403530 
 3328000   0.90546844   -3.2724313   -1.7945318  0.045090055   -3.2724313    1.4778995   403500 
 3329000   0.90528988   -3.2731012   -1.7953027  0.043305826   -3.2731012    1.4777985   403448 
 3330000   0.90619328   -3.2752578   -1.7956471  0.047996564   -3.2752578    1.4796106   403356 
 3331000   0.90487218   -3.2729903   -1.7952913  0.042597888   -3.2729903     1.477699   403289 
 3332000   0.90684306   -3.2761203   -1.7949824   0.04364745   -3.2761203    1.4811379   403229 
 3333000   0.90570586   -3.2749889   -1.7955982  0.041840375   -3.2749889    1.4793906   403199 
 3334000   0.90475841   -3.2737528   -1.7957521  0.040224372   -3.2737528    1.4780007   403156 
 3335000   0.90620685   -3.2765169   -1.7958196  0.045074178   -3.2765169    1.4806974   403066 
 3336000   0.90681517    -3.277126   -1.7952509  0.045156571    -3.277126    1.4818752   403016 
 3337000   0.90545595    -3.275138   -1.7950617   0.04611838    -3.275138    1.4800763   402901 
 3338000   0.90521961   -3.2755869   -1.7956471    0.0483843   -3.2755869    1.4799398   402833 
 3339000     0.906865   -3.2797038   -1.7968568  0.040529876   -3.2797038     1.482847   402774 
 3340000   0.90333566   -3.2752587   -1.7979038  0.048291322   -3.2752587    1.4773548   402698 
 3341000   0.90579627   -3.2801984   -1.7985655  0.045804736   -3.2801984    1.4816329   402629 
 3342000   0.90489836   -3.2778946   -1.7975099  0.044853777   -3.2778946    1.4803848   402569 
 3343000   0.90552456    -3.279654   -1.7978178  0.045667508    -3.279654    1.4818362   402453 
 3344000   0.90454864   -3.2800286   -1.7994951  0.049917467   -3.2800286    1.4805335   402373 
 3345000   0.90518376   -3.2801043   -1.7983324  0.047667687   -3.2801043    1.4817719   402319 
 3346000   0.90459565   -3.2803853   -1.7992669  0.049919548   -3.2803853    1.4811184   402235 
 3347000   0.90338527   -3.2795962   -1.8003346  0.044116395   -3.2795962    1.4792616   402201 
 3348000   0.90263734   -3.2793044    -1.801194  0.044758244   -3.2793044    1.4781104   402181 
 3349000   0.90341454   -3.2808014   -1.8013594  0.045721555   -3.2808014     1.479442   402165 
 3350000   0.90375478   -3.2815866   -1.8014292  0.044393206   -3.2815866    1.4801574   402122 
 3351000   0.90226078   -3.2795352   -1.8017143   0.05207488   -3.2795352    1.4778208   402092 
 3352000   0.90320372   -3.2823044   -1.8025343   0.04179631   -3.2823044    1.4797701   401982 
 3353000   0.90192512   -3.2814782   -1.8033985  0.045243884   -3.2814782    1.4780797   401872 
 3354000    0.9013857   -3.2808081   -1.8031565  0.049403333   -3.2808081    1.4776517   401748 
 3355000   0.90305262   -3.2824195    -1.801862  0.046805901   -3.2824195    1.4805575   401701 
 3356000   0.90392958   -3.2832887   -1.8010499  0.041786608   -3.2832887    1.4822388   401635 
 3357000   0.90307817   -3.2844761   -1.8032352  0.046008522   -3.2844761     1.481241   401527 
 3358000   0.90188062   -3.2838738    -1.804376  0.044001101   -3.2838738    1.4794978   401467 
 3359000   0.90217972   -3.2840586   -1.8038526  0.042560465   -3.2840586     1.480206   401408 
 3360000   0.90266086   -3.2848622   -1.8036269  0.047374726   -3.2848622    1.4812353   401343 
 3361000   0.90130749   -3.2826974   -1.8035282  0.044887078   -3.2826974    1.4791693   401301 
 3362000   0.90156225   -3.2826442   -1.8030126  0.041354019   -3.2826442    1.4796316   401289 
 3363000   0.90108015   -3.2828523   -1.8037502  0.044726949   -3.2828523    1.4791021   401218 
 3364000   0.90078855   -3.2827493   -1.8040264  0.042102966   -3.2827493    1.4787229   401191 
 3365000   0.90149144   -3.2844709   -1.8044133  0.038356346   -3.2844709    1.4800576   401142 
 3366000   0.89934288    -3.281919   -1.8053227   0.04349311    -3.281919    1.4765963   401124 
 3367000   0.90031265   -3.2847612   -1.8062925  0.038797505   -3.2847612    1.4784687   401048 
 3368000   0.89954241   -3.2830746   -1.8055908  0.039707646   -3.2830746    1.4774838   400972 
 3369000   0.89779553   -3.2818472   -1.8069493  0.042508352   -3.2818472    1.4748978   400895 
 3370000   0.89619759   -3.2800463   -1.8075238  0.038033071   -3.2800463    1.4725225   400827 
 3371000   0.89828448   -3.2830839   -1.8068562  0.037445878   -3.2830839    1.4762276   400752 
 3372000   0.89858997   -3.2855464   -1.8085477  0.042920385   -3.2855464    1.4769987   400679 
 3373000   0.89840759   -3.2846819   -1.8079719  0.040917676   -3.2846819      1.47671   400676 
 3374000   0.89763701   -3.2830932   -1.8076608  0.042304644   -3.2830932    1.4754324   400679 
 3375000   0.89933624   -3.2846556   -1.8062753  0.042559108   -3.2846556    1.4783803   400637 
 3376000   0.89948181   -3.2859825   -1.8070011  0.040759007   -3.2859825    1.4789814   400539 
 3377000   0.89797955   -3.2833068    -1.806637  0.044126943   -3.2833068    1.4766698   400496 
 3378000   0.89847561   -3.2846153    -1.806794  0.042981065   -3.2846153    1.4778213   400405 
 3379000   0.89879889   -3.2866217   -1.8080139  0.041650492   -3.2866217    1.4786079   400336 
 3380000   0.89907676    -3.288011   -1.8089387  0.042655771    -3.288011    1.4790724   400334 
 3381000   0.89778831   -3.2862152   -1.8089378  0.044654795   -3.2862152    1.4772775   400246 
 3382000   0.89940641   -3.2896004   -1.8093941  0.041449175   -3.2896004    1.4802063   400174 
 3383000   0.89837052   -3.2883854   -1.8096511  0.048201828   -3.2883854    1.4787343   400111 
 3384000   0.89966345    -3.290297   -1.8093198  0.042083588    -3.290297    1.4809772   400080 
 3385000   0.89849605   -3.2898776    -1.810578  0.044453316   -3.2898776    1.4792995   400014 
 3386000    0.8968081   -3.2888964   -1.8120991  0.038078033   -3.2888964    1.4767973   399939 
 3387000    0.8958907   -3.2890552   -1.8136432  0.045051912   -3.2890552    1.4754121   399905 
 3388000   0.89609584   -3.2899855   -1.8138961  0.035338819   -3.2899855    1.4760895   399813 
 3389000   0.89437635   -3.2886913   -1.8152132  0.041758328   -3.2886913    1.4734782   399753 
 3390000   0.89449895   -3.2890472   -1.8151458  0.041863541   -3.2890472    1.4739014   399693 
 3391000   0.89554478   -3.2923558   -1.8166093  0.039302935   -3.2923558    1.4757465   399660 
 3392000   0.89560049   -3.2919477   -1.8158139  0.046479293   -3.2919477    1.4761338   399580 
 3393000   0.89452324   -3.2919146   -1.8175674  0.045021828   -3.2919146    1.4743472   399583 
 3394000   0.89517662   -3.2921028   -1.8165864  0.041514359   -3.2921028    1.4755164   399558 
 3395000   0.89581442   -3.2947181   -1.8178696   0.03743422   -3.2947181    1.4768486   399482 
 3396000   0.89506139   -3.2939047   -1.8179873  0.042833272   -3.2939047    1.4759175   399398 
 3397000   0.89265974   -3.2910465   -1.8190708  0.040842015   -3.2910465    1.4719757   399393 
 3398000   0.89385063   -3.2930707   -1.8188545  0.044618778   -3.2930707    1.4742163   399318 
 3399000   0.89398565   -3.2948986   -1.8202344   0.03808903   -3.2948986    1.4746642   399257 
 3400000   0.89188843    -3.292023   -1.8206966  0.039291702    -3.292023    1.4713264   399224 
 3401000   0.89392736   -3.2944459   -1.8195047  0.041725143   -3.2944459    1.4749412   399156 
 3402000   0.89600069   -3.2981784   -1.8195014  0.043316628   -3.2981784     1.478677   399071 
 3403000   0.89489826   -3.2960281   -1.8189891  0.046714861   -3.2960281     1.477039   399022 
 3404000   0.89521363   -3.2977927   -1.8200776  0.041599401   -3.2977927     1.477715   398980 
 3405000    0.8949991   -3.2969884   -1.8193979  0.039162007   -3.2969884    1.4775905   398918 
 3406000   0.89470585   -3.2966197   -1.8192652  0.043071791   -3.2966197    1.4773545   398851 
 3407000    0.8925206   -3.2948151   -1.8209433  0.041713996   -3.2948151    1.4738718   398817 
 3408000   0.89457089   -3.2981686    -1.820548  0.042413703   -3.2981686    1.4776207   398719 
 3409000   0.89286752   -3.2954943   -1.8204542  0.044522466   -3.2954943    1.4750402   398656 
 3410000   0.89272463   -3.2968589   -1.8217032  0.043860556   -3.2968589    1.4751557   398561 
 3411000   0.89153393   -3.2955826     -1.82218  0.039388909   -3.2955826    1.4734025   398503 
 3412000   0.89069284   -3.2958216   -1.8235394   0.04030351   -3.2958216    1.4722822   398430 
 3413000   0.89017103   -3.2961492   -1.8245485   0.04636458   -3.2961492    1.4716006   398381 
 3414000   0.89169747   -3.2998204   -1.8255815  0.040515936   -3.2998204    1.4742388   398350 
 3415000   0.89073655   -3.2968569   -1.8240478  0.046303868   -3.2968569    1.4728091   398307 
 3416000   0.88966182    -3.296292   -1.8251269   0.04164819    -3.296292    1.4711651   398271 
 3417000   0.88988877   -3.2973922   -1.8256412  0.042864317   -3.2973922     1.471751   398214 
 3418000   0.89074077   -3.2978918   -1.8245134  0.038770939   -3.2978918    1.4733784   398155 
 3419000   0.88988895   -3.2972661   -1.8249195   0.04041454   -3.2972661    1.4723466   398053 
 3420000   0.88890971   -3.2965468   -1.8254804  0.037412783   -3.2965468    1.4710664   397961 
 3421000   0.88982055   -3.2976722   -1.8248875  0.041533573   -3.2976722    1.4727847   397904 
 3422000   0.89125292    -3.298672   -1.8235388  0.043342518    -3.298672    1.4751332   397910 
 3423000   0.89059334   -3.2985024   -1.8242756  0.044934779   -3.2985024    1.4742268   397860 
 3424000   0.88955528   -3.2986622    -1.825965  0.047565087   -3.2986622    1.4726972   397809 
 3425000   0.88937722    -3.299776   -1.8270144   0.03909417    -3.299776    1.4727616   397712 
 3426000   0.88864898   -3.2977685   -1.8260501  0.041732875   -3.2977685    1.4717184   397668 
 3427000   0.88794528   -3.2972055   -1.8263862  0.036845137   -3.2972055    1.4708193   397596 
 3428000   0.88731727   -3.2968151   -1.8268401  0.045577786   -3.2968151     1.469975   397543 
 3429000   0.88831138     -3.30039   -1.8286385  0.041051982     -3.30039    1.4717515   397508 
 3430000   0.88722107   -3.2990774   -1.8288809  0.039378381   -3.2990774    1.4701966   397440 
 3431000   0.88532728    -3.296472   -1.8292179  0.040382259    -3.296472    1.4672541   397387 
 3432000   0.88661198   -3.2972995   -1.8277203  0.042771777   -3.2972995    1.4695792   397334 
 3433000   0.88772533   -3.2994814   -1.8277419  0.042852349   -3.2994814    1.4717394   397249 
 3434000   0.88845018   -3.3006657   -1.8274798  0.037268143   -3.3006657    1.4731859   397183 
 3435000   0.88803318   -3.3010237   -1.8282696  0.040092107   -3.3010237     1.472754   397113 
 3436000   0.88687766   -3.3005091   -1.8293269  0.040147534   -3.3005091    1.4711822   397020 
 3437000    0.8871215   -3.3007904   -1.8290665  0.037745798   -3.3007904    1.4717239   396983 
 3438000   0.88569479   -3.2963951   -1.8267864  0.045810728   -3.2963951    1.4696087   396915 
 3439000   0.88680599    -3.298558   -1.8268719  0.039233186    -3.298558    1.4716861   396852 
 3440000   0.88644991   -3.2995377   -1.8281534  0.041530567   -3.2995377    1.4713843   396774 
 3441000    0.8875905   -3.3015985   -1.8280944  0.039966369   -3.3015985    1.4735041   396713 
 3442000   0.88757112   -3.3021794   -1.8285441  0.036523487   -3.3021794    1.4736354   396669 
 3443000   0.88566572   -3.3008269    -1.830292  0.040000367   -3.3008269    1.4705348   396652 
 3444000   0.88452107   -3.3014713   -1.8324444    0.0426079   -3.3014713    1.4690269   396546 
 3445000   0.88514283   -3.3022934   -1.8319224  0.039414035   -3.3022934     1.470371   396462 
 3446000   0.88428466   -3.3010646   -1.8317968   0.04129879   -3.3010646    1.4692678   396375 
 3447000   0.88450736   -3.3014681   -1.8315558  0.047056805   -3.3014681    1.4699123   396301 
 3448000   0.88439629   -3.3034257   -1.8334866  0.034906902   -3.3034257    1.4699391   396244 
 3449000   0.88344014   -3.3026252   -1.8339714   0.04561569   -3.3026252    1.4686538   396162 
 3450000   0.88505272   -3.3050653   -1.8336452  0.034431863   -3.3050653    1.4714201   396139 
 3451000   0.88399174   -3.3042606   -1.8342965  0.037618309   -3.3042606    1.4699641   396056 
 3452000   0.88395439   -3.3037609   -1.8337252  0.040156398   -3.3037609    1.4700357   396020 
 3453000   0.88239279   -3.3032781   -1.8356134   0.03777005   -3.3032781    1.4676647   395959 
 3454000   0.88344042   -3.3057648   -1.8362537  0.035302116   -3.3057648    1.4695112   395931 
 3455000   0.88252924    -3.304489   -1.8361672  0.035658495    -3.304489    1.4683219   395843 
 3456000    0.8836589   -3.3050685   -1.8347371  0.037816569   -3.3050685    1.4703314   395808 
 3457000   0.88494144   -3.3074583   -1.8348144  0.044352816   -3.3074583     1.472644   395760 
 3458000   0.88386808   -3.3065032   -1.8354261  0.045311912   -3.3065032    1.4710771   395701 
 3459000   0.88459242   -3.3094155    -1.837025  0.042324155   -3.3094155    1.4723906   395672 
 3460000   0.88363043   -3.3077737   -1.8369137  0.040469847   -3.3077737      1.47086   395653 
 3461000   0.88307261   -3.3073619   -1.8371852  0.041110185   -3.3073619    1.4701767   395587 
 3462000   0.88505524   -3.3110671   -1.8374369  0.041283644   -3.3110671    1.4736302   395546 
 3463000   0.88402913   -3.3094809   -1.8373768  0.044139552   -3.3094809    1.4721041   395497 
 3464000   0.88070436   -3.3065419      -1.8398  0.038854185   -3.3065419    1.4667419   395450 
 3465000   0.88173089   -3.3084181   -1.8397846  0.040383997   -3.3084181    1.4686335   395401 
 3466000   0.88099262   -3.3086938   -1.8408854  0.039204376   -3.3086938    1.4678084   395292 
 3467000   0.88057921   -3.3100232    -1.842562  0.038316848   -3.3100232    1.4674612   395200 
 3468000   0.87948015   -3.3087405    -1.843007  0.043639562   -3.3087405    1.4657335   395172 
 3469000   0.88012949   -3.3119281   -1.8449008  0.038871462   -3.3119281    1.4670273   395115 
 3470000   0.88015163   -3.3123308   -1.8449992  0.049290431   -3.3123308    1.4673316   395043 
 3471000   0.88072767   -3.3121778   -1.8437446  0.041141255   -3.3121778    1.4684331   395005 
 3472000   0.88097024   -3.3129031   -1.8439391  0.039141204   -3.3129031     1.468964   394971 
 3473000   0.88036194   -3.3121842   -1.8440449   0.04230773   -3.3121842    1.4681393   394920 
 3474000   0.87992153   -3.3129353   -1.8453633   0.03950232   -3.3129353    1.4675721   394875 
 3475000    0.8795263   -3.3138552   -1.8467603  0.035844657   -3.3138552    1.4670949   394826 
 3476000   0.87921498   -3.3139714   -1.8471431  0.039021806   -3.3139714    1.4668283   394758 
 3477000   0.88097614   -3.3176196   -1.8475366  0.039828542   -3.3176196     1.470083   394673 
 3478000   0.88108193   -3.3179334   -1.8475472  0.040089432   -3.3179334    1.4703862   394639 
 3479000   0.87905066   -3.3158165   -1.8485785  0.043216638   -3.3158165     1.467238   394574 
 3480000   0.87937129   -3.3178568   -1.8498381  0.039745567   -3.3178568    1.4680187   394508 
 3481000   0.87802554   -3.3153771   -1.8494934  0.045422624   -3.3153771    1.4658836   394478 
 3482000    0.8796025    -3.319451   -1.8507447  0.039409961    -3.319451    1.4687063   394427 
 3483000       0.8795   -3.3206344   -1.8518349  0.039667688   -3.3206344    1.4687995   394356 
 3484000   0.87712594   -3.3172779   -1.8523206  0.047211473   -3.3172779    1.4649573   394323 
 3485000   0.87759838   -3.3183033   -1.8522967   0.04450918   -3.3183033    1.4660066   394253 
 3486000   0.87776204   -3.3213004   -1.8545963   0.03894116   -3.3213004    1.4667041   394139 
 3487000   0.87706713   -3.3202271   -1.8544313  0.041112228   -3.3202271    1.4657959   394071 
 3488000   0.87709395   -3.3216477   -1.8555466  0.042285518   -3.3216477    1.4661011   394001 
 3489000   0.87664095   -3.3225857   -1.8570521  0.041435908   -3.3225857    1.4655336   393950 
 3490000   0.87685583   -3.3234298   -1.8573062  0.040892517   -3.3234298    1.4661236   393888 
 3491000   0.87666713   -3.3244016   -1.8583069  0.038309789   -3.3244016    1.4660947   393811 
 3492000   0.87771121   -3.3266347   -1.8586523  0.039909137   -3.3266347    1.4679824   393773 
 3493000   0.87619078   -3.3225133   -1.8568282  0.040440463   -3.3225133    1.4656851   393707 
 3494000   0.87630577   -3.3226677   -1.8564886  0.044972585   -3.3226677    1.4661791   393626 
 3495000   0.87679706    -3.323851   -1.8566002  0.038259578    -3.323851    1.4672508   393559 
 3496000   0.87493098   -3.3220013   -1.8577132  0.041935168   -3.3220013    1.4642881   393516 
 3497000   0.87588731   -3.3247405   -1.8586693  0.040419987   -3.3247405    1.4660712   393467 
 3498000   0.87612007   -3.3248326   -1.8582488  0.039342908   -3.3248326    1.4665838   393434 
 3499000   0.87647327   -3.3258571   -1.8583874  0.037682421   -3.3258571    1.4674697   393355 
 3500000   0.87579484   -3.3242297   -1.8576275  0.042042695   -3.3242297    1.4666022   393283 
 3501000   0.87597086   -3.3247458   -1.8576623  0.043796295   -3.3247458    1.4670835   393233 
 3502000   0.87605051    -3.326141   -1.8588121  0.041837008    -3.326141    1.4673288   393203 
 3503000    0.8761409   -3.3267543   -1.8591098  0.039433764   -3.3267543    1.4676445   393159 
 3504000    0.8747658   -3.3238886   -1.8584321  0.040424448   -3.3238886    1.4654566   393128 
 3505000   0.87608053    -3.324333   -1.8565731  0.040477808    -3.324333    1.4677599   393101 
 3506000   0.87312858   -3.3201476   -1.8571659  0.045600655   -3.3201476    1.4629817   393056 
 3507000   0.87447153   -3.3229079    -1.857415  0.038267908   -3.3229079    1.4654929   392986 
 3508000   0.87425483   -3.3231487   -1.8578549  0.040765738   -3.3231487    1.4652938   392942 
 3509000   0.87499173    -3.324056   -1.8573442  0.042640976    -3.324056    1.4667118   392893 
 3510000   0.87527338   -3.3261095   -1.8587762  0.042942595   -3.3261095    1.4673333   392853 
 3511000    0.8738487   -3.3247639    -1.859543  0.043490774   -3.3247639    1.4652209   392779 
 3512000   0.87404102   -3.3249154   -1.8592153  0.041429347   -3.3249154    1.4657001   392737 
 3513000   0.87303341   -3.3234328     -1.85918  0.036413338   -3.3234328    1.4642528   392672 
 3514000     0.873726   -3.3251756   -1.8596343  0.036887126   -3.3251756    1.4655413   392638 
 3515000   0.87153148   -3.3236739   -1.8615231  0.036609221   -3.3236739    1.4621508   392560 
 3516000   0.87199856   -3.3244157   -1.8611906  0.036328592   -3.3244157    1.4632252   392482 
 3517000   0.87284434   -3.3251211   -1.8602715  0.035999653   -3.3251211    1.4648496   392427 
 3518000   0.87135984   -3.3229555   -1.8603811  0.039608787   -3.3229555    1.4625745   392369 
 3519000   0.87112966    -3.323196   -1.8607022  0.038256126    -3.323196    1.4624937   392287 
 3520000    0.8710214   -3.3249401   -1.8624082  0.031950643   -3.3249401     1.462532   392228 
 3521000   0.87129441   -3.3266209    -1.863541   0.03703293   -3.3266209    1.4630799   392204 
 3522000   0.87087848   -3.3280559   -1.8654805   0.03818988   -3.3280559    1.4625754   392152 
 3523000   0.87090078   -3.3267204   -1.8638614  0.040750388   -3.3267204     1.462859   392086 
 3524000   0.87185822   -3.3287193   -1.8642259  0.035229866   -3.3287193    1.4644934   392079 
 3525000   0.87024374   -3.3267364   -1.8646528  0.038745527   -3.3267364    1.4620835   391998 
 3526000   0.87184137   -3.3318551   -1.8669528  0.040998472   -3.3318551    1.4649022   391962 
 3527000   0.87169719   -3.3307295    -1.865778  0.044343581   -3.3307295    1.4649515   391884 
 3528000   0.87197065   -3.3320707   -1.8664988  0.034378083   -3.3320707    1.4655719   391841 
 3529000   0.87070256   -3.3314852   -1.8679027   0.04337585   -3.3314852    1.4635825   391803 
 3530000   0.87125015   -3.3320982   -1.8673037  0.040151088   -3.3320982    1.4647945   391725 
 3531000   0.87044216    -3.331927   -1.8682443  0.039938912    -3.331927    1.4636827   391659 
 3532000     0.870567    -3.332748   -1.8685227  0.038781023    -3.332748    1.4642253   391570 
 3533000   0.87089153   -3.3346946   -1.8697401  0.042687197   -3.3346946    1.4649545   391521 
 3534000   0.87140287   -3.3358764   -1.8697322  0.037640096   -3.3358764    1.4661442   391433 
 3535000   0.86940095   -3.3373757   -1.8743008  0.039955198   -3.3373757     1.463075   391353 
 3536000   0.86833307   -3.3362538   -1.8746697  0.041169642   -3.3362538    1.4615841   391271 
 3537000   0.86956915   -3.3376326   -1.8738968  0.044311782   -3.3376326    1.4637358   391252 
 3538000   0.86821739   -3.3348321   -1.8733867   0.03881625   -3.3348321    1.4614454   391256 
 3539000   0.86972802   -3.3374951   -1.8732786  0.039484759   -3.3374951    1.4642165   391195 
 3540000   0.86872574    -3.336526   -1.8738398   0.04172151    -3.336526    1.4626862   391153 
 3541000   0.86837535   -3.3358775   -1.8736766  0.042882598   -3.3358775    1.4622009   391125 
 3542000   0.86924777   -3.3383019   -1.8743401  0.039757051   -3.3383019    1.4639618   391047 
 3543000   0.86975118   -3.3407948   -1.8757678  0.039624041   -3.3407948     1.465027   390989 
 3544000   0.86990935   -3.3399648   -1.8745627  0.044220481   -3.3399648    1.4654021   390960 
 3545000    0.8692117   -3.3405739   -1.8760137  0.038499719   -3.3405739    1.4645603   390871 
 3546000   0.86840896   -3.3402172   -1.8769084  0.038398844   -3.3402172    1.4633088   390844 
 3547000   0.86863289   -3.3417404   -1.8778183  0.039598666   -3.3417404    1.4639221   390781 
 3548000   0.86800616   -3.3405078   -1.8775334  0.039509688   -3.3405078    1.4629744   390752 
 3549000   0.86866213   -3.3418545   -1.8776059  0.040002129   -3.3418545    1.4642486   390707 
 3550000   0.86796251   -3.3412711   -1.8781419   0.04060275   -3.3412711    1.4631292   390691 
 3551000    0.8671498   -3.3401551   -1.8782761  0.039166817   -3.3401551     1.461879   390659 
 3552000   0.86892615   -3.3438505   -1.8789581  0.038347211   -3.3438505    1.4648924   390654 
 3553000   0.86865283   -3.3449547   -1.8804406  0.041172477   -3.3449547    1.4645141   390632 
 3554000   0.86840042   -3.3422461   -1.8780939  0.038242991   -3.3422461    1.4641522   390615 
 3555000   0.86960342   -3.3452247   -1.8786912  0.039363505   -3.3452247    1.4665335   390521 
 3556000   0.86820485   -3.3439053   -1.8794754  0.033949119   -3.3439053    1.4644299   390453 
 3557000   0.86747206   -3.3434471   -1.8798372  0.046070763   -3.3434471    1.4636099   390342 
 3558000   0.86812654   -3.3443641   -1.8796612  0.042418667   -3.3443641    1.4647029   390345 
 3559000   0.86822618   -3.3466169   -1.8814831  0.037488489   -3.3466169    1.4651338   390275 
 3560000   0.86771344   -3.3450053   -1.8805604   0.04163739   -3.3450053    1.4644449   390228 
 3561000   0.86628511   -3.3432811   -1.8809133  0.041151315   -3.3432811    1.4623678   390139 
 3562000   0.86906892   -3.3478085   -1.8804217  0.037853957   -3.3478085    1.4673868   390054 
 3563000   0.86776111    -3.348339   -1.8829838  0.042406772    -3.348339    1.4653552   390007 
 3564000   0.86609662    -3.345677   -1.8830238  0.034762779    -3.345677    1.4626532   389978 
 3565000   0.86666081   -3.3466939   -1.8828889  0.042723559   -3.3466939     1.463805   389925 
 3566000   0.86504208   -3.3456847   -1.8844714  0.038566696   -3.3456847    1.4612133   389887 
 3567000    0.8654616   -3.3456635   -1.8837266  0.041545717   -3.3456635    1.4619369   389883 
 3568000   0.86485673   -3.3459614   -1.8849075  0.042514206   -3.3459614    1.4610538   389846 
 3569000   0.86401841   -3.3458998   -1.8859589  0.035009061   -3.3458998    1.4599409   389765 
 3570000   0.86433822   -3.3454681   -1.8846982  0.042025508   -3.3454681    1.4607699   389688 
 3571000   0.86508947   -3.3478208   -1.8856011  0.040203808   -3.3478208    1.4622197   389640 
 3572000   0.86344852   -3.3459082   -1.8862261  0.035696424   -3.3459082    1.4596821   389577 
 3573000   0.86438085   -3.3471074   -1.8855828  0.041148882   -3.3471074    1.4615246   389506 
 3574000    0.8654024   -3.3488159   -1.8855753  0.034852912   -3.3488159    1.4632406   389509 
 3575000    0.8655417   -3.3491694   -1.8854716  0.034995822   -3.3491694    1.4636978   389450 
 3576000   0.86587183   -3.3495066   -1.8850738  0.036504305   -3.3495066    1.4644328   389403 
 3577000   0.86638754   -3.3496854   -1.8843691  0.044134279   -3.3496854    1.4653163   389400 
 3578000   0.86602429   -3.3493055   -1.8843854   0.03539349   -3.3493055    1.4649201   389342 
 3579000   0.86496192   -3.3503973   -1.8868682  0.035554165   -3.3503973    1.4635291   389234 
 3580000   0.86435068    -3.349364   -1.8867752  0.041042803    -3.349364    1.4625888   389209 
 3581000   0.86525767   -3.3512634   -1.8870496  0.038920422   -3.3512634    1.4642138   389185 
 3582000   0.86391602   -3.3482265   -1.8861403  0.040431329   -3.3482265    1.4620862   389147 
 3583000   0.86437545   -3.3490274   -1.8859456   0.03724893   -3.3490274    1.4630818   389089 
 3584000   0.86430955   -3.3496651   -1.8865632  0.035503702   -3.3496651    1.4631019   389054 
 3585000   0.86214798   -3.3465145   -1.8868466  0.037719375   -3.3465145    1.4596679   388994 
 3586000   0.86250938   -3.3457786   -1.8852398  0.035690021   -3.3457786    1.4605388   388925 
 3587000   0.86328469   -3.3480932   -1.8861325  0.038123988   -3.3480932    1.4619607   388896 
 3588000   0.86125088   -3.3458115   -1.8871413   0.04053403   -3.3458115    1.4586702   388855 
 3589000   0.86279834   -3.3488359    -1.887402  0.036361843   -3.3488359    1.4614339   388817 
 3590000   0.86346409   -3.3500593     -1.88743  0.034490168   -3.3500593    1.4626293   388799 
 3591000   0.86261118   -3.3498578    -1.888444  0.039058524   -3.3498578    1.4614138   388738 
 3592000   0.86247681   -3.3471544   -1.8858931  0.040906875   -3.3471544    1.4612614   388718 
 3593000   0.86237408   -3.3473206   -1.8859964     0.039008   -3.3473206    1.4613242   388655 
 3594000   0.86109871   -3.3478271   -1.8882886   0.03575556   -3.3478271    1.4595385   388555 
 3595000   0.86173333   -3.3479969    -1.887394   0.03494895   -3.3479969    1.4606029   388558 
 3596000   0.86222024   -3.3497192   -1.8881706  0.039650923   -3.3497192    1.4615486   388526 
 3597000   0.86174579   -3.3490962   -1.8881601  0.039629773   -3.3490962    1.4609361   388475 
 3598000   0.86278423   -3.3508705   -1.8881965   0.04068228   -3.3508705     1.462674   388481 
 3599000   0.86196525   -3.3494096   -1.8881202  0.038003909   -3.3494096    1.4612894   388480 
 3600000   0.86189344   -3.3480803   -1.8867434  0.038038342   -3.3480803    1.4613369   388435 
 3601000   0.86189814   -3.3494648   -1.8880447  0.041315675   -3.3494648    1.4614201   388415 
 3602000   0.86241879   -3.3506301     -1.88841  0.041946969   -3.3506301    1.4622201   388437 
 3603000   0.86237018   -3.3504038   -1.8880478  0.041912753   -3.3504038     1.462356   388379 
 3604000   0.86095212   -3.3485063   -1.8884421  0.041552584   -3.3485063    1.4600642   388349 
 3605000   0.86042337   -3.3477093    -1.888166  0.042268659   -3.3477093    1.4595433   388249 
 3606000   0.86116023   -3.3495104   -1.8886344  0.038117782   -3.3495104     1.460876   388227 
 3607000   0.85975045   -3.3492884   -1.8905184  0.036312212   -3.3492884      1.45877   388151 
 3608000   0.85918767   -3.3493925    -1.891521  0.040726994   -3.3493925    1.4578715   388136 
 3609000   0.86036502   -3.3511957   -1.8912098  0.039279393   -3.3511957    1.4599858   388105 
 3610000   0.85997143   -3.3507998   -1.8913841  0.042391231   -3.3507998    1.4594157   388079 
 3611000   0.86025003   -3.3511655   -1.8912394  0.037878381   -3.3511655    1.4599261   388069 
 3612000   0.86001145   -3.3500128   -1.8903186  0.040439922   -3.3500128    1.4596942   388023 
 3613000   0.85899171   -3.3494096   -1.8911605  0.036281533   -3.3494096    1.4582491   387947 
 3614000   0.85821156   -3.3490049   -1.8918849  0.038857682   -3.3490049      1.45712   387895 
 3615000   0.85976412   -3.3509886   -1.8913304  0.041298985   -3.3509886    1.4596582   387921 
 3616000   0.86002479   -3.3523527   -1.8921202  0.041395948   -3.3523527    1.4602325   387886 
 3617000   0.86057889   -3.3530572   -1.8917709  0.039988751   -3.3530572    1.4612863   387856 
 3618000   0.85921568   -3.3525851   -1.8933841  0.043181902   -3.3525851     1.459201   387795 
 3619000    0.8591296   -3.3520371   -1.8927941  0.037816223   -3.3520371     1.459243   387745 
 3620000   0.85796732   -3.3521776    -1.894578  0.033888668   -3.3521776    1.4575996   387657 
 3621000   0.85857069   -3.3530945   -1.8941461  0.038849031   -3.3530945    1.4589484   387571 
 3622000   0.85859732   -3.3530722   -1.8939393  0.035709304   -3.3530722    1.4591329   387534 
 3623000   0.86102529   -3.3563772   -1.8929519  0.040988637   -3.3563772    1.4634252   387490 
 3624000   0.85846963   -3.3547318   -1.8955146  0.041980524   -3.3547318    1.4592171   387454 
 3625000    0.8589596   -3.3553741   -1.8954258  0.044457287   -3.3553741    1.4599482   387481 
 3626000   0.85796404   -3.3539576   -1.8955999  0.038799585   -3.3539576    1.4583577   387454 
 3627000   0.85921637   -3.3557264   -1.8949346  0.042482568   -3.3557264    1.4607918   387373 
 3628000   0.85927313   -3.3555024   -1.8943652  0.039054863   -3.3555024    1.4611373   387307 
 3629000    0.8599824   -3.3560219   -1.8935653    0.0393096   -3.3560219    1.4624566   387277 
 3630000   0.85801307    -3.355218   -1.8959709  0.035876458    -3.355218    1.4592471   387240 
 3631000   0.85828871   -3.3546112   -1.8948313   0.03516194   -3.3546112    1.4597799   387223 
 3632000   0.85813235   -3.3539838    -1.894451  0.039045966   -3.3539838    1.4595328   387218 
 3633000   0.85794072   -3.3540051    -1.894704  0.036349809   -3.3540051    1.4593011   387193 
 3634000   0.85891737   -3.3558276   -1.8946464  0.040000558   -3.3558276    1.4611812   387135 
 3635000   0.85769428   -3.3533685   -1.8941625  0.043247942   -3.3533685    1.4592061   387107 
 3636000   0.85899705   -3.3567749   -1.8952505  0.038051546   -3.3567749    1.4615244   387080 
 3637000   0.85737713   -3.3554764   -1.8964857  0.036870526   -3.3554764    1.4589906   387021 
 3638000   0.85756874   -3.3551433   -1.8956268  0.044278062   -3.3551433    1.4595165   386968 
 3639000   0.85680404   -3.3540869   -1.8956607  0.038979541   -3.3540869    1.4584261   386912 
 3640000   0.85706623   -3.3552189   -1.8961693  0.038013939   -3.3552189    1.4590497   386865 
 3641000   0.85533398   -3.3534171   -1.8970943  0.040641055   -3.3534171    1.4563228   386806 
 3642000   0.85646884   -3.3554229   -1.8968662  0.038137911   -3.3554229    1.4585567   386726 
 3643000   0.85691515   -3.3567336   -1.8972205  0.040279456   -3.3567336    1.4595131   386674 
 3644000   0.85473495   -3.3535379   -1.8975575  0.039045738   -3.3535379    1.4559804   386626 
 3645000   0.85527024    -3.354179   -1.8970418  0.038250492    -3.354179    1.4571372   386561 
 3646000   0.85492898   -3.3547296    -1.897861  0.036320206   -3.3547296    1.4568686   386478 
 3647000   0.85489996   -3.3557595   -1.8987141  0.036896959   -3.3557595    1.4570454   386418 
 3648000   0.85374802     -3.35492   -1.8996157  0.045868948     -3.35492    1.4553043   386359 
 3649000   0.85337701   -3.3552179   -1.9003841  0.036801554   -3.3552179    1.4548338   386316 
 3650000   0.85523357   -3.3594902   -1.9012007  0.034785553   -3.3594902    1.4582895   386239 
 3651000   0.85412389   -3.3563595    -1.899834  0.038631241   -3.3563595    1.4565256   386205 
 3652000   0.85509733   -3.3583985   -1.8999788  0.036352771   -3.3583985    1.4584197   386143 
 3653000   0.85421075   -3.3591752   -1.9020223  0.042903691   -3.3591752    1.4571529   386078 
 3654000   0.85321613    -3.356689   -1.9010632  0.036517206    -3.356689    1.4556258   386033 
 3655000   0.85397798   -3.3559405   -1.8990678  0.043879495   -3.3559405    1.4568728   386047 
 3656000   0.85422417    -3.355443   -1.8979124  0.041510097    -3.355443    1.4575306   385984 
 3657000   0.85610976   -3.3588091   -1.8978567  0.038710025   -3.3588091    1.4609523   385930 
 3658000   0.85501014   -3.3568425   -1.8976457  0.040290961   -3.3568425    1.4591968   385898 
 3659000   0.85430083   -3.3566912   -1.8985538  0.036774942   -3.3566912    1.4581374   385858 
 3660000   0.85518677   -3.3595649   -1.8997905  0.033971124   -3.3595649    1.4597744   385825 
 3661000   0.85538681    -3.357668   -1.8974575  0.042924735    -3.357668    1.4602105   385800 
 3662000   0.85515346   -3.3586042   -1.8986028  0.039398746   -3.3586042    1.4600013   385750 
 3663000   0.85306191    -3.355425   -1.8988133  0.040784225    -3.355425    1.4566117   385702 
 3664000   0.85161264   -3.3542829   -1.9000138  0.043503644   -3.3542829     1.454269   385667 
 3665000   0.85210619   -3.3556718   -1.9004732  0.037146732   -3.3556718    1.4551986   385644 
 3666000   0.85226399   -3.3548346   -1.8993741  0.036913474   -3.3548346    1.4554605   385646 
 3667000   0.85370075    -3.357569   -1.8994317  0.039408602    -3.357569    1.4581373   385587 
 3668000   0.85322591   -3.3572641   -1.8999001  0.039924495   -3.3572641     1.457364   385577 
 3669000   0.85536353   -3.3608872   -1.8998682  0.041967608   -3.3608872     1.461019   385576 
 3670000   0.85233611     -3.35591   -1.8998846  0.035923315     -3.35591    1.4560255   385529 
 3671000   0.85109292   -3.3541106   -1.9001409  0.042601418   -3.3541106    1.4539696   385511 
 3672000   0.85432458   -3.3564629   -1.8969876   0.03476353   -3.3564629    1.4594753   385515 
 3673000   0.85122075   -3.3539618   -1.8997775  0.039636503   -3.3539618    1.4541842   385512 
 3674000   0.85273309   -3.3559866   -1.8989807  0.038192229   -3.3559866    1.4570059   385449 
 3675000   0.85088114   -3.3559904   -1.9018016  0.039085018   -3.3559904    1.4541887   385357 
 3676000   0.85228989   -3.3564269    -1.899702  0.037337202   -3.3564269    1.4567249   385323 
 3677000   0.85295198   -3.3580956   -1.9002959  0.036460262   -3.3580956    1.4577998   385338 
 3678000   0.85134968   -3.3575297   -1.9021663  0.039089725   -3.3575297    1.4553634   385258 
 3679000   0.85346443   -3.3602258   -1.9011981  0.035997904   -3.3602258    1.4590277   385245 
 3680000   0.85299395   -3.3593971   -1.9010071   0.03940825   -3.3593971      1.45839   385201 
 3681000    0.8521094   -3.3586028   -1.9014755  0.036713225   -3.3586028    1.4571273   385135 
 3682000   0.85243217   -3.3597293   -1.9020387  0.045381265   -3.3597293    1.4576906   385132 
 3683000    0.8512609   -3.3586364   -1.9028278  0.035821557   -3.3586364    1.4558087   385100 
 3684000   0.85099183   -3.3577146    -1.902283  0.040109305   -3.3577146    1.4554316   385078 
 3685000   0.85159195   -3.3597371   -1.9031354   0.03953069   -3.3597371    1.4566018   385040 
 3686000   0.85184423   -3.3610354   -1.9038999  0.036852479   -3.3610354    1.4571355   385013 
 3687000    0.8501806   -3.3608791   -1.9064043  0.040521279   -3.3608791    1.4544748   384964 
 3688000   0.85011015   -3.3619413   -1.9075039  0.034427495   -3.3619413    1.4544374   384942 
 3689000   0.85225346   -3.3656075   -1.9072834  0.037288175   -3.3656075    1.4583241   384884 
 3690000   0.85025823    -3.361364    -1.906299  0.035899436    -3.361364     1.455065   384843 
 3691000   0.85127614    -3.361959   -1.9050914  0.038295908    -3.361959    1.4568675   384827 
 3692000   0.85046491   -3.3613998   -1.9056142  0.043358029   -3.3613998    1.4557856   384746 
 3693000   0.85082638   -3.3627921   -1.9061795  0.039697462   -3.3627921    1.4566126   384691 
 3694000   0.85043021   -3.3622799   -1.9061639  0.040700352   -3.3622799     1.456116   384643 
 3695000   0.84970502    -3.363763   -1.9089568  0.038196691    -3.363763    1.4548063   384661 
 3696000   0.85063429   -3.3646709   -1.9080654   0.03882984   -3.3646709    1.4566056   384606 
 3697000   0.84980854   -3.3623895   -1.9069671  0.036470792   -3.3623895    1.4554224   384545 
 3698000   0.84905286   -3.3609864   -1.9066729  0.038162111   -3.3609864    1.4543135   384496 
 3699000   0.85003042   -3.3642577   -1.9081864   0.04135425   -3.3642577    1.4560712   384474 
 3700000   0.85039561   -3.3649795   -1.9082183   0.04175905   -3.3649795    1.4567612   384457 
 3701000   0.84978653   -3.3643946   -1.9085026  0.035854447   -3.3643946     1.455892   384411 
 3702000   0.84948124   -3.3638858    -1.908354  0.041292117   -3.3638858    1.4555318   384368 
 3703000   0.85026359   -3.3664185   -1.9093036  0.040051178   -3.3664185    1.4571149   384304 
 3704000   0.84977974   -3.3651524   -1.9087567  0.037169968   -3.3651524    1.4563957   384275 
 3705000    0.8479813   -3.3642813   -1.9107599  0.036608624   -3.3642813    1.4535214   384220 
 3706000   0.84910486   -3.3666095   -1.9109992   0.03790241   -3.3666095    1.4556102   384177 
 3707000   0.84979797   -3.3670483   -1.9100982  0.039712326   -3.3670483    1.4569501   384137 
 3708000   0.85028324   -3.3682215    -1.910356  0.036914262   -3.3682215    1.4578656   384115 
 3709000   0.84874297   -3.3667532   -1.9113201  0.036360714   -3.3667532    1.4554331   384060 
 3710000   0.84863332   -3.3682103   -1.9126431  0.034408673   -3.3682103    1.4555672   383975 
 3711000   0.84828437   -3.3664228   -1.9112911  0.041008814   -3.3664228    1.4551317   383932 
 3712000   0.84852391   -3.3675714   -1.9118355  0.038671922   -3.3675714    1.4557359   383881 
 3713000    0.8472504    -3.365167   -1.9115326  0.046782422    -3.365167    1.4536344   383859 
 3714000   0.84874301    -3.368624   -1.9122011  0.036052025    -3.368624    1.4564229   383799 
 3715000   0.84795181   -3.3680665   -1.9128572  0.039645413   -3.3680665    1.4552093   383761 
 3716000   0.84922294   -3.3686011   -1.9111989  0.033940164   -3.3686011    1.4574022   383758 
 3717000   0.84835046   -3.3684271   -1.9124047  0.034959808   -3.3684271    1.4560225   383727 
 3718000   0.84602386   -3.3658663   -1.9136705  0.037811874   -3.3658663    1.4521958   383683 
 3719000   0.84681761   -3.3675671   -1.9138345  0.042034633   -3.3675671    1.4537326   383637 
 3720000   0.84860671   -3.3691593   -1.9122072  0.042874872   -3.3691593    1.4569521   383598 
 3721000   0.84767698   -3.3676793   -1.9121831  0.035995898   -3.3676793    1.4554962   383561 
 3722000   0.84599416   -3.3672183   -1.9143351  0.037803662   -3.3672183    1.4528833   383488 
 3723000   0.84644122   -3.3694772   -1.9154622  0.039529953   -3.3694772     1.454015   383392 
 3724000   0.84622456   -3.3687607    -1.915061  0.037200376   -3.3687607    1.4536997   383377 
 3725000   0.84685208    -3.368224    -1.913359  0.037500063    -3.368224     1.454865   383354 
 3726000   0.84574787   -3.3670807   -1.9138587  0.042602583   -3.3670807     1.453222   383287 
 3727000   0.84605521   -3.3671872   -1.9132778  0.041590046   -3.3671872    1.4539094   383245 
 3728000   0.84592283   -3.3670356    -1.913293  0.039350012   -3.3670356    1.4537426   383229 
 3729000   0.84552549   -3.3670367   -1.9138367  0.043766126   -3.3670367    1.4532001   383192 
 3730000   0.84635896   -3.3699403   -1.9152015  0.036090718   -3.3699403    1.4547388   383164 
 3731000   0.84619968   -3.3696972   -1.9151335  0.039337361   -3.3696972    1.4545638   383138 
 3732000   0.84676591   -3.3699168   -1.9142354  0.038977584   -3.3699168    1.4556814   383100 
 3733000   0.84519193   -3.3668971   -1.9137204  0.036809247   -3.3668971    1.4531766   383047 
 3734000   0.84732956   -3.3697495    -1.912559  0.035505439   -3.3697495    1.4571905   382958 
 3735000   0.84444331   -3.3662567   -1.9140221  0.035441003   -3.3662567    1.4522345   382956 
 3736000   0.84473994   -3.3688466   -1.9160299  0.039789005   -3.3688466    1.4528167   382937 
 3737000   0.84611632   -3.3711588   -1.9156709  0.040026909   -3.3711588    1.4554879   382857 
 3738000   0.84469337   -3.3708424   -1.9175252  0.033233844   -3.3708424    1.4533173   382784 
 3739000   0.84743011   -3.3743323   -1.9160663  0.039184672   -3.3743323    1.4582659   382721 
 3740000   0.84461057   -3.3703449   -1.9167675  0.044482952   -3.3703449    1.4535774   382678 
 3741000   0.84456596   -3.3711956   -1.9173835  0.040833226   -3.3711956    1.4538121   382596 
 3742000   0.84590789   -3.3713243   -1.9152213   0.04366607   -3.3713243     1.456103   382601 
 3743000   0.84507205    -3.371943   -1.9172978  0.034393299    -3.371943    1.4546453   382606 
 3744000   0.84494106   -3.3710847   -1.9167828  0.038553795   -3.3710847    1.4543019   382637 
 3745000    0.8450538   -3.3708949   -1.9162354  0.039817325   -3.3708949    1.4546595   382594 
 3746000   0.84513331   -3.3717774   -1.9168936  0.040229201   -3.3717774    1.4548838   382571 
 3747000   0.84399173   -3.3701227    -1.917056  0.040434613   -3.3701227    1.4530667   382532 
 3748000   0.84528911   -3.3737623   -1.9183554  0.034874611   -3.3737623    1.4554069   382504 
 3749000   0.84349433    -3.371374   -1.9189207  0.038616155    -3.371374    1.4524534   382468 
 3750000   0.84386884   -3.3717965   -1.9185539  0.037849387   -3.3717965    1.4532426   382430 
 3751000   0.84304904   -3.3688058   -1.9166788   0.04388575   -3.3688058     1.452127   382352 
 3752000   0.84308444   -3.3702087   -1.9178688   0.03766484   -3.3702087    1.4523399   382312 
 3753000   0.84205398   -3.3694513   -1.9185487  0.035283507   -3.3694513    1.4509026   382223 
 3754000   0.84333077   -3.3729994    -1.919779  0.036645803   -3.3729994    1.4532204   382192 
 3755000   0.84299879   -3.3717936   -1.9189628  0.042908956   -3.3717936    1.4528308   382144 
 3756000   0.84374675    -3.371453   -1.9172228  0.039761278    -3.371453    1.4542302   382115 
 3757000   0.84354838   -3.3729735   -1.9189292  0.034883923   -3.3729735    1.4540443   382074 
 3758000   0.84220551   -3.3712422   -1.9193644  0.035114492   -3.3712422    1.4518778   382035 
 3759000    0.8424342   -3.3703883   -1.9179186  0.041139522   -3.3703883    1.4524697   381983 
 3760000   0.84348135   -3.3727905    -1.918264  0.038416419   -3.3727905    1.4545265   381917 
 3761000   0.84471625   -3.3756149   -1.9188254  0.033949206   -3.3756149    1.4567895   381882 
 3762000   0.84329529    -3.372873   -1.9184161  0.043819626    -3.372873     1.454457   381851 
 3763000   0.84263642   -3.3730365   -1.9194914  0.038057096   -3.3730365    1.4535452   381792 
 3764000   0.84307556   -3.3732236   -1.9188371  0.037203057   -3.3732236    1.4543865   381770 
 3765000   0.84207567   -3.3733262   -1.9204401  0.034319906   -3.3733262    1.4528861   381711 
 3766000   0.84269668   -3.3735579   -1.9195698  0.035582484   -3.3735579    1.4539881   381703 
 3767000   0.84250878   -3.3727596   -1.9190044  0.037611826   -3.3727596    1.4537553   381679 
 3768000   0.84214356   -3.3737658   -1.9204884  0.040378357   -3.3737658    1.4532774   381639 
 3769000   0.84203668   -3.3733361    -1.920106  0.041704904   -3.3733361      1.45323   381603 
 3770000   0.84317766   -3.3763933   -1.9208928  0.033258204   -3.3763933    1.4555005   381524 
 3771000   0.84238082    -3.374461   -1.9201798   0.03812889    -3.374461    1.4542813   381483 
 3772000   0.84281493   -3.3749162   -1.9197863  0.037141407   -3.3749162    1.4551299   381457 
 3773000   0.84205473    -3.374064    -1.920136  0.042263362    -3.374064    1.4539279   381428 
 3774000    0.8432214   -3.3761575   -1.9199479  0.037997644   -3.3761575    1.4562096   381358 
 3775000   0.84253155   -3.3751276   -1.9199758  0.038881127   -3.3751276    1.4551518   381323 
 3776000   0.84170061   -3.3735621   -1.9197959  0.039843384   -3.3735621    1.4537662   381310 
 3777000     0.841672   -3.3745795   -1.9207521   0.04070213   -3.3745795    1.4538274   381281 
 3778000   0.84216891   -3.3746583   -1.9198314  0.037434112   -3.3746583    1.4548269   381244 
 3779000   0.84256734   -3.3773383   -1.9217468  0.040726375   -3.3773383    1.4555915   381224 
 3780000   0.84330382    -3.377146   -1.9202707  0.037040739    -3.377146    1.4568753   381221 
 3781000   0.84206386   -3.3773357   -1.9222972  0.039098297   -3.3773357    1.4550385   381141 
 3782000   0.83998912   -3.3760194   -1.9244136  0.035581977   -3.3760194    1.4516058   381101 
 3783000   0.83923509   -3.3758831   -1.9254242  0.039696272   -3.3758831    1.4504588   381060 
 3784000   0.83984933   -3.3766523   -1.9250214  0.034397393   -3.3766523    1.4516309   381031 
 3785000   0.84108678   -3.3778102   -1.9238878  0.042259628   -3.3778102    1.4539224   380991 
 3786000   0.84075093   -3.3777611   -1.9242323  0.039887337   -3.3777611    1.4535288   380942 
 3787000   0.84062751    -3.378843   -1.9253941  0.034717747    -3.378843    1.4534489   380907 
 3788000   0.83906445   -3.3764685   -1.9257144   0.03593946   -3.3764685     1.450754   380905 
 3789000    0.8396853    -3.377959    -1.925899  0.037102286    -3.377959      1.45206   380844 
 3790000   0.83980876   -3.3779372   -1.9254119  0.044799679   -3.3779372    1.4525252   380778 
 3791000   0.84160325   -3.3807105   -1.9249018  0.037666195   -3.3807105    1.4558087   380731 
 3792000   0.84028238   -3.3789281   -1.9252668   0.04300511   -3.3789281    1.4536613   380695 
 3793000   0.83952776   -3.3774638   -1.9251919  0.038465093   -3.3774638    1.4522719   380717 
 3794000   0.84036615   -3.3788495   -1.9249746  0.035294667   -3.3788495    1.4538749   380677 
 3795000   0.83898198   -3.3774688   -1.9257902  0.035859772   -3.3774688    1.4516785   380625 
 3796000   0.84044316   -3.3810399   -1.9268904  0.032973448   -3.3810399    1.4541495   380640 
 3797000   0.83787034   -3.3773436   -1.9274019   0.03755597   -3.3773436    1.4499417   380576 
 3798000   0.83913152   -3.3778485   -1.9255411  0.036050466   -3.3778485    1.4523074   380528 
 3799000    0.8402698   -3.3775948   -1.9231148  0.037829502   -3.3775948      1.45448   380475 
 3800000    0.8402828   -3.3772337   -1.9227579  0.041827174   -3.3772337    1.4544758   380482 
 3801000   0.84061043   -3.3786096   -1.9233984  0.034840657   -3.3786096    1.4552112   380438 
 3802000   0.83975257   -3.3779735   -1.9241213  0.038950126   -3.3779735    1.4538522   380405 
 3803000   0.84052419   -3.3791936   -1.9238065  0.036705589   -3.3791936     1.455387   380353 
 3804000    0.8392973    -3.377596   -1.9243028  0.037962023    -3.377596    1.4532932   380345 
 3805000   0.84082387   -3.3779104   -1.9218628  0.041856237   -3.3779104    1.4560476   380316 
 3806000   0.83975702   -3.3754339   -1.9211496   0.03995696   -3.3754339    1.4542842   380294 
 3807000   0.83938536   -3.3755612   -1.9218098  0.040352852   -3.3755612    1.4537515   380265 
 3808000   0.83839836   -3.3728503    -1.920644  0.040068944   -3.3728503    1.4522063   380222 
 3809000   0.83742806   -3.3738166   -1.9231498  0.040643506   -3.3738166    1.4506668   380185 
 3810000   0.83916118   -3.3768711   -1.9231065   0.04013886   -3.3768711    1.4537646   380160 
 3811000   0.83811873   -3.3752922   -1.9230928  0.038906303   -3.3752922    1.4521993   380097 
 3812000   0.83799172   -3.3745307   -1.9224062  0.037721648   -3.3745307    1.4521245   380059 
 3813000   0.83843643   -3.3763154   -1.9231718   0.03950609   -3.3763154    1.4531436   379994 
 3814000   0.83786456   -3.3753703   -1.9229694  0.041505092   -3.3753703    1.4524009   379929 
 3815000   0.83786584    -3.374729   -1.9223068  0.044219685    -3.374729    1.4524222   379924 
 3816000   0.83915429   -3.3787023    -1.923744  0.039915566   -3.3787023    1.4549583   379845 
 3817000   0.83702343   -3.3753633   -1.9238703  0.037850371   -3.3753633     1.451493   379785 
 3818000   0.83715309   -3.3751756   -1.9233584  0.037539127   -3.3751756    1.4518172   379759 
 3819000    0.8374737    -3.374989   -1.9223748  0.039358256    -3.374989    1.4526142   379696 
 3820000   0.83571413   -3.3752365   -1.9253803  0.035451611   -3.3752365    1.4498562   379619 
 3821000   0.83547447   -3.3747305   -1.9250991  0.033860625   -3.3747305    1.4496314   379569 
 3822000   0.83608636   -3.3752897   -1.9244743   0.03848453   -3.3752897    1.4508154   379537 
 3823000   0.83711415   -3.3766639   -1.9238468  0.038894658   -3.3766639     1.452817   379480 
 3824000   0.83715093   -3.3759855   -1.9229592  0.039257357   -3.3759855    1.4530264   379442 
 3825000   0.83653381   -3.3754393   -1.9233502  0.033104027   -3.3754393    1.4520892   379407 
 3826000   0.83627417    -3.373973   -1.9223383  0.035213558    -3.373973    1.4516347   379408 
 3827000   0.83654159   -3.3755273   -1.9233328  0.037691542   -3.3755273    1.4521946   379383 
 3828000   0.83704741   -3.3768285   -1.9234341  0.042077225   -3.3768285    1.4533944   379299 
 3829000   0.83658898    -3.375547   -1.9229639   0.03852667    -3.375547    1.4525831   379303 
 3830000    0.8370239   -3.3775348   -1.9239858  0.038282121   -3.3775348    1.4535491   379248 
 3831000   0.83597173   -3.3757108   -1.9239391  0.041912249   -3.3757108    1.4517716   379235 
 3832000   0.83603195   -3.3750011   -1.9229335   0.04114251   -3.3750011    1.4520677   379185 
 3833000   0.83657938   -3.3765732   -1.9234091  0.039156874   -3.3765732    1.4531641   379147 
 3834000    0.8365721   -3.3777863    -1.924654   0.04228222   -3.3777863    1.4531323   379152 
 3835000   0.83600739   -3.3788375   -1.9265137  0.039334287   -3.3788375    1.4523238   379107 
 3836000   0.83562226   -3.3783275   -1.9264927  0.041355986   -3.3783275    1.4518347   379060 
 3837000   0.83589534   -3.3781037   -1.9258367  0.038187257   -3.3781037     1.452267   379071 
 3838000   0.83447298   -3.3774679   -1.9274808  0.034434862   -3.3774679    1.4499871   379021 
 3839000   0.83476594   -3.3769547   -1.9261945  0.031951969   -3.3769547    1.4507603   378952 
 3840000   0.83434696   -3.3772581   -1.9270614  0.039326396   -3.3772581    1.4501967   378909 
 3841000   0.83427564    -3.378625   -1.9282958  0.034799645    -3.378625    1.4503291   378842 
 3842000   0.83407569   -3.3797127   -1.9296469  0.037113014   -3.3797127    1.4500658   378820 
 3843000    0.8352029   -3.3803566   -1.9282008   0.03479293   -3.3803566    1.4521558   378786 
 3844000   0.83504007   -3.3787477   -1.9267907  0.042616152   -3.3787477     1.451957   378764 
 3845000   0.83543358   -3.3804179   -1.9274813  0.042243756   -3.3804179    1.4529366   378687 
 3846000   0.83619477   -3.3833603   -1.9291498  0.040207066   -3.3833603    1.4542105   378700 
 3847000   0.83596152   -3.3816569   -1.9279633  0.043550785   -3.3816569    1.4536935   378729 
 3848000   0.83610236   -3.3827659    -1.928647   0.03986538   -3.3827659    1.4541189   378682 
 3849000   0.83405733   -3.3811964    -1.930615  0.034494366   -3.3811964    1.4505814   378677 
 3850000   0.83419721   -3.3817117   -1.9308372  0.039959411   -3.3817117    1.4508745   378664 
 3851000   0.83527758    -3.382715   -1.9298771  0.035962583    -3.382715    1.4528379   378642 
 3852000   0.83461351   -3.3827316   -1.9308608   0.04049821   -3.3827316    1.4518708   378593 
 3853000   0.83448822   -3.3823487   -1.9305847  0.041025557   -3.3823487     1.451764   378564 
 3854000   0.83468341   -3.3829108   -1.9304888  0.041766149   -3.3829108     1.452422   378481 
 3855000   0.83632747   -3.3842831    -1.929131  0.039842811   -3.3842831    1.4551521   378515 
 3856000   0.83592651   -3.3831908   -1.9285365  0.041275041   -3.3831908    1.4546543   378463 
 3857000   0.83520397   -3.3836075   -1.9302527  0.038880874   -3.3836075    1.4533547   378474 
 3858000   0.83404547   -3.3830588   -1.9316548  0.039726895   -3.3830588     1.451404   378457 
 3859000   0.83519385   -3.3854054   -1.9317956  0.033382896   -3.3854054    1.4536098   378403 
 3860000   0.83282006   -3.3823811    -1.932669  0.038539719   -3.3823811    1.4497121   378342 
 3861000   0.83343398   -3.3834056   -1.9324599  0.034524168   -3.3834056    1.4509456   378299 
 3862000   0.83366658   -3.3842316   -1.9327237  0.035023462   -3.3842316    1.4515079   378258 
 3863000   0.83148387   -3.3807841   -1.9329503  0.040335569   -3.3807841    1.4478339   378225 
 3864000   0.83231806   -3.3816075    -1.932187  0.032138666   -3.3816075    1.4494205   378190 
 3865000   0.83324443   -3.3817672   -1.9306989  0.039485997   -3.3817672    1.4510683   378181 
 3866000   0.83256749   -3.3820096   -1.9318939  0.040422275   -3.3820096    1.4501156   378122 
 3867000   0.83230804   -3.3820223   -1.9322704  0.037915479   -3.3820223    1.4497519   378099 
 3868000   0.83206902   -3.3800648   -1.9306372  0.039389555   -3.3800648    1.4494276   378075 
 3869000   0.83166535   -3.3809702   -1.9320503  0.038829337   -3.3809702    1.4489199   378024 
 3870000   0.83285437   -3.3831983   -1.9320265  0.033811304   -3.3831983    1.4511718   377977 
 3871000   0.83114753   -3.3801716   -1.9317861  0.036556849   -3.3801716    1.4483855   377928 
 3872000    0.8317832   -3.3836954    -1.933995  0.033714525   -3.3836954    1.4497004   377874 
 3873000   0.83103986   -3.3823716   -1.9336677  0.041532314   -3.3823716    1.4487039   377796 
 3874000   0.83154772   -3.3828653   -1.9330573  0.042450784   -3.3828653     1.449808   377739 
 3875000    0.8320062   -3.3840499   -1.9334234    0.0359374   -3.3840499    1.4506265   377734 
 3876000   0.83205246   -3.3837793   -1.9328685   0.03724293   -3.3837793    1.4509108   377681 
 3877000   0.83272274   -3.3851774    -1.933167  0.042649831   -3.3851774    1.4520104   377699 
 3878000    0.8328218   -3.3848515     -1.93243  0.038509105   -3.3848515    1.4524215   377637 
 3879000    0.8314884   -3.3829042   -1.9326045  0.035845925   -3.3829042    1.4502997   377584 
 3880000   0.83138803   -3.3831527   -1.9327554  0.034220932   -3.3831527    1.4503973   377513 
 3881000   0.83118054   -3.3840036   -1.9338146  0.042280693   -3.3840036     1.450189   377473 
 3882000   0.83147466   -3.3845101   -1.9336388  0.039683151   -3.3845101    1.4508713   377429 
 3883000   0.83161598   -3.3843472   -1.9333639  0.038470724   -3.3843472    1.4509833   377464 
 3884000   0.83134274    -3.386831     -1.93609  0.036319912    -3.386831     1.450741   377403 
 3885000   0.83030552   -3.3852111   -1.9361034  0.041357644   -3.3852111    1.4491076   377357 
 3886000   0.83101286   -3.3857296   -1.9353259  0.035401514   -3.3857296    1.4504036   377341 
 3887000   0.82912392   -3.3840299   -1.9367121   0.03631252   -3.3840299    1.4473177   377286 
 3888000   0.83008745   -3.3847349    -1.935666  0.034615009   -3.3847349    1.4490688   377268 
 3889000   0.82856459   -3.3834223    -1.936686  0.033300149   -3.3834223    1.4467363   377183 
 3890000   0.82976755   -3.3851315    -1.936214  0.038960035   -3.3851315    1.4489175   377162 
 3891000   0.83063954   -3.3853441   -1.9346809  0.042403594   -3.3853441    1.4506632   377104 
 3892000   0.83132448   -3.3874935   -1.9354454  0.036728781   -3.3874935    1.4520481   377055 
 3893000    0.8293229   -3.3848389   -1.9362677  0.036494488   -3.3848389    1.4485712   377050 
 3894000   0.83005343   -3.3863522   -1.9363242  0.035940988   -3.3863522     1.450028   377003 
 3895000   0.83207009   -3.3881988   -1.9343896  0.041393928   -3.3881988    1.4538092   376936 
 3896000   0.83170408   -3.3881545   -1.9347996  0.038327317   -3.3881545    1.4533548   376888 
 3897000   0.83000316   -3.3855243   -1.9350763  0.040115783   -3.3855243     1.450448   376871 
 3898000   0.83017739   -3.3872053   -1.9364297  0.035597489   -3.3872053    1.4507755   376865 
 3899000   0.83068643   -3.3886485   -1.9368408  0.036836724   -3.3886485    1.4518077   376828 
 3900000   0.82887232   -3.3869833   -1.9381963  0.035557084   -3.3869833     1.448787   376789 
 3901000   0.82913799   -3.3853997   -1.9362099  0.032602675   -3.3853997    1.4491899   376805 
 3902000   0.82924705    -3.386473   -1.9368578  0.032975089    -3.386473    1.4496152   376744 
 3903000   0.82854006   -3.3853921   -1.9369667  0.038833566   -3.3853921    1.4484254   376732 
 3904000    0.8282776   -3.3874636   -1.9390972  0.036116533   -3.3874636    1.4483664   376628 
 3905000   0.82829875   -3.3862523   -1.9375489  0.034458394   -3.3862523    1.4487034   376550 
 3906000   0.82835064   -3.3875004   -1.9385215  0.041869502   -3.3875004    1.4489789   376502 
 3907000   0.82808203   -3.3861579   -1.9374681  0.036628076   -3.3861579    1.4486899   376455 
 3908000   0.82822461   -3.3868278   -1.9377076  0.035218223   -3.3868278    1.4491202   376408 
 3909000   0.82795525   -3.3859192   -1.9372164  0.038902698   -3.3859192    1.4487028   376394 
 3910000   0.82714792   -3.3851306   -1.9377635  0.038306973   -3.3851306    1.4473671   376374 
 3911000   0.82797141   -3.3894646    -1.940464  0.038584827   -3.3894646    1.4490006   376324 
 3912000   0.82817134   -3.3890158   -1.9394997  0.037437711   -3.3890158    1.4495161   376281 
 3913000   0.82767173   -3.3874809   -1.9388431  0.043409945   -3.3874809    1.4486378   376282 
 3914000   0.82826963   -3.3891314    -1.939189    0.0355775   -3.3891314    1.4499424   376215 
 3915000   0.82731627   -3.3881856   -1.9397003  0.034104669   -3.3881856    1.4484853   376160 
 3916000   0.82690446   -3.3869989   -1.9389651   0.03915647   -3.3869989    1.4480337   376090 
 3917000   0.82627758   -3.3870836   -1.9398475  0.035638681   -3.3870836    1.4472361   376012 
 3918000   0.82744993   -3.3898074   -1.9404485  0.033656705   -3.3898074    1.4493589   375994 
 3919000   0.82749137   -3.3900998   -1.9405526  0.037708274   -3.3900998    1.4495471   375964 
 3920000   0.82713782   -3.3894453    -1.940452  0.036764774   -3.3894453    1.4489933   375947 
 3921000   0.82702394   -3.3869112   -1.9379593  0.039816556   -3.3869112    1.4489519   375906 
 3922000    0.8271504   -3.3889467   -1.9396731  0.039183826   -3.3889467    1.4492736   375880 
 3923000   0.82705806   -3.3879333   -1.9385785  0.041194997   -3.3879333    1.4493548   375817 
 3924000   0.82791059    -3.388286   -1.9372441  0.040135549    -3.388286    1.4510418   375767 
 3925000   0.82735396   -3.3871087   -1.9368108  0.038435319   -3.3871087    1.4502978   375707 
 3926000   0.82639936   -3.3859237   -1.9372645   0.03862708   -3.3859237    1.4486592   375698 
 3927000   0.82679976   -3.3867757   -1.9371523   0.03789345   -3.3867757    1.4496234   375630 
 3928000   0.82589087   -3.3848364   -1.9367525  0.034623124   -3.3848364    1.4480839   375616 
 3929000   0.82649067   -3.3852964   -1.9359525  0.034633155   -3.3852964    1.4493439   375562 
 3930000   0.82623869   -3.3861612   -1.9371319  0.044381162   -3.3861612    1.4490293   375529 
 3931000   0.82518028   -3.3849666   -1.9375969  0.038207442   -3.3849666    1.4473697   375478 
 3932000   0.82630007    -3.386678   -1.9371086  0.039951092    -3.386678    1.4495693   375417 
 3933000   0.82502368   -3.3838501   -1.9364043  0.035430802   -3.3838501    1.4474458   375387 
 3934000   0.82495799   -3.3838144   -1.9363335   0.03802783   -3.3838144     1.447481   375348 
 3935000   0.82501135   -3.3831748   -1.9355694  0.032884569   -3.3831748    1.4476054   375340 
 3936000   0.82635452   -3.3831642   -1.9330281  0.034563782   -3.3831642    1.4501361   375295 
 3937000   0.82592166   -3.3831545   -1.9335887  0.035515747   -3.3831545    1.4495657   375246 
 3938000   0.82524793   -3.3832642   -1.9347381  0.037937779   -3.3832642    1.4485261   375209 
 3939000    0.8256612   -3.3830999   -1.9336514  0.035106093   -3.3830999    1.4494485   375158 
 3940000   0.82465373   -3.3821529   -1.9342954  0.033737157   -3.3821529    1.4478574   375112 
 3941000   0.82444276   -3.3820876   -1.9346469  0.032297674   -3.3820876    1.4474407   375124 
 3942000   0.82451423   -3.3822986   -1.9346899  0.033919794   -3.3822986    1.4476087   375113 
 3943000   0.82415131   -3.3821667   -1.9350254  0.039270492   -3.3821667    1.4471412   375069 
 3944000   0.82476119   -3.3838334   -1.9353008  0.037966117   -3.3838334    1.4485327   374986 
 3945000   0.82499827   -3.3845273   -1.9354044  0.039774255   -3.3845273     1.449123   374941 
 3946000   0.82393227   -3.3824035   -1.9350796   0.03607725   -3.3824035    1.4473239   374922 
 3947000   0.82548061   -3.3854308   -1.9352711  0.042771814   -3.3854308    1.4501597   374892 
 3948000   0.82667997   -3.3866711   -1.9343812  0.039530194   -3.3866711    1.4522899   374886 
 3949000   0.82515169   -3.3854643   -1.9357432  0.035398602   -3.3854643    1.4497211   374856 
 3950000   0.82450481   -3.3851443    -1.936351  0.036704396   -3.3851443    1.4487933   374802 
 3951000   0.82411307   -3.3847224   -1.9364281   0.04235952   -3.3847224    1.4482943   374753 
 3952000   0.82512573   -3.3879699   -1.9378147  0.034273354   -3.3879699    1.4501552   374732 
 3953000    0.8239274   -3.3870484   -1.9387442  0.033518504   -3.3870484    1.4483042   374666 
 3954000   0.82319722   -3.3865279   -1.9394454  0.034938603   -3.3865279    1.4470825   374650 
 3955000   0.82415027   -3.3883498   -1.9394217  0.038687862   -3.3883498     1.448928   374606 
 3956000   0.82404131   -3.3859647   -1.9369497  0.034557496   -3.3859647    1.4490149   374534 
 3957000   0.82368484   -3.3875126   -1.9389466  0.039968343   -3.3875126     1.448566   374488 
 3958000   0.82337208   -3.3877556   -1.9395695   0.03557488   -3.3877556    1.4481862   374444 
 3959000   0.82234579   -3.3892509   -1.9426999  0.034549445   -3.3892509     1.446551   374400 
 3960000    0.8229807   -3.3917842   -1.9439539  0.033202131   -3.3917842    1.4478303   374358 
 3961000   0.81985151   -3.3870392   -1.9445328  0.036708733   -3.3870392    1.4425064   374311 
 3962000   0.82018724   -3.3879848   -1.9447065  0.026217704   -3.3879848    1.4432783   374264 
 3963000   0.81961301   -3.3861315   -1.9438598  0.038206484   -3.3861315    1.4422717   374263 
 3964000   0.81919572   -3.3860739   -1.9444325   0.03543447   -3.3860739    1.4416414   374236 
 3965000    0.8208326    -3.388441   -1.9438997  0.035590546    -3.388441    1.4445413   374231 
 3966000   0.82215365   -3.3899717   -1.9430746  0.040167992   -3.3899717    1.4468971   374223 
 3967000   0.82290869   -3.3900352   -1.9415925  0.038035128   -3.3900352    1.4484426   374167 
 3968000   0.82334287   -3.3902356   -1.9410055  0.040523387   -3.3902356    1.4492301   374161 
 3969000   0.82224343   -3.3898134   -1.9421432    0.0416977   -3.3898134    1.4476702   374064 
 3970000    0.8224475   -3.3910255   -1.9428063  0.042717982   -3.3910255    1.4482192   374015 
 3971000   0.82221375   -3.3918988   -1.9437892  0.039697931   -3.3918988    1.4481096   373937 
 3972000   0.82261884   -3.3931542   -1.9442343  0.039647454   -3.3931542    1.4489199   373912 
 3973000   0.82317857    -3.393844   -1.9438916  0.039362094    -3.393844    1.4499523   373900 
 3974000   0.82233814   -3.3916939   -1.9430708  0.039450816   -3.3916939    1.4486231   373861 
 3975000   0.82269322   -3.3916152    -1.942165  0.040375273   -3.3916152    1.4494502   373809 
 3976000   0.82146964   -3.3884713   -1.9410064  0.039648007   -3.3884713    1.4474648   373765 
 3977000   0.82053917   -3.3880168   -1.9421644  0.041578368   -3.3880168    1.4458524   373758 
 3978000   0.82162691   -3.3909765   -1.9431455  0.035710599   -3.3909765     1.447831   373742 
 3979000   0.82098596   -3.3896431   -1.9427944  0.040338516   -3.3896431    1.4468487   373704 
 3980000   0.82127171   -3.3905989   -1.9431072  0.038116859   -3.3905989    1.4474917   373668 
 3981000   0.82161561   -3.3888345   -1.9404847  0.036014446   -3.3888345    1.4483498   373603 
 3982000   0.82108793   -3.3891431   -1.9415104  0.034915851   -3.3891431    1.4476327   373548 
 3983000   0.82127927   -3.3886413   -1.9405045  0.039507979   -3.3886413    1.4481367   373505 
 3984000   0.82225579   -3.3920001   -1.9419163  0.035615951   -3.3920001    1.4500838   373447 
 3985000   0.82193894   -3.3928269   -1.9431699   0.03789158   -3.3928269     1.449657   373413 
 3986000    0.8213239   -3.3914299   -1.9428034  0.039419466   -3.3914299    1.4486266   373399 
 3987000   0.81994035    -3.389435   -1.9431596  0.037654931    -3.389435    1.4462754   373376 
 3988000   0.82116429   -3.3899088   -1.9414823  0.034799003   -3.3899088    1.4484265   373378 
 3989000   0.82076314   -3.3899559    -1.941888  0.037188776   -3.3899559     1.448068   373288 
 3990000   0.81965988    -3.387153   -1.9410199  0.038650794    -3.387153    1.4461331   373285 
 3991000   0.82014231   -3.3892926   -1.9423316  0.037250143   -3.3892926     1.446961   373291 
 3992000   0.81946562    -3.387494   -1.9415409  0.034740872    -3.387494    1.4459531   373243 
 3993000   0.82047289   -3.3890758   -1.9412561  0.039578797   -3.3890758    1.4478196   373220 
 3994000   0.82000458   -3.3879336   -1.9408861  0.039754394   -3.3879336    1.4470475   373206 
 3995000   0.82043166   -3.3875038   -1.9397415  0.038949538   -3.3875038    1.4477624   373216 
 3996000   0.82099337    -3.387234   -1.9386356  0.035028954    -3.387234    1.4485983   373256 
 3997000   0.82012744   -3.3869766   -1.9398557  0.035588397   -3.3869766    1.4471209   373243 
 3998000   0.82011523   -3.3864092   -1.9394339  0.033254332   -3.3864092    1.4469753   373275 
 3999000   0.81960434   -3.3858905   -1.9397236  0.033396953   -3.3858905    1.4461669   373251 
 4000000   0.82001332   -3.3863673   -1.9394827  0.035961135   -3.3863673    1.4468846   373252 
 4001000   0.81969725   -3.3854749   -1.9390434  0.040754203   -3.3854749    1.4464315   373225 
 4002000   0.82101803   -3.3882485   -1.9392262  0.031076587   -3.3882485    1.4490223   373158 
 4003000   0.82018662   -3.3876179   -1.9397565  0.036576297   -3.3876179    1.4478615   373079 
 4004000   0.82012468    -3.387228   -1.9395264  0.041063576    -3.387228    1.4477017   373092 
 4005000   0.82219507   -3.3910147   -1.9396077  0.039523411   -3.3910147    1.4514069   373079 
 4006000   0.82141945   -3.3896168   -1.9394508  0.041525477   -3.3896168     1.450166   373046 
 4007000   0.82042941   -3.3888681   -1.9402596  0.036519041   -3.3888681    1.4486084   372997 
 4008000    0.8208725   -3.3898845   -1.9402255  0.039776608   -3.3898845     1.449659   372928 
 4009000   0.82061352   -3.3885974    -1.939388  0.038507374   -3.3885974    1.4492094   372926 
 4010000   0.82065948   -3.3901203   -1.9405693  0.041336638   -3.3901203     1.449551   372859 
 4011000   0.82031651   -3.3907376   -1.9416602  0.035538892   -3.3907376    1.4490773   372825 
 4012000   0.81994679   -3.3906024   -1.9420345  0.035604841   -3.3906024     1.448568   372788 
 4013000   0.82038919   -3.3928856   -1.9434583  0.036519035   -3.3928856    1.4494273   372768 
 4014000   0.81864627   -3.3912326    -1.944776    0.0336518   -3.3912326    1.4464566   372740 
 4015000    0.8177745   -3.3904193   -1.9454099  0.034024343   -3.3904193    1.4450094   372716 
 4016000   0.81779803   -3.3903412   -1.9451352  0.034968161   -3.3903412     1.445206   372676 
 4017000   0.81760449   -3.3906263    -1.945836  0.038121302   -3.3906263    1.4447903   372695 
 4018000   0.81901017   -3.3908067   -1.9434586  0.038431682   -3.3908067    1.4473481   372676 
 4019000   0.82076872   -3.3939438   -1.9433984  0.034807616   -3.3939438    1.4505453   372653 
 4020000   0.82166253   -3.3935666   -1.9414961  0.042602118   -3.3935666    1.4520704   372667 
 4021000   0.82189701   -3.3921533   -1.9394775  0.044326886   -3.3921533    1.4526758   372618 
 4022000   0.82276204   -3.3947129   -1.9402701  0.039843312   -3.3947129    1.4544428   372557 
 4023000   0.82049167   -3.3909693   -1.9403296  0.041546886   -3.3909693    1.4506396   372503 
 4024000   0.82054876   -3.3917969   -1.9409045  0.045667488   -3.3917969    1.4508925   372464 
 4025000   0.82025816   -3.3908818   -1.9405109  0.046339336   -3.3908818    1.4503708   372466 
 4026000   0.81864968   -3.3887143   -1.9410632  0.042262528   -3.3887143    1.4476511   372434 
 4027000   0.81922986   -3.3911349   -1.9423023  0.036902086   -3.3911349    1.4488327   372394 
 4028000   0.81685873   -3.3887451   -1.9438963  0.037117065   -3.3887451    1.4448488   372340 
 4029000   0.81793137   -3.3910823    -1.943967  0.036367962   -3.3910823    1.4471153   372245 
 4030000   0.81794636   -3.3909595   -1.9436816  0.036333698   -3.3909595    1.4472779   372210 
 4031000    0.8168612   -3.3894491   -1.9439671  0.038196758   -3.3894491     1.445482   372178 
 4032000   0.81621099   -3.3887451   -1.9443399  0.036995504   -3.3887451    1.4444052   372159 
 4033000     0.816622    -3.388495   -1.9432537  0.032502549    -3.388495    1.4452413   372131 
 4034000   0.81705692   -3.3880838   -1.9419057  0.037260899   -3.3880838    1.4461781   372088 
 4035000   0.81768254   -3.3876531    -1.940181  0.038995219   -3.3876531    1.4474722   372040 
 4036000   0.81563143   -3.3848113   -1.9409855  0.036449665   -3.3848113    1.4438257   372044 
 4037000   0.81722347   -3.3873228   -1.9406088  0.037987975   -3.3873228     1.446714   372026 
 4038000   0.81641676   -3.3875394   -1.9420942  0.033490099   -3.3875394    1.4454452   371985 
 4039000   0.81625386   -3.3875738   -1.9422578   0.03817508   -3.3875738     1.445316   371944 
 4040000   0.81690624   -3.3868529   -1.9401911  0.039575697   -3.3868529    1.4466618   371895 
 4041000    0.8186047   -3.3883607   -1.9386833  0.036580562   -3.3883607    1.4496774   371893 
 4042000   0.81794949   -3.3869582   -1.9383243  0.043489443   -3.3869582    1.4486339   371863 
 4043000   0.81708549   -3.3878438   -1.9406233  0.037916264   -3.3878438    1.4472205   371833 
 4044000   0.81653873   -3.3888195    -1.942443   0.03536388   -3.3888195    1.4463765   371801 
 4045000   0.81647817   -3.3889953   -1.9427611  0.029220158   -3.3889953    1.4462342   371810 
 4046000   0.81604772   -3.3877933   -1.9418587  0.034306613   -3.3877933    1.4459346   371691 
 4047000   0.81529855   -3.3871755   -1.9424168  0.036224331   -3.3871755    1.4447587   371652 
 4048000    0.8164749   -3.3894053    -1.942527  0.033647282   -3.3894053    1.4468783   371643 
 4049000   0.81672817   -3.3875824   -1.9400293  0.034726014   -3.3875824    1.4475531   371585 
 4050000   0.81736262   -3.3888291   -1.9400151  0.037423041   -3.3888291     1.448814   371550 
 4051000   0.81739295   -3.3913301   -1.9422908   0.03963593   -3.3913301    1.4490394   371506 
 4052000   0.81567862   -3.3900468    -1.944062  0.037105141   -3.3900468    1.4459847   371510 
 4053000   0.81625013    -3.391611   -1.9444418  0.033463678    -3.391611    1.4471693   371466 
 4054000   0.81539004   -3.3905888    -1.944816   0.03842365   -3.3905888    1.4457728   371433 
 4055000   0.81402574   -3.3892861   -1.9459712  0.033645976   -3.3892861    1.4433149   371443 
 4056000    0.8146876   -3.3902106   -1.9455783  0.031563153   -3.3902106    1.4446323   371406 
 4057000   0.81540184    -3.392216   -1.9461186  0.035851335    -3.392216    1.4460974   371355 
 4058000   0.81567532   -3.3926864   -1.9461001  0.035005937   -3.3926864    1.4465863   371354 
 4059000   0.81763158   -3.3951109   -1.9449576  0.038108284   -3.3951109    1.4501533   371329 
 4060000   0.81772605   -3.3944415   -1.9442417  0.037202484   -3.3944415    1.4501998   371360 
 4061000   0.81738051   -3.3948809   -1.9452627  0.036464297   -3.3948809    1.4496182   371352 
 4062000   0.81660141   -3.3947493   -1.9465284  0.039246085   -3.3947493    1.4482209   371356 
 4063000   0.81546684   -3.3911399   -1.9449895  0.039161116   -3.3911399    1.4461504   371371 
 4064000   0.81459536   -3.3921925    -1.947362  0.033591873   -3.3921925    1.4448305   371313 
 4065000   0.81499243   -3.3934059   -1.9478477  0.037732013   -3.3934059    1.4455582   371307 
 4066000   0.81610397   -3.3939008   -1.9463243  0.036870295   -3.3939008    1.4475765   371295 
 4067000   0.81522815    -3.392456   -1.9463201  0.035820625    -3.392456     1.446136   371266 
 4068000   0.81520273   -3.3925403   -1.9464845  0.039827496   -3.3925403    1.4460558   371275 
 4069000   0.81617679   -3.3933764   -1.9455616  0.038801259   -3.3933764    1.4478148   371267 
 4070000   0.81867194   -3.3963928   -1.9440618  0.039428171   -3.3963928     1.452331   371244 
 4071000   0.81742543   -3.3946415   -1.9442953  0.042247313   -3.3946415    1.4503462   371186 
 4072000    0.8177235   -3.3957893    -1.944711  0.037917912   -3.3957893    1.4510784   371134 
 4073000   0.81544518   -3.3933503   -1.9460692  0.041999897   -3.3933503    1.4472811   371071 
 4074000   0.81567079   -3.3928622   -1.9450129  0.033085698   -3.3928622    1.4478493   371028 
 4075000   0.81579741   -3.3940394   -1.9458405  0.039926883   -3.3940394    1.4481989   370996 
 4076000   0.81590943   -3.3939067   -1.9455363  0.039977764   -3.3939067    1.4483705   371003 
 4077000   0.81629915   -3.3952221   -1.9460427   0.04130439   -3.3952221    1.4491795   370973 
 4078000   0.81404942   -3.3926708    -1.947345   0.04080157   -3.3926708    1.4453258   370937 
 4079000   0.81557983   -3.3936554   -1.9453899  0.039383187   -3.3936554    1.4482655   370880 
 4080000   0.81415319   -3.3924992   -1.9465838  0.040663947   -3.3924992    1.4459154   370833 
 4081000   0.81539049    -3.394879   -1.9464732  0.039533724    -3.394879    1.4484058   370758 
 4082000   0.81382623   -3.3937687   -1.9478842  0.037930893   -3.3937687    1.4458845   370692 
 4083000   0.81443862   -3.3952877   -1.9481044  0.036056199   -3.3952877    1.4471833   370638 
 4084000   0.81496821   -3.3970546   -1.9488208  0.036302272   -3.3970546    1.4482338   370610 
 4085000   0.81350085    -3.394126   -1.9483945  0.039892488    -3.394126    1.4457315   370583 
 4086000   0.81364485   -3.3935174   -1.9472607  0.033563982   -3.3935174    1.4462567   370514 
 4087000   0.81477838   -3.3958707   -1.9473841  0.039463983   -3.3958707    1.4484866   370459 
 4088000   0.81560457   -3.3955241   -1.9454669  0.044268923   -3.3955241    1.4500571   370433 
 4089000    0.8142715   -3.3949413   -1.9471018  0.040630506   -3.3949413    1.4478395   370394 
 4090000   0.81428701   -3.3950756   -1.9470286  0.039810514   -3.3950756    1.4480469   370348 
 4091000   0.81253353   -3.3922669   -1.9471196  0.041413142   -3.3922669    1.4451472   370292 
 4092000   0.81399648   -3.3938761   -1.9460839  0.035929075   -3.3938761    1.4477922   370281 
 4093000   0.81594557   -3.3952907   -1.9441023  0.037442292   -3.3952907    1.4511883   370299 
 4094000    0.8149093   -3.3929807   -1.9436041  0.041836655   -3.3929807    1.4493766   370291 
 4095000   0.81439508   -3.3927087    -1.944231  0.040518647   -3.3927087    1.4484777   370287 
 4096000   0.81370331   -3.3913921   -1.9439963  0.038552605   -3.3913921    1.4473958   370249 
 4097000   0.81412652   -3.3908497   -1.9425367  0.035859542   -3.3908497    1.4483129   370207 
 4098000   0.81439633    -3.389728   -1.9409468  0.040028464    -3.389728    1.4487812   370210 
 4099000    0.8131218   -3.3879606   -1.9413881  0.035509677   -3.3879606    1.4465724   370195 
 4100000   0.81399877   -3.3888774   -1.9406078   0.03887986   -3.3888774    1.4482695   370160 
 4101000   0.81350685   -3.3886176   -1.9411724  0.037383379   -3.3886176    1.4474451   370147 
 4102000   0.81200464   -3.3852588   -1.9404864  0.042205048   -3.3852588    1.4447723   370147 
 4103000   0.81346909   -3.3863627   -1.9388675  0.037529623   -3.3863627    1.4474953   370117 
 4104000   0.81274262   -3.3851935    -1.939155  0.037475115   -3.3851935    1.4460385   370159 
 4105000   0.81292557   -3.3858508   -1.9394204  0.038381939   -3.3858508    1.4464304   370142 
 4106000    0.8137302   -3.3857246   -1.9377647  0.039239059   -3.3857246    1.4479599   370117 
 4107000   0.81206551   -3.3831113   -1.9380277  0.037907261   -3.3831113    1.4450836   370095 
 4108000     0.813029   -3.3851269   -1.9381137  0.037676737   -3.3851269    1.4470132   370040 
 4109000   0.81304333   -3.3848488    -1.937638  0.035570041   -3.3848488    1.4472108   369996 
 4110000   0.81200496   -3.3844916   -1.9388438  0.038058727   -3.3844916    1.4456477   369923 
 4111000   0.81217239   -3.3844099   -1.9382021  0.034990688   -3.3844099    1.4462077   369856 
 4112000   0.81321191   -3.3866413   -1.9383711  0.038592172   -3.3866413    1.4482702   369802 
 4113000   0.81171384   -3.3843855   -1.9387363  0.036934592   -3.3843855    1.4456492   369790 
 4114000   0.81128568   -3.3835224   -1.9384247  0.042026553   -3.3835224    1.4450977   369736 
 4115000   0.81146709   -3.3845007    -1.938814  0.036773154   -3.3845007    1.4456867   369668 
 4116000   0.81135257   -3.3848847    -1.939144  0.038980754   -3.3848847    1.4457408   369602 
 4117000   0.81204558   -3.3873657   -1.9401316  0.035857612   -3.3873657    1.4472341   369536 
 4118000   0.81192158   -3.3878725   -1.9407145  0.040019064   -3.3878725     1.447158   369499 
 4119000   0.81158736   -3.3864882   -1.9398985  0.038985729   -3.3864882    1.4465897   369492 
 4120000   0.81305939    -3.388099   -1.9387639  0.039400529    -3.388099    1.4493351   369461 
 4121000   0.81192379   -3.3883608   -1.9407248  0.039223895   -3.3883608     1.447636   369378 
 4122000   0.81358005    -3.391612   -1.9408815  0.036055713    -3.391612    1.4507304   369342 
 4123000   0.81142377   -3.3883788   -1.9413522  0.038192692   -3.3883788    1.4470265   369306 
 4124000   0.81099225   -3.3881528   -1.9417862  0.038879177   -3.3881528    1.4463667   369278 
 4125000   0.81053204   -3.3889914   -1.9433516  0.042089275   -3.3889914    1.4456399   369254 
 4126000   0.81072578   -3.3881073   -1.9418947  0.039290002   -3.3881073    1.4462125   369196 
 4127000    0.8101898   -3.3881261   -1.9427953   0.03703774   -3.3881261    1.4453308   369177 
 4128000   0.81004351   -3.3885391   -1.9433205  0.035031744   -3.3885391    1.4452186   369139 
 4129000   0.81154206   -3.3911259   -1.9433866  0.039002239   -3.3911259    1.4477393   369178 
 4130000   0.81166439   -3.3914734   -1.9433472  0.039121288   -3.3914734    1.4481262   369135 
 4131000   0.80952258   -3.3884387   -1.9438913  0.037819255   -3.3884387    1.4445475   369073 
 4132000   0.81081462   -3.3894059   -1.9423882    0.0384238   -3.3894059    1.4470177   369031 
 4133000   0.81142978   -3.3900544   -1.9418132  0.041307092   -3.3900544    1.4482411   368999 
 4134000   0.81151541   -3.3918542   -1.9434014   0.04097076   -3.3918542    1.4484529   368984 
 4135000   0.80947605   -3.3912582   -1.9462965  0.041741849   -3.3912582    1.4449617   368946 
 4136000   0.81124561   -3.3917955   -1.9436633  0.035840819   -3.3917955    1.4481322   368943 
 4137000   0.81078004   -3.3905358   -1.9430189  0.039162857   -3.3905358    1.4475169   368888 
 4138000   0.81081615   -3.3913479   -1.9435624  0.035363521   -3.3913479    1.4477855   368836 
 4139000   0.81074494   -3.3920781   -1.9441371   0.03382647   -3.3920781     1.447941   368764 
 4140000   0.80998008   -3.3909362    -1.944169  0.037407341   -3.3909362    1.4467672   368715 
 4141000   0.81029527   -3.3920354   -1.9446385  0.042671339   -3.3920354     1.447397   368698 
 4142000   0.81065699   -3.3915422   -1.9435816  0.042814411   -3.3915422    1.4479606   368719 
 4143000   0.80908403   -3.3921227    -1.946607  0.038369353   -3.3921227    1.4455157   368626 
 4144000   0.80969222    -3.391162   -1.9444499    0.0401194    -3.391162    1.4467121   368598 
 4145000   0.80975656   -3.3906043   -1.9436987  0.037894783   -3.3906043    1.4469056   368578 
 4146000   0.80931257   -3.3884804   -1.9422936   0.03925569   -3.3884804    1.4461868   368559 
 4147000   0.80964072   -3.3894206   -1.9426513  0.039536327   -3.3894206    1.4467693   368560 
 4148000   0.81072924    -3.389187   -1.9405748  0.034486027    -3.389187    1.4486122   368586 
 4149000   0.81132696   -3.3900571   -1.9403139  0.040789803   -3.3900571    1.4497431   368570 
 4150000   0.81123208   -3.3909428   -1.9411057  0.034584293   -3.3909428    1.4498371   368503 
 4151000   0.80946083   -3.3864973   -1.9397708  0.040556803   -3.3864973    1.4467265   368489 
 4152000   0.80916277   -3.3873833   -1.9409932  0.037280185   -3.3873833    1.4463901   368439 
 4153000   0.81032694   -3.3896957   -1.9411185  0.032762438   -3.3896957    1.4485772   368412 
 4154000   0.80934525   -3.3862609   -1.9393797  0.036874185   -3.3862609    1.4468812   368397 
 4155000   0.80922815   -3.3858737   -1.9391979  0.036997205   -3.3858737    1.4466758   368396 
 4156000   0.80867087   -3.3855708   -1.9395891   0.03681648   -3.3855708    1.4459817   368319 
 4157000   0.80861659   -3.3856993   -1.9396458  0.036902549   -3.3856993    1.4460535   368276 
 4158000   0.80847461   -3.3878625   -1.9419137  0.034343549   -3.3878625    1.4459488   368238 
 4159000   0.80729182   -3.3864258     -1.94231  0.041579286   -3.3864258    1.4441157   368166 
 4160000   0.80734523   -3.3856499   -1.9412895  0.035341462   -3.3856499    1.4443604   368128 
 4161000   0.80619648   -3.3846193   -1.9421573  0.038752377   -3.3846193     1.442462   368088 
 4162000   0.80925994   -3.3885409   -1.9404246  0.036084801   -3.3885409    1.4481163   368044 
 4163000   0.80766905   -3.3865051   -1.9411728  0.039389352   -3.3865051    1.4453323   368028 
 4164000   0.80917004   -3.3896812   -1.9415802   0.03787218   -3.3896812     1.448101   368007 
 4165000   0.80816002   -3.3889689   -1.9424121  0.040390655   -3.3889689    1.4465568   367940 
 4166000   0.80769843   -3.3873658   -1.9414662  0.042182293   -3.3873658    1.4458996   367897 
 4167000   0.80852992   -3.3881895   -1.9406047  0.042591071   -3.3881895    1.4475848   367847 
 4168000   0.81044475   -3.3914684   -1.9401199  0.040608155   -3.3914684    1.4513485   367762 
 4169000   0.80959467   -3.3891157   -1.9392147  0.046224744   -3.3891157     1.449901   367743 
 4170000   0.80992129    -3.389899   -1.9392907  0.045807722    -3.389899    1.4506083   367712 
 4171000   0.80929134   -3.3888872   -1.9392377  0.040401008   -3.3888872    1.4496495   367669 
 4172000   0.80938608   -3.3889597   -1.9389433  0.041858764   -3.3889597    1.4500164   367619 
 4173000   0.81050492   -3.3911396   -1.9390161  0.042140964   -3.3911396    1.4521235   367593 
 4174000   0.80885708   -3.3891726   -1.9398792  0.041435689   -3.3891726    1.4492934   367562 
 4175000   0.80739031   -3.3873281   -1.9406077  0.039728437   -3.3873281    1.4467204   367548 
 4176000   0.80821886   -3.3892307   -1.9407774  0.039310538   -3.3892307    1.4484533   367485 
 4177000   0.80671857   -3.3875939   -1.9417153  0.037197586   -3.3875939    1.4458786   367456 
 4178000   0.80692583   -3.3879252   -1.9415216  0.036951703   -3.3879252    1.4464036   367417 
 4179000   0.80755745   -3.3869149   -1.9394145  0.039373506   -3.3869149    1.4475003   367426 
 4180000   0.80759502   -3.3868547   -1.9390546  0.036261386   -3.3868547    1.4478002   367367 
 4181000   0.80646814   -3.3862488   -1.9402563  0.038737639   -3.3862488    1.4459925   367313 
 4182000   0.80554307   -3.3862828    -1.941886  0.039418096   -3.3862828    1.4443968   367297 
 4183000   0.80767441   -3.3879949   -1.9396464   0.03333593   -3.3879949    1.4483486   367264 
 4184000   0.80540136   -3.3832315   -1.9388371  0.043164218   -3.3832315    1.4443944   367233 
 4185000   0.80718359   -3.3859483   -1.9380501  0.035848036   -3.3859483    1.4478981   367155 
 4186000   0.80652238   -3.3842656   -1.9372501  0.038662067   -3.3842656    1.4470155   367078 
 4187000   0.80770034   -3.3872517   -1.9379964  0.032768074   -3.3872517    1.4492553   367046 
 4188000   0.80485292   -3.3825003   -1.9383777  0.032930036   -3.3825003    1.4441226   367052 
 4189000    0.8070459   -3.3862497   -1.9380503  0.033744423   -3.3862497    1.4481994   367016 
 4190000   0.80568058   -3.3838401   -1.9380986  0.039135102   -3.3838401    1.4457416   367018 
 4191000   0.80529271   -3.3847504   -1.9395552  0.041608321   -3.3847504    1.4451952   366980 
 4192000   0.80578387   -3.3861613    -1.939994  0.036071684   -3.3861613    1.4461673   366957 
 4193000   0.80601418   -3.3846802   -1.9379497  0.033822633   -3.3846802    1.4467304   366919 
 4194000   0.80488748   -3.3836814   -1.9388434  0.036132148   -3.3836814     1.444838   366886 
 4195000    0.8041739   -3.3826485   -1.9387569  0.036934112   -3.3826485    1.4438916   366801 
 4196000    0.8042366   -3.3837114   -1.9396205  0.030060088   -3.3837114    1.4440908   366779 
 4197000   0.80524818   -3.3859427   -1.9398423   0.03362083   -3.3859427    1.4461004   366730 
 4198000   0.80478497   -3.3841119   -1.9388237  0.037580967   -3.3841119    1.4452882   366725 
 4199000   0.80677271   -3.3883398   -1.9393672  0.037160943   -3.3883398    1.4489726   366696 
 4200000   0.80432067   -3.3838221   -1.9390998   0.03779661   -3.3838221    1.4447223   366657 
 4201000   0.80374625   -3.3839422   -1.9400429  0.037030526   -3.3839422    1.4438993   366604 
 4202000   0.80475646   -3.3842319   -1.9385139  0.038459153   -3.3842319     1.445718   366603 
 4203000     0.804558   -3.3850186   -1.9395389  0.037673214   -3.3850186    1.4454798   366573 
 4204000   0.80531607   -3.3866277   -1.9396597  0.040883562   -3.3866277     1.446968   366541 
 4205000     0.804258   -3.3878954   -1.9425683  0.040749788   -3.3878954    1.4453272   366475 
 4206000   0.80400082   -3.3865916   -1.9414939  0.039449392   -3.3865916    1.4450976   366416 
 4207000   0.80348803   -3.3861269   -1.9419549  0.033906911   -3.3861269     1.444172   366417 
 4208000   0.80446044   -3.3878084   -1.9418886   0.03291826   -3.3878084    1.4459198   366417 
 4209000   0.80311707   -3.3836201   -1.9401109  0.037807706   -3.3836201    1.4435092   366416 
 4210000   0.80501999   -3.3861293   -1.9391722  0.038850181   -3.3861293    1.4469571   366409 
 4211000   0.80449091   -3.3884041   -1.9421177  0.041442436   -3.3884041    1.4462864   366338 
 4212000   0.80360234   -3.3887909   -1.9437745  0.038507224   -3.3887909    1.4450163   366255 
 4213000   0.80352165   -3.3876119   -1.9425986  0.038218704   -3.3876119    1.4450133   366219 
 4214000   0.80405673   -3.3879895    -1.942006  0.040394109   -3.3879895    1.4459835   366217 
 4215000   0.80410408   -3.3879509   -1.9416217   0.03904264   -3.3879509    1.4463293   366151 
 4216000   0.80558423   -3.3929011   -1.9437037  0.036714898   -3.3929011    1.4491974   366099 
 4217000   0.80538393   -3.3933479   -1.9442852  0.036517238   -3.3933479    1.4490627   366042 
 4218000   0.80331769   -3.3889429   -1.9437203  0.043749254   -3.3889429    1.4452227   366073 
 4219000   0.80551063    -3.391368   -1.9420378  0.042599644    -3.391368    1.4493302   366032 
 4220000   0.80426747   -3.3897085   -1.9423936  0.045064929   -3.3897085    1.4473149   365976 
 4221000   0.80518427   -3.3918201   -1.9427683  0.037491847   -3.3918201    1.4490518   365954 
 4222000   0.80524305   -3.3911793   -1.9418514  0.041385438   -3.3911793    1.4493279   365911 
 4223000   0.80436887   -3.3906535    -1.942804   0.04219511   -3.3906535    1.4478495   365887 
 4224000    0.8037295   -3.3912995   -1.9443478   0.03977029   -3.3912995    1.4469517   365823 
 4225000   0.80145963   -3.3902145   -1.9471165  0.033761035   -3.3902145     1.443098   365764 
 4226000   0.80170399   -3.3905327   -1.9468013  0.034071249   -3.3905327    1.4437314   365715 
 4227000    0.8010785   -3.3878249   -1.9450423  0.034978016   -3.3878249    1.4427825   365670 
 4228000   0.80230062   -3.3894002   -1.9442624  0.034751781   -3.3894002    1.4451378   365631 
 4229000   0.80261715   -3.3902453   -1.9443911  0.034601585   -3.3902453    1.4458542   365594 
 4230000    0.8003465   -3.3874345   -1.9455208  0.040585062   -3.3874345    1.4419137   365556 
 4231000   0.80164501   -3.3901913   -1.9456893  0.033694358   -3.3901913     1.444502   365493 
 4232000   0.80263721    -3.392202   -1.9456311  0.038379647    -3.392202    1.4465709   365422 
 4233000    0.8015087   -3.3881203   -1.9435635  0.036659268   -3.3881203    1.4445568   365417 
 4234000   0.80147147   -3.3908569   -1.9461695  0.041347983   -3.3908569    1.4446874   365367 
 4235000   0.80244993   -3.3911022   -1.9446986    0.0362666   -3.3911022    1.4464036   365379 
 4236000   0.80194662   -3.3886358    -1.942807  0.037852904   -3.3886358    1.4458288   365295 
 4237000   0.80249837   -3.3906911   -1.9436814  0.034741031   -3.3906911    1.4470097   365248 
 4238000   0.80273345   -3.3896707   -1.9420865  0.038970881   -3.3896707    1.4475842   365210 
 4239000   0.80133041   -3.3890443   -1.9440219  0.034823896   -3.3890443    1.4450224   365218 
 4240000   0.80138525   -3.3893289   -1.9440889  0.043091807   -3.3893289      1.44524   365188 
 4241000   0.80250277    -3.389982   -1.9425086  0.040401463    -3.389982    1.4474734   365133 
 4242000   0.80276582   -3.3911139   -1.9429995  0.036370006   -3.3911139    1.4481144   365091 
 4243000   0.80273355   -3.3926775   -1.9445459  0.037523321   -3.3926775    1.4481316   365072 
 4244000   0.80278998   -3.3932568   -1.9449401  0.035133768   -3.3932568    1.4483167   365051 
 4245000   0.80149753   -3.3921048   -1.9460445  0.036188264   -3.3921048    1.4460602   365032 
 4246000   0.80184636   -3.3916733   -1.9447934   0.03794129   -3.3916733    1.4468798   364984 
 4247000   0.80139937   -3.3905961      -1.9444  0.041819791   -3.3905961    1.4461961   364953 
 4248000   0.80015069   -3.3903264   -1.9462491  0.037485628   -3.3903264    1.4440773   364919 
 4249000   0.80138012   -3.3912988   -1.9449194  0.037016132   -3.3912988    1.4463794   364898 
 4250000   0.80137921   -3.3909664   -1.9445451   0.04087999   -3.3909664    1.4464213   364887 
 4251000    0.8017566   -3.3934825   -1.9462135   0.03823062   -3.3934825     1.447269   364845 
 4252000    0.8033252   -3.3948684   -1.9446685  0.039064781   -3.3948684    1.4501999   364820 
 4253000   0.80266614   -3.3933307   -1.9442212  0.036187433   -3.3933307    1.4491095   364795 
 4254000   0.80243276   -3.3929357   -1.9440053  0.039742954   -3.3929357    1.4489304   364734 
 4255000    0.7990989   -3.3891072   -1.9459988  0.039069469   -3.3891072    1.4431084   364684 
 4256000   0.80046723   -3.3906386   -1.9448886  0.039930627   -3.3906386      1.44575   364641 
 4257000    0.7994829   -3.3892539   -1.9454322  0.032453916   -3.3892539    1.4438217   364679 
 4258000   0.79937004   -3.3890342   -1.9454005  0.038323722   -3.3890342    1.4436337   364675 
 4259000   0.79939045   -3.3889607   -1.9453574  0.033815107   -3.3889607    1.4436033   364692 
 4260000   0.79970325    -3.389261   -1.9449503  0.034660376    -3.389261    1.4443107   364656 
 4261000   0.79919603   -3.3899727   -1.9464316  0.036363387   -3.3899727    1.4435411   364619 
 4262000   0.79890383   -3.3900105   -1.9467042  0.036050549   -3.3900105    1.4433062   364545 
 4263000   0.79909176    -3.389178   -1.9454253  0.038382203    -3.389178    1.4437527   364518 
 4264000   0.79947467   -3.3908573    -1.946282  0.037673886   -3.3908573    1.4445753   364485 
 4265000   0.79952091   -3.3901557   -1.9453105  0.036665297   -3.3901557    1.4448452   364438 
 4266000   0.80008679   -3.3897628   -1.9439784  0.037412344   -3.3897628    1.4457845   364459 
 4267000   0.80122537   -3.3916105   -1.9437606  0.035371676   -3.3916105    1.4478499   364457 
 4268000   0.79999959   -3.3899629   -1.9440226  0.037487629   -3.3899629    1.4459403   364380 
 4269000   0.80208587   -3.3927608   -1.9430139   0.03754569   -3.3927608    1.4497469   364371 
 4270000   0.79987099   -3.3890497   -1.9430919  0.039319173   -3.3890497    1.4459579   364317 
 4271000   0.80165409   -3.3923162   -1.9430593   0.03978786   -3.3923162    1.4492568   364298 
 4272000   0.80061311   -3.3905639   -1.9432486  0.042598484   -3.3905639    1.4473153   364313 
 4273000   0.79987004    -3.390511   -1.9445271  0.037089798    -3.390511    1.4459839   364310 
 4274000   0.80056726   -3.3909885   -1.9436528  0.033215481   -3.3909885    1.4473357   364287 
 4275000   0.79953182   -3.3890735   -1.9433756  0.034964278   -3.3890735    1.4456979   364228 
 4276000   0.80019335   -3.3888221   -1.9418247  0.035113447   -3.3888221    1.4469974   364202 
 4277000   0.80055437   -3.3891972   -1.9414118  0.035405426   -3.3891972    1.4477854   364168 
 4278000   0.80028265   -3.3887807   -1.9412085  0.038249997   -3.3887807    1.4475722   364098 
 4279000   0.79866582    -3.386644   -1.9418574  0.039111619    -3.386644    1.4447865   364063 
 4280000   0.79812512   -3.3875989   -1.9437667  0.041152666   -3.3875989    1.4438322   364057 
 4281000   0.79921611   -3.3896013   -1.9437041  0.036187867   -3.3896013    1.4458972   364034 
 4282000   0.79673655   -3.3872125   -1.9455359  0.040580264   -3.3872125    1.4416767   363967 
 4283000   0.79772992   -3.3890062   -1.9453337  0.037353021   -3.3890062    1.4436725   363917 
 4284000   0.79896121   -3.3902056   -1.9441499  0.037636398   -3.3902056    1.4460557   363878 
 4285000   0.79805808   -3.3913499   -1.9468136  0.032517377   -3.3913499    1.4445363   363849 
 4286000   0.79771331   -3.3885941   -1.9445588  0.038094039   -3.3885941    1.4440352   363818 
 4287000   0.79811871   -3.3893865   -1.9445459  0.038279946   -3.3893865    1.4448406   363800 
 4288000   0.79746581    -3.390419   -1.9464865  0.038275377    -3.390419    1.4439325   363731 
 4289000   0.79810447   -3.3929726   -1.9475857  0.038821226   -3.3929726    1.4453869   363656 
 4290000   0.79729426   -3.3923396   -1.9482255  0.042120787   -3.3923396    1.4441142   363607 
 4291000   0.79780539   -3.3925749   -1.9474276  0.041091747   -3.3925749    1.4451473   363580 
 4292000   0.79767139   -3.3917261   -1.9469845  0.035882414   -3.3917261    1.4447416   363621 
 4293000   0.79786732   -3.3911021   -1.9459936  0.040263884   -3.3911021    1.4451084   363618 
 4294000   0.79790454   -3.3918339   -1.9465388  0.037497511   -3.3918339    1.4452951   363588 
 4295000   0.79843105   -3.3921059   -1.9458531  0.034635973   -3.3921059    1.4462528   363587 
 4296000   0.79766187   -3.3913911   -1.9465118  0.038489057   -3.3913911    1.4448794   363582 
 4297000   0.79661458   -3.3898358   -1.9466828  0.037954674   -3.3898358     1.443153   363539 
 4298000   0.79688445   -3.3909969   -1.9472001  0.037779314   -3.3909969    1.4437968   363500 
 4299000   0.79604131   -3.3881845    -1.945713  0.039356698   -3.3881845    1.4424716   363449 
 4300000    0.7971228   -3.3907059   -1.9461594  0.036567484   -3.3907059    1.4445465   363420 
 4301000   0.79631063   -3.3914305   -1.9480897   0.03826204   -3.3914305    1.4433408   363353 
 4302000   0.79600945   -3.3912317   -1.9484645  0.034361125   -3.3912317    1.4427671   363360 
 4303000   0.79724867   -3.3941192   -1.9489071  0.036267269   -3.3941192    1.4452121   363310 
 4304000   0.79539771   -3.3908537   -1.9488421   0.03929015   -3.3908537    1.4420116   363271 
 4305000   0.79635895   -3.3930784    -1.949352  0.037684833   -3.3930784    1.4437264   363278 
 4306000   0.79487178   -3.3913129     -1.95012   0.03778419   -3.3913129    1.4411929   363237 
 4307000   0.79594629    -3.392028   -1.9488034  0.037372514    -3.392028    1.4432246   363216 
 4308000   0.79607537   -3.3917212   -1.9481712  0.037729319   -3.3917212    1.4435501   363193 
 4309000   0.79662092   -3.3921198   -1.9475168  0.035101867   -3.3921198     1.444603   363177 
 4310000   0.79633027   -3.3904726   -1.9463848   0.04231248   -3.3904726    1.4440878   363174 
 4311000   0.79851498   -3.3933581   -1.9452885  0.042746866   -3.3933581    1.4480696   363169 
 4312000   0.79652372   -3.3899153    -1.945405  0.040059216   -3.3899153    1.4445102   363156 
 4313000   0.79751913   -3.3918076   -1.9454444  0.040157869   -3.3918076    1.4463632   363144 
 4314000   0.79801095   -3.3911682   -1.9437217  0.040392375   -3.3911682    1.4474465   363096 
 4315000   0.79733805    -3.391637   -1.9452477   0.03312686    -3.391637    1.4463893   363055 
 4316000   0.79505388   -3.3889603   -1.9465159   0.03358018   -3.3889603    1.4424444   363005 
 4317000   0.79501162   -3.3912826   -1.9487002  0.037825319   -3.3912826    1.4425823   362951 
 4318000   0.79484615   -3.3883304   -1.9460483   0.04218358   -3.3883304    1.4422821   362951 
 4319000   0.79525879   -3.3882544   -1.9450048  0.036448674   -3.3882544    1.4432495   362896 
 4320000    0.7956511    -3.388846   -1.9446417  0.035185812    -3.388846    1.4442043   362835 
 4321000   0.79623069   -3.3893301   -1.9439941   0.03868931   -3.3893301     1.445336   362815 
 4322000   0.79602671   -3.3899895   -1.9448924  0.037629805   -3.3899895    1.4450971   362782 
 4323000   0.79520623   -3.3867086   -1.9430333  0.036620514   -3.3867086    1.4436753   362765 
 4324000   0.79515314   -3.3865142   -1.9427522  0.042049951   -3.3865142     1.443762   362719 
 4325000   0.79500755   -3.3851486   -1.9414837   0.03637817   -3.3851486    1.4436648   362677 
 4326000   0.79453128   -3.3863946   -1.9434793  0.036128878   -3.3863946    1.4429153   362648 
 4327000   0.79392336   -3.3861649   -1.9441588  0.034532748   -3.3861649    1.4420061   362599 
 4328000   0.79301505   -3.3859706   -1.9454513  0.030159255   -3.3859706    1.4405193   362558 
 4329000   0.79543037   -3.3898897   -1.9448914  0.033245381   -3.3898897    1.4449984   362535 
 4330000   0.79261537   -3.3850677   -1.9449925  0.034584091   -3.3850677    1.4400753   362487 
 4331000   0.79555203   -3.3885991   -1.9430727  0.038849515   -3.3885991    1.4455264   362458 
 4332000   0.79524313   -3.3860577   -1.9410089  0.038962377   -3.3860577    1.4450489   362437 
 4333000   0.79442685   -3.3850266     -1.94123  0.041345667   -3.3850266    1.4437966   362379 
 4334000   0.79438481   -3.3855033   -1.9414284  0.036353386   -3.3855033    1.4440749   362290 
 4335000    0.7954267   -3.3859408   -1.9399838  0.034533223   -3.3859408    1.4459569   362293 
 4336000    0.7953231   -3.3868898   -1.9409776  0.034684229   -3.3868898    1.4459123   362257 
 4337000   0.79452009   -3.3833842   -1.9389358  0.042247824   -3.3833842    1.4444484   362258 
 4338000   0.79552837   -3.3864172   -1.9398482  0.034106673   -3.3864172     1.446569   362186 
 4339000   0.79435947   -3.3832076   -1.9386445  0.038587938   -3.3832076    1.4445631   362156 
 4340000   0.79350534   -3.3821343   -1.9388335  0.040882719   -3.3821343    1.4433008   362083 
 4341000   0.79438469   -3.3832598   -1.9382119  0.040236191   -3.3832598    1.4450479   362046 
 4342000   0.79390517   -3.3850046   -1.9406415  0.036751221   -3.3850046    1.4443631   361999 
 4343000   0.79324248    -3.385386   -1.9419574  0.038531471    -3.385386    1.4434286   361931 
 4344000     0.793237    -3.383456   -1.9402247  0.037128589    -3.383456    1.4432312   361978 
 4345000   0.79353992   -3.3822716    -1.938561  0.037639909   -3.3822716    1.4437106   361996 
 4346000   0.79264031     -3.38104   -1.9390179  0.039883762     -3.38104    1.4420221   362009 
 4347000    0.7927181   -3.3831709   -1.9407483  0.037978613   -3.3831709    1.4424226   361944 
 4348000   0.79154242   -3.3829444   -1.9424422  0.036077367   -3.3829444    1.4405023   361889 
 4349000   0.79246901   -3.3828738   -1.9405776  0.035621105   -3.3828738    1.4422961   361862 
 4350000   0.79332838   -3.3828299    -1.938838  0.033908703   -3.3828299    1.4439919   361829 
 4351000    0.7923636   -3.3811814   -1.9387144  0.033967151   -3.3811814     1.442467   361771 
 4352000    0.7932532   -3.3839233   -1.9395852  0.034025543   -3.3839233     1.444338   361708 
 4353000   0.79431484   -3.3844149   -1.9381239  0.039441578   -3.3844149     1.446291   361703 
 4354000    0.7930334   -3.3831177   -1.9391319   0.04339748   -3.3831177    1.4439857   361696 
 4355000   0.79579753   -3.3868864   -1.9376913  0.038698336   -3.3868864    1.4491951   361652 
 4356000   0.79389092   -3.3837085   -1.9376776  0.038231304   -3.3837085    1.4460309   361575 
 4357000   0.79482942   -3.3876709     -1.93951  0.036365076   -3.3876709    1.4481609   361470 
 4358000   0.79305842   -3.3856891   -1.9406031  0.038489922   -3.3856891    1.4450861   361432 
 4359000   0.79341231   -3.3862566   -1.9403337  0.035704954   -3.3862566    1.4459229   361384 
 4360000   0.79245389   -3.3867973   -1.9423732  0.038982659   -3.3867973    1.4444241   361322 
 4361000   0.79180692   -3.3834762   -1.9402113  0.038326413   -3.3834762    1.4432648   361317 
 4362000   0.79203903   -3.3843279   -1.9403083  0.040934718   -3.3843279    1.4440196   361234 
 4363000   0.79234896   -3.3856789   -1.9408102  0.040217358   -3.3856789    1.4448687   361163 
 4364000   0.79262289   -3.3840338   -1.9385175  0.040755803   -3.3840338    1.4455163   361126 
 4365000   0.79216857   -3.3854475   -1.9405397  0.036384655   -3.3854475    1.4449078   361071 
 4366000    0.7920335   -3.3853406   -1.9405191  0.040415058   -3.3853406    1.4448215   361031 
 4367000   0.79370947   -3.3881741   -1.9400587  0.035982035   -3.3881741    1.4481154   360972 
 4368000   0.79268969   -3.3857395   -1.9395247  0.041170455   -3.3857395    1.4462148   360982 
 4369000   0.79363518   -3.3881443   -1.9400682  0.039612552   -3.3881443    1.4480762   360948 
 4370000   0.79148534   -3.3853574   -1.9410479  0.037749311   -3.3853574    1.4443096   360909 
 4371000   0.79185256   -3.3872893   -1.9422455   0.03102207   -3.3872893    1.4450438   360893 
 4372000   0.79098431   -3.3853941   -1.9419668  0.039703195   -3.3853941    1.4434273   360901 
 4373000   0.79176269   -3.3857798   -1.9407198   0.03924471   -3.3857798    1.4450599   360848 
 4374000   0.79144434   -3.3839547   -1.9394998  0.040364333   -3.3839547    1.4444549   360854 
 4375000   0.79319847   -3.3855241   -1.9379801  0.044078244   -3.3855241     1.447544   360882 
 4376000   0.79262547   -3.3835709   -1.9369042  0.040150088   -3.3835709    1.4466667   360840 
 4377000   0.79136925   -3.3834933   -1.9389273  0.031312469   -3.3834933     1.444566   360792 
 4378000   0.78942813   -3.3807714   -1.9396727  0.038074971   -3.3807714    1.4410986   360773 
 4379000   0.79080249    -3.383158   -1.9394384   0.04049177    -3.383158    1.4437196   360745 
 4380000   0.78962109   -3.3816221   -1.9398715  0.032058083   -3.3816221    1.4417506   360698 
 4381000   0.78908348   -3.3817969   -1.9408321  0.032078256   -3.3817969    1.4409647   360649 
 4382000   0.78993274   -3.3843697   -1.9415661  0.036924481   -3.3843697    1.4428036   360577 
 4383000    0.7897541   -3.3823542   -1.9397688  0.035463132   -3.3823542    1.4425854   360550 
 4384000   0.79007167   -3.3818023   -1.9386769  0.040249348   -3.3818023    1.4431254   360560 
 4385000   0.79259644   -3.3855186   -1.9375044  0.037193684   -3.3855186    1.4480142   360491 
 4386000   0.79228675   -3.3852118   -1.9376509  0.040160777   -3.3852118    1.4475609   360463 
 4387000    0.7914039   -3.3838365   -1.9377763  0.036693851   -3.3838365    1.4460602   360435 
 4388000    0.7926825   -3.3853443   -1.9367911   0.03932856   -3.3853443    1.4485532   360396 
 4389000   0.79080682   -3.3843356   -1.9390296  0.038453246   -3.3843356     1.445306   360351 
 4390000   0.78932711   -3.3814049   -1.9386631  0.044058683   -3.3814049    1.4427418   360316 
 4391000   0.79046999   -3.3839046   -1.9389736  0.039882996   -3.3839046     1.444931   360291 
 4392000   0.78921547    -3.383994    -1.941156  0.039011833    -3.383994     1.442838   360241 
 4393000   0.78892343   -3.3831476   -1.9407274  0.035789758   -3.3831476    1.4424202   360212 
 4394000   0.78913235   -3.3851782   -1.9421596  0.035262745   -3.3851782    1.4430185   360158 
 4395000   0.79033247   -3.3855465   -1.9404177  0.037400736   -3.3855465    1.4451288   360179 
 4396000    0.7895065   -3.3840507   -1.9401074  0.040566925   -3.3840507    1.4439433   360098 
 4397000    0.7898663   -3.3849622   -1.9401884  0.037407213   -3.3849622    1.4447738   360055 
 4398000   0.79002342   -3.3858765   -1.9407029  0.034849467   -3.3858765    1.4451736   360027 
 4399000   0.78883625   -3.3843942   -1.9414203  0.036057448   -3.3843942    1.4429739   360034 
 4400000   0.78991724   -3.3850786    -1.940039  0.037039844   -3.3850786    1.4450396   360012 
 4401000   0.78807717   -3.3831514   -1.9413739  0.036906223   -3.3831514    1.4417776   359986 
 4402000   0.79036631   -3.3853664   -1.9393447  0.036875142   -3.3853664    1.4460218   359972 
 4403000   0.79026408   -3.3836977   -1.9379032  0.036871514   -3.3836977    1.4457946   359982 
 4404000   0.79040777    -3.382235   -1.9361535  0.034821045    -3.382235    1.4460816   359976 
 4405000   0.79101653   -3.3851377   -1.9377856  0.036492176   -3.3851377    1.4473521   359937 
 4406000    0.7898367   -3.3829761    -1.937835  0.040553805   -3.3829761    1.4451411   359950 
 4407000   0.79007946   -3.3830928   -1.9374473  0.041776158   -3.3830928    1.4456456   359935 
 4408000   0.78954289    -3.382016   -1.9373362  0.035967499    -3.382016    1.4446798   359931 
 4409000   0.78919744   -3.3812865   -1.9370582  0.039103487   -3.3812865    1.4442283   359886 
 4410000   0.78830765   -3.3810454   -1.9383573  0.036443505   -3.3810454    1.4426882   359864 
 4411000    0.7885101   -3.3816564   -1.9384734  0.041315241   -3.3816564     1.443183   359833 
 4412000    0.7894083     -3.38326   -1.9385093  0.031911625     -3.38326    1.4447507   359852 
 4413000   0.78889579   -3.3816927    -1.937555  0.039657128   -3.3816927    1.4441377   359771 
 4414000   0.79026933   -3.3842334   -1.9375773  0.040735038   -3.3842334    1.4466561   359770 
 4415000   0.79037742   -3.3848628   -1.9378398   0.03875965   -3.3848628    1.4470229   359728 
 4416000   0.79084436    -3.385286   -1.9373961  0.038358086    -3.385286    1.4478899   359725 
 4417000   0.78968402   -3.3839447   -1.9378776  0.036815767   -3.3839447     1.446067   359650 
 4418000    0.7877065   -3.3802134   -1.9376593  0.036000719   -3.3802134    1.4425541   359623 
 4419000   0.78869045    -3.382176   -1.9375308  0.039049782    -3.382176    1.4446453   359551 
 4420000   0.78863137   -3.3836248   -1.9388989  0.034632733   -3.3836248    1.4447259   359504 
 4421000   0.78845986   -3.3861066   -1.9413493  0.033954255   -3.3861066    1.4447573   359418 
 4422000   0.78970996   -3.3872285    -1.940257   0.03550901   -3.3872285    1.4469715   359437 
 4423000   0.79043307   -3.3869055   -1.9385245  0.037115201   -3.3869055     1.448381   359416 
 4424000   0.78900907   -3.3846302   -1.9387217  0.037107523   -3.3846302    1.4459085   359382 
 4425000   0.78904735   -3.3853939   -1.9392865   0.03842365   -3.3853939    1.4461074   359350 
 4426000   0.78826413   -3.3860851    -1.941196  0.037779102   -3.3860851    1.4448891   359296 
 4427000   0.78820598   -3.3873718   -1.9424566  0.037545298   -3.3873718    1.4449152   359263 
 4428000   0.78862649   -3.3862259   -1.9403707  0.039862836   -3.3862259    1.4458551   359221 
 4429000   0.78865705   -3.3864863   -1.9406717  0.032820407   -3.3864863    1.4458145   359245 
 4430000   0.78823225   -3.3859985   -1.9407334  0.039637572   -3.3859985    1.4452651   359188 
 4431000   0.78848388   -3.3876233   -1.9415465  0.038864329   -3.3876233    1.4460767   359101 
 4432000   0.78806984   -3.3856521   -1.9401616  0.039531682   -3.3856521    1.4454905   359058 
 4433000   0.78821963   -3.3863016    -1.940327  0.039653999   -3.3863016    1.4459746   359006 
 4434000   0.78753267   -3.3851929   -1.9405348  0.040719973   -3.3851929    1.4446581   359020 
 4435000   0.78843246   -3.3864705   -1.9399724   0.03397768   -3.3864705     1.446498   358973 
 4436000   0.78700452   -3.3830732   -1.9391708  0.035629522   -3.3830732    1.4439024   358967 
 4437000    0.7870626   -3.3829645   -1.9389515  0.041969246   -3.3829645     1.444013   358966 
 4438000   0.78707525   -3.3836274   -1.9393699   0.04225663   -3.3836274    1.4442575   358911 
 4439000   0.78651032   -3.3824341   -1.9391006  0.038478711   -3.3824341    1.4433334   358883 
 4440000   0.78733645   -3.3848774   -1.9399594  0.039721639   -3.3848774    1.4449179   358866 
 4441000   0.78728226   -3.3850077   -1.9399556  0.037462629   -3.3850077     1.445052   358808 
 4442000   0.78722274   -3.3850236   -1.9400285  0.039031763   -3.3850236    1.4449951   358795 
 4443000   0.78914927   -3.3874789   -1.9388466  0.037704353   -3.3874789    1.4486323   358770 
 4444000   0.78706493   -3.3861339   -1.9411989  0.036078723   -3.3861339     1.444935   358738 
 4445000   0.78629015   -3.3826956   -1.9390019  0.038731435   -3.3826956    1.4436937   358693 
 4446000   0.78645328   -3.3804911   -1.9363811   0.03671029   -3.3804911      1.44411   358664 
 4447000   0.78694438   -3.3819873    -1.936907  0.037216323   -3.3819873    1.4450803   358647 
 4448000   0.78692619   -3.3805895   -1.9355104  0.035646581   -3.3805895    1.4450791   358639 
 4449000   0.78767783   -3.3819544    -1.935023  0.040649243   -3.3819544    1.4469314   358522 
 4450000   0.78524303   -3.3789402   -1.9363849  0.040338498   -3.3789402    1.4425553   358498 
 4451000   0.78754648    -3.381757   -1.9347803  0.035625097    -3.381757    1.4469767   358451 
 4452000   0.78825102   -3.3828883   -1.9344878  0.033371689   -3.3828883    1.4484004   358419 
 4453000   0.78629644   -3.3804066   -1.9355413  0.036203423   -3.3804066    1.4448654   358405 
 4454000   0.78676084   -3.3795997   -1.9338164  0.035714151   -3.3795997    1.4457833   358389 
 4455000   0.78649076   -3.3806035   -1.9352762  0.035362096   -3.3806035    1.4453273   358379 
 4456000   0.78653902   -3.3796598   -1.9341955  0.037378053   -3.3796598    1.4454644   358367 
 4457000   0.78633305   -3.3779095   -1.9326543  0.036097244   -3.3779095    1.4452552   358325 
 4458000   0.78616752   -3.3776538     -1.93236  0.034110797   -3.3776538    1.4452938   358240 
 4459000   0.78520172   -3.3772549   -1.9333778  0.037565072   -3.3772549     1.443877   358151 
 4460000   0.78483573   -3.3781134   -1.9347522  0.034270544   -3.3781134    1.4433612   358112 
 4461000   0.78540076    -3.376788   -1.9321658  0.037698068    -3.376788    1.4446222   358057 
 4462000   0.78710912   -3.3788418   -1.9307377  0.035690199   -3.3788418    1.4481042   357973 
 4463000   0.78675973   -3.3781602   -1.9305209  0.040446157   -3.3781602    1.4476393   357929 
 4464000   0.78634802   -3.3770201   -1.9300737   0.03879717   -3.3770201    1.4469464   357913 
 4465000   0.78644321   -3.3783907   -1.9311761    0.0363957   -3.3783907    1.4472146   357890 
 4466000   0.78581023   -3.3770123     -1.93091  0.036830854   -3.3770123    1.4461023   357877 
 4467000   0.78607997   -3.3773525   -1.9306002  0.036114237   -3.3773525    1.4467523   357839 
 4468000   0.78582846   -3.3785522   -1.9321253  0.037997343   -3.3785522    1.4464269   357805 
 4469000   0.78453278    -3.376992   -1.9327119  0.038972158    -3.376992    1.4442801   357746 
 4470000   0.78538266   -3.3784309   -1.9324851  0.034028356   -3.3784309    1.4459458   357721 
 4471000   0.78500931   -3.3788076   -1.9332501  0.038345597   -3.3788076    1.4455574   357647 
 4472000   0.78585762   -3.3813944   -1.9340604  0.036872977   -3.3813944     1.447334   357594 
 4473000   0.78415064   -3.3784158   -1.9340479  0.037541157   -3.3784158     1.444368   357550 
 4474000   0.78330707   -3.3785395   -1.9355316  0.038825538   -3.3785395    1.4430079   357502 
 4475000   0.78360206   -3.3783617   -1.9348063  0.037648913   -3.3783617    1.4435554   357501 
 4476000   0.78404474   -3.3792941   -1.9347171  0.037838164   -3.3792941    1.4445769   357450 
 4477000   0.78523519   -3.3804499   -1.9336593   0.03404749   -3.3804499    1.4467905   357445 
 4478000   0.78494659   -3.3810132   -1.9347665  0.040189271   -3.3810132    1.4462467   357448 
 4479000   0.78362207   -3.3789053   -1.9350304  0.037486116   -3.3789053    1.4438749   357431 
 4480000   0.78377396   -3.3799699   -1.9353948  0.038625891   -3.3799699    1.4445751   357327 
 4481000   0.78347269   -3.3807352   -1.9366304  0.038438524   -3.3807352    1.4441047   357306 
 4482000   0.78264827   -3.3813455   -1.9386311  0.036820275   -3.3813455    1.4427143   357274 
 4483000   0.78211622   -3.3788549   -1.9370042  0.033814527   -3.3788549    1.4418506   357245 
 4484000   0.78236182    -3.379577    -1.937096   0.03904051    -3.379577    1.4424811   357201 
 4485000   0.78335409   -3.3812205   -1.9365864  0.032820452   -3.3812205    1.4446341   357121 
 4486000   0.78384235   -3.3834254   -1.9378221  0.036736203   -3.3834254    1.4456033   357104 
 4487000   0.78406991   -3.3840659    -1.937974   0.04275352   -3.3840659    1.4460918   357087 
 4488000   0.78518049    -3.384205   -1.9358986  0.043620744    -3.384205    1.4483064   357046 
 4489000   0.78474657   -3.3836002    -1.936082  0.042886825   -3.3836002    1.4475182   357043 
 4490000   0.78670232   -3.3864041   -1.9351198  0.036676349   -3.3864041    1.4512843   357004 
 4491000   0.78543063   -3.3850936   -1.9361269  0.038065622   -3.3850936    1.4489667   356997 
 4492000   0.78481593   -3.3834904   -1.9353697  0.037514617   -3.3834904    1.4481207   356926 
 4493000   0.78444902   -3.3813182   -1.9335175  0.043744827   -3.3813182    1.4478006   356838 
 4494000   0.78399418   -3.3820937   -1.9348933  0.042735105   -3.3820937    1.4472004   356779 
 4495000   0.78232052    -3.383089   -1.9389618  0.039673081    -3.383089    1.4441272   356775 
 4496000   0.78269437   -3.3840333   -1.9390136  0.036084848   -3.3840333    1.4450198   356725 
 4497000   0.78260443   -3.3845203   -1.9395936  0.036903207   -3.3845203    1.4449267   356707 
 4498000   0.78147764   -3.3831555   -1.9403659  0.037428087   -3.3831555    1.4427896   356721 
 4499000   0.78206111   -3.3850678   -1.9409742  0.031098974   -3.3850678    1.4440936   356665 
 4500000    0.7820231   -3.3841414   -1.9400452  0.035234597   -3.3841414    1.4440962   356647 
 4501000   0.78136018   -3.3829029   -1.9399903  0.033793845   -3.3829029    1.4429125   356637 
 4502000   0.78207021    -3.382639   -1.9383221  0.032967041    -3.382639    1.4443169   356614 
 4503000   0.78162816   -3.3830034   -1.9393936  0.034383971   -3.3830034    1.4436098   356587 
 4504000   0.78098324   -3.3812231   -1.9387275  0.039092512   -3.3812231    1.4424955   356568 
 4505000   0.78188306   -3.3828011   -1.9383843  0.038631528   -3.3828011    1.4444168   356504 
 4506000   0.78029146   -3.3816842   -1.9400499  0.033644218   -3.3816842    1.4416343   356465 
 4507000   0.78176418   -3.3837592   -1.9394081  0.034532053   -3.3837592    1.4443511   356466 
 4508000   0.78259833   -3.3834677   -1.9374659  0.032418268   -3.3834677    1.4460018   356439 
 4509000   0.78251445   -3.3838622   -1.9376868   0.03369459   -3.3838622    1.4461754   356358 
 4510000   0.78189453   -3.3835852   -1.9382878  0.035742961   -3.3835852    1.4452975   356292 
 4511000   0.78094891   -3.3820775   -1.9384145  0.036542481   -3.3820775     1.443663   356264 
 4512000   0.77980369   -3.3808721   -1.9393262  0.039314271   -3.3808721    1.4415459   356264 
 4513000   0.78132571   -3.3833053   -1.9388971  0.033855909   -3.3833053    1.4444082   356252 
 4514000   0.77985455   -3.3817154   -1.9398528  0.030858382   -3.3817154    1.4418625   356209 
 4515000   0.78062472   -3.3841371   -1.9406926  0.034547441   -3.3841371    1.4434445   356170 
 4516000   0.77844268   -3.3793162   -1.9399428   0.03675054   -3.3793162    1.4393734   356179 
 4517000   0.78054876   -3.3825353   -1.9389881  0.038376987   -3.3825353    1.4435472   356110 
 4518000   0.77910698   -3.3792529   -1.9383195  0.038213396   -3.3792529    1.4409334   356097 
 4519000    0.7802253   -3.3811174   -1.9380427  0.036489307   -3.3811174    1.4430747   356079 
 4520000    0.7809754   -3.3823052   -1.9377133   0.03587191   -3.3823052    1.4445918   356047 
 4521000   0.78020389   -3.3818978   -1.9386803  0.032282494   -3.3818978    1.4432174   356034 
 4522000   0.77963611   -3.3805556   -1.9384087  0.036382997   -3.3805556    1.4421469   356039 
 4523000   0.78005431   -3.3811485   -1.9381145  0.035839245   -3.3811485     1.443034   356011 
 4524000   0.78197641   -3.3833646   -1.9368237  0.034956181   -3.3833646    1.4465409   356023 
 4525000   0.78108412   -3.3805479   -1.9354344  0.037357007   -3.3805479    1.4451136   355968 
 4526000   0.78003018   -3.3819264   -1.9384343  0.039041561   -3.3819264    1.4434921   355887 
 4527000   0.77983376   -3.3825551    -1.939536  0.036945205   -3.3825551    1.4430191   355914 
 4528000   0.78080859   -3.3833618   -1.9383521  0.039993609   -3.3833618    1.4450097   355868 
 4529000   0.78078513   -3.3825807   -1.9376468  0.037777287   -3.3825807    1.4449339   355876 
 4530000   0.78051624   -3.3810977    -1.936556  0.035038535   -3.3810977    1.4445418   355850 
 4531000    0.7806871   -3.3816028   -1.9367042  0.036485749   -3.3816028    1.4448986   355840 
 4532000   0.77932571   -3.3793939   -1.9367515  0.035921915   -3.3793939    1.4426424   355775 
 4533000   0.78016715   -3.3827148   -1.9383361  0.033642989   -3.3827148    1.4443787   355731 
 4534000   0.78011078   -3.3825613   -1.9382139  0.034995794   -3.3825613    1.4443474   355713 
 4535000    0.7807197   -3.3832744   -1.9376248  0.032012048   -3.3832744    1.4456496   355670 
 4536000   0.77823479   -3.3781135   -1.9370936   0.04031079   -3.3781135    1.4410199   355677 
 4537000   0.77984654   -3.3810524   -1.9370075  0.035460829   -3.3810524    1.4440449   355667 
 4538000   0.78048527   -3.3820522   -1.9368611  0.042405493   -3.3820522    1.4451911   355676 
 4539000   0.78134588    -3.382221   -1.9353143  0.038032228    -3.382221    1.4469067   355646 
 4540000   0.78060429   -3.3818505   -1.9361219  0.039112574   -3.3818505    1.4457286   355598 
 4541000   0.78085184   -3.3828242   -1.9365274  0.036835217   -3.3828242    1.4462968   355571 
 4542000    0.7796645   -3.3809889   -1.9367856  0.040674223   -3.3809889    1.4442032   355545 
 4543000    0.7795671   -3.3814924   -1.9371608  0.038417596   -3.3814924    1.4443316   355469 
 4544000   0.77960065   -3.3820001   -1.9375048  0.039494698   -3.3820001    1.4444953   355444 
 4545000     0.780201   -3.3826192   -1.9367512  0.036974712   -3.3826192     1.445868   355380 
 4546000   0.78017191    -3.383019   -1.9371398  0.034845935    -3.383019    1.4458792   355364 
 4547000   0.77941049   -3.3810868   -1.9363463  0.035971001   -3.3810868    1.4447405   355297 
 4548000   0.77823047   -3.3812443   -1.9385815  0.031423358   -3.3812443    1.4426628   355270 
 4549000   0.77939643   -3.3806747   -1.9358423   0.03705197   -3.3806747    1.4448323   355268 
 4550000   0.77970696   -3.3823171   -1.9366242  0.042177741   -3.3823171    1.4456928   355198 
 4551000   0.77861699   -3.3823403   -1.9385465  0.036674623   -3.3823403    1.4437938   355168 
 4552000   0.77899906   -3.3822196   -1.9377213  0.037424486   -3.3822196    1.4444982   355169 
 4553000   0.77849749   -3.3817471   -1.9380366  0.038127589   -3.3817471    1.4437104   355134 
 4554000   0.78024459   -3.3824264   -1.9354027  0.036049938   -3.3824264    1.4470238   355116 
 4555000   0.77957195   -3.3802856   -1.9343179  0.038034608   -3.3802856    1.4459677   355069 
 4556000   0.77940417   -3.3811211   -1.9353221  0.041741608   -3.3811211     1.445799   355034 
 4557000   0.78138375   -3.3834406   -1.9339858  0.044182803   -3.3834406    1.4494548   355038 
 4558000   0.78059643      -3.3824   -1.9342222  0.037250758      -3.3824    1.4481779   354993 
 4559000    0.7791465   -3.3810707   -1.9353344  0.040598342   -3.3810707    1.4457363   354932 
 4560000   0.77883118   -3.3795452   -1.9343247  0.037668822   -3.3795452    1.4452205   354915 
 4561000   0.77813093   -3.3785747   -1.9345437  0.040930441   -3.3785747    1.4440309   354888 
 4562000   0.77914584   -3.3789169   -1.9330473  0.035231377   -3.3789169    1.4458696   354899 
 4563000   0.77881972    -3.379267   -1.9339049  0.040260505    -3.379267    1.4453621   354875 
 4564000   0.77903869   -3.3789547   -1.9330966  0.036314986   -3.3789547    1.4458581   354853 
 4565000   0.77838245   -3.3786079   -1.9339148    0.0360319   -3.3786079    1.4446931   354840 
 4566000   0.77937535   -3.3802896   -1.9335049  0.035187376   -3.3802896    1.4467846   354779 
 4567000   0.77968564   -3.3806886   -1.9332219  0.040130185   -3.3806886    1.4474667   354753 
 4568000   0.77951517   -3.3795952   -1.9323103  0.044364883   -3.3795952    1.4472849   354720 
 4569000   0.77739255   -3.3769193   -1.9334614  0.039008559   -3.3769193    1.4434579   354692 
 4570000    0.7785332   -3.3795411   -1.9338797  0.039520542   -3.3795411    1.4456614   354671 
 4571000   0.77968055   -3.3808977   -1.9329466  0.036785331   -3.3808977    1.4479512   354632 
 4572000   0.77742131   -3.3772391   -1.9335162  0.040764406   -3.3772391    1.4437229   354640 
 4573000   0.77817267   -3.3785859   -1.9334758  0.037743935   -3.3785859    1.4451101   354642 
 4574000   0.77842678   -3.3795975   -1.9336649  0.035395363   -3.3795975    1.4459326   354556 
 4575000   0.77830814   -3.3785665   -1.9328216  0.035468333   -3.3785665    1.4457449   354548 
 4576000   0.77858314   -3.3800869   -1.9335701  0.036398912   -3.3800869    1.4465168   354484 
 4577000   0.77833914   -3.3806134   -1.9344683   0.03921997   -3.3806134    1.4461451   354464 
 4578000   0.77852552   -3.3795513   -1.9328681  0.036997191   -3.3795513    1.4466832   354417 
 4579000   0.77811443   -3.3780287   -1.9317462  0.040569658   -3.3780287    1.4462825   354328 
 4580000   0.77723925   -3.3769802   -1.9321735  0.039547225   -3.3769802    1.4448067   354291 
 4581000    0.7761406    -3.376916    -1.934005  0.040100616    -3.376916     1.442911   354255 
 4582000   0.77775506    -3.379774   -1.9337759  0.035035488    -3.379774    1.4459981   354234 
 4583000   0.77721808   -3.3784512   -1.9336024  0.040812356   -3.3784512    1.4448489   354271 
 4584000   0.77742771   -3.3788301   -1.9334079  0.042563367   -3.3788301    1.4454222   354226 
 4585000   0.77828979   -3.3807303   -1.9334847  0.033381869   -3.3807303    1.4472456   354172 
 4586000   0.77881461   -3.3827213   -1.9343893  0.039970188   -3.3827213    1.4483319   354145 
 4587000   0.77770674   -3.3820781   -1.9355695  0.035547136   -3.3820781    1.4465086   354087 
 4588000   0.77711734   -3.3804972   -1.9350032   0.03919927   -3.3804972     1.445494   354067 
 4589000   0.77707406     -3.37854   -1.9330082  0.037815319     -3.37854    1.4455319   354038 
 4590000   0.77669186   -3.3775932   -1.9328213    0.0413645   -3.3775932    1.4447719   354050 
 4591000    0.7771252   -3.3793712   -1.9334992  0.036324181   -3.3793712     1.445872   353978 
 4592000   0.77809858   -3.3799918   -1.9320797  0.039172374   -3.3799918    1.4479121   353922 
 4593000   0.77849338    -3.380623   -1.9318657  0.035874613    -3.380623    1.4487573   353895 
 4594000   0.77898583   -3.3816278   -1.9320074  0.037841927   -3.3816278    1.4496205   353908 
 4595000   0.77657807   -3.3790462   -1.9337308  0.040661836   -3.3790462    1.4453155   353865 
 4596000   0.77603991   -3.3783309   -1.9337884  0.038861709   -3.3783309    1.4445425   353809 
 4597000   0.77640647   -3.3786093   -1.9332497  0.036366833   -3.3786093    1.4453596   353776 
 4598000   0.77785056   -3.3804876   -1.9323374  0.033217204   -3.3804876    1.4481503   353751 
 4599000   0.77625868   -3.3779286   -1.9327502  0.036676836   -3.3779286    1.4451784   353753 
 4600000   0.77643309   -3.3787298   -1.9330918  0.038395034   -3.3787298     1.445638   353720 
 4601000   0.77725607   -3.3792288   -1.9321281  0.036701576   -3.3792288    1.4471007   353737 
 4602000   0.77507063    -3.375667   -1.9325372  0.033683746    -3.375667    1.4431298   353713 
 4603000   0.77578104   -3.3766341   -1.9319161  0.042433688   -3.3766341     1.444718   353648 
 4604000   0.77611027    -3.377402   -1.9319851  0.032103169    -3.377402     1.445417   353627 
 4605000   0.77426805   -3.3744999   -1.9323548  0.035603897   -3.3744999    1.4421451   353588 
 4606000   0.77484284   -3.3737962   -1.9304663  0.040761332   -3.3737962      1.44333   353560 
 4607000   0.77472806   -3.3755538   -1.9322621  0.039863606   -3.3755538    1.4432917   353517 
 4608000   0.77403205   -3.3756084   -1.9333972  0.040290161   -3.3756084    1.4422113   353464 
 4609000   0.77407398   -3.3741378   -1.9318566  0.036573383   -3.3741378    1.4422812   353466 
 4610000   0.77512028   -3.3754705   -1.9312929  0.034622717   -3.3754705    1.4441776   353479 
 4611000   0.77449945   -3.3724341    -1.929307  0.034633783   -3.3724341    1.4431271   353453 
 4612000   0.77547445   -3.3736209   -1.9284072  0.039473156   -3.3736209    1.4452136   353387 
 4613000   0.77574235   -3.3745549   -1.9286293  0.042128282   -3.3745549    1.4459257   353335 
 4614000   0.77484902   -3.3751325   -1.9306839  0.040744175   -3.3751325    1.4444486   353289 
 4615000   0.77406068   -3.3732889   -1.9301383  0.036956645   -3.3732889    1.4431506   353247 
 4616000   0.77423652   -3.3731306   -1.9294723  0.040677381   -3.3731306    1.4436583   353203 
 4617000   0.77360329    -3.371566    -1.928778  0.037352854    -3.371566     1.442788   353127 
 4618000   0.77376634   -3.3714756    -1.928355  0.035003403   -3.3714756    1.4431207   353120 
 4619000   0.77396831   -3.3731109   -1.9292456  0.035998714   -3.3731109    1.4438654   353030 
 4620000    0.7746256   -3.3743522   -1.9290969  0.035745512   -3.3743522    1.4452553   352990 
 4621000   0.77419136   -3.3728002   -1.9280972  0.038132092   -3.3728002     1.444703   352927 
 4622000    0.7743061   -3.3731508   -1.9280535  0.038034918   -3.3731508    1.4450973   352883 
 4623000   0.77290789   -3.3706941   -1.9280061  0.039141464   -3.3706941    1.4426881   352834 
 4624000   0.77439963   -3.3739397   -1.9282336  0.038002095   -3.3739397    1.4457061   352777 
 4625000   0.77392344    -3.372663   -1.9277926  0.044749667    -3.372663    1.4448703   352764 
 4626000   0.77392054   -3.3743708   -1.9293461  0.033913915   -3.3743708    1.4450247   352725 
 4627000   0.77372055   -3.3753221   -1.9305643  0.038591563   -3.3753221    1.4447578   352699 
 4628000    0.7733125   -3.3735986   -1.9294186  0.040114758   -3.3735986    1.4441801   352654 
 4629000   0.77242079   -3.3737156   -1.9308244  0.035571763   -3.3737156    1.4428912   352562 
 4630000   0.77216683   -3.3733953   -1.9310194  0.035320005   -3.3733953    1.4423759   352572 
 4631000   0.77008042   -3.3719039   -1.9332703  0.038592511   -3.3719039    1.4386336   352534 
 4632000   0.77164024   -3.3744983   -1.9328402   0.03763578   -3.3744983     1.441658   352507 
 4633000   0.77204624   -3.3735961   -1.9310486   0.03405056   -3.3735961    1.4425475   352475 
 4634000   0.77260482   -3.3741247   -1.9302508  0.038462299   -3.3741247    1.4438739   352406 
 4635000   0.77306441   -3.3749997   -1.9301153  0.032200918   -3.3749997    1.4448845   352369 
 4636000   0.77361259    -3.374086   -1.9280334   0.03754677    -3.374086    1.4460527   352334 
 4637000   0.77271117   -3.3738561   -1.9292916  0.040441658   -3.3738561    1.4445645   352286 
 4638000   0.77214545   -3.3722868   -1.9286119  0.040656757   -3.3722868    1.4436749   352245 
 4639000   0.77346951   -3.3739572   -1.9278067  0.036090297   -3.3739572    1.4461505   352245 
 4640000   0.77389448   -3.3764541   -1.9291845  0.039217194   -3.3764541    1.4472697   352166 
 4641000   0.77206877   -3.3753036   -1.9313826  0.037235237   -3.3753036     1.443921   352150 
 4642000   0.77061118   -3.3733684   -1.9321079  0.033622106   -3.3733684    1.4412605   352134 
 4643000   0.76952148   -3.3721132   -1.9327518  0.032006057   -3.3721132    1.4393614   352100 
 4644000   0.77074124    -3.373292   -1.9315589  0.034863331    -3.373292     1.441733   352078 
 4645000   0.77184835   -3.3747019   -1.9307831  0.034922336   -3.3747019    1.4439188   352050 
 4646000   0.77178293    -3.374193   -1.9303638  0.034829151    -3.374193    1.4438292   352042 
 4647000   0.77293167   -3.3759608   -1.9298799  0.036188497   -3.3759608    1.4460809   352017 
 4648000   0.77337885   -3.3739168    -1.926769  0.037749865   -3.3739168    1.4471478   351961 
 4649000    0.7725127   -3.3735618   -1.9278499  0.042967425   -3.3735618    1.4457119   351916 
 4650000   0.77212208   -3.3725293   -1.9275033  0.041525555   -3.3725293     1.445026   351905 
 4651000   0.77327748   -3.3738413   -1.9265831  0.032358811   -3.3738413    1.4472583   351888 
 4652000   0.77455058   -3.3755748    -1.925633  0.037727147   -3.3755748    1.4499418   351815 
 4653000   0.77321337   -3.3741538   -1.9267523  0.040048741   -3.3741538    1.4474015   351824 
 4654000   0.77322073    -3.376519   -1.9288897  0.037843101    -3.376519    1.4476293   351772 
 4655000   0.77175238   -3.3752173   -1.9300003  0.039021397   -3.3752173    1.4452171   351690 
 4656000   0.77155918   -3.3742789   -1.9293948  0.036419865   -3.3742789    1.4448841   351683 
 4657000   0.77140472   -3.3754184    -1.930536   0.03556518   -3.3754184    1.4448824   351613 
 4658000    0.7720819   -3.3768646   -1.9304546  0.037472556   -3.3768646    1.4464099   351550 
 4659000    0.7714157   -3.3768546   -1.9314913  0.040321824   -3.3768546    1.4453634   351501 
 4660000   0.77068741   -3.3760212   -1.9319361  0.042723497   -3.3760212    1.4440851   351480 
 4661000   0.77093537   -3.3757584   -1.9311676  0.035940124   -3.3757584    1.4445908   351470 
 4662000   0.77315012   -3.3759571    -1.927208  0.044586062   -3.3759571    1.4487491   351468 
 4663000   0.77305839   -3.3764685   -1.9277471  0.037234046   -3.3764685    1.4487214   351433 
 4664000   0.77317932   -3.3782965   -1.9292618  0.032731957   -3.3782965    1.4490347   351412 
 4665000   0.77231637   -3.3768458   -1.9293832  0.041372396   -3.3768458    1.4474627   351401 
 4666000   0.77453469   -3.3796135   -1.9277454  0.037572931   -3.3796135    1.4518681   351341 
 4667000   0.77179223   -3.3750532   -1.9281282  0.040142291   -3.3750532    1.4469251   351293 
 4668000   0.77147532   -3.3758354   -1.9294304  0.039133393   -3.3758354     1.446405   351275 
 4669000   0.77034589   -3.3748402    -1.930454  0.039175402   -3.3748402    1.4443862   351251 
 4670000   0.77005828   -3.3751976   -1.9312397    0.0387929   -3.3751976    1.4439579   351224 
 4671000   0.76948313    -3.374071   -1.9310396  0.037252037    -3.374071    1.4430315   351187 
 4672000   0.77011546   -3.3755113   -1.9312446  0.034998392   -3.3755113    1.4442666   351175 
 4673000    0.7691035   -3.3733499   -1.9310139  0.037995941   -3.3733499     1.442336   351183 
 4674000   0.76866472   -3.3720314   -1.9305059  0.036486123   -3.3720314    1.4415254   351180 
 4675000   0.76928188   -3.3736252    -1.930663   0.03559093   -3.3736252    1.4429622   351112 
 4676000   0.76949988   -3.3738428   -1.9302044  0.034678799   -3.3738428    1.4436384   351047 
 4677000   0.76838387   -3.3727481   -1.9311254  0.037401935   -3.3727481    1.4416227   351028 
 4678000   0.76966993   -3.3726225   -1.9285006  0.040397698   -3.3726225     1.444122   351007 
 4679000   0.77154698   -3.3762415   -1.9282718  0.038374316   -3.3762415    1.4479697   350928 
 4680000   0.76952988   -3.3725837   -1.9282307  0.039606627   -3.3725837     1.444353   350887 
 4681000   0.76804464   -3.3712766   -1.9294606   0.04101251   -3.3712766    1.4418159   350826 
 4682000   0.77009392   -3.3738093   -1.9279733  0.044981313   -3.3738093    1.4458361   350784 
 4683000   0.77181112   -3.3775665   -1.9284982   0.03982323   -3.3775665    1.4490683   350782 
 4684000    0.7697754   -3.3752303   -1.9299634   0.03793403   -3.3752303    1.4452669   350777 
 4685000   0.76971923    -3.374923   -1.9296462  0.035464856    -3.374923    1.4452768   350749 
 4686000   0.76737833    -3.370826   -1.9298625  0.039345801    -3.370826    1.4409635   350729 
 4687000   0.76859272   -3.3724447   -1.9289498  0.036842582   -3.3724447    1.4434949   350668 
 4688000   0.76886981    -3.372383   -1.9283265  0.033306676    -3.372383    1.4440565   350658 
 4689000   0.76846463   -3.3716761   -1.9283641  0.038727856   -3.3716761     1.443312   350654 
 4690000   0.77011744    -3.373793   -1.9271581  0.037202402    -3.373793    1.4466349   350601 
 4691000   0.77090543   -3.3745084     -1.92629  0.042720483   -3.3745084    1.4482184   350576 
 4692000   0.77168217   -3.3770929   -1.9271135   0.03668477   -3.3770929    1.4499795   350503 
 4693000   0.77008853   -3.3740103   -1.9269262  0.037275821   -3.3740103    1.4470842   350479 
 4694000    0.7693475   -3.3722325   -1.9265243  0.040010905   -3.3722325    1.4457082   350475 
 4695000   0.77019657   -3.3741491   -1.9266678  0.037159927   -3.3741491    1.4474813   350432 
 4696000   0.76873229   -3.3714767   -1.9266732  0.037298023   -3.3714767    1.4448036   350414 
 4697000   0.76882213   -3.3716711   -1.9264718  0.041009324   -3.3716711    1.4451993   350359 
 4698000   0.76918178   -3.3729225   -1.9270801  0.037739579   -3.3729225    1.4458423   350367 
 4699000   0.76875442   -3.3723603   -1.9273419  0.042193942   -3.3723603    1.4450184   350372 
 4700000   0.76823228   -3.3713099   -1.9271658  0.031907476   -3.3713099    1.4441441   350346 
 4701000   0.76750985   -3.3706151   -1.9277426  0.032697719   -3.3706151    1.4428725   350325 
 4702000   0.76751484   -3.3695852    -1.926765  0.036323644   -3.3695852    1.4428201   350340 
 4703000   0.76884793   -3.3719172   -1.9266158  0.031922734   -3.3719172    1.4453014   350346 
 4704000   0.76879802   -3.3724955   -1.9272755  0.036023982   -3.3724955    1.4452199   350343 
 4705000   0.76917353   -3.3702786   -1.9242413  0.035265648   -3.3702786    1.4460373   350316 
 4706000   0.76801046   -3.3711917   -1.9270029  0.039230919   -3.3711917    1.4441888   350234 
 4707000   0.76916154   -3.3723077   -1.9256983  0.039623848   -3.3723077    1.4466094   350172 
 4708000   0.76911416   -3.3720545   -1.9254599   0.04460633   -3.3720545    1.4465946   350154 
 4709000   0.76917876    -3.372296   -1.9255468  0.045309201    -3.372296    1.4467492   350146 
 4710000   0.76855602    -3.372916   -1.9271234  0.040551759    -3.372916    1.4457926   350094 
 4711000   0.76819422   -3.3721764   -1.9269818  0.040788698   -3.3721764    1.4451945   350074 
 4712000   0.76667056   -3.3704305   -1.9280117  0.038720046   -3.3704305    1.4424187   350052 
 4713000   0.76775769   -3.3723669   -1.9279153  0.031895792   -3.3723669    1.4444517   350055 
 4714000   0.76687887   -3.3696325   -1.9267641  0.033829029   -3.3696325    1.4428684   350038 
 4715000   0.76612635   -3.3697372   -1.9279594  0.041209031   -3.3697372    1.4417779   349959 
 4716000   0.76709724   -3.3700864   -1.9264607  0.038060524   -3.3700864    1.4436257   349954 
 4717000   0.76815867   -3.3717254   -1.9259618  0.039982648   -3.3717254    1.4457637   349920 
 4718000   0.76766257   -3.3725332   -1.9276371  0.038127008   -3.3725332     1.444896   349904 
 4719000   0.76855662   -3.3737528   -1.9268928  0.037470122   -3.3737528      1.44686   349836 
 4720000   0.76796762   -3.3724885   -1.9265266  0.042571089   -3.3724885    1.4459619   349785 
 4721000   0.76797818   -3.3722863    -1.926474  0.038959615   -3.3722863    1.4458123   349826 
 4722000   0.76873197   -3.3722261   -1.9249285  0.038939569   -3.3722261    1.4472976   349810 
 4723000   0.76823097   -3.3712399    -1.924811  0.035845666   -3.3712399    1.4464288   349792 
 4724000   0.76812656   -3.3700303   -1.9237856   0.03797015   -3.3700303    1.4462447   349789 
 4725000   0.76783035   -3.3720469    -1.926145  0.038793325   -3.3720469    1.4459019   349737 
 4726000   0.76797763   -3.3709457   -1.9247045  0.043119379   -3.3709457    1.4462413   349722 
 4727000   0.76810752   -3.3711516   -1.9243265  0.041553979   -3.3711516    1.4468251   349640 
 4728000   0.76869676   -3.3720223   -1.9240375  0.036776227   -3.3720223    1.4479847   349628 
 4729000   0.76807215   -3.3707865   -1.9239245  0.039613309   -3.3707865    1.4468619   349615 
 4730000   0.76891507   -3.3725694   -1.9240036  0.037405941   -3.3725694    1.4485658   349587 
 4731000   0.76778311   -3.3710735   -1.9243753  0.036813539   -3.3710735    1.4466982   349523 
 4732000   0.76806642   -3.3704501   -1.9231602  0.039667688   -3.3704501      1.44729   349509 
 4733000   0.76762487   -3.3713082   -1.9246847   0.03796815   -3.3713082    1.4466235   349469 
 4734000   0.76773206   -3.3723079   -1.9252754  0.042699006   -3.3723079    1.4470325   349419 
 4735000   0.76819931   -3.3734506   -1.9252472  0.037761827   -3.3734506    1.4482033   349349 
 4736000   0.76775819   -3.3711427   -1.9237461  0.037544138   -3.3711427    1.4473966   349343 
 4737000   0.76730567   -3.3695737   -1.9227651  0.043501933   -3.3695737    1.4468085   349279 
 4738000   0.76599404   -3.3695477   -1.9251131  0.040393148   -3.3695477    1.4444346   349255 
 4739000   0.76825418   -3.3730804   -1.9242925  0.032607462   -3.3730804    1.4487878   349233 
 4740000   0.76682677   -3.3698631   -1.9237009   0.03697012   -3.3698631    1.4461623   349217 
 4741000   0.76686104   -3.3689605   -1.9226301  0.029764506   -3.3689605    1.4463304   349192 
 4742000   0.76615499   -3.3681577   -1.9228485  0.038286426   -3.3681577    1.4453092   349117 
 4743000   0.76496869   -3.3694426   -1.9260653  0.037149505   -3.3694426    1.4433773   349043 
 4744000   0.76656393    -3.369774   -1.9230966  0.039547873    -3.369774    1.4466774   348973 
 4745000   0.76696458   -3.3713665   -1.9237132  0.035312905   -3.3713665    1.4476533   348920 
 4746000   0.76544737   -3.3675005    -1.922653  0.040345646   -3.3675005    1.4448476   348906 
 4747000   0.76582493   -3.3686966   -1.9230493  0.033312459   -3.3686966    1.4456472   348885 
 4748000   0.76603998   -3.3682693   -1.9220669  0.033913827   -3.3682693    1.4462024   348849 
 4749000   0.76641897    -3.367363   -1.9200509  0.041649648    -3.367363    1.4473121   348754 
 4750000   0.76560521   -3.3665538   -1.9206831   0.03934297   -3.3665538    1.4458707   348731 
 4751000   0.76590805    -3.367019   -1.9204561  0.036157567    -3.367019    1.4465629   348702 
 4752000   0.76439685   -3.3663251   -1.9224342  0.035685016   -3.3663251    1.4438909   348658 
 4753000   0.76594803    -3.370516   -1.9235746  0.038841752    -3.370516    1.4469413   348629 
 4754000   0.76580069   -3.3700616   -1.9231371  0.035762574   -3.3700616    1.4469245   348566 
 4755000   0.76474879   -3.3679829   -1.9229381  0.035008068   -3.3679829    1.4450448   348540 
 4756000   0.76513311   -3.3705952    -1.924679  0.039423001   -3.3705952    1.4459162   348505 
 4757000   0.76326921   -3.3689913   -1.9263408  0.037815145   -3.3689913    1.4426505   348443 
 4758000   0.76372685   -3.3699302   -1.9263318  0.037244741   -3.3699302    1.4435983   348423 
 4759000    0.7629925   -3.3684121   -1.9261439  0.038638372   -3.3684121    1.4422682   348409 
 4760000   0.76376731   -3.3695493   -1.9256507  0.040253673   -3.3695493    1.4438986   348369 
 4761000    0.7630702   -3.3686919   -1.9260698  0.043123967   -3.3686919    1.4426221   348359 
 4762000   0.76454102   -3.3706341   -1.9251276  0.030678412   -3.3706341    1.4455065   348334 
 4763000    0.7643079   -3.3721431    -1.926928  0.030993643   -3.3721431    1.4452151   348298 
 4764000   0.76471154   -3.3717368   -1.9257584  0.037711352   -3.3717368    1.4459784   348298 
 4765000    0.7653163   -3.3712409   -1.9240484  0.033463524   -3.3712409    1.4471925   348281 
 4766000   0.76488676   -3.3700145   -1.9232977  0.041367693   -3.3700145    1.4467167   348200 
 4767000    0.7643744   -3.3697242   -1.9239973  0.042049672   -3.3697242    1.4457269   348205 
 4768000   0.76507604   -3.3696698     -1.92262  0.038541952   -3.3696698    1.4470498   348206 
 4769000   0.76418053   -3.3690747    -1.923673  0.040499397   -3.3690747    1.4454017   348195 
 4770000   0.76535372   -3.3707732   -1.9233146  0.038653114   -3.3707732    1.4474586   348234 
 4771000   0.76454008   -3.3716672   -1.9254733  0.035571207   -3.3716672    1.4461939   348168 
 4772000   0.76404329   -3.3730262   -1.9275852  0.036728343   -3.3730262     1.445441   348123 
 4773000   0.76286497   -3.3708272   -1.9275241  0.041428006   -3.3708272    1.4433031   348101 
 4774000    0.7624411   -3.3705366   -1.9278572   0.03112956   -3.3705366    1.4426793   348058 
 4775000   0.76334679   -3.3717978   -1.9272512  0.036942642   -3.3717978    1.4445466   348021 
 4776000   0.76501267   -3.3740372   -1.9261259  0.032651447   -3.3740372    1.4479113   347970 
 4777000   0.76422992   -3.3704837   -1.9240913  0.039719249   -3.3704837    1.4463924   347979 
 4778000   0.76460412   -3.3699065   -1.9228474  0.041480583   -3.3699065     1.447059   347989 
 4779000   0.76473359   -3.3694469   -1.9220264  0.040771062   -3.3694469    1.4474205   347961 
 4780000   0.76413654    -3.368734   -1.9225059  0.041037945    -3.368734    1.4462281   347976 
 4781000   0.76576374   -3.3714804   -1.9220768  0.036427488   -3.3714804    1.4494036   347953 
 4782000   0.76387552   -3.3691916   -1.9233037  0.041031902   -3.3691916    1.4458879   347939 
 4783000   0.76246642   -3.3678414   -1.9243386  0.038184981   -3.3678414    1.4435028   347871 
 4784000   0.76351845   -3.3667744   -1.9213049  0.035589749   -3.3667744    1.4454696   347877 
 4785000   0.76285317   -3.3663645   -1.9220257  0.037885848   -3.3663645    1.4443388   347846 
 4786000   0.76261112   -3.3666899   -1.9225187  0.037108975   -3.3666899    1.4441711   347776 
 4787000   0.76481855   -3.3702991   -1.9220269  0.030859359   -3.3702991    1.4482723   347795 
 4788000    0.7638239   -3.3683753   -1.9217619  0.041883128   -3.3683753    1.4466134   347741 
 4789000   0.76286272   -3.3679493   -1.9228488  0.041941963   -3.3679493    1.4451005   347667 
 4790000   0.76461659   -3.3686931    -1.920316  0.037943497   -3.3686931    1.4483771   347678 
 4791000   0.76251469   -3.3653146   -1.9209399  0.039146407   -3.3653146    1.4443748   347683 
 4792000   0.76273053   -3.3675752   -1.9225588  0.034900156   -3.3675752    1.4450163   347627 
 4793000   0.76306598   -3.3667674   -1.9209284  0.038798022   -3.3667674     1.445839   347582 
 4794000   0.76036156   -3.3643126   -1.9235357  0.034190799   -3.3643126    1.4407769   347567 
 4795000   0.76075935   -3.3652069   -1.9235227  0.036173896   -3.3652069    1.4416842   347530 
 4796000   0.76192815   -3.3666407   -1.9227706  0.035981979   -3.3666407      1.44387   347537 
 4797000   0.76301558    -3.366919   -1.9208551  0.034155358    -3.366919    1.4460639   347505 
 4798000   0.76058884    -3.364184   -1.9226445  0.033878881    -3.364184    1.4415394   347487 
 4799000   0.76068034   -3.3635957   -1.9216629  0.040620153   -3.3635957    1.4419327   347434 
 4800000   0.76096493    -3.366557   -1.9238979  0.035113562    -3.366557    1.4426591   347389 
 4801000   0.76206811   -3.3670726   -1.9222014    0.0365307   -3.3670726    1.4448711   347360 
 4802000   0.76234914   -3.3671929   -1.9217015  0.041210642   -3.3671929    1.4454913   347339 
 4803000   0.76117575   -3.3652404    -1.921949  0.041934054   -3.3652404    1.4432914   347333 
 4804000   0.76238368   -3.3662502   -1.9205351  0.037627334   -3.3662502     1.445715   347301 
 4805000   0.76167338   -3.3669115   -1.9221275  0.039057326   -3.3669115    1.4447841   347201 
 4806000   0.76063394   -3.3653042   -1.9225874   0.03969165   -3.3653042    1.4427168   347224 
 4807000   0.76231546   -3.3687623   -1.9227312  0.036614752   -3.3687623    1.4460311   347194 
 4808000   0.76073406   -3.3663395   -1.9230047   0.03887463   -3.3663395    1.4433349   347121 
 4809000   0.76071907   -3.3674823   -1.9240594  0.034388799   -3.3674823    1.4434229   347093 
 4810000   0.75990253   -3.3638535   -1.9221045  0.038466219   -3.3638535    1.4417489   347123 
 4811000   0.76072205   -3.3660367   -1.9223836  0.038712209   -3.3660367    1.4436531   347039 
 4812000   0.76026788   -3.3667236   -1.9235997  0.038846588   -3.3667236    1.4431239   346959 
 4813000   0.76083283     -3.36828   -1.9239339  0.041454082     -3.36828    1.4443461   346923 
 4814000   0.75912247   -3.3661784   -1.9246928  0.041530886   -3.3661784    1.4414856   346830 
 4815000   0.75826378   -3.3667591   -1.9265136  0.032266105   -3.3667591    1.4402454   346736 
 4816000   0.75798431   -3.3658991   -1.9260724  0.035305992   -3.3658991    1.4398267   346709 
 4817000    0.7579814   -3.3662069    -1.926124  0.033018086   -3.3662069    1.4400829   346646 
 4818000   0.75792009   -3.3670396   -1.9268613  0.031896807   -3.3670396    1.4401783   346595 
 4819000   0.75901785   -3.3670576   -1.9248017  0.035568943   -3.3670576    1.4422559   346597 
 4820000    0.7596104   -3.3687617    -1.925259  0.034098954   -3.3687617    1.4435026   346568 
 4821000   0.76057356   -3.3697006    -1.924155  0.032968073   -3.3697006    1.4455456   346517 
 4822000   0.75970794   -3.3661154   -1.9221691  0.039182539   -3.3661154    1.4439463   346506 
 4823000   0.75941818   -3.3657958   -1.9224377   0.03794978   -3.3657958    1.4433581   346515 
 4824000   0.76088686   -3.3673309   -1.9210354  0.041586394   -3.3673309    1.4462955   346480 
 4825000   0.75892644   -3.3650618   -1.9222177  0.040823758   -3.3650618     1.442844   346414 
 4826000   0.75844138   -3.3656462   -1.9236828  0.032498086   -3.3656462    1.4419635   346404 
 4827000    0.7590736   -3.3652222   -1.9218442  0.035950404   -3.3652222     1.443378   346353 
 4828000     0.758559    -3.365685   -1.9232106  0.037006604    -3.365685    1.4424744   346335 
 4829000   0.75849755   -3.3634715   -1.9208432    0.0359239   -3.3634715    1.4426283   346270 
 4830000   0.75758617   -3.3605572   -1.9195416  0.038333826   -3.3605572    1.4410156   346241 
 4831000    0.7571565   -3.3599804   -1.9197946  0.036910551   -3.3599804    1.4401858   346244 
 4832000    0.7588484   -3.3625599   -1.9188891  0.041828234   -3.3625599    1.4436708   346180 
 4833000   0.75999446   -3.3634106   -1.9172503   0.03844591   -3.3634106    1.4461603   346106 
 4834000   0.76041972   -3.3648771   -1.9177654  0.037164386   -3.3648771    1.4471117   346072 
 4835000   0.75961551   -3.3632044   -1.9177234  0.039497816   -3.3632044     1.445481   346096 
 4836000   0.75897435   -3.3619576   -1.9177093  0.042119774   -3.3619576    1.4442484   346099 
 4837000   0.75841146   -3.3604233    -1.917196  0.037798928   -3.3604233    1.4432273   346087 
 4838000   0.75712206   -3.3580556   -1.9171363  0.038549072   -3.3580556    1.4409193   346052 
 4839000   0.75816737   -3.3610149   -1.9179186  0.040364027   -3.3610149    1.4430964   346007 
 4840000   0.75594203   -3.3580026    -1.918959  0.037094182   -3.3580026    1.4390437   345963 
 4841000   0.75877673   -3.3600033   -1.9156636  0.034454179   -3.3600033    1.4443397   345987 
 4842000   0.75703222   -3.3574595    -1.916228  0.032129718   -3.3574595    1.4412315   345936 
 4843000   0.75872479   -3.3590927   -1.9143507  0.034437654   -3.3590927    1.4447419   345867 
 4844000   0.75801554   -3.3581105   -1.9145981  0.037120308   -3.3581105    1.4435124   345838 
 4845000   0.75786911   -3.3594638   -1.9161384  0.040284858   -3.3594638    1.4433254   345816 
 4846000   0.75861006   -3.3613454    -1.916425  0.036267858   -3.3613454    1.4449203   345772 
 4847000   0.75834836   -3.3599194   -1.9154599  0.035775443   -3.3599194    1.4444595   345763 
 4848000   0.75775632   -3.3598696   -1.9163416  0.036544829   -3.3598696     1.443528   345716 
 4849000     0.758001   -3.3612261   -1.9170106  0.037641941   -3.3612261    1.4442155   345663 
 4850000   0.75743892   -3.3583297   -1.9150598  0.039996411   -3.3583297    1.4432699   345633 
 4851000   0.75765368   -3.3580336   -1.9142166  0.038007006   -3.3580336     1.443817   345600 
 4852000   0.75822548   -3.3605418   -1.9154303  0.037910955   -3.3605418    1.4451115   345551 
 4853000   0.75729967    -3.360548   -1.9170256  0.037638597    -3.360548    1.4435224   345509 
 4854000   0.75751197   -3.3604783   -1.9163882  0.035414049   -3.3604783    1.4440901   345470 
 4855000   0.75803704   -3.3618734   -1.9166527  0.039609901   -3.3618734    1.4452208   345439 
 4856000   0.75787363   -3.3606695   -1.9157895  0.038651659   -3.3606695    1.4448799   345446 
 4857000   0.75706981    -3.362048   -1.9186295  0.035505549    -3.362048    1.4434185   345429 
 4858000   0.75815909   -3.3625876   -1.9169332  0.040106361   -3.3625876    1.4456543   345391 
 4859000   0.75997482   -3.3645769   -1.9152253  0.034600716   -3.3645769    1.4493516   345335 
 4860000   0.75917935   -3.3618925   -1.9139783  0.035725778   -3.3618925    1.4479142   345316 
 4861000   0.75818755   -3.3617067   -1.9154872  0.038401662   -3.3617067    1.4462194   345269 
 4862000   0.75682068   -3.3597143   -1.9156672  0.041353379   -3.3597143    1.4440472   345165 
 4863000   0.75820665   -3.3625631   -1.9158798  0.037267367   -3.3625631    1.4466832   345167 
 4864000   0.75798204    -3.363012   -1.9165687  0.038133386    -3.363012    1.4464433   345122 
 4865000   0.75736425   -3.3640036   -1.9185843  0.035283218   -3.3640036    1.4454193   345085 
 4866000    0.7559072   -3.3604146    -1.917567  0.039406272   -3.3604146    1.4428476   345035 
 4867000   0.75815971   -3.3628446   -1.9158359  0.038195512   -3.3628446    1.4470087   345068 
 4868000   0.75673769   -3.3606616   -1.9162037  0.044508575   -3.3606616    1.4444579   345029 
 4869000   0.75863759   -3.3644323   -1.9162219   0.03739982   -3.3644323    1.4482104   344999 
 4870000   0.75748802   -3.3616554   -1.9155054   0.03453639   -3.3616554      1.44615   344967 
 4871000   0.75794344   -3.3611339   -1.9140976  0.038369404   -3.3611339    1.4470363   344963 
 4872000   0.75813853   -3.3616277   -1.9142358  0.042129656   -3.3616277    1.4473919   344967 
 4873000   0.75824299   -3.3617785   -1.9143382  0.037258788   -3.3617785    1.4474403   345003 
 4874000   0.75696487   -3.3605749    -1.915411   0.03500017   -3.3605749    1.4451638   344964 
 4875000   0.75717732   -3.3621701   -1.9165462  0.037570379   -3.3621701    1.4456239   344951 
 4876000   0.75851567   -3.3628726   -1.9146263  0.036174127   -3.3628726    1.4482463   344935 
 4877000   0.75754223   -3.3611229   -1.9146304  0.035481443   -3.3611229    1.4464925   344910 
 4878000   0.75778803   -3.3598782   -1.9128995  0.039871757   -3.3598782    1.4469787   344906 
 4879000   0.75699237   -3.3580343   -1.9124995   0.04355385   -3.3580343    1.4455348   344888 
 4880000   0.75810559   -3.3595538   -1.9117002  0.040132264   -3.3595538    1.4478537   344842 
 4881000   0.75769423   -3.3597358   -1.9125754  0.039545065   -3.3597358    1.4471604   344820 
 4882000   0.75869589   -3.3614673   -1.9122214  0.041378897   -3.3614673    1.4492458   344779 
 4883000   0.75760525   -3.3597321   -1.9123639  0.038686461   -3.3597321    1.4473682   344730 
 4884000   0.75898599   -3.3617447   -1.9116671  0.040473874   -3.3617447    1.4500776   344713 
 4885000   0.75692013   -3.3586821   -1.9123458  0.036076165   -3.3586821    1.4463362   344664 
 4886000   0.75648313   -3.3580976   -1.9124286  0.038969977   -3.3580976     1.445669   344624 
 4887000   0.75609709   -3.3567175   -1.9117317  0.040392643   -3.3567175    1.4449858   344611 
 4888000   0.75666317   -3.3587432   -1.9125287  0.038570346   -3.3587432    1.4462145   344576 
 4889000   0.75578293   -3.3567526   -1.9119941  0.037234039   -3.3567526    1.4447585   344522 
 4890000   0.75680261   -3.3593393   -1.9124762  0.039548596   -3.3593393    1.4468631   344485 
 4891000   0.75582075   -3.3551791   -1.9099666  0.040087925   -3.3551791    1.4452125   344431 
 4892000   0.75708951   -3.3558819   -1.9082098  0.037680995   -3.3558819    1.4476721   344423 
 4893000   0.75721866   -3.3563267   -1.9084706  0.038778215   -3.3563267     1.447856   344438 
 4894000   0.75725949   -3.3558811   -1.9078839  0.038322479   -3.3558811    1.4479972   344423 
 4895000   0.75683266   -3.3562812   -1.9089742  0.031280929   -3.3562812    1.4473071   344393 
 4896000   0.75585691   -3.3537589   -1.9083178  0.035710124   -3.3537589    1.4454411   344393 
 4897000   0.75750224   -3.3554703   -1.9068365  0.035615106   -3.3554703    1.4486338   344382 
 4898000   0.75524623   -3.3511972   -1.9067645  0.038322236   -3.3511972    1.4444327   344355 
 4899000   0.75576549    -3.352335   -1.9066111    0.0386956    -3.352335    1.4457239   344284 
 4900000   0.75547548   -3.3508394   -1.9055905  0.039142742   -3.3508394    1.4452489   344265 
 4901000   0.75620608   -3.3532913    -1.906422  0.038217994   -3.3532913    1.4468693   344212 
 4902000   0.75496383    -3.351108   -1.9066239   0.03772736    -3.351108     1.444484   344214 
 4903000   0.75415671   -3.3496483   -1.9064444  0.038396297   -3.3496483    1.4432039   344151 
 4904000   0.75424841   -3.3475612   -1.9041818  0.036158156   -3.3475612    1.4433794   344151 
 4905000   0.75602586   -3.3507145   -1.9038748  0.031036882   -3.3507145    1.4468397   344137 
 4906000    0.7570314   -3.3501678   -1.9014963  0.036893023   -3.3501678    1.4486714   344159 
 4907000    0.7559434   -3.3497292   -1.9030347  0.038971787   -3.3497292    1.4466945   344134 
 4908000   0.75605341   -3.3509129   -1.9037135  0.040098714   -3.3509129    1.4471994   344064 
 4909000    0.7561753   -3.3515324   -1.9039314  0.038849342   -3.3515324     1.447601   344024 
 4910000    0.7561501    -3.352689   -1.9049259  0.041536337    -3.352689    1.4477632   343974 
 4911000   0.75671379    -3.353166   -1.9041551  0.039874574    -3.353166     1.449011   343934 
 4912000   0.75576883   -3.3516875   -1.9043851   0.04019234   -3.3516875    1.4473025   343910 
 4913000   0.75671935   -3.3540905   -1.9049004  0.033710555   -3.3540905    1.4491901   343894 
 4914000   0.75452491   -3.3510683   -1.9057655  0.040407959   -3.3510683    1.4453028   343819 
 4915000   0.75726069   -3.3562601   -1.9056494  0.038119545   -3.3562601    1.4506107   343803 
 4916000   0.75711922   -3.3563122   -1.9058713  0.043529312   -3.3563122     1.450441   343779 
 4917000   0.75643845   -3.3560504    -1.906901  0.040546308   -3.3560504    1.4491494   343776 
 4918000   0.75657561   -3.3548445   -1.9052721  0.039982889   -3.3548445    1.4495724   343738 
 4919000   0.75683325   -3.3553329   -1.9051234  0.039290024   -3.3553329    1.4502095   343704 
 4920000   0.75649595   -3.3568176    -1.907111  0.033596489   -3.3568176    1.4497066   343670 
 4921000   0.75460562    -3.354556   -1.9082278  0.039798298    -3.354556    1.4463282   343612 
 4922000   0.75264994   -3.3520453   -1.9093815  0.036498398   -3.3520453    1.4426638   343592 
 4923000   0.75534762   -3.3582384   -1.9102815  0.032382733   -3.3582384    1.4479568   343563 
 4924000   0.75528557   -3.3579276   -1.9099464  0.036151564   -3.3579276    1.4479812   343529 
 4925000   0.75454683    -3.357359    -1.910415  0.032616808    -3.357359     1.446944   343439 
 4926000   0.75457059   -3.3563067   -1.9089674  0.036658371   -3.3563067    1.4473393   343356 
 4927000   0.75403182   -3.3556146   -1.9091486  0.037960277   -3.3556146     1.446466   343318 
 4928000   0.75447767   -3.3575176   -1.9099264  0.038468811   -3.3575176    1.4475911   343254 
 4929000   0.75442937   -3.3586485   -1.9108759  0.037217901   -3.3586485    1.4477726   343189 
 4930000   0.75374676   -3.3564243   -1.9097635  0.038094236   -3.3564243    1.4466608   343142 
 4931000   0.75322981   -3.3549119   -1.9092307  0.038267241   -3.3549119    1.4456812   343139 
 4932000   0.75456612   -3.3581563    -1.909695  0.039381935   -3.3581563    1.4484613   343088 
 4933000   0.75594463   -3.3617777   -1.9103571  0.039707772   -3.3617777    1.4514206   343014 
 4934000   0.75400613   -3.3581876   -1.9104467  0.040573101   -3.3581876    1.4477408   343004 
 4935000    0.7534416   -3.3581884   -1.9113501  0.042793121   -3.3581884    1.4468383   342961 
 4936000   0.75502169   -3.3608918   -1.9108163  0.037809651   -3.3608918    1.4500755   342913 
 4937000    0.7547558   -3.3582975   -1.9086397  0.039718983   -3.3582975    1.4496578   342891 
 4938000   0.75540019   -3.3618465   -1.9107266  0.035458427   -3.3618465    1.4511198   342838 
 4939000   0.75277201    -3.355233   -1.9090522   0.03389297    -3.355233    1.4461808   342812 
 4940000   0.75224352   -3.3557646   -1.9104178  0.038957545   -3.3557646    1.4453468   342769 
 4941000   0.75290795   -3.3577619   -1.9110499  0.037309433   -3.3577619     1.446712   342748 
 4942000   0.75320303   -3.3573863   -1.9099806  0.041680102   -3.3573863    1.4474057   342718 
 4943000   0.75373195   -3.3549289   -1.9064307   0.04422832   -3.3549289    1.4484982   342700 
 4944000   0.75579785   -3.3585256   -1.9059131   0.04108088   -3.3585256    1.4526125   342666 
 4945000   0.75421729    -3.355515    -1.905843  0.040807375    -3.355515     1.449672   342643 
 4946000   0.75301852   -3.3537974   -1.9062816  0.040439349   -3.3537974    1.4475157   342608 
 4947000   0.75443346   -3.3575832   -1.9071062  0.038737631   -3.3575832     1.450477   342551 
 4948000   0.75185049   -3.3546107   -1.9090365  0.039353528   -3.3546107    1.4455742   342536 
 4949000   0.75170974   -3.3537058   -1.9082545  0.033202573   -3.3537058    1.4454513   342501 
 4950000   0.75192451    -3.354654   -1.9086124   0.03698468    -3.354654    1.4460416   342459 
 4951000   0.75230207    -3.355768   -1.9087129  0.043013309    -3.355768     1.447055   342391 
 4952000   0.75189426   -3.3546565   -1.9081493  0.040636277   -3.3546565    1.4465072   342335 
 4953000   0.75288574   -3.3548417   -1.9061266  0.034637594   -3.3548417    1.4487151   342264 
 4954000   0.75153658   -3.3542838   -1.9080126  0.033745858   -3.3542838    1.4462711   342228 
 4955000   0.75151056   -3.3524091   -1.9061289  0.037868475   -3.3524091    1.4462802   342214 
 4956000   0.75135994   -3.3527168   -1.9065532  0.036755076   -3.3527168    1.4461636   342173 
 4957000   0.75111196   -3.3530522   -1.9070954  0.034618971   -3.3530522    1.4459568   342109 
 4958000   0.75178412   -3.3540781   -1.9067851  0.036563745   -3.3540781     1.447293   342099 
 4959000    0.7507123   -3.3513235   -1.9058488  0.038921517   -3.3513235    1.4454747   342041 
 4960000   0.75269423   -3.3558845   -1.9063012  0.036285175   -3.3558845    1.4495833   341972 
 4961000   0.75362268   -3.3566243   -1.9051341  0.041652199   -3.3566243    1.4514902   341944 
 4962000   0.75249267   -3.3540248   -1.9045584  0.036366406   -3.3540248    1.4494664   341908 
 4963000   0.75249992   -3.3526211     -1.90295  0.039568127   -3.3526211    1.4496711   341863 
 4964000   0.75220973    -3.353784   -1.9044685  0.041874688    -3.353784    1.4493156   341815 
 4965000   0.75236572    -3.352324   -1.9025255  0.039715126    -3.352324    1.4497985   341772 
 4966000   0.75213719   -3.3536178   -1.9039542  0.040626163   -3.3536178    1.4496635   341700 
 4967000   0.75075889   -3.3516808   -1.9046103  0.038209754   -3.3516808    1.4470705   341685 
 4968000   0.74976735   -3.3510753   -1.9058186  0.033895633   -3.3510753    1.4452567   341662 
 4969000    0.7492287   -3.3512721   -1.9069818  0.033720253   -3.3512721    1.4442902   341645 
 4970000   0.74930673   -3.3499012   -1.9053548  0.037658239   -3.3499012    1.4445463   341620 
 4971000    0.7506298   -3.3529883   -1.9059082  0.033204384   -3.3529883    1.4470801   341624 
 4972000   0.74950569   -3.3517021   -1.9066792  0.037182168   -3.3517021     1.445023   341598 
 4973000   0.74914189   -3.3517299   -1.9070996  0.036014785   -3.3517299    1.4446303   341525 
 4974000   0.74852154   -3.3502492   -1.9065954  0.040152624   -3.3502492    1.4436538   341473 
 4975000    0.7491295   -3.3509502   -1.9060604   0.04247082   -3.3509502    1.4448898   341458 
 4976000   0.75067337   -3.3513041   -1.9033474  0.036315282   -3.3513041    1.4479567   341437 
 4977000   0.75006135   -3.3510818   -1.9041531  0.036764082   -3.3510818    1.4469287   341401 
 4978000   0.74974469   -3.3514595   -1.9050146  0.037807446   -3.3514595    1.4464449   341371 
 4979000   0.74984656   -3.3516039   -1.9046827  0.038542755   -3.3516039    1.4469212   341305 
 4980000   0.75104736   -3.3524041   -1.9030299   0.03811154   -3.3524041    1.4493742   341273 
 4981000   0.74973314   -3.3526217   -1.9055589  0.039609314   -3.3526217    1.4470627   341220 
 4982000   0.74873046   -3.3527261   -1.9074334  0.035712782   -3.3527261    1.4452927   341181 
 4983000   0.74964131   -3.3536979   -1.9065537  0.037284529   -3.3536979    1.4471442   341159 
 4984000   0.75095813   -3.3558108   -1.9060098  0.034125493   -3.3558108     1.449801   341132 
 4985000   0.74927122   -3.3539152   -1.9071631  0.037304579   -3.3539152    1.4467521   341083 
 4986000    0.7498704   -3.3565817   -1.9085368    0.0371572   -3.3565817    1.4480449   341051 
 4987000   0.74817526   -3.3554881   -1.9106447  0.032789761   -3.3554881    1.4448435   341034 
 4988000   0.74946863   -3.3554482   -1.9079839  0.036527075   -3.3554482    1.4474643   341005 
 4989000   0.74978565   -3.3561855   -1.9079264   0.03702395   -3.3561855    1.4482591   340962 
 4990000   0.74919399   -3.3532889   -1.9060028  0.042024353   -3.3532889    1.4472861   340922 
 4991000   0.74954869   -3.3545653   -1.9064921  0.039906537   -3.3545653    1.4480732   340898 
 4992000    0.7495111   -3.3535074   -1.9055578  0.038141572   -3.3535074    1.4479496   340910 
 4993000   0.74946839   -3.3557495   -1.9077932  0.039407171   -3.3557495    1.4479563   340889 
 4994000   0.74831107   -3.3539539   -1.9080214  0.038658095   -3.3539539    1.4459325   340839 
 4995000   0.74854121   -3.3549897    -1.908464  0.036526254   -3.3549897    1.4465257   340804 
 4996000   0.74891496   -3.3574913   -1.9100946  0.036003195   -3.3574913    1.4473966   340769 
 4997000   0.74796519   -3.3538928   -1.9081196  0.038366205   -3.3538928    1.4457732   340719 
 4998000    0.7488964   -3.3547324    -1.907019  0.041231234   -3.3547324    1.4477134   340686 
 4999000   0.74910118   -3.3549423     -1.90668  0.042325584   -3.3549423    1.4482623   340650 
 5000000   0.74749555   -3.3554875   -1.9100027  0.039482322   -3.3554875    1.4454848   340573 
 5001000   0.74607505   -3.3521313   -1.9091858  0.032653175   -3.3521313    1.4429455   340524 
 5002000   0.74797393   -3.3552078   -1.9081691  0.039246947   -3.3552078    1.4470387   340425 
 5003000   0.74807157   -3.3556323   -1.9082304  0.037504447   -3.3556323    1.4474019   340384 
 5004000   0.74752762   -3.3545635   -1.9079888  0.036839605   -3.3545635    1.4465747   340331 
 5005000   0.74696763   -3.3549254   -1.9091412  0.035444094   -3.3549254    1.4457842   340262 
 5006000   0.74667424   -3.3554883   -1.9102168  0.039421111   -3.3554883    1.4452715   340249 
 5007000   0.74729388   -3.3563383   -1.9094932  0.034726009   -3.3563383    1.4468451   340161 
 5008000   0.74678019   -3.3543325   -1.9082226   0.03288406   -3.3543325    1.4461099   340100 
 5009000   0.74440156   -3.3534071   -1.9115302  0.036121324   -3.3534071    1.4418768   340012 
 5010000   0.74512171   -3.3555159   -1.9121296  0.034548627   -3.3555159    1.4433863   339985 
 5011000   0.74465141   -3.3553234   -1.9125468  0.042783307   -3.3553234    1.4427766   339914 
 5012000   0.74542303   -3.3567578   -1.9123247   0.03509283   -3.3567578    1.4444331   339876 
 5013000   0.74501462   -3.3537499    -1.909968  0.040553668   -3.3537499    1.4437819   339843 
 5014000   0.74467687   -3.3540144   -1.9108828  0.037581506   -3.3540144    1.4431316   339842 
 5015000   0.74699963   -3.3574423   -1.9096431  0.033815294   -3.3574423    1.4477991   339803 
 5016000   0.74566252   -3.3547503   -1.9093895  0.040156776   -3.3547503    1.4453607   339767 
 5017000   0.74618717   -3.3560103   -1.9094623  0.039344396   -3.3560103     1.446548   339727 
 5018000   0.74499101   -3.3579818   -1.9136464  0.038118437   -3.3579818    1.4443354   339702 
 5019000   0.74510659   -3.3564728   -1.9116624  0.039430696   -3.3564728    1.4448104   339643 
 5020000   0.74483264   -3.3544558   -1.9100703  0.037950013   -3.3544558    1.4443855   339618 
 5021000   0.74459879   -3.3544556   -1.9101493  0.040944564   -3.3544556    1.4443063   339530 
 5022000   0.74604846   -3.3589454   -1.9118186  0.037604054   -3.3589454    1.4471268   339528 
 5023000   0.74443351   -3.3556401   -1.9116076  0.037699139   -3.3556401    1.4440325   339519 
 5024000   0.74379038     -3.35367   -1.9106343  0.040130217     -3.35367    1.4430357   339460 
 5025000   0.74414662   -3.3540806    -1.910056  0.038673484   -3.3540806    1.4440246   339390 
 5026000   0.74430792   -3.3534723   -1.9091474  0.032993913   -3.3534723    1.4443249   339393 
 5027000   0.74341993   -3.3534714   -1.9108059  0.037761733   -3.3534714    1.4426655   339378 
 5028000    0.7434306   -3.3552856   -1.9124591  0.037655189   -3.3552856    1.4428265   339345 
 5029000    0.7444981   -3.3565021   -1.9115357  0.036150168   -3.3565021    1.4449664   339329 
 5030000   0.74559422   -3.3569216   -1.9095846  0.036254562   -3.3569216    1.4473369   339272 
 5031000   0.74455025   -3.3567198   -1.9112859  0.041013777   -3.3567198     1.445434   339243 
 5032000   0.74300803   -3.3557369   -1.9130503   0.03596195   -3.3557369    1.4426866   339185 
 5033000    0.7429502   -3.3557808   -1.9130109  0.034959518   -3.3557808      1.44277   339139 
 5034000   0.74367021   -3.3561966   -1.9118964  0.039516153   -3.3561966    1.4443002   339108 
 5035000   0.74329768    -3.354476   -1.9108141  0.037549998    -3.354476    1.4436619   339088 
 5036000   0.74367213   -3.3568508    -1.912189  0.038929051   -3.3568508    1.4446618   339024 
 5037000   0.74338874   -3.3558625   -1.9116788  0.037477421   -3.3558625    1.4441837   339007 
 5038000   0.74333619   -3.3561839    -1.911983  0.040363964   -3.3561839    1.4442009   338979 
 5039000    0.7441825   -3.3562667   -1.9102296  0.034597336   -3.3562667    1.4460371   338934 
 5040000   0.74392178   -3.3572396   -1.9115726  0.037265277   -3.3572396     1.445667   338902 
 5041000    0.7436633   -3.3563393   -1.9113451  0.040487636   -3.3563393    1.4449942   338942 
 5042000   0.74348149   -3.3542066   -1.9094335  0.041769243   -3.3542066     1.444773   338911 
 5043000   0.74352555    -3.356697   -1.9115782  0.034313335    -3.356697    1.4451188   338850 
 5044000   0.74171126   -3.3557305   -1.9139805  0.037380373   -3.3557305    1.4417499   338813 
 5045000   0.74307626   -3.3580624    -1.913382  0.037031731   -3.3580624    1.4446804   338748 
 5046000   0.74404497   -3.3560584   -1.9095202  0.035065229   -3.3560584    1.4465381   338754 
 5047000   0.74369497    -3.356437   -1.9102335   0.03486936    -3.356437    1.4462035   338673 
 5048000   0.74210754   -3.3550469   -1.9119602  0.040144561   -3.3550469    1.4430867   338680 
 5049000   0.74282792   -3.3557382   -1.9110843  0.034366729   -3.3557382    1.4446539   338641 
 5050000   0.74243075    -3.355695   -1.9116173  0.038513522    -3.355695    1.4440776   338595 
 5051000   0.74384151   -3.3568045   -1.9098504  0.035436759   -3.3568045    1.4469541   338564 
 5052000   0.74321021   -3.3550863   -1.9092577  0.042932101   -3.3550863    1.4458286   338540 
 5053000   0.74385135   -3.3572469   -1.9099572  0.032886051   -3.3572469    1.4472896   338490 
 5054000   0.74297821    -3.354612    -1.908923  0.037724476    -3.354612     1.445689   338467 
 5055000   0.74351213    -3.355925   -1.9089449  0.032892606    -3.355925    1.4469801   338408 
 5056000   0.74273084   -3.3540458   -1.9083554  0.039641679   -3.3540458    1.4456903   338354 
 5057000   0.74283182   -3.3533803   -1.9074207  0.034662106   -3.3533803    1.4459595   338337 
 5058000   0.74227738   -3.3519078   -1.9068823  0.035303455   -3.3519078    1.4450255   338303 
 5059000   0.74214732   -3.3540262   -1.9089335  0.033351329   -3.3540262    1.4450927   338228 
 5060000   0.74082696   -3.3512733   -1.9086108  0.033310897   -3.3512733    1.4426625   338195 
 5061000   0.74127187   -3.3526665   -1.9090181  0.037411047   -3.3526665    1.4436484   338167 
 5062000   0.74123213   -3.3501387    -1.906572  0.037763398   -3.3501387    1.4435667   338168 
 5063000   0.74205079   -3.3498018   -1.9045424  0.035312518   -3.3498018    1.4452594   338145 
 5064000    0.7427168    -3.350957   -1.9042593  0.035318743    -3.350957    1.4466977   338112 
 5065000   0.74316985   -3.3514452   -1.9035482  0.036434863   -3.3514452    1.4478971   338038 
 5066000    0.7425323   -3.3503691   -1.9037526  0.040776522   -3.3503691    1.4466164   338047 
 5067000   0.74182455   -3.3484286   -1.9030157  0.044935914   -3.3484286    1.4454129   338006 
 5068000   0.74176239   -3.3480872    -1.902727  0.039658557   -3.3480872    1.4453602   337990 
 5069000   0.74152975   -3.3474872   -1.9022383   0.03522857   -3.3474872     1.445249   337910 
 5070000   0.74054859   -3.3487942   -1.9051884  0.035867524   -3.3487942    1.4436058   337847 
 5071000   0.74193496   -3.3490347   -1.9026236  0.037179829   -3.3490347    1.4464111   337823 
 5072000    0.7408428   -3.3477126   -1.9032554  0.035312512   -3.3477126    1.4444573   337782 
 5073000   0.74216821   -3.3506272   -1.9034572  0.034810261   -3.3506272      1.44717   337752 
 5074000   0.73977638    -3.346789   -1.9041719  0.035563341    -3.346789    1.4426172   337726 
 5075000   0.74019603   -3.3476722   -1.9040229  0.035641117   -3.3476722    1.4436493   337676 
 5076000   0.74150218   -3.3492439   -1.9028288  0.035184387   -3.3492439    1.4464152   337625 
 5077000   0.74067923   -3.3486347   -1.9038163  0.037904553   -3.3486347    1.4448184   337623 
 5078000   0.73987462    -3.346577   -1.9032041  0.036778871    -3.346577    1.4433729   337594 
 5079000     0.740436   -3.3482073   -1.9036451  0.036357468   -3.3482073    1.4445622   337572 
 5080000   0.74068676   -3.3485802    -1.903212  0.038932294   -3.3485802    1.4453683   337498 
 5081000   0.74170645   -3.3495191   -1.9020452  0.035226295   -3.3495191    1.4474739   337471 
 5082000   0.74125504   -3.3505655   -1.9038783  0.039053991   -3.3505655    1.4466872   337449 
 5083000   0.74087742   -3.3504944   -1.9044799   0.03981236   -3.3504944    1.4460145   337434 
 5084000   0.74145864   -3.3512866   -1.9038417  0.037683404   -3.3512866    1.4474449   337365 
 5085000   0.74194941   -3.3522747   -1.9037601  0.037015674   -3.3522747    1.4485146   337339 
 5086000   0.74151929   -3.3530115   -1.9051478   0.03640045   -3.3530115    1.4478637   337295 
 5087000   0.74050829   -3.3523772   -1.9062818  0.042396052   -3.3523772    1.4460955   337247 
 5088000   0.73871235   -3.3506069   -1.9078732  0.034072603   -3.3506069    1.4427337   337213 
 5089000   0.74010247   -3.3507823   -1.9052178  0.037906209   -3.3507823    1.4455644   337186 
 5090000   0.74048016   -3.3520255   -1.9055518  0.037605135   -3.3520255    1.4464737   337146 
 5091000   0.74088197   -3.3520052   -1.9046307  0.036233091   -3.3520052    1.4473745   337119 
 5092000   0.74024978   -3.3495456   -1.9032431  0.038344211   -3.3495456    1.4463025   337081 
 5093000   0.74209092   -3.3537004   -1.9039038  0.038986504   -3.3537004    1.4497965   337105 
 5094000    0.7411068   -3.3525621   -1.9044477  0.035610565   -3.3525621    1.4481145   337049 
 5095000    0.7408627   -3.3530956   -1.9052347  0.039043314   -3.3530956    1.4478609   336997 
 5096000   0.74035393   -3.3503103   -1.9033879   0.04285171   -3.3503103    1.4469224   336984 
 5097000   0.73978094   -3.3489387   -1.9030503   0.03657084   -3.3489387    1.4458884   336964 
 5098000   0.73957683   -3.3486307    -1.903257  0.037540429   -3.3486307    1.4453736   336991 
 5099000   0.74057396   -3.3487324   -1.9012253  0.036514049   -3.3487324    1.4475071   336948 
 5100000   0.73966804   -3.3465494   -1.9006328  0.036766382   -3.3465494    1.4459166   336906 
 5101000   0.73936593   -3.3473973    -1.901831  0.035754384   -3.3473973    1.4455663   336850 
 5102000   0.73829157   -3.3447672   -1.9015242   0.03475613   -3.3447672     1.443243   336902 
 5103000   0.73858548   -3.3455854   -1.9015921  0.029624706   -3.3455854    1.4439932   336861 
 5104000   0.73905605   -3.3431412   -1.8980006  0.035443563   -3.3431412    1.4451406   336808 
 5105000   0.73881676   -3.3405934   -1.8959035  0.038449816   -3.3405934    1.4446899   336804 
 5106000   0.74146923   -3.3457921   -1.8955711  0.039036545   -3.3457921     1.450221   336724 
 5107000   0.74028054   -3.3447737   -1.8968432  0.036937468   -3.3447737    1.4479305   336716 
 5108000   0.74002922   -3.3428984   -1.8954165  0.037363034   -3.3428984    1.4474819   336706 
 5109000   0.74046601   -3.3434917   -1.8950608  0.033586311   -3.3434917    1.4484309   336684 
 5110000   0.73918084   -3.3412645    -1.895266   0.03721902   -3.3412645    1.4459986   336665 
 5111000   0.73856271   -3.3398486   -1.8950722  0.031705694   -3.3398486    1.4447765   336668 
 5112000   0.73883378   -3.3398336   -1.8944667  0.036637373   -3.3398336    1.4453669   336654 
 5113000   0.74088992   -3.3440335   -1.8943342   0.03607573   -3.3440335    1.4496993   336582 
 5114000   0.73956966   -3.3437606   -1.8963479  0.042543978   -3.3437606    1.4474127   336513 
 5115000   0.73797975   -3.3404065   -1.8958264  0.039687234   -3.3404065    1.4445801   336448 
 5116000   0.73847987   -3.3404696   -1.8949063  0.036645308   -3.3404696    1.4455634   336447 
 5117000   0.73857922   -3.3403509   -1.8944297  0.038980654   -3.3403509    1.4459212   336409 
 5118000   0.73645808    -3.337207   -1.8952713  0.030811467    -3.337207    1.4419357   336370 
 5119000   0.73711647   -3.3380279   -1.8949318  0.035588294   -3.3380279    1.4430961   336400 
 5120000   0.73749137   -3.3394888   -1.8956372  0.032160822   -3.3394888    1.4438515   336395 
 5121000   0.73789039   -3.3415831      -1.8968  0.037507048   -3.3415831    1.4447831   336360 
 5122000   0.73786072   -3.3390713   -1.8942604   0.03891181   -3.3390713    1.4448109   336340 
 5123000   0.73877446   -3.3414961   -1.8949046  0.038591538   -3.3414961    1.4465915   336342 
 5124000   0.73759288   -3.3400933   -1.8956308   0.04450604   -3.3400933    1.4444625   336299 
 5125000   0.73810082    -3.342147   -1.8966038  0.040498644    -3.342147    1.4455432   336279 
 5126000   0.73776851   -3.3416989   -1.8967807   0.03267781   -3.3416989    1.4449182   336273 
 5127000   0.73661938   -3.3429473   -1.9000953  0.036016796   -3.3429473    1.4428521   336230 
 5128000   0.73816857   -3.3444023   -1.8984039   0.03593587   -3.3444023    1.4459984   336204 
 5129000   0.73762209   -3.3458616   -1.9007145  0.029978557   -3.3458616    1.4451471   336153 
 5130000   0.73684014   -3.3432153   -1.8993768  0.034394289   -3.3432153    1.4438385   336101 
 5131000   0.73885638   -3.3475007   -1.8996124   0.03147712   -3.3475007    1.4478883   336078 
 5132000   0.73853851   -3.3452114   -1.8978211  0.037224107   -3.3452114    1.4473903   336049 
 5133000   0.73927735   -3.3455134   -1.8968346  0.040937629   -3.3455134    1.4486788   336086 
 5134000   0.73998606   -3.3481331   -1.8978756  0.038396326   -3.3481331    1.4502575   336042 
 5135000   0.74011959   -3.3492152   -1.8985752  0.040090306   -3.3492152      1.45064   336014 
 5136000   0.73743395   -3.3441476   -1.8986811  0.039361104   -3.3441476    1.4454665   335993 
 5137000   0.73842869   -3.3437997   -1.8965256  0.042763849   -3.3437997    1.4472742   336026 
 5138000   0.73810027   -3.3447796   -1.8979855  0.038561144   -3.3447796    1.4467941   335988 
 5139000   0.73817963    -3.345137   -1.8982476  0.039929585    -3.345137    1.4468894   336002 
 5140000   0.73869476   -3.3472088   -1.8992494   0.03791893   -3.3472088    1.4479594   335988 
 5141000   0.73743952   -3.3447987   -1.8990932  0.041812499   -3.3447987    1.4457055   335940 
 5142000   0.73909254   -3.3465405   -1.8975771  0.039697467   -3.3465405    1.4489634   335936 
 5143000   0.73817292   -3.3454162   -1.8981221  0.042136062   -3.3454162     1.447294   335905 
 5144000   0.73866584   -3.3465114    -1.898238  0.035455629   -3.3465114    1.4482734   335902 
 5145000   0.73718582   -3.3439728   -1.8982785  0.040243609   -3.3439728    1.4456944   335827 
 5146000   0.73841439   -3.3458071   -1.8976129  0.034109439   -3.3458071    1.4481943   335806 
 5147000    0.7379558   -3.3453757   -1.8980247  0.037706769   -3.3453757    1.4473509   335793 
 5148000   0.73642847   -3.3432478   -1.8987892   0.04030673   -3.3432478    1.4444586   335769 
 5149000   0.73720171    -3.344843    -1.898816  0.035624269    -3.344843     1.446027   335757 
 5150000   0.73738173   -3.3439728   -1.8975411  0.035994745   -3.3439728    1.4464318   335745 
 5151000   0.73735928   -3.3425867   -1.8961645  0.042350009   -3.3425867    1.4464222   335737 
 5152000   0.73846416   -3.3448013   -1.8959312  0.039626014   -3.3448013    1.4488701   335672 
 5153000   0.73851303   -3.3448828   -1.8956923  0.038010945   -3.3448828    1.4491904   335620 
 5154000   0.73771022   -3.3427909   -1.8950508  0.039562128   -3.3427909    1.4477402   335591 
 5155000   0.73623051   -3.3395496   -1.8946832  0.037433653   -3.3395496    1.4448664   335584 
 5156000   0.73791991   -3.3413752   -1.8931199  0.041966353   -3.3413752    1.4482553   335567 
 5157000   0.73877786   -3.3415073   -1.8915164  0.036710749   -3.3415073     1.449991   335555 
 5158000   0.73903994   -3.3428069   -1.8921416  0.040338793   -3.3428069    1.4506653   335518 
 5159000   0.73780308   -3.3422634   -1.8938662  0.037554423   -3.3422634    1.4483972   335481 
 5160000   0.73727104   -3.3378364   -1.8904362  0.043476206   -3.3378364    1.4474002   335470 
 5161000   0.73695877   -3.3384128    -1.891617  0.036492199   -3.3384128    1.4467958   335468 
 5162000   0.73750727    -3.339397   -1.8915978  0.036056339    -3.339397    1.4477992   335485 
 5163000   0.73797777   -3.3387362   -1.8899529  0.037869732   -3.3387362    1.4487833   335471 
 5164000   0.73533537   -3.3334425   -1.8897004  0.041772857   -3.3334425    1.4437421   335437 
 5165000   0.73725604    -3.336599   -1.8887838  0.035680684    -3.336599    1.4478152   335367 
 5166000   0.73748116     -3.33751   -1.8892441  0.040314489     -3.33751     1.448266   335365 
 5167000   0.73668818   -3.3352229   -1.8882812   0.04197906   -3.3352229    1.4469417   335311 
 5168000   0.73714469   -3.3371416   -1.8892126  0.038704346   -3.3371416     1.447929   335290 
 5169000   0.73798148   -3.3380042   -1.8881548  0.036592942   -3.3380042    1.4498494   335226 
 5170000   0.73764114   -3.3385622   -1.8891263  0.034362885   -3.3385622    1.4494359   335167 
 5171000   0.73684822   -3.3379769   -1.8896627  0.040278744   -3.3379769    1.4483143   335066 
 5172000   0.73548864   -3.3374349   -1.8914132  0.040024807   -3.3374349    1.4460217   334978 
 5173000   0.73703628   -3.3394644   -1.8901966  0.038486378   -3.3394644    1.4492678   334931 
 5174000   0.73781214   -3.3401698   -1.8892031  0.040439964   -3.3401698    1.4509667   334891 
 5175000   0.73712089   -3.3377565   -1.8879804  0.040653509   -3.3377565    1.4497762   334852 
 5176000   0.73683279    -3.337936   -1.8885966  0.040398861    -3.337936    1.4493394   334822 
 5177000   0.73546171   -3.3360739   -1.8893104  0.039680696   -3.3360739    1.4467635   334794 
 5178000   0.73676055   -3.3368564   -1.8875336  0.039566809   -3.3368564    1.4493228   334793 
 5179000   0.73508627   -3.3348517   -1.8887923  0.042803574   -3.3348517    1.4460595   334786 
 5180000   0.73572254   -3.3358101   -1.8884211  0.035220668   -3.3358101     1.447389   334768 
 5181000   0.73566397   -3.3360636   -1.8886039  0.035233382   -3.3360636    1.4474597   334725 
 5182000   0.73590815   -3.3368326   -1.8887411  0.040583945   -3.3368326    1.4480915   334690 
 5183000   0.73487106   -3.3368605   -1.8906153  0.038067167   -3.3368605    1.4462452   334645 
 5184000   0.73475025   -3.3370173   -1.8909667  0.038207425   -3.3370173    1.4460507   334635 
 5185000   0.73577906   -3.3357049   -1.8875732  0.041890381   -3.3357049    1.4481317   334622 
 5186000   0.73663365   -3.3366787   -1.8868607  0.035065088   -3.3366787     1.449818   334621 
 5187000   0.73425728   -3.3332689    -1.887912   0.03637735   -3.3332689    1.4453569   334571 
 5188000   0.73551297   -3.3365432   -1.8884635  0.035328504   -3.3365432    1.4480797   334513 
 5189000   0.73543498   -3.3388269   -1.8907449  0.033852757   -3.3388269     1.448082   334477 
 5190000   0.73519465   -3.3386247   -1.8910679  0.036760881   -3.3386247    1.4475569   334489 
 5191000   0.73637102   -3.3394398   -1.8895407  0.035327804   -3.3394398    1.4498991   334483 
 5192000   0.73430589   -3.3370855   -1.8911834  0.036518308   -3.3370855     1.445902   334467 
 5193000   0.73511045   -3.3368169   -1.8893869   0.03951766   -3.3368169      1.44743   334480 
 5194000   0.73494009   -3.3368797   -1.8899236  0.036556329   -3.3368797    1.4469562   334512 
 5195000   0.73480693   -3.3373158   -1.8904661  0.034373382   -3.3373158    1.4468497   334476 
 5196000   0.73475112   -3.3382378   -1.8912557  0.041326667   -3.3382378    1.4469821   334420 
 5197000   0.73518103    -3.339251   -1.8915132  0.039581153    -3.339251    1.4477378   334441 
 5198000   0.73569373    -3.339452   -1.8907912  0.032656203    -3.339452    1.4486608   334461 
 5199000    0.7342299     -3.33674   -1.8905292  0.036306179     -3.33674    1.4462107   334361 
 5200000   0.73536833   -3.3391616   -1.8905698  0.040024994   -3.3391616    1.4485917   334329 
 5201000   0.73621607     -3.34078   -1.8902363   0.03492383     -3.34078    1.4505437   334264 
 5202000   0.73613592   -3.3404875   -1.8902232   0.04041079   -3.3404875    1.4502643   334292 
 5203000   0.73592855   -3.3412597    -1.891122   0.04308966   -3.3412597    1.4501377   334227 
 5204000   0.73580456   -3.3405643   -1.8905234  0.038923431   -3.3405643    1.4500409   334193 
 5205000   0.73524026   -3.3392284   -1.8901825  0.046073099   -3.3392284    1.4490459   334166 
 5206000   0.73505543   -3.3412321   -1.8922513  0.040174611   -3.3412321    1.4489808   334097 
 5207000   0.73357441   -3.3397513   -1.8935427   0.03746735   -3.3397513    1.4462086   334063 
 5208000    0.7345017    -3.342177   -1.8938194  0.038918123    -3.342177    1.4483575   333989 
 5209000   0.73475797   -3.3432039   -1.8940807  0.043218868   -3.3432039    1.4491232   333929 
 5210000   0.73481075   -3.3438079   -1.8944895  0.038552699   -3.3438079    1.4493184   333908 
 5211000   0.73481618    -3.342256   -1.8927532  0.038981516    -3.342256    1.4495028   333868 
 5212000   0.73412787   -3.3429553   -1.8944676  0.038341561   -3.3429553    1.4484877   333789 
 5213000   0.73340516   -3.3419261   -1.8946215   0.03992773   -3.3419261    1.4473046   333733 
 5214000   0.73422233   -3.3427533   -1.8937406  0.042694124   -3.3427533    1.4490127   333711 
 5215000   0.73428698   -3.3412542   -1.8920965  0.044448672   -3.3412542    1.4491577   333707 
 5216000   0.73379872   -3.3407798    -1.892221  0.038459975   -3.3407798    1.4485587   333623 
 5217000   0.73368471   -3.3413302    -1.892875  0.036402021   -3.3413302    1.4484552   333595 
 5218000   0.73229419   -3.3388052   -1.8927701  0.037678222   -3.3388052    1.4460351   333520 
 5219000   0.73349233   -3.3393352   -1.8909645  0.039224294   -3.3393352    1.4483706   333527 
 5220000   0.73317482   -3.3391765   -1.8911724  0.039499448   -3.3391765    1.4480042   333467 
 5221000   0.73243341   -3.3379367   -1.8912493  0.037022027   -3.3379367    1.4466874   333433 
 5222000   0.73290256   -3.3396157   -1.8916543  0.037034333   -3.3396157    1.4479615   333353 
 5223000   0.73259193   -3.3384987   -1.8908556  0.037726705   -3.3384987    1.4476431   333285 
 5224000   0.73254943     -3.33686   -1.8893834  0.041163606     -3.33686    1.4474766   333304 
 5225000   0.73100941   -3.3361025   -1.8915779  0.038066663   -3.3361025    1.4445246   333283 
 5226000   0.73045284   -3.3327965   -1.8892807   0.03910157   -3.3327965    1.4435157   333262 
 5227000   0.73065537   -3.3340914   -1.8898374  0.032927802   -3.3340914     1.444254   333184 
 5228000   0.73148955   -3.3345816   -1.8885528  0.031078477   -3.3345816    1.4460287   333155 
 5229000    0.7322684    -3.335947   -1.8881918  0.034247487    -3.335947    1.4477553   333112 
 5230000    0.7303065   -3.3318429   -1.8875937  0.035213667   -3.3318429    1.4442493   333026 
 5231000   0.73191011     -3.33428   -1.8867117  0.036764474     -3.33428    1.4475683   332992 
 5232000   0.73274064   -3.3358534   -1.8865641  0.036048859   -3.3358534    1.4492893   332974 
 5233000   0.73296976   -3.3363565   -1.8864921  0.039096536   -3.3363565    1.4498644   332946 
 5234000   0.73275243   -3.3344409   -1.8849628  0.041662965   -3.3344409     1.449478   332936 
 5235000   0.73222672   -3.3339395   -1.8853708  0.040618849   -3.3339395    1.4485687   332906 
 5236000   0.73262965   -3.3339469   -1.8843982  0.033108862   -3.3339469    1.4495486   332864 
 5237000   0.73149913   -3.3329783   -1.8855751   0.04221502   -3.3329783    1.4474032   332843 
 5238000   0.73297511   -3.3359447   -1.8854729  0.040496769   -3.3359447    1.4504718   332809 
 5239000   0.73180888    -3.334939   -1.8866619  0.035923631    -3.334939    1.4482771   332783 
 5240000   0.73142395   -3.3338983    -1.886222  0.039171619   -3.3338983    1.4476763   332746 
 5241000    0.7299997   -3.3334931   -1.8884838  0.037783394   -3.3334931    1.4450093   332711 
 5242000   0.73099543   -3.3331475   -1.8860366  0.040501661   -3.3331475    1.4471108   332681 
 5243000   0.73079859   -3.3331621   -1.8861234  0.038501992   -3.3331621    1.4470387   332608 
 5244000   0.73133202   -3.3335511   -1.8854082  0.039003948   -3.3335511    1.4481428   332597 
 5245000   0.73279635   -3.3374439   -1.8861353  0.035461373   -3.3374439    1.4513086   332536 
 5246000   0.73066426   -3.3345416   -1.8871249  0.040315024   -3.3345416    1.4474167   332460 
 5247000   0.72973772   -3.3323051   -1.8865542  0.038936659   -3.3323051    1.4457509   332421 
 5248000   0.73057317   -3.3357057   -1.8880252  0.035522907   -3.3357057    1.4476805   332358 
 5249000   0.72934971   -3.3336762   -1.8882157  0.035559789   -3.3336762    1.4454605   332311 
 5250000    0.7283927   -3.3342711   -1.8904466  0.032489705   -3.3342711    1.4438245   332251 
 5251000   0.72836369   -3.3349627   -1.8911174  0.033603137   -3.3349627    1.4438453   332233 
 5252000   0.72872247   -3.3365588   -1.8918632  0.037913266   -3.3365588    1.4446956   332201 
 5253000   0.72819795   -3.3362205   -1.8925169  0.033488286   -3.3362205    1.4437036   332190 
 5254000    0.7277671    -3.338211   -1.8950054  0.030101401    -3.338211    1.4432056   332108 
 5255000   0.72833011   -3.3376236   -1.8932189  0.038242622   -3.3376236    1.4444047   332089 
 5256000    0.7289262   -3.3385743   -1.8926783  0.033579986   -3.3385743     1.445896   332018 
 5257000   0.72892385   -3.3394601   -1.8933117  0.036914623   -3.3394601    1.4461483   331959 
 5258000   0.73041233   -3.3415518   -1.8922888  0.041903401   -3.3415518    1.4492629   331922 
 5259000   0.72991392   -3.3419972   -1.8935748  0.041237275   -3.3419972    1.4484224   331888 
 5260000   0.72947178   -3.3406622   -1.8930779  0.038266243   -3.3406622    1.4475843   331879 
 5261000   0.72837341   -3.3384911   -1.8929165  0.043999201   -3.3384911    1.4455745   331840 
 5262000    0.7293379    -3.344995   -1.8971878  0.035942275    -3.344995    1.4478072   331767 
 5263000   0.72905688   -3.3434002   -1.8959327  0.039854032   -3.3434002    1.4474675   331717 
 5264000   0.73016981   -3.3445487   -1.8947274  0.038316595   -3.3445487    1.4498213   331684 
 5265000   0.73049171   -3.3466194   -1.8961677    0.0385927   -3.3466194    1.4504517   331686 
 5266000   0.72960126    -3.343361   -1.8945724  0.041561921    -3.343361    1.4487885   331662 
 5267000   0.72888363   -3.3426893   -1.8951643   0.04170731   -3.3426893     1.447525   331625 
 5268000   0.72996026    -3.343033   -1.8933087   0.04165673    -3.343033    1.4497243   331611 
 5269000   0.73263615   -3.3478265   -1.8927132  0.037946956   -3.3478265    1.4551133   331594 
 5270000   0.73066148   -3.3446994   -1.8933286  0.044219017   -3.3446994    1.4513708   331553 
 5271000   0.72943881   -3.3435899   -1.8947526  0.040342955   -3.3435899    1.4488372   331577 
 5272000   0.72992344   -3.3437517   -1.8939737  0.040107035   -3.3437517     1.449778   331582 
 5273000   0.73015521   -3.3434591   -1.8931989  0.040191945   -3.3434591    1.4502602   331577 
 5274000    0.7292642   -3.3405714   -1.8920067  0.037701341   -3.3405714    1.4485647   331560 
 5275000   0.72843623   -3.3382136   -1.8913678     0.040587   -3.3382136    1.4468459   331577 
 5276000   0.72829438   -3.3400001   -1.8931218  0.035980459   -3.3400001    1.4468783   331505 
 5277000   0.72748439   -3.3409402   -1.8955751  0.036369025   -3.3409402    1.4453651   331483 
 5278000   0.72764772   -3.3393126   -1.8937756  0.033713982   -3.3393126    1.4455369   331518 
 5279000   0.72903198    -3.340911   -1.8925149  0.040065477    -3.340911    1.4483961   331493 
 5280000   0.72854898   -3.3401595    -1.892461  0.038140959   -3.3401595    1.4476985   331433 
 5281000   0.72781722   -3.3366821   -1.8903067  0.036286902   -3.3366821    1.4463754   331403 
 5282000   0.72895864   -3.3397185   -1.8909611  0.041022953   -3.3397185    1.4487574   331377 
 5283000   0.72904275   -3.3392923    -1.890241  0.038685441   -3.3392923    1.4490513   331348 
 5284000   0.72963053   -3.3392381   -1.8891891  0.039124959   -3.3392381    1.4500489   331387 
 5285000   0.72854573   -3.3385683   -1.8903956  0.041837604   -3.3385683    1.4481727   331323 
 5286000   0.72891863   -3.3390307   -1.8899024   0.03829813   -3.3390307    1.4491283   331274 
 5287000   0.72888354   -3.3388955    -1.889662  0.040424351   -3.3388955    1.4492335   331234 
 5288000   0.72873697   -3.3396011   -1.8904534   0.03985056   -3.3396011    1.4491477   331187 
 5289000    0.7285603   -3.3381286   -1.8891572  0.040360945   -3.3381286    1.4489714   331147 
 5290000   0.72866874   -3.3396522    -1.890242  0.038404944   -3.3396522    1.4494103   331096 
 5291000   0.73038972   -3.3421837   -1.8891878   0.04142705   -3.3421837    1.4529959   331059 
 5292000   0.72889432   -3.3390707   -1.8888175   0.04278094   -3.3390707    1.4502532   331006 
 5293000   0.73013298   -3.3413086     -1.88849  0.038832979   -3.3413086    1.4528187   330983 
 5294000   0.72945486    -3.339914   -1.8882078  0.041066935    -3.339914    1.4517062   330929 
 5295000    0.7268688   -3.3364794   -1.8896969  0.040943565   -3.3364794    1.4467826   330878 
 5296000   0.72732512   -3.3391594   -1.8911973  0.039239691   -3.3391594    1.4479622   330816 
 5297000   0.72639795    -3.338085   -1.8918463  0.036854607    -3.338085    1.4462388   330788 
 5298000   0.72467881   -3.3348275   -1.8917977  0.038444503   -3.3348275    1.4430298   330739 
 5299000   0.72712877   -3.3375994   -1.8896605  0.040529735   -3.3375994    1.4479389   330732 
 5300000   0.72586199   -3.3351209   -1.8896695  0.040230751   -3.3351209    1.4454513   330724 
 5301000   0.72733435   -3.3349057   -1.8864172  0.038470344   -3.3349057    1.4484884   330700 
 5302000   0.72754886   -3.3361309   -1.8870707  0.036460048   -3.3361309    1.4490602   330667 
 5303000   0.72809225   -3.3363134     -1.88607  0.040967228   -3.3363134    1.4502434   330644 
 5304000   0.72679959   -3.3351241   -1.8871709  0.044666545   -3.3351241    1.4479533   330579 
 5305000   0.72739399    -3.336935   -1.8875783  0.043198824    -3.336935    1.4493567   330529 
 5306000   0.72552874   -3.3344114   -1.8886445  0.035102297   -3.3344114    1.4457669   330500 
 5307000   0.72670244   -3.3352328   -1.8869518   0.04143875   -3.3352328    1.4482811   330460 
 5308000   0.72800462   -3.3367404   -1.8855612  0.037982765   -3.3367404    1.4511793   330391 
 5309000   0.72715115   -3.3363425   -1.8866539  0.031538989   -3.3363425    1.4496886   330343 
 5310000   0.72728006   -3.3368575   -1.8868636  0.036046827   -3.3368575    1.4499939   330332 
 5311000   0.72573465   -3.3340915    -1.886837  0.033759656   -3.3340915    1.4472545   330254 
 5312000   0.72658751   -3.3353081   -1.8863353  0.041135295   -3.3353081    1.4489728   330250 
 5313000   0.72654761   -3.3361395   -1.8869918  0.037274321   -3.3361395    1.4491477   330192 
 5314000   0.72643701   -3.3351513   -1.8862724  0.039156242   -3.3351513    1.4488789   330203 
 5315000   0.72713822    -3.336083   -1.8856869  0.040856534    -3.336083     1.450396   330176 
 5316000   0.72625058   -3.3349257   -1.8861817  0.041455566   -3.3349257     1.448744   330149 
 5317000   0.72633374   -3.3346911   -1.8855179  0.041024816   -3.3346911    1.4491732   330089 
 5318000   0.72637968    -3.333741   -1.8845288  0.036750384    -3.333741    1.4492122   330101 
 5319000   0.72420017   -3.3306854   -1.8858434  0.036128209   -3.3306854    1.4448419   330106 
 5320000   0.72419094   -3.3306012   -1.8856902  0.034476558   -3.3306012    1.4449111   330086 
 5321000   0.72405459   -3.3299894   -1.8851447  0.035248131   -3.3299894    1.4448447   330039 
 5322000   0.72467011   -3.3330508    -1.886877  0.033884315   -3.3330508    1.4461738   330016 
 5323000   0.72530566   -3.3350712   -1.8873352  0.036954224   -3.3350712     1.447736   329949 
 5324000   0.72725849   -3.3367928   -1.8848597  0.037766273   -3.3367928    1.4519332   329881 
 5325000   0.72692363   -3.3355541   -1.8841134  0.043376232   -3.3355541    1.4514407   329841 
 5326000   0.72760885   -3.3365454   -1.8836661  0.046108257   -3.3365454    1.4528793   329825 
 5327000   0.72810461   -3.3396082   -1.8854921  0.039327442   -3.3396082    1.4541161   329769 
 5328000   0.72737029   -3.3383974   -1.8856113  0.042661152   -3.3383974    1.4527861   329738 
 5329000   0.72674645   -3.3383191   -1.8866425  0.044191493   -3.3383191    1.4516766   329707 
 5330000   0.72660169   -3.3378613   -1.8863109  0.037458367   -3.3378613    1.4515504   329670 
 5331000   0.72527859   -3.3369252   -1.8877499  0.042153617   -3.3369252    1.4491753   329609 
 5332000   0.72582737   -3.3383608   -1.8878865  0.043894858   -3.3383608    1.4504742   329563 
 5333000   0.72524228   -3.3376882   -1.8882512  0.039727008   -3.3376882     1.449437   329533 
 5334000    0.7264754    -3.338241   -1.8863044  0.031950841    -3.338241    1.4519367   329525 
 5335000   0.72363864   -3.3336984   -1.8872644   0.03933456   -3.3336984    1.4464339   329487 
 5336000   0.72501843   -3.3372114   -1.8876412  0.041207421   -3.3372114    1.4495702   329401 
 5337000   0.72378002   -3.3361843    -1.889011  0.040230818   -3.3361843    1.4471733   329383 
 5338000   0.72399933   -3.3350282   -1.8873549  0.042564071   -3.3350282    1.4476733   329369 
 5339000   0.72399737   -3.3351275   -1.8872735  0.036951465   -3.3351275     1.447854   329327 
 5340000    0.7230383   -3.3316894   -1.8858368  0.034858111   -3.3316894    1.4458527   329346 
 5341000   0.72434471   -3.3358927   -1.8873001  0.040391774   -3.3358927    1.4485926   329317 
 5342000   0.72494182   -3.3349644   -1.8850103  0.036020689   -3.3349644    1.4499541   329279 
 5343000   0.72497553   -3.3337282   -1.8834336  0.038354365   -3.3337282    1.4502946   329217 
 5344000   0.72466787   -3.3339185   -1.8841733  0.035763685   -3.3339185    1.4497452   329202 
 5345000   0.72324947   -3.3296732   -1.8827305  0.038058307   -3.3296732    1.4469427   329194 
 5346000   0.72389317   -3.3323141   -1.8838195  0.033953078   -3.3323141    1.4484945   329134 
 5347000   0.72315489   -3.3313461   -1.8840562  0.031368664   -3.3313461    1.4472899   329072 
 5348000   0.72346563   -3.3305092   -1.8824258  0.034208272   -3.3305092    1.4480834   329033 
 5349000    0.7230141    -3.330179   -1.8829774  0.039646461    -3.330179    1.4472016   329028 
 5350000   0.72193926   -3.3294345   -1.8842481  0.039595579   -3.3294345    1.4451864   328997 
 5351000   0.72444377   -3.3338576    -1.883402  0.039318612   -3.3338576    1.4504556   328939 
 5352000   0.72439917   -3.3328545    -1.882303  0.035716087   -3.3328545    1.4505515   328897 
 5353000   0.72342314   -3.3305054   -1.8818598  0.035293348   -3.3305054    1.4486456   328886 
 5354000   0.72433425    -3.332784   -1.8820802   0.03708235    -3.332784    1.4507038   328833 
 5355000   0.72433336   -3.3332777   -1.8821299  0.039525824   -3.3332777    1.4511478   328732 
 5356000   0.72409438   -3.3321897   -1.8813662  0.040360708   -3.3321897    1.4508235   328697 
 5357000   0.72463826   -3.3341204   -1.8821542  0.038158578   -3.3341204    1.4519662   328685 
 5358000   0.72448159   -3.3325428   -1.8807271   0.04025236   -3.3325428    1.4518157   328648 
 5359000    0.7243619   -3.3327254   -1.8811495  0.042466808   -3.3327254    1.4515759   328648 
 5360000   0.72287646   -3.3300764   -1.8814773   0.04107083   -3.3300764    1.4485991   328648 
 5361000   0.72292655   -3.3301104   -1.8813272  0.039765767   -3.3301104    1.4487833   328629 
 5362000   0.72156392   -3.3294998   -1.8830336  0.036797672   -3.3294998    1.4464662   328535 
 5363000   0.72236783   -3.3325072   -1.8844735  0.034958696   -3.3325072    1.4480337   328545 
 5364000   0.72302824   -3.3313508   -1.8820242  0.034384897   -3.3313508    1.4493266   328552 
 5365000    0.7227683   -3.3315899    -1.882727  0.035011203   -3.3315899    1.4488629   328539 
 5366000   0.72143553   -3.3300964   -1.8836498  0.038513291   -3.3300964    1.4464466   328481 
 5367000   0.72209322   -3.3316495   -1.8835448  0.035971364   -3.3316495    1.4481047   328404 
 5368000   0.72276863   -3.3323138   -1.8827443  0.038620273   -3.3323138    1.4495695   328379 
 5369000   0.72169565   -3.3310309   -1.8834899  0.040269056   -3.3310309     1.447541   328351 
 5370000   0.72212505   -3.3301872   -1.8817805  0.042868959   -3.3301872    1.4484067   328350 
 5371000   0.72373424   -3.3332423    -1.881524  0.038683826   -3.3332423    1.4517183   328331 
 5372000   0.72283485   -3.3314492   -1.8815261  0.035577812   -3.3314492    1.4499231   328329 
 5373000   0.72226837   -3.3307815   -1.8816504  0.039261272   -3.3307815    1.4491311   328251 
 5374000   0.72273791   -3.3312312   -1.8811094  0.040200429   -3.3312312    1.4501217   328240 
 5375000   0.72126874   -3.3282474    -1.880875  0.040414127   -3.3282474    1.4473724   328195 
 5376000   0.72177143   -3.3305822   -1.8817994  0.034351538   -3.3305822    1.4487828   328104 
 5377000   0.72205608   -3.3287197    -1.879339  0.042254895   -3.3287197    1.4493807   328098 
 5378000   0.72140597   -3.3279148   -1.8797861  0.036613458   -3.3279148    1.4481287   328086 
 5379000   0.72242453   -3.3292961   -1.8790167  0.041508191   -3.3292961    1.4502794   328062 
 5380000   0.72255242   -3.3295456   -1.8788546  0.036123844   -3.3295456    1.4506909   328027 
 5381000   0.72213029   -3.3309938   -1.8810133  0.036786301   -3.3309938    1.4499805   327996 
 5382000   0.72031005   -3.3254968   -1.8790566  0.041905375   -3.3254968    1.4464402   327970 
 5383000   0.72200963   -3.3281395   -1.8782952  0.035499733   -3.3281395    1.4498443   327972 
 5384000   0.72109555   -3.3250636   -1.8770637  0.040483136   -3.3250636    1.4479999   327974 
 5385000    0.7209181   -3.3252395   -1.8775474  0.034339447   -3.3252395    1.4476921   327963 
 5386000   0.72135742   -3.3261684   -1.8773953  0.033048634   -3.3261684    1.4487731   327918 
 5387000   0.71899985   -3.3224074   -1.8782371   0.03660092   -3.3224074    1.4441703   327888 
 5388000    0.7204394   -3.3249992   -1.8776329  0.040086477   -3.3249992    1.4473663   327819 
 5389000   0.72057035   -3.3244547   -1.8768341  0.040302855   -3.3244547    1.4476206   327821 
 5390000   0.72116611   -3.3262338    -1.877045  0.035491037   -3.3262338    1.4491888   327737 
 5391000    0.7206379   -3.3241451   -1.8760001  0.043429833   -3.3241451     1.448145   327733 
 5392000   0.72122948   -3.3237905   -1.8745142  0.039762568   -3.3237905    1.4492763   327746 
 5393000   0.72148143   -3.3247266   -1.8748687  0.040267556   -3.3247266    1.4498578   327729 
 5394000   0.72178617   -3.3248924   -1.8743337  0.037762259   -3.3248924    1.4505587   327709 
 5395000   0.72233711   -3.3259092   -1.8739641  0.039605206   -3.3259092    1.4519451   327646 
 5396000   0.72148734   -3.3235621   -1.8730462  0.041989136   -3.3235621    1.4505159   327583 
 5397000   0.72317128   -3.3269708   -1.8728875  0.037072106   -3.3269708    1.4540834   327542 
 5398000   0.72221428     -3.32385   -1.8716687  0.042392847     -3.32385    1.4521813   327537 
 5399000   0.72171389   -3.3236786   -1.8726319  0.039253016   -3.3236786    1.4510467   327566 
 5400000   0.72113239    -3.320974   -1.8708176    0.0410644    -3.320974    1.4501564   327503 
 5401000   0.72135433   -3.3230165   -1.8722941  0.039386317   -3.3230165    1.4507223   327476 
 5402000   0.72040198   -3.3198119   -1.8708278  0.042515828   -3.3198119    1.4489841   327436 
 5403000   0.72247045   -3.3236721   -1.8702347  0.039410824   -3.3236721    1.4534374   327370 
 5404000   0.72096355     -3.32092   -1.8704166  0.039610888     -3.32092    1.4505034   327348 
 5405000   0.72188438   -3.3220391   -1.8697186  0.040722115   -3.3220391    1.4523205   327356 
 5406000    0.7206186   -3.3214434   -1.8713505  0.039917514   -3.3214434    1.4500929   327284 
 5407000   0.72164937   -3.3234011   -1.8710032   0.03904788   -3.3234011    1.4523979   327232 
 5408000   0.71982987   -3.3202331    -1.871568  0.037700555   -3.3202331    1.4486651   327248 
 5409000   0.72058711   -3.3200633   -1.8696305  0.042074117   -3.3200633    1.4504328   327193 
 5410000   0.72119822   -3.3213426   -1.8694623  0.034368081   -3.3213426    1.4518803   327144 
 5411000   0.71861845   -3.3188212   -1.8720371  0.041666149   -3.3188212    1.4467842   327122 
 5412000   0.71747604    -3.317163   -1.8725464  0.038918531    -3.317163    1.4446166   327092 
 5413000   0.71762554   -3.3163613   -1.8711874  0.036542541   -3.3163613    1.4451739   327034 
 5414000   0.71892909   -3.3206885   -1.8728895  0.034551154   -3.3206885     1.447799   327034 
 5415000   0.71870075   -3.3187563   -1.8713197  0.035990522   -3.3187563    1.4474366   327012 
 5416000    0.7182864   -3.3182094   -1.8713596  0.031974224   -3.3182094    1.4468498   326956 
 5417000   0.71910697   -3.3197864   -1.8712571  0.039754466   -3.3197864    1.4485293   326950 
 5418000   0.72029194   -3.3216184   -1.8705069  0.041080547   -3.3216184    1.4511115   326906 
 5419000   0.71835199   -3.3191019   -1.8717569  0.042461041   -3.3191019     1.447345   326874 
 5420000   0.71861576   -3.3203878   -1.8723076  0.041404406   -3.3203878    1.4480802   326828 
 5421000   0.71882706   -3.3205303   -1.8718337  0.039631879   -3.3205303    1.4486966   326785 
 5422000   0.71905787   -3.3210765   -1.8716974  0.034331269   -3.3210765    1.4493791   326736 
 5423000   0.71895086   -3.3209284   -1.8716186  0.041468155   -3.3209284    1.4493098   326703 
 5424000   0.71824316   -3.3202167   -1.8722937  0.039331468   -3.3202167     1.447923   326694 
 5425000   0.71845916   -3.3211673   -1.8727113  0.040216032   -3.3211673     1.448456   326672 
 5426000   0.71817482   -3.3192076    -1.871152  0.038492023   -3.3192076    1.4480556   326633 
 5427000   0.71714812   -3.3174982   -1.8713312  0.040223129   -3.3174982     1.446167   326592 
 5428000   0.71769459   -3.3181994   -1.8708196  0.041631275   -3.3181994    1.4473798   326567 
 5429000   0.71925067   -3.3229984   -1.8723205  0.036907594   -3.3229984    1.4506779   326531 
 5430000   0.71904631   -3.3214824   -1.8710301  0.040134166   -3.3214824    1.4504523   326489 
 5431000   0.71757324   -3.3204832   -1.8727097  0.035657007   -3.3204832    1.4477735   326423 
 5432000   0.71868336   -3.3227988   -1.8726034   0.03750355   -3.3227988    1.4501954   326382 
 5433000   0.71836597    -3.321475   -1.8718046  0.038782227    -3.321475    1.4496704   326356 
 5434000   0.71695852   -3.3193217    -1.872221  0.037883986   -3.3193217    1.4471007   326295 
 5435000   0.71590238   -3.3174175   -1.8724884  0.039782203   -3.3174175    1.4449291   326304 
 5436000   0.71755364   -3.3212236   -1.8729439  0.040806595   -3.3212236    1.4482797   326300 
 5437000   0.71775842   -3.3234441   -1.8744891  0.040154344   -3.3234441     1.448955   326241 
 5438000    0.7181154   -3.3236609   -1.8737987  0.034381133   -3.3236609    1.4498623   326199 
 5439000   0.71696268   -3.3227809   -1.8751661  0.037048896   -3.3227809    1.4476148   326181 
 5440000   0.71658632   -3.3225525    -1.875631  0.034650063   -3.3225525    1.4469215   326166 
 5441000   0.71777835   -3.3241041   -1.8746157  0.037136417   -3.3241041    1.4494884   326130 
 5442000   0.71433199   -3.3188632   -1.8760336    0.0357043   -3.3188632    1.4428296   326062 
 5443000   0.71733115   -3.3239311   -1.8750393  0.037958291   -3.3239311    1.4488918   326061 
 5444000   0.71596664   -3.3210528    -1.874611  0.038146849   -3.3210528    1.4464418   325992 
 5445000   0.71752955   -3.3249189   -1.8751372  0.036282059   -3.3249189    1.4497817   325951 
 5446000     0.715491   -3.3213512   -1.8756751  0.039544705   -3.3213512     1.445676   325948 
 5447000   0.71760337   -3.3252122   -1.8753036   0.03816512   -3.3252122    1.4499086   325956 
 5448000   0.71623361   -3.3224683    -1.875243  0.037737345   -3.3224683    1.4472254   325937 
 5449000   0.71599377   -3.3225908   -1.8758545  0.040216209   -3.3225908    1.4467363   325938 
 5450000   0.71627729   -3.3236755   -1.8760643  0.037225535   -3.3236755    1.4476112   325870 
 5451000   0.71580704   -3.3235227   -1.8766799  0.041116844   -3.3235227    1.4468428   325829 
 5452000   0.71681782   -3.3267537   -1.8775654  0.040080453   -3.3267537    1.4491884   325761 
 5453000   0.71557165   -3.3253654   -1.8783277  0.034049332   -3.3253654    1.4470377   325678 
 5454000    0.7150267    -3.324666   -1.8786504  0.037641678    -3.324666    1.4460156   325660 
 5455000   0.71529812   -3.3247016   -1.8780704  0.041521663   -3.3247016    1.4466311   325645 
 5456000   0.71593016   -3.3266832   -1.8786449  0.039645831   -3.3266832    1.4480383   325616 
 5457000   0.71705466   -3.3271114   -1.8765091  0.043116844   -3.3271114    1.4506023   325551 
 5458000    0.7159888   -3.3261797   -1.8772842  0.039770061   -3.3261797    1.4488956   325450 
 5459000    0.7148397   -3.3254851   -1.8786882  0.038604181   -3.3254851    1.4467969   325399 
 5460000   0.71454384   -3.3252583   -1.8788468  0.038569706   -3.3252583    1.4464115   325351 
 5461000   0.71337757   -3.3231249   -1.8789188   0.03577776   -3.3231249     1.444206   325316 
 5462000   0.71436405   -3.3242238   -1.8780651  0.039166266   -3.3242238    1.4461587   325326 
 5463000   0.71431648   -3.3222169     -1.87611  0.038871454   -3.3222169    1.4461068   325316 
 5464000   0.71619247   -3.3253189   -1.8751467   0.03625463   -3.3253189    1.4501722   325256 
 5465000   0.71518542   -3.3244178   -1.8760487  0.042994344   -3.3244178    1.4483691   325203 
 5466000   0.71723958   -3.3284827   -1.8758286  0.035851113   -3.3284827    1.4526542   325175 
 5467000   0.71354558   -3.3217092   -1.8762656  0.041713223   -3.3217092    1.4454437   325114 
 5468000   0.71423365    -3.322948   -1.8756609  0.039381415    -3.322948    1.4472871   325013 
 5469000   0.71564033   -3.3251239   -1.8747988  0.039191253   -3.3251239     1.450325   324971 
 5470000    0.7147787   -3.3226485   -1.8737754  0.038378411   -3.3226485    1.4488731   324905 
 5471000     0.716634   -3.3250697   -1.8724627   0.04088658   -3.3250697     1.452607   324911 
 5472000   0.71672247   -3.3240315   -1.8712362  0.047057617   -3.3240315    1.4527953   324909 
 5473000   0.71600702   -3.3227921    -1.871465  0.040984729   -3.3227921    1.4513272   324913 
 5474000    0.7165417   -3.3242527   -1.8716495  0.042460086   -3.3242527    1.4526032   324870 
 5475000   0.71447842   -3.3201632   -1.8715466  0.040160191   -3.3201632    1.4486166   324826 
 5476000   0.71396236   -3.3194312   -1.8716693  0.037381967   -3.3194312     1.447762   324783 
 5477000   0.71463572   -3.3224594    -1.873341  0.036287926   -3.3224594    1.4491185   324785 
 5478000   0.71318687    -3.318033   -1.8715942  0.043522921    -3.318033    1.4464388   324727 
 5479000   0.71469703   -3.3196468   -1.8699934  0.036909182   -3.3196468    1.4496534   324693 
 5480000   0.71311155    -3.317069   -1.8706093  0.036628445    -3.317069    1.4464598   324688 
 5481000    0.7148012   -3.3202741   -1.8701772  0.038000717   -3.3202741    1.4500969   324641 
 5482000   0.71237193   -3.3176633   -1.8722007  0.039888572   -3.3176633    1.4454626   324575 
 5483000   0.71378432   -3.3202195    -1.871592  0.038185848   -3.3202195    1.4486275   324508 
 5484000   0.71361296   -3.3197229   -1.8713495  0.034972431   -3.3197229    1.4483735   324487 
 5485000   0.71373142   -3.3190446    -1.870002  0.039705033   -3.3190446    1.4490426   324391 
 5486000   0.71427218   -3.3197334   -1.8694811   0.03520915   -3.3197334    1.4502522   324366 
 5487000   0.71315902   -3.3197203   -1.8714693  0.034567681   -3.3197203     1.448251   324308 
 5488000   0.71354413    -3.319013   -1.8699263  0.039715588    -3.319013    1.4490867   324296 
 5489000   0.71275609   -3.3175271   -1.8699827  0.037937007   -3.3175271    1.4475444   324283 
 5490000   0.71277102    -3.318274   -1.8706189  0.036475096    -3.318274    1.4476551   324265 
 5491000   0.71255402   -3.3166809   -1.8692479  0.036204265   -3.3166809     1.447433   324216 
 5492000   0.71282996   -3.3182659   -1.8700534  0.040020549   -3.3182659    1.4482124   324167 
 5493000   0.71335373     -3.31921   -1.8698217  0.035512387     -3.31921    1.4493883   324142 
 5494000   0.71359197   -3.3193483    -1.869382  0.040676726   -3.3193483    1.4499663   324121 
 5495000   0.71231086   -3.3164437   -1.8688438    0.0424515   -3.3164437    1.4475999   324068 
 5496000   0.71336356   -3.3188577   -1.8689797  0.040327573   -3.3188577     1.449878   324037 
 5497000   0.71237345   -3.3202369   -1.8720272  0.039784267   -3.3202369    1.4482098   323960 
 5498000   0.71194111   -3.3208392   -1.8733252   0.03522556   -3.3208392     1.447514   323919 
 5499000   0.71068635   -3.3198053   -1.8746907   0.03546241   -3.3198053    1.4451145   323885 
 5500000   0.71148951   -3.3214462     -1.87456  0.037388694   -3.3214462    1.4468862   323854 
 5501000   0.71198092   -3.3181222    -1.870344  0.037415428   -3.3181222    1.4477782   323878 
 5502000   0.71117544   -3.3185609   -1.8724697  0.037407626   -3.3185609    1.4460912   323889 
 5503000    0.7127368   -3.3214292   -1.8719976   0.04149855   -3.3214292    1.4494316   323852 
 5504000   0.71055415   -3.3182596   -1.8730748  0.042786067   -3.3182596    1.4451848   323809 
 5505000   0.71215744   -3.3199414   -1.8714062  0.039342208   -3.3199414    1.4485352   323789 
 5506000    0.7118891   -3.3190498   -1.8709351  0.045407438   -3.3190498    1.4481146   323761 
 5507000   0.71114896   -3.3192781   -1.8723383  0.043620737   -3.3192781    1.4469398   323687 
 5508000   0.71074886   -3.3194805   -1.8733682  0.042329347   -3.3194805    1.4461123   323690 
 5509000   0.71102515   -3.3194995   -1.8726954  0.037756536   -3.3194995    1.4468041   323661 
 5510000    0.7095716    -3.317835   -1.8737165  0.034070612    -3.317835    1.4441185   323600 
 5511000   0.71034939   -3.3207874   -1.8747642  0.035881749   -3.3207874    1.4460232   323528 
 5512000   0.71219162   -3.3227929    -1.872894  0.043889197   -3.3227929    1.4498989   323500 
 5513000   0.71205597    -3.322654   -1.8731478  0.039903378    -3.322654    1.4495062   323526 
 5514000   0.71043322    -3.321762   -1.8755234  0.038669304    -3.321762    1.4462386   323518 
 5515000   0.71072025    -3.321651   -1.8746671  0.041055293    -3.321651    1.4469839   323482 
 5516000   0.70940575    -3.318161   -1.8737238  0.038492819    -3.318161    1.4444372   323453 
 5517000   0.71025545   -3.3188198   -1.8724871  0.040296084   -3.3188198    1.4463327   323416 
 5518000   0.71038845    -3.318328   -1.8715992  0.036667215    -3.318328    1.4467288   323388 
 5519000   0.71022878   -3.3185608    -1.871862  0.040598731   -3.3185608    1.4466989   323322 
 5520000   0.71109853   -3.3217767   -1.8731808  0.037515411   -3.3217767     1.448596   323294 
 5521000   0.70948254   -3.3167537   -1.8711904  0.046937701   -3.3167537    1.4455633   323236 
 5522000   0.71114418   -3.3202987   -1.8710942  0.039599156   -3.3202987    1.4492045   323179 
 5523000    0.7099593    -3.320005   -1.8731972   0.03613801    -3.320005    1.4468077   323175 
 5524000    0.7100317   -3.3196139   -1.8725556  0.035488009   -3.3196139    1.4470583   323152 
 5525000   0.71054077   -3.3207196   -1.8723953  0.038179622   -3.3207196    1.4483244   323101 
 5526000   0.71094705   -3.3209991   -1.8718466   0.04024863   -3.3209991    1.4491525   323101 
 5527000   0.71019178   -3.3200732     -1.87216  0.035116479   -3.3200732    1.4479132   323034 
 5528000   0.70910577   -3.3198353   -1.8737915  0.036755752   -3.3198353    1.4460438   322957 
 5529000   0.70924863   -3.3195089    -1.873008   0.04062898   -3.3195089    1.4465009   322920 
 5530000    0.7110764    -3.321605   -1.8712462  0.039120644    -3.321605    1.4503588   322891 
 5531000   0.71027962   -3.3207497   -1.8717378  0.040015384   -3.3207497    1.4490119   322829 
 5532000   0.71022646   -3.3215473   -1.8723387  0.040920851   -3.3215473    1.4492087   322761 
 5533000   0.70885882   -3.3177839   -1.8711776  0.040199753   -3.3177839    1.4466063   322719 
 5534000    0.7083855    -3.317625   -1.8717741   0.04235541    -3.317625    1.4458509   322672 
 5535000   0.70789223   -3.3175671   -1.8725618   0.04154287   -3.3175671    1.4450053   322636 
 5536000   0.70928497   -3.3202338   -1.8722463  0.038631675   -3.3202338    1.4479874   322605 
 5537000   0.70885519   -3.3171366   -1.8698112  0.039145793   -3.3171366    1.4473254   322557 
 5538000    0.7083824   -3.3162456   -1.8696658  0.035815004   -3.3162456    1.4465798   322508 
 5539000   0.70843878   -3.3171522   -1.8704348  0.041911709   -3.3171522    1.4467174   322503 
 5540000   0.70947099   -3.3180863   -1.8692206  0.032488229   -3.3180863    1.4488657   322494 
 5541000    0.7082926   -3.3150929   -1.8684229  0.039874968   -3.3150929    1.4466701   322447 
 5542000   0.70631914   -3.3130103    -1.870201  0.036746053   -3.3130103    1.4428093   322409 
 5543000    0.7075998   -3.3147422   -1.8691644  0.039845094   -3.3147422    1.4455778   322375 
 5544000   0.70881348   -3.3152736   -1.8672208  0.034645513   -3.3152736    1.4480528   322376 
 5545000   0.70784385   -3.3138355   -1.8675887  0.038367463   -3.3138355    1.4462469   322337 
 5546000   0.70756146   -3.3134479   -1.8676659  0.037348297   -3.3134479     1.445782   322312 
 5547000   0.70964049    -3.315453   -1.8652564  0.039428302    -3.315453    1.4501967   322275 
 5548000   0.70861102   -3.3121029   -1.8637943  0.036362292   -3.3121029    1.4483086   322227 
 5549000   0.70936062   -3.3148734   -1.8648347  0.037648802   -3.3148734    1.4500387   322183 
 5550000   0.70878403   -3.3143788   -1.8652084  0.041247258   -3.3143788    1.4491704   322114 
 5551000   0.70808168   -3.3123708   -1.8644926  0.039340401   -3.3123708    1.4478782   322082 
 5552000   0.70859048   -3.3132428   -1.8642432  0.041403667   -3.3132428    1.4489996   322064 
 5553000   0.70742829   -3.3130632   -1.8663458  0.036354743   -3.3130632    1.4467174   322043 
 5554000   0.70631494   -3.3122178   -1.8675665  0.038578547   -3.3122178    1.4446513   321996 
 5555000   0.70757954   -3.3151427   -1.8678464  0.035578929   -3.3151427    1.4472963   321983 
 5556000    0.7081583   -3.3134058   -1.8646197  0.033910378   -3.3134058    1.4487861   321915 
 5557000    0.7063443   -3.3101288   -1.8648609  0.040815696   -3.3101288     1.445268   321872 
 5558000   0.70839262   -3.3126795   -1.8630538  0.039388813   -3.3126795    1.4496257   321835 
 5559000   0.70858605   -3.3143962   -1.8642575  0.035612615   -3.3143962    1.4501387   321809 
 5560000    0.7068303   -3.3118723   -1.8652953  0.037045589   -3.3118723     1.446577   321802 
 5561000   0.70638595   -3.3112176   -1.8654332  0.036984844   -3.3112176    1.4457844   321776 
 5562000   0.70769664   -3.3124134   -1.8637618  0.039702628   -3.3124134    1.4486516   321735 
 5563000   0.70809484   -3.3136311   -1.8637408  0.032502109   -3.3136311    1.4498903   321641 
 5564000   0.70591884   -3.3103673   -1.8649146  0.034662003   -3.3103673    1.4454527   321637 
 5565000   0.70540597   -3.3114499    -1.866962  0.035131509   -3.3114499    1.4444879   321618 
 5566000   0.70600992   -3.3128011   -1.8669236  0.035116849   -3.3128011    1.4458775   321584 
 5567000   0.70636087   -3.3114796   -1.8646899  0.037244248   -3.3114796    1.4467897   321541 
 5568000   0.70637577   -3.3108371   -1.8639179  0.036416459   -3.3108371    1.4469192   321519 
 5569000    0.7062704   -3.3111521   -1.8642327  0.037838745   -3.3111521    1.4469194   321471 
 5570000   0.70724767    -3.311739   -1.8628942  0.037123958    -3.311739    1.4488449   321488 
 5571000    0.7076664   -3.3134843   -1.8637456  0.039630166   -3.3134843    1.4497388   321480 
 5572000   0.70652328   -3.3112122   -1.8636622  0.039660583   -3.3112122      1.44755   321446 
 5573000    0.7067127   -3.3126075   -1.8642233  0.038095511   -3.3126075    1.4483842   321347 
 5574000   0.70642983   -3.3111804   -1.8632543  0.036122119   -3.3111804    1.4479261   321320 
 5575000   0.70549626   -3.3104155   -1.8641959  0.039879906   -3.3104155    1.4462197   321274 
 5576000   0.70623353   -3.3115195    -1.863775  0.038121386   -3.3115195    1.4477446   321271 
 5577000   0.70446916   -3.3087177   -1.8645091  0.036259726   -3.3087177    1.4442086   321253 
 5578000   0.70572133   -3.3123074   -1.8652705  0.034082497   -3.3123074    1.4470369   321195 
 5579000   0.70794112   -3.3138043   -1.8619808  0.041173884   -3.3138043    1.4518235   321143 
 5580000    0.7064099   -3.3112789   -1.8624287  0.036489665   -3.3112789    1.4488502   321106 
 5581000   0.70592874   -3.3102683   -1.8622336  0.040529177   -3.3102683    1.4480347   321068 
 5582000   0.70580878   -3.3132495   -1.8653977  0.033590801   -3.3132495    1.4478518   321054 
 5583000   0.70363663   -3.3093349    -1.865894  0.039518879   -3.3093349    1.4434409   321044 
 5584000   0.70202747   -3.3085988   -1.8681942  0.037438301   -3.3085988    1.4404046   320985 
 5585000   0.70338159    -3.310092   -1.8667337  0.033161882    -3.310092    1.4433583   320946 
 5586000   0.70540514   -3.3132457   -1.8655591  0.038303617   -3.3132457    1.4476866   320907 
 5587000   0.70568206     -3.31386   -1.8655193  0.037599845     -3.31386    1.4483407   320888 
 5588000   0.70460549    -3.312105   -1.8657665  0.042721036    -3.312105    1.4463385   320842 
 5589000   0.70646421   -3.3162618   -1.8659181    0.0382311   -3.3162618    1.4503437   320800 
 5590000    0.7065179   -3.3167464   -1.8660483  0.039107375   -3.3167464    1.4506981   320746 
 5591000   0.70529958   -3.3161211   -1.8676446  0.041018998   -3.3161211    1.4484765   320684 
 5592000   0.70439746   -3.3122436   -1.8655701  0.039732612   -3.3122436    1.4466735   320673 
 5593000   0.70501381   -3.3145975   -1.8665859  0.037043097   -3.3145975    1.4480116   320657 
 5594000   0.70576016   -3.3168806    -1.867092  0.038245065   -3.3168806    1.4497886   320603 
 5595000   0.70575571   -3.3188873   -1.8690309  0.040033642   -3.3188873    1.4498564   320586 
 5596000   0.70532412   -3.3177758   -1.8686207  0.035933101   -3.3177758    1.4491551   320545 
 5597000   0.70497638   -3.3161994   -1.8677136  0.039307333   -3.3161994    1.4484858   320535 
 5598000   0.70471667   -3.3161607   -1.8679148  0.037025413   -3.3161607    1.4482459   320470 
 5599000   0.70313817   -3.3148973   -1.8696022  0.039362943   -3.3148973    1.4452951   320405 
 5600000   0.70298089   -3.3148578   -1.8696424  0.038464161   -3.3148578    1.4452154   320351 
 5601000   0.70360923   -3.3153143   -1.8685317  0.032198169   -3.3153143    1.4467826   320290 
 5602000   0.70351733   -3.3151198   -1.8684313  0.042894629   -3.3151198    1.4466885   320269 
 5603000   0.70257888   -3.3150549    -1.870206  0.037519085   -3.3150549    1.4448489   320249 
 5604000   0.70290567   -3.3139012   -1.8684569  0.042429495   -3.3139012    1.4454442   320266 
 5605000   0.70216862   -3.3131244    -1.869029   0.03909693   -3.3131244    1.4440954   320229 
 5606000   0.70323618   -3.3143797   -1.8679351  0.036986802   -3.3143797    1.4464445   320195 
 5607000   0.70331068   -3.3137162   -1.8671138  0.037291984   -3.3137162    1.4466023   320194 
 5608000   0.70326359   -3.3135975   -1.8668209  0.039064407   -3.3135975    1.4467766   320134 
 5609000   0.70297063   -3.3123145   -1.8660186  0.037300542   -3.3123145    1.4462959   320107 
 5610000   0.70187868   -3.3118454   -1.8674441  0.039226667   -3.3118454    1.4444012   320029 
 5611000   0.70233895    -3.313315   -1.8677542  0.039316262    -3.313315    1.4455607   319982 
 5612000   0.70299283   -3.3143572   -1.8675275  0.042852245   -3.3143572    1.4468297   319999 
 5613000   0.70289917   -3.3166368   -1.8698733  0.039536047   -3.3166368    1.4467635   319971 
 5614000   0.70227688   -3.3122679    -1.866853  0.039493968   -3.3122679    1.4454149   319986 
 5615000   0.70350078   -3.3139858   -1.8659297  0.041140116   -3.3139858    1.4480561   319959 
 5616000   0.70229648   -3.3133504   -1.8674613  0.040125571   -3.3133504     1.445889   319890 
 5617000   0.70255218   -3.3137865   -1.8672173  0.041083569   -3.3137865    1.4465692   319856 
 5618000    0.7023924   -3.3127731   -1.8663791  0.039436109   -3.3127731     1.446394   319822 
 5619000   0.70308557   -3.3148433   -1.8669359  0.034773794   -3.3148433    1.4479074   319803 
 5620000   0.70304303   -3.3154085   -1.8673488  0.039280165   -3.3154085    1.4480598   319750 
 5621000   0.70230171   -3.3132006   -1.8664868  0.038485144   -3.3132006    1.4467139   319710 
 5622000    0.7019289   -3.3118717   -1.8657313  0.037831821   -3.3118717    1.4461404   319667 
 5623000   0.70274388    -3.313584   -1.8658008  0.040469156    -3.313584    1.4477832   319675 
 5624000   0.70379101   -3.3145528   -1.8646077  0.032371408   -3.3145528     1.449945   319674 
 5625000   0.70367159   -3.3140034   -1.8642137  0.037862084   -3.3140034    1.4497897   319654 
 5626000   0.70221992   -3.3129979   -1.8658052  0.037247491   -3.3129979    1.4471927   319567 
 5627000   0.70122946   -3.3091561   -1.8640091  0.040744156   -3.3091561    1.4451469   319568 
 5628000   0.70132549   -3.3095058   -1.8640479  0.038454581   -3.3095058    1.4454579   319543 
 5629000   0.70202582   -3.3094904   -1.8624035  0.034472433   -3.3094904     1.447087   319502 
 5630000   0.70278157   -3.3113415   -1.8626514  0.038582349   -3.3113415    1.4486902   319492 
 5631000   0.70218992     -3.31048   -1.8628781  0.041558473     -3.31048    1.4476019   319463 
 5632000   0.70264615   -3.3109767   -1.8622301  0.033957544   -3.3109767    1.4487466   319418 
 5633000   0.70202348   -3.3100307   -1.8623323  0.044442819   -3.3100307    1.4476984   319366 
 5634000   0.70401881   -3.3125926   -1.8606022  0.038133825   -3.3125926    1.4519904   319327 
 5635000   0.70295271   -3.3122041   -1.8622989  0.040566457   -3.3122041    1.4499052   319302 
 5636000   0.70261351   -3.3114854   -1.8620619  0.041949616   -3.3114854    1.4494234   319254 
 5637000   0.70267048   -3.3101954   -1.8603774  0.038758032   -3.3101954     1.449818   319193 
 5638000   0.70145608   -3.3096586   -1.8623689  0.039991381   -3.3096586    1.4472896   319198 
 5639000   0.70116128   -3.3099141   -1.8629471  0.037787428   -3.3099141     1.446967   319135 
 5640000   0.70037928   -3.3085192    -1.863012  0.038894224   -3.3085192    1.4455072   319101 
 5641000   0.70220257   -3.3130119   -1.8635236   0.03670138   -3.3130119    1.4494883   319053 
 5642000   0.70180855   -3.3108805   -1.8621192  0.036150101   -3.3108805    1.4487612   319034 
 5643000   0.69933882   -3.3092056   -1.8653254  0.040035505   -3.3092056    1.4438801   318986 
 5644000   0.70199035   -3.3143296   -1.8646341  0.037605714   -3.3143296    1.4496955   318911 
 5645000   0.70130707   -3.3103106   -1.8618309  0.034060773   -3.3103106    1.4484797   318868 
 5646000   0.70004518   -3.3106044   -1.8645633  0.035687781   -3.3106044    1.4460412   318831 
 5647000   0.70051856   -3.3114273   -1.8642494   0.04273391   -3.3114273    1.4471779   318796 
 5648000   0.70104915   -3.3138228   -1.8653989   0.03766285   -3.3138228    1.4484239   318763 
 5649000   0.70135215    -3.313888   -1.8648744  0.039675078    -3.313888    1.4490136   318771 
 5650000   0.70183476   -3.3133014   -1.8631998  0.040965945   -3.3133014    1.4501017   318751 
 5651000   0.70213973   -3.3136767   -1.8626353  0.043590818   -3.3136767    1.4510413   318683 
 5652000   0.70163727    -3.313568   -1.8635241  0.045228087    -3.313568    1.4500439   318674 
 5653000   0.70241854   -3.3146664   -1.8628028  0.043735972   -3.3146664    1.4518635   318629 
 5654000   0.70087685   -3.3133655   -1.8643612  0.040333209   -3.3133655    1.4490044   318557 
 5655000   0.70202902   -3.3156465    -1.864251   0.03609406   -3.3156465    1.4513955   318555 
 5656000   0.69969407   -3.3126379   -1.8659789   0.04326212   -3.3126379     1.446659   318535 
 5657000   0.70080732   -3.3149455   -1.8660167  0.042063299   -3.3149455    1.4489288   318542 
 5658000   0.70124325   -3.3144917    -1.864607  0.036090886   -3.3144917    1.4498848   318530 
 5659000   0.70033881   -3.3124265   -1.8641162   0.04022422   -3.3124265    1.4483103   318465 
 5660000   0.70012459   -3.3112594   -1.8634103  0.038811417   -3.3112594    1.4478491   318469 
 5661000   0.70228103   -3.3139854   -1.8616403  0.037793696   -3.3139854    1.4523451   318461 
 5662000   0.70205316   -3.3120048   -1.8598529  0.042717254   -3.3120048     1.452152   318400 
 5663000   0.70137318   -3.3105314   -1.8596629  0.040576446   -3.3105314    1.4508685   318373 
 5664000   0.70031411   -3.3085363   -1.8599177  0.040499763   -3.3085363    1.4486186   318386 
 5665000   0.69995771   -3.3082929   -1.8601477  0.036231154   -3.3082929    1.4481451   318328 
 5666000   0.70059758   -3.3078567   -1.8580552  0.037392469   -3.3078567    1.4498015   318255 
 5667000   0.69751124   -3.3053388   -1.8617382  0.037832657   -3.3053388    1.4436006   318214 
 5668000   0.69767982   -3.3067651   -1.8625615  0.029928209   -3.3067651    1.4442037   318158 
 5669000   0.69812025   -3.3061023   -1.8608324  0.037771201   -3.3061023    1.4452698   318124 
 5670000   0.69899074   -3.3060532   -1.8587265  0.038260992   -3.3060532    1.4473267   318068 
 5671000   0.69946224   -3.3074245   -1.8588846   0.03928502   -3.3074245    1.4485398   318016 
 5672000   0.70048767   -3.3082094   -1.8574639  0.036575741   -3.3082094    1.4507455   317998 
 5673000      0.69979    -3.305905   -1.8564175  0.044379876    -3.305905    1.4494875   317957 
 5674000   0.69981738   -3.3040911   -1.8543234  0.043511086   -3.3040911    1.4497676   317908 
 5675000   0.69841901   -3.3028959   -1.8559705  0.038489101   -3.3028959    1.4469253   317896 
 5676000   0.69929175    -3.305339   -1.8564415  0.035909782    -3.305339    1.4488975   317860 
 5677000   0.69801828   -3.3013772   -1.8548998  0.038582664   -3.3013772    1.4464773   317812 
 5678000   0.69897732   -3.3008912   -1.8524128  0.040382492   -3.3008912    1.4484784   317809 
 5679000    0.6986433   -3.3014634   -1.8534312  0.035949474   -3.3014634    1.4480323   317755 
 5680000   0.69755701   -3.2992513   -1.8533614  0.035506769   -3.2992513      1.44589   317731 
 5681000   0.69922189   -3.3024591   -1.8531319  0.036826391   -3.3024591    1.4493273   317734 
 5682000   0.69794167   -3.3015806   -1.8545062  0.039528667   -3.3015806    1.4470744   317646 
 5683000   0.69850912   -3.3019682   -1.8536124  0.037684394   -3.3019682    1.4483558   317623 
 5684000   0.69711905   -3.3006544    -1.854794  0.037879735   -3.3006544    1.4458604   317538 
 5685000   0.69827269    -3.303483   -1.8548421  0.034874051    -3.303483    1.4486409   317453 
 5686000   0.69928599   -3.3044938    -1.853577  0.039143859   -3.3044938    1.4509168   317415 
 5687000   0.69893384   -3.3050985   -1.8546382  0.040575001   -3.3050985    1.4504603   317355 
 5688000   0.69817852   -3.3045917    -1.855603  0.041469158   -3.3045917    1.4489887   317334 
 5689000   0.69796314   -3.3029526   -1.8544337  0.039401365   -3.3029526    1.4485189   317339 
 5690000    0.6994768   -3.3042336   -1.8526282  0.039489369   -3.3042336    1.4516054   317351 
 5691000   0.69771029   -3.3007729   -1.8526738  0.039779285   -3.3007729    1.4480991   317316 
 5692000    0.6981389   -3.3010199   -1.8518896  0.041310155   -3.3010199    1.4491303   317285 
 5693000   0.69901379    -3.304629   -1.8534403  0.038507592    -3.304629    1.4511887   317232 
 5694000   0.69742623   -3.3045452   -1.8563784  0.042997656   -3.3045452    1.4481667   317172 
 5695000   0.69628059   -3.3030139   -1.8571212  0.043396248   -3.3030139    1.4458927   317149 
 5696000   0.69688726   -3.3036824   -1.8564934  0.040375561   -3.3036824     1.447189   317141 
 5697000   0.69666027    -3.303493   -1.8563372  0.040080222    -3.303493    1.4471557   317045 
 5698000   0.69666977   -3.3049102   -1.8575384  0.037044442   -3.3049102    1.4473718   317002 
 5699000   0.69608089   -3.3063028   -1.8599127  0.036846515   -3.3063028    1.4463902   316949 
 5700000   0.69562508   -3.3040974   -1.8583031  0.037032495   -3.3040974    1.4457943   316872 
 5701000   0.69559549   -3.3036705   -1.8578556   0.03678234   -3.3036705    1.4458149   316854 
 5702000   0.69594849   -3.3060181    -1.859054  0.033627855   -3.3060181    1.4469642   316763 
 5703000   0.69425519   -3.3025977   -1.8590538  0.039731758   -3.3025977    1.4435439   316741 
 5704000   0.69536405   -3.3015867   -1.8557098  0.040373312   -3.3015867    1.4458769   316735 
 5705000   0.69709454   -3.3058542    -1.856338  0.035633303   -3.3058542    1.4495163   316726 
 5706000   0.69589452   -3.3045356   -1.8572633  0.039060705   -3.3045356    1.4472723   316671 
 5707000   0.69595872   -3.3047421   -1.8572586  0.038091286   -3.3047421    1.4474835   316654 
 5708000   0.69643514    -3.303402   -1.8548589  0.040886429    -3.303402     1.448543   316639 
 5709000   0.69558088    -3.304173   -1.8572971  0.036163707    -3.304173    1.4468759   316615 
 5710000   0.69604678   -3.3044902   -1.8563891  0.037610976   -3.3044902    1.4481011   316559 
 5711000    0.6963942    -3.305874   -1.8569539  0.036697726    -3.305874    1.4489201   316538 
 5712000   0.69623956   -3.3050596   -1.8563011  0.038634562   -3.3050596    1.4487585   316503 
 5713000   0.69539902    -3.303356   -1.8563374  0.036544283    -3.303356    1.4470186   316501 
 5714000   0.69658521   -3.3050185   -1.8556049  0.036370927   -3.3050185    1.4494136   316517 
 5715000   0.69440192   -3.3020032   -1.8569041  0.040810313   -3.3020032     1.445099   316467 
 5716000   0.69571603    -3.303884   -1.8560411   0.03880533    -3.303884     1.447843   316465 
 5717000   0.69525229   -3.3029616   -1.8559694    0.0367643   -3.3029616    1.4469922   316440 
 5718000   0.69783036   -3.3052474   -1.8527061  0.036427321   -3.3052474    1.4525414   316400 
 5719000   0.69574324    -3.303333   -1.8549712  0.033952474    -3.303333    1.4483618   316364 
 5720000   0.69514086   -3.3034005   -1.8560364   0.03906457   -3.3034005     1.447364   316308 
 5721000   0.69329037   -3.3029454   -1.8592335  0.035694552   -3.3029454    1.4437119   316264 
 5722000   0.69359938   -3.3001516   -1.8558145  0.040389055   -3.3001516    1.4443371   316268 
 5723000   0.69371051   -3.3018038   -1.8568972  0.039003251   -3.3018038    1.4449066   316194 
 5724000   0.69455566   -3.3017188   -1.8548871  0.036885298   -3.3017188    1.4468317   316158 
 5725000    0.6947668   -3.3043752   -1.8570533  0.036437378   -3.3043752    1.4473219   316147 
 5726000   0.69430391   -3.3040896   -1.8572377  0.037887092   -3.3040896    1.4468518   316039 
 5727000   0.69455029   -3.3034106    -1.855972  0.038763802   -3.3034106    1.4474385   316023 
 5728000   0.69494795   -3.3042862   -1.8559135  0.039547671   -3.3042862    1.4483727   316000 
 5729000   0.69512851   -3.3058068   -1.8567734  0.033071906   -3.3058068    1.4490333   315938 
 5730000   0.69508419   -3.3053727    -1.856207  0.038974548   -3.3053727    1.4491657   315889 
 5731000   0.69429908   -3.3036402   -1.8560839  0.041762615   -3.3036402    1.4475563   315883 
 5732000   0.69511197   -3.3043073   -1.8548359  0.043383158   -3.3043073    1.4494714   315835 
 5733000   0.69416547   -3.3040363    -1.856589  0.040888714   -3.3040363    1.4474473   315846 
 5734000   0.69438812     -3.30254   -1.8546697  0.043213983     -3.30254    1.4478703   315855 
 5735000   0.69240969   -3.2998286   -1.8559693  0.037826343   -3.2998286    1.4438594   315830 
 5736000   0.69406648   -3.3020842   -1.8546463  0.038023909   -3.3020842    1.4474379   315803 
 5737000   0.69556305   -3.3022076   -1.8515752    0.0422529   -3.3022076    1.4506325   315787 
 5738000   0.69377366   -3.2995319   -1.8524388  0.041348084   -3.2995319    1.4470931   315745 
 5739000   0.69583376   -3.3023597   -1.8507628  0.043240932   -3.3023597    1.4515969   315700 
 5740000    0.6952635   -3.3001773   -1.8497975  0.043510815   -3.3001773    1.4503797   315706 
 5741000   0.69527358   -3.3009521    -1.850147  0.041276765   -3.3009521    1.4508052   315618 
 5742000   0.69215312   -3.2965806   -1.8522547  0.037730814   -3.2965806    1.4443258   315611 
 5743000   0.69169133   -3.2951012   -1.8514553  0.034505577   -3.2951012    1.4436458   315549 
 5744000   0.69178997    -3.294062   -1.8500593  0.033105058    -3.294062    1.4440027   315516 
 5745000   0.69179744   -3.2953679   -1.8510383  0.033553833   -3.2953679    1.4443296   315448 
 5746000   0.69317826   -3.2960551   -1.8488977  0.039760643   -3.2960551    1.4471574   315460 
 5747000   0.69226563   -3.2944881   -1.8490115  0.039480201   -3.2944881    1.4454766   315411 
 5748000   0.69264581   -3.2949779   -1.8486479  0.036444963   -3.2949779    1.4463301   315398 
 5749000   0.69377704   -3.2965967   -1.8476978  0.035005998   -3.2965967    1.4488989   315353 
 5750000   0.69274497   -3.2958165   -1.8488848  0.039362469   -3.2958165    1.4469316   315312 
 5751000    0.6921863    -3.294647   -1.8487538   0.03850008    -3.294647    1.4458931   315284 
 5752000   0.69190516   -3.2971519   -1.8517268  0.038305497   -3.2971519    1.4454251   315258 
 5753000   0.69203811   -3.2978973    -1.852034  0.038945147   -3.2978973    1.4458633   315223 
 5754000   0.69258942   -3.2970479   -1.8500235  0.032161864   -3.2970479    1.4470244   315221 
 5755000   0.69391766   -3.3003071   -1.8504663  0.037580668   -3.3003071    1.4498408   315212 
 5756000   0.69458346   -3.3008665   -1.8494596  0.041346601   -3.3008665    1.4514069   315174 
 5757000   0.69420576   -3.2993319   -1.8483919  0.038219463   -3.2993319    1.4509399   315104 
 5758000    0.6939315   -3.2999839   -1.8495481  0.041699266   -3.2999839    1.4504357   315089 
 5759000   0.69466668   -3.3011583   -1.8489047  0.036488714   -3.3011583    1.4522535   315028 
 5760000   0.69314319   -3.2987084   -1.8494144  0.037520359   -3.2987084     1.449294   314979 
 5761000   0.69348831   -3.3012009   -1.8508491  0.036258982   -3.3012009    1.4503518   314906 
 5762000   0.69223359   -3.2992054   -1.8512387  0.037851956   -3.2992054    1.4479667   314854 
 5763000   0.69242798   -3.3000878   -1.8516132  0.034979294   -3.3000878    1.4484746   314832 
 5764000   0.69370164    -3.302459   -1.8512003  0.039765047    -3.302459    1.4512587   314806 
 5765000    0.6938333    -3.302422   -1.8507034  0.040068776    -3.302422    1.4517187   314766 
 5766000   0.69329624   -3.3004813   -1.8498264  0.043030942   -3.3004813    1.4506549   314753 
 5767000   0.69315002   -3.3012033    -1.850836  0.036196558   -3.3012033    1.4503674   314749 
 5768000   0.69267331   -3.3007297   -1.8511066  0.042340003   -3.3007297    1.4496232   314694 
 5769000   0.69275223     -3.30048   -1.8502861  0.043052273     -3.30048    1.4501939   314606 
 5770000    0.6921875   -3.2982812   -1.8492143  0.037379203   -3.2982812    1.4490669   314594 
 5771000   0.69319646   -3.2992843    -1.847999  0.038305638   -3.2992843    1.4512853   314571 
 5772000   0.69260512    -3.299222   -1.8490318  0.036555627    -3.299222    1.4501901   314540 
 5773000   0.69258534   -3.2990096   -1.8486119  0.040404762   -3.2990096    1.4503977   314486 
 5774000   0.69291449   -3.3007836   -1.8494843  0.039658531   -3.3007836    1.4512993   314440 
 5775000   0.69223749   -3.2980717   -1.8480751  0.042054674   -3.2980717    1.4499966   314415 
 5776000   0.69182656   -3.2975807    -1.848454  0.036828836   -3.2975807    1.4491266   314417 
 5777000   0.69005472   -3.2935922   -1.8481218  0.037191461   -3.2935922    1.4454705   314405 
 5778000   0.69121666   -3.2969799   -1.8488314  0.035110238   -3.2969799    1.4481485   314352 
 5779000   0.69155331   -3.2978521   -1.8489476  0.033576962   -3.2978521    1.4489045   314341 
 5780000   0.69006238   -3.2920365   -1.8462281  0.039612629   -3.2920365    1.4458084   314335 
 5781000   0.69100939   -3.2922447   -1.8443047  0.037904461   -3.2922447      1.44794   314303 
 5782000   0.69281825   -3.2954358   -1.8433637  0.039098782   -3.2954358    1.4520721   314229 
 5783000   0.69139375   -3.2928938   -1.8436228   0.04128562   -3.2928938     1.449271   314189 
 5784000   0.69067312   -3.2922773   -1.8445122  0.037903882   -3.2922773    1.4477651   314188 
 5785000   0.69298928   -3.2967946   -1.8438369  0.040832159   -3.2967946    1.4529577   314115 
 5786000   0.69126875   -3.2924986   -1.8429452  0.043009736   -3.2924986    1.4495534   314071 
 5787000   0.69110235   -3.2925348   -1.8432104  0.039847905   -3.2925348    1.4493244   314045 
 5788000   0.69052665   -3.2918763   -1.8435701  0.036594823   -3.2918763    1.4483062   314004 
 5789000   0.69070949   -3.2912577   -1.8423696  0.035797036   -3.2912577    1.4488881   313961 
 5790000   0.69015489   -3.2913599   -1.8433723  0.039056735   -3.2913599    1.4479876   313904 
 5791000   0.69216216   -3.2955036   -1.8432491  0.036234307   -3.2955036    1.4522545   313892 
 5792000   0.69044518    -3.293171   -1.8443758  0.032807164    -3.293171    1.4487951   313861 
 5793000   0.69019504   -3.2918652    -1.843415  0.035596276   -3.2918652    1.4484502   313822 
 5794000   0.69018924   -3.2929246   -1.8442696   0.03639103   -3.2929246     1.448655   313775 
 5795000   0.68820498    -3.289081   -1.8446506  0.038664626    -3.289081    1.4444304   313788 
 5796000   0.68960027   -3.2902389   -1.8427832  0.040161658   -3.2902389    1.4474557   313767 
 5797000   0.69068874   -3.2928227   -1.8427634  0.038698361   -3.2928227    1.4500593   313698 
 5798000   0.69014512   -3.2912155   -1.8419834  0.036168815   -3.2912155    1.4492321   313630 
 5799000   0.69055622   -3.2918108   -1.8415859  0.040538892   -3.2918108    1.4502249   313602 
 5800000   0.68992066   -3.2913532   -1.8424399  0.037372603   -3.2913532    1.4489132   313597 
 5801000   0.68983307   -3.2936598    -1.844644   0.03733727   -3.2936598    1.4490158   313535 
 5802000   0.69130722   -3.2974756   -1.8451734   0.03525629   -3.2974756    1.4523022   313494 
 5803000    0.6900704   -3.2939895   -1.8442903  0.042506293   -3.2939895    1.4496993   313495 
 5804000   0.68819052   -3.2918579    -1.845845  0.039179321   -3.2918579    1.4460129   313438 
 5805000   0.69035226   -3.2965248   -1.8459605  0.037797851   -3.2965248    1.4505644   313436 
 5806000   0.68975929   -3.2979193   -1.8484714  0.040486232   -3.2979193    1.4494479   313408 
 5807000   0.69046475   -3.2994603   -1.8483355  0.034502297   -3.2994603    1.4511248   313366 
 5808000   0.68966264   -3.2960596   -1.8464586  0.037965918   -3.2960596     1.449601   313331 
 5809000   0.68801418   -3.2944457    -1.848185  0.043744512   -3.2944457    1.4462607   313304 
 5810000    0.6903051   -3.2974552   -1.8462167  0.041238231   -3.2974552    1.4512385   313269 
 5811000   0.68923033   -3.2945912   -1.8452976  0.039796394   -3.2945912    1.4492936   313201 
 5812000   0.69022292   -3.2977326   -1.8460783  0.037686214   -3.2977326    1.4516542   313142 
 5813000   0.69064613   -3.2998701   -1.8471495  0.041614232   -3.2998701    1.4527206   313104 
 5814000   0.69067062   -3.3003397   -1.8473541  0.041393678   -3.3003397    1.4529856   313058 
 5815000    0.6907923   -3.2997729   -1.8464942  0.039527985   -3.2997729    1.4532787   313050 
 5816000   0.68909829   -3.2984108   -1.8483902  0.040864033   -3.2984108    1.4500206   312984 
 5817000   0.68902074   -3.2983397   -1.8484545  0.040357746   -3.2983397    1.4498852   312978 
 5818000   0.68867734    -3.296525   -1.8471262  0.036365543    -3.296525    1.4493988   312927 
 5819000   0.68850572   -3.2988884   -1.8497211  0.032497836   -3.2988884    1.4491672   312899 
 5820000   0.68762967   -3.2950966   -1.8476021  0.036360181   -3.2950966    1.4474945   312862 
 5821000    0.6875319   -3.2958869    -1.848464  0.042561111   -3.2958869    1.4474229   312833 
 5822000   0.68767677   -3.2953857   -1.8475468  0.042613765   -3.2953857    1.4478389   312809 
 5823000   0.68890981   -3.2984688   -1.8479735  0.040742619   -3.2984688    1.4504953   312796 
 5824000   0.68877477   -3.2974379   -1.8470369  0.042744755   -3.2974379     1.450401   312755 
 5825000   0.68958943   -3.2968228   -1.8446831  0.041895085   -3.2968228    1.4521397   312750 
 5826000   0.68780005   -3.2946091   -1.8459364  0.039299633   -3.2946091    1.4486727   312685 
 5827000   0.68749607   -3.2940227   -1.8459022  0.037069095   -3.2940227    1.4481205   312666 
 5828000   0.68678247   -3.2949268   -1.8481012  0.037894445   -3.2949268    1.4468256   312621 
 5829000   0.68747733   -3.2960844    -1.847591  0.035656523   -3.2960844    1.4484933   312577 
 5830000   0.68902853   -3.2976538   -1.8457482  0.037690605   -3.2976538    1.4519056   312546 
 5831000   0.68939003    -3.296273   -1.8435684  0.045726168    -3.296273    1.4527046   312538 
 5832000    0.6890239   -3.2953172   -1.8431983   0.04180432   -3.2953172    1.4521189   312498 
 5833000   0.68686451   -3.2922516   -1.8444983  0.040463477   -3.2922516    1.4477533   312458 
 5834000   0.68674451   -3.2923039    -1.844507  0.041732795   -3.2923039    1.4477969   312394 
 5835000   0.68746215   -3.2932955   -1.8438325  0.036661426   -3.2932955    1.4494629   312361 
 5836000   0.68761963   -3.2959975   -1.8459379  0.036339446   -3.2959975    1.4500596   312304 
 5837000   0.68674931   -3.2941627    -1.845637  0.036031776   -3.2941627    1.4485257   312239 
 5838000   0.68624207   -3.2915102    -1.843753  0.037651172   -3.2915102    1.4477572   312174 
 5839000   0.68557295   -3.2902292    -1.843587  0.039453832   -3.2902292    1.4466422   312110 
 5840000   0.68712124   -3.2925618   -1.8426061  0.040648287   -3.2925618    1.4499557   312100 
 5841000   0.68636622    -3.291293    -1.842768  0.039767835    -3.291293    1.4485249   312065 
 5842000   0.68522206   -3.2892742   -1.8429137  0.041380804   -3.2892742    1.4463605   312011 
 5843000   0.68586518   -3.2914389   -1.8437162  0.039830897   -3.2914389    1.4477227   312010 
 5844000   0.68510274   -3.2888146   -1.8424417  0.039104131   -3.2888146    1.4463729   311954 
 5845000    0.6872151   -3.2929147   -1.8417892  0.040655504   -3.2929147    1.4511255   311891 
 5846000   0.68551955   -3.2908133   -1.8430824  0.037709574   -3.2908133    1.4477309   311851 
 5847000   0.68439749   -3.2890838   -1.8434815  0.040990821   -3.2890838    1.4456023   311799 
 5848000   0.68412095   -3.2904964   -1.8454319  0.035332875   -3.2904964    1.4450645   311789 
 5849000   0.68539992    -3.292129    -1.844154  0.036337906    -3.292129     1.447975   311744 
 5850000   0.68587969   -3.2913404   -1.8421845  0.037283059   -3.2913404    1.4491559   311708 
 5851000   0.68600306   -3.2933855   -1.8438154  0.035958856   -3.2933855    1.4495701   311675 
 5852000   0.68632889   -3.2938673   -1.8434831  0.037382255   -3.2938673    1.4503842   311648 
 5853000    0.6855851   -3.2930074   -1.8441206  0.043027381   -3.2930074    1.4488868   311632 
 5854000   0.68569907   -3.2929744   -1.8436049  0.037923971   -3.2929744    1.4493695   311580 
 5855000   0.68629876   -3.2925014     -1.84199  0.037763043   -3.2925014    1.4505114   311607 
 5856000   0.68546426   -3.2912629   -1.8423433  0.042894382   -3.2912629    1.4489197   311570 
 5857000   0.68579631   -3.2931324   -1.8432782  0.036379732   -3.2931324    1.4498542   311520 
 5858000   0.68612895    -3.293458   -1.8425885  0.042875884    -3.293458    1.4508695   311453 
 5859000   0.68532338    -3.292462   -1.8432168  0.039937683    -3.292462    1.4492452   311436 
 5860000   0.68476834   -3.2916505   -1.8433837  0.037162418   -3.2916505    1.4482668   311394 
 5861000   0.68524928   -3.2941707   -1.8448542  0.034658634   -3.2941707    1.4493165   311387 
 5862000   0.68447937   -3.2909859   -1.8431117  0.043013093   -3.2909859    1.4478741   311347 
 5863000   0.68436394   -3.2915879   -1.8441764  0.039136227   -3.2915879    1.4474115   311394 
 5864000   0.68373658   -3.2907531   -1.8445802  0.036674672   -3.2907531    1.4461729   311375 
 5865000   0.68262848   -3.2883999   -1.8444503  0.036799674   -3.2883999    1.4439497   311349 
 5866000   0.68350979    -3.289334   -1.8434597  0.035486087    -3.289334    1.4458743   311336 
 5867000   0.68406219    -3.293225   -1.8457685  0.034038097    -3.293225    1.4474566   311247 
 5868000   0.68305394   -3.2920013   -1.8464646  0.037454401   -3.2920013    1.4455368   311201 
 5869000   0.68337499   -3.2895574   -1.8431599  0.035871338   -3.2895574    1.4463975   311162 
 5870000   0.68573038   -3.2934379   -1.8418685  0.039226599   -3.2934379    1.4515694   311122 
 5871000   0.68474211   -3.2927265   -1.8429042  0.038812603   -3.2927265    1.4498222   311048 
 5872000   0.68455156   -3.2926328   -1.8431255  0.042329405   -3.2926328    1.4495073   311029 
 5873000   0.68266985   -3.2916074   -1.8458568  0.037867403   -3.2916074    1.4457506   310980 
 5874000    0.6840939   -3.2930399   -1.8439892   0.03777311   -3.2930399    1.4490507   310919 
 5875000   0.68429298   -3.2933453   -1.8439101  0.036238961   -3.2933453    1.4494351   310927 
 5876000   0.68375211   -3.2918813   -1.8435172  0.037441388   -3.2918813     1.448364   310911 
 5877000   0.68299072   -3.2905729   -1.8437705   0.03417438   -3.2905729    1.4468024   310900 
 5878000   0.68428919   -3.2914469   -1.8415909  0.038369625   -3.2914469    1.4498561   310835 
 5879000   0.68391827   -3.2900972   -1.8406353  0.040280174   -3.2900972    1.4494619   310751 
 5880000   0.68335814   -3.2879929   -1.8394897  0.044223382   -3.2879929    1.4485032   310702 
 5881000   0.68334928   -3.2895269    -1.840786  0.037949763   -3.2895269    1.4487409   310647 
 5882000   0.68425113   -3.2925801   -1.8415208   0.04191718   -3.2925801    1.4510592   310560 
 5883000   0.68242169   -3.2887584   -1.8412805  0.038474941   -3.2887584    1.4474779   310496 
 5884000   0.68202101   -3.2897621   -1.8428358  0.040073209   -3.2897621    1.4469263   310432 
 5885000   0.68113103   -3.2872013    -1.842084  0.039118675   -3.2872013    1.4451173   310415 
 5886000   0.68126963   -3.2872114   -1.8415626  0.036796267   -3.2872114    1.4456489   310364 
 5887000   0.68133342   -3.2873545    -1.841314  0.039541933   -3.2873545    1.4460405   310309 
 5888000   0.68278164   -3.2893852   -1.8400469  0.039923807   -3.2893852    1.4493383   310261 
 5889000   0.68262461   -3.2895491   -1.8402732  0.033657464   -3.2895491    1.4492759   310203 
 5890000   0.68317347   -3.2910243   -1.8404661  0.032626292   -3.2910243    1.4505581   310178 
 5891000   0.68237111   -3.2889349   -1.8400477  0.038448388   -3.2889349    1.4488872   310171 
 5892000   0.68207752    -3.289312   -1.8409034  0.037539856    -3.289312    1.4484086   310140 
 5893000   0.68199948   -3.2908425   -1.8424922  0.035157585   -3.2908425    1.4483503   310117 
 5894000    0.6813671   -3.2904638   -1.8430224  0.037507446   -3.2904638    1.4474414   310024 
 5895000   0.68093314   -3.2907266    -1.843773  0.037706816   -3.2907266    1.4469535   309931 
 5896000   0.68097277   -3.2907811   -1.8434865  0.036732715   -3.2907811    1.4472946   309876 
 5897000   0.68226787   -3.2912359   -1.8412871   0.03644948   -3.2912359    1.4499488   309897 
 5898000   0.68162751   -3.2891835   -1.8403665  0.036110779   -3.2891835     1.448817   309848 
 5899000   0.68363496   -3.2920274   -1.8388779  0.037171166   -3.2920274    1.4531496   309834 
 5900000   0.68274233   -3.2911074   -1.8397147    0.0401359   -3.2911074    1.4513927   309804 
 5901000   0.68294101   -3.2916443   -1.8395292   0.04055547   -3.2916443    1.4521151   309740 
 5902000   0.68269847   -3.2910938   -1.8392179  0.039867423   -3.2910938    1.4518759   309681 
 5903000   0.68272529     -3.29071   -1.8386646  0.039651323     -3.29071    1.4520455   309657 
 5904000    0.6805183   -3.2874069   -1.8398216  0.036611124   -3.2874069    1.4475853   309607 
 5905000   0.68156464   -3.2907277   -1.8407293  0.031588276   -3.2907277    1.4499984   309567 
 5906000   0.67901505   -3.2863628   -1.8415925  0.033068463   -3.2863628    1.4447703   309525 
 5907000   0.67849013   -3.2829763   -1.8389497  0.034413593   -3.2829763    1.4440266   309445 
 5908000   0.67795413   -3.2838717   -1.8405894  0.032969662   -3.2838717    1.4432823   309360 
 5909000   0.68009875   -3.2867031   -1.8386726  0.037504911   -3.2867031    1.4480305   309321 
 5910000   0.67981355   -3.2862687   -1.8390185  0.034735268   -3.2862687    1.4472501   309358 
 5911000     0.679679   -3.2840709   -1.8372007  0.036813998   -3.2840709    1.4468701   309378 
 5912000   0.67968261   -3.2842268   -1.8369934  0.037253242   -3.2842268    1.4472334   309302 
 5913000   0.67886252   -3.2840604   -1.8383723  0.033387251   -3.2840604    1.4456881   309259 
 5914000   0.67936696   -3.2855874   -1.8387268  0.035703488   -3.2855874    1.4468606   309238 
 5915000   0.67987856   -3.2859748   -1.8377764  0.038534968   -3.2859748    1.4481984   309185 
 5916000   0.67956051   -3.2858643   -1.8382076  0.035657877   -3.2858643    1.4476567   309156 
 5917000   0.68044616   -3.2863259   -1.8368482  0.035716146   -3.2863259    1.4494777   309170 
 5918000   0.67977281   -3.2833774   -1.8350483  0.042295281   -3.2833774    1.4483292   309109 
 5919000   0.68163758    -3.286229   -1.8337952  0.041032254    -3.286229    1.4524338   309081 
 5920000   0.68123686    -3.286929   -1.8352551  0.034668788    -3.286929    1.4516739   309061 
 5921000   0.67873021   -3.2836395   -1.8370778  0.036115677   -3.2836395    1.4465617   309012 
 5922000    0.6786589     -3.28617   -1.8393998  0.034798988     -3.28617    1.4467702   308935 
 5923000   0.67907808   -3.2844014   -1.8367094  0.037983077   -3.2844014     1.447692   308929 
 5924000   0.67957657    -3.284731   -1.8359763  0.037561439    -3.284731    1.4487547   308929 
 5925000   0.67926744   -3.2832193   -1.8351096  0.039729586   -3.2832193    1.4481097   308926 
 5926000   0.67972307   -3.2851795   -1.8360421  0.037052011   -3.2851795    1.4491374   308914 
 5927000   0.67948563   -3.2835548   -1.8350268  0.035585916   -3.2835548     1.448528   308936 
 5928000   0.67819377   -3.2798055   -1.8338724  0.038943217   -3.2798055    1.4459331   308902 
 5929000   0.67818967   -3.2821134   -1.8360298  0.032497934   -3.2821134    1.4460836   308868 
 5930000   0.67817935   -3.2820138   -1.8357415  0.039554223   -3.2820138    1.4462723   308823 
 5931000   0.67828366   -3.2828036   -1.8359434  0.032699393   -3.2828036    1.4468601   308745 
 5932000   0.67735656   -3.2827478   -1.8376359  0.042066429   -3.2827478    1.4451119   308696 
 5933000   0.67988616   -3.2857387   -1.8353099  0.034730563   -3.2857387    1.4504288   308713 
 5934000   0.67919741    -3.284811   -1.8357201  0.037199196    -3.284811    1.4490909   308685 
 5935000    0.6802515   -3.2848204   -1.8333395  0.040709081   -3.2848204    1.4514809   308655 
 5936000   0.67842248   -3.2837143   -1.8359859  0.037549544   -3.2837143    1.4477283   308623 
 5937000   0.67881442   -3.2839021   -1.8352106  0.037543381   -3.2839021    1.4486915   308596 
 5938000   0.67971138   -3.2850185   -1.8344316  0.040295132   -3.2850185    1.4505869   308600 
 5939000   0.67894477   -3.2849735   -1.8357878  0.039535637   -3.2849735    1.4491857   308550 
 5940000   0.67928395   -3.2869722    -1.836945  0.040560677   -3.2869722    1.4500271   308525 
 5941000   0.68024626   -3.2876503   -1.8353618  0.038745934   -3.2876503    1.4522884   308481 
 5942000   0.67859051   -3.2865347   -1.8377672  0.034851926   -3.2865347    1.4487676   308478 
 5943000   0.67873899   -3.2852662   -1.8361112  0.030446828   -3.2852662     1.449155   308463 
 5944000   0.67813795   -3.2854546   -1.8373012  0.038038649   -3.2854546    1.4481535   308403 
 5945000   0.67914219   -3.2851001   -1.8344635  0.039296755   -3.2851001    1.4506367   308331 
 5946000   0.67823644   -3.2833585    -1.834586  0.040572161   -3.2833585    1.4487725   308316 
 5947000    0.6779062   -3.2826709   -1.8345569  0.040264183   -3.2826709     1.448114   308306 
 5948000   0.67972736    -3.285359   -1.8331993  0.039084838    -3.285359    1.4521598   308273 
 5949000   0.67818451   -3.2844636   -1.8354167  0.039622983   -3.2844636    1.4490469   308234 
 5950000   0.67740563   -3.2829931   -1.8354929  0.034311645   -3.2829931    1.4475002   308209 
 5951000   0.67718947   -3.2821602   -1.8349389  0.035456877   -3.2821602    1.4472214   308170 
 5952000   0.67786115   -3.2822819   -1.8335593  0.036480958   -3.2822819    1.4487226   308156 
 5953000   0.67751725   -3.2832488   -1.8352611  0.034769904   -3.2832488    1.4479877   308156 
 5954000   0.67713447   -3.2825008   -1.8351433  0.037691601   -3.2825008    1.4473575   308116 
 5955000   0.67806287   -3.2818247   -1.8322805  0.041642895   -3.2818247    1.4495442   308073 
 5956000   0.67801221   -3.2817058   -1.8321287  0.038635834   -3.2817058     1.449577   308043 
 5957000    0.6785966   -3.2825362   -1.8315355  0.033179694   -3.2825362    1.4510007   308006 
 5958000   0.68002869   -3.2843813   -1.8301532  0.033496173   -3.2843813    1.4542281   307971 
 5959000   0.67846539   -3.2817536   -1.8306471  0.040700156   -3.2817536    1.4511065   307924 
 5960000   0.67833102   -3.2787704   -1.8280785  0.044990373   -3.2787704    1.4506919   307951 
 5961000   0.67798353   -3.2799708   -1.8299938  0.036194618   -3.2799708     1.449977   307945 
 5962000   0.67910028   -3.2826669   -1.8304289  0.039934796   -3.2826669     1.452238   307972 
 5963000   0.67828978    -3.280192   -1.8296731  0.043278888    -3.280192    1.4505189   307969 
 5964000   0.67877366   -3.2805092   -1.8287528  0.038134835   -3.2805092    1.4517564   307926 
 5965000   0.67774997   -3.2785251   -1.8286756  0.038588829   -3.2785251    1.4498495   307866 
 5966000   0.67896746   -3.2823211   -1.8299568  0.039982631   -3.2823211    1.4523643   307885 
 5967000   0.67898676   -3.2817293   -1.8292199  0.037741303   -3.2817293    1.4525094   307863 
 5968000   0.67734978   -3.2808904   -1.8316758   0.03702971   -3.2808904    1.4492146   307819 
 5969000   0.67774235   -3.2802839   -1.8299184  0.038784943   -3.2802839    1.4503655   307753 
 5970000   0.67684615   -3.2767565    -1.828017   0.03793883   -3.2767565    1.4487395   307691 
 5971000   0.67759177   -3.2777892   -1.8273595   0.03586523   -3.2777892    1.4504297   307671 
 5972000   0.67734816   -3.2788316   -1.8289704  0.038804495   -3.2788316    1.4498611   307681 
 5973000     0.678208   -3.2787593   -1.8268925  0.034916575   -3.2787593    1.4518668   307646 
 5974000   0.67810133   -3.2769134   -1.8248879  0.043125376   -3.2769134    1.4520254   307564 
 5975000   0.67895059   -3.2822116   -1.8283156  0.033678305   -3.2822116     1.453896   307553 
 5976000   0.67724487   -3.2765157   -1.8260979  0.039632287   -3.2765157    1.4504179   307516 
 5977000   0.67657622   -3.2761866   -1.8270028  0.034558448   -3.2761866    1.4491838   307474 
 5978000   0.67767673   -3.2794577   -1.8276334  0.037556884   -3.2794577    1.4518243   307414 
 5979000   0.67586729   -3.2747148   -1.8267481  0.035052555   -3.2747148    1.4479667   307410 
 5980000   0.67697079   -3.2791357    -1.828451  0.037603711   -3.2791357    1.4506847   307335 
 5981000   0.67640759   -3.2770457   -1.8273792  0.035629162   -3.2770457    1.4496665   307295 
 5982000   0.67751271   -3.2781468   -1.8260314  0.038839846   -3.2781468    1.4521153   307278 
 5983000   0.67745808   -3.2780147   -1.8257565  0.042198513   -3.2780147    1.4522582   307223 
 5984000   0.67647422   -3.2767487   -1.8263778   0.03266358   -3.2767487     1.450371   307176 
 5985000   0.67632239   -3.2768241   -1.8264056  0.035454277   -3.2768241    1.4504185   307097 
 5986000   0.67548653   -3.2757406   -1.8269024  0.036001642   -3.2757406    1.4488382   307052 
 5987000   0.67501637   -3.2750187   -1.8270663  0.039661693   -3.2750187    1.4479524   307026 
 5988000   0.67462077   -3.2733774   -1.8259436  0.037566809   -3.2733774    1.4474338   306956 
 5989000   0.67570049   -3.2765292   -1.8264339  0.033569878   -3.2765292    1.4500953   306883 
 5990000   0.67645069   -3.2771238   -1.8252529  0.034604594   -3.2771238    1.4518708   306848 
 5991000   0.67775406   -3.2778652   -1.8231779  0.035156262   -3.2778652    1.4546872   306844 
 5992000   0.67767668   -3.2773847   -1.8228541  0.039836646   -3.2773847    1.4545306   306842 
 5993000   0.67717735   -3.2775307   -1.8239629  0.040155966   -3.2775307    1.4535678   306819 
 5994000   0.67709386   -3.2767957   -1.8234497  0.036861044   -3.2767957     1.453346   306828 
 5995000   0.67607139   -3.2746289   -1.8233641  0.040506184   -3.2746289    1.4512648   306804 
 5996000   0.67560916   -3.2752321   -1.8249358  0.034598118   -3.2752321    1.4502962   306799 
 5997000   0.67481148   -3.2741186   -1.8254355  0.037028642   -3.2741186    1.4486831   306778 
 5998000   0.67658115   -3.2750634   -1.8224155  0.041225601   -3.2750634    1.4526479   306743 
 5999000   0.67701971   -3.2752343   -1.8215168   0.04058899   -3.2752343    1.4537175   306716 
 6000000   0.67621531   -3.2742811   -1.8220162  0.039649152   -3.2742811    1.4522649   306658 
 6001000   0.67645108   -3.2750053   -1.8222056  0.039792934   -3.2750053    1.4527997   306652 
 6002000    0.6770103   -3.2749726   -1.8207016   0.04665414   -3.2749726     1.454271   306595 
 6003000   0.67634092   -3.2743471   -1.8213102  0.038463841   -3.2743471    1.4530369   306552 
 6004000   0.67676293   -3.2772122   -1.8230647  0.040586486   -3.2772122    1.4541475   306509 
 6005000   0.67713186   -3.2759009   -1.8206949  0.041217034   -3.2759009    1.4552061   306453 
 6006000   0.67521653   -3.2736791   -1.8222908  0.040708323   -3.2736791    1.4513883   306390 
 6007000    0.6771585   -3.2769649   -1.8210602  0.039010111   -3.2769649    1.4559047   306318 
 6008000    0.6751902   -3.2757323   -1.8239125  0.041208897   -3.2757323    1.4518197   306287 
 6009000   0.67481589   -3.2728802   -1.8216521  0.036285206   -3.2728802    1.4512281   306242 
 6010000   0.67414835   -3.2711915   -1.8210391  0.040901554   -3.2711915    1.4501524   306166 
 6011000   0.67451286   -3.2742644   -1.8230625  0.037169758   -3.2742644    1.4512019   306110 
 6012000   0.67242251   -3.2715769   -1.8247637  0.032171814   -3.2715769    1.4468133   306087 
 6013000    0.6727966   -3.2704193   -1.8226734  0.035084179   -3.2704193    1.4477459   306060 
 6014000   0.67425272   -3.2723415   -1.8211162   0.03676832   -3.2723415    1.4512254   305987 
 6015000   0.67412982   -3.2712608   -1.8202952  0.035996427   -3.2712608    1.4509656   305986 
 6016000   0.67449073   -3.2716554   -1.8198133  0.038511533   -3.2716554     1.451842   305965 
 6017000   0.67259313   -3.2683753    -1.820277  0.042869219   -3.2683753    1.4480982   305893 
 6018000   0.67459168   -3.2708506   -1.8182786  0.037675761   -3.2708506    1.4525721   305857 
 6019000    0.6731173   -3.2686279   -1.8191073  0.037851688   -3.2686279    1.4495206   305831 
 6020000   0.67427517    -3.270767   -1.8186485  0.037312593    -3.270767    1.4521184   305809 
 6021000   0.67225248   -3.2685598   -1.8205654  0.039807395   -3.2685598    1.4479944   305760 
 6022000   0.67152265   -3.2659151   -1.8192326  0.040711529   -3.2659151    1.4466826   305705 
 6023000   0.67365495   -3.2675709   -1.8160619  0.037188645   -3.2675709    1.4515089   305656 
 6024000   0.67346704    -3.267444   -1.8162687  0.032668569    -3.267444    1.4511753   305641 
 6025000   0.67295612   -3.2675227   -1.8174341  0.039789291   -3.2675227    1.4500886   305638 
 6026000   0.67367761   -3.2684118   -1.8168066  0.043110516   -3.2684118    1.4516053   305646 
 6027000   0.67425096   -3.2676837    -1.814881  0.040251002   -3.2676837    1.4528026   305654 
 6028000    0.6758674   -3.2703141    -1.813795  0.039145224   -3.2703141    1.4565191   305605 
 6029000   0.67417573   -3.2681439   -1.8152562  0.036482596   -3.2681439    1.4528877   305602 
 6030000   0.67389338   -3.2669854   -1.8146349   0.03791264   -3.2669854    1.4523505   305587 
 6031000    0.6727073   -3.2655352   -1.8155416  0.036570568   -3.2655352    1.4499936   305545 
 6032000   0.67384867   -3.2675802   -1.8148554  0.044925287   -3.2675802    1.4527248   305488 
 6033000   0.67464912   -3.2678333   -1.8133447  0.039905698   -3.2678333    1.4544886   305480 
 6034000    0.6740932   -3.2681837   -1.8146129  0.040574817   -3.2681837    1.4535708   305421 
 6035000   0.67285314   -3.2667932   -1.8157159  0.040314305   -3.2667932    1.4510773   305383 
 6036000   0.67386258   -3.2691772    -1.815604  0.041096989   -3.2691772    1.4535732   305316 
 6037000   0.67271829   -3.2677743   -1.8165411  0.036249711   -3.2677743    1.4512332   305289 
 6038000     0.672359   -3.2686757    -1.817942  0.038675233   -3.2686757    1.4507338   305231 
 6039000   0.67312577   -3.2705682   -1.8182086  0.036434724   -3.2705682    1.4523596   305237 
 6040000   0.67232573   -3.2686486   -1.8181149  0.036996832   -3.2686486    1.4505336   305258 
 6041000   0.67383462   -3.2708804   -1.8169532   0.04473461   -3.2708804    1.4539272   305229 
 6042000   0.67246432   -3.2687199   -1.8175307  0.039308448   -3.2687199    1.4511892   305183 
 6043000   0.67427801   -3.2724874   -1.8174271  0.037816225   -3.2724874    1.4550603   305192 
 6044000   0.67290621   -3.2688714   -1.8168999  0.040296635   -3.2688714    1.4519715   305219 
 6045000    0.6734592   -3.2704544   -1.8170134  0.039436719   -3.2704544    1.4534409   305161 
 6046000   0.67305492   -3.2701265   -1.8172867  0.039730163   -3.2701265    1.4528398   305104 
 6047000   0.67357535   -3.2730544   -1.8189243  0.034799901   -3.2730544      1.45413   305069 
 6048000   0.67337974   -3.2691481   -1.8151782   0.03654561   -3.2691481    1.4539699   305014 
 6049000   0.67294159   -3.2688812   -1.8157812  0.036811771   -3.2688812       1.4531   304998 
 6050000   0.67315521   -3.2711966   -1.8171442   0.04004986   -3.2711966    1.4540523   304895 
 6051000   0.67207355   -3.2693288   -1.8175843  0.042683791   -3.2693288    1.4517445   304889 
 6052000   0.67284261   -3.2713815   -1.8180425  0.040740232   -3.2713815     1.453339   304903 
 6053000   0.67200875   -3.2689744   -1.8174604  0.041516132   -3.2689744     1.451514   304908 
 6054000   0.67226914   -3.2680566   -1.8157753  0.039951881   -3.2680566    1.4522813   304865 
 6055000   0.67345134   -3.2711097   -1.8161457  0.038930285   -3.2711097     1.454964   304838 
 6056000   0.67353487   -3.2685062   -1.8131134  0.040957311   -3.2685062    1.4553927   304786 
 6057000   0.67376731   -3.2680108   -1.8119247  0.040134259   -3.2680108    1.4560861   304746 
 6058000   0.67332599   -3.2670809   -1.8119151  0.039603144   -3.2670809    1.4551658   304739 
 6059000   0.67292423   -3.2683402   -1.8139424  0.038122186   -3.2683402    1.4543977   304718 
 6060000   0.67193838   -3.2655077   -1.8130024  0.042933527   -3.2655077    1.4525053   304668 
 6061000   0.67186215   -3.2653679   -1.8128175  0.038721695   -3.2653679    1.4525503   304624 
 6062000   0.67152126   -3.2636242   -1.8118918  0.037859527   -3.2636242    1.4517323   304641 
 6063000   0.67191322   -3.2639171   -1.8109988  0.034033805   -3.2639171    1.4529183   304570 
 6064000   0.67194969   -3.2625149   -1.8094032  0.033588174   -3.2625149    1.4531117   304546 
 6065000   0.67156607   -3.2622256   -1.8096573  0.036716918   -3.2622256    1.4525683   304486 
 6066000   0.67170716   -3.2615536   -1.8087183   0.03785438   -3.2615536    1.4528353   304494 
 6067000   0.67140049   -3.2609269   -1.8086071  0.041951041   -3.2609269    1.4523198   304463 
 6068000   0.67180252   -3.2618351   -1.8085741  0.037554823   -3.2618351    1.4532611   304448 
 6069000   0.67049632    -3.260468   -1.8098086  0.037366303    -3.260468    1.4506594   304401 
 6070000   0.66974006   -3.2607338   -1.8117106  0.037921162   -3.2607338    1.4490232   304401 
 6071000   0.67001302   -3.2591587   -1.8094735  0.041545359   -3.2591587    1.4496852   304386 
 6072000   0.67183017   -3.2635808   -1.8097729  0.035165329   -3.2635808    1.4538079   304346 
 6073000    0.6723048   -3.2641488   -1.8091608  0.040519732   -3.2641488     1.454988   304314 
 6074000   0.67246363   -3.2647394   -1.8091254  0.041209971   -3.2647394    1.4556139   304255 
 6075000   0.67279346   -3.2642849   -1.8077608  0.039845418   -3.2642849    1.4565242   304214 
 6076000   0.67128966    -3.262416    -1.808832  0.037799925    -3.262416     1.453584   304148 
 6077000   0.67284809   -3.2647315   -1.8075766  0.039385286   -3.2647315     1.457155   304107 
 6078000   0.67298886   -3.2662945   -1.8086669  0.038122528   -3.2662945    1.4576276   304072 
 6079000   0.67194395   -3.2630923   -1.8077566  0.042528739   -3.2630923    1.4553357   304078 
 6080000   0.67201617   -3.2629067   -1.8071274  0.038621319   -3.2629067    1.4557794   304018 
 6081000   0.67004065   -3.2594176    -1.807488  0.041132085   -3.2594176    1.4519296   303928 
 6082000   0.67102011   -3.2643335   -1.8101379  0.034253089   -3.2643335    1.4541956   303898 
 6083000   0.66902569   -3.2603378   -1.8102449  0.041477285   -3.2603378    1.4500929   303852 
 6084000   0.67051158   -3.2613857     -1.80801  0.038680196   -3.2613857    1.4533757   303839 
 6085000   0.67036053   -3.2615604   -1.8083495  0.037699438   -3.2615604    1.4532109   303805 
 6086000   0.67014075   -3.2633555   -1.8102193  0.038976739   -3.2633555    1.4531362   303721 
 6087000   0.67011912   -3.2624492   -1.8091062  0.042210811   -3.2624492     1.453343   303668 
 6088000   0.67006065   -3.2626153   -1.8092508  0.041537105   -3.2626153    1.4533645   303637 
 6089000   0.66983665   -3.2629197   -1.8097251   0.03291804   -3.2629197    1.4531945   303571 
 6090000   0.66708351   -3.2589961   -1.8115646  0.037863988   -3.2589961    1.4474315   303527 
 6091000   0.66885775   -3.2616787   -1.8102875  0.038562231   -3.2616787    1.4513912   303504 
 6092000   0.66826089   -3.2591519   -1.8089651  0.035686693   -3.2591519    1.4501868   303485 
 6093000    0.6693952   -3.2613445   -1.8086865  0.037921131   -3.2613445    1.4526579   303483 
 6094000   0.66931357   -3.2617879   -1.8091396  0.037686971   -3.2617879    1.4526483   303448 
 6095000   0.66906884   -3.2614774   -1.8090922  0.039993888   -3.2614774    1.4523852   303392 
 6096000   0.66818627   -3.2607628   -1.8103699  0.036158898   -3.2607628    1.4503928   303408 
 6097000   0.66782663   -3.2601902   -1.8102434  0.037320087   -3.2601902    1.4499467   303338 
 6098000   0.66857492   -3.2615366   -1.8097834  0.039575791   -3.2615366    1.4517532   303300 
 6099000   0.66871019   -3.2619912    -1.809609  0.041630484   -3.2619912    1.4523822   303230 
 6100000   0.66734446   -3.2600718   -1.8102973  0.039469276   -3.2600718    1.4497745   303155 
 6101000     0.669045   -3.2628603   -1.8092477  0.037904331   -3.2628603    1.4536127   303125 
 6102000   0.66785861       -3.262   -1.8109841  0.038013452       -3.262    1.4510159   303129 
 6103000   0.66837578   -3.2621583   -1.8097696  0.040540878   -3.2621583    1.4523887   303077 
 6104000   0.66781761   -3.2603438   -1.8088184  0.040827107   -3.2603438    1.4515254   303004 
 6105000   0.66736651    -3.261367   -1.8105204  0.040446551    -3.261367    1.4508466   302941 
 6106000    0.6683336    -3.262693   -1.8095186  0.038121148    -3.262693    1.4531745   302894 
 6107000   0.66787786   -3.2626706   -1.8102857  0.039515848   -3.2626706    1.4523849   302852 
 6108000   0.66775534   -3.2618969   -1.8096777  0.040893606   -3.2618969    1.4522192   302831 
 6109000   0.66725105   -3.2617831   -1.8105025  0.037421619   -3.2617831    1.4512806   302798 
 6110000   0.66818896   -3.2641615   -1.8105288  0.036223925   -3.2641615    1.4536326   302733 
 6111000   0.66742871   -3.2621067   -1.8100368  0.040543486   -3.2621067    1.4520699   302714 
 6112000   0.66636852    -3.259056    -1.809422  0.043880291    -3.259056     1.449634   302741 
 6113000   0.66647335   -3.2579077   -1.8078732   0.04084191   -3.2579077    1.4500345   302705 
 6114000   0.66704932   -3.2591852   -1.8077634  0.039129868   -3.2591852    1.4514218   302677 
 6115000   0.66679687   -3.2615231    -1.810454  0.035904026   -3.2615231    1.4510691   302636 
 6116000   0.66702999   -3.2623538    -1.810811  0.037719704   -3.2623538    1.4515428   302643 
 6117000   0.66539648   -3.2575859   -1.8093537  0.038410719   -3.2575859    1.4482322   302592 
 6118000   0.66626266   -3.2604988   -1.8100698  0.038097336   -3.2604988     1.450429   302527 
 6119000   0.66642251   -3.2617254   -1.8107134  0.038003219   -3.2617254     1.451012   302478 
 6120000   0.66504139   -3.2606902    -1.812331  0.033080541   -3.2606902    1.4483592   302404 
 6121000   0.66510994   -3.2633254   -1.8144816  0.036303826   -3.2633254    1.4488438   302334 
 6122000    0.6654348   -3.2641457   -1.8143592  0.038509918   -3.2641457    1.4497865   302285 
 6123000   0.66672075   -3.2662841   -1.8136286   0.03787798   -3.2662841    1.4526555   302271 
 6124000   0.66480155   -3.2623538   -1.8136163  0.033572948   -3.2623538    1.4487375   302216 
 6125000   0.66455619   -3.2627788   -1.8145232  0.041152039   -3.2627788    1.4482555   302205 
 6126000   0.66675201   -3.2665447   -1.8132153  0.036288346   -3.2665447    1.4533294   302145 
 6127000   0.66475506   -3.2634814   -1.8143561   0.03757513   -3.2634814    1.4491253   302114 
 6128000   0.66563466   -3.2641133   -1.8131042  0.043832204   -3.2641133    1.4510091   302121 
 6129000   0.66534518   -3.2647241    -1.813861  0.040601373   -3.2647241    1.4508631   302020 
 6130000   0.66550936   -3.2649725   -1.8135976  0.042407012   -3.2649725    1.4513749   301988 
 6131000   0.66491275   -3.2648705   -1.8147391  0.037829446   -3.2648705    1.4501314   301976 
 6132000   0.66568647   -3.2666491   -1.8148158  0.038249869   -3.2666491    1.4518333   301973 
 6133000   0.66539678   -3.2657138   -1.8143009  0.037179963   -3.2657138     1.451413   301929 
 6134000   0.66509241   -3.2653824   -1.8144123  0.039679199   -3.2653824    1.4509701   301883 
 6135000   0.66394249   -3.2633418   -1.8146068  0.038243281   -3.2633418     1.448735   301826 
 6136000   0.66377852   -3.2641828   -1.8154456  0.038556962   -3.2641828    1.4487372   301751 
 6137000    0.6632701   -3.2640155   -1.8161768  0.038223648   -3.2640155    1.4478386   301707 
 6138000   0.66556365   -3.2681898   -1.8151424  0.038792534   -3.2681898    1.4530475   301665 
 6139000   0.66487998   -3.2684689   -1.8166926  0.033670918   -3.2684689    1.4517763   301619 
 6140000   0.66393261    -3.266017   -1.8162084   0.04232287    -3.266017    1.4498086   301598 
 6141000   0.66451213   -3.2662398   -1.8149829  0.038555335   -3.2662398    1.4512569   301560 
 6142000   0.66522735    -3.268013   -1.8150061  0.042790685    -3.268013    1.4530068   301521 
 6143000   0.66468496   -3.2678052   -1.8156989  0.041647176   -3.2678052    1.4521063   301462 
 6144000   0.66432261   -3.2672368   -1.8155898   0.04348118   -3.2672368     1.451647   301393 
 6145000   0.66330881   -3.2665073   -1.8168641  0.040627459   -3.2665073    1.4496433   301349 
 6146000   0.66450096    -3.267504   -1.8151782  0.036487962    -3.267504    1.4523258   301333 
 6147000   0.66534678   -3.2675167   -1.8134243  0.037235041   -3.2675167    1.4540924   301350 
 6148000   0.66433149   -3.2642128   -1.8122912   0.04231399   -3.2642128    1.4519217   301340 
 6149000   0.66489713   -3.2669595   -1.8137293  0.041365013   -3.2669595    1.4532302   301325 
 6150000   0.66401123   -3.2657542   -1.8144072  0.039119089   -3.2657542    1.4513469   301314 
 6151000   0.66395428   -3.2658499   -1.8142854  0.040101206   -3.2658499    1.4515645   301243 
 6152000   0.66383524   -3.2664906   -1.8152056  0.034722167   -3.2664906     1.451285   301247 
 6153000   0.66475546   -3.2662719   -1.8130426  0.040628154   -3.2662719    1.4532293   301261 
 6154000   0.66464699   -3.2650334   -1.8121473  0.039279796   -3.2650334     1.452886   301283 
 6155000   0.66592742   -3.2663568   -1.8103577  0.038452728   -3.2663568    1.4559991   301218 
 6156000   0.66425558   -3.2627817   -1.8101052  0.045664955   -3.2627817    1.4526765   301149 
 6157000   0.66545819   -3.2659555   -1.8104798  0.035524637   -3.2659555    1.4554757   301114 
 6158000   0.66437988   -3.2640369   -1.8107314  0.035353233   -3.2640369    1.4533055   301075 
 6159000   0.66415145   -3.2648251   -1.8118793  0.039515773   -3.2648251    1.4529457   301046 
 6160000   0.66417434   -3.2655436   -1.8123402  0.036514616   -3.2655436    1.4532034   301003 
 6161000    0.6637159   -3.2651188   -1.8129619   0.04022758   -3.2651188    1.4521569   301012 
 6162000   0.66311565   -3.2648607   -1.8138533  0.037416846   -3.2648607    1.4510075   300978 
 6163000   0.66405358   -3.2664833   -1.8131772  0.040629576   -3.2664833    1.4533061   300927 
 6164000   0.66248095   -3.2651561   -1.8151713  0.037156072   -3.2651561    1.4499848   300902 
 6165000   0.66232882   -3.2645816   -1.8146262  0.037683008   -3.2645816    1.4499554   300839 
 6166000   0.66287447   -3.2653356   -1.8141326  0.037930608   -3.2653356     1.451203   300828 
 6167000   0.66246976   -3.2649766   -1.8143365  0.036694956   -3.2649766    1.4506401   300761 
 6168000   0.66381291   -3.2662026   -1.8124135  0.039438695   -3.2662026    1.4537891   300718 
 6169000    0.6641436    -3.266385   -1.8119684  0.035216352    -3.266385    1.4544166   300738 
 6170000   0.66418737   -3.2672463   -1.8124049  0.037206959   -3.2672463    1.4548414   300670 
 6171000   0.66201735    -3.262861   -1.8128597  0.035646237    -3.262861    1.4500014   300688 
 6172000   0.66217326   -3.2647957   -1.8141151  0.035874318   -3.2647957    1.4506806   300618 
 6173000   0.66255796    -3.264641   -1.8130839  0.035312718    -3.264641    1.4515572   300611 
 6174000   0.66118119   -3.2647139    -1.815662  0.037537477   -3.2647139    1.4490518   300505 
 6175000    0.6613605   -3.2648375   -1.8153542  0.035507579   -3.2648375    1.4494834   300497 
 6176000   0.66209248   -3.2652402   -1.8140559  0.039825389   -3.2652402    1.4511842   300477 
 6177000   0.66103929   -3.2636346   -1.8145321  0.033785653   -3.2636346    1.4491025   300430 
 6178000   0.66144092   -3.2653317    -1.815315   0.03898926   -3.2653317    1.4500167   300423 
 6179000    0.6616967    -3.263996   -1.8133606  0.040052917    -3.263996    1.4506354   300411 
 6180000   0.66154636   -3.2640371   -1.8135044   0.03988161   -3.2640371    1.4505327   300364 
 6181000   0.66124962   -3.2642093   -1.8140375  0.039655238   -3.2642093    1.4501718   300304 
 6182000   0.66054948   -3.2635794   -1.8147646  0.039543341   -3.2635794    1.4488148   300267 
 6183000    0.6609637    -3.266383    -1.816539  0.038968555    -3.266383    1.4498441   300242 
 6184000   0.66068895   -3.2643435   -1.8147545  0.038413482   -3.2643435     1.449589   300170 
 6185000   0.66103307    -3.263846   -1.8133522  0.038818979    -3.263846    1.4504938   300139 
 6186000   0.66110928   -3.2669165   -1.8159847  0.039730207   -3.2669165    1.4509318   300083 
 6187000   0.66116784   -3.2654887   -1.8142978  0.040603063   -3.2654887    1.4511909   300056 
 6188000    0.6620212   -3.2657444   -1.8125303  0.042305819   -3.2657444     1.453214   300025 
 6189000   0.66046641   -3.2646196   -1.8145189  0.031756913   -3.2646196    1.4501008   299963 
 6190000   0.65999141   -3.2631024   -1.8136387  0.044854493   -3.2631024    1.4494638   299879 
 6191000   0.65904674   -3.2635612   -1.8161528  0.041188165   -3.2635612    1.4474084   299875 
 6192000   0.66012523   -3.2653169   -1.8151143  0.038489435   -3.2653169    1.4502026   299787 
 6193000   0.66020709   -3.2647162   -1.8141257  0.041997942   -3.2647162    1.4505905   299744 
 6194000   0.65847524   -3.2638376   -1.8168206  0.042139879   -3.2638376     1.447017   299696 
 6195000   0.65854131   -3.2625157   -1.8151361  0.035847422   -3.2625157    1.4473795   299651 
 6196000   0.65983088   -3.2646686   -1.8143483  0.036127547   -3.2646686    1.4503203   299629 
 6197000   0.65958284   -3.2655787   -1.8155326  0.035966112   -3.2655787    1.4500461   299573 
 6198000   0.65980258   -3.2646263   -1.8138065  0.039794864   -3.2646263    1.4508198   299513 
 6199000   0.66093057   -3.2655218   -1.8120421  0.038925703   -3.2655218    1.4534796   299476 
 6200000    0.6592153   -3.2615099   -1.8115506  0.037712141   -3.2615099    1.4499593   299424 
 6201000   0.66029332   -3.2652123   -1.8125714  0.041750402   -3.2652123    1.4526409   299360 
 6202000   0.65912626    -3.260326    -1.810117  0.038209365    -3.260326     1.450209   299332 
 6203000   0.65883486   -3.2608282   -1.8109891  0.041206067   -3.2608282    1.4498391   299276 
 6204000   0.65825393   -3.2600788   -1.8114939  0.038702014   -3.2600788    1.4485849   299271 
 6205000   0.65923667   -3.2631762   -1.8123608  0.035262181   -3.2631762    1.4508154   299257 
 6206000   0.65735307   -3.2585852   -1.8118184  0.038072424   -3.2585852    1.4467668   299237 
 6207000   0.65785396   -3.2579963   -1.8100836  0.031993815   -3.2579963    1.4479128   299228 
 6208000   0.65827206   -3.2599299   -1.8108499  0.036068353   -3.2599299      1.44908   299177 
 6209000   0.65656334   -3.2555562   -1.8096094  0.038662354   -3.2555562    1.4459468   299047 
 6210000   0.65674752   -3.2582829   -1.8116499  0.042164219   -3.2582829     1.446633   298989 
 6211000   0.65719023   -3.2586947   -1.8111253  0.037256386   -3.2586947    1.4475694   298997 
 6212000   0.65594972   -3.2566629    -1.811705  0.034392937   -3.2566629    1.4449578   298972 
 6213000   0.65562119   -3.2560648   -1.8116616  0.032829609   -3.2560648    1.4444032   298937 
 6214000   0.65537407   -3.2542959   -1.8104758  0.033222237   -3.2542959    1.4438201   298945 
 6215000   0.65671463   -3.2573443   -1.8104208  0.038474163   -3.2573443    1.4469235   298914 
 6216000   0.65674431   -3.2570491   -1.8098133  0.036144229   -3.2570491    1.4472358   298863 
 6217000   0.65752572   -3.2592546   -1.8101077  0.038578733   -3.2592546    1.4491469   298824 
 6218000   0.65870637   -3.2620887   -1.8102085  0.039313605   -3.2620887    1.4518801   298797 
 6219000   0.65833816   -3.2603289   -1.8092798  0.038984535   -3.2603289    1.4510491   298801 
 6220000    0.6577402   -3.2605043   -1.8105499  0.038171572   -3.2605043    1.4499544   298755 
 6221000   0.65744727   -3.2614641   -1.8119468  0.039713627   -3.2614641    1.4495172   298712 
 6222000    0.6575968   -3.2613051   -1.8112543   0.04095627   -3.2613051    1.4500508   298670 
 6223000   0.65681031   -3.2610204   -1.8123886  0.042224166   -3.2610204    1.4486318   298605 
 6224000    0.6576241   -3.2658065   -1.8150058  0.036953944   -3.2658065    1.4508008   298528 
 6225000   0.65827834   -3.2650427   -1.8128327  0.040630439   -3.2650427    1.4522101   298535 
 6226000   0.65617111    -3.262487   -1.8145958  0.045367301    -3.262487    1.4478912   298467 
 6227000   0.65623556   -3.2620778   -1.8140542  0.039525395   -3.2620778    1.4480237   298469 
 6228000   0.65777115   -3.2647183   -1.8131992  0.040357634   -3.2647183     1.451519   298447 
 6229000   0.65570696   -3.2621374   -1.8148923  0.038420153   -3.2621374    1.4472452   298389 
 6230000   0.65607069   -3.2625941   -1.8142936  0.039779228   -3.2625941    1.4483004   298337 
 6231000   0.65638647   -3.2631425   -1.8136008   0.03736091   -3.2631425    1.4495417   298225 
 6232000   0.65585927   -3.2608448   -1.8125159   0.03532675   -3.2608448    1.4483289   298235 
 6233000   0.65652565   -3.2630909   -1.8130814  0.041394529   -3.2630909    1.4500095   298192 
 6234000   0.65684366    -3.263021   -1.8121534  0.038009483    -3.263021    1.4508675   298160 
 6235000   0.65579248   -3.2604071   -1.8116768  0.039574751   -3.2604071    1.4487303   298122 
 6236000   0.65548969   -3.2599804   -1.8117927   0.04361828   -3.2599804    1.4481877   298096 
 6237000   0.65605927    -3.262331   -1.8128168  0.040256822    -3.262331    1.4495141   298082 
 6238000   0.65617787   -3.2592936   -1.8093909  0.038965705   -3.2592936    1.4499027   298056 
 6239000   0.65569863    -3.258129   -1.8091103  0.042095436    -3.258129    1.4490187   298020 
 6240000   0.65656163   -3.2610558    -1.809867   0.03620715   -3.2610558    1.4511888   297966 
 6241000   0.65513958   -3.2578315   -1.8095526   0.04041577   -3.2578315     1.448279   297918 
 6242000   0.65578887   -3.2586841   -1.8086631  0.040899062   -3.2586841     1.450021   297855 
 6243000    0.6553639   -3.2586973   -1.8095041  0.037327495   -3.2586973    1.4491932   297832 
 6244000    0.6560214   -3.2621721    -1.811067   0.03774144   -3.2621721    1.4511051   297738 
 6245000   0.65508779   -3.2590978   -1.8098242  0.042599023   -3.2590978    1.4492736   297690 
 6246000   0.65601743   -3.2623845   -1.8107958  0.036503329   -3.2623845    1.4515887   297637 
 6247000   0.65651705    -3.260988   -1.8081278  0.038898541    -3.260988    1.4528602   297603 
 6248000   0.65497796    -3.260437    -1.810705  0.040566984    -3.260437    1.4497319   297546 
 6249000   0.65551201   -3.2585409   -1.8074952  0.040681226   -3.2585409    1.4510457   297519 
 6250000   0.65442298   -3.2577036   -1.8087813  0.037194686   -3.2577036    1.4489223   297460 
 6251000   0.65550603   -3.2583396   -1.8069169  0.042760459   -3.2583396    1.4514227   297439 
 6252000   0.65503081   -3.2556127   -1.8048716   0.03920799   -3.2556127    1.4507411   297363 
 6253000   0.65494321   -3.2578147    -1.807009  0.036388152   -3.2578147    1.4508057   297310 
 6254000   0.65563428   -3.2563989   -1.8039646  0.037755787   -3.2563989    1.4524343   297290 
 6255000   0.65495484   -3.2556507    -1.804541  0.039148071   -3.2556507    1.4511097   297253 
 6256000   0.65422202   -3.2562181   -1.8064833  0.039196121   -3.2562181    1.4497348   297202 
 6257000   0.65269939   -3.2543277    -1.807967  0.037968033   -3.2543277    1.4463607   297202 
 6258000   0.65199615   -3.2524518   -1.8072215  0.034187908   -3.2524518    1.4452303   297114 
 6259000   0.65273016     -3.25191   -1.8048823   0.03496587     -3.25191    1.4470277   297079 
 6260000   0.65301798   -3.2543509   -1.8064317   0.03803334   -3.2543509    1.4479193   297027 
 6261000   0.65253468   -3.2516553   -1.8045348  0.038307657   -3.2516553    1.4471205   296971 
 6262000   0.65218334   -3.2539136   -1.8073531  0.037519734   -3.2539136    1.4465605   296926 
 6263000   0.65301823   -3.2535215   -1.8048994  0.036999123   -3.2535215    1.4486221   296883 
 6264000   0.65368048    -3.253027    -1.803014  0.033156874    -3.253027    1.4500131   296899 
 6265000   0.65264816   -3.2543942   -1.8067003  0.037323575   -3.2543942    1.4476939   296905 
 6266000   0.65243061   -3.2540024   -1.8063961  0.038618376   -3.2540024    1.4476062   296824 
 6267000   0.65077307   -3.2513568   -1.8071802  0.033630768   -3.2513568    1.4441766   296773 
 6268000   0.65203906   -3.2553548   -1.8081005  0.037884813   -3.2553548    1.4472543   296718 
 6269000   0.65129503   -3.2553327   -1.8093302  0.040024406   -3.2553327    1.4460025   296636 
 6270000   0.65299118   -3.2593339   -1.8094532   0.04009665   -3.2593339    1.4498807   296613 
 6271000   0.65346009   -3.2601286   -1.8090747  0.036032287   -3.2601286    1.4510539   296586 
 6272000   0.65211649   -3.2570762   -1.8088154  0.037745225   -3.2570762    1.4482608   296547 
 6273000   0.65266166   -3.2599023   -1.8103623  0.036016111   -3.2599023      1.44954   296533 
 6274000   0.65236835   -3.2587528   -1.8098105  0.038697045   -3.2587528    1.4489423   296522 
 6275000   0.65249991   -3.2598394   -1.8103116  0.040838132   -3.2598394    1.4495278   296462 
 6276000   0.65275172   -3.2614698   -1.8114266  0.037586785   -3.2614698    1.4500432   296471 
 6277000   0.65087587    -3.258675   -1.8127257  0.038205947    -3.258675    1.4459493   296456 
 6278000   0.65019563    -3.257515   -1.8128527  0.031852555    -3.257515    1.4446623   296410 
 6279000   0.65067091   -3.2589868   -1.8130588  0.038474022   -3.2589868     1.445928   296367 
 6280000   0.65114455   -3.2601364   -1.8129458  0.038397823   -3.2601364    1.4471905   296324 
 6281000   0.65165241   -3.2591593    -1.810708  0.039825464   -3.2591593    1.4484513   296297 
 6282000   0.65307502   -3.2609269   -1.8090048  0.037309358   -3.2609269    1.4519221   296234 
 6283000   0.65109211   -3.2595284   -1.8116238    0.0389241   -3.2595284    1.4479046   296154 
 6284000   0.65191028   -3.2618891   -1.8118712  0.035285995   -3.2618891    1.4500179   296094 
 6285000   0.65070506   -3.2587666   -1.8114637  0.042910705   -3.2587666    1.4473029   296101 
 6286000   0.65114047   -3.2604042   -1.8121671   0.03627216   -3.2604042    1.4482371   296108 
 6287000   0.65230277   -3.2603206   -1.8094493  0.041628073   -3.2603206    1.4508713   296098 
 6288000   0.65151937    -3.258927   -1.8098569  0.042362629    -3.258927    1.4490701   296110 
 6289000   0.65204608    -3.261205   -1.8108557  0.038754454    -3.261205    1.4503493   296088 
 6290000   0.65145075   -3.2589099   -1.8096107  0.037109325   -3.2589099    1.4492992   296032 
 6291000   0.65018159   -3.2572505   -1.8105012  0.041077613   -3.2572505    1.4467494   295976 
 6292000   0.64999261    -3.258399   -1.8118013  0.031883092    -3.258399    1.4465977   295921 
 6293000   0.65088735   -3.2586961   -1.8098084  0.037005452   -3.2586961    1.4488877   295860 
 6294000   0.64999333    -3.256644   -1.8095753  0.038912202    -3.256644    1.4470687   295825 
 6295000   0.65141561   -3.2592103   -1.8089016  0.039914679   -3.2592103    1.4503087   295810 
 6296000   0.65031981   -3.2572226   -1.8091774  0.034730666   -3.2572226    1.4480452   295774 
 6297000   0.65039605   -3.2565104   -1.8082416  0.039491635   -3.2565104    1.4482688   295763 
 6298000   0.65146571   -3.2574119   -1.8066729  0.042924884   -3.2574119     1.450739   295745 
 6299000   0.65080086   -3.2558487   -1.8063845  0.035757806   -3.2558487    1.4494643   295703 
 6300000   0.64992714   -3.2537383   -1.8061563  0.036693687   -3.2537383     1.447582   295690 
 6301000   0.65156002   -3.2550034   -1.8038189  0.039031458   -3.2550034    1.4511845   295697 
 6302000     0.650331    -3.253194   -1.8045704  0.041072943    -3.253194    1.4486236   295661 
 6303000   0.64989459   -3.2528132   -1.8048679  0.041866247   -3.2528132    1.4479453   295601 
 6304000   0.64818957   -3.2504126   -1.8060755  0.037851305   -3.2504126    1.4443371   295562 
 6305000   0.65010254   -3.2554475   -1.8066811   0.03443603   -3.2554475    1.4487664   295528 
 6306000   0.64831265   -3.2508766   -1.8055904  0.036303927   -3.2508766    1.4452862   295424 
 6307000   0.64774826   -3.2488937   -1.8049048  0.039090674   -3.2488937    1.4439889   295432 
 6308000   0.64941266   -3.2516544    -1.803715  0.040400716   -3.2516544    1.4479394   295383 
 6309000   0.65083633   -3.2541027   -1.8029154  0.035948813   -3.2541027    1.4511873   295368 
 6310000   0.65062196   -3.2517007   -1.8008292  0.041796007   -3.2517007    1.4508714   295335 
 6311000   0.65007921   -3.2489724   -1.7993407  0.038925809   -3.2489724    1.4496317   295341 
 6312000   0.65084602   -3.2520152   -1.8004771  0.036205433   -3.2520152    1.4515382   295301 
 6313000   0.65113081   -3.2508709   -1.7985648  0.038471192   -3.2508709    1.4523061   295274 
 6314000   0.65087528   -3.2501947   -1.7984487  0.035584458   -3.2501947     1.451746   295272 
 6315000   0.64987183   -3.2496371   -1.7998396  0.040372832   -3.2496371    1.4497976   295213 
 6316000   0.64948352   -3.2495799   -1.8003983  0.040137319   -3.2495799    1.4491816   295162 
 6317000   0.64794046   -3.2476806   -1.8016088  0.037406355   -3.2476806    1.4460718   295094 
 6318000   0.64870529   -3.2500266    -1.802243  0.035555568   -3.2500266    1.4477836   295093 
 6319000   0.64850062   -3.2499627   -1.8024593  0.031824163   -3.2499627    1.4475034   295057 
 6320000   0.64887835   -3.2513967    -1.802623  0.036117021   -3.2513967    1.4487738   294970 
 6321000   0.64973762   -3.2521821    -1.801362  0.037330591   -3.2521821    1.4508202   294944 
 6322000    0.6505887   -3.2514488   -1.7985607  0.037725368   -3.2514488     1.452888   294910 
 6323000   0.65114477   -3.2521831   -1.7979497  0.039673201   -3.2521831    1.4542334   294889 
 6324000   0.64977687   -3.2508506   -1.7994507  0.038506636   -3.2508506    1.4513999   294844 
 6325000   0.64821527   -3.2517828   -1.8036402  0.037348201   -3.2517828    1.4481426   294797 
 6326000   0.64667285   -3.2480762   -1.8033941  0.040073183   -3.2480762    1.4446821   294800 
 6327000   0.64709347   -3.2475642   -1.8016825  0.040324433   -3.2475642    1.4458817   294747 
 6328000   0.64849338   -3.2511385   -1.8017944  0.042692907   -3.2511385    1.4493441   294679 
 6329000   0.64841156   -3.2523543   -1.8028241   0.03742498   -3.2523543    1.4495301   294604 
 6330000   0.64739554   -3.2528119   -1.8052632  0.040606873   -3.2528119    1.4475487   294545 
 6331000   0.64632027   -3.2511003   -1.8055976  0.037320017   -3.2511003    1.4455027   294472 
 6332000   0.64691407   -3.2529735   -1.8058921  0.031250964   -3.2529735    1.4470814   294421 
 6333000   0.64751298   -3.2543866   -1.8059459   0.03796212   -3.2543866    1.4484407   294417 
 6334000   0.64766061   -3.2557042   -1.8069431   0.03914902   -3.2557042    1.4487611   294419 
 6335000   0.64730525    -3.256559   -1.8081648  0.038757832    -3.256559    1.4483942   294332 
 6336000   0.64915685   -3.2591989   -1.8066814  0.039896799   -3.2591989    1.4525176   294336 
 6337000   0.64766726   -3.2563149   -1.8068053  0.034340492   -3.2563149    1.4495096   294270 
 6338000   0.64856642   -3.2553333   -1.8036584  0.038149334   -3.2553333    1.4516749   294239 
 6339000   0.64687755   -3.2542664    -1.806229   0.03824355   -3.2542664    1.4480374   294210 
 6340000   0.64638708   -3.2556976   -1.8084777  0.038935004   -3.2556976    1.4472199   294153 
 6341000   0.64675734    -3.256044    -1.807877  0.038357843    -3.256044     1.448167   294129 
 6342000   0.64645126   -3.2553248   -1.8075773  0.038193953   -3.2553248    1.4477475   294075 
 6343000   0.64555591   -3.2532611   -1.8073319  0.039896093   -3.2532611    1.4459291   294037 
 6344000   0.64524694   -3.2542042   -1.8085689  0.038927426   -3.2542042    1.4456353   293956 
 6345000   0.64513767   -3.2544472   -1.8087566  0.032038933   -3.2544472    1.4456905   293895 
 6346000   0.64480376   -3.2536959   -1.8085963  0.037879851   -3.2536959    1.4450996   293863 
 6347000    0.6441502   -3.2501459   -1.8065011  0.036168993   -3.2501459    1.4436447   293861 
 6348000   0.64629751   -3.2537324   -1.8051914  0.039048476   -3.2537324     1.448541   293844 
 6349000   0.64725332   -3.2539945   -1.8031928  0.042716697   -3.2539945    1.4508017   293820 
 6350000   0.64752426   -3.2552353   -1.8035991   0.03449029   -3.2552353    1.4516363   293774 
 6351000   0.64721694   -3.2565727   -1.8054327  0.036625181   -3.2565727      1.45114   293735 
 6352000   0.64658155   -3.2575055   -1.8076273  0.037122598   -3.2575055    1.4498782   293702 
 6353000   0.64647487   -3.2547296   -1.8049474  0.041811719   -3.2547296    1.4497822   293673 
 6354000   0.64570538    -3.252822   -1.8046373  0.042608989    -3.252822    1.4481847   293647 
 6355000   0.64445825   -3.2532387   -1.8075408  0.038314938   -3.2532387    1.4456979   293584 
 6356000   0.64550078   -3.2545314   -1.8063716  0.038195567   -3.2545314    1.4481599   293559 
 6357000   0.64546622   -3.2522298   -1.8039403  0.041421769   -3.2522298    1.4482895   293517 
 6358000   0.64608422   -3.2516602   -1.8020137  0.035596638   -3.2516602    1.4496466   293523 
 6359000   0.64670134   -3.2520512   -1.8008371  0.040859813   -3.2520512    1.4512141   293486 
 6360000    0.6456722   -3.2522542   -1.8031273  0.041652585   -3.2522542    1.4491269   293441 
 6361000   0.64665025   -3.2546523    -1.802979  0.039027914   -3.2546523    1.4516733   293370 
 6362000   0.64498925   -3.2507745   -1.8026968  0.037826169   -3.2507745    1.4480777   293343 
 6363000   0.64527019   -3.2492832    -1.800555  0.039706727   -3.2492832    1.4487282   293339 
 6364000   0.64424179   -3.2482299   -1.8016133  0.035832051   -3.2482299    1.4466166   293299 
 6365000    0.6448566   -3.2473218   -1.7993741  0.037156249   -3.2473218    1.4479478   293309 
 6366000   0.64582847   -3.2518822   -1.8012923  0.033584342   -3.2518822    1.4505899   293216 
 6367000   0.64576845   -3.2494215   -1.7987833  0.037330413   -3.2494215    1.4506382   293179 
 6368000   0.64606273   -3.2479919   -1.7966135  0.043069138   -3.2479919    1.4513784   293163 
 6369000   0.64536183   -3.2472488   -1.7973856  0.038205035   -3.2472488    1.4498632   293151 
 6370000   0.64607068   -3.2483032   -1.7967584  0.036762298   -3.2483032    1.4515448   293133 
 6371000   0.64485872   -3.2465627   -1.7977161   0.03848024   -3.2465627    1.4488466   293128 
 6372000   0.64444328    -3.244114   -1.7959192  0.037501115    -3.244114    1.4481948   293071 
 6373000   0.64463406   -3.2453647   -1.7963902  0.033623126   -3.2453647    1.4489746   293000 
 6374000   0.64419002   -3.2454001   -1.7973248  0.036064997   -3.2454001    1.4480753   292980 
 6375000   0.64582683   -3.2460414   -1.7943561  0.039861332   -3.2460414    1.4516853   292994 
 6376000   0.64665302   -3.2472616   -1.7935207  0.038227115   -3.2472616    1.4537409   292954 
 6377000   0.64680186   -3.2472743   -1.7932832  0.036918463   -3.2472743    1.4539911   292971 
 6378000    0.6471723   -3.2474353   -1.7923482  0.041032208   -3.2474353    1.4550871   292918 
 6379000    0.6453777   -3.2438071    -1.792527  0.040761521   -3.2438071    1.4512801   292872 
 6380000   0.64475179   -3.2436158   -1.7934164  0.039014545   -3.2436158    1.4501994   292806 
 6381000   0.64468358   -3.2442207   -1.7939419  0.040242239   -3.2442207    1.4502788   292759 
 6382000    0.6441177   -3.2434462   -1.7943464  0.038548529   -3.2434462    1.4490998   292740 
 6383000   0.64501317   -3.2439147   -1.7925177  0.040690747   -3.2439147     1.451397   292683 
 6384000   0.64473295   -3.2454665   -1.7943877  0.038142344   -3.2454665    1.4510788   292620 
 6385000   0.64526329   -3.2451518   -1.7929737   0.04030793   -3.2451518    1.4521781   292639 
 6386000   0.64373018   -3.2449213   -1.7959558  0.035086394   -3.2449213    1.4489655   292591 
 6387000   0.64446154   -3.2458799   -1.7949608  0.036221812   -3.2458799    1.4509191   292529 
 6388000   0.64482917   -3.2445463   -1.7928193  0.043356917   -3.2445463     1.451727   292533 
 6389000   0.64439775   -3.2441872   -1.7931984  0.041014351   -3.2441872    1.4509888   292486 
 6390000   0.64418104   -3.2473697   -1.7967647  0.037300314   -3.2473697     1.450605   292465 
 6391000   0.64430627   -3.2485616   -1.7975605  0.040751755   -3.2485616    1.4510011   292442 
 6392000   0.64405067   -3.2477698   -1.7970764   0.03842734   -3.2477698    1.4506934   292388 
 6393000   0.64316017   -3.2462022   -1.7973065  0.037433646   -3.2462022    1.4488957   292346 
 6394000   0.64402449   -3.2488738   -1.7979119  0.037275343   -3.2488738    1.4509619   292322 
 6395000   0.64309367   -3.2478512   -1.7988724  0.038224624   -3.2478512    1.4489788   292299 
 6396000   0.64397535   -3.2489597   -1.7979447  0.038695027   -3.2489597     1.451015   292289 
 6397000   0.64344383   -3.2454996   -1.7955383  0.039849699   -3.2454996    1.4499612   292260 
 6398000    0.6443948   -3.2486173   -1.7963143  0.041725611   -3.2486173     1.452303   292220 
 6399000   0.64316491   -3.2484208   -1.7987408  0.038205574   -3.2484208    1.4496799   292190 
 6400000   0.64282736   -3.2485552   -1.7995022  0.039448542   -3.2485552     1.449053   292163 
 6401000   0.64349589    -3.251199   -1.8003013   0.03742958    -3.251199    1.4508977   292095 
 6402000   0.64306066   -3.2480573   -1.7980168  0.040824258   -3.2480573    1.4500405   292070 
 6403000   0.64432217   -3.2511723   -1.7980086  0.036584195   -3.2511723    1.4531637   292014 
 6404000   0.64472908   -3.2496136    -1.795567  0.038930029   -3.2496136    1.4540465   292021 
 6405000   0.64399179   -3.2479806    -1.795756   0.04346261   -3.2479806    1.4522246   292053 
 6406000   0.64300788   -3.2467773   -1.7967963  0.041344896   -3.2467773     1.449981   292058 
 6407000    0.6426432    -3.247388   -1.7976038  0.041943253    -3.247388    1.4497842   291932 
 6408000   0.64285573   -3.2468724   -1.7966187  0.040095072   -3.2468724    1.4502537   291934 
 6409000   0.64251217   -3.2444739   -1.7945483  0.044181226   -3.2444739    1.4499256   291844 
 6410000   0.64254419   -3.2440916   -1.7938452  0.037770479   -3.2440916    1.4502463   291794 
 6411000   0.64290486   -3.2444022   -1.7932473  0.040087664   -3.2444022    1.4511549   291775 
 6412000   0.64241391   -3.2448102   -1.7943558  0.038052199   -3.2448102    1.4504543   291693 
 6413000   0.64194947   -3.2460436   -1.7962204  0.039988545   -3.2460436    1.4498232   291609 
 6414000   0.64257829   -3.2467061   -1.7954129  0.035874702   -3.2467061    1.4512932   291599 
 6415000   0.64173932   -3.2459256   -1.7964776  0.035527151   -3.2459256     1.449448   291589 
 6416000   0.64084241   -3.2415482   -1.7939919  0.037665205   -3.2415482    1.4475563   291562 
 6417000   0.64229664   -3.2420783   -1.7911426  0.037178149   -3.2420783    1.4509357   291543 
 6418000   0.64271803   -3.2408059    -1.788983  0.042467064   -3.2408059    1.4518229   291556 
 6419000   0.64262609   -3.2432035   -1.7912995  0.036627123   -3.2432035     1.451904   291498 
 6420000   0.64115278    -3.240122   -1.7912932  0.040256109    -3.240122    1.4488288   291447 
 6421000   0.64273059   -3.2454384   -1.7927201  0.037450893   -3.2454384    1.4527182   291382 
 6422000   0.64255233   -3.2434715   -1.7909718  0.036214734   -3.2434715    1.4524997   291345 
 6423000   0.64134208    -3.238056    -1.788312   0.04147721    -3.238056     1.449744   291349 
 6424000   0.64413193   -3.2415437   -1.7853133  0.039222892   -3.2415437    1.4562304   291313 
 6425000   0.64470233   -3.2426182   -1.7851833  0.040965899   -3.2426182    1.4574349   291330 
 6426000   0.64358881   -3.2427625   -1.7876001  0.037997911   -3.2427625    1.4551624   291281 
 6427000   0.64344128    -3.242326   -1.7874472  0.041678765    -3.242326    1.4548788   291271 
 6428000   0.64153189    -3.239434   -1.7886284  0.039328892    -3.239434    1.4508055   291222 
 6429000   0.64121136   -3.2404054   -1.7903795  0.037553218   -3.2404054    1.4500259   291233 
 6430000   0.64134825   -3.2388617   -1.7884963  0.039511191   -3.2388617    1.4503653   291227 
 6431000   0.64233532   -3.2408293   -1.7880971  0.039174364   -3.2408293    1.4527322   291200 
 6432000   0.64019257   -3.2374724   -1.7893974  0.043473789   -3.2374724     1.448075   291162 
 6433000   0.64125303   -3.2400079   -1.7893349  0.037665481   -3.2400079     1.450673   291122 
 6434000   0.64177484   -3.2416592   -1.7896112  0.037125935   -3.2416592     1.452048   291083 
 6435000   0.64021641   -3.2370245   -1.7883631  0.039989456   -3.2370245    1.4486613   291055 
 6436000   0.63999499   -3.2378446   -1.7894704  0.040622274   -3.2378446    1.4483743   291012 
 6437000   0.63996646   -3.2356183   -1.7873832  0.042918743   -3.2356183    1.4482351   291027 
 6438000   0.64004431   -3.2381178   -1.7894328  0.039443422   -3.2381178     1.448685   290972 
 6439000   0.64227779   -3.2415815   -1.7877612  0.034920403   -3.2415815    1.4538203   290956 
 6440000   0.64193564   -3.2380694   -1.7848988   0.04225861   -3.2380694    1.4531707   290931 
 6441000   0.64287793   -3.2404951   -1.7851713  0.045086288   -3.2404951    1.4553238   290927 
 6442000    0.6413708   -3.2384954   -1.7866034  0.041859113   -3.2384954     1.451892   290931 
 6443000   0.64134281   -3.2385309   -1.7863678  0.038941906   -3.2385309    1.4521631   290864 
 6444000   0.64094689   -3.2370974   -1.7855863  0.037978715   -3.2370974    1.4515111   290815 
 6445000   0.64056706   -3.2371813   -1.7863058  0.038743552   -3.2371813    1.4508755   290770 
 6446000   0.64042793   -3.2365812   -1.7857315   0.04013315   -3.2365812    1.4508497   290712 
 6447000   0.64040064   -3.2352949   -1.7843323  0.042257329   -3.2352949    1.4509626   290677 
 6448000   0.64099434   -3.2367259   -1.7842533  0.036343471   -3.2367259    1.4524726   290644 
 6449000   0.64121477   -3.2380109   -1.7848437  0.038531819   -3.2380109    1.4531671   290605 
 6450000   0.64064323   -3.2351191   -1.7828724  0.038332314   -3.2351191    1.4522467   290530 
 6451000   0.64001189   -3.2343897   -1.7833694  0.038842488   -3.2343897    1.4510203   290489 
 6452000   0.64080606   -3.2351692   -1.7822684  0.040849765   -3.2351692    1.4529008   290473 
 6453000   0.64061169   -3.2366562   -1.7841861  0.031559285   -3.2366562    1.4524701   290471 
 6454000   0.63983615   -3.2331503   -1.7821439  0.037006356   -3.2331503    1.4510065   290412 
 6455000   0.63880071   -3.2334817   -1.7846987  0.034979515   -3.2334817     1.448783   290387 
 6456000   0.63896576   -3.2342325   -1.7847008  0.035213592   -3.2342325    1.4495317   290312 
 6457000   0.63961405   -3.2361032   -1.7847808  0.038849585   -3.2361032    1.4513224   290248 
 6458000   0.63983525   -3.2350496   -1.7829451  0.039217973   -3.2350496    1.4521044   290192 
 6459000   0.64009856   -3.2352678   -1.7825207  0.038631118   -3.2352678    1.4527471   290183 
 6460000   0.63900014   -3.2312673   -1.7808482  0.036105555   -3.2312673    1.4504191   290150 
 6461000   0.63958577    -3.233124   -1.7812455  0.040054358    -3.233124    1.4518785   290124 
 6462000   0.63854089   -3.2323102   -1.7826487  0.042505133   -3.2323102    1.4496615   290093 
 6463000    0.6390373    -3.235184   -1.7843205  0.037487787    -3.235184    1.4508635   290078 
 6464000   0.63875335   -3.2332383   -1.7825294  0.039288965   -3.2332383    1.4507089   289980 
 6465000   0.63987483   -3.2347285   -1.7811567  0.040494004   -3.2347285    1.4535718   289917 
 6466000   0.63916162   -3.2307692   -1.7785972  0.040884242   -3.2307692     1.452172   289873 
 6467000    0.6394678   -3.2333874   -1.7803293  0.039754739   -3.2333874    1.4530581   289835 
 6468000   0.64058063   -3.2349012    -1.779229  0.039433714   -3.2349012    1.4556722   289818 
 6469000   0.64006475   -3.2344866   -1.7796504  0.037184788   -3.2344866    1.4548362   289751 
 6470000    0.6384806   -3.2322317   -1.7807808  0.035652673   -3.2322317    1.4514509   289708 
 6471000   0.63987035   -3.2327962   -1.7781458  0.035574681   -3.2327962    1.4546504   289700 
 6472000   0.63769268   -3.2297008   -1.7798709  0.041164169   -3.2297008    1.4498299   289674 
 6473000   0.63977636   -3.2337767   -1.7789584  0.039769325   -3.2337767    1.4548184   289624 
 6474000   0.63938716   -3.2328275   -1.7787235  0.035882986   -3.2328275     1.454104   289590 
 6475000   0.63752325   -3.2283001   -1.7783799  0.036511445   -3.2283001    1.4499202   289579 
 6476000   0.63786201   -3.2276932   -1.7766719  0.043589927   -3.2276932    1.4510213   289513 
 6477000   0.63907204   -3.2316726   -1.7776727  0.039087049   -3.2316726    1.4539999   289468 
 6478000   0.63683361   -3.2282175     -1.77898  0.039647886   -3.2282175    1.4492376   289402 
 6479000   0.63699993   -3.2293388   -1.7794672  0.041582405   -3.2293388    1.4498716   289351 
 6480000   0.63772184   -3.2326337   -1.7810237  0.039593826   -3.2326337      1.45161   289332 
 6481000   0.63808647   -3.2347391   -1.7822138  0.037199511   -3.2347391    1.4525253   289315 
 6482000   0.63713923    -3.234052   -1.7832516  0.039998417    -3.234052    1.4508003   289229 
 6483000   0.63588083   -3.2323302   -1.7842151  0.039934085   -3.2323302    1.4481151   289193 
 6484000   0.63697304   -3.2335006   -1.7827928  0.038469294   -3.2335006    1.4507078   289172 
 6485000   0.63693293   -3.2357032   -1.7848409  0.035004947   -3.2357032    1.4508623   289123 
 6486000   0.63711187   -3.2375208   -1.7861254  0.038983079   -3.2375208    1.4513954   289098 
 6487000    0.6362944    -3.235924   -1.7861903  0.037810459    -3.235924    1.4497337   289058 
 6488000   0.63708808   -3.2407068   -1.7891145  0.034052466   -3.2407068    1.4515922   289048 
 6489000   0.63624923   -3.2367297   -1.7869133  0.040754047   -3.2367297    1.4498164   289021 
 6490000   0.63711843   -3.2387703   -1.7869532  0.036947176   -3.2387703    1.4518171   289017 
 6491000   0.63686897   -3.2386183   -1.7873947   0.03711289   -3.2386183    1.4512236   289022 
 6492000   0.63663539   -3.2368773   -1.7860103   0.04075781   -3.2368773     1.450867   288987 
 6493000   0.63771302   -3.2371452   -1.7836815  0.042608518   -3.2371452    1.4534637   288959 
 6494000    0.6371034   -3.2377206   -1.7854955  0.041854115   -3.2377206     1.452225   288929 
 6495000   0.63772652   -3.2390658   -1.7849775  0.043682034   -3.2390658    1.4540883   288841 
 6496000   0.63782202   -3.2398329   -1.7853355  0.040750551   -3.2398329    1.4544974   288803 
 6497000   0.63686749   -3.2368513   -1.7845105  0.040463727   -3.2368513    1.4523408   288799 
 6498000   0.63527247   -3.2368156   -1.7877911  0.037517158   -3.2368156    1.4490245   288735 
 6499000   0.63474729   -3.2369184   -1.7887257  0.034009249   -3.2369184    1.4481928   288662 
 6500000   0.63550891   -3.2385352   -1.7884843  0.037103679   -3.2385352     1.450051   288638 
 6501000   0.63481401   -3.2379239   -1.7895287  0.041582843   -3.2379239    1.4483952   288652 
 6502000   0.63630826   -3.2400344   -1.7881645  0.037547027   -3.2400344    1.4518698   288639 
 6503000   0.63573922   -3.2393253   -1.7886181  0.041665439   -3.2393253    1.4507072   288612 
 6504000   0.63611707   -3.2394584    -1.787718  0.040580869   -3.2394584    1.4517404   288578 
 6505000   0.63559715   -3.2389218   -1.7883227  0.038385421   -3.2389218    1.4505991   288569 
 6506000   0.63482979   -3.2376476   -1.7887194  0.037258197   -3.2376476    1.4489281   288553 
 6507000   0.63550333   -3.2386914   -1.7880149  0.041545888   -3.2386914    1.4506765   288511 
 6508000   0.63666471   -3.2419311    -1.788412  0.037971767   -3.2419311    1.4535191   288473 
 6509000   0.63590104   -3.2399483   -1.7880216  0.038060439   -3.2399483    1.4519266   288443 
 6510000   0.63497226    -3.236972   -1.7870655  0.040613983    -3.236972    1.4499065   288423 
 6511000   0.63393663   -3.2351841   -1.7874566  0.038568479   -3.2351841    1.4477274   288386 
 6512000    0.6348539   -3.2366554   -1.7866773   0.03449151   -3.2366554    1.4499781   288355 
 6513000   0.63427369   -3.2347344    -1.785976  0.035366701   -3.2347344    1.4487584   288334 
 6514000   0.63568432   -3.2379887   -1.7857614  0.036042754   -3.2379887    1.4522273   288285 
 6515000     0.636203   -3.2380743   -1.7843847  0.040876251   -3.2380743    1.4536895   288230 
 6516000   0.63622535   -3.2393566   -1.7852073  0.039413519   -3.2393566    1.4541492   288149 
 6517000   0.63535337   -3.2365821   -1.7841687  0.041674086   -3.2365821    1.4524133   288098 
 6518000   0.63432313   -3.2330951   -1.7829111  0.039157038   -3.2330951     1.450184   288073 
 6519000   0.63407145   -3.2332827    -1.783503  0.036699832   -3.2332827    1.4497798   288039 
 6520000   0.63492734   -3.2362291     -1.78421  0.039487971   -3.2362291     1.452019   287983 
 6521000   0.63363918   -3.2329707   -1.7836661  0.040497369   -3.2329707    1.4493046   287937 
 6522000   0.63337291   -3.2323793   -1.7833968   0.03848376   -3.2323793    1.4489824   287880 
 6523000    0.6328721   -3.2313795   -1.7833517  0.037951272   -3.2313795    1.4480279   287842 
 6524000   0.63253069   -3.2313459   -1.7838729  0.039956183   -3.2313459     1.447473   287797 
 6525000   0.63263467   -3.2312709   -1.7835751  0.036655363   -3.2312709    1.4476959   287800 
 6526000   0.63273967    -3.232046   -1.7838532  0.037093697    -3.232046    1.4481928   287749 
 6527000     0.631714   -3.2309219    -1.784574  0.039020305   -3.2309219    1.4463479   287649 
 6528000   0.63292023   -3.2333835   -1.7841782  0.037849259   -3.2333835    1.4492053   287630 
 6529000   0.63282452   -3.2309223   -1.7816136  0.040722407   -3.2309223    1.4493087   287566 
 6530000   0.63419905   -3.2315464    -1.779317  0.039980121   -3.2315464    1.4522294   287611 
 6531000    0.6340815   -3.2312693   -1.7790515  0.039144996   -3.2312693    1.4522177   287560 
 6532000   0.63358021   -3.2306072   -1.7792499  0.041601452   -3.2306072    1.4513573   287503 
 6533000   0.63318043   -3.2320635   -1.7811829  0.039239983   -3.2320635    1.4508806   287416 
 6534000   0.63141171   -3.2303046   -1.7832302  0.035596944   -3.2303046    1.4470744   287367 
 6535000   0.63201849   -3.2323721   -1.7837356    0.0400074   -3.2323721    1.4486364   287333 
 6536000   0.63260283   -3.2317659   -1.7816437  0.036604067   -3.2317659    1.4501222   287304 
 6537000   0.63292029   -3.2306261    -1.779554  0.045426245   -3.2306261    1.4510721   287260 
 6538000   0.63340724   -3.2321142   -1.7797639  0.039023507   -3.2321142    1.4523503   287228 
 6539000   0.63219714   -3.2302754   -1.7803666  0.043437081   -3.2302754    1.4499088   287162 
 6540000   0.63185909   -3.2308692   -1.7815741  0.041307121   -3.2308692     1.449295   287130 
 6541000   0.63178711   -3.2301589    -1.780711  0.039276683   -3.2301589     1.449448   287067 
 6542000   0.63147777   -3.2277601   -1.7789613  0.037276133   -3.2277601    1.4487988   287055 
 6543000   0.63228021   -3.2283318   -1.7775707  0.035267799   -3.2283318    1.4507611   287031 
 6544000   0.63154337   -3.2302175   -1.7805713  0.040534903   -3.2302175    1.4496462   286917 
 6545000   0.63156318   -3.2300086   -1.7800895  0.041133669   -3.2300086    1.4499191   286872 
 6546000   0.63248261   -3.2302958   -1.7780077   0.04471357   -3.2302958    1.4522881   286821 
 6547000   0.63278965   -3.2284994   -1.7754607  0.036529408   -3.2284994    1.4530387   286812 
 6548000   0.63173111   -3.2269969   -1.7763737  0.038839174   -3.2269969    1.4506232   286809 
 6549000   0.63270457   -3.2277179   -1.7745604  0.036928915   -3.2277179    1.4531575   286750 
 6550000   0.63041356   -3.2240006    -1.776004  0.037326876   -3.2240006    1.4479966   286730 
 6551000   0.63304924   -3.2286208   -1.7742406  0.040198313   -3.2286208    1.4543802   286665 
 6552000   0.63299588   -3.2255338   -1.7708753  0.041233773   -3.2255338    1.4546585   286586 
 6553000   0.63320345   -3.2272059   -1.7717961  0.040310744   -3.2272059    1.4554097   286532 
 6554000   0.63252641   -3.2277057   -1.7735578  0.041825862   -3.2277057    1.4541479   286474 
 6555000   0.63268483   -3.2289221   -1.7743186  0.039890798   -3.2289221    1.4546035   286456 
 6556000   0.63185133   -3.2250602   -1.7722462  0.035118462   -3.2250602     1.452814   286431 
 6557000    0.6306984   -3.2235686   -1.7732385  0.036371797   -3.2235686    1.4503302   286398 
 6558000   0.63114709   -3.2251741   -1.7734016   0.03816817   -3.2251741    1.4517725   286317 
 6559000   0.63202847   -3.2250052   -1.7709615   0.03952782   -3.2250052    1.4540437   286269 
 6560000   0.63126361   -3.2247562   -1.7726142  0.039304969   -3.2247562     1.452142   286297 
 6561000   0.63056993   -3.2235992   -1.7730327   0.03469453   -3.2235992    1.4505665   286293 
 6562000    0.6286907   -3.2194125    -1.772987  0.039806691   -3.2194125    1.4464254   286257 
 6563000    0.6289983   -3.2209638   -1.7735627  0.036835316   -3.2209638    1.4474011   286204 
 6564000   0.63114058   -3.2254782   -1.7729393  0.041775223   -3.2254782    1.4525389   286163 
 6565000    0.6304055   -3.2212947   -1.7701433  0.040897293   -3.2212947    1.4511514   286103 
 6566000   0.63150051   -3.2243615   -1.7706692  0.041067885   -3.2243615    1.4536923   286099 
 6567000    0.6308874   -3.2242054    -1.771503  0.041118308   -3.2242054    1.4527024   286016 
 6568000   0.63099658   -3.2273091    -1.774147  0.037381766   -3.2273091    1.4531621   285975 
 6569000   0.62971841   -3.2262638   -1.7757714  0.037366059   -3.2262638    1.4504924   285921 
 6570000   0.62978753    -3.225576   -1.7747265  0.036548922    -3.225576    1.4508495   285882 
 6571000   0.62858534    -3.223006   -1.7748449  0.035922989    -3.223006    1.4481611   285866 
 6572000   0.62875482   -3.2253906   -1.7767378   0.03585843   -3.2253906    1.4486529   285846 
 6573000   0.62910695   -3.2255246   -1.7758169  0.044018408   -3.2255246    1.4497077   285798 
 6574000   0.62951841   -3.2256161   -1.7746861  0.038387808   -3.2256161      1.45093   285744 
 6575000   0.62912046   -3.2254239   -1.7753858  0.038988989   -3.2254239    1.4500381   285739 
 6576000   0.62869511   -3.2245215   -1.7753065   0.03718557   -3.2245215     1.449215   285708 
 6577000   0.62819576   -3.2247295   -1.7764578  0.044955753   -3.2247295    1.4482717   285667 
 6578000   0.62923969    -3.226755   -1.7758175  0.041438658    -3.226755    1.4509375   285616 
 6579000   0.62953618    -3.229068   -1.7772638  0.038751344    -3.229068    1.4518042   285580 
 6580000   0.62884347   -3.2272723   -1.7769386  0.036170639   -3.2272723    1.4503336   285555 
 6581000   0.62946762   -3.2299395   -1.7781664  0.036108592   -3.2299395    1.4517731   285555 
 6582000   0.62826221   -3.2285792   -1.7793578  0.039843041   -3.2285792    1.4492214   285510 
 6583000   0.62864682   -3.2310137   -1.7806207  0.035826676   -3.2310137    1.4503931   285454 
 6584000   0.62795055   -3.2300802   -1.7807858  0.041939402   -3.2300802    1.4492944   285354 
 6585000   0.62816533   -3.2304809   -1.7808127  0.039016969   -3.2304809    1.4496682   285378 
 6586000   0.62895714    -3.231539   -1.7798197  0.040820708    -3.231539    1.4517193   285334 
 6587000   0.62893834   -3.2306039   -1.7789025  0.038934274   -3.2306039    1.4517014   285329 
 6588000   0.62849537   -3.2289802    -1.777986  0.042130829   -3.2289802    1.4509942   285267 
 6589000   0.62877283   -3.2307423   -1.7789345  0.040687813   -3.2307423    1.4518078   285233 
 6590000   0.62772802   -3.2294941   -1.7800276  0.037506104   -3.2294941    1.4494665   285219 
 6591000   0.62692026    -3.228708    -1.780736  0.039073182    -3.228708     1.447972   285146 
 6592000   0.62683301   -3.2278799   -1.7800434  0.040499316   -3.2278799    1.4478365   285133 
 6593000   0.62821025   -3.2287509    -1.777657  0.038476942   -3.2287509    1.4510939   285118 
 6594000   0.62853454   -3.2302985   -1.7781551  0.042922827   -3.2302985    1.4521434   285059 
 6595000   0.62845212   -3.2300803   -1.7779999  0.041838089   -3.2300803    1.4520804   285034 
 6596000    0.6271425   -3.2284544   -1.7790338  0.039442048   -3.2284544    1.4494205   284962 
 6597000    0.6265828   -3.2279984   -1.7796477  0.036820147   -3.2279984    1.4483506   284918 
 6598000   0.62652316   -3.2255361   -1.7771657  0.039325242   -3.2255361    1.4483704   284887 
 6599000   0.62440304    -3.224505   -1.7808686    0.0391365    -3.224505    1.4436364   284854 
 6600000   0.62528325   -3.2263426   -1.7803209   0.03312764   -3.2263426    1.4460217   284785 
 6601000    0.6258854    -3.225612   -1.7778571  0.038072242    -3.225612    1.4477549   284718 
 6602000   0.62682896   -3.2256361   -1.7755968  0.040034271   -3.2256361    1.4500393   284698 
 6603000   0.62728871   -3.2273241   -1.7759919  0.038883989   -3.2273241    1.4513322   284653 
 6604000   0.62847402   -3.2277474   -1.7734531  0.039983939   -3.2277474    1.4542943   284610 
 6605000   0.62664767   -3.2252994   -1.7748949  0.036384118   -3.2252994    1.4504045   284544 
 6606000   0.62623057   -3.2257359   -1.7761186  0.035834503   -3.2257359    1.4496174   284509 
 6607000   0.62686012   -3.2264575   -1.7750053  0.038125854   -3.2264575    1.4514522   284435 
 6608000   0.62534546   -3.2263151   -1.7778914  0.036091624   -3.2263151    1.4484238   284341 
 6609000   0.62573563   -3.2259349   -1.7764035  0.038452924   -3.2259349    1.4495314   284301 
 6610000   0.62419367   -3.2221088   -1.7762613  0.036703455   -3.2221088    1.4458475   284323 
 6611000    0.6261339   -3.2238174   -1.7732409  0.038000066   -3.2238174    1.4505765   284277 
 6612000    0.6268425   -3.2270121   -1.7748707  0.035418341   -3.2270121    1.4521415   284292 
 6613000   0.62599957   -3.2270745   -1.7766307  0.036837781   -3.2270745    1.4504438   284242 
 6614000   0.62557464   -3.2255061   -1.7759499  0.035386185   -3.2255061    1.4495562   284223 
 6615000   0.62529376   -3.2260742    -1.776919  0.035252071   -3.2260742    1.4491552   284174 
 6616000   0.62450502   -3.2258378   -1.7781133  0.036838111   -3.2258378    1.4477246   284096 
 6617000   0.62397875   -3.2275724   -1.7806909  0.034916501   -3.2275724    1.4468814   284022 
 6618000   0.62379606   -3.2263013   -1.7796346  0.035327491   -3.2263013    1.4466667   283981 
 6619000   0.62455827   -3.2284509   -1.7795881  0.034056922   -3.2284509    1.4488629   283897 
 6620000   0.62486264   -3.2294435   -1.7797877  0.042091329   -3.2294435    1.4496558   283880 
 6621000   0.62553112   -3.2312023   -1.7799088  0.039090382   -3.2312023    1.4512935   283863 
 6622000   0.62624487   -3.2333434   -1.7803631  0.034714185   -3.2333434    1.4529802   283857 
 6623000   0.62479677   -3.2317064   -1.7816211  0.040303181   -3.2317064    1.4500853   283766 
 6624000   0.62576661   -3.2340258   -1.7816692   0.03663268   -3.2340258    1.4523567   283762 
 6625000   0.62436107   -3.2281789   -1.7789465  0.041354308   -3.2281789    1.4492324   283735 
 6626000   0.62427498   -3.2307724   -1.7815049  0.037171972   -3.2307724    1.4492675   283689 
 6627000   0.62421936   -3.2316858   -1.7822663  0.040044154   -3.2316858    1.4494194   283634 
 6628000   0.62381906   -3.2321972   -1.7834927  0.040287244   -3.2321972    1.4487045   283592 
 6629000   0.62515572   -3.2348203   -1.7828069   0.03548977   -3.2348203    1.4520134   283552 
 6630000   0.62404922    -3.233059   -1.7833855   0.03686349    -3.233059    1.4496735   283507 
 6631000   0.62494857   -3.2339876   -1.7820969  0.043237516   -3.2339876    1.4518907   283482 
 6632000   0.62696353   -3.2372053   -1.7805512  0.040030721   -3.2372053    1.4566541   283466 
 6633000   0.62418112   -3.2329594   -1.7824679  0.040134474   -3.2329594    1.4504915   283407 
 6634000   0.62410885   -3.2326415   -1.7820978  0.037641014   -3.2326415    1.4505436   283364 
 6635000   0.62490786   -3.2327517   -1.7801665  0.036446006   -3.2327517    1.4525852   283328 
 6636000   0.62360821   -3.2310479    -1.781366  0.039275093   -3.2310479    1.4496819   283305 
 6637000   0.62284545   -3.2286246   -1.7807312  0.037277045   -3.2286246    1.4478934   283308 
 6638000    0.6238867   -3.2307745   -1.7803479  0.039410827   -3.2307745    1.4504266   283286 
 6639000   0.62274908   -3.2255544   -1.7775784  0.038861652   -3.2255544     1.447976   283248 
 6640000   0.62315433    -3.226234    -1.777198  0.039950825    -3.226234     1.449036   283225 
 6641000    0.6241215    -3.229212   -1.7779886  0.038708328    -3.229212    1.4512235   283237 
 6642000   0.62283605   -3.2273142   -1.7789212  0.039024806   -3.2273142     1.448393   283206 
 6643000   0.62292421   -3.2260025   -1.7774351  0.035412679   -3.2260025    1.4485673   283212 
 6644000   0.62248986   -3.2249993   -1.7771353  0.039171035   -3.2249993     1.447864   283152 
 6645000   0.62284959   -3.2271764    -1.778184  0.037378437   -3.2271764    1.4489924   283095 
 6646000   0.62273694   -3.2264651    -1.777699  0.036647995   -3.2264651    1.4487662   283088 
 6647000   0.62304489   -3.2257193   -1.7760472  0.035645808   -3.2257193    1.4496721   283051 
 6648000   0.62135318   -3.2235311   -1.7773967  0.038796566   -3.2235311    1.4461344   282973 
 6649000   0.62134674   -3.2240085   -1.7779197  0.039532467   -3.2240085    1.4460888   282979 
 6650000   0.62300367   -3.2272608   -1.7769827  0.041548176   -3.2272608    1.4502781   282914 
 6651000   0.62306047   -3.2281648   -1.7773186  0.040256164   -3.2281648    1.4508463   282829 
 6652000   0.62337241   -3.2270259   -1.7754225  0.037551025   -3.2270259    1.4516034   282823 
 6653000    0.6247595   -3.2308458   -1.7758941  0.036958966   -3.2308458    1.4549518   282800 
 6654000   0.62404413    -3.229497   -1.7762009  0.043282723    -3.229497    1.4532961   282798 
 6655000   0.62301711   -3.2284082   -1.7772934  0.038736602   -3.2284082    1.4511147   282757 
 6656000   0.62386741   -3.2282703   -1.7749027  0.036342252   -3.2282703    1.4533676   282704 
 6657000   0.62373824   -3.2266969   -1.7734811  0.040940393   -3.2266969    1.4532158   282675 
 6658000   0.62379847    -3.227498   -1.7738282  0.044659843    -3.227498    1.4536698   282614 
 6659000   0.62294496   -3.2262077   -1.7744447  0.039462954   -3.2262077     1.451763   282598 
 6660000   0.62384612   -3.2298036   -1.7758478  0.038446365   -3.2298036    1.4539558   282580 
 6661000   0.62304894   -3.2258974   -1.7738355  0.045197208   -3.2258974    1.4520618   282587 
 6662000   0.62373657    -3.228456   -1.7745292  0.043668145    -3.228456    1.4539268   282536 
 6663000   0.62359792   -3.2272432   -1.7735213  0.039938557   -3.2272432     1.453722   282513 
 6664000   0.62211633   -3.2231516   -1.7726474  0.042590337   -3.2231516    1.4505043   282467 
 6665000   0.62230302    -3.224256   -1.7731058  0.040295103    -3.224256    1.4511502   282426 
 6666000   0.62185826   -3.2224053   -1.7721381  0.039872977   -3.2224053    1.4502671   282396 
 6667000   0.62239122   -3.2230096   -1.7715664  0.038626861   -3.2230096    1.4514432   282409 
 6668000   0.62241443   -3.2225191   -1.7706825  0.036232292   -3.2225191    1.4518367   282343 
 6669000   0.62136889   -3.2209853   -1.7715875  0.040301126   -3.2209853    1.4493979   282343 
 6670000   0.62176694   -3.2199175   -1.7694422  0.041329873   -3.2199175    1.4504753   282314 
 6671000   0.62185365   -3.2179592   -1.7672662  0.037005053   -3.2179592     1.450693   282311 
 6672000   0.62237962   -3.2196755   -1.7675651  0.037050426   -3.2196755    1.4521103   282274 
 6673000   0.62335125   -3.2202543   -1.7657791  0.038473243   -3.2202543    1.4544752   282255 
 6674000   0.62296773     -3.21777   -1.7639631  0.039647472     -3.21777     1.453807   282211 
 6675000   0.62167003   -3.2163652   -1.7651187  0.040610613   -3.2163652    1.4512465   282120 
 6676000   0.62345821   -3.2212072   -1.7655335  0.039166356   -3.2212072    1.4556737   282071 
 6677000   0.62172311   -3.2194346   -1.7676576  0.036751191   -3.2194346     1.451777   282041 
 6678000   0.62164963   -3.2179733   -1.7662598   0.03683183   -3.2179733    1.4517135   282020 
 6679000   0.62142431   -3.2176922    -1.766016   0.04132417   -3.2176922    1.4516763   281925 
 6680000   0.62117859   -3.2191571   -1.7679416  0.041121646   -3.2191571    1.4512155   281903 
 6681000    0.6225922    -3.222528   -1.7676951  0.034604921    -3.222528    1.4548328   281842 
 6682000   0.62209369   -3.2225646   -1.7687934  0.038099104   -3.2225646    1.4537711   281822 
 6683000   0.62136769   -3.2204496    -1.768272  0.037163283   -3.2204496    1.4521776   281802 
 6684000   0.62132014   -3.2188829   -1.7667649  0.037359688   -3.2188829     1.452118   281792 
 6685000   0.61976213   -3.2173658   -1.7686321  0.038259557   -3.2173658    1.4487337   281742 
 6686000   0.62102008   -3.2189368   -1.7670048  0.041105647   -3.2189368     1.451932   281692 
 6687000   0.62015131    -3.219761   -1.7694689  0.036940414    -3.219761    1.4502921   281616 
 6688000   0.61947682   -3.2191745   -1.7702952  0.039092727   -3.2191745    1.4488793   281584 
 6689000   0.61914374   -3.2211805     -1.77254  0.033859653   -3.2211805    1.4486405   281479 
 6690000   0.62124617   -3.2228725   -1.7692044  0.038577645   -3.2228725    1.4536681   281458 
 6691000   0.62098375   -3.2198018   -1.7663966  0.041613283   -3.2198018    1.4534052   281390 
 6692000   0.62060555    -3.220558   -1.7678935  0.041453186    -3.220558    1.4526646   281362 
 6693000   0.62073177   -3.2206507   -1.7675151   0.04039813   -3.2206507    1.4531356   281328 
 6694000   0.62035269   -3.2204107    -1.767956  0.042592263   -3.2204107    1.4524547   281288 
 6695000   0.61974088   -3.2210534   -1.7695667  0.041830272   -3.2210534    1.4514867   281198 
 6696000   0.61985786   -3.2178229   -1.7659796  0.039435176   -3.2178229    1.4518432   281182 
 6697000   0.61953918   -3.2172574    -1.766016  0.035533935   -3.2172574    1.4512414   281154 
 6698000   0.61855505    -3.215118   -1.7656922  0.043913668    -3.215118    1.4494258   281059 
 6699000   0.61864642   -3.2177824   -1.7678329  0.041393223   -3.2177824    1.4499494   280999 
 6700000    0.6190389   -3.2193003   -1.7681159  0.039335649   -3.2193003    1.4511843   280938 
 6701000   0.61811939   -3.2158996    -1.766649  0.039390685   -3.2158996    1.4492506   280895 
 6702000   0.61801929   -3.2166411   -1.7674034  0.034891992   -3.2166411    1.4492378   280852 
 6703000   0.61828583   -3.2158662   -1.7655852  0.034739506   -3.2158662    1.4502811   280771 
 6704000   0.61734085   -3.2148279   -1.7665313  0.040947972   -3.2148279    1.4482966   280726 
 6705000   0.61864537   -3.2170515   -1.7653428  0.035262404   -3.2170515    1.4517087   280658 
 6706000   0.61983685   -3.2182186   -1.7636881  0.040630658   -3.2182186    1.4545305   280653 
 6707000    0.6182118   -3.2140585      -1.7633  0.039513409   -3.2140585    1.4507585   280645 
 6708000   0.61695112   -3.2114111   -1.7633531  0.035717063   -3.2114111     1.448058   280595 
 6709000   0.61803701   -3.2135668   -1.7627068  0.043489126   -3.2135668    1.4508601   280546 
 6710000   0.61791655   -3.2139036   -1.7629487  0.033727784   -3.2139036    1.4509548   280473 
 6711000   0.61801137   -3.2135502   -1.7622019  0.036504066   -3.2135502    1.4513483   280440 
 6712000   0.61929714   -3.2194038   -1.7646936  0.036962463   -3.2194038    1.4547102   280374 
 6713000   0.61714624   -3.2136104    -1.763782  0.038596113   -3.2136104    1.4498284   280341 
 6714000   0.61730486   -3.2121326   -1.7619523  0.041963572   -3.2121326    1.4501803   280345 
 6715000   0.61860809   -3.2146428    -1.760872  0.039408747   -3.2146428    1.4537708   280243 
 6716000   0.61786442   -3.2140033    -1.761949  0.037824145   -3.2140033    1.4520543   280237 
 6717000   0.61701305   -3.2143084   -1.7640479  0.035711344   -3.2143084    1.4502604   280197 
 6718000   0.61714908   -3.2154004   -1.7646597   0.03528835   -3.2154004    1.4507407   280166 
 6719000   0.61684902     -3.21456   -1.7644212  0.037321978     -3.21456    1.4501388   280146 
 6720000   0.61806377   -3.2151669     -1.76197  0.039660322   -3.2151669    1.4531969   280107 
 6721000   0.61773092   -3.2143857   -1.7616966  0.040905906   -3.2143857    1.4526891   280054 
 6722000   0.61844695   -3.2167225   -1.7619131  0.037786369   -3.2167225    1.4548094   279970 
 6723000   0.61870456   -3.2138805   -1.7584912  0.035155673   -3.2138805    1.4553894   279975 
 6724000   0.61698361   -3.2117805   -1.7602942   0.04399354   -3.2117805    1.4514863   279947 
 6725000    0.6183254    -3.216949   -1.7622853  0.037993203    -3.216949    1.4546637   279943 
 6726000   0.61810369   -3.2139799   -1.7597495  0.043273025   -3.2139799    1.4542304   279926 
 6727000   0.61773039   -3.2114523   -1.7578665   0.04217993   -3.2114523    1.4535858   279881 
 6728000   0.61759112   -3.2117828    -1.758535  0.040986528   -3.2117828    1.4532477   279883 
 6729000   0.61697707   -3.2110966   -1.7591485  0.038595472   -3.2110966    1.4519481   279855 
 6730000   0.61686758   -3.2095469   -1.7576697   0.04435957   -3.2095469    1.4518772   279819 
 6731000   0.61583553   -3.2084775   -1.7587704  0.038962911   -3.2084775    1.4497072   279769 
 6732000   0.61622796   -3.2074337   -1.7565435   0.03973324   -3.2074337    1.4508903   279719 
 6733000   0.61627539   -3.2088443   -1.7577179  0.038308815   -3.2088443    1.4511264   279695 
 6734000   0.61514818   -3.2056988   -1.7568847  0.035384846   -3.2056988    1.4488141   279629 
 6735000   0.61496958   -3.2071174   -1.7585116  0.037923592   -3.2071174    1.4486059   279588 
 6736000   0.61577619   -3.2065528   -1.7558705  0.034881974   -3.2065528    1.4506823   279554 
 6737000   0.61529659    -3.205652   -1.7560892  0.034730272    -3.205652    1.4495628   279552 
 6738000   0.61589581   -3.2077624   -1.7564661  0.034257667   -3.2077624    1.4512964   279490 
 6739000   0.61640262   -3.2089174   -1.7561617  0.037151992   -3.2089174    1.4527557   279439 
 6740000   0.61517522   -3.2047681   -1.7547858  0.037518895   -3.2047681    1.4499823   279416 
 6741000   0.61613842   -3.2064943   -1.7539663  0.034359315   -3.2064943    1.4525281   279363 
 6742000   0.61542228   -3.2056194   -1.7545406  0.036696233   -3.2056194    1.4510787   279317 
 6743000   0.61623576   -3.2069801   -1.7538272  0.041596069   -3.2069801    1.4531529   279287 
 6744000   0.61687846   -3.2093298   -1.7547031  0.038648797   -3.2093298    1.4546268   279295 
 6745000    0.6157856   -3.2067912   -1.7546947  0.033256911   -3.2067912    1.4520966   279286 
 6746000    0.6156106   -3.2033699   -1.7512441  0.038885411   -3.2033699    1.4521258   279201 
 6747000    0.6153204    -3.205214   -1.7536167  0.036766608    -3.205214    1.4515973   279171 
 6748000   0.61556144   -3.2053257   -1.7530193   0.03809917   -3.2053257    1.4523064   279144 
 6749000   0.61567098   -3.2059742   -1.7529982  0.039729192   -3.2059742     1.452976   279065 
 6750000   0.61465199    -3.205286   -1.7545484  0.035163831    -3.205286    1.4507376   279033 
 6751000   0.61317096   -3.1996676   -1.7523426  0.038111115   -3.1996676    1.4473249   279017 
 6752000   0.61487805   -3.2037166   -1.7520293  0.036758639   -3.2037166    1.4516873   278953 
 6753000   0.61540702   -3.2058776   -1.7525403  0.038731399   -3.2058776    1.4533374   278876 
 6754000   0.61413233   -3.2030853   -1.7525449  0.036439379   -3.2030853    1.4505403   278835 
 6755000   0.61495605   -3.2046442   -1.7521218  0.037554024   -3.2046442    1.4525224   278828 
 6756000   0.61429154   -3.2019234   -1.7507104  0.038224152   -3.2019234     1.451213   278778 
 6757000   0.61361035    -3.199936   -1.7503271  0.040321058    -3.199936     1.449609   278777 
 6758000   0.61350091   -3.2019288   -1.7522768  0.036268473   -3.2019288     1.449652   278719 
 6759000   0.61344525   -3.2027134   -1.7528184  0.035067544   -3.2027134    1.4498951   278647 
 6760000   0.61319774   -3.2006101   -1.7508942  0.039655853   -3.2006101    1.4497159   278569 
 6761000   0.61263381      -3.2003   -1.7517666  0.035723187      -3.2003    1.4485334   278540 
 6762000   0.61285607   -3.2025351   -1.7532732  0.037553987   -3.2025351    1.4492619   278501 
 6763000   0.61282749   -3.2030436   -1.7535683  0.036792245   -3.2030436    1.4494753   278447 
 6764000   0.61307018   -3.2051107   -1.7548374  0.034521829   -3.2051107    1.4502733   278404 
 6765000   0.61190924   -3.2024981   -1.7547267  0.039548998   -3.2024981    1.4477714   278357 
 6766000   0.61322687   -3.2045896   -1.7534192  0.038239502   -3.2045896    1.4511704   278303 
 6767000   0.61384706   -3.2053453   -1.7526916  0.037075077   -3.2053453    1.4526537   278300 
 6768000   0.61393848   -3.2060244   -1.7530708  0.039640941   -3.2060244    1.4529536   278284 
 6769000   0.61433342   -3.2046646   -1.7504471  0.041662617   -3.2046646    1.4542175   278221 
 6770000   0.61388239    -3.204282   -1.7510068  0.037189181    -3.204282    1.4532752   278197 
 6771000   0.61254941   -3.2014646   -1.7513502  0.045163837   -3.2014646    1.4501144   278198 
 6772000   0.61358945     -3.20517   -1.7524629  0.039892486     -3.20517    1.4527071   278173 
 6773000   0.61343454   -3.2067964    -1.754195  0.037419164   -3.2067964    1.4526014   278123 
 6774000    0.6125508   -3.2034238     -1.75267  0.037617889   -3.2034238    1.4507539   278076 
 6775000    0.6121856   -3.2032462   -1.7531174   0.03815914   -3.2032462    1.4501288   278030 
 6776000   0.61224204   -3.2034815   -1.7531094  0.033219576   -3.2034815    1.4503721   278009 
 6777000   0.61208843   -3.2038049   -1.7535829  0.037555428   -3.2038049     1.450222   277968 
 6778000   0.61213084   -3.2026359   -1.7524438  0.038695443   -3.2026359    1.4501921   277993 
 6779000   0.61239537   -3.2045204   -1.7533467  0.038941278   -3.2045204    1.4511738   277925 
 6780000   0.61227241   -3.2061408   -1.7550392  0.037024515   -3.2061408    1.4511017   277883 
 6781000   0.61146484   -3.2054136   -1.7559807  0.036406023   -3.2054136    1.4494329   277836 
 6782000   0.61178256   -3.2063292    -1.756044  0.037560001   -3.2063292    1.4502852   277817 
 6783000   0.61260385    -3.205403   -1.7531657  0.038589599    -3.205403    1.4522374   277816 
 6784000   0.61272324    -3.205436   -1.7527535  0.039867089    -3.205436    1.4526825   277785 
 6785000   0.61139027   -3.2047989   -1.7550001  0.039425499   -3.2047989    1.4497988   277732 
 6786000   0.61153381   -3.2046043   -1.7542772  0.038404501   -3.2046043    1.4503272   277696 
 6787000   0.61248927   -3.2075433   -1.7546728  0.038682725   -3.2075433    1.4528705   277643 
 6788000   0.61311031    -3.207224   -1.7524927  0.041792637    -3.207224    1.4547313   277569 
 6789000   0.61205155   -3.2064126   -1.7540051  0.041400476   -3.2064126    1.4524076   277533 
 6790000   0.61281929   -3.2087286   -1.7541743  0.038481474   -3.2087286    1.4545544   277471 
 6791000   0.61151911   -3.2050037   -1.7536138  0.040394504   -3.2050037    1.4513899   277486 
 6792000   0.61084096   -3.2034578   -1.7532646  0.033978621   -3.2034578    1.4501932   277407 
 6793000   0.61050012   -3.2042135   -1.7546779  0.038886964   -3.2042135    1.4495356   277378 
 6794000   0.61219749   -3.2047838   -1.7511081  0.038362887   -3.2047838    1.4536757   277357 
 6795000   0.61232177   -3.2051337   -1.7509427  0.040029116   -3.2051337    1.4541911   277315 
 6796000   0.61201862   -3.2083724   -1.7543875  0.039383637   -3.2083724    1.4539849   277217 
 6797000   0.61114806   -3.2062408   -1.7541617  0.039309351   -3.2062408    1.4520791   277186 
 6798000   0.61098247   -3.2044102    -1.752536   0.04162812   -3.2044102    1.4518742   277150 
 6799000   0.61123228   -3.2044476   -1.7516967  0.041548332   -3.2044476    1.4527509   277096 
 6800000   0.61103393   -3.2046059   -1.7518966  0.040182583   -3.2046059    1.4527094   277014 
 6801000   0.61109611   -3.2057128   -1.7527979  0.038889371   -3.2057128    1.4529149   277003 
 6802000   0.61046527   -3.2066701   -1.7548201  0.030753027   -3.2066701    1.4518501   276920 
 6803000   0.61058567   -3.2058337   -1.7535714  0.036968668   -3.2058337    1.4522623   276896 
 6804000   0.61092633   -3.2066761   -1.7533989  0.039414849   -3.2066761    1.4532772   276857 
 6805000   0.60966325    -3.205041   -1.7544226  0.037412495    -3.205041    1.4506184   276791 
 6806000   0.61057584   -3.2061779   -1.7531624  0.043813267   -3.2061779    1.4530155   276748 
 6807000   0.60964754   -3.2035222   -1.7528049  0.041348307   -3.2035222    1.4507173   276765 
 6808000   0.61074409   -3.2060832   -1.7525307  0.038641072   -3.2060832    1.4535525   276722 
 6809000   0.61088326   -3.2053002   -1.7514637  0.042527999   -3.2053002    1.4538364   276731 
 6810000   0.60977258   -3.2052329    -1.753788  0.038997803   -3.2052329    1.4514449   276683 
 6811000   0.60882336    -3.203949   -1.7544125  0.034698165    -3.203949    1.4495365   276616 
 6812000   0.60927807   -3.2045171   -1.7538142  0.041211766   -3.2045171     1.450703   276600 
 6813000   0.61076377   -3.2076829   -1.7531689  0.036955797   -3.2076829    1.4545139   276548 
 6814000   0.61026536   -3.2067479   -1.7531265  0.038233704   -3.2067479    1.4536213   276492 
 6815000   0.60942936   -3.2075726   -1.7558061  0.039603712   -3.2075726    1.4517665   276466 
 6816000   0.60868486   -3.2062468   -1.7562538  0.038399723   -3.2062468     1.449993   276466 
 6817000   0.60831792   -3.2071925   -1.7577695   0.03786379   -3.2071925    1.4494229   276408 
 6818000   0.60835843   -3.2094349   -1.7596742  0.037467683   -3.2094349    1.4497608   276362 
 6819000    0.6072207   -3.2062342   -1.7588443  0.040028252   -3.2062342    1.4473899   276297 
 6820000   0.60755234   -3.2072322   -1.7589837  0.036789271   -3.2072322    1.4482485   276284 
 6821000   0.60763074   -3.2076431    -1.758998  0.039449701   -3.2076431    1.4486451   276244 
 6822000   0.60829015   -3.2106041   -1.7601296  0.039594674   -3.2106041    1.4504745   276195 
 6823000   0.60941165   -3.2107008   -1.7577046  0.038753018   -3.2107008    1.4529962   276224 
 6824000   0.60962907   -3.2081729   -1.7544373  0.041299197   -3.2081729    1.4537356   276182 
 6825000   0.60873061   -3.2091319   -1.7574915  0.042250893   -3.2091319    1.4516404   276173 
 6826000   0.60890695   -3.2103207   -1.7579758  0.040637459   -3.2103207    1.4523449   276119 
 6827000    0.6082575   -3.2116158   -1.7605992  0.042842463   -3.2116158    1.4510166   276077 
 6828000   0.60891322   -3.2117518   -1.7589184  0.040030553   -3.2117518    1.4528334   276029 
 6829000   0.60839627   -3.2099136   -1.7581505  0.042343768   -3.2099136     1.451763   275998 
 6830000   0.60844302   -3.2112924   -1.7592283  0.041765476   -3.2112924     1.452064   275962 
 6831000   0.60866999   -3.2107887   -1.7579092  0.043066951   -3.2107887    1.4528795   275910 
 6832000   0.60823722   -3.2099539   -1.7579337  0.036779919   -3.2099539    1.4520201   275877 
 6833000   0.60784271   -3.2100947   -1.7587638  0.041341858   -3.2100947    1.4513308   275829 
 6834000   0.60655941   -3.2085216   -1.7601604  0.035947834   -3.2085216    1.4483612   275811 
 6835000   0.60801402   -3.2111387   -1.7592462  0.038173672   -3.2111387    1.4518925   275800 
 6836000   0.60689412   -3.2086167   -1.7590568  0.041125279   -3.2086167    1.4495599   275735 
 6837000   0.60771846   -3.2070817   -1.7553896  0.035443358   -3.2070817     1.451692   275704 
 6838000   0.60788781   -3.2076439   -1.7553366  0.038040418   -3.2076439    1.4523073   275664 
 6839000   0.60723725   -3.2069897   -1.7558734  0.038815011   -3.2069897    1.4511162   275595 
 6840000   0.60716169   -3.2043266   -1.7531065  0.036202652   -3.2043266      1.45122   275541 
 6841000   0.60633707   -3.2040717   -1.7545912  0.036084573   -3.2040717    1.4494805   275497 
 6842000   0.60636567   -3.2032917   -1.7536113  0.039559457   -3.2032917    1.4496804   275472 
 6843000   0.60638164   -3.2012702   -1.7513779  0.038695815   -3.2012702    1.4498923   275439 
 6844000   0.60707675     -3.19997   -1.7484262  0.042864593     -3.19997    1.4515438   275441 
 6845000   0.60729288   -3.2004095   -1.7479746  0.040662568   -3.2004095     1.452435   275370 
 6846000   0.60666195   -3.2009504    -1.749861  0.038187216   -3.2009504    1.4510894   275339 
 6847000   0.60581414   -3.1990195   -1.7498581   0.03676183   -3.1990195    1.4491615   275320 
 6848000   0.60538827   -3.1990973   -1.7504916    0.0365905   -3.1990973    1.4486058   275232 
 6849000   0.60502157    -3.198662   -1.7506812  0.037228494    -3.198662    1.4479808   275184 
 6850000   0.60423114   -3.1964952   -1.7500171  0.039970826   -3.1964952    1.4464781   275110 
 6851000    0.6042147   -3.1978318   -1.7511512  0.035908971   -3.1978318    1.4466806   275064 
 6852000   0.60464105   -3.1977289   -1.7498011  0.037051722   -3.1977289    1.4479278   275021 
 6853000   0.60611712   -3.2001106   -1.7486586  0.040048869   -3.2001106     1.451452   275023 
 6854000   0.60670811   -3.2024384   -1.7492647  0.041047145   -3.2024384    1.4531737   274965 
 6855000   0.60656943   -3.1998681   -1.7467254  0.040311997   -3.1998681    1.4531427   274908 
 6856000    0.6065953   -3.2007534   -1.7473267  0.039971843   -3.2007534    1.4534267   274866 
 6857000   0.60471382   -3.1989318   -1.7498234  0.039626702   -3.1989318    1.4491085   274830 
 6858000   0.60397813   -3.1975469    -1.749838  0.035991909   -3.1975469    1.4477089   274761 
 6859000   0.60532705   -3.2006386   -1.7493952  0.038622624   -3.2006386    1.4512433   274704 
 6860000   0.60445731   -3.1971233   -1.7479652  0.034133386   -3.1971233    1.4491581   274704 
 6861000   0.60526925   -3.2017776   -1.7506042   0.03851226   -3.2017776    1.4511734   274691 
 6862000   0.60506481   -3.1985985   -1.7478413  0.041858167   -3.1985985    1.4507572   274677 
 6863000   0.60544764   -3.1984919   -1.7467639  0.038552713   -3.1984919     1.451728   274667 
 6864000   0.60527238   -3.1976959   -1.7462614  0.040770361   -3.1976959    1.4514345   274643 
 6865000   0.60570058   -3.1990976   -1.7464882   0.03495789   -3.1990976    1.4526095   274615 
 6866000   0.60515577   -3.1981587   -1.7466074  0.042323961   -3.1981587    1.4515513   274568 
 6867000   0.60502596   -3.1963886   -1.7450323  0.036323948   -3.1963886    1.4513562   274546 
 6868000   0.60440887   -3.1965611   -1.7463682  0.041007309   -3.1965611    1.4501929   274486 
 6869000   0.60619284   -3.1994375   -1.7447311   0.04103928   -3.1994375    1.4547064   274442 
 6870000   0.60587515   -3.1979923   -1.7440006   0.04061458   -3.1979923    1.4539917   274433 
 6871000   0.60415454   -3.1961158   -1.7460259  0.038433674   -3.1961158    1.4500898   274390 
 6872000    0.6028972   -3.1953162   -1.7481019  0.037003519   -3.1953162    1.4472143   274363 
 6873000   0.60332648   -3.1966501   -1.7481572  0.040021881   -3.1966501    1.4484929   274316 
 6874000   0.60471597   -3.1984937   -1.7464743  0.038284982   -3.1984937    1.4520194   274280 
 6875000   0.60466655    -3.198542   -1.7467365  0.040829566    -3.198542    1.4518055   274298 
 6876000    0.6053181    -3.198934   -1.7455005  0.039211029    -3.198934    1.4534335   274286 
 6877000   0.60460459   -3.1952857    -1.743539  0.040482781   -3.1952857    1.4517467   274281 
 6878000   0.60421161    -3.195577   -1.7444988   0.04066606    -3.195577    1.4510782   274229 
 6879000   0.60331696   -3.1948217   -1.7459713  0.041043365   -3.1948217    1.4488504   274244 
 6880000   0.60347341   -3.1965124    -1.747223  0.037879003   -3.1965124    1.4492895   274232 
 6881000   0.60368131   -3.1962439   -1.7461855  0.039217864   -3.1962439    1.4500584   274181 
 6882000   0.60515258   -3.1982397   -1.7443397  0.042944013   -3.1982397       1.4539   274123 
 6883000   0.60531277   -3.1981577   -1.7438463  0.041521904   -3.1981577    1.4543114   274118 
 6884000   0.60507165    -3.198187    -1.744317  0.034479678    -3.198187      1.45387   274092 
 6885000   0.60526644   -3.1983589   -1.7435963  0.036992205   -3.1983589    1.4547627   274012 
 6886000   0.60434581   -3.1975503   -1.7445974  0.041535176   -3.1975503    1.4529529   273936 
 6887000   0.60294637   -3.1948922   -1.7451291  0.039714071   -3.1948922    1.4497631   273903 
 6888000   0.60324021   -3.1980818   -1.7475169  0.035208926   -3.1980818    1.4505649   273885 
 6889000   0.60442043   -3.1983021   -1.7448143    0.0357858   -3.1983021    1.4534878   273869 
 6890000   0.60433381   -3.1983733   -1.7449771   0.04084621   -3.1983733    1.4533963   273847 
 6891000   0.60400147   -3.1979267   -1.7450857  0.039187247   -3.1979267     1.452841   273801 
 6892000   0.60444098   -3.1970835   -1.7427391  0.043077121   -3.1970835    1.4543444   273717 
 6893000   0.60560517   -3.1970411   -1.7398583   0.03936516   -3.1970411    1.4571828   273710 
 6894000   0.60433713    -3.195178   -1.7406371  0.042521792    -3.195178    1.4545409   273633 
 6895000   0.60329799   -3.1925437   -1.7401217  0.041951593   -3.1925437     1.452422   273561 
 6896000   0.60444439   -3.1956045   -1.7401352  0.038823684   -3.1956045    1.4554693   273507 
 6897000   0.60423509   -3.1942927   -1.7392743  0.034234194   -3.1942927    1.4550185   273497 
 6898000   0.60303297   -3.1921912   -1.7395469  0.033215755   -3.1921912    1.4526442   273399 
 6899000   0.60331923   -3.1921643    -1.738772  0.035651485   -3.1921643    1.4533923   273388 
 6900000   0.60383939   -3.1901901   -1.7352254  0.039314566   -3.1901901    1.4549647   273328 
 6901000   0.60391425   -3.1881857   -1.7330034  0.038245626   -3.1881857    1.4551823   273321 
 6902000   0.60239565   -3.1859199   -1.7342587  0.038846315   -3.1859199    1.4516612   273295 
 6903000   0.60336562   -3.1854294   -1.7313882  0.036667247   -3.1854294    1.4540412   273287 
 6904000   0.60268882   -3.1838866   -1.7311149  0.041545924   -3.1838866    1.4527717   273219 
 6905000    0.6028882   -3.1847576   -1.7313936   0.03765871   -3.1847576     1.453364   273198 
 6906000   0.60342012   -3.1872605   -1.7323426  0.041987214   -3.1872605    1.4549179   273147 
 6907000   0.60279932   -3.1862506   -1.7327604  0.040229712   -3.1862506    1.4534902   273134 
 6908000   0.60199054   -3.1853487   -1.7334099  0.039567158   -3.1853487    1.4519388   273059 
 6909000     0.601634   -3.1845151   -1.7330907  0.039629823   -3.1845151    1.4514243   272994 
 6910000   0.60091008   -3.1836321   -1.7334867  0.036168761   -3.1836321    1.4501454   272906 
 6911000   0.60136266   -3.1863987   -1.7349006  0.036212225   -3.1863987    1.4514982   272857 
 6912000   0.60115725   -3.1868766     -1.73572  0.037066576   -3.1868766    1.4511566   272828 
 6913000   0.60112278    -3.188653   -1.7373616  0.038195093    -3.188653    1.4512915   272787 
 6914000   0.60126684   -3.1901525   -1.7381086  0.035704498   -3.1901525    1.4520438   272711 
 6915000     0.602083   -3.1895605   -1.7353484  0.038231719   -3.1895605    1.4542122   272674 
 6916000   0.60243418   -3.1881668   -1.7330584  0.042677403   -3.1881668    1.4551084   272665 
 6917000   0.60128619   -3.1874816   -1.7348478  0.037512263   -3.1874816    1.4526339   272609 
 6918000   0.60127619   -3.1875066   -1.7347424  0.038263504   -3.1875066    1.4527643   272580 
 6919000   0.60048074   -3.1867593   -1.7355283  0.039161613   -3.1867593     1.451231   272507 
 6920000   0.60099628   -3.1880919   -1.7353537  0.041072783   -3.1880919    1.4527382   272458 
 6921000    0.6009837   -3.1873629   -1.7344258  0.044428842   -3.1873629    1.4529371   272415 
 6922000   0.60051987   -3.1865117   -1.7345414  0.042421634   -3.1865117    1.4519703   272386 
 6923000   0.60032352   -3.1857702   -1.7339122  0.038876676   -3.1857702     1.451858   272318 
 6924000   0.59927004   -3.1870719   -1.7375221   0.04180774   -3.1870719    1.4495497   272273 
 6925000   0.59958659   -3.1885701   -1.7381428  0.040650533   -3.1885701    1.4504273   272252 
 6926000   0.60005842   -3.1894879   -1.7375673  0.040125737   -3.1894879    1.4519207   272186 
 6927000   0.59986013   -3.1894504   -1.7377056  0.040995606   -3.1894504    1.4517449   272129 
 6928000   0.59987278   -3.1886108   -1.7365152  0.039313164   -3.1886108    1.4520957   272069 
 6929000   0.60066485   -3.1903293   -1.7362468  0.038364408   -3.1903293    1.4540825   272056 
 6930000   0.59880519   -3.1862589   -1.7365664   0.04105054   -3.1862589    1.4496925   272035 
 6931000   0.59899019   -3.1860766   -1.7359095  0.045562597   -3.1860766    1.4501671   272030 
 6932000   0.60013703   -3.1889705   -1.7358507  0.038791633   -3.1889705    1.4531199   271997 
 6933000   0.59910397   -3.1884057   -1.7374618  0.032764516   -3.1884057    1.4509439   271936 
 6934000      0.59876   -3.1860068   -1.7358106  0.039145311   -3.1860068    1.4501962   271920 
 6935000   0.59851884   -3.1848247   -1.7348233  0.041804501   -3.1848247    1.4500014   271847 
 6936000   0.60024334   -3.1879679   -1.7335907  0.038513148   -3.1879679    1.4543772   271810 
 6937000   0.59924064   -3.1879265   -1.7359255  0.038550039   -3.1879265    1.4520011   271800 
 6938000   0.59991881   -3.1871599    -1.733339  0.041107679   -3.1871599    1.4538209   271767 
 6939000   0.59957541   -3.1870292   -1.7341047  0.041081073   -3.1870292    1.4529245   271779 
 6940000   0.59911913   -3.1861239   -1.7340165  0.040810116   -3.1861239    1.4521074   271725 
 6941000   0.59865891   -3.1868954   -1.7355777  0.035969074   -3.1868954    1.4513177   271664 
 6942000   0.59947375   -3.1891973   -1.7358828  0.038134323   -3.1891973    1.4533145   271660 
 6943000   0.60141174   -3.1912918   -1.7331931  0.039032127   -3.1912918    1.4580987   271644 
 6944000   0.59972798   -3.1900603     -1.73591  0.036813428   -3.1900603    1.4541503   271619 
 6945000    0.5996241   -3.1884695   -1.7342391  0.040697662   -3.1884695    1.4542304   271557 
 6946000   0.59931124   -3.1883855   -1.7346783  0.039924243   -3.1883855    1.4537071   271513 
 6947000   0.59757086   -3.1880455    -1.738325  0.039643234   -3.1880455    1.4497206   271469 
 6948000    0.5987167   -3.1889396   -1.7361823  0.036324663   -3.1889396    1.4527573   271421 
 6949000   0.59907439   -3.1897637   -1.7358707  0.038848906   -3.1897637     1.453893   271371 
 6950000   0.59891102   -3.1907412   -1.7370304  0.040122885   -3.1907412    1.4537108   271331 
 6951000   0.59868594   -3.1895789   -1.7362912  0.039354035   -3.1895789    1.4532877   271308 
 6952000   0.59733582    -3.188271   -1.7376565  0.038129912    -3.188271    1.4506145   271195 
 6953000   0.59741708   -3.1866375   -1.7357134  0.038847102   -3.1866375    1.4509242   271174 
 6954000   0.59736601   -3.1884902   -1.7373047  0.036936781   -3.1884902    1.4511855   271102 
 6955000      0.59803   -3.1890735   -1.7360339  0.040910799   -3.1890735    1.4530397   271057 
 6956000   0.59814128   -3.1850021   -1.7313702  0.043734117   -3.1850021    1.4536318   270997 
 6957000    0.5970059   -3.1852653   -1.7341303  0.040208507   -3.1852653     1.451135   270948 
 6958000   0.59658685   -3.1843693   -1.7340495  0.040128803   -3.1843693    1.4503198   270910 
 6959000   0.59660589   -3.1854488   -1.7348899  0.041138484   -3.1854488    1.4505588   270874 
 6960000   0.59694922   -3.1852664   -1.7336906  0.038875868   -3.1852664    1.4515758   270840 
 6961000   0.59762042   -3.1863791   -1.7328653  0.039152447   -3.1863791    1.4535138   270783 
 6962000   0.59709972   -3.1853913   -1.7329454   0.03892405   -3.1853913    1.4524458   270746 
 6963000    0.5967364   -3.1845379   -1.7323214  0.037988389   -3.1845379    1.4522165   270624 
 6964000   0.59634904    -3.184548   -1.7330168  0.041170094    -3.184548    1.4515312   270576 
 6965000    0.5954259    -3.183682    -1.734237  0.036433503    -3.183682     1.449445   270546 
 6966000   0.59666738   -3.1844435   -1.7319656  0.038238148   -3.1844435    1.4524779   270544 
 6967000   0.59585985   -3.1833789    -1.732647  0.037404175   -3.1833789    1.4507319   270503 
 6968000   0.59577437   -3.1826539   -1.7319639  0.039676595   -3.1826539    1.4506901   270472 
 6969000   0.59636888   -3.1811179   -1.7289265  0.037306967   -3.1811179    1.4521914   270462 
 6970000     0.596698   -3.1836604   -1.7305817  0.038086614   -3.1836604    1.4530787   270446 
 6971000   0.59682868   -3.1838658   -1.7304527  0.038372403   -3.1838658    1.4534131   270443 
 6972000   0.59669728    -3.184506   -1.7312893   0.03979374    -3.184506    1.4532167   270420 
 6973000   0.59691428   -3.1842989   -1.7305752  0.039536205   -3.1842989    1.4537237   270424 
 6974000   0.59639144   -3.1835439   -1.7309646  0.038380102   -3.1835439    1.4525793   270400 
 6975000   0.59687151   -3.1826639   -1.7287433  0.041739357   -3.1826639    1.4539206   270368 
 6976000   0.59641275   -3.1842182   -1.7312216   0.03727538   -3.1842182    1.4529966   270332 
 6977000   0.59572771   -3.1817836   -1.7303647  0.038388798   -3.1817836    1.4514189   270315 
 6978000   0.59692687   -3.1847004   -1.7299562  0.040236436   -3.1847004    1.4547442   270240 
 6979000   0.59582068   -3.1839328   -1.7315136  0.035057954   -3.1839328    1.4524192   270171 
 6980000   0.59555318   -3.1836825   -1.7318777  0.039411611   -3.1836825    1.4518047   270164 
 6981000   0.59601371   -3.1846826   -1.7313733  0.043846745   -3.1846826    1.4533093   270093 
 6982000   0.59557002   -3.1840376   -1.7315359  0.043176395   -3.1840376    1.4525017   270042 
 6983000   0.59623454    -3.184245   -1.7298803  0.040114084    -3.184245    1.4543647   269997 
 6984000   0.59557946   -3.1848858   -1.7318984  0.037899739   -3.1848858    1.4529874   269956 
 6985000   0.59566008   -3.1852632   -1.7314759   0.04059584   -3.1852632    1.4537873   269844 
 6986000   0.59571622   -3.1868227   -1.7326075  0.038426441   -3.1868227    1.4542153   269790 
 6987000   0.59531958   -3.1846268   -1.7312504   0.04026186   -3.1846268    1.4533763   269766 
 6988000   0.59501325    -3.187074   -1.7342247  0.038073113    -3.187074    1.4528493   269725 
 6989000   0.59425321   -3.1846485   -1.7334775  0.038423009   -3.1846485     1.451171   269692 
 6990000   0.59442921   -3.1861531   -1.7344446  0.037231502   -3.1861531    1.4517085   269672 
 6991000   0.59529328   -3.1861832   -1.7322944  0.042286325   -3.1861832    1.4538888   269659 
 6992000   0.59625751   -3.1881795   -1.7316711  0.039457642   -3.1881795    1.4565084   269610 
 6993000   0.59582082   -3.1865406   -1.7310125  0.041815028   -3.1865406    1.4555281   269594 
 6994000   0.59377221   -3.1834319   -1.7327092  0.037282734   -3.1834319    1.4507226   269557 
 6995000   0.59270885   -3.1798829   -1.7317046   0.04165822   -3.1798829    1.4481783   269547 
 6996000   0.59401749   -3.1855988   -1.7341638  0.036771423   -3.1855988     1.451435   269536 
 6997000   0.59489149   -3.1849081   -1.7314615  0.039574745   -3.1849081    1.4534465   269559 
 6998000   0.59395913   -3.1817056   -1.7305425   0.04085002   -3.1817056    1.4511632   269560 
 6999000   0.59383018   -3.1812059   -1.7302017  0.037195353   -3.1812059    1.4510042   269531 
 7000000   0.59269899   -3.1775018   -1.7288746  0.038218206   -3.1775018    1.4486272   269459 
 7001000   0.59362071   -3.1801076   -1.7291146  0.037062847   -3.1801076     1.450993   269438 
 7002000   0.59266831   -3.1779014    -1.729231  0.039794771   -3.1779014    1.4486705   269437 
 7003000    0.5937309   -3.1772927   -1.7256855  0.040173898   -3.1772927    1.4516072   269374 
 7004000   0.59331962   -3.1783212   -1.7276657  0.039203048   -3.1783212    1.4506555   269364 
 7005000   0.59391273   -3.1776214   -1.7255104   0.03984202   -3.1776214     1.452111   269363 
 7006000   0.59477349   -3.1793914   -1.7248518  0.041317531   -3.1793914    1.4545396   269303 
 7007000   0.59478446   -3.1799373   -1.7250738  0.039811244   -3.1799373    1.4548635   269248 
 7008000   0.59325811   -3.1793367   -1.7278131   0.03958876   -3.1793367    1.4515236   269175 
 7009000   0.59228849   -3.1778128   -1.7284677  0.037246877   -3.1778128    1.4493451   269139 
 7010000   0.59296976   -3.1785299   -1.7272104  0.036141055   -3.1785299    1.4513195   269082 
 7011000   0.59308667    -3.181264   -1.7294426   0.03702004    -3.181264    1.4518215   269042 
 7012000   0.59280923   -3.1802159   -1.7289279  0.039717684   -3.1802159     1.451288   269015 
 7013000   0.59294662   -3.1785495   -1.7265905   0.04223066   -3.1785495     1.451959   268953 
 7014000   0.59479575   -3.1824946   -1.7259697  0.037796585   -3.1824946    1.4565249   268946 
 7015000    0.5934612   -3.1794515   -1.7260703  0.037482851   -3.1794515    1.4533811   268923 
 7016000   0.59434175   -3.1807336   -1.7251798  0.039603982   -3.1807336    1.4555538   268920 
 7017000   0.59388743    -3.180325   -1.7256837  0.037652939    -3.180325    1.4546413   268883 
 7018000   0.59316216   -3.1781317   -1.7250128  0.041808798   -3.1781317    1.4531189   268836 
 7019000    0.5926495   -3.1787086   -1.7266512  0.036065634   -3.1787086    1.4520574   268800 
 7020000   0.59265581   -3.1787061   -1.7264982  0.041971244   -3.1787061    1.4522079   268775 
 7021000   0.59294341   -3.1800826   -1.7269212  0.039075202   -3.1800826    1.4531614   268729 
 7022000   0.59296931   -3.1792216   -1.7257534  0.038565546   -3.1792216    1.4534682   268684 
 7023000   0.59080604   -3.1763443   -1.7279899  0.040120214   -3.1763443    1.4483544   268649 
 7024000   0.59342106   -3.1805683   -1.7254728  0.038491048   -3.1805683    1.4550954   268588 
 7025000   0.59278648   -3.1775171   -1.7240156  0.040663389   -3.1775171    1.4535015   268595 
 7026000   0.59296225   -3.1779525    -1.723825  0.040264237   -3.1779525    1.4541274   268559 
 7027000   0.59233194   -3.1785294   -1.7256664  0.038919238   -3.1785294     1.452863   268507 
 7028000   0.59147311   -3.1764116   -1.7254011    0.0387923   -3.1764116    1.4510105   268460 
 7029000   0.59261742   -3.1792799   -1.7252239  0.038804596   -3.1792799     1.454056   268416 
 7030000   0.59325595   -3.1801565   -1.7244415  0.039530584   -3.1801565     1.455715   268399 
 7031000   0.59203778   -3.1768045   -1.7238729  0.041169529   -3.1768045    1.4529315   268361 
 7032000   0.59160661   -3.1765401   -1.7245531  0.040997532   -3.1765401     1.451987   268340 
 7033000   0.59139086   -3.1754402   -1.7238907  0.040996368   -3.1754402    1.4515495   268323 
 7034000   0.59362289   -3.1794715   -1.7219764  0.037197565   -3.1794715    1.4574951   268237 
 7035000   0.59126824    -3.172119   -1.7201183  0.039628578    -3.172119    1.4520007   268184 
 7036000   0.59243236   -3.1772525   -1.7221814  0.039218017   -3.1772525    1.4550711   268145 
 7037000   0.59220556   -3.1772002    -1.722225  0.034039044   -3.1772002    1.4549752   268060 
 7038000   0.59188395   -3.1762613   -1.7219406  0.039571272   -3.1762613    1.4543207   268035 
 7039000   0.59119186   -3.1742688    -1.721486  0.038943844   -3.1742688    1.4527828   268005 
 7040000   0.59113624   -3.1740393   -1.7214474  0.036058241   -3.1740393    1.4525919   268015 
 7041000   0.59014211   -3.1702515   -1.7199131  0.039994018   -3.1702515    1.4503384   267980 
 7042000   0.59180016   -3.1757013   -1.7209569  0.038426688   -3.1757013    1.4547444   267919 
 7043000   0.59098241   -3.1749852   -1.7221045  0.035017407   -3.1749852    1.4528807   267892 
 7044000   0.59142311   -3.1735404   -1.7193863  0.039923369   -3.1735404    1.4541541   267857 
 7045000   0.59101858   -3.1725439   -1.7190806  0.041814722   -3.1725439    1.4534633   267801 
 7046000   0.59228061   -3.1756369   -1.7189829  0.040326926   -3.1756369     1.456654   267785 
 7047000   0.59184874   -3.1745542   -1.7187612  0.039724856   -3.1745542     1.455793   267748 
 7048000   0.59101633   -3.1741237   -1.7201393  0.045098298   -3.1741237    1.4539844   267704 
 7049000   0.59096479   -3.1736032   -1.7195609  0.039845816   -3.1736032    1.4540423   267670 
 7050000   0.59242994   -3.1747506   -1.7170925  0.039223972   -3.1747506    1.4576581   267668 
 7051000   0.59228185   -3.1751241   -1.7173674   0.04310254   -3.1751241    1.4577567   267583 
 7052000   0.59142174   -3.1750271   -1.7191915  0.041882291   -3.1750271    1.4558356   267547 
 7053000   0.59056503   -3.1747562   -1.7208067  0.040911203   -3.1747562    1.4539495   267506 
 7054000   0.59012191   -3.1725083   -1.7192803  0.038244435   -3.1725083     1.453228   267438 
 7055000   0.58913923   -3.1713161   -1.7203561   0.03881848   -3.1713161      1.45096   267410 
 7056000   0.59025411   -3.1728046   -1.7187943  0.039030587   -3.1728046    1.4540102   267354 
 7057000   0.58975382   -3.1689738   -1.7158101  0.042241888   -3.1689738    1.4531638   267283 
 7058000   0.59025534   -3.1710663     -1.71646  0.036548945   -3.1710663    1.4546063   267245 
 7059000   0.59060507   -3.1716725    -1.715872  0.038344133   -3.1716725    1.4558005   267184 
 7060000   0.58940708    -3.168415   -1.7152738  0.042200915    -3.168415    1.4531412   267130 
 7061000   0.58904003     -3.16665   -1.7143594  0.039592321     -3.16665    1.4522906   267120 
 7062000   0.58951843    -3.168026    -1.714409  0.039760103    -3.168026    1.4536171   267093 
 7063000   0.58909565   -3.1694402   -1.7166807  0.039836255   -3.1694402    1.4527595   267059 
 7064000    0.5894811   -3.1696116   -1.7157382  0.039728584   -3.1696116    1.4538734   267029 
 7065000   0.58909018   -3.1667138   -1.7135597  0.040855044   -3.1667138    1.4531541   266984 
 7066000   0.58907996   -3.1702765   -1.7168319  0.037281883   -3.1702765    1.4534447   266926 
 7067000   0.58845959   -3.1673054   -1.7151411  0.040662788   -3.1673054    1.4521643   266880 
 7068000    0.5874102   -3.1667481   -1.7170539  0.045033975   -3.1667481    1.4496942   266858 
 7069000   0.58909845   -3.1681999   -1.7142466  0.041475243   -3.1681999    1.4539533   266841 
 7070000   0.58807116   -3.1670841   -1.7155575  0.036038707   -3.1670841    1.4515266   266821 
 7071000   0.58888986   -3.1698664    -1.716161   0.03870897   -3.1698664    1.4537054   266792 
 7072000   0.59022593   -3.1707165   -1.7135819   0.04458477   -3.1707165    1.4571347   266768 
 7073000   0.58973451   -3.1712515   -1.7151118  0.042232648   -3.1712515    1.4561398   266728 
 7074000    0.5894458   -3.1708913    -1.715388  0.038256911   -3.1708913    1.4555033   266714 
 7075000   0.58841774   -3.1696081   -1.7163982  0.039559148   -3.1696081    1.4532099   266669 
 7076000   0.58915392   -3.1719488   -1.7167843  0.039654871   -3.1719488    1.4551645   266644 
 7077000   0.58896731   -3.1707296   -1.7160369  0.038764326   -3.1707296    1.4546927   266646 
 7078000   0.58860005   -3.1711306   -1.7171542  0.040952603   -3.1711306    1.4539764   266611 
 7079000   0.58877491   -3.1724709   -1.7178662  0.037990031   -3.1724709    1.4546048   266575 
 7080000   0.58832037   -3.1735768   -1.7197623  0.036535963   -3.1735768    1.4538145   266514 
 7081000    0.5877758   -3.1727821   -1.7200952  0.040999239   -3.1727821    1.4526868   266474 
 7082000   0.58934012   -3.1767049   -1.7199496  0.041810485   -3.1767049    1.4567553   266437 
 7083000    0.5877261   -3.1720187   -1.7190676  0.045500045   -3.1720187    1.4529511   266403 
 7084000   0.58823829   -3.1731202   -1.7186954  0.041763946   -3.1731202    1.4544248   266365 
 7085000   0.58813587   -3.1731205   -1.7187197  0.042641677   -3.1731205    1.4544009   266323 
 7086000   0.58725509   -3.1721504   -1.7197094  0.038855279   -3.1721504    1.4524409   266283 
 7087000   0.58704431   -3.1740572   -1.7217721  0.041398535   -3.1740572     1.452285   266216 
 7088000   0.58667241   -3.1727964    -1.721186   0.03981725   -3.1727964    1.4516104   266171 
 7089000   0.58656827   -3.1731746   -1.7217565  0.040274327   -3.1731746    1.4514181   266159 
 7090000   0.58684344    -3.174792   -1.7224857  0.038038513    -3.174792    1.4523064   266121 
 7091000   0.58687374    -3.172493   -1.7200734  0.038849963    -3.172493    1.4524196   266114 
 7092000   0.58731641   -3.1713468   -1.7177607  0.039346533   -3.1713468    1.4535861   266101 
 7093000    0.5872462   -3.1729385   -1.7193132  0.040796915   -3.1729385    1.4536254   266062 
 7094000   0.58732395   -3.1718821   -1.7178948  0.040341813   -3.1718821    1.4539872   266031 
 7095000   0.58709034   -3.1735145   -1.7200127  0.039436405   -3.1735145    1.4535018   266014 
 7096000   0.58666886   -3.1708108   -1.7181669  0.035390547   -3.1708108     1.452644   265980 
 7097000    0.5868389    -3.172014   -1.7185446  0.039614707    -3.172014    1.4534694   265906 
 7098000   0.58494395      -3.1685   -1.7195878  0.040958921      -3.1685    1.4489122   265881 
 7099000   0.58674697   -3.1726477   -1.7190234  0.040982283   -3.1726477    1.4536244   265836 
 7100000   0.58693644   -3.1739412   -1.7197217  0.039663044   -3.1739412    1.4542196   265813 
 7101000   0.58659736   -3.1738128   -1.7200888  0.033826577   -3.1738128     1.453724   265750 
 7102000   0.58504566   -3.1710744   -1.7208575  0.034603363   -3.1710744    1.4502169   265688 
 7103000   0.58469869   -3.1700956   -1.7204824   0.03690052   -3.1700956    1.4496132   265641 
 7104000   0.58437352   -3.1696511    -1.720544  0.037915869   -3.1696511    1.4491071   265586 
 7105000   0.58516045   -3.1695146   -1.7181992  0.040678423   -3.1695146    1.4513153   265539 
 7106000   0.58523218   -3.1722219   -1.7203842  0.036578535   -3.1722219    1.4518377   265476 
 7107000     0.584809    -3.171411   -1.7204427  0.036197526    -3.171411    1.4509682   265443 
 7108000   0.58524586   -3.1715967   -1.7193585  0.036975662   -3.1715967    1.4522381   265409 
 7109000   0.58510735   -3.1704455   -1.7181954  0.041655836   -3.1704455    1.4522501   265344 
 7110000   0.58480295   -3.1712751   -1.7195507  0.037996627   -3.1712751    1.4517244   265302 
 7111000   0.58464204   -3.1708503   -1.7196239  0.038707145   -3.1708503    1.4512264   265320 
 7112000   0.58535452    -3.171252   -1.7181913  0.043558825    -3.171252    1.4530607   265308 
 7113000   0.58467916   -3.1683945   -1.7168626  0.041979773   -3.1683945     1.451532   265281 
 7114000   0.58511576   -3.1682698   -1.7157142    0.0422737   -3.1682698    1.4525556   265292 
 7115000   0.58529907   -3.1683142   -1.7151173  0.035263011   -3.1683142    1.4531969   265258 
 7116000   0.58416426   -3.1644414   -1.7137721  0.040704641   -3.1644414    1.4506693   265205 
 7117000   0.58545258   -3.1652476   -1.7113077   0.04184555   -3.1652476    1.4539398   265192 
 7118000   0.58523715   -3.1631927   -1.7094315  0.040145778   -3.1631927    1.4537612   265127 
 7119000   0.58542706   -3.1653482   -1.7107971  0.037472705   -3.1653482    1.4545511   265069 
 7120000   0.58368882   -3.1625425   -1.7119709  0.043965615   -3.1625425    1.4505716   265007 
 7121000   0.58275594   -3.1621078   -1.7136032  0.037241362   -3.1621078    1.4485046   264961 
 7122000   0.58335098   -3.1618143   -1.7116884  0.036078087   -3.1618143     1.450126   264935 
 7123000   0.58343601   -3.1634138   -1.7128575  0.036301413   -3.1634138    1.4505563   264895 
 7124000     0.584926   -3.1661455   -1.7117529  0.037642728   -3.1661455    1.4543926   264871 
 7125000   0.58426411   -3.1656216   -1.7125567  0.041350565   -3.1656216     1.453065   264813 
 7126000   0.58439169   -3.1664459   -1.7126464  0.041429181   -3.1664459    1.4537995   264737 
 7127000   0.58402389   -3.1659911   -1.7126399  0.039406084   -3.1659911    1.4533512   264652 
 7128000   0.58376222    -3.165091    -1.712122  0.040250311    -3.165091     1.452969   264603 
 7129000    0.5830464   -3.1640135   -1.7128206  0.038676177   -3.1640135    1.4511928   264602 
 7130000   0.58220443   -3.1643712   -1.7148358  0.043373676   -3.1643712    1.4495354   264522 
 7131000    0.5826529   -3.1647574   -1.7139738  0.042158789   -3.1647574    1.4507837   264498 
 7132000   0.58318542   -3.1674653   -1.7150482  0.039010199   -3.1674653    1.4524171   264442 
 7133000   0.58391522   -3.1690261   -1.7144008  0.038057272   -3.1690261    1.4546252   264371 
 7134000   0.58179291   -3.1647681    -1.715068  0.036301537   -3.1647681    1.4497001   264305 
 7135000    0.5829873   -3.1686484   -1.7157082  0.039975928   -3.1686484    1.4529402   264257 
 7136000   0.58245749   -3.1675343   -1.7156948  0.040348495   -3.1675343    1.4518395   264217 
 7137000   0.58392653   -3.1683519   -1.7128287   0.04548711   -3.1683519    1.4555233   264213 
 7138000   0.58428955    -3.172061   -1.7153186  0.037381185    -3.172061    1.4567424   264156 
 7139000   0.58317138    -3.166781   -1.7126117  0.038896294    -3.166781    1.4541693   264117 
 7140000   0.58284707   -3.1649907   -1.7111787  0.041547395   -3.1649907     1.453812   264035 
 7141000   0.58292092   -3.1657181   -1.7115732  0.036744597   -3.1657181    1.4541449   264008 
 7142000   0.58232981   -3.1639471   -1.7109135  0.041012397   -3.1639471    1.4530336   263942 
 7143000   0.58268098   -3.1627608   -1.7085975   0.03955223   -3.1627608    1.4541632   263896 
 7144000   0.58256904   -3.1622511   -1.7080807  0.039534865   -3.1622511    1.4541704   263844 
 7145000   0.58330954   -3.1651109   -1.7089154  0.040029528   -3.1651109    1.4561954   263812 
 7146000   0.58288417   -3.1622239   -1.7070131  0.040740212   -3.1622239    1.4552108   263798 
 7147000   0.58264104   -3.1626069   -1.7078818  0.035479156   -3.1626069    1.4547251   263776 
 7148000   0.58140625   -3.1584912   -1.7068876  0.039856036   -3.1584912    1.4516035   263783 
 7149000   0.58252546   -3.1594487   -1.7049736  0.036958997   -3.1594487    1.4544751   263769 
 7150000   0.58133141   -3.1554795   -1.7036996  0.037115766   -3.1554795    1.4517799   263717 
 7151000   0.58131779   -3.1563773   -1.7044056  0.038439928   -3.1563773    1.4519717   263676 
 7152000   0.58199647   -3.1553165   -1.7016332  0.037468415   -3.1553165    1.4536834   263673 
 7153000   0.58305519   -3.1546927   -1.6980555  0.038155396   -3.1546927    1.4566372   263617 
 7154000   0.58353215   -3.1540138    -1.695914  0.043063427   -3.1540138    1.4580998   263568 
 7155000    0.5838286   -3.1543429   -1.6951591  0.040967095   -3.1543429    1.4591838   263506 
 7156000   0.58251065   -3.1545426   -1.6984815  0.038405589   -3.1545426    1.4560611   263475 
 7157000   0.58173552   -3.1527748   -1.6984912   0.03751879   -3.1527748    1.4542836   263446 
 7158000   0.58179901   -3.1490943   -1.6946078  0.036835905   -3.1490943    1.4544865   263438 
 7159000   0.58106448   -3.1510946   -1.6980584  0.037614833   -3.1510946    1.4530363   263368 
 7160000   0.58137792   -3.1530204   -1.6990347  0.035721053   -3.1530204    1.4539857   263338 
 7161000   0.58123648   -3.1500062   -1.6962307  0.032325575   -3.1500062    1.4537755   263312 
 7162000   0.58143998   -3.1478102   -1.6934318  0.044427024   -3.1478102    1.4543784   263295 
 7163000   0.58239993   -3.1514784   -1.6945605  0.039454188   -3.1514784    1.4569179   263270 
 7164000    0.5815154   -3.1498318   -1.6949056  0.037321239   -3.1498318    1.4549262   263230 
 7165000   0.58126174   -3.1487139    -1.694251  0.038527073   -3.1487139    1.4544629   263199 
 7166000   0.58297125   -3.1512865   -1.6924574  0.040379901   -3.1512865    1.4588292   263183 
 7167000   0.58162829   -3.1484612   -1.6927382  0.041938756   -3.1484612     1.455723   263137 
 7168000   0.58222146   -3.1517853   -1.6944724  0.039088874   -3.1517853    1.4573128   263118 
 7169000   0.57983089   -3.1480177   -1.6966886  0.036908961   -3.1480177    1.4513292   263118 
 7170000   0.57987887   -3.1500751   -1.6983555  0.037480969   -3.1500751    1.4517196   263069 
 7171000   0.58088056   -3.1501986   -1.6957059  0.042017498   -3.1501986    1.4544927   263021 
 7172000   0.57996361   -3.1508484   -1.6983535   0.03802474   -3.1508484    1.4524949   262967 
 7173000   0.58095407   -3.1530331   -1.6976314  0.037809643   -3.1530331    1.4554017   262890 
 7174000   0.58206113   -3.1545572   -1.6961769  0.041715539   -3.1545572    1.4583803   262853 
 7175000    0.5803756    -3.152287   -1.6979418  0.040654314    -3.152287    1.4543453   262819 
 7176000   0.58074417   -3.1506909   -1.6951895  0.043408919   -3.1506909    1.4555014   262777 
 7177000   0.58152768   -3.1544029   -1.6966882  0.041124901   -3.1544029    1.4577148   262732 
 7178000   0.58147965   -3.1548013   -1.6969461  0.037638003   -3.1548013    1.4578552   262685 
 7179000   0.58071295   -3.1541658   -1.6980222  0.039630089   -3.1541658    1.4561436   262647 
 7180000   0.58044434   -3.1539236   -1.6983704   0.03891676   -3.1539236    1.4555532   262632 
 7181000   0.58007974   -3.1514289   -1.6964521  0.039006558   -3.1514289    1.4549768   262571 
 7182000   0.57948751    -3.152352   -1.6987887  0.041422863    -3.152352    1.4535633   262558 
 7183000   0.58000498   -3.1547477   -1.6996536   0.03726257   -3.1547477    1.4550941   262516 
 7184000   0.57981294   -3.1535136   -1.6987018  0.041972125   -3.1535136    1.4548118   262480 
 7185000   0.58067101   -3.1575722   -1.7000355  0.040798688   -3.1575722    1.4575368   262377 
 7186000   0.58123623   -3.1589172    -1.699589   0.03644051   -3.1589172    1.4593282   262310 
 7187000    0.5792709   -3.1579423   -1.7033434  0.044089715   -3.1579423    1.4545989   262273 
 7188000   0.57893693   -3.1561791   -1.7022026  0.038971901   -3.1561791    1.4539765   262234 
 7189000   0.57803599   -3.1529698   -1.7012117  0.039389744   -3.1529698    1.4517581   262226 
 7190000   0.57975089   -3.1585964   -1.7022313  0.039813112   -3.1585964     1.456365   262172 
 7191000   0.57984884   -3.1584274   -1.7016885  0.038653029   -3.1584274    1.4567389   262149 
 7192000   0.58068755   -3.1615223    -1.702398   0.04043171   -3.1615223    1.4591243   262099 
 7193000    0.5786474   -3.1565193   -1.7023661  0.040133083   -3.1565193    1.4541532   262071 
 7194000   0.57868901   -3.1564046   -1.7020192   0.04254948   -3.1564046    1.4543854   262048 
 7195000   0.57919423   -3.1600485   -1.7042322  0.041360383   -3.1600485    1.4558163   262019 
 7196000   0.57957961   -3.1609847   -1.7040774  0.035471197   -3.1609847    1.4569073   261997 
 7197000    0.5783563    -3.157358    -1.703104   0.03819354    -3.157358     1.454254   261921 
 7198000   0.57922094   -3.1586306   -1.7021357  0.042727225   -3.1586306    1.4564949   261909 
 7199000   0.57839175   -3.1558376   -1.7013723  0.037945849   -3.1558376    1.4544653   261899 
 7200000   0.57930929   -3.1570201   -1.7001194  0.041261591   -3.1570201    1.4569006   261876 
 7201000    0.5789089   -3.1561397   -1.7002183   0.03970938   -3.1561397    1.4559215   261871 
 7202000   0.57774181   -3.1531952   -1.6998815  0.044679552   -3.1531952    1.4533137   261812 
 7203000   0.57831597   -3.1554449   -1.7003478  0.040360719   -3.1554449    1.4550971   261751 
 7204000   0.57733662    -3.153262   -1.7005181  0.041880966    -3.153262    1.4527439   261731 
 7205000   0.57734798   -3.1546838   -1.7018502  0.038386776   -3.1546838    1.4528336   261720 
 7206000   0.57769505   -3.1533972    -1.699557  0.044448241   -3.1533972    1.4538403   261696 
 7207000   0.57725187   -3.1505622   -1.6974819  0.039117559   -3.1505622    1.4530803   261632 
 7208000   0.57703965   -3.1501182      -1.6973  0.036200711   -3.1501182    1.4528182   261583 
 7209000   0.57738611    -3.150088   -1.6960974   0.04017008    -3.150088    1.4539906   261529 
 7210000   0.57777736   -3.1497272   -1.6945231  0.039169854   -3.1497272     1.455204   261488 
 7211000   0.57752906   -3.1513752   -1.6962791  0.039417701   -3.1513752    1.4550962   261395 
 7212000   0.57686711   -3.1512372   -1.6974807  0.037221601   -3.1512372    1.4537565   261336 
 7213000   0.57795059   -3.1524083   -1.6960273  0.038286104   -3.1524083    1.4563811   261355 
 7214000   0.57718468   -3.1491988   -1.6946364  0.041183726   -3.1491988    1.4545624   261335 
 7215000   0.57735463    -3.147802    -1.692583  0.040496881    -3.147802     1.455219   261294 
 7216000   0.57776359   -3.1498758   -1.6936093  0.040436555   -3.1498758    1.4562665   261291 
 7217000   0.57816641   -3.1508753   -1.6934374  0.043213013   -3.1508753     1.457438   261263 
 7218000   0.57667859   -3.1491874   -1.6953052  0.041870074   -3.1491874    1.4538822   261228 
 7219000    0.5764745   -3.1511957   -1.6974996   0.04005285   -3.1511957     1.453696   261169 
 7220000    0.5749804   -3.1464389   -1.6963773  0.036445193   -3.1464389    1.4500616   261145 
 7221000   0.57530177   -3.1468156   -1.6956045  0.033559285   -3.1468156    1.4512111   261084 
 7222000   0.57742548   -3.1501335   -1.6933421  0.039767223   -3.1501335    1.4567914   261044 
 7223000    0.5764566   -3.1474717   -1.6928294  0.041207868   -3.1474717    1.4546423   260991 
 7224000    0.5768075   -3.1478438   -1.6921654    0.0411796   -3.1478438    1.4556784   260964 
 7225000   0.57663557   -3.1468053   -1.6914939  0.040847312   -3.1468053    1.4553114   260952 
 7226000   0.57628117   -3.1458541    -1.691019  0.040646111   -3.1458541    1.4548351   260877 
 7227000   0.57516364   -3.1469858   -1.6944039  0.037759593   -3.1469858    1.4525818   260775 
 7228000    0.5775902   -3.1484044    -1.689588  0.039342239   -3.1484044    1.4588164   260756 
 7229000   0.57734278   -3.1483123   -1.6897908  0.038624187   -3.1483123    1.4585215   260697 
 7230000   0.57580047   -3.1434373   -1.6889237  0.039066668   -3.1434373    1.4545136   260717 
 7231000   0.57571107   -3.1453051    -1.690928  0.037542347   -3.1453051    1.4543771   260701 
 7232000   0.57527027   -3.1432601   -1.6899799  0.035733869   -3.1432601    1.4532802   260698 
 7233000   0.57567617   -3.1438153   -1.6893311  0.039165553   -3.1438153    1.4544842   260666 
 7234000   0.57473742   -3.1418479   -1.6894848  0.039825737   -3.1418479    1.4523631   260621 
 7235000   0.57529898   -3.1435017   -1.6894629  0.038699644   -3.1435017    1.4540388   260575 
 7236000   0.57562806   -3.1429811   -1.6880938  0.039666845   -3.1429811    1.4548873   260572 
 7237000   0.57645294   -3.1455677   -1.6882879  0.042886931   -3.1455677    1.4572797   260517 
 7238000   0.57569382   -3.1454592   -1.6897465   0.03950544   -3.1454592    1.4557127   260454 
 7239000   0.57537643   -3.1449393   -1.6898169  0.037324944   -3.1449393    1.4551224   260416 
 7240000   0.57689576   -3.1489644   -1.6894728  0.037806433   -3.1489644    1.4594916   260322 
 7241000   0.57576291   -3.1457217   -1.6890513  0.036836776   -3.1457217    1.4566704   260314 
 7242000   0.57418719   -3.1417751   -1.6890522  0.041686737   -3.1417751    1.4527229   260307 
 7243000     0.575201   -3.1446558   -1.6891275  0.044369687   -3.1446558    1.4555283   260264 
 7244000    0.5739093    -3.144134   -1.6914333  0.039747481    -3.144134    1.4527007   260185 
 7245000   0.57325074   -3.1437462   -1.6923555  0.034999692   -3.1437462    1.4513907   260121 
 7246000   0.57343368    -3.145171   -1.6931831  0.040308841    -3.145171    1.4519879   260097 
 7247000   0.57334637   -3.1436776   -1.6916596  0.038077372   -3.1436776     1.452018   260052 
 7248000   0.57409659    -3.146408   -1.6922607  0.036967999    -3.146408    1.4541472   260011 
 7249000     0.574658    -3.145452   -1.6897092  0.039029314    -3.145452    1.4557428   259980 
 7250000   0.57426251   -3.1457584   -1.6907768  0.036593641   -3.1457584    1.4549816   259937 
 7251000   0.57405776   -3.1448104   -1.6901573  0.038909976   -3.1448104    1.4546531   259903 
 7252000    0.5743454    -3.146263   -1.6905002  0.044574318    -3.146263    1.4557628   259835 
 7253000   0.57382307   -3.1443009   -1.6895036  0.040920298   -3.1443009    1.4547972   259771 
 7254000   0.57449889   -3.1461927   -1.6897213  0.038260096   -3.1461927    1.4564714   259778 
 7255000   0.57415824   -3.1460999   -1.6903296    0.0397815   -3.1460999    1.4557703   259749 
 7256000   0.57378357   -3.1458562   -1.6906549  0.040729342   -3.1458562    1.4552013   259681 
 7257000   0.57502592   -3.1468131    -1.688315  0.037549456   -3.1468131    1.4584981   259655 
 7258000   0.57290726   -3.1430947   -1.6901326  0.036722261   -3.1430947     1.452962   259684 
 7259000   0.57317141   -3.1447664   -1.6911624  0.040820324   -3.1447664     1.453604   259689 
 7260000   0.57385126   -3.1454773   -1.6900035  0.042228817   -3.1454773    1.4554738   259663 
 7261000   0.57277771   -3.1421709   -1.6893024  0.041074193   -3.1421709    1.4528684   259642 
 7262000   0.57388854   -3.1451415   -1.6891414  0.040588528   -3.1451415    1.4560001   259586 
 7263000   0.57446298   -3.1469331   -1.6894362  0.039317214   -3.1469331    1.4574969   259579 
 7264000   0.57422482   -3.1437275    -1.686644  0.042945447   -3.1437275    1.4570834   259545 
 7265000    0.5724061   -3.1399173   -1.6869618  0.041701332   -3.1399173    1.4529555   259458 
 7266000   0.57325619   -3.1417744   -1.6863526  0.037620399   -3.1417744    1.4554219   259403 
 7267000   0.57358101   -3.1418251   -1.6853091  0.044344148   -3.1418251     1.456516   259355 
 7268000   0.57330396   -3.1407038   -1.6846611  0.043287984   -3.1407038    1.4560427   259314 
 7269000   0.57299761   -3.1428702   -1.6873418  0.036385868   -3.1428702    1.4555285   259267 
 7270000    0.5715186   -3.1381096   -1.6861589  0.043036247   -3.1381096    1.4519507   259235 
 7271000   0.57197276    -3.137779   -1.6847138  0.039902662    -3.137779    1.4530652   259242 
 7272000   0.57278917   -3.1395645   -1.6842849  0.041422208   -3.1395645    1.4552796   259217 
 7273000   0.57256172   -3.1400828   -1.6850162  0.040313723   -3.1400828    1.4550666   259152 
 7274000   0.57309559   -3.1421315   -1.6851966  0.034725971   -3.1421315    1.4569349   259061 
 7275000   0.57189549    -3.138731   -1.6844483   0.03732701    -3.138731    1.4542826   258990 
 7276000   0.57249664   -3.1407704   -1.6847118  0.039704674   -3.1407704    1.4560586   258946 
 7277000    0.5735494   -3.1453449    -1.686451  0.039528248   -3.1453449    1.4588939   258918 
 7278000    0.5732488   -3.1434783   -1.6851011  0.043096947   -3.1434783    1.4583772   258874 
 7279000    0.5714914   -3.1382134   -1.6840937  0.042966161   -3.1382134    1.4541197   258836 
 7280000   0.57085019     -3.13659   -1.6843992  0.040646355     -3.13659    1.4521908   258889 
 7281000   0.57187272   -3.1385127   -1.6834453  0.039130919   -3.1385127    1.4550674   258840 
 7282000   0.57145289   -3.1380521   -1.6836371  0.041781248   -3.1380521     1.454415   258766 
 7283000   0.57104734   -3.1397283   -1.6857836  0.039523644   -3.1397283    1.4539447   258666 
 7284000   0.57335604   -3.1442361   -1.6843511  0.036610159   -3.1442361     1.459885   258655 
 7285000   0.57213489   -3.1389894   -1.6818869  0.044839718   -3.1389894    1.4571024   258597 
 7286000   0.57312506   -3.1406174   -1.6807448  0.040830556   -3.1406174    1.4598726   258553 
 7287000   0.57188105   -3.1408077   -1.6839123  0.039658755   -3.1408077    1.4568954   258519 
 7288000   0.57236792   -3.1406436   -1.6821468   0.04127637   -3.1406436    1.4584968   258455 
 7289000    0.5710204   -3.1399614   -1.6843351  0.040196213   -3.1399614    1.4556263   258355 
 7290000   0.57143678   -3.1414695   -1.6843193  0.040556571   -3.1414695    1.4571502   258273 
 7291000   0.56958331   -3.1370543   -1.6844786  0.037799166   -3.1370543    1.4525757   258246 
 7292000   0.57135897   -3.1379794   -1.6806778   0.03940671   -3.1379794    1.4573016   258211 
 7293000   0.57051065   -3.1369312   -1.6816468  0.041407794   -3.1369312    1.4552844   258185 
 7294000   0.57048155   -3.1381928   -1.6827064  0.041454265   -3.1381928    1.4554864   258136 
 7295000   0.56994751   -3.1378458   -1.6832768  0.042113117   -3.1378458    1.4545691   258057 
 7296000     0.570898   -3.1387543   -1.6814771  0.043673372   -3.1387543    1.4572772   258007 
 7297000   0.57045527   -3.1378779    -1.681522  0.040318166   -3.1378779    1.4563559   257970 
 7298000   0.56986936   -3.1357202   -1.6804765  0.037292312   -3.1357202    1.4552437   257902 
 7299000   0.56969365   -3.1337643   -1.6789073  0.040669902   -3.1337643    1.4548571   257891 
 7300000   0.57005511   -3.1343336   -1.6786833  0.039518101   -3.1343336    1.4556503   257914 
 7301000    0.5708577   -3.1353333   -1.6775487  0.037217543   -3.1353333    1.4577845   257899 
 7302000   0.56915456   -3.1323992   -1.6786821  0.041662829   -3.1323992    1.4537171   257849 
 7303000   0.56926972    -3.132019   -1.6779908  0.038648203    -3.132019    1.4540282   257846 
 7304000   0.57172069   -3.1355282   -1.6750585  0.037299393   -3.1355282    1.4604697   257814 
 7305000   0.57170567   -3.1360396    -1.675444  0.038156247   -3.1360396    1.4605956   257785 
 7306000    0.5702988   -3.1351414   -1.6778857  0.044062221   -3.1351414    1.4572557   257740 
 7307000   0.57104259    -3.135738    -1.676174  0.040656963    -3.135738     1.459564   257668 
 7308000   0.56974111   -3.1349532   -1.6780881    0.0419012   -3.1349532    1.4568651   257557 
 7309000   0.56950215   -3.1356736   -1.6791425  0.040876804   -3.1356736    1.4565312   257508 
 7310000   0.56912103   -3.1348912   -1.6789446  0.042892036   -3.1348912    1.4559465   257439 
 7311000   0.56949246   -3.1364029   -1.6793024  0.041495056   -3.1364029    1.4571005   257403 
 7312000   0.56886211   -3.1337946   -1.6780071  0.035285301   -3.1337946    1.4557874   257350 
 7313000   0.56828799   -3.1334006   -1.6787263  0.044157083   -3.1334006    1.4546743   257287 
 7314000   0.56780935   -3.1339239   -1.6803505  0.043006947   -3.1339239    1.4535734   257265 
 7315000    0.5680338     -3.13402   -1.6796629  0.039992289     -3.13402    1.4543571   257228 
 7316000   0.56875044   -3.1368905   -1.6807041  0.034881633   -3.1368905    1.4561863   257229 
 7317000   0.56833647   -3.1359732   -1.6806375  0.040250388   -3.1359732    1.4553358   257192 
 7318000   0.56904292   -3.1379087   -1.6802425  0.040093864   -3.1379087    1.4576662   257100 
 7319000   0.56863757   -3.1377754   -1.6806545  0.038253468   -3.1377754    1.4571209   257013 
 7320000   0.56836103   -3.1366158   -1.6798521  0.039548632   -3.1366158    1.4567637   256951 
 7321000   0.56659837   -3.1343879   -1.6814975  0.041360189   -3.1343879    1.4528904   256837 
 7322000   0.56721284   -3.1356451   -1.6811451  0.038923041   -3.1356451       1.4545   256831 
 7323000   0.56700321   -3.1334885    -1.679492  0.041004964   -3.1334885    1.4539965   256825 
 7324000   0.56758989   -3.1367261   -1.6807716  0.040351512   -3.1367261    1.4559545   256745 
 7325000    0.5689261   -3.1373141    -1.677989  0.044136256   -3.1373141    1.4593252   256755 
 7326000   0.56840942   -3.1371026   -1.6788358  0.042607555   -3.1371026    1.4582668   256708 
 7327000    0.5674111   -3.1330317   -1.6769404  0.041343278   -3.1330317    1.4560913   256640 
 7328000   0.56699826   -3.1342297    -1.678971  0.036977808   -3.1342297    1.4552587   256600 
 7329000   0.56683585   -3.1353353   -1.6802212  0.038965674   -3.1353353    1.4551141   256552 
 7330000   0.56650361    -3.133396   -1.6787096  0.036744961    -3.133396    1.4546864   256477 
 7331000   0.56635696   -3.1337506   -1.6790266  0.043228952   -3.1337506    1.4547239   256404 
 7332000   0.56738069   -3.1337038   -1.6762481  0.044097612   -3.1337038    1.4574557   256386 
 7333000   0.56677228   -3.1305729   -1.6743903  0.041015256   -3.1305729    1.4561826   256335 
 7334000   0.56756965   -3.1322843   -1.6738994  0.040382169   -3.1322843    1.4583848   256308 
 7335000   0.56666578   -3.1309544   -1.6746421  0.042706686   -3.1309544    1.4563123   256264 
 7336000      0.56725   -3.1329774   -1.6750157  0.037643074   -3.1329774    1.4579617   256238 
 7337000   0.56617118   -3.1297519    -1.674387  0.039743643   -3.1297519    1.4553649   256207 
 7338000    0.5652526   -3.1282578   -1.6750669  0.037447852   -3.1282578    1.4531909   256174 
 7339000   0.56454581   -3.1266705    -1.674849  0.039118529   -3.1266705    1.4518215   256095 
 7340000   0.56349078   -3.1252234   -1.6758774  0.036642151   -3.1252234     1.449346   256053 
 7341000   0.56433477   -3.1258763   -1.6739739  0.036117322   -3.1258763    1.4519024   255985 
 7342000   0.56373504   -3.1222072   -1.6717571  0.037442371   -3.1222072    1.4504501   255969 
 7343000   0.56526241    -3.126194   -1.6716948  0.043194225    -3.126194    1.4544992   255948 
 7344000   0.56536053   -3.1268159   -1.6721211  0.040510483   -3.1268159    1.4546949   255958 
 7345000   0.56584091   -3.1287299   -1.6726625  0.040200891   -3.1287299    1.4560675   255934 
 7346000   0.56561097   -3.1281835   -1.6724063  0.037916667   -3.1281835    1.4557772   255881 
 7347000   0.56565652   -3.1296792   -1.6734319  0.042829582   -3.1296792    1.4562473   255819 
 7348000   0.56485414   -3.1286637   -1.6741353  0.044264663   -3.1286637    1.4545284   255758 
 7349000   0.56594624   -3.1306636   -1.6728555  0.039071355   -3.1306636    1.4578081   255676 
 7350000   0.56597966   -3.1315438   -1.6735128  0.039158911   -3.1315438     1.458031   255652 
 7351000   0.56461885   -3.1296813   -1.6750194   0.04480923   -3.1296813     1.454662   255628 
 7352000   0.56539158   -3.1317088   -1.6748053  0.040755992   -3.1317088    1.4569036   255584 
 7353000   0.56484378   -3.1316694   -1.6760465  0.041841347   -3.1316694     1.455623   255561 
 7354000   0.56524339   -3.1331673   -1.6764062  0.040963812   -3.1331673    1.4567611   255542 
 7355000   0.56531916   -3.1321449   -1.6748122  0.041997034   -3.1321449    1.4573328   255476 
 7356000   0.56457376   -3.1321794   -1.6767853  0.037632259   -3.1321794    1.4553941   255479 
 7357000   0.56340606   -3.1287016   -1.6761186  0.043368593   -3.1287016    1.4525829   255444 
 7358000   0.56612421   -3.1336694   -1.6737069  0.041991831   -3.1336694    1.4599624   255379 
 7359000   0.56614866   -3.1341778   -1.6739236  0.042453141   -3.1341778    1.4602542   255339 
 7360000   0.56507408   -3.1322447   -1.6742825  0.038845423   -3.1322447    1.4579622   255255 
 7361000   0.56480348   -3.1355687   -1.6779449  0.040755697   -3.1355687    1.4576238   255192 
 7362000   0.56472156   -3.1334551   -1.6759457  0.040269109   -3.1334551    1.4575094   255175 
 7363000   0.56434055    -3.133371   -1.6765709  0.034876961    -3.133371    1.4568001   255127 
 7364000   0.56438058   -3.1316658   -1.6745224  0.041023095   -3.1316658    1.4571433   255085 
 7365000   0.56518572   -3.1317865   -1.6723928  0.037759147   -3.1317865    1.4593937   255055 
 7366000   0.56479803    -3.131192   -1.6725248  0.035398527    -3.131192    1.4586671   255007 
 7367000   0.56528147   -3.1318819    -1.671657  0.039196426   -3.1318819    1.4602249   254953 
 7368000   0.56377444   -3.1285957   -1.6719609  0.040611087   -3.1285957    1.4566348   254900 
 7369000   0.56371517   -3.1279835   -1.6713761  0.039755111   -3.1279835    1.4566074   254878 
 7370000   0.56365943   -3.1280042   -1.6710378   0.03670852   -3.1280042    1.4569664   254790 
 7371000   0.56284481   -3.1269414    -1.672075  0.036143702   -3.1269414    1.4548664   254789 
 7372000   0.56230022   -3.1253522    -1.671494  0.041018792   -3.1253522    1.4538582   254719 
 7373000   0.56368162   -3.1278166   -1.6702493  0.040238691   -3.1278166    1.4575672   254695 
 7374000   0.56385466   -3.1258252   -1.6677533  0.040904026   -3.1258252    1.4580719   254685 
 7375000   0.56305057    -3.122611   -1.6663325  0.041601285    -3.122611    1.4562785   254635 
 7376000   0.56254919   -3.1236238   -1.6683278  0.038857697   -3.1236238    1.4552961   254580 
 7377000   0.56393862    -3.125565   -1.6663708  0.036219736    -3.125565    1.4591943   254527 
 7378000   0.56357285   -3.1257543   -1.6672257  0.039247907   -3.1257543    1.4585286   254478 
 7379000   0.56286248   -3.1238235   -1.6673337  0.040709253   -3.1238235    1.4564899   254513 
 7380000   0.56235386   -3.1233479   -1.6680655  0.041413092   -3.1233479    1.4552824   254494 
 7381000   0.56138642   -3.1227113   -1.6697898  0.040262185   -3.1227113    1.4529215   254469 
 7382000   0.56102528   -3.1227739   -1.6702162  0.039331268   -3.1227739    1.4525576   254369 
 7383000   0.56216683   -3.1225382   -1.6665213  0.039749314   -3.1225382     1.456017   254281 
 7384000   0.56270779   -3.1232142   -1.6654521  0.042500364   -3.1232142     1.457762   254221 
 7385000   0.56387405     -3.12561   -1.6644128   0.04140773     -3.12561    1.4611972   254149 
 7386000   0.56358666   -3.1258538   -1.6651944   0.04080194   -3.1258538    1.4606594   254113 
 7387000   0.56290324   -3.1263763    -1.667247  0.041199529   -3.1263763    1.4591293   254071 
 7388000   0.56335009   -3.1275521   -1.6668448  0.044679003   -3.1275521    1.4607073   253998 
 7389000   0.56167754   -3.1246168   -1.6678562  0.035973143   -3.1246168    1.4567606   253930 
 7390000   0.56274825   -3.1285281   -1.6688123  0.041005575   -3.1285281    1.4597157   253899 
 7391000   0.56219212   -3.1274218   -1.6688729  0.037101069   -3.1274218     1.458549   253851 
 7392000   0.56098228   -3.1260475   -1.6705628  0.038315432   -3.1260475    1.4554847   253838 
 7393000   0.56156018   -3.1231812   -1.6661111  0.039851558   -3.1231812    1.4570701   253823 
 7394000   0.56218085   -3.1236666   -1.6647905  0.044111786   -3.1236666     1.458876   253789 
 7395000   0.56249327   -3.1235231   -1.6635832  0.042363197   -3.1235231    1.4599399   253745 
 7396000   0.56282397   -3.1228122   -1.6617607  0.045067926   -3.1228122    1.4610515   253701 
 7397000   0.56168516   -3.1217349   -1.6632717  0.045391431   -3.1217349    1.4584632   253637 
 7398000   0.56101164   -3.1218657   -1.6650307  0.036308039   -3.1218657     1.456835   253616 
 7399000     0.560307   -3.1190835   -1.6639349  0.036017774   -3.1190835    1.4551486   253591 
 7400000   0.56051507   -3.1187819   -1.6626508  0.040360513   -3.1187819    1.4561311   253514 
 7401000    0.5620734   -3.1239188   -1.6634225  0.042248681   -3.1239188    1.4604962   253459 
 7402000    0.5618706   -3.1226521   -1.6624005  0.042063132   -3.1226521    1.4602516   253410 
 7403000   0.56124072   -3.1210593   -1.6623526  0.039510657   -3.1210593    1.4587067   253394 
 7404000   0.56084642   -3.1200048   -1.6621849  0.038832626   -3.1200048      1.45782   253370 
 7405000   0.56143542    -3.122153   -1.6624564  0.040067242    -3.122153    1.4596966   253310 
 7406000   0.56010641   -3.1184762    -1.662143  0.037355347   -3.1184762    1.4563333   253294 
 7407000   0.55977226    -3.117524   -1.6621055  0.039269696    -3.117524    1.4554185   253302 
 7408000   0.56192737   -3.1203808   -1.6589205  0.041874605   -3.1203808    1.4614603   253226 
 7409000   0.56177729   -3.1220071   -1.6604523  0.039929146   -3.1220071    1.4615548   253142 
 7410000   0.56182292    -3.121071    -1.659155  0.040029245    -3.121071    1.4619161   253100 
 7411000    0.5609687    -3.120687   -1.6605956  0.043330345    -3.120687    1.4600914   253031 
 7412000   0.56178401   -3.1217478   -1.6592396  0.037045405   -3.1217478    1.4625082   252980 
 7413000   0.56141315   -3.1196427   -1.6579035  0.040391709   -3.1196427    1.4617392   252946 
 7414000   0.56186229   -3.1207303   -1.6573357  0.039409155   -3.1207303    1.4633946   252862 
 7415000   0.56102614   -3.1201309   -1.6588216  0.042043746   -3.1201309    1.4613093   252846 
 7416000    0.5604304   -3.1204795    -1.660387  0.041839358   -3.1204795    1.4600925   252788 
 7417000   0.56014768   -3.1193106     -1.65977  0.041821736   -3.1193106    1.4595407   252756 
 7418000   0.55888345   -3.1185585   -1.6620412  0.038986995   -3.1185585    1.4565174   252709 
 7419000   0.56010307   -3.1199444   -1.6599077  0.040262675   -3.1199444    1.4600367   252650 
 7420000   0.56062573   -3.1215726   -1.6599363  0.039592194   -3.1215726    1.4616364   252609 
 7421000   0.56054648   -3.1198781    -1.657968  0.041076974   -3.1198781    1.4619101   252526 
 7422000   0.56086967   -3.1211521   -1.6583064  0.040573743   -3.1211521    1.4628457   252510 
 7423000    0.5584642   -3.1150136    -1.658263  0.043391385   -3.1150136    1.4567506   252479 
 7424000   0.55967316   -3.1206188   -1.6602114  0.039578389   -3.1206188    1.4604074   252392 
 7425000   0.56015733   -3.1243776   -1.6626837  0.038158205   -3.1243776     1.461694   252388 
 7426000   0.56095263   -3.1243787   -1.6604993  0.038418251   -3.1243787    1.4638794   252369 
 7427000   0.56033069   -3.1218059   -1.6593293  0.038971892   -3.1218059    1.4624766   252331 
 7428000   0.55863831   -3.1162331   -1.6581274   0.04497546   -3.1162331    1.4581057   252323 
 7429000   0.55989484    -3.119033   -1.6573811  0.043043097    -3.119033    1.4616519   252277 
 7430000   0.55936186   -3.1200322    -1.659407  0.042906916   -3.1200322    1.4606252   252214 
 7431000   0.55978519    -3.121108   -1.6593136  0.041648677    -3.121108    1.4617944   252203 
 7432000   0.55892051   -3.1196743   -1.6597327  0.041391587   -3.1196743    1.4599416   252133 
 7433000    0.5577408   -3.1176579    -1.660555  0.043948796   -3.1176579    1.4571029   252091 
 7434000   0.55984476   -3.1207087   -1.6580164  0.040099567   -3.1207087    1.4626923   252075 
 7435000   0.55976572   -3.1208441   -1.6581262   0.04012914   -3.1208441    1.4627179   252035 
 7436000   0.55704966   -3.1169941   -1.6609807  0.040797147   -3.1169941    1.4560134   251967 
 7437000   0.55751011   -3.1191472   -1.6617741  0.039933459   -3.1191472    1.4573731   251940 
 7438000   0.55756579   -3.1174422   -1.6596342    0.0411296   -3.1174422     1.457808   251890 
 7439000   0.55887995    -3.121265   -1.6598237   0.04331413    -3.121265    1.4614412   251856 
 7440000   0.55779877   -3.1184143   -1.6597192  0.037563831   -3.1184143    1.4586951   251842 
 7441000   0.55655815    -3.115264   -1.6594259  0.044318319    -3.115264    1.4558381   251775 
 7442000   0.55705941    -3.118218    -1.660733  0.040006004    -3.118218     1.457485   251717 
 7443000    0.5568531   -3.1182102   -1.6608828  0.039536468   -3.1182102    1.4573273   251651 
 7444000   0.55666391   -3.1162543   -1.6590457  0.040600788   -3.1162543    1.4572086   251586 
 7445000    0.5572725   -3.1185584   -1.6594783  0.043540567   -3.1185584    1.4590801   251538 
 7446000    0.5570747   -3.1160033   -1.6572033  0.043809962   -3.1160033       1.4588   251497 
 7447000   0.55664052     -3.11691   -1.6590905  0.036581841     -3.11691    1.4578195   251470 
 7448000   0.55665944   -3.1172444    -1.659155  0.036527926   -3.1172444    1.4580894   251432 
 7449000     0.556879   -3.1187498   -1.6597138  0.038864059   -3.1187498    1.4590359   251368 
 7450000    0.5563532    -3.116253   -1.6583917  0.042762289    -3.116253    1.4578613   251333 
 7451000   0.55633217   -3.1181616   -1.6599667  0.038988213   -3.1181616    1.4581949   251266 
 7452000   0.55456731   -3.1133714   -1.6595304  0.039528913   -3.1133714     1.453841   251219 
 7453000   0.55577182   -3.1163067    -1.659192  0.036127504   -3.1163067    1.4571147   251199 
 7454000   0.55573302   -3.1133172   -1.6560142  0.038729512   -3.1133172    1.4573031   251149 
 7455000   0.55469161    -3.109219   -1.6544672  0.038630473    -3.109219    1.4547517   251118 
 7456000   0.55532681   -3.1121396   -1.6554203   0.04256708   -3.1121396    1.4567193   251066 
 7457000   0.55472999   -3.1117813   -1.6561116  0.040398431   -3.1117813    1.4556697   250977 
 7458000   0.55385977   -3.1097218   -1.6558954  0.036285285   -3.1097218    1.4538264   250901 
 7459000   0.55399066   -3.1107033   -1.6563073  0.038220003   -3.1107033    1.4543961   250862 
 7460000    0.5535924   -3.1099656   -1.6562963  0.040270359   -3.1099656    1.4536692   250807 
 7461000   0.55444324   -3.1116638   -1.6554817   0.04174499   -3.1116638    1.4561821   250759 
 7462000   0.55368945   -3.1104658   -1.6558341  0.037853856   -3.1104658    1.4546317   250685 
 7463000   0.55437925   -3.1134459   -1.6569033  0.038484363   -3.1134459    1.4565426   250668 
 7464000   0.55559086   -3.1152241   -1.6553234   0.03887751   -3.1152241    1.4599007   250638 
 7465000   0.55472569   -3.1145073   -1.6563447  0.038285037   -3.1145073    1.4581625   250546 
 7466000   0.55329317   -3.1143373   -1.6598184  0.038159767   -3.1143373    1.4545189   250525 
 7467000   0.55236536   -3.1130155   -1.6606632  0.037025084   -3.1130155    1.4523523   250478 
 7468000   0.55282953   -3.1111196   -1.6574133  0.038240706   -3.1111196    1.4537063   250455 
 7469000   0.55273576   -3.1130306   -1.6595999  0.042437835   -3.1130306    1.4534307   250460 
 7470000   0.55336504   -3.1145066   -1.6592469   0.04016666   -3.1145066    1.4552597   250430 
 7471000   0.55331168     -3.11355   -1.6582563  0.040605547     -3.11355    1.4552937   250400 
 7472000   0.55375247   -3.1163758   -1.6593875  0.039591362   -3.1163758    1.4569884   250308 
 7473000   0.55405788    -3.116791   -1.6587254  0.035321777    -3.116791    1.4580657   250261 
 7474000    0.5545481   -3.1166307   -1.6569775   0.04269543   -3.1166307    1.4596532   250210 
 7475000   0.55419611   -3.1128651   -1.6537593  0.041093132   -3.1128651    1.4591058   250145 
 7476000    0.5534686   -3.1157885   -1.6583243  0.037131249   -3.1157885    1.4574642   250098 
 7477000    0.5533735   -3.1143936   -1.6571274  0.039130141   -3.1143936    1.4572662   250089 
 7478000   0.55317949   -3.1141808   -1.6573963  0.038445521   -3.1141808    1.4567844   250084 
 7479000   0.55147382   -3.1089628   -1.6561648  0.039256519   -3.1089628     1.452798   249997 
 7480000   0.55208503   -3.1125329   -1.6578628   0.03442842   -3.1125329      1.45467   249952 
 7481000   0.55094635   -3.1094852   -1.6574263  0.037739793   -3.1094852     1.452059   249885 
 7482000   0.55108214   -3.1088718   -1.6560771   0.03887765   -3.1088718    1.4527948   249820 
 7483000   0.55142155     -3.10958   -1.6559603  0.037672323     -3.10958    1.4536197   249832 
 7484000   0.55143154   -3.1082261    -1.654324  0.037016034   -3.1082261    1.4539021   249788 
 7485000   0.55114924   -3.1070687    -1.653393  0.041135642   -3.1070687    1.4536757   249699 
 7486000   0.55087998   -3.1063723   -1.6530983    0.0382888   -3.1063723     1.453274   249646 
 7487000   0.55058622   -3.1033322   -1.6505247  0.040731249   -3.1033322    1.4528075   249593 
 7488000   0.55234833   -3.1073926   -1.6497194  0.039569936   -3.1073926    1.4576732   249556 
 7489000   0.55172921   -3.1075874   -1.6511921  0.042620151   -3.1075874    1.4563953   249495 
 7490000    0.5502575   -3.1072512   -1.6546825  0.039863369   -3.1072512    1.4525686   249485 
 7491000   0.55000043   -3.1071112   -1.6549884   0.03903676   -3.1071112    1.4521228   249445 
 7492000   0.55007194   -3.1077878   -1.6550394  0.034463622   -3.1077878    1.4527485   249370 
 7493000   0.55048439    -3.108028   -1.6537879  0.040413394    -3.108028    1.4542401   249301 
 7494000   0.55010177   -3.1068274   -1.6533066  0.039103262   -3.1068274    1.4535208   249251 
 7495000   0.54976927    -3.109764   -1.6567952  0.041016597    -3.109764    1.4529687   249195 
 7496000   0.54984767   -3.1091486   -1.6559727  0.041874816   -3.1091486    1.4531759   249195 
 7497000   0.55120526   -3.1097177   -1.6528603  0.039835696   -3.1097177    1.4568574   249179 
 7498000   0.55012484   -3.1095843    -1.655314  0.038258551   -3.1095843    1.4542703   249133 
 7499000   0.55074683   -3.1088507   -1.6527257  0.038238653   -3.1088507     1.456125   249097 
 7500000   0.55008626   -3.1100861   -1.6555909   0.04369168   -3.1100861    1.4544952   249077 
 7501000   0.55073955   -3.1108588   -1.6543497  0.035018257   -3.1108588    1.4565091   249028 
 7502000   0.54963078   -3.1085823   -1.6548595  0.036657401   -3.1085823    1.4537228   249003 
 7503000   0.55021487   -3.1092463   -1.6538501  0.036238956   -3.1092463    1.4553962   248981 
 7504000   0.54898208   -3.1070467   -1.6544622  0.040387573   -3.1070467    1.4525846   248904 
 7505000   0.54930545   -3.1086956   -1.6550626  0.037350908   -3.1086956    1.4536329   248871 
 7506000   0.54834428   -3.1073597   -1.6560371  0.037542757   -3.1073597    1.4513226   248831 
 7507000   0.54812531   -3.1079702   -1.6568948  0.038121047   -3.1079702    1.4510755   248774 
 7508000   0.54907218   -3.1077981   -1.6539763  0.041675571   -3.1077981    1.4538218   248733 
 7509000   0.55007424   -3.1102863    -1.653536  0.038219426   -3.1102863    1.4567503   248686 
 7510000   0.55069992   -3.1112899    -1.652736  0.043024648   -3.1112899    1.4585538   248661 
 7511000   0.55008906   -3.1119979   -1.6550151  0.042316249   -3.1119979    1.4569828   248653 
 7512000   0.55065277   -3.1108513   -1.6521349  0.040713541   -3.1108513    1.4587164   248612 
 7513000    0.5496146   -3.1101113   -1.6535651  0.039903566   -3.1101113    1.4565463   248513 
 7514000   0.54935794   -3.1079249   -1.6520705  0.040106044   -3.1079249    1.4558544   248515 
 7515000   0.55104718   -3.1106302   -1.6497996  0.038686443   -3.1106302    1.4608307   248430 
 7516000   0.54894269   -3.1057473   -1.6503843  0.038009837   -3.1057473     1.455363   248411 
 7517000   0.54898558    -3.107568    -1.651816  0.039483493    -3.107568    1.4557521   248364 
 7518000   0.54848263   -3.1066196   -1.6519552    0.0398586   -3.1066196    1.4546644   248322 
 7519000   0.54638203   -3.1027057    -1.653519  0.037770425   -3.1027057    1.4491867   248306 
 7520000   0.54732799    -3.104033   -1.6519982  0.034937519    -3.104033    1.4520348   248248 
 7521000   0.54852025   -3.1053117   -1.6499263  0.035653647   -3.1053117    1.4553854   248216 
 7522000   0.54871484   -3.1059653   -1.6497937  0.042218482   -3.1059653    1.4561716   248170 
 7523000   0.54809585    -3.104097   -1.6492808  0.042951049    -3.104097    1.4548162   248121 
 7524000   0.54778638   -3.1026805   -1.6486037  0.040365917   -3.1026805    1.4540768   248107 
 7525000   0.54857926   -3.1057231   -1.6495065  0.039876375   -3.1057231    1.4562167   248101 
 7526000   0.54834965   -3.1061367   -1.6503888  0.041040611   -3.1061367     1.455748   248077 
 7527000   0.54801955    -3.105762    -1.650732  0.042240133    -3.105762      1.45503   248050 
 7528000   0.54777347   -3.1045329   -1.6500448  0.039817822   -3.1045329    1.4544881   248031 
 7529000   0.54785788   -3.1035024    -1.648403  0.040068791   -3.1035024    1.4550994   247965 
 7530000   0.54802671   -3.1068046   -1.6507871  0.041440248   -3.1068046    1.4560175   247885 
 7531000   0.54773115   -3.1067439   -1.6513296  0.042934555   -3.1067439    1.4554143   247854 
 7532000   0.54791433   -3.1054804   -1.6493855  0.041869181   -3.1054804    1.4560949   247821 
 7533000   0.54701858   -3.1060201   -1.6520886  0.038809448   -3.1060201    1.4539315   247784 
 7534000   0.54637869   -3.1072501   -1.6544213  0.035875137   -3.1072501    1.4528288   247682 
 7535000   0.54667982    -3.106409    -1.652533  0.038323815    -3.106409     1.453876   247640 
 7536000   0.54667968   -3.1084417   -1.6543253  0.035940712   -3.1084417    1.4541164   247599 
 7537000   0.54843585   -3.1109689   -1.6520987  0.040655479   -3.1109689    1.4588701   247585 
 7538000   0.54729455   -3.1091907    -1.652886  0.040736832   -3.1091907    1.4563048   247505 
 7539000    0.5476213    -3.110561    -1.653216  0.039390571    -3.110561     1.457345   247476 
 7540000   0.54735543   -3.1083613   -1.6514177  0.042350712   -3.1083613    1.4569436   247424 
 7541000   0.54792303   -3.1091381   -1.6503358  0.042165852   -3.1091381    1.4588023   247365 
 7542000   0.54736243   -3.1077067   -1.6502261  0.043387306   -3.1077067    1.4574806   247336 
 7543000   0.54781362   -3.1087147   -1.6499147  0.044274816   -3.1087147       1.4588   247316 
 7544000   0.54638954   -3.1035634   -1.6484086  0.042058921   -3.1035634    1.4551548   247291 
 7545000   0.54679728   -3.1053508   -1.6489688  0.041902272   -3.1053508     1.456382   247267 
 7546000   0.54623383   -3.1037263   -1.6485155  0.036642222   -3.1037263    1.4552109   247211 
 7547000   0.54648111   -3.1028324   -1.6465386   0.03836064   -3.1028324    1.4562938   247139 
 7548000   0.54708047   -3.1034019   -1.6452513  0.039636206   -3.1034019    1.4581506   247095 
 7549000   0.54643958   -3.1029338   -1.6463912  0.037706409   -3.1029338    1.4565426   247078 
 7550000   0.54374748   -3.0960824   -1.6462814  0.040073945   -3.0960824     1.449801   247004 
 7551000    0.5453088    -3.098892    -1.644716  0.034151283    -3.098892    1.4541759   246968 
 7552000   0.54541528   -3.0976921   -1.6429024  0.037296627   -3.0976921    1.4547898   246912 
 7553000   0.54575212   -3.1006395    -1.644568  0.040772908   -3.1006395    1.4560715   246847 
 7554000   0.54632157   -3.0998136   -1.6419866  0.040278716   -3.0998136    1.4578271   246807 
 7555000   0.54581861   -3.0982075   -1.6414038  0.044520063   -3.0982075    1.4568037   246753 
 7556000   0.54549545   -3.0985248   -1.6425423  0.037754465   -3.0985248    1.4559825   246746 
 7557000   0.54563327   -3.1001398   -1.6433053  0.035566788   -3.1001398    1.4568345   246664 
 7558000   0.54494039   -3.0988416   -1.6433732  0.034720993   -3.0988416    1.4554683   246582 
 7559000   0.54593772   -3.0989707   -1.6409451  0.037162843   -3.0989707    1.4580256   246600 
 7560000   0.54527296     -3.09998    -1.643334  0.039538898     -3.09998     1.456646   246533 
 7561000   0.54530277   -3.0995376   -1.6426523   0.03978501   -3.0995376    1.4568852   246506 
 7562000   0.54508959   -3.1002913    -1.643491  0.041290169   -3.1002913    1.4568003   246424 
 7563000   0.54395778   -3.0986608   -1.6445785  0.041169578   -3.0986608    1.4540823   246372 
 7564000   0.54380294   -3.0983303   -1.6444967  0.038534399   -3.0983303    1.4538336   246344 
 7565000   0.54428913   -3.0984394   -1.6431878  0.040495421   -3.0984394    1.4552515   246324 
 7566000   0.54430166   -3.0974528     -1.64202  0.036828659   -3.0974528    1.4554327   246299 
 7567000   0.54414919   -3.0966507   -1.6412238  0.041041354   -3.0966507    1.4554269   246231 
 7568000   0.54407154   -3.0970609   -1.6416703  0.039675399   -3.0970609    1.4553906   246202 
 7569000   0.54371712   -3.0957653   -1.6409919   0.04283578   -3.0957653    1.4547734   246146 
 7570000   0.54536037   -3.1016773   -1.6419379  0.041224565   -3.1016773    1.4597394   246050 
 7571000   0.54495587   -3.1011261   -1.6420187  0.039553223   -3.1011261    1.4591074   245974 
 7572000   0.54339309   -3.0988577   -1.6436979  0.043610385   -3.0988577    1.4551597   245934 
 7573000   0.54335834   -3.0982857   -1.6429705  0.037962034   -3.0982857    1.4553152   245892 
 7574000   0.54485808   -3.0991364    -1.639561  0.043043764   -3.0991364    1.4595754   245851 
 7575000   0.54453175   -3.1002807   -1.6413717   0.03565513   -3.1002807     1.458909   245816 
 7576000   0.54368851   -3.0976267   -1.6406806  0.041456021   -3.0976267    1.4569461   245766 
 7577000   0.54428424     -3.09654   -1.6376651  0.043536444     -3.09654    1.4588749   245710 
 7578000   0.54425098   -3.0930679    -1.634098   0.04112429   -3.0930679    1.4589698   245679 
 7579000   0.54282434   -3.0913096   -1.6361523  0.043480371   -3.0913096    1.4551573   245677 
 7580000   0.54326635   -3.0910757   -1.6346505  0.042447371   -3.0910757    1.4564252   245663 
 7581000   0.54251368    -3.089494   -1.6345654  0.041480554    -3.089494    1.4549286   245575 
 7582000   0.54298809   -3.0891483   -1.6326153  0.036565465   -3.0891483     1.456533   245519 
 7583000   0.54223666   -3.0894574    -1.634543  0.040060283   -3.0894574    1.4549144   245452 
 7584000   0.54109741   -3.0893786   -1.6374619   0.03588981   -3.0893786    1.4519167   245442 
 7585000   0.54329607   -3.0925642   -1.6341774  0.039932787   -3.0925642    1.4583868   245346 
 7586000    0.5420956   -3.0898292    -1.634487  0.040294832   -3.0898292    1.4553423   245316 
 7587000   0.54222231   -3.0911389   -1.6356048  0.038943532   -3.0911389    1.4555341   245341 
 7588000   0.54240204   -3.0923257   -1.6358401  0.038052973   -3.0923257    1.4564856   245262 
 7589000   0.54176856   -3.0909443   -1.6358691  0.039199207   -3.0909443    1.4550752   245213 
 7590000   0.54175088   -3.0904914   -1.6351847  0.039416504   -3.0904914    1.4553067   245166 
 7591000   0.54169205    -3.091643   -1.6359719  0.040978253    -3.091643    1.4556711   245078 
 7592000   0.54289853    -3.095929   -1.6366824  0.040199709    -3.095929    1.4592467   245022 
 7593000   0.54172909   -3.0937769   -1.6374833  0.044278886   -3.0937769    1.4562936   244990 
 7594000   0.54248865   -3.0951914   -1.6366833  0.043108904   -3.0951914    1.4585081   244961 
 7595000    0.5434864   -3.0956269   -1.6339888  0.043524805   -3.0956269    1.4616381   244886 
 7596000    0.5416489   -3.0930886   -1.6361007  0.039620917   -3.0930886    1.4569879   244837 
 7597000   0.53982366   -3.0889796    -1.636415  0.043594755   -3.0889796    1.4525647   244755 
 7598000   0.54213322   -3.0932996   -1.6344309  0.036731964   -3.0932996    1.4588687   244740 
 7599000   0.54071146   -3.0899756   -1.6343917   0.03990777   -3.0899756     1.455584   244649 
 7600000   0.54102527   -3.0897072    -1.633082  0.036850749   -3.0897072    1.4566252   244616 
 7601000   0.54041088   -3.0883304   -1.6330619  0.039366185   -3.0883304    1.4552685   244566 
 7602000    0.5390229   -3.0852817   -1.6335194  0.035324224   -3.0852817    1.4517624   244527 
 7603000   0.53859579   -3.0846976   -1.6338245  0.036381884   -3.0846976    1.4508731   244483 
 7604000    0.5384948   -3.0840925   -1.6329869  0.040077724   -3.0840925    1.4511055   244398 
 7605000   0.53874765   -3.0831646   -1.6311638  0.039047099   -3.0831646    1.4520008   244362 
 7606000   0.53853799    -3.084926   -1.6329377   0.03873761    -3.084926    1.4519883   244269 
 7607000   0.53984642    -3.088074   -1.6321586  0.042594142    -3.088074    1.4559154   244202 
 7608000   0.53967982   -3.0856705   -1.6298765   0.04263357   -3.0856705     1.455794   244147 
 7609000   0.53875386   -3.0839956   -1.6301874  0.038623669   -3.0839956    1.4538083   244061 
 7610000   0.53992606   -3.0847292    -1.627722  0.040074329   -3.0847292    1.4570072   244055 
 7611000   0.54049281   -3.0870469   -1.6281516  0.040808436   -3.0870469    1.4588953   243995 
 7612000    0.5397727     -3.08885   -1.6316177   0.04007418     -3.08885    1.4572323   243948 
 7613000   0.53846954   -3.0864102   -1.6324457  0.040328844   -3.0864102    1.4539645   243906 
 7614000   0.53997961     -3.08932   -1.6308655  0.042568609     -3.08932    1.4584545   243837 
 7615000   0.53940101   -3.0873113   -1.6302702  0.041089174   -3.0873113    1.4570411   243812 
 7616000   0.53902228   -3.0902637   -1.6342337  0.038226995   -3.0902637      1.45603   243810 
 7617000   0.53942137   -3.0882412   -1.6310017  0.041761609   -3.0882412    1.4572396   243788 
 7618000     0.537591   -3.0838225   -1.6311701  0.038633069   -3.0838225    1.4526524   243728 
 7619000   0.53830905   -3.0845437   -1.6300226  0.045105858   -3.0845437     1.454521   243740 
 7620000   0.53810015    -3.086388   -1.6319958  0.041351881    -3.086388    1.4543922   243667 
 7621000    0.5378216   -3.0847576   -1.6307543   0.04078664   -3.0847576    1.4540033   243606 
 7622000   0.53714385   -3.0837178   -1.6312666  0.039188497   -3.0837178    1.4524512   243559 
 7623000   0.53765508   -3.0853667   -1.6314555  0.038797985   -3.0853667    1.4539112   243546 
 7624000    0.5379306   -3.0863282   -1.6314748  0.036794972   -3.0863282    1.4548534   243513 
 7625000   0.53647823   -3.0813986   -1.6303063  0.038649315   -3.0813986    1.4510923   243485 
 7626000   0.53678932   -3.0848962   -1.6329327  0.038091357   -3.0848962    1.4519635   243480 
 7627000   0.53809296   -3.0872858   -1.6317124  0.036635601   -3.0872858    1.4555734   243466 
 7628000   0.53733062    -3.088521   -1.6346574  0.038451917    -3.088521    1.4538636   243407 
 7629000   0.53832025   -3.0909223   -1.6339381  0.040982395   -3.0909223    1.4569842   243333 
 7630000   0.53861658   -3.0915057    -1.633372  0.040758323   -3.0915057    1.4581338   243275 
 7631000    0.5380809   -3.0931995   -1.6364021  0.039520718   -3.0931995    1.4567974   243256 
 7632000    0.5374388   -3.0890793   -1.6336015  0.042715001   -3.0890793    1.4554778   243186 
 7633000   0.53857998    -3.094038   -1.6350677  0.042423492    -3.094038    1.4589702   243119 
 7634000   0.53842164   -3.0931864   -1.6344051  0.043948544   -3.0931864    1.4587813   243079 
 7635000   0.53739501   -3.0911036   -1.6348222  0.039123065   -3.0911036    1.4562814   243032 
 7636000   0.53717985   -3.0882785   -1.6324304  0.037772804   -3.0882785    1.4558481   243007 
 7637000   0.53747439   -3.0890968   -1.6320607  0.043373446   -3.0890968    1.4570361   242942 
 7638000   0.53703915   -3.0881574   -1.6320674  0.042413405   -3.0881574    1.4560899   242903 
 7639000   0.53683756    -3.089743   -1.6339239  0.041245994    -3.089743    1.4558191   242857 
 7640000    0.5354798   -3.0874067   -1.6351382  0.038243559   -3.0874067    1.4522686   242835 
 7641000   0.53608551   -3.0879187   -1.6337499   0.03591466   -3.0879187    1.4541688   242792 
 7642000   0.53520069   -3.0861745   -1.6339991  0.038171402   -3.0861745    1.4521754   242724 
 7643000   0.53567607   -3.0888581   -1.6350634  0.042050692   -3.0888581    1.4537947   242669 
 7644000   0.53698909   -3.0902257   -1.6326153  0.038723808   -3.0902257    1.4576104   242627 
 7645000   0.53580369   -3.0869746   -1.6324319  0.040379742   -3.0869746    1.4545426   242602 
 7646000    0.5346705   -3.0844556   -1.6325044  0.038880443   -3.0844556    1.4519511   242521 
 7647000   0.53606704    -3.089186   -1.6331663  0.040069094    -3.089186    1.4560198   242475 
 7648000    0.5352351   -3.0852011   -1.6310271   0.04031363   -3.0852011    1.4541739   242406 
 7649000    0.5363562   -3.0883405   -1.6307298  0.039812355   -3.0883405    1.4576107   242341 
 7650000   0.53699316   -3.0872307   -1.6278288  0.045198364   -3.0872307    1.4594019   242331 
 7651000   0.53622219   -3.0859855   -1.6283119  0.038693138   -3.0859855    1.4576736   242270 
 7652000   0.53573139   -3.0845355   -1.6280158  0.041145975   -3.0845355    1.4565197   242240 
 7653000   0.53552326    -3.083351   -1.6272048  0.039073157    -3.083351    1.4561462   242208 
 7654000   0.53718519   -3.0825145   -1.6215598  0.041273161   -3.0825145    1.4609547   242160 
 7655000   0.53605452   -3.0807778   -1.6227958  0.042219364   -3.0807778     1.457982   242143 
 7656000   0.53694099   -3.0822573   -1.6218461  0.040770129   -3.0822573    1.4604112   242140 
 7657000   0.53468564   -3.0787715   -1.6239838  0.039207753   -3.0787715    1.4547876   242055 
 7658000   0.53508718   -3.0771049   -1.6209179   0.03598751   -3.0771049     1.456187   242004 
 7659000   0.53429861   -3.0781443   -1.6238329  0.039512078   -3.0781443    1.4543114   241959 
 7660000   0.53457291    -3.078507   -1.6231663  0.038838392    -3.078507    1.4553407   241912 
 7661000   0.53490166   -3.0765419   -1.6198847  0.033082072   -3.0765419    1.4566572   241842 
 7662000   0.53348039   -3.0714954    -1.618294  0.038904979   -3.0714954    1.4532013   241773 
 7663000   0.53455555     -3.07431   -1.6178426  0.041041458     -3.07431    1.4564675   241717 
 7664000   0.53523626   -3.0762346   -1.6179246  0.043597969   -3.0762346      1.45831   241719 
 7665000   0.53477708   -3.0753824   -1.6181486  0.039255138   -3.0753824    1.4572338   241690 
 7666000   0.53376933   -3.0720531   -1.6175352  0.040009475   -3.0720531    1.4545178   241685 
 7667000   0.53429819   -3.0713742   -1.6154152  0.040260863   -3.0713742     1.455959   241685 
 7668000   0.53426437   -3.0707343   -1.6147108  0.041446187   -3.0707343    1.4560235   241659 
 7669000    0.5338441   -3.0698068   -1.6145613  0.040757941   -3.0698068    1.4552454   241598 
 7670000   0.53452452   -3.0748929   -1.6175333  0.039678168   -3.0748929    1.4573596   241555 
 7671000   0.53352705   -3.0741351   -1.6190854   0.04099795   -3.0741351    1.4550497   241487 
 7672000    0.5340133   -3.0774526   -1.6206304  0.039167389   -3.0774526    1.4568222   241413 
 7673000   0.53431903   -3.0752108   -1.6170834  0.038833708   -3.0752108    1.4581274   241335 
 7674000   0.53347881   -3.0746229    -1.618354  0.035518101   -3.0746229    1.4562689   241263 
 7675000   0.53410957    -3.077344   -1.6192988  0.039950547    -3.077344    1.4580452   241254 
 7676000   0.53272113   -3.0761183   -1.6212121  0.042454424   -3.0761183    1.4549062   241146 
 7677000    0.5347552   -3.0799763   -1.6192605  0.040797147   -3.0799763    1.4607158   241104 
 7678000   0.53482619   -3.0820428   -1.6208785  0.040060784   -3.0820428    1.4611643   241062 
 7679000   0.53448545   -3.0824937   -1.6219332  0.041424821   -3.0824937    1.4605605   241008 
 7680000   0.53471431   -3.0815945   -1.6203661  0.039718329   -3.0815945    1.4612284   241001 
 7681000   0.53408011   -3.0805386   -1.6206738   0.03932381   -3.0805386    1.4598648   240940 
 7682000   0.53311746   -3.0797451    -1.621961  0.040470185   -3.0797451     1.457784   240849 
 7683000   0.53251569   -3.0783666    -1.622349  0.037751146   -3.0783666    1.4560176   240869 
 7684000   0.53158078   -3.0751102   -1.6212987  0.041774725   -3.0751102    1.4538114   240811 
 7685000    0.5325004   -3.0734038   -1.6169806  0.038594258   -3.0734038    1.4564233   240795 
 7686000   0.53289125    -3.072166   -1.6142499  0.043104289    -3.072166    1.4579161   240725 
 7687000   0.53351563   -3.0737011   -1.6138403  0.043960816   -3.0737011    1.4598608   240686 
 7688000   0.53225442   -3.0723043    -1.615828    0.0394675   -3.0723043    1.4564763   240675 
 7689000   0.53155209   -3.0698261   -1.6150661  0.039240758   -3.0698261      1.45476   240641 
 7690000   0.53077141   -3.0690535   -1.6161645  0.040154338   -3.0690535     1.452889   240597 
 7691000   0.53108866   -3.0696298   -1.6157575  0.037718166   -3.0696298    1.4538723   240578 
 7692000   0.53150317   -3.0700084   -1.6147837  0.040745256   -3.0700084    1.4552248   240542 
 7693000   0.53165991   -3.0686162   -1.6128352  0.037939581   -3.0686162     1.455781   240521 
 7694000    0.5315878   -3.0705933   -1.6144952    0.0390339   -3.0705933    1.4560981   240436 
 7695000   0.53240411   -3.0722946   -1.6137482  0.037843969   -3.0722946    1.4585464   240401 
 7696000   0.53362033   -3.0715701   -1.6094728  0.039930168   -3.0715701    1.4620973   240365 
 7697000   0.53374924   -3.0729826   -1.6104895  0.040733498   -3.0729826    1.4624931   240358 
 7698000   0.53232269   -3.0721428   -1.6132369  0.040048548   -3.0721428     1.458906   240305 
 7699000   0.53174674   -3.0722504   -1.6148623  0.040542945   -3.0722504    1.4573881   240295 
 7700000   0.53139479   -3.0706239   -1.6139761  0.040302651   -3.0706239    1.4566478   240258 
 7701000   0.53130494   -3.0725923   -1.6159664  0.038412482   -3.0725923    1.4566258   240221 
 7702000   0.53136409   -3.0724501   -1.6153648  0.034976765   -3.0724501    1.4570852   240172 
 7703000   0.53000416   -3.0708864   -1.6172519  0.037780225   -3.0708864    1.4536345   240126 
 7704000   0.53059296   -3.0716609   -1.6162115   0.04092987   -3.0716609    1.4554494   240093 
 7705000   0.53169534   -3.0721551   -1.6136939  0.041933574   -3.0721551    1.4584612   240095 
 7706000    0.5320292   -3.0725326   -1.6128152  0.040587432   -3.0725326    1.4597174   240039 
 7707000   0.53159542   -3.0721602    -1.613098  0.041003438   -3.0721602    1.4590622   239951 
 7708000   0.53092099   -3.0716591   -1.6141869  0.041823267   -3.0716591    1.4574723   239908 
 7709000   0.53029859   -3.0719618   -1.6156701  0.038797229   -3.0719618    1.4562918   239821 
 7710000   0.52948246   -3.0700265   -1.6159457  0.038919016   -3.0700265    1.4540809   239816 
 7711000   0.52945724   -3.0731198   -1.6184956  0.038869335   -3.0731198    1.4546242   239715 
 7712000     0.529806   -3.0745777   -1.6185033  0.038084934   -3.0745777    1.4560744   239634 
 7713000   0.53000795   -3.0719188   -1.6149732   0.04242217   -3.0719188    1.4569456   239582 
 7714000   0.53108749   -3.0771382   -1.6169935  0.038533745   -3.0771382    1.4601447   239544 
 7715000   0.53110107   -3.0739872   -1.6136223  0.044007083   -3.0739872     1.460365   239514 
 7716000    0.5297449   -3.0706375   -1.6136792  0.042285853   -3.0706375    1.4569583   239461 
 7717000   0.53090645   -3.0708043   -1.6104258  0.042716829   -3.0708043    1.4603786   239424 
 7718000   0.52957017   -3.0686183   -1.6118059  0.041459959   -3.0686183    1.4568124   239406 
 7719000   0.52945653    -3.069345    -1.612334  0.042277974    -3.069345     1.457011   239322 
 7720000    0.5278953   -3.0643398   -1.6115888  0.041975209   -3.0643398     1.452751   239316 
 7721000   0.52707973   -3.0651741   -1.6144554  0.037867137   -3.0651741    1.4507188   239281 
 7722000   0.52834361    -3.064704   -1.6100324  0.037728986    -3.064704    1.4546716   239203 
 7723000   0.52918789   -3.0652978   -1.6079544  0.036785817   -3.0652978    1.4573434   239146 
 7724000   0.52921326   -3.0651613   -1.6073334  0.035989108   -3.0651613    1.4578278   239078 
 7725000    0.5290095   -3.0649776   -1.6075282  0.036642774   -3.0649776    1.4574494   239048 
 7726000   0.52896278   -3.0634536   -1.6057914  0.041633046   -3.0634536    1.4576622   238992 
 7727000   0.52959475   -3.0648402   -1.6050273  0.040104219   -3.0648402    1.4598129   238925 
 7728000   0.52876245   -3.0678875   -1.6100332  0.039109533   -3.0678875    1.4578543   238870 
 7729000   0.52829759   -3.0640027   -1.6071617  0.042058502   -3.0640027     1.456841   238826 
 7730000    0.5276768   -3.0638538   -1.6082615  0.041206563   -3.0638538    1.4555923   238750 
 7731000   0.53074069   -3.0718555   -1.6075109  0.037568423   -3.0718555    1.4643446   238701 
 7732000   0.52938575   -3.0703799   -1.6094922  0.039344431   -3.0703799    1.4608877   238655 
 7733000   0.52903126   -3.0693383   -1.6091107   0.04203953   -3.0693383    1.4602276   238603 
 7734000   0.52864511   -3.0673728   -1.6079113  0.042881611   -3.0673728    1.4594615   238554 
 7735000   0.52802738   -3.0700139   -1.6114691  0.038204252   -3.0700139    1.4585448   238425 
 7736000   0.52610317   -3.0675069   -1.6138077  0.036827544   -3.0675069    1.4536992   238348 
 7737000   0.52667633   -3.0684167   -1.6128468  0.037717355   -3.0684167    1.4555699   238301 
 7738000   0.52750241   -3.0693565   -1.6113628  0.041328474   -3.0693565    1.4579937   238278 
 7739000    0.5282089   -3.0668047   -1.6065887  0.040115694   -3.0668047     1.460216   238234 
 7740000   0.52643205   -3.0629979   -1.6073457  0.037392673   -3.0629979    1.4556522   238177 
 7741000   0.52690248   -3.0635887   -1.6066724  0.041902617   -3.0635887    1.4569163   238183 
 7742000   0.52739354   -3.0625643   -1.6041493  0.038216731   -3.0625643     1.458415   238160 
 7743000   0.52716051   -3.0628031   -1.6048366  0.041956177   -3.0628031    1.4579665   238128 
 7744000   0.52602791   -3.0613167   -1.6062383  0.040200407   -3.0613167    1.4550785   238088 
 7745000   0.52686984   -3.0655568   -1.6077698  0.036846978   -3.0655568     1.457787   238026 
 7746000    0.5265402   -3.0608871   -1.6036632  0.038136363   -3.0608871    1.4572239   237969 
 7747000    0.5252455   -3.0600128   -1.6061461  0.037319253   -3.0600128    1.4538668   237932 
 7748000   0.52570948   -3.0616777   -1.6063064   0.03652819   -3.0616777    1.4553713   237896 
 7749000    0.5277449   -3.0656559   -1.6042935  0.044306838   -3.0656559    1.4613624   237838 
 7750000   0.52633205   -3.0631653   -1.6053352  0.043345675   -3.0631653    1.4578302   237776 
 7751000   0.52576828   -3.0614642   -1.6050485  0.037787127   -3.0614642    1.4564156   237752 
 7752000   0.52466051   -3.0590612   -1.6054207  0.038932274   -3.0590612    1.4536405   237704 
 7753000   0.52668837   -3.0642042   -1.6045645  0.039261209   -3.0642042    1.4596397   237642 
 7754000   0.52583738   -3.0614006   -1.6041684  0.040445643   -3.0614006    1.4572322   237650 
 7755000   0.52645117   -3.0645716   -1.6053314  0.037922388   -3.0645716    1.4592402   237600 
 7756000   0.52522945   -3.0636137   -1.6074535  0.041504131   -3.0636137    1.4561602   237550 
 7757000   0.52552299   -3.0660198   -1.6088556  0.040282369   -3.0660198    1.4571642   237519 
 7758000   0.52514445   -3.0638312   -1.6074284  0.040699223   -3.0638312    1.4564028   237472 
 7759000   0.52504005   -3.0624641   -1.6061546  0.040282371   -3.0624641    1.4563095   237440 
 7760000   0.52500227   -3.0652373   -1.6085233  0.044241504   -3.0652373    1.4567139   237357 
 7761000   0.52549062   -3.0659573   -1.6075074  0.036598621   -3.0659573    1.4584499   237295 
 7762000   0.52590584   -3.0655683   -1.6057076  0.038752504   -3.0655683    1.4598607   237253 
 7763000   0.52523569    -3.063555   -1.6054685  0.043239832    -3.063555    1.4580865   237239 
 7764000   0.52493463   -3.0645945   -1.6071165  0.038281633   -3.0645945     1.457478   237202 
 7765000   0.52372508   -3.0608155   -1.6064383  0.043622619   -3.0608155    1.4543772   237160 
 7766000   0.52512025   -3.0605517    -1.602503  0.036877284   -3.0605517    1.4580487   237193 
 7767000   0.52476109   -3.0600171   -1.6026093  0.038771077   -3.0600171    1.4574078   237135 
 7768000   0.52584329   -3.0621209    -1.601418  0.043730798   -3.0621209    1.4607029   237088 
 7769000   0.52477244   -3.0581327   -1.6003368  0.041752563   -3.0581327    1.4577959   237077 
 7770000   0.52516973    -3.059103   -1.5998342   0.03943494    -3.059103    1.4592689   237017 
 7771000   0.52473605   -3.0581279   -1.5997502  0.039338195   -3.0581279    1.4583776   236966 
 7772000   0.52436482   -3.0568736   -1.5993124  0.041545519   -3.0568736    1.4575612   236931 
 7773000   0.52497213   -3.0544736   -1.5951257  0.040551173   -3.0544736    1.4593479   236915 
 7774000   0.52612637   -3.0556259   -1.5928718  0.041455028   -3.0556259     1.462754   236883 
 7775000    0.5249862   -3.0536612   -1.5936518  0.038304166   -3.0536612    1.4600094   236814 
 7776000   0.52493577   -3.0553338   -1.5951317  0.036570317   -3.0553338    1.4602021   236760 
 7777000     0.522841   -3.0497991   -1.5953687  0.041022297   -3.0497991    1.4544304   236751 
 7778000   0.52389267    -3.051394   -1.5938165  0.040407541    -3.051394    1.4575776   236715 
 7779000   0.52493734   -3.0521744   -1.5913077  0.036615383   -3.0521744    1.4608667   236653 
 7780000   0.52571584   -3.0542437    -1.591161  0.038269954   -3.0542437    1.4630827   236645 
 7781000   0.52543529   -3.0516601   -1.5888513  0.039763561   -3.0516601    1.4628088   236563 
 7782000   0.52514534   -3.0518739   -1.5896931  0.042435389   -3.0518739    1.4621808   236534 
 7783000   0.52429772    -3.048706   -1.5885458  0.040585301    -3.048706    1.4601602   236479 
 7784000    0.5247106   -3.0492476   -1.5876841  0.040089315   -3.0492476    1.4615635   236438 
 7785000   0.52374564   -3.0485759   -1.5895028  0.037326878   -3.0485759    1.4590731   236406 
 7786000   0.52375279   -3.0472099   -1.5878761  0.038493492   -3.0472099    1.4593338   236367 
 7787000    0.5243182    -3.048878   -1.5877957  0.039657069    -3.048878    1.4610823   236339 
 7788000   0.52301862    -3.046662   -1.5890902  0.035708672    -3.046662    1.4575718   236321 
 7789000    0.5234159   -3.0456466   -1.5865663  0.039337646   -3.0456466    1.4590803   236256 
 7790000   0.52397897   -3.0469164   -1.5857099  0.040243773   -3.0469164    1.4612066   236166 
 7791000   0.52396591   -3.0478872   -1.5863829  0.038683139   -3.0478872    1.4615043   236112 
 7792000   0.52280674   -3.0453992   -1.5871776  0.040447169   -3.0453992    1.4582216   236120 
 7793000   0.52373228   -3.0476759   -1.5865138  0.039264934   -3.0476759    1.4611621   236062 
 7794000     0.523956   -3.0490701   -1.5868193  0.038664727   -3.0490701    1.4622508   235987 
 7795000   0.52193581   -3.0460787   -1.5891386   0.04281318   -3.0460787    1.4569401   235934 
 7796000   0.52241656   -3.0492196   -1.5905294  0.041858655   -3.0492196    1.4586901   235868 
 7797000   0.52249666   -3.0507838   -1.5913193   0.03943498   -3.0507838    1.4594645   235779 
 7798000   0.52269021   -3.0507447   -1.5905043  0.040945933   -3.0507447    1.4602405   235741 
 7799000   0.52208571   -3.0491236   -1.5903553  0.042224369   -3.0491236    1.4587683   235706 
 7800000   0.52216831   -3.0495015   -1.5900381  0.039971336   -3.0495015    1.4594634   235631 
 7801000   0.52153451   -3.0493778   -1.5913084  0.039650617   -3.0493778    1.4580694   235570 
 7802000   0.52207662   -3.0494884   -1.5899653  0.042171199   -3.0494884     1.459523   235580 
 7803000   0.52237381   -3.0499463   -1.5892018  0.041873213   -3.0499463    1.4607445   235517 
 7804000   0.52325737   -3.0527135   -1.5891938  0.041505322   -3.0527135    1.4635198   235468 
 7805000   0.52280243   -3.0529418   -1.5902348  0.041857088   -3.0529418     1.462707   235394 
 7806000   0.52074053   -3.0484148   -1.5911299  0.043858197   -3.0484148    1.4572849   235338 
 7807000   0.52208345   -3.0537858   -1.5922832  0.040398497   -3.0537858    1.4615026   235264 
 7808000   0.52070693   -3.0482807   -1.5904581  0.044863632   -3.0482807    1.4578227   235236 
 7809000   0.52122675   -3.0479783   -1.5885328  0.039099852   -3.0479783    1.4594455   235209 
 7810000   0.52040843   -3.0438377   -1.5865782  0.042483474   -3.0438377    1.4572595   235192 
 7811000   0.52050034   -3.0445731   -1.5869632  0.040972435   -3.0445731    1.4576099   235177 
 7812000   0.52045565   -3.0462066   -1.5885421  0.041784555   -3.0462066    1.4576645   235148 
 7813000   0.52096263   -3.0449254    -1.585841  0.038434138   -3.0449254    1.4590844   235148 
 7814000   0.52003608   -3.0443262   -1.5871985  0.040149891   -3.0443262    1.4571276   235045 
 7815000   0.52062312   -3.0456546   -1.5868635  0.039564384   -3.0456546    1.4587911   235042 
 7816000   0.52089224   -3.0452015   -1.5854575  0.040666239   -3.0452015    1.4597439   235010 
 7817000   0.52165348   -3.0466972   -1.5843346  0.042320168   -3.0466972    1.4623626   234932 
 7818000   0.52087816   -3.0472986   -1.5869914  0.038447576   -3.0472986    1.4603072   234913 
 7819000   0.51994967   -3.0439466   -1.5861369  0.039127905   -3.0439466    1.4578097   234896 
 7820000   0.52042632   -3.0443572   -1.5851552  0.041883196   -3.0443572     1.459202   234887 
 7821000   0.51958886   -3.0436814   -1.5863001  0.039126319   -3.0436814    1.4573812   234802 
 7822000    0.5186969   -3.0439972   -1.5885848  0.040426854   -3.0439972    1.4554125   234716 
 7823000   0.52019767   -3.0459222   -1.5858944  0.038190336   -3.0459222    1.4600278   234651 
 7824000   0.52024607    -3.046373    -1.585755  0.042019851    -3.046373     1.460618   234578 
 7825000   0.52035068   -3.0481238   -1.5868134  0.040826471   -3.0481238    1.4613104   234514 
 7826000   0.51939542   -3.0443466   -1.5856504  0.038871479   -3.0443466    1.4586962   234503 
 7827000   0.51958917    -3.047219   -1.5876613  0.038750691    -3.047219    1.4595578   234452 
 7828000   0.51901965   -3.0462776   -1.5879714  0.041690883   -3.0462776    1.4583062   234396 
 7829000   0.51901689   -3.0481825   -1.5895293  0.040542437   -3.0481825    1.4586532   234339 
 7830000   0.51774512   -3.0442288   -1.5889946  0.044070872   -3.0442288    1.4552342   234314 
 7831000   0.51935655    -3.047523   -1.5876723  0.042343726    -3.047523    1.4598507   234300 
 7832000   0.51944506    -3.048481   -1.5882444   0.03869822    -3.048481    1.4602366   234278 
 7833000   0.51909388   -3.0450821   -1.5854339  0.041545545   -3.0450821    1.4596482   234214 
 7834000   0.51932298   -3.0456193   -1.5847968  0.041612144   -3.0456193    1.4608226   234129 
 7835000   0.51857281   -3.0425817   -1.5836574  0.041214531   -3.0425817    1.4589242   234095 
 7836000   0.51793921   -3.0431479   -1.5855205    0.0395011   -3.0431479    1.4576274   234017 
 7837000   0.51883914   -3.0478399   -1.5874677   0.03635214   -3.0478399    1.4603722   233983 
 7838000   0.51747479   -3.0440484   -1.5870619  0.034498479   -3.0440484    1.4569865   233910 
 7839000   0.51835903   -3.0453754   -1.5855997  0.039927339   -3.0453754    1.4597757   233862 
 7840000    0.5198382   -3.0497004   -1.5855775  0.038366858   -3.0497004    1.4641229   233833 
 7841000   0.51853416   -3.0469742   -1.5860993  0.042218077   -3.0469742    1.4608749   233765 
 7842000   0.51792409   -3.0437025   -1.5842655  0.043932302   -3.0437025     1.459437   233720 
 7843000   0.51773527     -3.04531   -1.5860491  0.039174731     -3.04531    1.4592609   233663 
 7844000   0.51831334   -3.0464341   -1.5855002  0.038496903   -3.0464341     1.460934   233656 
 7845000   0.51845653   -3.0474422   -1.5858294  0.045087476   -3.0474422    1.4616128   233612 
 7846000   0.51869263   -3.0453716   -1.5828553  0.045019575   -3.0453716    1.4625163   233574 
 7847000   0.51768176   -3.0429583   -1.5830798  0.039003691   -3.0429583    1.4598785   233540 
 7848000   0.51750825    -3.042977   -1.5832378  0.036916826    -3.042977    1.4597392   233484 
 7849000   0.51713455   -3.0407067   -1.5818466  0.038344567   -3.0407067    1.4588601   233456 
 7850000   0.51697753   -3.0407302   -1.5820132   0.03614301   -3.0407302     1.458717   233408 
 7851000   0.51700732    -3.040761   -1.5817098  0.038902887    -3.040761    1.4590512   233368 
 7852000   0.51647903   -3.0382025   -1.5803612  0.042493379   -3.0382025    1.4578414   233323 
 7853000   0.51596909   -3.0371341   -1.5806323  0.038098857   -3.0371341    1.4565019   233307 
 7854000   0.51638133   -3.0378473   -1.5798505  0.040657427   -3.0378473    1.4579968   233254 
 7855000   0.51599872   -3.0369229   -1.5796315  0.038968961   -3.0369229    1.4572914   233194 
 7856000   0.51585032   -3.0367422   -1.5795137  0.038822314   -3.0367422    1.4572284   233137 
 7857000   0.51554831   -3.0372223   -1.5804159  0.039672948   -3.0372223    1.4568064   233068 
 7858000   0.51515586   -3.0375114   -1.5815141  0.036585388   -3.0375114    1.4559973   233020 
 7859000   0.51536923   -3.0383597   -1.5816593  0.039211779   -3.0383597    1.4567004   233004 
 7860000   0.51661279   -3.0391981   -1.5786881  0.037605703   -3.0391981      1.46051   232957 
 7861000   0.51488593   -3.0361568   -1.5801101  0.039260201   -3.0361568    1.4560467   232890 
 7862000   0.51581879   -3.0388306   -1.5798138  0.039248635   -3.0388306    1.4590168   232837 
 7863000    0.5154009   -3.0381856   -1.5802631  0.041160637   -3.0381856    1.4579225   232823 
 7864000   0.51562886   -3.0394029   -1.5807917  0.039761546   -3.0394029    1.4586111   232816 
 7865000   0.51674942   -3.0395071   -1.5775252   0.04410915   -3.0395071    1.4619819   232784 
 7866000   0.51548178   -3.0391295   -1.5800382  0.041067213   -3.0391295    1.4590913   232673 
 7867000   0.51528222   -3.0395189   -1.5809862  0.040729778   -3.0395189    1.4585327   232672 
 7868000   0.51605693   -3.0385855   -1.5777469  0.039511699   -3.0385855    1.4608386   232654 
 7869000   0.51530139   -3.0404601   -1.5813652  0.041781952   -3.0404601    1.4590949   232591 
 7870000   0.51494775   -3.0414675   -1.5828221   0.03781662   -3.0414675    1.4586454   232503 
 7871000   0.51455749   -3.0416272   -1.5835792  0.041666476   -3.0416272    1.4580479   232422 
 7872000    0.5143014   -3.0376593   -1.5803809  0.042745261   -3.0376593    1.4572784   232429 
 7873000   0.51557501   -3.0422968   -1.5811833   0.04101945   -3.0422968    1.4611135   232393 
 7874000    0.5156999   -3.0410052   -1.5794435  0.042394323   -3.0410052    1.4615618   232378 
 7875000   0.51559865   -3.0403166   -1.5785071  0.043486939   -3.0403166    1.4618095   232293 
 7876000   0.51496651   -3.0424219   -1.5820149  0.037397659   -3.0424219    1.4604071   232231 
 7877000   0.51491828   -3.0428639   -1.5822855  0.039173484   -3.0428639    1.4605785   232182 
 7878000   0.51414216    -3.041175   -1.5826598   0.04077554    -3.041175    1.4585152   232160 
 7879000   0.51359759   -3.0403559   -1.5830591  0.040107886   -3.0403559    1.4572968   232108 
 7880000   0.51383385   -3.0410169   -1.5826414  0.037800143   -3.0410169    1.4583755   232043 
 7881000   0.51352954   -3.0426605   -1.5846711  0.037205322   -3.0426605    1.4579894   231967 
 7882000   0.51362859   -3.0409323   -1.5822781  0.041903485   -3.0409323    1.4586542   231906 
 7883000    0.5139371   -3.0391044   -1.5793601  0.041179194   -3.0391044    1.4597443   231872 
 7884000   0.51308487   -3.0383553   -1.5809751  0.038261767   -3.0383553    1.4573803   231863 
 7885000   0.51306542   -3.0397069    -1.582055  0.042273653   -3.0397069    1.4576519   231811 
 7886000   0.51440693   -3.0399496   -1.5781142  0.043441667   -3.0399496    1.4618353   231752 
 7887000   0.51357654   -3.0399457   -1.5801048  0.042472014   -3.0399457    1.4598409   231694 
 7888000    0.5136057   -3.0394529    -1.579567  0.041368386   -3.0394529     1.459886   231700 
 7889000   0.51341615   -3.0391443   -1.5794507  0.039780092   -3.0391443    1.4596937   231645 
 7890000   0.51420678   -3.0439291   -1.5815394   0.03956367   -3.0439291    1.4623897   231574 
 7891000   0.51299504   -3.0376785   -1.5785081  0.040939154   -3.0376785    1.4591704   231538 
 7892000   0.51389074   -3.0382792     -1.57646  0.041782945   -3.0382792    1.4618192   231522 
 7893000   0.51350101   -3.0412778   -1.5800686  0.037700479   -3.0412778    1.4612092   231443 
 7894000   0.51242172   -3.0404813    -1.581795  0.045751728   -3.0404813    1.4586863   231356 
 7895000   0.51107365   -3.0349989   -1.5794455  0.039560586   -3.0349989    1.4555534   231244 
 7896000   0.51128223   -3.0364783   -1.5799467  0.041015674   -3.0364783    1.4565317   231183 
 7897000   0.51277821   -3.0377584    -1.576927  0.040960577   -3.0377584    1.4608313   231177 
 7898000   0.51201455   -3.0332636   -1.5741345  0.044544116   -3.0332636    1.4591291   231102 
 7899000     0.511397   -3.0321185   -1.5743833  0.038552423   -3.0321185    1.4577351   231044 
 7900000   0.51139649   -3.0312079   -1.5734427  0.037592133   -3.0312079    1.4577652   231039 
 7901000   0.51102445   -3.0289639    -1.571925   0.04040011   -3.0289639    1.4570389   230986 
 7902000   0.51313872   -3.0322508   -1.5688669   0.03816106   -3.0322508    1.4633839   230936 
 7903000   0.51213378   -3.0313807   -1.5705147  0.041840154   -3.0313807    1.4608659   230881 
 7904000   0.51171377   -3.0304745   -1.5704842  0.040172491   -3.0304745    1.4599903   230830 
 7905000   0.51130849   -3.0294625   -1.5705083  0.040226962   -3.0294625    1.4589541   230811 
 7906000   0.51120453   -3.0293485   -1.5706025  0.040431718   -3.0293485     1.458746   230797 
 7907000   0.51272546   -3.0321405   -1.5687629  0.045482216   -3.0321405    1.4633777   230751 
 7908000   0.51110945   -3.0291134   -1.5698421  0.040530199   -3.0291134    1.4592713   230671 
 7909000   0.51195573   -3.0297786   -1.5676981  0.039532887   -3.0297786    1.4620805   230609 
 7910000   0.51125525   -3.0267412   -1.5663699  0.037324921   -3.0267412    1.4603713   230563 
 7911000   0.51084241   -3.0274817   -1.5679731  0.040535975   -3.0274817    1.4595086   230513 
 7912000   0.51173323   -3.0290533   -1.5667966  0.041754802   -3.0290533    1.4622567   230481 
 7913000   0.51130065   -3.0268393   -1.5656031  0.037885596   -3.0268393    1.4612362   230447 
 7914000    0.5110528   -3.0255716   -1.5648409  0.040811782   -3.0255716    1.4607307   230415 
 7915000   0.51121301    -3.028501   -1.5672045  0.035800725    -3.028501    1.4612964   230398 
 7916000   0.50986616   -3.0245372   -1.5668756  0.039258925   -3.0245372    1.4576616   230364 
 7917000   0.51052761   -3.0245089   -1.5646457  0.036275982   -3.0245089    1.4598631   230315 
 7918000   0.51069314    -3.025054   -1.5647112  0.040220591    -3.025054    1.4603428   230314 
 7919000   0.51063318   -3.0227948   -1.5626298  0.040148631   -3.0227948     1.460165   230315 
 7920000   0.50830528    -3.017448   -1.5635482  0.041290069    -3.017448    1.4538997   230253 
 7921000    0.5098039   -3.0199645    -1.561772  0.038450915   -3.0199645    1.4581925   230252 
 7922000   0.51067219   -3.0188495   -1.5581036   0.04013173   -3.0188495    1.4607459   230241 
 7923000   0.51033685      -3.0178   -1.5575123  0.041702324      -3.0178    1.4602878   230162 
 7924000   0.50914923    -3.017334   -1.5600076  0.037724427    -3.017334    1.4573263   230093 
 7925000   0.51026361   -3.0210074   -1.5601993  0.040170078   -3.0210074    1.4608081   230047 
 7926000   0.51043392   -3.0200483   -1.5585557  0.041698064   -3.0200483    1.4614926   230016 
 7927000   0.50981266   -3.0195382   -1.5597292  0.042889119   -3.0195382    1.4598089   230001 
 7928000   0.50987548   -3.0181953   -1.5578954  0.039699226   -3.0181953    1.4602999   229952 
 7929000   0.50927597    -3.019695   -1.5605537  0.041076644    -3.019695    1.4591413   229864 
 7930000   0.50831279   -3.0175201   -1.5611511  0.041995421   -3.0175201     1.456369   229866 
 7931000   0.50966386   -3.0214792   -1.5607118  0.035474257   -3.0214792    1.4607674   229783 
 7932000   0.51052809   -3.0221028   -1.5585527  0.038892193   -3.0221028    1.4635502   229735 
 7933000   0.50970844   -3.0222822   -1.5607954  0.038984726   -3.0222822    1.4614867   229690 
 7934000   0.51097505   -3.0244993   -1.5590683  0.039753038   -3.0244993    1.4654311   229641 
 7935000    0.5103281   -3.0226874   -1.5588631  0.040015706   -3.0226874    1.4638243   229602 
 7936000   0.51044769   -3.0223742   -1.5579581  0.047473608   -3.0223742    1.4644161   229563 
 7937000   0.51076975   -3.0212044   -1.5556154  0.046166972   -3.0212044     1.465589   229524 
 7938000   0.51019489   -3.0231408   -1.5590482  0.043839171   -3.0231408    1.4640926   229500 
 7939000   0.50923693   -3.0185569   -1.5568885  0.039089701   -3.0185569    1.4616684   229449 
 7940000    0.5099814   -3.0218491   -1.5577822  0.040930775   -3.0218491    1.4640669   229408 
 7941000   0.50768034   -3.0198575   -1.5617864  0.042903036   -3.0198575    1.4580711   229312 
 7942000   0.50773113   -3.0195439   -1.5610216  0.039136711   -3.0195439    1.4585223   229264 
 7943000   0.50800491   -3.0198131   -1.5601479   0.03594343   -3.0198131    1.4596653   229208 
 7944000   0.50823659   -3.0205951   -1.5600794  0.036564898   -3.0205951    1.4605157   229179 
 7945000   0.51001731   -3.0228084   -1.5571115  0.039204333   -3.0228084    1.4656969   229169 
 7946000   0.50968207    -3.021531   -1.5566377  0.042469047    -3.021531    1.4648933   229144 
 7947000   0.50812496   -3.0195768   -1.5587253  0.041837363   -3.0195768    1.4608515   229076 
 7948000   0.50876355   -3.0204245   -1.5576732  0.043039871   -3.0204245    1.4627513   229066 
 7949000   0.50731357   -3.0209499   -1.5619725  0.039232583   -3.0209499    1.4589773   229004 
 7950000   0.50719625   -3.0191891   -1.5603899  0.039520251   -3.0191891    1.4587992   228979 
 7951000   0.50742968    -3.020053   -1.5602701  0.041714005    -3.020053     1.459783   228930 
 7952000   0.50815756   -3.0194673   -1.5574115  0.037025275   -3.0194673    1.4620558   228902 
 7953000   0.50713694   -3.0169286   -1.5576882  0.041449505   -3.0169286    1.4592404   228883 
 7954000   0.50689442   -3.0158298   -1.5572872  0.041175495   -3.0158298    1.4585426   228883 
 7955000   0.50708293   -3.0145748   -1.5554643  0.041075451   -3.0145748    1.4591105   228879 
 7956000    0.5075872   -3.0179904   -1.5573204  0.044047663   -3.0179904      1.46067   228862 
 7957000   0.50771557   -3.0177169   -1.5565115  0.039150196   -3.0177169    1.4612054   228836 
 7958000   0.50654011   -3.0145806   -1.5564013  0.037926344   -3.0145806    1.4581793   228780 
 7959000   0.50717003   -3.0154531   -1.5552052  0.040864113   -3.0154531    1.4602479   228740 
 7960000   0.50683973   -3.0166095   -1.5569041  0.040010011   -3.0166095    1.4597053   228676 
 7961000   0.50661601   -3.0179778   -1.5583678  0.041300947   -3.0179778    1.4596099   228590 
 7962000   0.50645222   -3.0195215   -1.5603451  0.038738239   -3.0195215    1.4591764   228584 
 7963000   0.50631773   -3.0219763   -1.5627087  0.036284637   -3.0219763    1.4592676   228509 
 7964000   0.50429635   -3.0159457   -1.5623258  0.043632265   -3.0159457    1.4536199   228481 
 7965000   0.50694785   -3.0217391     -1.55983  0.039996248   -3.0217391     1.461909   228380 
 7966000   0.50788913   -3.0243629    -1.559547  0.042126305   -3.0243629    1.4648159   228350 
 7967000    0.5057562   -3.0214882   -1.5625236  0.042835071   -3.0214882    1.4589645   228303 
 7968000   0.50520264    -3.017966   -1.5604643  0.041305682    -3.017966    1.4575017   228282 
 7969000   0.50643094   -3.0224011   -1.5612021  0.042882641   -3.0224011     1.461199   228258 
 7970000   0.50531971   -3.0214246   -1.5629654  0.042941749   -3.0214246    1.4584592   228185 
 7971000   0.50607968   -3.0218355   -1.5605425  0.037775986   -3.0218355     1.461293   228085 
 7972000   0.50641488   -3.0219698   -1.5596576  0.042408998   -3.0219698    1.4623122   228077 
 7973000   0.50615072   -3.0201892   -1.5583257  0.042045431   -3.0201892    1.4618635   228028 
 7974000   0.50523219   -3.0199551   -1.5602708  0.043581251   -3.0199551    1.4596843   227954 
 7975000    0.5069709   -3.0229526   -1.5578143  0.042590294   -3.0229526    1.4651383   227887 
 7976000   0.50635661   -3.0209779    -1.557101  0.042104822   -3.0209779    1.4638769   227807 
 7977000    0.5056209   -3.0205041   -1.5584974  0.045050846   -3.0205041    1.4620066   227767 
 7978000   0.50443167   -3.0191216   -1.5601244  0.039168401   -3.0191216    1.4589972   227700 
 7979000    0.5054198   -3.0211304   -1.5590826  0.040806552   -3.0211304    1.4620478   227670 
 7980000   0.50436549   -3.0165097   -1.5572105  0.042116246   -3.0165097    1.4592992   227623 
 7981000   0.50488766   -3.0207042   -1.5596824  0.039127217   -3.0207042    1.4610219   227590 
 7982000   0.50527946    -3.015586    -1.553411  0.042270932    -3.015586    1.4621749   227587 
 7983000   0.50598627   -3.0147693   -1.5504461   0.04277636   -3.0147693    1.4643232   227571 
 7984000    0.5046174   -3.0108254     -1.55004  0.043149911   -3.0108254    1.4607854   227505 
 7985000    0.5047455   -3.0117248   -1.5501768  0.039843873   -3.0117248    1.4615481   227444 
 7986000   0.50380699   -3.0099626   -1.5506766  0.035849641   -3.0099626     1.459286   227373 
 7987000   0.50428355   -3.0072815   -1.5463903  0.039301533   -3.0072815    1.4608913   227338 
 7988000   0.50420054   -3.0052834   -1.5443113  0.039077707   -3.0052834    1.4609721   227288 
 7989000    0.5038418   -3.0036112   -1.5434087  0.038905924   -3.0036112    1.4602025   227246 
 7990000   0.50276708   -3.0013706   -1.5439364  0.043709376   -3.0013706    1.4574341   227192 
 7991000   0.50368887   -3.0064215   -1.5457945  0.041846735   -3.0064215     1.460627   227111 
 7992000    0.5034656    -3.004386   -1.5441879  0.039865146    -3.004386    1.4601981   227077 
 7993000    0.5022193   -3.0025262    -1.545654  0.041825158   -3.0025262    1.4568722   227032 
 7994000   0.50149649   -3.0031009   -1.5480371  0.042880399   -3.0031009    1.4550638   226987 
 7995000   0.50263948   -3.0044616   -1.5457023  0.039270225   -3.0044616    1.4587593   226928 
 7996000    0.5018349   -3.0006077   -1.5439266  0.038380905   -3.0006077     1.456681   226888 
 7997000   0.50336058    -3.004049    -1.542366  0.041923847    -3.004049     1.461683   226799 
 7998000   0.50180028   -3.0031594   -1.5456859  0.043912589   -3.0031594    1.4574734   226749 
 7999000   0.50256699   -3.0066793   -1.5465797  0.037791107   -3.0066793    1.4600996   226687 
 8000000    0.5030523    -3.007113   -1.5454035  0.039685379    -3.007113    1.4617094   226656 
Loop time of 8991.35 on 192 procs for 5000000 steps with 226656 atoms

Performance: 240231.013 tau/day, 556.090 timesteps/s
99.1% CPU use with 192 MPI tasks x 1 OpenMP threads

MPI task timing breakdown:
Section |  min time  |  avg time  |  max time  |%varavg|  %CPU | %total
-----------------------------------------------------------------------
Pair    | 965.82     | 2356.6     | 2713.4     |1080.5 |  99.0 | 26.21
Bond    | 3.2034     | 3.3769     | 3.5218     |   4.0 | 100.0 |  0.04
Neigh   | 588.3      | 1139       | 1288.2     | 606.8 |  99.4 | 12.67
Comm    | 1284.2     | 1784.1     | 3802.3     |1784.1 |  98.8 | 19.84
Output  | 285.15     | 289.09     | 289.13     |   1.7 |  98.8 |  3.22
Modify  | 3257.4     | 3339.5     | 3633.6     | 230.3 |  99.2 | 37.14
Other   |            | 79.76      |            |       |       |  0.89

Nlocal:        1180.50 ave        1408 max         839 min
Histogram: 1 1 1 3 8 83 81 8 4 2
Nghost:        2281.07 ave        2819 max        1002 min
Histogram: 24 0 0 0 30 14 4 0 35 85
Neighs:        29412.7 ave       39257 max        2728 min
Histogram: 24 0 2 0 5 7 6 16 81 51

Total # of neighbors = 5647243
Ave neighs/atom = 24.915480
Ave special neighs/atom = 0.0000000
Neighbor list builds = 505000
Dangerous builds = 450000

write_restart   restart_write.dat
System init for write_restart ...
write_data	data.write
System init for write_data ...
WARNING: Not all mixed pair coeffs generated from mixing. Use write_data with 'pair ij' option to store all pair coeffs. (src/write_data.cpp:312)

Total wall time: 2:29:54
