LAMMPS (24 Dec 2020)
OMP_NUM_THREADS environment is not set. Defaulting to 1 thread. (src/comm.cpp:94)
  using 1 OpenMP thread(s) per MPI task
# Simple rigid body system
# needed variables:

units		lj
atom_style	full
dimension 	3
boundary	p p f
pair_style	lj/cut/opt 2.5


variable 	sigma		equal 1.0
variable 	epsilon 	equal 1.0


region		box block 0 80 0 80 0 80
create_box 	3 box
Created orthogonal box = (0.0000000 0.0000000 0.0000000) to (80.000000 80.000000 80.000000)
  2 by 4 by 4 MPI processor grid
lattice 	sc 1.0
Lattice spacing in x,y,z = 1.0000000 1.0000000 1.0000000

create_atoms 	1 region box
Created 512000 atoms
  create_atoms CPU = 0.042 seconds

mass		1 1.0
mass		2 1.0
mass		3 1.0


group		solvent type 1
512000 atoms in group solvent


velocity 	solvent create ${startTemp} 563435 loop geom
velocity 	solvent create 0.5 563435 loop geom

read_data	data.vac add append
Reading data file ...
  orthogonal box = (0.0000000 0.0000000 0.0000000) to (80.000000 80.000000 160.00000)
  2 by 2 by 8 MPI processor grid
Finding 1-2 1-3 1-4 neighbors ...
  special bond factors lj:    0        0        0       
  special bond factors coul:  0        0        0       
     0 = max # of 1-2 neighbors
     0 = max # of 1-3 neighbors
     0 = max # of 1-4 neighbors
     1 = max # of special neighbors
  special bonds CPU = 0.079 seconds
  read_data CPU = 0.088 seconds

neighbor 	0.4 bin

pair_coeff	1 1 1.0 1.0
pair_coeff	2 2 0.0 0.0
pair_coeff	3 3 0.0 0.0
pair_coeff	2 3 0.0 0.0
pair_coeff	1 2*3 0.0 0.0

pair_modify 	shift yes


balance 	1.05 shift z 10 1.05
Balancing ...
Neighbor list info ...
  update every 1 steps, delay 10 steps, check yes
  max neighbors/atom: 2000, page size: 100000
  master list distance cutoff = 2.9
  ghost atom cutoff = 2.9
  binsize = 1.45, bins = 56 56 111
  1 neighbor lists, perpetual/occasional/extra = 1 0 0
  (1) pair lj/cut/opt, perpetual
      attributes: half, newton on
      pair build: half/bin/newton
      stencil: half/bin/3d/newton
      bin: standard
 rebalancing time: 0.017 seconds
  iteration count = 5
  initial/final maximal load/proc = 32000.000 19200.000
  initial/final imbalance factor  = 2.0000000 1.2000000
  x cuts: 0.0000000 0.50000000 1.0000000
  y cuts: 0.0000000 0.50000000 1.0000000
  z cuts: 0.0000000 0.062500000 0.12890625 0.18750000 0.25781250 0.30859375 0.38671875 0.43750000 1.0000000


####################### WALLS ###########################


region	       low block  EDGE EDGE EDGE EDGE 0 2

region 	       top block  EDGE EDGE EDGE EDGE 159 160


delete_atoms   region low
WARNING: Ignoring 'compress yes' for molecular system (src/delete_atoms.cpp:125)
Deleted 19200 atoms, new total = 492800

delete_atoms   region top
WARNING: Ignoring 'compress yes' for molecular system (src/delete_atoms.cpp:125)
Deleted 0 atoms, new total = 492800


variable       epsilonWall equal 2*${epsilon}
variable       epsilonWall equal 2*1

variable       cutoffTop   equal   0.7147*${sigma}
variable       cutoffTop   equal   0.7147*1

variable       cutoffLow   equal   3*${sigma}
variable       cutoffLow   equal   3*1


fix            topWall all wall/lj93 zhi EDGE                ${epsilonWall} ${sigma} ${cutoffTop} units box
fix            topWall all wall/lj93 zhi EDGE                2 ${sigma} ${cutoffTop} units box
fix            topWall all wall/lj93 zhi EDGE                2 1 ${cutoffTop} units box
fix            topWall all wall/lj93 zhi EDGE                2 1 0.7147 units box

fix            lowWall all wall/lj93 zlo EDGE                ${epsilonWall} ${sigma} ${cutoffLow} units box
fix            lowWall all wall/lj93 zlo EDGE                2 ${sigma} ${cutoffLow} units box
fix            lowWall all wall/lj93 zlo EDGE                2 1 ${cutoffLow} units box
fix            lowWall all wall/lj93 zlo EDGE                2 1 3 units box


###################### COMPUTES ##########################

compute        bin1 solvent chunk/atom bin/1d z upper 1.0



######################	FIXES ############################


fix 		peclet solvent ave/chunk 1000 1 1000 bin1 density/number norm 		 none ave one file density.profile

fix 		2 solvent nve

## Thermostat


region		regthermo block EDGE EDGE EDGE EDGE 0 20

group 		thermo dynamic solvent region regthermo every 1000
dynamic group thermo defined

fix 		3 thermo langevin ${startTemp} ${temp} 10 156453
fix 		3 thermo langevin 0.5 ${temp} 10 156453
fix 		3 thermo langevin 0.5 1.3 10 156453



#### Load balancing


fix 		bal all balance 1000 1.05 shift z 10 1.05


############### Diagnostics and computes ###################
#compute 	com cube	  rigid/local	1 mol x y z
#compute 	quat cube	  rigid/local	1 mol quatw quati quatj quatk

thermo 		1000
thermo_style 	custom step temp epair evdwl etotal press pe ke vol

dump		1 all custom 100000 dump.lammpstrj id mol type x y z
dump 		2 all image 10000 image.*.png type type
dump 		3 all movie 1000 movie.avi type type
#dump 		com cube local 1000 dump.*.xyz c_com[*]
#dump		quat cube      local 1000 dump.*.quat c_quat[*]


restart 	500000 restart.dat
timestep 	0.0025
timer 		full
New timer settings: style=full  mode=nosync  timeout=off


run		1000000
Per MPI rank memory allocation (min/avg/max) = 21.45 | 22.19 | 22.73 Mbytes
Step Temp E_pair E_vdwl TotEng Press PotEng KinEng Volume 
       0   0.49998514   -3.2974116   -3.2974116   -2.5474355    8.3319627   -3.2974116   0.74997619      1024000 
    1000     1.426429   -4.8122109   -4.8122109   -2.6725717    3.6893119   -4.8122109    2.1396392      1024000 
    2000    1.3660396   -4.8616819   -4.8616819   -2.8126267     2.470709   -4.8616819    2.0490552      1024000 
    3000    1.2650269   -4.8396414   -4.8396414   -2.9421049    1.6261745   -4.8396414    1.8975365      1024000 
    4000     1.212293   -4.8488186   -4.8488186   -3.0303828   0.71785445   -4.8488186    1.8184358      1024000 
    5000    1.1426789   -4.7879866   -4.7879866   -3.0739717  0.082800477   -4.7879866    1.7140149      1024000 
    6000    1.0639654   -4.6851307   -4.6851307   -3.0891859   -0.2527266   -4.6851307    1.5959449      1024000 
    7000    1.0039748   -4.5962396   -4.5962396   -3.0902805  -0.35784841   -4.5962396    1.5059591      1024000 
    8000   0.98913007   -4.5737353   -4.5737353   -3.0900432  -0.24653403   -4.5737353    1.4836921      1024000 
    9000    1.0009444    -4.596325    -4.596325   -3.0949115  -0.10211268    -4.596325    1.5014136      1024000 
   10000     1.007838   -4.6167466   -4.6167466   -3.1049927 -0.021101134   -4.6167466    1.5117539      1024000 
   11000    1.0074863   -4.6270776   -4.6270776   -3.1158513  0.014069157   -4.6270776    1.5112264      1024000 
   12000    1.0072259   -4.6357649   -4.6357649   -3.1249291   0.04033193   -4.6357649    1.5108358      1024000 
   13000    1.0079226   -4.6454732   -4.6454732   -3.1335924  0.060961669   -4.6454732    1.5118808      1024000 
   14000    1.0088942   -4.6544828   -4.6544828   -3.1411445  0.081498282   -4.6544828    1.5133383      1024000 
   15000    1.0082133   -4.6603239   -4.6603239    -3.148007   0.08887002   -4.6603239    1.5123169      1024000 
   16000    1.0041194   -4.6595706   -4.6595706   -3.1533945  0.090914891   -4.6595706    1.5061761      1024000 
   17000    1.0022511   -4.6617771   -4.6617771   -3.1584035      0.08568   -4.6617771    1.5033736      1024000 
   18000    1.0021859   -4.6664648   -4.6664648    -3.163189  0.090918452   -4.6664648    1.5032758      1024000 
   19000    1.0033565   -4.6717537   -4.6717537    -3.166722   0.10800547   -4.6717537    1.5050317      1024000 
   20000    1.0049019   -4.6774525   -4.6774525   -3.1701027   0.11529376   -4.6774525    1.5073498      1024000 
   21000     1.003525   -4.6785335   -4.6785335   -3.1732491    0.1098599   -4.6785335    1.5052845      1024000 
   22000    1.0032812   -4.6809822   -4.6809822   -3.1760635   0.11114825   -4.6809822    1.5049187      1024000 
   23000    1.0020493   -4.6824733   -4.6824733   -3.1794024   0.11978078   -4.6824733    1.5030709      1024000 
   24000    1.0071644   -4.6938994   -4.6938994   -3.1831558   0.27545008   -4.6938994    1.5107436      1024000 
   25000    1.0203004   -4.7165368   -4.7165368   -3.1860893   0.73236454   -4.7165368    1.5304475      1024000 
   26000    1.0341122   -4.7390179   -4.7390179   -3.1878528   0.98218616   -4.7390179    1.5511652      1024000 
   27000    1.0428514   -4.7537257   -4.7537257   -3.1894518    1.3550053   -4.7537257    1.5642739      1024000 
   28000    1.0459255   -4.7598586   -4.7598586   -3.1909736    1.6128011   -4.7598586     1.568885      1024000 
   29000    1.0243316   -4.7293947   -4.7293947   -3.1929003    1.2777193   -4.7293947    1.5364944      1024000 
   30000    1.0003294    -4.694682    -4.694682   -3.1941909   0.97604877    -4.694682    1.5004911      1024000 
   31000   0.98614896   -4.6745834   -4.6745834   -3.1953629    0.6360152   -4.6745834    1.4792204      1024000 
   32000   0.96138274   -4.6386224   -4.6386224   -3.1965512   0.41684075   -4.6386224    1.4420712      1024000 
   33000   0.92977182   -4.5916858   -4.5916858   -3.1970309   0.23862557   -4.5916858    1.3946549      1024000 
   34000    0.8913896   -4.5355027   -4.5355027    -3.198421  0.063801503   -4.5355027    1.3370817      1024000 
   35000   0.85726456   -4.4849243   -4.4849243   -3.1990301 -0.047376927   -4.4849243    1.2858942      1024000 
   36000   0.83173303   -4.4473306   -4.4473306   -3.1997335 -0.091054356   -4.4473306     1.247597      1024000 
   37000   0.82176247   -4.4334353   -4.4334353   -3.2007941  -0.10663427   -4.4334353    1.2326412      1024000 
   38000   0.82064301   -4.4327831   -4.4327831   -3.2018211 -0.092154967   -4.4327831     1.230962      1024000 
   39000   0.82485839   -4.4405523   -4.4405523   -3.2032672 -0.070350072   -4.4405523    1.2372851      1024000 
   40000   0.83597107   -4.4582871   -4.4582871    -3.204333 -0.033643683   -4.4582871    1.2539541      1024000 
   41000   0.84735116   -4.4764917   -4.4764917   -3.2054675  0.012911093   -4.4764917    1.2710242      1024000 
   42000   0.85933696   -4.4957636   -4.4957636   -3.2067607   0.06192492   -4.4957636    1.2890028      1024000 
   43000   0.86581286    -4.506716    -4.506716   -3.2079993  0.097486999    -4.506716    1.2987167      1024000 
   44000   0.86893409   -4.5125397   -4.5125397   -3.2091412   0.11187933   -4.5125397    1.3033985      1024000 
   45000    0.8708863   -4.5157955   -4.5157955   -3.2094687   0.11351607   -4.5157955    1.3063268      1024000 
   46000   0.86770569   -4.5112388   -4.5112388   -3.2096829   0.10688047   -4.5112388    1.3015559      1024000 
   47000   0.86249807   -4.5045504   -4.5045504   -3.2108059  0.087809699   -4.5045504    1.2937445      1024000 
   48000   0.85694616   -4.4969332   -4.4969332   -3.2115166  0.061149664   -4.4969332    1.2854166      1024000 
   49000    0.8513371   -4.4896005   -4.4896005   -3.2125974  0.042813563   -4.4896005    1.2770031      1024000 
   50000   0.84793149   -4.4856901   -4.4856901   -3.2137954  0.029079245   -4.4856901    1.2718947      1024000 
   51000   0.84618155    -4.484643    -4.484643   -3.2153733  0.034954876    -4.484643    1.2692697      1024000 
   52000    0.8463138   -4.4860373   -4.4860373   -3.2165692  0.030117231   -4.4860373    1.2694681      1024000 
   53000   0.84786195   -4.4895204   -4.4895204   -3.2177301  0.041495378   -4.4895204    1.2717903      1024000 
   54000   0.85228723   -4.4979906   -4.4979906   -3.2195623  0.052106492   -4.4979906    1.2784282      1024000 
   55000   0.85530428   -4.5049025   -4.5049025   -3.2219487  0.064259959   -4.5049025    1.2829538      1024000 
   56000   0.85700415   -4.5093572   -4.5093572   -3.2238535  0.077602905   -4.5093572    1.2855036      1024000 
   57000   0.85901655   -4.5150939   -4.5150939   -3.2265717  0.089905428   -4.5150939    1.2885222      1024000 
   58000   0.85875492    -4.516878    -4.516878   -3.2287482  0.088490918    -4.516878    1.2881298      1024000 
   59000    0.8578028   -4.5174895   -4.5174895   -3.2307879  0.079666233   -4.5174895    1.2867016      1024000 
   60000   0.85605202   -4.5171796   -4.5171796   -3.2331042  0.085295354   -4.5171796    1.2840754      1024000 
   61000   0.85522152   -4.5183769   -4.5183769   -3.2355472  0.082468277   -4.5183769    1.2828297      1024000 
   62000   0.85486829   -4.5209582   -4.5209582   -3.2386584  0.078951263   -4.5209582    1.2822998      1024000 
   63000   0.85383111    -4.522174    -4.522174   -3.2414299  0.079027792    -4.522174    1.2807441      1024000 
   64000    0.8537273   -4.5260138   -4.5260138   -3.2454255  0.092654009   -4.5260138    1.2805884      1024000 
   65000   0.85852724   -4.5378013   -4.5378013   -3.2500131   0.11461373   -4.5378013    1.2877883      1024000 
   66000   0.86474834   -4.5515741   -4.5515741   -3.2544542   0.14915225   -4.5515741    1.2971199      1024000 
   67000   0.87463773   -4.5713992   -4.5713992   -3.2594453   0.21662325   -4.5713992    1.3119539      1024000 
   68000   0.88613189   -4.5950129   -4.5950129   -3.2658178   0.30140125   -4.5950129    1.3291951      1024000 
   69000   0.89399781   -4.6157113   -4.6157113   -3.2747173   0.36569431   -4.6157113     1.340994      1024000 
   70000   0.89558278   -4.6284774   -4.6284774    -3.285106   0.40148768   -4.6284774    1.3433714      1024000 
   71000   0.89230992   -4.6342154   -4.6342154   -3.2957532   0.40429771   -4.6342154    1.3384622      1024000 
   72000   0.88447683   -4.6331807   -4.6331807   -3.3064682    0.4128065   -4.6331807    1.3267125      1024000 
   73000   0.87303339   -4.6327954   -4.6327954    -3.323248   0.44260463   -4.6327954    1.3095474      1024000 
   74000   0.86202832   -4.6404023   -4.6404023   -3.3473625   0.50049906   -4.6404023    1.2930399      1024000 
   75000   0.85342331   -4.6530022   -4.6530022   -3.3728698   0.52070026   -4.6530022    1.2801324      1024000 
   76000   0.84741491   -4.6668014   -4.6668014   -3.3956816   0.51809796   -4.6668014    1.2711198      1024000 
   77000   0.84667455    -4.683824    -4.683824   -3.4138148   0.50428629    -4.683824    1.2700092      1024000 
   78000   0.84938815   -4.7022046   -4.7022046    -3.428125   0.49067239   -4.7022046    1.2740796      1024000 
   79000   0.85388145   -4.7191827   -4.7191827   -3.4383632   0.48873078   -4.7191827    1.2808196      1024000 
   80000    0.8489864   -4.7187854   -4.7187854   -3.4453084   0.47894894   -4.7187854     1.273477      1024000 
   81000   0.83599552   -4.7034243   -4.7034243   -3.4494335   0.37207804   -4.7034243    1.2539907      1024000 
   82000   0.81509313   -4.6755186   -4.6755186   -3.4528814   0.26199019   -4.6755186    1.2226372      1024000 
   83000   0.79661373   -4.6500336   -4.6500336   -3.4551155   0.15941039   -4.6500336    1.1949182      1024000 
   84000   0.77821211   -4.6255427   -4.6255427   -3.4582269  0.086976204   -4.6255427    1.1673158      1024000 
   85000   0.76091831   -4.6021051   -4.6021051   -3.4607299  0.033338158   -4.6021051    1.1413752      1024000 
   86000   0.74566575   -4.5825524   -4.5825524    -3.464056 -0.016937411   -4.5825524    1.1184964      1024000 
   87000   0.73283638   -4.5653039   -4.5653039   -3.4660515 -0.076527329   -4.5653039    1.0992523      1024000 
   88000   0.72158149    -4.549991    -4.549991    -3.467621  -0.13733597    -4.549991      1.08237      1024000 
   89000    0.7128105   -4.5338524   -4.5338524   -3.4646388  -0.17738448   -4.5338524    1.0692136      1024000 
   90000   0.70744023   -4.5216583   -4.5216583   -3.4605001  -0.22062246   -4.5216583    1.0611582      1024000 
   91000    0.7030979   -4.5089792   -4.5089792   -3.4543345  -0.23248663   -4.5089792    1.0546447      1024000 
   92000   0.69993416   -4.4976457   -4.4976457   -3.4477466  -0.23487144   -4.4976457    1.0498991      1024000 
   93000   0.70145476   -4.4938164   -4.4938164   -3.4416364  -0.23692254   -4.4938164      1.05218      1024000 
   94000   0.70428969   -4.4926526   -4.4926526   -3.4362202  -0.22409858   -4.4926526    1.0564324      1024000 
   95000   0.70904673   -4.4949184   -4.4949184   -3.4313505  -0.19958025   -4.4949184    1.0635679      1024000 
   96000   0.71624725   -4.5032422   -4.5032422   -3.4288735  -0.17014495   -4.5032422    1.0743687      1024000 
   97000   0.72351081   -4.5142627   -4.5142627   -3.4289987  -0.13306393   -4.5142627     1.085264      1024000 
   98000   0.72953342   -4.5237377   -4.5237377   -3.4294398 -0.086858561   -4.5237377    1.0942979      1024000 
   99000   0.73789274    -4.539302    -4.539302   -3.4324651 -0.047341192    -4.539302    1.1068369      1024000 
  100000   0.74373414   -4.5530401   -4.5530401   -3.4374411 -0.014275165   -4.5530401     1.115599      1024000 
  101000   0.74710929   -4.5628978   -4.5628978   -3.4422361 0.0093040787   -4.5628978    1.1206617      1024000 
  102000   0.74891648   -4.5708103   -4.5708103   -3.4474379  0.017981744   -4.5708103    1.1233724      1024000 
  103000   0.74756304   -4.5735729   -4.5735729   -3.4522306  0.016633496   -4.5735729    1.1213423      1024000 
  104000   0.74689943   -4.5758119   -4.5758119    -3.455465 0.0081555797   -4.5758119    1.1203469      1024000 
  105000   0.74505337   -4.5762597   -4.5762597   -3.4586819 -0.004292578   -4.5762597    1.1175778      1024000 
  106000   0.74103465     -4.57209     -4.57209   -3.4605403 -0.020790833     -4.57209    1.1115497      1024000 
  107000   0.73891225   -4.5700694   -4.5700694   -3.4617033 -0.025804089   -4.5700694    1.1083661      1024000 
  108000   0.73889975   -4.5707588   -4.5707588   -3.4624114 -0.032763486   -4.5707588    1.1083474      1024000 
  109000   0.73749206   -4.5693552   -4.5693552   -3.4631194 -0.026755298   -4.5693552    1.1062358      1024000 
  110000   0.73934585   -4.5730042   -4.5730042   -3.4639877  -0.02606822   -4.5730042    1.1090165      1024000 
  111000    0.7416049   -4.5770444   -4.5770444   -3.4646394 -0.018253869   -4.5770444    1.1124051      1024000 
  112000   0.74271553   -4.5806157   -4.5806157   -3.4665447 -0.011278084   -4.5806157     1.114071      1024000 
  113000   0.74403175   -4.5836195   -4.5836195   -3.4675741 -0.0041151525   -4.5836195    1.1160454      1024000 
  114000   0.74429479   -4.5851651   -4.5851651   -3.4687252 -0.0035823251   -4.5851651    1.1164399      1024000 
  115000   0.74451751   -4.5869445   -4.5869445   -3.4701705 -0.00078180814   -4.5869445     1.116774      1024000 
  116000   0.74370566   -4.5867285   -4.5867285   -3.4711723  0.003122529   -4.5867285    1.1155562      1024000 
  117000   0.74348092   -4.5888147   -4.5888147   -3.4735955 -0.0031359228   -4.5888147    1.1152191      1024000 
  118000   0.74220108   -4.5879835   -4.5879835   -3.4746842 -0.0027516343   -4.5879835    1.1132994      1024000 
  119000   0.74069731   -4.5873754   -4.5873754   -3.4763317 -0.011012653   -4.5873754    1.1110437      1024000 
  120000   0.74169949   -4.5902015   -4.5902015   -3.4776545 -0.010253395   -4.5902015     1.112547      1024000 
  121000   0.74208398   -4.5921213   -4.5921213   -3.4789976 -0.0068928979   -4.5921213    1.1131237      1024000 
  122000    0.7409459   -4.5917442   -4.5917442   -3.4803276 -0.0061977499   -4.5917442    1.1114166      1024000 
  123000   0.74141024   -4.5937322   -4.5937322   -3.4816191 0.00012752416   -4.5937322    1.1121131      1024000 
  124000   0.74332838   -4.5972913   -4.5972913    -3.482301 0.0023637802   -4.5972913    1.1149903      1024000 
  125000   0.74288596   -4.5978341   -4.5978341   -3.4835074 0.00057436158   -4.5978341    1.1143267      1024000 
  126000    0.7430255   -4.5984205   -4.5984205   -3.4838845 0.0020683413   -4.5984205     1.114536      1024000 
  127000   0.74374479   -4.5996386   -4.5996386   -3.4840237 0.0036813504   -4.5996386    1.1156149      1024000 
  128000   0.74286904   -4.5995726   -4.5995726   -3.4852713 0.0082543642   -4.5995726    1.1143013      1024000 
  129000   0.74171476   -4.5990176   -4.5990176   -3.4864477  0.004932318   -4.5990176    1.1125699      1024000 
  130000   0.74305816   -4.6012454   -4.6012454   -3.4866605 0.0012221756   -4.6012454     1.114585      1024000 
  131000   0.74231785   -4.6013073   -4.6013073   -3.4878328 0.0068969296   -4.6013073    1.1134745      1024000 
  132000   0.74299497   -4.6038656   -4.6038656   -3.4893754 0.00031527541   -4.6038656    1.1144902      1024000 
  133000   0.74203737   -4.6030425   -4.6030425   -3.4899887 0.0036014533   -4.6030425    1.1130538      1024000 
  134000   0.74155185   -4.6030457   -4.6030457   -3.4907202 -0.001548848   -4.6030457    1.1123255      1024000 
  135000   0.74142545   -4.6031968   -4.6031968   -3.4910609 -0.00073470619   -4.6031968    1.1121359      1024000 
  136000    0.7423116   -4.6054754   -4.6054754   -3.4920103 -0.0059012701   -4.6054754    1.1134651      1024000 
  137000   0.74101517   -4.6043747   -4.6043747   -3.4928542 -0.00061579355   -4.6043747    1.1115205      1024000 
  138000   0.74164347   -4.6061922   -4.6061922   -3.4937293 -0.002167753   -4.6061922     1.112463      1024000 
  139000   0.74066822   -4.6053107   -4.6053107   -3.4943106 0.0019523758   -4.6053107    1.1110001      1024000 
  140000   0.74265488   -4.6082615   -4.6082615   -3.4942815 -0.00063720286   -4.6082615    1.1139801      1024000 
  141000   0.74304827   -4.6089138   -4.6089138   -3.4943437 -0.0005830417   -4.6089138    1.1145701      1024000 
  142000   0.74311776   -4.6088906   -4.6088906   -3.4942162 0.0057207439   -4.6088906    1.1146744      1024000 
  143000   0.74295658   -4.6087442   -4.6087442   -3.4943116 0.0075384811   -4.6087442    1.1144326      1024000 
  144000   0.74385865    -4.610931    -4.610931   -3.4951452 0.0083461567    -4.610931    1.1157857      1024000 
  145000   0.74321639   -4.6111259   -4.6111259   -3.4963036 0.0091426878   -4.6111259    1.1148223      1024000 
  146000   0.74435581   -4.6133699   -4.6133699   -3.4968384 0.0084282328   -4.6133699    1.1165315      1024000 
  147000   0.74421592   -4.6131337   -4.6131337   -3.4968121  0.010394655   -4.6131337    1.1163216      1024000 
  148000    0.7451231   -4.6151364   -4.6151364    -3.497454 0.0090349797   -4.6151364    1.1176824      1024000 
  149000   0.74409489   -4.6148069   -4.6148069   -3.4986668  0.014186106   -4.6148069    1.1161401      1024000 
  150000   0.74450952   -4.6153286   -4.6153286   -3.4985666 0.0094956893   -4.6153286     1.116762      1024000 
  151000   0.74520595    -4.617066    -4.617066   -3.4992594  0.010437199    -4.617066    1.1178067      1024000 
  152000   0.74520002   -4.6177587   -4.6177587    -3.499961 0.0078180543   -4.6177587    1.1177978      1024000 
  153000   0.74504991   -4.6167995   -4.6167995    -3.499227  0.011304673   -4.6167995    1.1175726      1024000 
  154000   0.74415956   -4.6163766   -4.6163766   -3.5001395  0.011686449   -4.6163766    1.1162371      1024000 
  155000   0.74409821   -4.6173435   -4.6173435   -3.5011985  0.013586391   -4.6173435    1.1161451      1024000 
  156000   0.74512424    -4.618881    -4.618881   -3.5011969  0.013214982    -4.618881    1.1176841      1024000 
  157000   0.74581419   -4.6200985   -4.6200985   -3.5013795  0.018109351   -4.6200985     1.118719      1024000 
  158000   0.74620903    -4.620275    -4.620275   -3.5009638  0.021062812    -4.620275    1.1193113      1024000 
  159000   0.74772511   -4.6224981   -4.6224981   -3.5009127  0.023568526   -4.6224981    1.1215854      1024000 
  160000   0.74887091   -4.6247951   -4.6247951    -3.501491  0.022343517   -4.6247951    1.1233041      1024000 
  161000   0.74733923   -4.6229093   -4.6229093   -3.5019027  0.033092112   -4.6229093    1.1210066      1024000 
  162000   0.74889257    -4.625483    -4.625483   -3.5021464  0.026548377    -4.625483    1.1233366      1024000 
  163000   0.74880145   -4.6256692   -4.6256692   -3.5024693  0.030985265   -4.6256692    1.1231999      1024000 
  164000   0.75016543   -4.6287001   -4.6287001   -3.5034542  0.031695523   -4.6287001    1.1252459      1024000 
  165000   0.75051279   -4.6290312   -4.6290312   -3.5032643  0.040966857   -4.6290312    1.1257669      1024000 
  166000   0.75040536   -4.6291432   -4.6291432   -3.5035375  0.042585208   -4.6291432    1.1256058      1024000 
  167000   0.75226721   -4.6316968   -4.6316968   -3.5032983  0.049914761   -4.6316968    1.1283985      1024000 
  168000    0.7538283   -4.6341847   -4.6341847   -3.5034446  0.055278253   -4.6341847    1.1307402      1024000 
  169000   0.75479505   -4.6361973   -4.6361973    -3.504007  0.061350608   -4.6361973    1.1321903      1024000 
  170000   0.75464411   -4.6376525   -4.6376525   -3.5056886  0.062643331   -4.6376525    1.1319639      1024000 
  171000   0.75339739   -4.6370947   -4.6370947   -3.5070009   0.06212323   -4.6370947    1.1300938      1024000 
  172000   0.75286612   -4.6376454   -4.6376454   -3.5083485  0.058835378   -4.6376454    1.1292969      1024000 
  173000   0.75260862   -4.6378114   -4.6378114   -3.5089008  0.059269241   -4.6378114    1.1289106      1024000 
  174000   0.75222471   -4.6375761   -4.6375761   -3.5092413  0.053660637   -4.6375761    1.1283348      1024000 
  175000   0.75083888    -4.636729    -4.636729    -3.510473  0.046390177    -4.636729     1.126256      1024000 
  176000   0.74864457   -4.6341968   -4.6341968   -3.5112323  0.040406931   -4.6341968    1.1229646      1024000 
  177000   0.74683727   -4.6315889   -4.6315889   -3.5113353   0.03318932   -4.6315889    1.1202536      1024000 
  178000    0.7466775   -4.6313343   -4.6313343   -3.5113203  0.023223204   -4.6313343     1.120014      1024000 
  179000   0.74550377   -4.6296077   -4.6296077   -3.5113543  0.020341119   -4.6296077    1.1182534      1024000 
  180000   0.74398481   -4.6272141   -4.6272141   -3.5112391 0.0071698878   -4.6272141    1.1159749      1024000 
  181000   0.74335096   -4.6240464   -4.6240464   -3.5090222 0.0035965584   -4.6240464    1.1150242      1024000 
  182000    0.7413308   -4.6197508   -4.6197508   -3.5077568 0.0030910562   -4.6197508    1.1119939      1024000 
  183000   0.74087805    -4.618193    -4.618193   -3.5068782 -0.0045951152    -4.618193    1.1113148      1024000 
  184000   0.73957957   -4.6154099   -4.6154099   -3.5060428 -0.0071830852   -4.6154099    1.1093671      1024000 
  185000   0.73854531   -4.6124247   -4.6124247    -3.504609 -0.011878376   -4.6124247    1.1078157      1024000 
  186000   0.73972457   -4.6130939   -4.6130939   -3.5035093   -0.0169743   -4.6130939    1.1095846      1024000 
  187000   0.73885858   -4.6107718   -4.6107718   -3.5024862 -0.019725789   -4.6107718    1.1082856      1024000 
  188000   0.73922033   -4.6099116   -4.6099116   -3.5010833 -0.020537095   -4.6099116    1.1088282      1024000 
  189000   0.73949803   -4.6100331   -4.6100331   -3.5007883 -0.021733719   -4.6100331    1.1092448      1024000 
  190000   0.73857013   -4.6078098   -4.6078098   -3.4999568 -0.018671517   -4.6078098     1.107853      1024000 
  191000   0.74076164   -4.6102493   -4.6102493   -3.4991091 -0.018949659   -4.6102493    1.1111402      1024000 
  192000   0.74114858   -4.6105205   -4.6105205   -3.4987999 -0.014195284   -4.6105205    1.1117206      1024000 
  193000   0.74175696   -4.6110998   -4.6110998   -3.4984666 -0.0096194147   -4.6110998    1.1126332      1024000 
  194000   0.74144683   -4.6111904   -4.6111904   -3.4990224 -0.007934447   -4.6111904     1.112168      1024000 
  195000   0.74281812   -4.6123404   -4.6123404   -3.4981155 -0.0054550874   -4.6123404    1.1142249      1024000 
  196000   0.74397351   -4.6135334   -4.6135334   -3.4975755 -0.00016970563   -4.6135334     1.115958      1024000 
  197000   0.74370753   -4.6132405   -4.6132405   -3.4976815  0.012332985   -4.6132405     1.115559      1024000 
  198000   0.74499802   -4.6158912   -4.6158912   -3.4983964  0.011659705   -4.6158912    1.1174948      1024000 
  199000   0.74692688   -4.6189387   -4.6189387   -3.4985507   0.01452906   -4.6189387     1.120388      1024000 
  200000    0.7466258     -4.61919     -4.61919   -3.4992536  0.020990363     -4.61919    1.1199364      1024000 
  201000   0.74691654   -4.6204426   -4.6204426   -3.5000701  0.026816465   -4.6204426    1.1203725      1024000 
  202000   0.74922046   -4.6239305   -4.6239305   -3.5001021  0.024251079   -4.6239305    1.1238284      1024000 
  203000   0.74854664   -4.6228464   -4.6228464   -3.5000287  0.034173341   -4.6228464    1.1228177      1024000 
  204000   0.74892207   -4.6246312   -4.6246312   -3.5012504   0.03401521   -4.6246312    1.1233808      1024000 
  205000   0.74903745   -4.6243864   -4.6243864   -3.5008325  0.036770149   -4.6243864    1.1235539      1024000 
  206000   0.74901575   -4.6253135   -4.6253135   -3.5017922  0.034972418   -4.6253135    1.1235213      1024000 
  207000   0.75070901   -4.6273675   -4.6273675   -3.5013063  0.036313688   -4.6273675    1.1260612      1024000 
  208000   0.75095998   -4.6275896   -4.6275896   -3.5011519  0.034553334   -4.6275896    1.1264377      1024000 
  209000   0.75026104   -4.6265208   -4.6265208   -3.5011316  0.035447314   -4.6265208    1.1253893      1024000 
  210000   0.74955316   -4.6253519   -4.6253519   -3.5010244  0.038228585   -4.6253519    1.1243275      1024000 
  211000   0.74924656   -4.6255775   -4.6255775   -3.5017099  0.034902417   -4.6255775    1.1238676      1024000 
  212000   0.74826852   -4.6237086   -4.6237086   -3.5013081  0.033094749   -4.6237086    1.1224005      1024000 
  213000   0.74940012   -4.6246239   -4.6246239    -3.500526  0.024103959   -4.6246239    1.1240979      1024000 
  214000   0.74797721   -4.6228264   -4.6228264   -3.5008628  0.022299552   -4.6228264    1.1219635      1024000 
  215000   0.74688539   -4.6203843   -4.6203843   -3.5000585  0.022208513   -4.6203843    1.1203258      1024000 
  216000     0.745807   -4.6192039   -4.6192039   -3.5004956  0.013422468   -4.6192039    1.1187082      1024000 
  217000   0.74627647   -4.6190677   -4.6190677   -3.4996552 0.0041628394   -4.6190677    1.1194124      1024000 
  218000   0.74581623   -4.6169706   -4.6169706   -3.4982485  0.007385737   -4.6169706    1.1187221      1024000 
  219000   0.74441457   -4.6141903   -4.6141903   -3.4975707 0.0086127208   -4.6141903    1.1166196      1024000 
  220000   0.74435664   -4.6132358   -4.6132358   -3.4967031  0.001758291   -4.6132358    1.1165327      1024000 
  221000   0.74397827    -4.612055    -4.612055   -3.4960899 0.00021793888    -4.612055    1.1159651      1024000 
  222000    0.7425995   -4.6095636   -4.6095636   -3.4956666 0.00050952163   -4.6095636     1.113897      1024000 
  223000   0.74384479   -4.6102576   -4.6102576   -3.4944927 -0.0047624435   -4.6102576    1.1157649      1024000 
  224000   0.74316708   -4.6083753   -4.6083753    -3.493627 -0.0047283216   -4.6083753    1.1147484      1024000 
  225000   0.74389158   -4.6081446   -4.6081446   -3.4923095 -0.0043841874   -4.6081446    1.1158351      1024000 
  226000   0.74357904   -4.6066563   -4.6066563     -3.49129 -0.0010219398   -4.6066563    1.1153663      1024000 
  227000   0.74495395   -4.6075624   -4.6075624   -3.4901338 -0.0038131797   -4.6075624    1.1174287      1024000 
  228000   0.74475211   -4.6061515   -4.6061515   -3.4890256 -0.00020823544   -4.6061515    1.1171259      1024000 
  229000   0.74415023   -4.6049129   -4.6049129   -3.4886898 -0.0012430529   -4.6049129    1.1162231      1024000 
  230000   0.74595154   -4.6068961   -4.6068961   -3.4879711 0.00013831152   -4.6068961     1.118925      1024000 
  231000   0.74641278    -4.607159    -4.607159   -3.4875421 0.0036482735    -4.607159    1.1196169      1024000 
  232000   0.74629231   -4.6066494   -4.6066494   -3.4872132 0.0088551542   -4.6066494    1.1194362      1024000 
  233000   0.74735219   -4.6073256   -4.6073256   -3.4862996 0.0075028252   -4.6073256     1.121026      1024000 
  234000   0.74753249    -4.606561    -4.606561   -3.4852646  0.011449895    -4.606561    1.1212965      1024000 
  235000   0.74758048   -4.6075564   -4.6075564   -3.4861879 0.0097528086   -4.6075564    1.1213684      1024000 
  236000   0.74854774   -4.6086932   -4.6086932   -3.4858739  0.012684339   -4.6086932    1.1228193      1024000 
  237000   0.74938354   -4.6096134   -4.6096134   -3.4855403  0.017393094   -4.6096134     1.124073      1024000 
  238000   0.74876253   -4.6080791   -4.6080791   -3.4849376   0.02319088   -4.6080791    1.1231415      1024000 
  239000   0.75083887   -4.6100413   -4.6100413   -3.4837853  0.022514736   -4.6100413     1.126256      1024000 
  240000   0.74985911   -4.6077841   -4.6077841   -3.4829977   0.02505393   -4.6077841    1.1247864      1024000 
  241000   0.75185464   -4.6101051   -4.6101051   -3.4823254  0.021269548   -4.6101051    1.1277797      1024000 
  242000   0.75141901   -4.6098702   -4.6098702   -3.4827439  0.021894928   -4.6098702    1.1271262      1024000 
  243000   0.75020713   -4.6080962   -4.6080962   -3.4827877  0.027084822   -4.6080962    1.1253084      1024000 
  244000   0.75171454   -4.6100542   -4.6100542   -3.4824846  0.020799242   -4.6100542    1.1275695      1024000 
  245000   0.75212932   -4.6098354   -4.6098354   -3.4816437   0.02266294   -4.6098354    1.1281917      1024000 
  246000   0.75106818   -4.6081632   -4.6081632   -3.4815632  0.024517922   -4.6081632       1.1266      1024000 
  247000   0.74996523   -4.6070651   -4.6070651   -3.4821195  0.023891132   -4.6070651    1.1249456      1024000 
  248000   0.74986363   -4.6076275   -4.6076275   -3.4828343   0.01829487   -4.6076275    1.1247932      1024000 
  249000   0.74870184   -4.6049397   -4.6049397   -3.4818892  0.023407228   -4.6049397    1.1230505      1024000 
  250000   0.74950572   -4.6055089   -4.6055089   -3.4812526  0.018470691   -4.6055089    1.1242563      1024000 
  251000   0.74870812   -4.6043503   -4.6043503   -3.4812904  0.018068254   -4.6043503    1.1230599      1024000 
  252000   0.74825989   -4.6027682   -4.6027682   -3.4803806  0.017899727   -4.6027682    1.1223876      1024000 
  253000   0.74902812   -4.6031888   -4.6031888   -3.4796489  0.016140824   -4.6031888    1.1235399      1024000 
  254000   0.74977732   -4.6030379   -4.6030379   -3.4783742 0.0091711784   -4.6030379    1.1246637      1024000 
  255000   0.74981449   -4.6022477   -4.6022477   -3.4775282 0.0084487537   -4.6022477    1.1247194      1024000 
  256000   0.74915639   -4.6003548   -4.6003548   -3.4766225 0.0071554497   -4.6003548    1.1237323      1024000 
  257000   0.74895088   -4.5982686   -4.5982686   -3.4748445  0.012440789   -4.5982686     1.123424      1024000 
  258000   0.75005502   -4.5980378   -4.5980378   -3.4729576  0.010987998   -4.5980378    1.1250802      1024000 
  259000   0.75140236   -4.5979589   -4.5979589   -3.4708577  0.010929413   -4.5979589    1.1271013      1024000 
  260000   0.75043117   -4.5961533   -4.5961533   -3.4705088   0.01041805   -4.5961533    1.1256445      1024000 
  261000   0.74999504   -4.5940175   -4.5940175   -3.4690272  0.014947682   -4.5940175    1.1249903      1024000 
  262000   0.75040375   -4.5944246   -4.5944246   -3.4688213  0.010325957   -4.5944246    1.1256033      1024000 
  263000   0.75129271   -4.5945503   -4.5945503   -3.4676136 0.0085772478   -4.5945503    1.1269368      1024000 
  264000   0.75027592   -4.5918046   -4.5918046    -3.466393  0.014234035   -4.5918046    1.1254116      1024000 
  265000   0.75051458   -4.5913762   -4.5913762   -3.4656066  0.014996069   -4.5913762    1.1257696      1024000 
  266000   0.75049589   -4.5909942   -4.5909942   -3.4652526  0.012557939   -4.5909942    1.1257415      1024000 
  267000   0.75069418   -4.5904918   -4.5904918   -3.4644528   0.01083575   -4.5904918     1.126039      1024000 
  268000   0.75083086   -4.5902571   -4.5902571   -3.4640131  0.010941618   -4.5902571     1.126244      1024000 
  269000   0.75225987   -4.5914447   -4.5914447   -3.4630571 0.0069645663   -4.5914447    1.1283875      1024000 
  270000   0.75215579   -4.5895402   -4.5895402   -3.4613088 0.0083762803   -4.5895402    1.1282314      1024000 
  271000   0.75251565    -4.588733    -4.588733   -3.4599618   0.01138902    -4.588733    1.1287712      1024000 
  272000   0.75274377   -4.5888501   -4.5888501   -3.4597367  0.010251389   -4.5888501    1.1291134      1024000 
  273000   0.75268319   -4.5884682   -4.5884682   -3.4594457  0.014298659   -4.5884682    1.1290225      1024000 
  274000   0.75226669   -4.5867809   -4.5867809   -3.4583832  0.018751489   -4.5867809    1.1283977      1024000 
  275000   0.75346718   -4.5867416   -4.5867416   -3.4565432  0.017023813   -4.5867416    1.1301985      1024000 
  276000   0.75473941   -4.5876571   -4.5876571   -3.4555503  0.012915574   -4.5876571    1.1321068      1024000 
  277000   0.75458043   -4.5866451   -4.5866451   -3.4547768  0.011884401   -4.5866451    1.1318683      1024000 
  278000   0.75411577   -4.5859748   -4.5859748   -3.4548035  0.013704312   -4.5859748    1.1311714      1024000 
  279000   0.75302782   -4.5845055   -4.5845055   -3.4549661  0.013697961   -4.5845055    1.1295394      1024000 
  280000     0.753592   -4.5854701   -4.5854701   -3.4550844 0.0097419653   -4.5854701    1.1303857      1024000 
  281000   0.75394651   -4.5854759   -4.5854759   -3.4545584 0.0074239467   -4.5854759    1.1309175      1024000 
  282000   0.75346174   -4.5837873   -4.5837873   -3.4535969  0.013099216   -4.5837873    1.1301903      1024000 
  283000   0.75456954   -4.5841337   -4.5841337   -3.4522817 0.0070915666   -4.5841337     1.131852      1024000 
  284000   0.75397457    -4.581802    -4.581802   -3.4508424  0.012897596    -4.581802    1.1309596      1024000 
  285000   0.75362206   -4.5813761   -4.5813761   -3.4509453  0.010273173   -4.5813761    1.1304308      1024000 
  286000   0.75391774   -4.5808317   -4.5808317   -3.4499574  0.013803501   -4.5808317    1.1308743      1024000 
  287000   0.75439876   -4.5805568   -4.5805568   -3.4489609   0.01125881   -4.5805568    1.1315958      1024000 
  288000   0.75468633   -4.5793745   -4.5793745   -3.4473473   0.01815245   -4.5793745    1.1320272      1024000 
  289000   0.75517426   -4.5799802   -4.5799802   -3.4472211  0.013139452   -4.5799802    1.1327591      1024000 
  290000   0.75581671   -4.5796757   -4.5796757   -3.4459529  0.015869424   -4.5796757    1.1337228      1024000 
  291000   0.75569723    -4.579269    -4.579269   -3.4457255  0.017502739    -4.579269    1.1335435      1024000 
  292000   0.75504101   -4.5769135   -4.5769135   -3.4443543  0.015560372   -4.5769135    1.1325592      1024000 
  293000   0.75651479   -4.5777022   -4.5777022   -3.4429323  0.014036389   -4.5777022    1.1347699      1024000 
  294000   0.75582135   -4.5756338   -4.5756338    -3.441904  0.017494371   -4.5756338    1.1337297      1024000 
  295000   0.75629039   -4.5749915   -4.5749915   -3.4405582   0.01451395   -4.5749915    1.1344333      1024000 
  296000    0.7566422   -4.5751956   -4.5751956   -3.4402346  0.013002931   -4.5751956     1.134961      1024000 
  297000   0.75670137   -4.5744211   -4.5744211   -3.4393714  0.014883745   -4.5744211    1.1350498      1024000 
  298000   0.75610727     -4.57257     -4.57257   -3.4384114  0.016605606     -4.57257    1.1341586      1024000 
  299000   0.75678753    -4.572617    -4.572617   -3.4374381  0.014186309    -4.572617     1.135179      1024000 
  300000   0.75769752    -4.572857    -4.572857    -3.436313  0.012237218    -4.572857     1.136544      1024000 
  301000    0.7585008   -4.5725536   -4.5725536   -3.4348047  0.016713313   -4.5725536    1.1377489      1024000 
  302000   0.75733261   -4.5696407   -4.5696407   -3.4336441  0.022301276   -4.5696407    1.1359966      1024000 
  303000   0.75761519   -4.5690561   -4.5690561   -3.4326356  0.020756747   -4.5690561    1.1364205      1024000 
  304000   0.75713209   -4.5671138   -4.5671138    -3.431418  0.017249116   -4.5671138    1.1356958      1024000 
  305000   0.75766888   -4.5667273   -4.5667273   -3.4302263  0.015279644   -4.5667273     1.136501      1024000 
  306000   0.75719965   -4.5653518   -4.5653518   -3.4295546  0.018430848   -4.5653518    1.1357972      1024000 
  307000     0.758322   -4.5656901   -4.5656901   -3.4282094  0.011468344   -4.5656901    1.1374807      1024000 
  308000   0.75809476   -4.5637229   -4.5637229    -3.426583  0.014825176   -4.5637229    1.1371398      1024000 
  309000   0.75687525   -4.5620232   -4.5620232   -3.4267126 0.0097040489   -4.5620232    1.1353106      1024000 
  310000   0.75764492   -4.5622525   -4.5622525   -3.4257874 0.0058856244   -4.5622525    1.1364651      1024000 
  311000   0.75758923   -4.5617654   -4.5617654   -3.4253839 0.0083490799   -4.5617654    1.1363815      1024000 
  312000   0.75758191   -4.5601102   -4.5601102   -3.4237397 0.0070252224   -4.5601102    1.1363706      1024000 
  313000   0.75872171   -4.5606436   -4.5606436   -3.4225633  0.009879967   -4.5606436    1.1380803      1024000 
  314000   0.75834365   -4.5589497   -4.5589497   -3.4214366  0.011181165   -4.5589497    1.1375132      1024000 
  315000   0.75953643   -4.5596557   -4.5596557   -3.4203534 0.0087470865   -4.5596557    1.1393023      1024000 
  316000   0.75962624   -4.5590503   -4.5590503   -3.4196133  0.007076471   -4.5590503     1.139437      1024000 
  317000   0.75992982   -4.5578726   -4.5578726   -3.4179801 0.0061523567   -4.5578726    1.1398924      1024000 
  318000    0.7602125   -4.5567593   -4.5567593   -3.4164428   0.01080477   -4.5567593    1.1403164      1024000 
  319000   0.76057191   -4.5563955   -4.5563955   -3.4155399 0.0075917873   -4.5563955    1.1408555      1024000 
  320000    0.7605994   -4.5550748   -4.5550748   -3.4141781  0.011719548   -4.5550748    1.1408968      1024000 
  321000   0.76106971   -4.5540115   -4.5540115   -3.4124093  0.014100343   -4.5540115    1.1416023      1024000 
  322000   0.76019672   -4.5514789   -4.5514789   -3.4111861  0.016560661   -4.5514789    1.1402928      1024000 
  323000   0.76152241   -4.5523699   -4.5523699   -3.4100886  0.013925836   -4.5523699    1.1422813      1024000 
  324000     0.762238   -4.5522315   -4.5522315   -3.4088768  0.014287094   -4.5522315    1.1433547      1024000 
  325000   0.76202971   -4.5510299   -4.5510299   -3.4079876   0.01246438   -4.5510299    1.1430422      1024000 
  326000   0.76275326    -4.551919    -4.551919   -3.4077915  0.015028454    -4.551919    1.1441276      1024000 
  327000   0.76205407   -4.5501365   -4.5501365   -3.4070577  0.015430378   -4.5501365    1.1430788      1024000 
  328000    0.7622885   -4.5490983   -4.5490983   -3.4056679  0.016571771   -4.5490983    1.1434304      1024000 
  329000    0.7631315   -4.5484567   -4.5484567   -3.4037618  0.015628669   -4.5484567    1.1446949      1024000 
  330000   0.76246858   -4.5476167   -4.5476167   -3.4039162  0.017140143   -4.5476167    1.1437006      1024000 
  331000   0.76283671   -4.5473429   -4.5473429   -3.4030901  0.011134165   -4.5473429    1.1442527      1024000 
  332000    0.7629385   -4.5455763   -4.5455763   -3.4011709  0.015138279   -4.5455763    1.1444054      1024000 
  333000   0.76490069    -4.546812    -4.546812   -3.3994633  0.012318987    -4.546812    1.1473487      1024000 
  334000   0.76341588   -4.5437979   -4.5437979   -3.3986764  0.014198669   -4.5437979    1.1451215      1024000 
  335000   0.76341117   -4.5429476   -4.5429476   -3.3978331   0.01446724   -4.5429476    1.1451144      1024000 
  336000   0.76449816   -4.5435196   -4.5435196   -3.3967746  0.017603842   -4.5435196    1.1467449      1024000 
  337000   0.76426725   -4.5421091   -4.5421091   -3.3957105  0.014755065   -4.5421091    1.1463986      1024000 
  338000    0.7654718   -4.5424294   -4.5424294   -3.3942241  0.014406282   -4.5424294    1.1482054      1024000 
  339000      0.76394   -4.5397057   -4.5397057    -3.393798   0.01483956   -4.5397057    1.1459077      1024000 
  340000   0.76351983   -4.5382605   -4.5382605   -3.3929831  0.017323261   -4.5382605    1.1452774      1024000 
  341000   0.76352982   -4.5370754   -4.5370754    -3.391783   0.01421939   -4.5370754    1.1452924      1024000 
  342000   0.76380801   -4.5364813   -4.5364813   -3.3907716  0.015667216   -4.5364813    1.1457097      1024000 
  343000   0.76384791   -4.5359187   -4.5359187   -3.3901491  0.011338059   -4.5359187    1.1457695      1024000 
  344000   0.76413514   -4.5344682   -4.5344682   -3.3882678  0.014061944   -4.5344682    1.1462004      1024000 
  345000   0.76442971   -4.5335367   -4.5335367   -3.3868945  0.012437855   -4.5335367    1.1466422      1024000 
  346000   0.76526502   -4.5339245   -4.5339245   -3.3860293  0.010549965   -4.5339245    1.1478952      1024000 
  347000    0.7649742   -4.5323538   -4.5323538   -3.3848948  0.012673172   -4.5323538     1.147459      1024000 
  348000   0.76540185   -4.5321947   -4.5321947   -3.3840943  0.016953968   -4.5321947    1.1481004      1024000 
  349000   0.76648965   -4.5323253   -4.5323253   -3.3825932  0.014719557   -4.5323253    1.1497321      1024000 
  350000   0.76719998    -4.531793    -4.531793   -3.3809954  0.014155185    -4.531793    1.1507976      1024000 
  351000   0.76709709   -4.5302092   -4.5302092   -3.3795659  0.015220384   -4.5302092    1.1506433      1024000 
  352000   0.76742045   -4.5290968   -4.5290968   -3.3779684  0.015530139   -4.5290968    1.1511283      1024000 
  353000   0.76750063   -4.5280886   -4.5280886     -3.37684  0.012267995   -4.5280886    1.1512486      1024000 
  354000   0.76727372   -4.5265528   -4.5265528   -3.3756446   0.00965067   -4.5265528    1.1509082      1024000 
  355000    0.7664464   -4.5242189   -4.5242189   -3.3745517  0.016909442   -4.5242189    1.1496673      1024000 
  356000   0.76786362   -4.5247568   -4.5247568   -3.3729637 0.0093727091   -4.5247568    1.1517931      1024000 
  357000   0.76830501   -4.5244054   -4.5244054   -3.3719502   0.01097589   -4.5244054    1.1524552      1024000 
  358000    0.7683493   -4.5241386   -4.5241386   -3.3716169  0.012200163   -4.5241386    1.1525216      1024000 
  359000   0.76845688   -4.5231608   -4.5231608   -3.3704778  0.011920896   -4.5231608     1.152683      1024000 
  360000   0.76959945   -4.5239005   -4.5239005   -3.3695037 0.0092314224   -4.5239005    1.1543968      1024000 
  361000   0.76845386   -4.5204433   -4.5204433   -3.3677648  0.011617536   -4.5204433    1.1526784      1024000 
  362000   0.76893409   -4.5192446   -4.5192446   -3.3658458  0.016077899   -4.5192446    1.1533988      1024000 
  363000   0.76951299   -4.5189573   -4.5189573   -3.3646902  0.013756918   -4.5189573    1.1542671      1024000 
  364000    0.7686257   -4.5160508   -4.5160508   -3.3631146  0.020446705   -4.5160508    1.1529362      1024000 
  365000   0.76869535   -4.5149705   -4.5149705   -3.3619299  0.016651792   -4.5149705    1.1530407      1024000 
  366000   0.76901591   -4.5132698   -4.5132698   -3.3597483  0.017464757   -4.5132698    1.1535215      1024000 
  367000   0.77011852   -4.5135254   -4.5135254   -3.3583499  0.011780275   -4.5135254    1.1551754      1024000 
  368000   0.76976267   -4.5123218   -4.5123218   -3.3576801  0.014400796   -4.5123218    1.1546417      1024000 
  369000   0.76977635   -4.5119598   -4.5119598   -3.3572976  0.013980873   -4.5119598    1.1546622      1024000 
  370000   0.77113768   -4.5126232   -4.5126232    -3.355919  0.011022344   -4.5126232    1.1567042      1024000 
  371000   0.77047899   -4.5098413   -4.5098413   -3.3541252  0.015709714   -4.5098413    1.1557161      1024000 
  372000   0.77136539   -4.5102078   -4.5102078    -3.353162  0.010902232   -4.5102078    1.1570457      1024000 
  373000   0.77085025   -4.5078172   -4.5078172   -3.3515441  0.011739016   -4.5078172     1.156273      1024000 
  374000   0.77121717   -4.5073835   -4.5073835   -3.3505601 0.0073044249   -4.5073835    1.1568234      1024000 
  375000   0.77126302    -4.505445    -4.505445   -3.3485528  0.010356015    -4.505445    1.1568922      1024000 
  376000   0.77131346   -4.5036242   -4.5036242   -3.3466564 0.0087255889   -4.5036242    1.1569678      1024000 
  377000   0.77186878   -4.5042413   -4.5042413   -3.3464405 0.0091757259   -4.5042413    1.1578008      1024000 
  378000   0.77141753   -4.5016571   -4.5016571   -3.3445332  0.017978477   -4.5016571    1.1571239      1024000 
  379000   0.77365991   -4.5039697   -4.5039697   -3.3434822  0.011971013   -4.5039697    1.1604875      1024000 
  380000   0.77216861   -4.5004949   -4.5004949   -3.3422443  0.016083925   -4.5004949    1.1582506      1024000 
  381000   0.77265464   -4.5001037   -4.5001037   -3.3411241  0.012808181   -4.5001037    1.1589796      1024000 
  382000   0.77374905   -4.4998161   -4.4998161   -3.3391949  0.014063809   -4.4998161    1.1606212      1024000 
  383000   0.77433461   -4.4986814   -4.4986814   -3.3371818   0.01504786   -4.4986814    1.1614996      1024000 
  384000   0.77452904   -4.4983308   -4.4983308   -3.3365396  0.013031725   -4.4983308    1.1617912      1024000 
  385000   0.77528155   -4.4971495   -4.4971495   -3.3342295  0.012333907   -4.4971495      1.16292      1024000 
  386000   0.77450316   -4.4946248   -4.4946248   -3.3328724  0.019352364   -4.4946248    1.1617524      1024000 
  387000   0.77544829   -4.4945079   -4.4945079   -3.3313379  0.015721361   -4.4945079    1.1631701      1024000 
  388000   0.77604016   -4.4940673   -4.4940673   -3.3300095  0.014879511   -4.4940673    1.1640579      1024000 
  389000   0.77569445   -4.4926136   -4.4926136   -3.3290743  0.013831203   -4.4926136    1.1635393      1024000 
  390000   0.77578064   -4.4915426   -4.4915426    -3.327874  0.013042675   -4.4915426    1.1636686      1024000 
  391000   0.77579144   -4.4904498   -4.4904498    -3.326765  0.012085894   -4.4904498    1.1636848      1024000 
  392000   0.77541685   -4.4899915   -4.4899915   -3.3268686  0.013979012   -4.4899915    1.1631229      1024000 
  393000   0.77600152   -4.4880785   -4.4880785   -3.3240786  0.014867486   -4.4880785    1.1639999      1024000 
  394000   0.77598843   -4.4871089   -4.4871089   -3.3231286  0.012382151   -4.4871089    1.1639803      1024000 
  395000   0.77625597   -4.4862331   -4.4862331   -3.3218515  0.012456724   -4.4862331    1.1643816      1024000 
  396000   0.77637699   -4.4849467   -4.4849467   -3.3203836  0.012837468   -4.4849467    1.1645631      1024000 
  397000   0.77600847   -4.4825393   -4.4825393    -3.318529  0.016725059   -4.4825393    1.1640103      1024000 
  398000   0.77757487   -4.4831052   -4.4831052   -3.3167453  0.013687043   -4.4831052    1.1663599      1024000 
  399000   0.77777233    -4.482126    -4.482126   -3.3154699  0.018596079    -4.482126    1.1666561      1024000 
  400000   0.77828717   -4.4814436   -4.4814436   -3.3140152   0.01870913   -4.4814436    1.1674284      1024000 
  401000   0.77973803   -4.4822306   -4.4822306    -3.312626  0.011505725   -4.4822306    1.1696047      1024000 
  402000   0.77781775   -4.4786475   -4.4786475   -3.3119232  0.017290504   -4.4786475    1.1667243      1024000 
  403000   0.77940961   -4.4802837   -4.4802837   -3.3111717 0.0077313556   -4.4802837     1.169112      1024000 
  404000   0.77892204   -4.4776324   -4.4776324   -3.3092518  0.014908921   -4.4776324    1.1683807      1024000 
  405000   0.77954764   -4.4762335   -4.4762335   -3.3069144  0.020255538   -4.4762335    1.1693191      1024000 
  406000   0.77996125   -4.4754632   -4.4754632   -3.3055237  0.016316235   -4.4754632    1.1699395      1024000 
  407000   0.77962103   -4.4743715   -4.4743715   -3.3049423    0.0165278   -4.4743715    1.1694292      1024000 
  408000   0.77857412    -4.471719    -4.471719   -3.3038602  0.012681388    -4.471719    1.1678588      1024000 
  409000   0.77911959   -4.4714495   -4.4714495   -3.3027725  0.010814605   -4.4714495     1.168677      1024000 
  410000   0.77970927   -4.4701242   -4.4701242   -3.3005627  0.012479853   -4.4701242    1.1695615      1024000 
  411000   0.77877082   -4.4670468   -4.4670468   -3.2988929  0.019661366   -4.4670468    1.1681539      1024000 
  412000   0.78070499   -4.4685014   -4.4685014   -3.2974463  0.012772891   -4.4685014    1.1710551      1024000 
  413000   0.78119501    -4.467588    -4.467588   -3.2957978 0.0073616381    -4.467588    1.1717901      1024000 
  414000   0.78078978   -4.4648871   -4.4648871   -3.2937048  0.016228897   -4.4648871    1.1711823      1024000 
  415000   0.78188032   -4.4649272   -4.4649272   -3.2921091  0.009238194   -4.4649272    1.1728181      1024000 
  416000   0.78194152   -4.4644672   -4.4644672   -3.2915573  0.010536361   -4.4644672    1.1729099      1024000 
  417000   0.78178958   -4.4632692   -4.4632692   -3.2905872  0.010125773   -4.4632692     1.172682      1024000 
  418000   0.78227841   -4.4618887   -4.4618887   -3.2884735  0.013792455   -4.4618887    1.1734152      1024000 
  419000   0.78123617   -4.4582916   -4.4582916   -3.2864397  0.015061793   -4.4582916    1.1718519      1024000 
  420000   0.78218314   -4.4582528   -4.4582528   -3.2849805  0.019288512   -4.4582528    1.1732723      1024000 
  421000   0.78222331   -4.4580359   -4.4580359   -3.2847033  0.010529912   -4.4580359    1.1733326      1024000 
  422000   0.78213063   -4.4555912   -4.4555912   -3.2823976 0.0094475924   -4.4555912    1.1731936      1024000 
  423000   0.78286194   -4.4550073   -4.4550073   -3.2807168 0.0069457176   -4.4550073    1.1742905      1024000 
  424000   0.78298213   -4.4544464   -4.4544464   -3.2799756 0.0084797331   -4.4544464    1.1744708      1024000 
  425000   0.78326106   -4.4529794   -4.4529794   -3.2780902 0.0092095552   -4.4529794    1.1748892      1024000 
  426000   0.78405548   -4.4526835   -4.4526835   -3.2766026    0.0106913   -4.4526835    1.1760808      1024000 
  427000   0.78407042   -4.4507828   -4.4507828   -3.2746796  0.014974782   -4.4507828    1.1761032      1024000 
  428000   0.78541212   -4.4504881   -4.4504881   -3.2723723  0.013645224   -4.4504881    1.1781158      1024000 
  429000    0.7856527   -4.4491658   -4.4491658   -3.2706892  0.012626894   -4.4491658    1.1784767      1024000 
  430000    0.7856942    -4.447555    -4.447555   -3.2690161   0.01271967    -4.447555    1.1785389      1024000 
  431000   0.78562434   -4.4462047   -4.4462047   -3.2677706  0.015418223   -4.4462047    1.1784341      1024000 
  432000   0.78609239    -4.445354    -4.445354   -3.2662178  0.013721589    -4.445354    1.1791362      1024000 
  433000   0.78674107   -4.4449483   -4.4449483   -3.2648391  0.014762765   -4.4449483    1.1801092      1024000 
  434000   0.78702295   -4.4431289   -4.4431289   -3.2625969  0.016141353   -4.4431289     1.180532      1024000 
  435000   0.78746813   -4.4422174   -4.4422174   -3.2610176  0.013171151   -4.4422174    1.1811998      1024000 
  436000   0.78737649   -4.4414456   -4.4414456   -3.2603833  0.013435293   -4.4414456    1.1810623      1024000 
  437000   0.78732893   -4.4397046   -4.4397046   -3.2587136  0.011044865   -4.4397046     1.180991      1024000 
  438000    0.7856756   -4.4356192   -4.4356192   -3.2571082  0.013985237   -4.4356192     1.178511      1024000 
  439000   0.78770058   -4.4365897   -4.4365897   -3.2550412  0.012429702   -4.4365897    1.1815485      1024000 
  440000   0.78818161   -4.4367516   -4.4367516   -3.2544815   0.01387998   -4.4367516      1.18227      1024000 
  441000   0.78798114    -4.435482    -4.435482   -3.2535127  0.013578153    -4.435482    1.1819693      1024000 
  442000   0.78794597   -4.4337917   -4.4337917   -3.2518752  0.014822463   -4.4337917    1.1819166      1024000 
  443000   0.78918505   -4.4344237   -4.4344237   -3.2506485 0.0093045169   -4.4344237    1.1837752      1024000 
  444000   0.78922431   -4.4325101   -4.4325101   -3.2486761 0.0093113541   -4.4325101    1.1838341      1024000 
  445000   0.78960621   -4.4306761   -4.4306761   -3.2462692  0.014346882   -4.4306761    1.1844069      1024000 
  446000    0.7894736   -4.4288294   -4.4288294   -3.2446214  0.017102005   -4.4288294     1.184208      1024000 
  447000   0.79096134   -4.4294035   -4.4294035   -3.2429639  0.013827609   -4.4294035    1.1864396      1024000 
  448000   0.78966736   -4.4265042   -4.4265042   -3.2420056  0.014462579   -4.4265042    1.1844986      1024000 
  449000   0.78991103    -4.425984    -4.425984   -3.2411198  0.011663935    -4.425984    1.1848641      1024000 
  450000   0.79005509   -4.4254825   -4.4254825   -3.2404023  0.015181882   -4.4254825    1.1850802      1024000 
  451000   0.79039673   -4.4247781   -4.4247781   -3.2391854  0.012152983   -4.4247781    1.1855927      1024000 
  452000   0.79130803   -4.4239077   -4.4239077    -3.236948  0.014057234   -4.4239077    1.1869596      1024000 
  453000   0.79091181   -4.4219985   -4.4219985   -3.2356332  0.016280143   -4.4219985    1.1863653      1024000 
  454000   0.79041668   -4.4207248   -4.4207248   -3.2351022  0.014541865   -4.4207248    1.1856226      1024000 
  455000   0.79020783    -4.418938    -4.418938   -3.2336286  0.013404982    -4.418938    1.1853093      1024000 
  456000   0.79112117   -4.4179676   -4.4179676   -3.2312883   0.01523933   -4.4179676    1.1866794      1024000 
  457000   0.79076541   -4.4163754   -4.4163754   -3.2302297  0.011280278   -4.4163754    1.1861457      1024000 
  458000    0.7929901   -4.4176581   -4.4176581   -3.2281754   0.01064527   -4.4176581    1.1894827      1024000 
  459000   0.79268363   -4.4162594   -4.4162594   -3.2272364  0.010252299   -4.4162594     1.189023      1024000 
  460000   0.79278385   -4.4147857   -4.4147857   -3.2256123  0.013813099   -4.4147857    1.1891734      1024000 
  461000   0.79316829   -4.4129801   -4.4129801   -3.2232301  0.015916864   -4.4129801      1.18975      1024000 
  462000   0.79551128    -4.414146    -4.414146   -3.2208815  0.015262817    -4.414146    1.1932645      1024000 
  463000   0.79515359   -4.4121088   -4.4121088   -3.2193809  0.013733315   -4.4121088     1.192728      1024000 
  464000   0.79457778   -4.4097712   -4.4097712   -3.2179069  0.019172676   -4.4097712    1.1918642      1024000 
  465000   0.79515318   -4.4100669   -4.4100669   -3.2173396  0.014081309   -4.4100669    1.1927274      1024000 
  466000   0.79525435   -4.4085792   -4.4085792   -3.2157001  0.015198786   -4.4085792    1.1928791      1024000 
  467000   0.79559213   -4.4068205   -4.4068205   -3.2134348  0.014075314   -4.4068205    1.1933858      1024000 
  468000   0.79599848   -4.4066873   -4.4066873    -3.212692  0.018211911   -4.4066873    1.1939953      1024000 
  469000   0.79573242   -4.4054357   -4.4054357   -3.2118395  0.018104216   -4.4054357    1.1935962      1024000 
  470000   0.79581378   -4.4043835   -4.4043835   -3.2106653  0.015576167   -4.4043835    1.1937182      1024000 
  471000   0.79550019   -4.4015906   -4.4015906   -3.2083428  0.017438765   -4.4015906    1.1932479      1024000 
  472000   0.79572788   -4.3995538   -4.3995538   -3.2059644  0.019045131   -4.3995538    1.1935894      1024000 
  473000   0.79686182   -4.3995864   -4.3995864   -3.2042961  0.012895145   -4.3995864    1.1952903      1024000 
  474000   0.79643606   -4.3968827   -4.3968827   -3.2022311  0.016629181   -4.3968827    1.1946517      1024000 
  475000   0.79733809   -4.3964342   -4.3964342   -3.2004295  0.014919439   -4.3964342    1.1960047      1024000 
  476000   0.79783904   -4.3953852   -4.3953852   -3.1986291  0.013258349   -4.3953852    1.1967561      1024000 
  477000   0.79843364   -4.3939282   -4.3939282   -3.1962802  0.020039575   -4.3939282     1.197648      1024000 
  478000   0.79929534   -4.3941529   -4.3941529   -3.1952123  0.014575869   -4.3941529    1.1989406      1024000 
  479000   0.79862743   -4.3917076   -4.3917076   -3.1937689  0.016486642   -4.3917076    1.1979387      1024000 
  480000   0.79792434   -4.3896499   -4.3896499   -3.1927658  0.015975085   -4.3896499    1.1968841      1024000 
  481000   0.79795016   -4.3873182   -4.3873182   -3.1903954  0.021780584   -4.3873182    1.1969228      1024000 
  482000   0.79923447   -4.3878766   -4.3878766   -3.1890273  0.016385166   -4.3878766    1.1988493      1024000 
  483000   0.79867885    -4.384902    -4.384902   -3.1868862  0.015953787    -4.384902    1.1980158      1024000 
  484000   0.79955835    -4.384621    -4.384621   -3.1852859  0.015439507    -4.384621    1.1993351      1024000 
  485000   0.79988699   -4.3840943   -4.3840943   -3.1842663  0.011683686   -4.3840943    1.1998281      1024000 
  486000    0.7988423   -4.3810075   -4.3810075   -3.1827465  0.013956882   -4.3810075     1.198261      1024000 
  487000   0.79871881   -4.3797819   -4.3797819   -3.1817061 0.0090964026   -4.3797819    1.1980758      1024000 
  488000   0.79905747   -4.3784762   -4.3784762   -3.1798925 0.0077917558   -4.3784762    1.1985838      1024000 
  489000   0.80001649   -4.3781543   -4.3781543    -3.178132 0.0070539166   -4.3781543    1.2000223      1024000 
  490000    0.7992326   -4.3749502   -4.3749502   -3.1761038 0.0096125384   -4.3749502    1.1988465      1024000 
  491000   0.79801907   -4.3715383   -4.3715383   -3.1745121  0.010469022   -4.3715383    1.1970262      1024000 
  492000   0.80038235   -4.3735346   -4.3735346   -3.1729635  0.012313912   -4.3735346    1.2005711      1024000 
  493000   0.80073429   -4.3729728   -4.3729728   -3.1718738 0.0080643025   -4.3729728     1.201099      1024000 
  494000   0.80230537    -4.372565    -4.372565   -3.1691094 0.0080370119    -4.372565    1.2034556      1024000 
  495000   0.80201914   -4.3691926   -4.3691926   -3.1661663 0.0098972218   -4.3691926    1.2030263      1024000 
  496000    0.8030252   -4.3688051   -4.3688051   -3.1642698  0.016239242   -4.3688051    1.2045354      1024000 
  497000   0.80305094   -4.3665052   -4.3665052   -3.1619313  0.016446974   -4.3665052     1.204574      1024000 
  498000   0.80329929   -4.3656546   -4.3656546   -3.1607081  0.020069611   -4.3656546    1.2049465      1024000 
  499000   0.80446926   -4.3653037   -4.3653037   -3.1586023  0.019029769   -4.3653037    1.2067014      1024000 
  500000   0.80442733   -4.3641603   -4.3641603   -3.1575218  0.014121592   -4.3641603    1.2066385      1024000 
  501000   0.80372757   -4.3612538   -4.3612538   -3.1556649   0.01677931   -4.3612538    1.2055889      1024000 
  502000   0.80463069    -4.360459    -4.360459   -3.1535155  0.013821022    -4.360459    1.2069436      1024000 
  503000   0.80414595    -4.359484    -4.359484   -3.1532675  0.014694968    -4.359484    1.2062165      1024000 
  504000   0.80515961   -4.3595499   -4.3595499   -3.1518129  0.012592688   -4.3595499     1.207737      1024000 
  505000   0.80464772   -4.3573572   -4.3573572   -3.1503881  0.012032552   -4.3573572    1.2069691      1024000 
  506000   0.80504442   -4.3557491   -4.3557491   -3.1481849  0.011601594   -4.3557491    1.2075642      1024000 
  507000   0.80487555   -4.3539981   -4.3539981   -3.1466872  0.013924589   -4.3539981    1.2073109      1024000 
  508000   0.80453547   -4.3525617   -4.3525617    -3.145761   0.01262058   -4.3525617    1.2068008      1024000 
  509000   0.80583518   -4.3517688   -4.3517688   -3.1430185   0.01543357   -4.3517688    1.2087503      1024000 
  510000   0.80725955   -4.3519688   -4.3519688   -3.1410819  0.010257632   -4.3519688    1.2108869      1024000 
  511000   0.80661551    -4.350009    -4.350009   -3.1400882  0.013487302    -4.350009    1.2099208      1024000 
  512000   0.80822131   -4.3508607   -4.3508607   -3.1385312  0.013218467   -4.3508607    1.2123295      1024000 
  513000   0.80821038   -4.3488617   -4.3488617   -3.1365486   0.01533288   -4.3488617    1.2123131      1024000 
  514000   0.80769884   -4.3469395   -4.3469395   -3.1353937  0.013975417   -4.3469395    1.2115458      1024000 
  515000   0.80820038   -4.3457389   -4.3457389   -3.1334408   0.01834839   -4.3457389    1.2122981      1024000 
  516000    0.8094836   -4.3465497   -4.3465497   -3.1323267  0.014205123   -4.3465497    1.2142229      1024000 
  517000   0.80868547   -4.3439022   -4.3439022   -3.1308765  0.019420933   -4.3439022    1.2130257      1024000 
  518000   0.80882644   -4.3421255   -4.3421255   -3.1288883  0.016118973   -4.3421255    1.2132372      1024000 
  519000   0.80958531   -4.3409084   -4.3409084   -3.1265329  0.010876796   -4.3409084    1.2143755      1024000 
  520000   0.80916438    -4.337667    -4.337667   -3.1239229   0.01397573    -4.337667    1.2137441      1024000 
  521000    0.8097107   -4.3375339   -4.3375339   -3.1229703  0.010575035   -4.3375339    1.2145636      1024000 
  522000   0.81065874    -4.337609    -4.337609   -3.1216233  0.014971211    -4.337609    1.2159856      1024000 
  523000   0.81153959   -4.3367269   -4.3367269     -3.11942  0.013607141   -4.3367269    1.2173069      1024000 
  524000   0.80982567   -4.3318534   -4.3318534   -3.1171174  0.024179653   -4.3318534     1.214736      1024000 
  525000   0.81147392   -4.3323858   -4.3323858   -3.1151774  0.018938106   -4.3323858    1.2172084      1024000 
  526000   0.81199528   -4.3308569   -4.3308569   -3.1128664  0.019690895   -4.3308569    1.2179904      1024000 
  527000   0.81336864   -4.3323638   -4.3323638   -3.1123133  0.016311501   -4.3323638    1.2200505      1024000 
  528000   0.81292974    -4.329207    -4.329207   -3.1098148   0.01845013    -4.329207    1.2193921      1024000 
  529000   0.81388587   -4.3289959   -4.3289959   -3.1081696  0.014509302   -4.3289959    1.2208263      1024000 
  530000   0.81290167   -4.3267493   -4.3267493   -3.1073993  0.017971438   -4.3267493      1.21935      1024000 
  531000   0.81569505   -4.3288458   -4.3288458   -3.1053057  0.013531771   -4.3288458    1.2235401      1024000 
  532000    0.8138071   -4.3241413   -4.3241413   -3.1034331   0.01638759   -4.3241413    1.2207082      1024000 
  533000   0.81299727   -4.3215998   -4.3215998   -3.1021063  0.017848344   -4.3215998    1.2194934      1024000 
  534000   0.81315031   -4.3191794   -4.3191794   -3.0994564  0.016767651   -4.3191794     1.219723      1024000 
  535000   0.81335104   -4.3180704   -4.3180704   -3.0980463 0.0091764052   -4.3180704    1.2200241      1024000 
  536000    0.8139183   -4.3167283   -4.3167283   -3.0958533  0.012358535   -4.3167283     1.220875      1024000 
  537000   0.81429765   -4.3156382   -4.3156382   -3.0941942 0.0081911166   -4.3156382     1.221444      1024000 
  538000   0.81400197   -4.3145186   -4.3145186   -3.0935182  0.011833616   -4.3145186    1.2210005      1024000 
  539000   0.81321622   -4.3116894   -4.3116894   -3.0918675  0.015771204   -4.3116894    1.2198219      1024000 
  540000   0.81465921   -4.3113743   -4.3113743    -3.089388  0.010366344   -4.3113743    1.2219863      1024000 
  541000   0.81442732   -4.3088602   -4.3088602   -3.0872217  0.019008429   -4.3088602    1.2216385      1024000 
  542000   0.81622338   -4.3095076   -4.3095076    -3.085175  0.013802683   -4.3095076    1.2243326      1024000 
  543000   0.81537411   -4.3070343   -4.3070343   -3.0839756  0.014857898   -4.3070343    1.2230587      1024000 
  544000   0.81508114   -4.3049549   -4.3049549   -3.0823357  0.016729272   -4.3049549    1.2226192      1024000 
  545000   0.81632705   -4.3052216   -4.3052216   -3.0807335   0.01281163   -4.3052216    1.2244881      1024000 
  546000   0.81566302   -4.3024458   -4.3024458   -3.0789538  0.014688268   -4.3024458    1.2234921      1024000 
  547000   0.81576382   -4.3013644   -4.3013644   -3.0777212 0.0067585608   -4.3013644    1.2236432      1024000 
  548000   0.81570044   -4.2992651   -4.2992651    -3.075717  0.012210129   -4.2992651    1.2235482      1024000 
  549000   0.81640169   -4.2988185   -4.2988185   -3.0742184   0.01513841   -4.2988185       1.2246      1024000 
  550000   0.81738966   -4.2984179   -4.2984179   -3.0723359 0.0074977795   -4.2984179     1.226082      1024000 
  551000   0.81690787   -4.2960433   -4.2960433   -3.0706839  0.010029221   -4.2960433    1.2253593      1024000 
  552000   0.81603187   -4.2926636   -4.2926636   -3.0686183  0.015311922   -4.2926636    1.2240453      1024000 
  553000   0.81744159   -4.2925403   -4.2925403   -3.0663804  0.014751661   -4.2925403    1.2261599      1024000 
  554000   0.81739548   -4.2900666   -4.2900666   -3.0639759  0.012685989   -4.2900666    1.2260907      1024000 
  555000   0.81836398   -4.2897654   -4.2897654   -3.0622219  0.010845332   -4.2897654    1.2275435      1024000 
  556000   0.81848327   -4.2882808   -4.2882808   -3.0605583  0.015566376   -4.2882808    1.2277224      1024000 
  557000   0.81822284   -4.2868152   -4.2868152   -3.0594834  0.016519976   -4.2868152    1.2273318      1024000 
  558000   0.81931839   -4.2872834   -4.2872834   -3.0583083  0.010859268   -4.2872834    1.2289751      1024000 
  559000   0.82004757    -4.287466    -4.287466   -3.0573971  0.015294846    -4.287466    1.2300689      1024000 
  560000   0.82029731   -4.2850547   -4.2850547   -3.0546112  0.012199407   -4.2850547    1.2304435      1024000 
  561000   0.81987404   -4.2824304   -4.2824304   -3.0526218   0.01282818   -4.2824304    1.2298086      1024000 
  562000   0.81966649   -4.2802728   -4.2802728   -3.0507756  0.019842806   -4.2802728    1.2294972      1024000 
  563000   0.82173925   -4.2814859   -4.2814859   -3.0488795  0.013951677   -4.2814859    1.2326064      1024000 
  564000   0.82021571   -4.2774556   -4.2774556   -3.0471345  0.022059019   -4.2774556    1.2303211      1024000 
  565000   0.82205853   -4.2776388   -4.2776388   -3.0445535  0.018838537   -4.2776388    1.2330853      1024000 
  566000   0.82280492   -4.2774273   -4.2774273   -3.0432225  0.013964878   -4.2774273    1.2342049      1024000 
  567000   0.82206068   -4.2745695   -4.2745695   -3.0414809  0.014290123   -4.2745695    1.2330885      1024000 
  568000   0.82246695   -4.2735723   -4.2735723   -3.0398744   0.01238907   -4.2735723    1.2336979      1024000 
  569000    0.8223796   -4.2718807   -4.2718807   -3.0383138  0.016212664   -4.2718807    1.2335669      1024000 
  570000   0.82324069   -4.2715518   -4.2715518   -3.0366933  0.014379411   -4.2715518    1.2348585      1024000 
  571000   0.82368171   -4.2707407   -4.2707407   -3.0352206  0.016927605   -4.2707407    1.2355201      1024000 
  572000    0.8240018   -4.2689517   -4.2689517   -3.0329515  0.015059958   -4.2689517    1.2360002      1024000 
  573000   0.82502114   -4.2679361   -4.2679361   -3.0304069  0.014892672   -4.2679361    1.2375292      1024000 
  574000   0.82429752    -4.265395    -4.265395   -3.0289513  0.017418451    -4.265395    1.2364438      1024000 
  575000   0.82487891    -4.265038    -4.265038   -3.0277221  0.015322995    -4.265038    1.2373159      1024000 
  576000   0.82441483   -4.2632121   -4.2632121   -3.0265924  0.020107693   -4.2632121    1.2366197      1024000 
  577000   0.82525419   -4.2623773   -4.2623773   -3.0244985   0.01691952   -4.2623773    1.2378788      1024000 
  578000   0.82489583   -4.2598466   -4.2598466   -3.0225054   0.02050331   -4.2598466    1.2373412      1024000 
  579000   0.82602581   -4.2593636   -4.2593636   -3.0203274  0.018083965   -4.2593636    1.2390362      1024000 
  580000   0.82550049   -4.2570979   -4.2570979   -3.0188497  0.019806045   -4.2570979    1.2382482      1024000 
  581000    0.8254489   -4.2557523   -4.2557523   -3.0175815  0.019752207   -4.2557523    1.2381708      1024000 
  582000   0.82599762   -4.2539183   -4.2539183   -3.0149243  0.012614027   -4.2539183    1.2389939      1024000 
  583000   0.82528737    -4.252023    -4.252023   -3.0140944  0.013447489    -4.252023    1.2379285      1024000 
  584000   0.82622117   -4.2514792   -4.2514792     -3.01215  0.015737591   -4.2514792    1.2393292      1024000 
  585000   0.82640989   -4.2503543   -4.2503543    -3.010742  0.015269733   -4.2503543    1.2396123      1024000 
  586000   0.82764509   -4.2496237   -4.2496237   -3.0081585  0.015523406   -4.2496237    1.2414651      1024000 
  587000   0.82808792   -4.2483802   -4.2483802   -3.0062509  0.016398119   -4.2483802    1.2421294      1024000 
  588000    0.8274159   -4.2459584   -4.2459584   -3.0048371  0.017518013   -4.2459584    1.2411213      1024000 
  589000   0.82766251   -4.2455897   -4.2455897   -3.0040984  0.014833374   -4.2455897    1.2414912      1024000 
  590000   0.82677141   -4.2421906   -4.2421906    -3.002036  0.022068798   -4.2421906    1.2401546      1024000 
  591000   0.82720922   -4.2407953   -4.2407953    -2.999984  0.022196821   -4.2407953    1.2408113      1024000 
  592000   0.82720933   -4.2392689   -4.2392689   -2.9984574  0.019020742   -4.2392689    1.2408115      1024000 
  593000    0.8289938    -4.239429    -4.239429   -2.9959408  0.015356497    -4.239429    1.2434882      1024000 
  594000   0.82966145   -4.2395552   -4.2395552   -2.9950655  0.015007037   -4.2395552    1.2444897      1024000 
  595000   0.82957216   -4.2365637   -4.2365637    -2.992208  0.011191418   -4.2365637    1.2443557      1024000 
  596000   0.82902527   -4.2333353   -4.2333353   -2.9897999  0.010467384   -4.2333353    1.2435354      1024000 
  597000   0.82930431   -4.2324192   -4.2324192   -2.9884653 0.0082417113   -4.2324192    1.2439539      1024000 
  598000   0.82866903   -4.2297793   -4.2297793   -2.9867783  0.011639943   -4.2297793     1.243001      1024000 
  599000   0.82938271   -4.2290475   -4.2290475   -2.9849759  0.010722728   -4.2290475    1.2440715      1024000 
  600000    0.8295358    -4.227716    -4.227716   -2.9834148  0.014926066    -4.227716    1.2443012      1024000 
  601000    0.8298334   -4.2257635   -4.2257635    -2.981016  0.010826749   -4.2257635    1.2447476      1024000 
  602000   0.83189049   -4.2261706   -4.2261706   -2.9783374  0.016436564   -4.2261706    1.2478332      1024000 
  603000   0.83235891   -4.2252511   -4.2252511   -2.9767152  0.015952183   -4.2252511    1.2485358      1024000 
  604000     0.832451   -4.2236688   -4.2236688   -2.9749949   0.01511119   -4.2236688     1.248674      1024000 
  605000   0.83267491   -4.2218563   -4.2218563   -2.9728465  0.022463101   -4.2218563    1.2490098      1024000 
  606000   0.83368039   -4.2205482   -4.2205482   -2.9700302  0.019071879   -4.2205482    1.2505181      1024000 
  607000   0.83281786   -4.2181031   -4.2181031   -2.9688789  0.017945567   -4.2181031    1.2492242      1024000 
  608000   0.83255285   -4.2153301   -4.2153301   -2.9665034  0.025429068   -4.2153301    1.2488267      1024000 
  609000   0.83407047   -4.2153246   -4.2153246   -2.9642214  0.016618595   -4.2153246    1.2511032      1024000 
  610000   0.83262979   -4.2118311   -4.2118311   -2.9628889  0.019640409   -4.2118311    1.2489422      1024000 
  611000   0.83383044    -4.211893    -4.211893   -2.9611498  0.012281394    -4.211893    1.2507431      1024000 
  612000   0.83238724   -4.2085054   -4.2085054   -2.9599271  0.017598345   -4.2085054    1.2485783      1024000 
  613000   0.83353834    -4.207687    -4.207687    -2.957382  0.011329566    -4.207687     1.250305      1024000 
  614000   0.83329639   -4.2057411   -4.2057411    -2.955799  0.015572326   -4.2057411    1.2499421      1024000 
  615000     0.832382   -4.2032972   -4.2032972   -2.9547268  0.016667192   -4.2032972    1.2485705      1024000 
  616000   0.83386096   -4.2031605   -4.2031605   -2.9523716  0.013161315   -4.2031605    1.2507889      1024000 
  617000    0.8347358   -4.2035125   -4.2035125   -2.9514113  0.014933509   -4.2035125    1.2521012      1024000 
  618000   0.83556464   -4.2029541   -4.2029541   -2.9496096  0.010472338   -4.2029541    1.2533444      1024000 
  619000   0.83537718   -4.1998653   -4.1998653   -2.9468021  0.017502155   -4.1998653    1.2530632      1024000 
  620000   0.83643033    -4.199146    -4.199146   -2.9445031  0.015075556    -4.199146     1.254643      1024000 
  621000   0.83565526   -4.1964802   -4.1964802   -2.9429999  0.018006797   -4.1964802    1.2534803      1024000 
  622000   0.83710922   -4.1967468   -4.1967468   -2.9410855  0.015310942   -4.1967468    1.2556613      1024000 
  623000   0.83770727   -4.1951981   -4.1951981   -2.9386397  0.014714848   -4.1951981    1.2565584      1024000 
  624000   0.83745536   -4.1931136   -4.1931136   -2.9369331  0.018052612   -4.1931136    1.2561805      1024000 
  625000   0.83821366   -4.1923903   -4.1923903   -2.9350724  0.012022766   -4.1923903    1.2573179      1024000 
  626000   0.83812513    -4.190418    -4.190418   -2.9332329  0.011943701    -4.190418    1.2571852      1024000 
  627000   0.83865094   -4.1892212   -4.1892212   -2.9312473  0.009521405   -4.1892212    1.2579739      1024000 
  628000   0.83855115   -4.1871857   -4.1871857   -2.9293616  0.018692952   -4.1871857    1.2578242      1024000 
  629000   0.83999414   -4.1871119   -4.1871119   -2.9271233   0.01324643   -4.1871119    1.2599886      1024000 
  630000   0.84000729   -4.1850938   -4.1850938   -2.9250854  0.016868929   -4.1850938    1.2600084      1024000 
  631000   0.84011074   -4.1836813   -4.1836813   -2.9235177   0.01847624   -4.1836813    1.2601636      1024000 
  632000   0.84063695   -4.1827016   -4.1827016   -2.9217488  0.017004311   -4.1827016    1.2609529      1024000 
  633000   0.84000502   -4.1798903   -4.1798903   -2.9198853  0.019915601   -4.1798903     1.260005      1024000 
  634000   0.84046456   -4.1782026   -4.1782026   -2.9175083  0.021993238   -4.1782026    1.2606943      1024000 
  635000     0.840786   -4.1758112   -4.1758112   -2.9146348  0.019087893   -4.1758112    1.2611764      1024000 
  636000   0.84095517   -4.1742236   -4.1742236   -2.9127934  0.018580119   -4.1742236    1.2614302      1024000 
  637000   0.84114306   -4.1725089   -4.1725089   -2.9107968  0.017102573   -4.1725089     1.261712      1024000 
  638000   0.84186969    -4.171366    -4.171366    -2.908564  0.017901558    -4.171366     1.262802      1024000 
  639000   0.84153971   -4.1698773   -4.1698773   -2.9075703  0.019140164   -4.1698773     1.262307      1024000 
  640000   0.84255706   -4.1686501   -4.1686501    -2.904817  0.018092059   -4.1686501     1.263833      1024000 
  641000   0.84237254   -4.1669252   -4.1669252    -2.903369  0.018658898   -4.1669252    1.2635562      1024000 
  642000   0.84203741   -4.1653995   -4.1653995    -2.902346   0.01426508   -4.1653995    1.2630536      1024000 
  643000   0.84093587   -4.1616689   -4.1616689   -2.9002677  0.011970558   -4.1616689    1.2614012      1024000 
  644000   0.84146965   -4.1605134   -4.1605134   -2.8983114  0.019376088   -4.1605134    1.2622019      1024000 
  645000   0.84318994   -4.1607882   -4.1607882   -2.8960058   0.01486517   -4.1607882    1.2647823      1024000 
  646000   0.84253468   -4.1577082   -4.1577082   -2.8939088  0.018375298   -4.1577082    1.2637995      1024000 
  647000   0.84233377   -4.1554035   -4.1554035   -2.8919054  0.018491379   -4.1554035    1.2634981      1024000 
  648000   0.84380485   -4.1553279   -4.1553279   -2.8896232  0.013304537   -4.1553279    1.2657047      1024000 
  649000   0.84244572   -4.1522166   -4.1522166   -2.8885506   0.01969817   -4.1522166     1.263666      1024000 
  650000   0.84334906   -4.1514388   -4.1514388   -2.8864178  0.015225576   -4.1514388     1.265021      1024000 
  651000   0.84379128   -4.1501771   -4.1501771   -2.8844928  0.016794087   -4.1501771    1.2656843      1024000 
  652000   0.84254477   -4.1461671   -4.1461671   -2.8823525  0.020003661   -4.1461671    1.2638146      1024000 
  653000   0.84351006   -4.1454282   -4.1454282   -2.8801656  0.018898157   -4.1454282    1.2652625      1024000 
  654000   0.84461298   -4.1456097   -4.1456097   -2.8786928  0.016235209   -4.1456097    1.2669169      1024000 
  655000   0.84433199   -4.1435127   -4.1435127   -2.8770173 0.0088161179   -4.1435127    1.2664954      1024000 
  656000   0.84404821    -4.141015    -4.141015   -2.8749452  0.012586187    -4.141015    1.2660697      1024000 
  657000   0.84401306   -4.1393119   -4.1393119   -2.8732949  0.018249969   -4.1393119     1.266017      1024000 
  658000   0.84417514   -4.1376371   -4.1376371    -2.871377  0.022804703   -4.1376371    1.2662601      1024000 
  659000   0.84621229    -4.138738    -4.138738   -2.8694221  0.014947823    -4.138738    1.2693159      1024000 
  660000   0.84626012   -4.1361031   -4.1361031   -2.8667155  0.023685961   -4.1361031    1.2693876      1024000 
  661000   0.84666349   -4.1347704   -4.1347704   -2.8647777  0.020484188   -4.1347704    1.2699927      1024000 
  662000   0.84786705   -4.1342711   -4.1342711   -2.8624731  0.021462801   -4.1342711     1.271798      1024000 
  663000   0.84834453   -4.1330471   -4.1330471   -2.8605329  0.023298591   -4.1330471    1.2725142      1024000 
  664000    0.8474729   -4.1301202   -4.1301202   -2.8589134  0.020935639   -4.1301202    1.2712068      1024000 
  665000   0.84717587   -4.1281963   -4.1281963   -2.8574351  0.018555356   -4.1281963    1.2707612      1024000 
  666000    0.8469018   -4.1259129   -4.1259129   -2.8555628    0.0230107   -4.1259129    1.2703501      1024000 
  667000   0.84732271   -4.1247887   -4.1247887   -2.8538073  0.020730853   -4.1247887    1.2709815      1024000 
  668000   0.84758184   -4.1234227   -4.1234227   -2.8520525  0.018246438   -4.1234227    1.2713702      1024000 
  669000   0.84757067   -4.1218713   -4.1218713   -2.8505179  0.016560538   -4.1218713    1.2713534      1024000 
  670000   0.84767962   -4.1196501   -4.1196501   -2.8481332  0.017274259   -4.1196501    1.2715168      1024000 
  671000   0.84819022   -4.1190791   -4.1190791   -2.8467963  0.019582676   -4.1190791    1.2722828      1024000 
  672000   0.84854038   -4.1166559   -4.1166559   -2.8438479  0.020606637   -4.1166559     1.272808      1024000 
  673000     0.847363   -4.1132047   -4.1132047   -2.8421628  0.016846701   -4.1132047    1.2710419      1024000 
  674000   0.84743043   -4.1116993   -4.1116993   -2.8405563  0.013568286   -4.1116993    1.2711431      1024000 
  675000   0.84842575   -4.1102093   -4.1102093   -2.8375733  0.016465872   -4.1102093     1.272636      1024000 
  676000   0.84869346   -4.1084813   -4.1084813   -2.8354437  0.020697706   -4.1084813    1.2730376      1024000 
  677000   0.84880332   -4.1079037   -4.1079037   -2.8347013   0.01947171   -4.1079037    1.2732024      1024000 
  678000   0.85012397   -4.1070756   -4.1070756   -2.8318922  0.017333671   -4.1070756    1.2751834      1024000 
  679000   0.84892786   -4.1035813   -4.1035813   -2.8301921  0.020204864   -4.1035813    1.2733892      1024000 
  680000   0.84945226   -4.1030909   -4.1030909   -2.8289151  0.018760326   -4.1030909    1.2741758      1024000 
  681000   0.85023409   -4.1031237   -4.1031237   -2.8277751  0.014593606   -4.1031237    1.2753486      1024000 
  682000    0.8497113   -4.1002297   -4.1002297   -2.8256653  0.024325421   -4.1002297    1.2745644      1024000 
  683000   0.85052981   -4.0999283   -4.0999283   -2.8241361  0.018276254   -4.0999283    1.2757921      1024000 
  684000   0.85158058   -4.0981719   -4.0981719   -2.8208036   0.02366131   -4.0981719    1.2773683      1024000 
  685000   0.85137131   -4.0963589   -4.0963589   -2.8193045  0.026506449   -4.0963589    1.2770544      1024000 
  686000   0.85314362   -4.0967634   -4.0967634   -2.8170506  0.020540818   -4.0967634    1.2797128      1024000 
  687000   0.85234666   -4.0941647   -4.0941647   -2.8156473  0.026491029   -4.0941647    1.2785174      1024000 
  688000   0.85279805   -4.0921288   -4.0921288   -2.8129344  0.030576917   -4.0921288    1.2791945      1024000 
  689000   0.85502346   -4.0931869   -4.0931869   -2.8106543  0.024129384   -4.0931869    1.2825326      1024000 
  690000   0.85388709   -4.0892158   -4.0892158   -2.8083878  0.032193939   -4.0892158     1.280828      1024000 
  691000   0.85483445   -4.0888614   -4.0888614   -2.8066123  0.028412561   -4.0888614    1.2822491      1024000 
  692000   0.85421718    -4.085738    -4.085738   -2.8044149  0.031610919    -4.085738    1.2813232      1024000 
  693000   0.85457575   -4.0839419   -4.0839419   -2.8020808  0.025977964   -4.0839419     1.281861      1024000 
  694000   0.85559188   -4.0843298   -4.0843298   -2.8009446  0.024957952   -4.0843298    1.2833852      1024000 
  695000   0.85464306   -4.0810399   -4.0810399   -2.7990779  0.026575066   -4.0810399     1.281962      1024000 
  696000   0.85562549   -4.0801889   -4.0801889   -2.7967533  0.022813474   -4.0801889    1.2834356      1024000 
  697000   0.85451829   -4.0762187   -4.0762187   -2.7944439  0.028691681   -4.0762187    1.2817748      1024000 
  698000   0.85426482   -4.0735466   -4.0735466   -2.7921519  0.022602193   -4.0735466    1.2813946      1024000 
  699000   0.85451786   -4.0725201   -4.0725201   -2.7907459  0.022605495   -4.0725201    1.2817742      1024000 
  700000   0.85595209   -4.0726605   -4.0726605   -2.7887349  0.022561593   -4.0726605    1.2839255      1024000 
  701000   0.85485121   -4.0684254   -4.0684254   -2.7861512  0.023377406   -4.0684254    1.2822742      1024000 
  702000   0.85560961   -4.0677663   -4.0677663   -2.7843545  0.022229106   -4.0677663    1.2834118      1024000 
  703000   0.85595434   -4.0675233   -4.0675233   -2.7835944  0.024209449   -4.0675233    1.2839289      1024000 
  704000   0.85665976   -4.0664768   -4.0664768   -2.7814898  0.021733323   -4.0664768     1.284987      1024000 
  705000   0.85620923   -4.0637256   -4.0637256   -2.7794144  0.028061196   -4.0637256    1.2843112      1024000 
  706000    0.8579694   -4.0641844   -4.0641844   -2.7772329  0.029331197   -4.0641844    1.2869515      1024000 
  707000   0.85808726   -4.0618588   -4.0618588   -2.7747305  0.028750677   -4.0618588    1.2871283      1024000 
  708000   0.85796935   -4.0600124   -4.0600124    -2.773061  0.030515415   -4.0600124    1.2869514      1024000 
  709000   0.85955728   -4.0599359   -4.0599359   -2.7706026  0.025169716   -4.0599359    1.2893333      1024000 
  710000   0.85877863   -4.0561495   -4.0561495   -2.7679842  0.030179866   -4.0561495    1.2881653      1024000 
  711000   0.86078097    -4.056704    -4.056704   -2.7655351   0.02665508    -4.056704    1.2911688      1024000 
  712000   0.85997808   -4.0544283   -4.0544283   -2.7644638  0.023580308   -4.0544283    1.2899645      1024000 
  713000   0.85962375   -4.0523143   -4.0523143   -2.7628813  0.025333379   -4.0523143     1.289433      1024000 
  714000   0.86041986   -4.0507662   -4.0507662   -2.7601391  0.027563811   -4.0507662    1.2906272      1024000 
  715000    0.8601387   -4.0487901   -4.0487901   -2.7585847  0.039107364   -4.0487901    1.2902054      1024000 
  716000   0.86173137   -4.0493631   -4.0493631   -2.7567687  0.036378427   -4.0493631    1.2925944      1024000 
  717000   0.86190712   -4.0476836   -4.0476836   -2.7548255  0.031933887   -4.0476836    1.2928581      1024000 
  718000   0.86297766    -4.046704    -4.046704   -2.7522402  0.033909695    -4.046704    1.2944639      1024000 
  719000   0.86179928   -4.0439647   -4.0439647   -2.7512684  0.030553517   -4.0439647    1.2926963      1024000 
  720000   0.86143875   -4.0420338   -4.0420338   -2.7498783  0.027597678   -4.0420338    1.2921555      1024000 
  721000   0.86063757   -4.0397116   -4.0397116   -2.7487579   0.02904213   -4.0397116    1.2909537      1024000 
  722000   0.86174451   -4.0376944   -4.0376944   -2.7450803  0.033216186   -4.0376944    1.2926141      1024000 
  723000   0.86123557   -4.0362921   -4.0362921   -2.7444413  0.028166852   -4.0362921    1.2918507      1024000 
  724000   0.86163812   -4.0353691   -4.0353691   -2.7429146  0.027460886   -4.0353691    1.2924546      1024000 
  725000    0.8627191   -4.0340695   -4.0340695   -2.7399935  0.029995515   -4.0340695     1.294076      1024000 
  726000   0.86219666   -4.0315846   -4.0315846   -2.7382922  0.026715315   -4.0315846    1.2932924      1024000 
  727000   0.86168975   -4.0291757   -4.0291757   -2.7366437  0.027966177   -4.0291757     1.292532      1024000 
  728000   0.86190935   -4.0280679   -4.0280679   -2.7352065  0.030184173   -4.0280679    1.2928614      1024000 
  729000   0.86200715   -4.0264373   -4.0264373   -2.7334292  0.036752929   -4.0264373    1.2930081      1024000 
  730000   0.86312051   -4.0266577   -4.0266577   -2.7319796  0.033776048   -4.0266577    1.2946781      1024000 
  731000   0.86314205   -4.0256707   -4.0256707   -2.7309602  0.035863764   -4.0256707    1.2947104      1024000 
  732000   0.86455385   -4.0252038   -4.0252038   -2.7283756  0.035251584   -4.0252038    1.2968281      1024000 
  733000   0.86328994   -4.0221711   -4.0221711   -2.7272388  0.036662544   -4.0221711    1.2949323      1024000 
  734000   0.86461274   -4.0224407   -4.0224407   -2.7255242  0.030875392   -4.0224407    1.2969165      1024000 
  735000   0.86478451   -4.0203622   -4.0203622   -2.7231881  0.035695017   -4.0203622    1.2971741      1024000 
  736000   0.86488625   -4.0189091   -4.0189091   -2.7215823  0.035659699   -4.0189091    1.2973267      1024000 
  737000   0.86550345    -4.017468    -4.017468   -2.7192154  0.036722171    -4.017468    1.2982525      1024000 
  738000   0.86553203   -4.0156702   -4.0156702   -2.7173748  0.045958415   -4.0156702    1.2982954      1024000 
  739000   0.86742807   -4.0167646   -4.0167646   -2.7156251  0.040871344   -4.0167646    1.3011395      1024000 
  740000   0.86727484   -4.0147593   -4.0147593   -2.7138497  0.039437011   -4.0147593    1.3009096      1024000 
  741000   0.86729489   -4.0135657   -4.0135657    -2.712626  0.041432433   -4.0135657    1.3009397      1024000 
  742000   0.86733961    -4.011298    -4.011298   -2.7102912  0.043344994    -4.011298    1.3010068      1024000 
  743000   0.86893236    -4.011722    -4.011722   -2.7083261  0.042881462    -4.011722    1.3033959      1024000 
  744000    0.8684856   -4.0091527   -4.0091527   -2.7064269  0.043152243   -4.0091527    1.3027257      1024000 
  745000   0.86822727   -4.0068117   -4.0068117   -2.7044734  0.040023475   -4.0068117    1.3023383      1024000 
  746000   0.86873386   -4.0062416   -4.0062416   -2.7031434   0.03504445   -4.0062416    1.3030981      1024000 
  747000   0.86695254   -4.0019514   -4.0019514   -2.7015252  0.042286934   -4.0019514    1.3004262      1024000 
  748000   0.86794655   -4.0018941   -4.0018941   -2.6999769  0.040113087   -4.0018941    1.3019172      1024000 
  749000    0.8686289   -4.0014034   -4.0014034   -2.6984627  0.038935667   -4.0014034    1.3029407      1024000 
  750000   0.86910201   -3.9998077   -3.9998077   -2.6961574  0.044708626   -3.9998077    1.3036504      1024000 
  751000   0.87023703   -3.9998443   -3.9998443   -2.6944914  0.040959323   -3.9998443    1.3053529      1024000 
  752000   0.86906939   -3.9970567   -3.9970567   -2.6934552  0.038529799   -3.9970567    1.3036014      1024000 
  753000   0.86994284   -3.9974098   -3.9974098   -2.6924982  0.039178019   -3.9974098    1.3049116      1024000 
  754000   0.86906185   -3.9947006   -3.9947006   -2.6911105  0.041949995   -3.9947006    1.3035901      1024000 
  755000   0.87009408   -3.9954845   -3.9954845   -2.6903461  0.043941253   -3.9954845    1.3051385      1024000 
  756000    0.8696494    -3.993606    -3.993606   -2.6891346  0.045504065    -3.993606    1.3044714      1024000 
  757000   0.86992658   -3.9934698   -3.9934698   -2.6885826  0.042366769   -3.9934698    1.3048872      1024000 
  758000   0.87027656    -3.991494    -3.991494   -2.6860818   0.04596128    -3.991494    1.3054122      1024000 
  759000   0.87185493   -3.9922114   -3.9922114   -2.6844316  0.042268495   -3.9922114    1.3077797      1024000 
  760000   0.87128666   -3.9902763   -3.9902763    -2.683349  0.044729648   -3.9902763    1.3069273      1024000 
  761000   0.87141075   -3.9886053   -3.9886053   -2.6814918  0.044573271   -3.9886053    1.3071135      1024000 
  762000   0.87074728   -3.9861672   -3.9861672   -2.6800489   0.04567102   -3.9861672    1.3061183      1024000 
  763000    0.8704232   -3.9848646   -3.9848646   -2.6792324  0.046363834   -3.9848646    1.3056321      1024000 
  764000   0.87067153   -3.9838578   -3.9838578   -2.6778532  0.043931961   -3.9838578    1.3060046      1024000 
  765000   0.87173665   -3.9836457   -3.9836457   -2.6760434  0.043605269   -3.9836457    1.3076023      1024000 
  766000   0.87254412    -3.982088    -3.982088   -2.6732745  0.043453902    -3.982088    1.3088135      1024000 
  767000   0.87229503   -3.9800674   -3.9800674   -2.6716275  0.044963014   -3.9800674    1.3084399      1024000 
  768000   0.87354629   -3.9802921   -3.9802921   -2.6699753  0.043116388   -3.9802921    1.3103168      1024000 
  769000   0.87287523   -3.9780856   -3.9780856   -2.6687754  0.049942981   -3.9780856    1.3093102      1024000 
  770000   0.87327396   -3.9775168   -3.9775168   -2.6676085  0.046852988   -3.9775168    1.3099083      1024000 
  771000   0.87332462   -3.9757676   -3.9757676   -2.6657834  0.049957082   -3.9757676    1.3099843      1024000 
  772000   0.87477629   -3.9768302   -3.9768302   -2.6646684  0.045890866   -3.9768302    1.3121618      1024000 
  773000   0.87392291    -3.973592    -3.973592   -2.6627103  0.053503024    -3.973592    1.3108817      1024000 
  774000   0.87552327   -3.9739374   -3.9739374   -2.6606551  0.050789121   -3.9739374    1.3132822      1024000 
  775000   0.87557346   -3.9723382   -3.9723382   -2.6589807  0.048405243   -3.9723382    1.3133575      1024000 
  776000   0.87528988   -3.9701028   -3.9701028   -2.6571707  0.056279376   -3.9701028    1.3129322      1024000 
  777000   0.87692761   -3.9711977   -3.9711977    -2.655809  0.048176339   -3.9711977    1.3153887      1024000 
  778000    0.8776486   -3.9705249   -3.9705249   -2.6540547  0.044000322   -3.9705249    1.3164702      1024000 
  779000   0.87534504   -3.9653551   -3.9653551   -2.6523402  0.052849622   -3.9653551    1.3130149      1024000 
  780000   0.87610398   -3.9651874   -3.9651874   -2.6510341  0.050239225   -3.9651874    1.3141533      1024000 
  781000   0.87560929   -3.9629442   -3.9629442   -2.6495329  0.051493775   -3.9629442    1.3134113      1024000 
  782000   0.87768408   -3.9641095   -3.9641095    -2.647586  0.047431323   -3.9641095    1.3165234      1024000 
  783000   0.87807265   -3.9635507   -3.9635507   -2.6464444  0.046002178   -3.9635507    1.3171063      1024000 
  784000   0.87800412   -3.9623159   -3.9623159   -2.6453124  0.046813295   -3.9623159    1.3170035      1024000 
  785000    0.8781442   -3.9617305   -3.9617305   -2.6445169  0.045311555   -3.9617305    1.3172136      1024000 
  786000   0.87762132   -3.9599767   -3.9599767   -2.6435473  0.048255956   -3.9599767    1.3164293      1024000 
  787000   0.87734937   -3.9578665   -3.9578665   -2.6418451  0.051997374   -3.9578665    1.3160214      1024000 
  788000    0.8791783   -3.9581907   -3.9581907    -2.639426  0.048812595   -3.9581907    1.3187648      1024000 
  789000   0.87965584   -3.9575151   -3.9575151    -2.638034  0.051118099   -3.9575151    1.3194811      1024000 
  790000   0.87940974   -3.9563372   -3.9563372   -2.6372253  0.057123759   -3.9563372    1.3191119      1024000 
  791000   0.88058062   -3.9564433   -3.9564433    -2.635575  0.057717786   -3.9564433    1.3208683      1024000 
  792000   0.88206415   -3.9566339   -3.9566339   -2.6335403  0.054070241   -3.9566339    1.3230935      1024000 
  793000   0.88228151   -3.9558767   -3.9558767   -2.6324572  0.052507795   -3.9558767    1.3234196      1024000 
  794000   0.88121504   -3.9532642   -3.9532642   -2.6314443  0.053328363   -3.9532642    1.3218199      1024000 
  795000    0.8809146   -3.9513885   -3.9513885   -2.6300193   0.05406336   -3.9513885    1.3213692      1024000 
  796000    0.8809588   -3.9497801   -3.9497801   -2.6283446  0.051287605   -3.9497801    1.3214355      1024000 
  797000   0.88166983   -3.9497503   -3.9497503   -2.6272483  0.052342056   -3.9497503    1.3225021      1024000 
  798000   0.88159869   -3.9479012   -3.9479012   -2.6255059  0.055031043   -3.9479012    1.3223954      1024000 
  799000   0.88282938   -3.9478315   -3.9478315   -2.6235901  0.053593858   -3.9478315    1.3242414      1024000 
  800000   0.88311887   -3.9467436   -3.9467436    -2.622068   0.05067599   -3.9467436    1.3246756      1024000 
  801000   0.88258673   -3.9446416   -3.9446416   -2.6207642  0.046509817   -3.9446416    1.3238774      1024000 
  802000   0.88175704    -3.942134    -3.942134   -2.6195011  0.048942215    -3.942134    1.3226329      1024000 
  803000   0.88201339   -3.9412066   -3.9412066   -2.6181892  0.051463584   -3.9412066    1.3230174      1024000 
  804000   0.88230803   -3.9400288   -3.9400288   -2.6165694  0.051456725   -3.9400288    1.3234594      1024000 
  805000   0.88307974   -3.9401385   -3.9401385   -2.6155215  0.050206554   -3.9401385    1.3246169      1024000 
  806000   0.88356425   -3.9394212   -3.9394212   -2.6140775  0.051951195   -3.9394212    1.3253437      1024000 
  807000   0.88418825   -3.9395188   -3.9395188   -2.6132391  0.051992009   -3.9395188    1.3262797      1024000 
  808000   0.88436965   -3.9380876   -3.9380876   -2.6115358   0.05621315   -3.9380876    1.3265518      1024000 
  809000   0.88545202   -3.9381792   -3.9381792   -2.6100038  0.052709437   -3.9381792    1.3281753      1024000 
  810000   0.88640569   -3.9384456   -3.9384456   -2.6088397  0.057463593   -3.9384456    1.3296058      1024000 
  811000   0.88809023   -3.9398585   -3.9398585   -2.6077258  0.063809817   -3.9398585    1.3321326      1024000 
  812000   0.88775736   -3.9376965   -3.9376965   -2.6060631  0.061830763   -3.9376965    1.3316333      1024000 
  813000   0.88799494    -3.937142    -3.937142   -2.6051523  0.060060475    -3.937142    1.3319897      1024000 
  814000   0.88864451   -3.9367612   -3.9367612   -2.6037972  0.057851978   -3.9367612    1.3329641      1024000 
  815000   0.88763399   -3.9341057   -3.9341057   -2.6026574  0.065096283   -3.9341057    1.3314483      1024000 
  816000   0.88818556   -3.9331794   -3.9331794   -2.6009037  0.062745855   -3.9331794    1.3322756      1024000 
  817000   0.88957631   -3.9345509   -3.9345509   -2.6001892  0.057342847   -3.9345509    1.3343618      1024000 
  818000   0.88822749   -3.9313971   -3.9313971   -2.5990585  0.056321209   -3.9313971    1.3323385      1024000 
  819000   0.88782578   -3.9299361   -3.9299361   -2.5982001  0.057276654   -3.9299361     1.331736      1024000 
  820000   0.88834727   -3.9296998   -3.9296998   -2.5971816  0.057866498   -3.9296998    1.3325182      1024000 
  821000   0.88799798   -3.9281191   -3.9281191   -2.5961249  0.061973141   -3.9281191    1.3319943      1024000 
  822000   0.88926913   -3.9292503   -3.9292503   -2.5953493  0.058026238   -3.9292503     1.333901      1024000 
  823000    0.8881878   -3.9264529   -3.9264529   -2.5941739  0.063466287   -3.9264529     1.332279      1024000 
  824000   0.88968921   -3.9278082   -3.9278082   -2.5932771  0.059661115   -3.9278082    1.3345311      1024000 
  825000   0.89083681   -3.9287847   -3.9287847   -2.5925322  0.059816138   -3.9287847    1.3362525      1024000 
  826000   0.89293414   -3.9311657   -3.9311657   -2.5917672  0.061356115   -3.9311657    1.3393985      1024000 
  827000   0.89365985   -3.9307324   -3.9307324   -2.5902454  0.078600563   -3.9307324    1.3404871      1024000 
  828000   0.89834793   -3.9368524   -3.9368524   -2.5893332  0.081719615   -3.9368524    1.3475192      1024000 
  829000   0.90201227   -3.9408103   -3.9408103   -2.5877947   0.11087768   -3.9408103    1.3530157      1024000 
  830000   0.90871677   -3.9501091   -3.9501091   -2.5870367   0.13892884   -3.9501091    1.3630724      1024000 
  831000   0.91690072   -3.9615526   -3.9615526   -2.5862043   0.17362926   -3.9615526    1.3753483      1024000 
  832000   0.92419611   -3.9714128   -3.9714128   -2.5851214   0.21895774   -3.9714128    1.3862914      1024000 
  833000   0.93204228   -3.9825973   -3.9825973   -2.5845367   0.25749648   -3.9825973    1.3980606      1024000 
  834000   0.94112873   -3.9951703   -3.9951703   -2.5834801   0.29060482   -3.9951703    1.4116902      1024000 
  835000   0.94893346   -4.0060746   -4.0060746   -2.5826773   0.32408659   -4.0060746    1.4233973      1024000 
  836000   0.95568387   -4.0155134   -4.0155134   -2.5819905   0.35508262   -4.0155134    1.4335229      1024000 
  837000   0.96102565   -4.0223517   -4.0223517   -2.5808161   0.37426306   -4.0223517    1.4415356      1024000 
  838000   0.96358237   -4.0256284   -4.0256284   -2.5802578   0.37629951   -4.0256284    1.4453706      1024000 
  839000   0.96284938   -4.0240151   -4.0240151   -2.5797439   0.36710755   -4.0240151    1.4442711      1024000 
  840000    0.9587678   -4.0173915   -4.0173915   -2.5792427   0.35016047   -4.0173915    1.4381488      1024000 
  841000   0.95252105   -4.0070881   -4.0070881   -2.5783095   0.31749898   -4.0070881    1.4287787      1024000 
  842000   0.94546071   -3.9953988   -3.9953988   -2.5772106   0.27825367   -3.9953988    1.4181882      1024000 
  843000   0.93725451   -3.9822156   -3.9822156   -2.5763366   0.24479274   -3.9822156    1.4058789      1024000 
  844000   0.92864103   -3.9688332   -3.9688332   -2.5758744   0.20141762   -3.9688332    1.3929587      1024000 
  845000   0.92135144   -3.9572697   -3.9572697   -2.5752453   0.16210093   -3.9572697    1.3820244      1024000 
  846000   0.91411908   -3.9453305   -3.9453305   -2.5741547   0.12577028   -3.9453305    1.3711758      1024000 
  847000   0.90660957   -3.9334717   -3.9334717   -2.5735601  0.094158203   -3.9334717    1.3599116      1024000 
  848000   0.89984466   -3.9229755   -3.9229755   -2.5732113  0.076225454   -3.9229755    1.3497642      1024000 
  849000     0.894008   -3.9137135   -3.9137135   -2.5727042  0.053639528   -3.9137135    1.3410093      1024000 
  850000   0.89103844   -3.9085645   -3.9085645   -2.5720096   0.03718459   -3.9085645    1.3365549      1024000 
  851000   0.88781147   -3.9037377   -3.9037377   -2.5720232  0.027904641   -3.9037377    1.3317145      1024000 
  852000   0.88693538   -3.9020262   -3.9020262   -2.5716259  0.021728054   -3.9020262    1.3304004      1024000 
  853000   0.88744985   -3.9027788   -3.9027788   -2.5716067  0.024558863   -3.9027788    1.3311721      1024000 
  854000    0.8880147   -3.9041369   -3.9041369   -2.5721175  0.027214932   -3.9041369    1.3320193      1024000 
  855000   0.88887318   -3.9054772   -3.9054772   -2.5721701  0.034004006   -3.9054772    1.3333071      1024000 
  856000   0.88993955   -3.9075031   -3.9075031   -2.5725965  0.042578472   -3.9075031    1.3349066      1024000 
  857000   0.89129098   -3.9102937   -3.9102937   -2.5733599  0.053086433   -3.9102937    1.3369338      1024000 
  858000   0.89388219   -3.9146335   -3.9146335   -2.5738129  0.054290356   -3.9146335    1.3408206      1024000 
  859000   0.89545228   -3.9173131   -3.9173131   -2.5741374  0.063292931   -3.9173131    1.3431757      1024000 
  860000   0.89696521   -3.9207123   -3.9207123   -2.5752672  0.071257542   -3.9207123    1.3454451      1024000 
  861000   0.89876817   -3.9238099   -3.9238099   -2.5756604  0.073330351   -3.9238099    1.3481495      1024000 
  862000   0.89856411   -3.9242135   -3.9242135     -2.57637  0.077042592   -3.9242135    1.3478434      1024000 
  863000   0.90091574   -3.9279918   -3.9279918    -2.576621  0.078187374   -3.9279918    1.3513709      1024000 
  864000   0.89979474   -3.9272824   -3.9272824    -2.577593  0.077177979   -3.9272824    1.3496894      1024000 
  865000    0.8993158   -3.9269007   -3.9269007   -2.5779298   0.08056012   -3.9269007     1.348971      1024000 
  866000   0.89777971   -3.9254195   -3.9254195   -2.5787527  0.076572913   -3.9254195    1.3466668      1024000 
  867000   0.89557704   -3.9217898   -3.9217898    -2.578427  0.072401549   -3.9217898    1.3433628      1024000 
  868000   0.89386463   -3.9196506   -3.9196506   -2.5788564  0.060584387   -3.9196506    1.3407942      1024000 
  869000   0.89278813   -3.9182166   -3.9182166   -2.5790371  0.055919349   -3.9182166    1.3391795      1024000 
  870000     0.890311   -3.9142731   -3.9142731   -2.5788093  0.047362828   -3.9142731    1.3354638      1024000 
  871000   0.88925979   -3.9126479   -3.9126479   -2.5787609  0.040572669   -3.9126479     1.333887      1024000 
  872000   0.88668637   -3.9089692   -3.9089692   -2.5789423  0.038705881   -3.9089692    1.3300269      1024000 
  873000   0.88484266   -3.9065732   -3.9065732   -2.5793119   0.04017705   -3.9065732    1.3272613      1024000 
  874000   0.88508872    -3.906975    -3.906975   -2.5793446  0.030810491    -3.906975    1.3276304      1024000 
  875000   0.88446351   -3.9061821   -3.9061821   -2.5794895  0.034314772   -3.9061821    1.3266926      1024000 
  876000   0.88543346   -3.9077138   -3.9077138   -2.5795663  0.035352233   -3.9077138    1.3281475      1024000 
  877000   0.88643727   -3.9093318   -3.9093318   -2.5796786  0.035905716   -3.9093318    1.3296532      1024000 
  878000   0.88640097   -3.9092023   -3.9092023   -2.5796036  0.044497172   -3.9092023    1.3295988      1024000 
  879000   0.88921101    -3.913263    -3.913263   -2.5794492  0.049539023    -3.913263    1.3338138      1024000 
  880000   0.89069092     -3.91564     -3.91564   -2.5796063  0.057827064     -3.91564    1.3360337      1024000 
  881000   0.89294413   -3.9192066   -3.9192066   -2.5797931  0.062993107   -3.9192066    1.3394135      1024000 
  882000    0.8946221   -3.9217711   -3.9217711   -2.5798407  0.071541451   -3.9217711    1.3419304      1024000 
  883000   0.89536986   -3.9229069   -3.9229069   -2.5798549  0.078636492   -3.9229069    1.3430521      1024000 
  884000   0.89767732    -3.926587    -3.926587   -2.5800737  0.077314944    -3.926587    1.3465132      1024000 
  885000   0.89606204   -3.9246507   -3.9246507   -2.5805604  0.080100313   -3.9246507    1.3440903      1024000 
  886000   0.89685586   -3.9259276   -3.9259276   -2.5806465   0.07429163   -3.9259276    1.3452811      1024000 
  887000   0.89766743   -3.9270932   -3.9270932   -2.5805948  0.068173464   -3.9270932    1.3464984      1024000 
  888000   0.89466301   -3.9223807   -3.9223807   -2.5803889  0.077142527   -3.9223807    1.3419918      1024000 
  889000    0.8955595   -3.9234976   -3.9234976   -2.5801611   0.06795653   -3.9234976    1.3433365      1024000 
  890000   0.89299761   -3.9193328   -3.9193328   -2.5798392   0.06935394   -3.9193328    1.3394937      1024000 
  891000   0.89283639    -3.919367    -3.919367   -2.5801151  0.057142267    -3.919367    1.3392519      1024000 
  892000   0.89018798   -3.9160485   -3.9160485   -2.5807692  0.052765807   -3.9160485    1.3352793      1024000 
  893000   0.88961692   -3.9152534   -3.9152534   -2.5808308  0.045616979   -3.9152534    1.3344227      1024000 
  894000   0.88673455   -3.9112733   -3.9112733   -2.5811742  0.047560794   -3.9112733    1.3300991      1024000 
  895000   0.88634532   -3.9108486   -3.9108486   -2.5813334  0.041789108   -3.9108486    1.3295153      1024000 
  896000   0.88454001   -3.9087526   -3.9087526   -2.5819453  0.044147001   -3.9087526    1.3268073      1024000 
  897000   0.88526074    -3.909267    -3.909267   -2.5813786  0.039213268    -3.909267    1.3278884      1024000 
  898000   0.88567322   -3.9096275   -3.9096275   -2.5811204  0.041143198   -3.9096275    1.3285071      1024000 
  899000   0.88660184   -3.9107544   -3.9107544   -2.5808543  0.040482703   -3.9107544    1.3299001      1024000 
  900000   0.88606091   -3.9097934   -3.9097934   -2.5807047  0.048877717   -3.9097934    1.3290887      1024000 
  901000   0.88823033   -3.9127466   -3.9127466   -2.5804038  0.046912961   -3.9127466    1.3323428      1024000 
  902000   0.88852048   -3.9134116   -3.9134116   -2.5806335  0.052267333   -3.9134116     1.332778      1024000 
  903000   0.88963008   -3.9154715   -3.9154715   -2.5810291  0.060049742   -3.9154715    1.3344424      1024000 
  904000   0.89070761   -3.9165834   -3.9165834   -2.5805247  0.058737665   -3.9165834    1.3360587      1024000 
  905000   0.89251441   -3.9192948   -3.9192948   -2.5805259  0.063208085   -3.9192948    1.3387689      1024000 
  906000   0.89272409   -3.9189685   -3.9189685   -2.5798851  0.066651814   -3.9189685    1.3390834      1024000 
  907000   0.89324308   -3.9196141   -3.9196141   -2.5797522  0.067540138   -3.9196141    1.3398619      1024000 
  908000   0.89313402   -3.9193945   -3.9193945   -2.5796962  0.069412276   -3.9193945    1.3396983      1024000 
  909000   0.89450693   -3.9208855   -3.9208855   -2.5791279  0.069407975   -3.9208855    1.3417577      1024000 
  910000   0.89378912   -3.9195692   -3.9195692   -2.5788883  0.064750616   -3.9195692     1.340681      1024000 
  911000   0.89350009    -3.918446    -3.918446   -2.5781986  0.057547814    -3.918446    1.3402474      1024000 
  912000   0.89345741   -3.9181183   -3.9181183   -2.5779349  0.064491941   -3.9181183    1.3401834      1024000 
  913000   0.89246366   -3.9161197   -3.9161197   -2.5774269  0.057755983   -3.9161197    1.3386928      1024000 
  914000   0.89091782   -3.9130384   -3.9130384   -2.5766644  0.056786057   -3.9130384     1.336374      1024000 
  915000    0.8898607    -3.911046    -3.911046   -2.5762577   0.05642478    -3.911046    1.3347883      1024000 
  916000   0.88952735   -3.9106791   -3.9106791   -2.5763908  0.051211219   -3.9106791    1.3342883      1024000 
  917000   0.88971016   -3.9109978   -3.9109978   -2.5764353  0.050326735   -3.9109978    1.3345625      1024000 
  918000   0.88937247   -3.9098057   -3.9098057   -2.5757497  0.043664398   -3.9098057     1.334056      1024000 
  919000   0.88850223   -3.9083854   -3.9083854   -2.5756347  0.043722345   -3.9083854    1.3327506      1024000 
  920000   0.88865049   -3.9083912   -3.9083912   -2.5754181  0.047146836   -3.9083912     1.332973      1024000 
  921000   0.88819885   -3.9075976   -3.9075976    -2.575302  0.048756325   -3.9075976    1.3322956      1024000 
  922000   0.88957822   -3.9097535   -3.9097535   -2.5753889  0.047963335   -3.9097535    1.3343646      1024000 
  923000    0.8894666   -3.9093487   -3.9093487   -2.5751515   0.04842962   -3.9093487    1.3341972      1024000 
  924000   0.89084581   -3.9109495   -3.9109495   -2.5746835  0.056360181   -3.9109495     1.336266      1024000 
  925000   0.89160799   -3.9111999   -3.9111999   -2.5737906  0.055368554   -3.9111999    1.3374093      1024000 
  926000   0.89173796   -3.9113528   -3.9113528   -2.5737485  0.055719724   -3.9113528    1.3376042      1024000 
  927000   0.89144289   -3.9112656   -3.9112656    -2.574104  0.055808673   -3.9112656    1.3371616      1024000 
  928000   0.89311086   -3.9131516   -3.9131516   -2.5734881  0.057744136   -3.9131516    1.3396636      1024000 
  929000   0.89246414   -3.9120089   -3.9120089   -2.5733154  0.061460136   -3.9120089    1.3386935      1024000 
  930000   0.89267062   -3.9120787   -3.9120787   -2.5730755  0.062112755   -3.9120787    1.3390032      1024000 
  931000   0.89282903   -3.9120456   -3.9120456   -2.5728048  0.057967539   -3.9120456    1.3392408      1024000 
  932000   0.89109726    -3.909254    -3.909254   -2.5726109  0.063101242    -3.909254    1.3366432      1024000 
  933000   0.89391027   -3.9127073   -3.9127073   -2.5718446  0.055985748   -3.9127073    1.3408627      1024000 
  934000   0.89259259   -3.9101513   -3.9101513   -2.5712651   0.06011637   -3.9101513    1.3388862      1024000 
  935000   0.89290406   -3.9107454   -3.9107454    -2.571392  0.054614817   -3.9107454    1.3393534      1024000 
  936000   0.89084218   -3.9075009   -3.9075009   -2.5712403  0.058115325   -3.9075009    1.3362606      1024000 
  937000   0.89148052   -3.9081339   -3.9081339   -2.5709158   0.05019656   -3.9081339    1.3372181      1024000 
  938000   0.89026982   -3.9060093   -3.9060093   -2.5706073   0.05120475   -3.9060093     1.335402      1024000 
  939000   0.88987371   -3.9048213   -3.9048213   -2.5700134  0.049603448   -3.9048213    1.3348079      1024000 
  940000   0.88952614   -3.9038946   -3.9038946   -2.5696081  0.049169763   -3.9038946    1.3342865      1024000 
  941000   0.89008907   -3.9043554   -3.9043554   -2.5692245  0.047483123   -3.9043554    1.3351309      1024000 
  942000   0.89018033   -3.9034553   -3.9034553   -2.5681875  0.047612269   -3.9034553    1.3352678      1024000 
  943000   0.89064311   -3.9037646   -3.9037646   -2.5678026  0.051631183   -3.9037646     1.335962      1024000 
  944000   0.89087524   -3.9036049   -3.9036049   -2.5672948    0.0481655   -3.9036049    1.3363101      1024000 
  945000   0.89073299   -3.9031219   -3.9031219   -2.5670251  0.050547423   -3.9031219    1.3360968      1024000 
  946000   0.89050533   -3.9029198   -3.9029198   -2.5671645  0.050112037   -3.9029198    1.3357553      1024000 
  947000   0.89104176   -3.9034719   -3.9034719    -2.566912   0.05196648   -3.9034719    1.3365599      1024000 
  948000   0.89250688   -3.9047544   -3.9047544   -2.5659968  0.052601316   -3.9047544    1.3387576      1024000 
  949000   0.89263446    -3.904701    -3.904701    -2.565752  0.055535884    -3.904701     1.338949      1024000 
  950000   0.89424151   -3.9066009   -3.9066009   -2.5652414  0.056551664   -3.9066009    1.3413595      1024000 
  951000   0.89445089   -3.9065408   -3.9065408   -2.5648672  0.050294762   -3.9065408    1.3416736      1024000 
  952000   0.89443441   -3.9060109   -3.9060109    -2.564362  0.053618656   -3.9060109    1.3416489      1024000 
  953000   0.89404732   -3.9052679   -3.9052679   -2.5641997  0.058854976   -3.9052679    1.3410683      1024000 
  954000   0.89519311   -3.9065259   -3.9065259   -2.5637389  0.051417076   -3.9065259    1.3427869      1024000 
  955000   0.89394056   -3.9034352   -3.9034352   -2.5625271  0.057130805   -3.9034352    1.3409081      1024000 
  956000   0.89478304   -3.9043536   -3.9043536   -2.5621818  0.057232596   -3.9043536    1.3421718      1024000 
  957000   0.89472777   -3.9043183   -3.9043183   -2.5622293  0.048805493   -3.9043183    1.3420889      1024000 
  958000   0.89383091   -3.9028598   -3.9028598   -2.5621162  0.054790666   -3.9028598    1.3407436      1024000 
  959000   0.89451261   -3.9023637   -3.9023637   -2.5605975  0.053212118   -3.9023637    1.3417662      1024000 
  960000   0.89534996   -3.9033083   -3.9033083   -2.5602861  0.053696205   -3.9033083    1.3430222      1024000 
  961000   0.89500503   -3.9016566   -3.9016566   -2.5591517  0.054906205   -3.9016566    1.3425048      1024000 
  962000   0.89500378   -3.9007171   -3.9007171   -2.5582141  0.051855233   -3.9007171    1.3425029      1024000 
  963000   0.89567788   -3.9013178   -3.9013178   -2.5578038  0.050978787   -3.9013178    1.3435141      1024000 
  964000    0.8955266   -3.9010781   -3.9010781   -2.5577909  0.045709864   -3.9010781    1.3432872      1024000 
  965000   0.89362843   -3.8978438   -3.8978438   -2.5574039  0.047298737   -3.8978438    1.3404399      1024000 
  966000    0.8950107   -3.8997415   -3.8997415   -2.5572282  0.051197338   -3.8997415    1.3425133      1024000 
  967000   0.89564034   -3.9001268   -3.9001268   -2.5566691  0.050213775   -3.9001268    1.3434578      1024000 
  968000   0.89440397   -3.8979539   -3.8979539   -2.5563507  0.051032015   -3.8979539    1.3416032      1024000 
  969000   0.89562105   -3.8990254   -3.8990254   -2.5555966  0.049409415   -3.8990254    1.3434288      1024000 
  970000    0.8956872   -3.8983753   -3.8983753   -2.5548472  0.055090639   -3.8983753    1.3435281      1024000 
  971000   0.89551923   -3.8974463   -3.8974463   -2.5541702  0.051030411   -3.8974463    1.3432761      1024000 
  972000   0.89483781   -3.8960847   -3.8960847   -2.5538307  0.060018143   -3.8960847     1.342254      1024000 
  973000   0.89774022   -3.9000525   -3.9000525   -2.5534449  0.053239494   -3.9000525    1.3466076      1024000 
  974000   0.89693988   -3.8985948   -3.8985948   -2.5531877  0.060782826   -3.8985948    1.3454071      1024000 
  975000   0.89753953   -3.8990307   -3.8990307   -2.5527242  0.059239284   -3.8990307    1.3463066      1024000 
  976000   0.89795499   -3.8992536   -3.8992536   -2.5523239  0.053422461   -3.8992536    1.3469297      1024000 
  977000    0.8974216   -3.8980094   -3.8980094   -2.5518797  0.056455322   -3.8980094    1.3461297      1024000 
  978000    0.8975045   -3.8975671   -3.8975671   -2.5513131  0.057321751   -3.8975671     1.346254      1024000 
  979000   0.89720962   -3.8971354   -3.8971354   -2.5513237  0.056083658   -3.8971354    1.3458117      1024000 
  980000   0.89806792   -3.8976966   -3.8976966   -2.5505975  0.050581185   -3.8976966    1.3470992      1024000 
  981000   0.89736128   -3.8960207   -3.8960207   -2.5499815  0.058007448   -3.8960207    1.3460392      1024000 
  982000   0.89853806   -3.8975934   -3.8975934    -2.549789  0.053233386   -3.8975934    1.3478044      1024000 
  983000   0.89651722   -3.8942383   -3.8942383   -2.5494652   0.04983195   -3.8942383    1.3447731      1024000 
  984000   0.89725266    -3.894634    -3.894634   -2.5487578  0.052214583    -3.894634    1.3458763      1024000 
  985000   0.89679529   -3.8939907   -3.8939907   -2.5488005  0.056890448   -3.8939907    1.3451902      1024000 
  986000   0.89866813   -3.8963143   -3.8963143   -2.5483148  0.051638789   -3.8963143    1.3479995      1024000 
  987000   0.89793611   -3.8951357   -3.8951357   -2.5482342  0.056230729   -3.8951357    1.3469014      1024000 
  988000   0.89785421    -3.894187    -3.894187   -2.5474084  0.050421886    -3.894187    1.3467786      1024000 
  989000   0.89882446   -3.8953141   -3.8953141   -2.5470802  0.054699511   -3.8953141     1.348234      1024000 
  990000   0.89816529    -3.893893    -3.893893   -2.5466478  0.059155635    -3.893893    1.3472452      1024000 
  991000   0.90045221   -3.8968217   -3.8968217   -2.5461462  0.051431367   -3.8968217    1.3506756      1024000 
  992000   0.90045532   -3.8964747   -3.8964747   -2.5457945  0.067451342   -3.8964747    1.3506802      1024000 
  993000   0.90251035   -3.8989207   -3.8989207   -2.5451579  0.072460886   -3.8989207    1.3537628      1024000 
  994000   0.90498843   -3.9024645   -3.9024645   -2.5449846  0.076782945   -3.9024645    1.3574799      1024000 
  995000   0.90774811    -3.905916    -3.905916   -2.5442966  0.094569741    -3.905916    1.3616194      1024000 
  996000   0.91230188   -3.9126529   -3.9126529   -2.5442028   0.11072663   -3.9126529      1.36845      1024000 
  997000   0.91834639   -3.9212342   -3.9212342   -2.5437174   0.12703116   -3.9212342    1.3775168      1024000 
  998000   0.92278443   -3.9272851   -3.9272851   -2.5431113    0.1460113   -3.9272851    1.3841738      1024000 
  999000   0.92806496   -3.9347538   -3.9347538   -2.5426592   0.16767312   -3.9347538    1.3920946      1024000 
 1000000   0.93248805   -3.9409392   -3.9409392     -2.54221   0.19444179   -3.9409392    1.3987292      1024000 
Loop time of 7413.19 on 32 procs for 1000000 steps with 492800 atoms

Performance: 29137.260 tau/day, 134.895 timesteps/s
99.7% CPU use with 32 MPI tasks x 1 OpenMP threads

MPI task timing breakdown:
Section |  min time  |  avg time  |  max time  |%varavg|  %CPU | %total
-----------------------------------------------------------------------
Pair    | 4093.6     | 4741.3     | 5074.7     | 510.0 |  99.7 | 63.96
Bond    | 0.62549    | 0.64696    | 0.67273    |   1.4 | 100.0 |  0.01
Neigh   | 1083.9     | 1241.7     | 1310       | 205.0 |  99.8 | 16.75
Comm    | 617.62     | 970.84     | 1816.1     |1144.8 |  99.5 | 13.10
Output  | 22.608     | 22.786     | 22.793     |   0.7 |  98.2 |  0.31
Modify  | 154.93     | 234.88     | 599.38     | 956.9 |  99.2 |  3.17
Other   |            | 201.1      |            |       |       |  2.71

Nlocal:        15400.0 ave       15663 max       13416 min
Histogram: 1 1 0 0 0 0 0 1 4 25
Nghost:        12135.4 ave       13783 max        8113 min
Histogram: 4 1 3 0 0 0 0 4 4 16
Neighs:        503528.0 ave      575873 max      223077 min
Histogram: 2 2 0 0 0 0 0 4 8 16

Total # of neighbors = 16112881
Ave neighs/atom = 32.696593
Ave special neighs/atom = 0.0000000
Neighbor list builds = 62090
Dangerous builds = 114
Total wall time: 2:03:34
