LAMMPS (24 Dec 2020)
OMP_NUM_THREADS environment is not set. Defaulting to 1 thread. (src/comm.cpp:94)
  using 1 OpenMP thread(s) per MPI task
#Read the equilibrated lj fluid and add nanocubes

units           lj
atom_style      full
atom_modify     map array first cubes
dimension       3
boundary        p p f
pair_style      lj/smooth/linear 2.0

variable        sigma           equal 1.0
variable        epsilon         equal 1.0
read_restart	restart.dat.5000000
Reading restart file ...
  restart file = 24 Dec 2020, LAMMPS = 24 Dec 2020
WARNING: Restart file used different # of processors: 192 vs. 288 (src/read_restart.cpp:697)
  restoring atom style full from restart
  orthogonal box = (0.0000000 0.0000000 0.0000000) to (80.000000 80.000000 160.00000)
  6 by 4 by 12 MPI processor grid
  restoring pair style lj/smooth/linear from restart
  439061 atoms
Finding 1-2 1-3 1-4 neighbors ...
  special bond factors lj:    0        0        0       
  special bond factors coul:  0        0        0       
     0 = max # of 1-2 neighbors
     0 = max # of 1-3 neighbors
     0 = max # of 1-4 neighbors
     1 = max # of special neighbors
  special bonds CPU = 2.294 seconds
  read_restart CPU = 2.689 seconds

group		solvent type 1
439061 atoms in group solvent

read_data	data_64.cubes group cubes add append
Reading data file ...
  orthogonal box = (0.0000000 0.0000000 0.0000000) to (80.000000 80.000000 160.00000)
  6 by 4 by 12 MPI processor grid
WARNING: Pair style in data file differs from currently defined pair style (src/read_data.cpp:588)
  reading atoms ...
  85184 atoms
  reading velocities ...
  85184 velocities
Finding 1-2 1-3 1-4 neighbors ...
  special bond factors lj:    0        0        0       
  special bond factors coul:  0        0        0       
     0 = max # of 1-2 neighbors
     0 = max # of 1-3 neighbors
     0 = max # of 1-4 neighbors
     1 = max # of special neighbors
  special bonds CPU = 0.030 seconds
  read_data CPU = 0.245 seconds

group 		hull  type 2
38528 atoms in group hull
group 		dummy type 3
46656 atoms in group dummy

neighbor      0.4 bin
neigh_modify  exclude molecule/intra cubes


pair_modify   shift yes

pair_coeff    1 1 1.0 1.0 #solvent
pair_coeff    2 2 1.0 1.0 1.12 #np
pair_coeff    3 3 0.0 0.0 0.0 #dummy
pair_coeff    2 3 0.0 0.0 0.0 #np dummy
pair_coeff    1 2 ${eps} ${sig} ${nscut} #np solvent
pair_coeff    1 2 1.0 ${sig} ${nscut} 
pair_coeff    1 2 1.0 1.0 ${nscut} 
pair_coeff    1 2 1.0 1.0 4.0 
pair_coeff    1 3 0.0 0.0 2.5 #dummy solvent

# delete solvent where the cubes are
delete_atoms  overlap 2.0 solvent cubes
System init for delete_atoms ...
Neighbor list info ...
  update every 1 steps, delay 10 steps, check yes
  max neighbors/atom: 2000, page size: 100000
  master list distance cutoff = 4.4
  ghost atom cutoff = 4.4
  binsize = 2.2, bins = 37 37 73
  2 neighbor lists, perpetual/occasional/extra = 1 1 0
  (1) command delete_atoms, occasional
      attributes: full, newton on
      pair build: full/bin
      stencil: full/bin/3d
      bin: standard
  (2) pair lj/smooth/linear, perpetual
      attributes: half, newton on
      pair build: half/bin/newton
      stencil: half/bin/3d/newton
      bin: standard
WARNING: Delete_atoms cutoff > minimum neighbor cutoff (src/delete_atoms.cpp:307)
WARNING: Ignoring 'compress yes' for molecular system (src/delete_atoms.cpp:125)
Deleted 99694 atoms, new total = 424551



pair_coeff    1 1 1.0 1.0 #solvent
pair_coeff    2 2 1.0 1.0 1.12 #np
pair_coeff    3 3 0.0 0.0 0.0 #dummy
pair_coeff    2 3 0.0 0.0 0.0 #np dummy
pair_coeff    1 2 ${eps} ${sig} ${nscut} #np solvent
pair_coeff    1 2 1.0 ${sig} ${nscut} 
pair_coeff    1 2 1.0 1.0 ${nscut} 
pair_coeff    1 2 1.0 1.0 4.0 
pair_coeff    1 3 0.0 0.0 0.0 #dummy solvent


comm_modify   mode multi cutoff/multi 1 2.0 cutoff/multi 2 2.0 cutoff/multi 3 8.67

reset_timestep 	0

balance 	1.05 shift z 10 1.05
Balancing ...
Neighbor list info ...
  update every 1 steps, delay 10 steps, check yes
  max neighbors/atom: 2000, page size: 100000
  master list distance cutoff = 4.4
  ghost atom cutoff = 8.67
  binsize = 2.2, bins = 37 37 73
  1 neighbor lists, perpetual/occasional/extra = 1 0 0
  (1) pair lj/smooth/linear, perpetual
      attributes: half, newton on
      pair build: half/bin/newton
      stencil: half/bin/3d/newton
      bin: standard
 rebalancing time: 0.004 seconds
  iteration count = 4
  initial/final maximal load/proc = 2235.0000 2121.0000
  initial/final imbalance factor  = 1.5161429 1.4388095
  x cuts: 0.0000000 0.16666667 0.33333333 0.50000000 0.66666667 0.83333333 1.0000000
  y cuts: 0.0000000 0.25000000 0.50000000 0.75000000 1.0000000
  z cuts: 0.0000000 0.057291667 0.11979167 0.17187500 0.23958333 0.28125000 0.34375000 0.41145833 0.46354167 0.51562500 0.59895833 0.64583333 1.0000000

####################### WALLS ###########################

variable       epsilonWall equal 2*${epsilon}
variable       epsilonWall equal 2*1
variable       repulsive   equal   0.7147*${sigma}
variable       repulsive   equal   0.7147*1
variable       full	   equal   3*${sigma}
variable       full	   equal   3*1
region         lowWall block EDGE EDGE EDGE EDGE EDGE 2

fix            topWall all wall/lj93 zhi EDGE 	       ${epsilonWall} ${sigma} ${repulsive} units box
fix            topWall all wall/lj93 zhi EDGE 	       2 ${sigma} ${repulsive} units box
fix            topWall all wall/lj93 zhi EDGE 	       2 1 ${repulsive} units box
fix            topWall all wall/lj93 zhi EDGE 	       2 1 0.7147 units box
fix            lowSol solvent wall/lj93 zlo EDGE                ${epsilonWall} ${sigma} ${full} units box
fix            lowSol solvent wall/lj93 zlo EDGE                2 ${sigma} ${full} units box
fix            lowSol solvent wall/lj93 zlo EDGE                2 1 ${full} units box
fix            lowSol solvent wall/lj93 zlo EDGE                2 1 3 units box
fix 	       lowCub cubes wall/lj93 zlo EDGE                ${epsilonWall} ${sigma} ${repulsive} units box
fix 	       lowCub cubes wall/lj93 zlo EDGE                2 ${sigma} ${repulsive} units box
fix 	       lowCub cubes wall/lj93 zlo EDGE                2 1 ${repulsive} units box
fix 	       lowCub cubes wall/lj93 zlo EDGE                2 1 0.7147 units box


###################### COMPUTES ##########################

compute        bin1 solvent chunk/atom bin/1d z lower 1.0 units box


######################  FIXES ############################


fix             peclet solvent ave/chunk 10 10 10000 bin1 density/number norm                  none ave one file density.profile

fix              temp solvent ave/chunk 10 10 10000 bin1 temp norm                  none ave one file temp.profile

fix             1 cubes rigid/nve/small molecule
  create bodies CPU = 0.025 seconds
  64 rigid bodies with 85184 atoms
  8.6602540 = max distance from body owner to body atom

fix             2 solvent nve# temp ${temp} ${temp} 10


## Thermostat
region          regthermo block EDGE EDGE EDGE EDGE 0 15
group           thermo dynamic solvent region regthermo every 1000
dynamic group thermo defined
fix             3 thermo langevin ${temp} ${temp} 10 156453
fix             3 thermo langevin 0.6 ${temp} 10 156453
fix             3 thermo langevin 0.6 0.6 10 156453


#### Load balancing

fix             bal all balance 1000 1.05 shift z 10 1.05

############### Diagnostics and computes ###################

compute        	com cubes          rigid/local   1 mol x y z
compute        	quat cubes         rigid/local   1 mol quatw quati quatj quatk

compute 	cc2 cubes 	   chunk/atom 	 molecule
compute 	msd cubes 	   msd/chunk 	 cc2

fix 		msd all ave/time  1 1 10000 c_msd[*] file dump.msd ave one mode vector

dump            1 all custom 500000 dump.lammpstrj id mol type x y z
dump		cubetrj hull custom 500000 cubes.lammpstrj id mol type x y z
dump            com cubes local 10000 dump.*.xyz c_com[*]
dump	        xyz hull xyz 100000 cubes.xyz
dump            quat cubes      local 10000 dump.*.quat c_quat[*]
#dump		mol cubes molfile 10000 mol.xyz xyz


dump            2 all image 10000 image.*.png type type zoom 1.5 size 1280 720
dump_modify     2 pad 8
dump		image cubes image 10000 image_cubes.*.png type type zoom 1.5 size 1280 720
dump_modify	image pad 8
dump            3 all movie 5000 movie.avi type type zoom 1.5 size 1280 720
dump		4 cubes movie 5000 movie_cubes.avi type type size 1280 720


thermo          1000
thermo_style    custom step temp epair evdwl etotal press pe ke atoms

restart         1000000 restart.dat
timestep        0.005
timer           full
New timer settings: style=full  mode=nosync  timeout=off

run 		5000000
Per MPI rank memory allocation (min/avg/max) = 14.07 | 19.99 | 23.03 Mbytes
Step Temp E_pair E_vdwl TotEng Press PotEng KinEng Atoms 
       0    0.6081211   -1.7720819   -1.7720819    -1.042652  0.020335248   -1.7720819    0.7294299   424551 
    1000    0.6342432   -1.8035285   -1.8035285   -1.0427656 0.0057120808   -1.8035285   0.76076288   424551 
    2000   0.65773935   -1.8354961   -1.8354961     -1.04655  0.033978095   -1.8354961   0.78894608   424551 
    3000   0.66724443   -1.8515041   -1.8515041   -1.0511569  0.046228318   -1.8515041   0.80034723   424551 
    4000   0.67139854   -1.8621602   -1.8621602   -1.0568301  0.048670478   -1.8621602   0.80533002   424551 
    5000   0.67201115   -1.8686565   -1.8686565   -1.0625917  0.058638527   -1.8686565   0.80606483   424551 
    6000   0.67166886   -1.8741314   -1.8741314   -1.0684772  0.054088315   -1.8741314   0.80565426   424551 
    7000   0.67281703   -1.8801124   -1.8801124    -1.073081   0.05892637   -1.8801124   0.80703147   424551 
    8000   0.66991566   -1.8817802   -1.8817802   -1.0782289  0.060827359   -1.8817802   0.80355132   424551 
    9000   0.66799648   -1.8841858   -1.8841858   -1.0829365  0.060254036   -1.8841858   0.80124931   424551 
   10000   0.66613051   -1.8883448   -1.8883448   -1.0893336  0.053327649   -1.8883448   0.79901112   424551 
   11000   0.66486795   -1.8920533   -1.8920533   -1.0945566  0.057935542   -1.8920533    0.7974967   424551 
   12000   0.66262693   -1.8948944   -1.8948944   -1.1000858  0.054386643   -1.8948944   0.79480863   424551 
   13000   0.66122741   -1.8981887   -1.8981887   -1.1050588  0.060164434   -1.8981887   0.79312994   424551 
   14000   0.66029832   -1.9020978   -1.9020978   -1.1100823  0.047965324   -1.9020978   0.79201551   424551 
   15000   0.65875095   -1.9049302   -1.9049302   -1.1147708  0.055635536   -1.9049302   0.79015947   424551 
   16000   0.65793332   -1.9069183   -1.9069183   -1.1177395  0.058275097   -1.9069183   0.78917873   424551 
   17000   0.65544111   -1.9066866   -1.9066866   -1.1204972  0.051320745   -1.9066866   0.78618938   424551 
   18000   0.65530712   -1.9092188   -1.9092188   -1.1231901  0.049339612   -1.9092188   0.78602866   424551 
   19000   0.65563167   -1.9119978   -1.9119978   -1.1255798  0.053139384   -1.9119978   0.78641795   424551 
   20000   0.65433431   -1.9121527   -1.9121527   -1.1272909  0.048009514   -1.9121527   0.78486179   424551 
   21000   0.65297648   -1.9120652   -1.9120652   -1.1288321  0.054286563   -1.9120652    0.7832331   424551 
   22000   0.65262612    -1.912909    -1.912909   -1.1300961  0.045583447    -1.912909   0.78281285   424551 
   23000   0.65115994   -1.9123273   -1.9123273   -1.1312731  0.047210381   -1.9123273    0.7810542   424551 
   24000   0.65091173   -1.9135705   -1.9135705    -1.132814  0.047211638   -1.9135705   0.78075647   424551 
   25000   0.64890193    -1.911958    -1.911958   -1.1336122  0.045379665    -1.911958   0.77834576   424551 
   26000   0.64806578   -1.9121538   -1.9121538    -1.134811  0.049956416   -1.9121538    0.7773428   424551 
   27000   0.64962636   -1.9143687   -1.9143687    -1.135154   0.04725123   -1.9143687   0.77921469   424551 
   28000   0.64792215   -1.9120233   -1.9120233   -1.1348528  0.053041997   -1.9120233   0.77717053   424551 
   29000   0.64909215   -1.9136107   -1.9136107   -1.1350367  0.041098334   -1.9136107   0.77857392   424551 
   30000   0.64830507   -1.9133254   -1.9133254   -1.1356956  0.059131939   -1.9133254   0.77762983   424551 
   31000   0.64751968   -1.9134641   -1.9134641   -1.1367763   0.05898551   -1.9134641   0.77668777   424551 
   32000   0.64757434   -1.9138393   -1.9138393   -1.1370859  0.045772409   -1.9138393   0.77675333   424551 
   33000   0.64834237   -1.9164165   -1.9164165   -1.1387419  0.043276385   -1.9164165   0.77767458   424551 
   34000   0.64708525   -1.9153243   -1.9153243   -1.1391577  0.045551107   -1.9153243   0.77616668   424551 
   35000    0.6461044   -1.9152265   -1.9152265   -1.1402364  0.043485433   -1.9152265   0.77499016   424551 
   36000   0.64581897   -1.9156208   -1.9156208    -1.140973  0.045328088   -1.9156208    0.7746478   424551 
   37000   0.64679348   -1.9172509   -1.9172509   -1.1414342  0.039036439   -1.9172509    0.7758167   424551 
   38000   0.64542223   -1.9160105   -1.9160105   -1.1418386   0.05157399   -1.9160105   0.77417192   424551 
   39000    0.6461228   -1.9176179   -1.9176179   -1.1426057  0.050805508   -1.9176179   0.77501224   424551 
   40000   0.64528416    -1.917379    -1.917379   -1.1433727   0.05688025    -1.917379    0.7740063   424551 
   41000   0.64482799    -1.917243    -1.917243   -1.1437838    0.0561445    -1.917243   0.77345914   424551 
   42000   0.64575922   -1.9190436   -1.9190436   -1.1444674  0.050479825   -1.9190436   0.77457613   424551 
   43000   0.64519621   -1.9194388   -1.9194388    -1.145538  0.047136768   -1.9194388   0.77390081   424551 
   44000   0.64553198   -1.9201072   -1.9201072   -1.1458036   0.04391141   -1.9201072   0.77430356   424551 
   45000   0.64484436   -1.9203163   -1.9203163   -1.1468375  0.047631749   -1.9203163   0.77347877   424551 
   46000   0.64507611   -1.9221076   -1.9221076   -1.1483509  0.044800384   -1.9221076   0.77375675   424551 
   47000   0.64417218   -1.9218598   -1.9218598   -1.1491872  0.050146636   -1.9218598    0.7726725   424551 
   48000   0.64316526   -1.9212974   -1.9212974   -1.1498326  0.044729361   -1.9212974   0.77146472   424551 
   49000   0.64597973   -1.9245288   -1.9245288   -1.1496881  0.048833187   -1.9245288   0.77484062   424551 
   50000   0.64525792   -1.9239556   -1.9239556   -1.1499807  0.050043615   -1.9239556   0.77397483   424551 
   51000   0.64583028   -1.9259735   -1.9259735   -1.1513121  0.053679189   -1.9259735   0.77466137   424551 
   52000   0.64556016   -1.9256996   -1.9256996   -1.1513622  0.044986079   -1.9256996   0.77433736   424551 
   53000   0.64555368   -1.9255666   -1.9255666    -1.151237  0.052249173   -1.9255666   0.77432959   424551 
   54000   0.64534305    -1.926568    -1.926568    -1.152491  0.051966904    -1.926568   0.77407694   424551 
   55000   0.64601347    -1.927628    -1.927628   -1.1527469  0.051234885    -1.927628    0.7748811   424551 
   56000   0.64693495   -1.9288477   -1.9288477   -1.1528613   0.04996028   -1.9288477    0.7759864   424551 
   57000   0.64390981   -1.9263371   -1.9263371   -1.1539793    0.0551893   -1.9263371   0.77235779   424551 
   58000   0.64547922   -1.9279022   -1.9279022   -1.1536619  0.057466663   -1.9279022   0.77424028   424551 
   59000   0.64486088   -1.9291122   -1.9291122   -1.1556136   0.04732386   -1.9291122   0.77349859   424551 
   60000    0.6449434   -1.9298068   -1.9298068   -1.1562092  0.049459616   -1.9298068   0.77359757   424551 
   61000   0.64525087   -1.9308757   -1.9308757   -1.1569093  0.054630796   -1.9308757   0.77396637   424551 
   62000   0.64518618   -1.9310753   -1.9310753   -1.1571865  0.057206553   -1.9310753   0.77388879   424551 
   63000   0.64552039   -1.9318755   -1.9318755   -1.1575858  0.047279451   -1.9318755   0.77428966   424551 
   64000   0.64588228   -1.9328215   -1.9328215   -1.1580978  0.048287526   -1.9328215   0.77472373   424551 
   65000   0.64443559   -1.9318246   -1.9318246   -1.1588361  0.052529784   -1.9318246   0.77298846   424551 
   66000   0.64640966   -1.9343494   -1.9343494    -1.158993  0.052638219   -1.9343494   0.77535632   424551 
   67000    0.6444452   -1.9324148   -1.9324148   -1.1594149  0.045983716   -1.9324148   0.77299999   424551 
   68000   0.64616403   -1.9348004   -1.9348004   -1.1597387  0.048424606   -1.9348004   0.77506169   424551 
   69000   0.64675431   -1.9354934   -1.9354934   -1.1597237  0.054944043   -1.9354934   0.77576973   424551 
   70000   0.64653771   -1.9360219   -1.9360219    -1.160512  0.063493469   -1.9360219   0.77550991   424551 
   71000    0.6451137   -1.9350282   -1.9350282   -1.1612264  0.050113896   -1.9350282   0.77380184   424551 
   72000   0.64598184   -1.9368229   -1.9368229   -1.1619797  0.051480649   -1.9368229   0.77484316   424551 
   73000   0.64465317    -1.935827    -1.935827   -1.1625775  0.053524304    -1.935827   0.77324944   424551 
   74000   0.64510996   -1.9367456   -1.9367456   -1.1629482  0.047550926   -1.9367456   0.77379736   424551 
   75000   0.64514408   -1.9380047   -1.9380047   -1.1641664  0.058433052   -1.9380047   0.77383828   424551 
   76000   0.64493583   -1.9384601   -1.9384601   -1.1648716  0.043867343   -1.9384601   0.77358849   424551 
   77000   0.64281107   -1.9369386   -1.9369386   -1.1658987  0.054409597   -1.9369386   0.77103988   424551 
   78000   0.64522275   -1.9397048   -1.9397048   -1.1657721  0.044915535   -1.9397048   0.77393265   424551 
   79000   0.64533859   -1.9399171   -1.9399171   -1.1658455   0.04628759   -1.9399171    0.7740716   424551 
   80000   0.64492585    -1.940472    -1.940472   -1.1668955   0.05037785    -1.940472   0.77357653   424551 
   81000   0.64420154   -1.9402386   -1.9402386   -1.1675308  0.051580215   -1.9402386   0.77270773   424551 
   82000   0.64468585   -1.9414649   -1.9414649   -1.1681763   0.06032339   -1.9414649   0.77328864   424551 
   83000   0.64575168   -1.9434037   -1.9434037   -1.1688366  0.049877932   -1.9434037   0.77456709   424551 
   84000   0.64506175   -1.9435305   -1.9435305    -1.169791  0.056565178   -1.9435305   0.77373953   424551 
   85000   0.64345294   -1.9423907   -1.9423907   -1.1705809  0.056269175   -1.9423907   0.77180979   424551 
   86000   0.64352785   -1.9438114   -1.9438114   -1.1719117  0.050739576   -1.9438114   0.77189964   424551 
   87000   0.64480263   -1.9444079   -1.9444079   -1.1709792   0.05114087   -1.9444079   0.77342872   424551 
   88000   0.64453856   -1.9446999   -1.9446999   -1.1715879  0.049317992   -1.9446999   0.77311197   424551 
   89000   0.64459226   -1.9450475   -1.9450475   -1.1718711  0.050889927   -1.9450475   0.77317639   424551 
   90000   0.64503445   -1.9463457   -1.9463457    -1.172639  0.057008363   -1.9463457   0.77370678   424551 
   91000   0.64368081   -1.9450359   -1.9450359   -1.1729527  0.056130652   -1.9450359   0.77208311   424551 
   92000   0.64398195    -1.945721    -1.945721   -1.1732767  0.052631365    -1.945721   0.77244432   424551 
   93000   0.64409562   -1.9460667   -1.9460667    -1.173486   0.05206181   -1.9460667   0.77258068   424551 
   94000   0.64401314    -1.946176    -1.946176   -1.1736943  0.053946528    -1.946176   0.77248174   424551 
   95000   0.64383509   -1.9469696   -1.9469696   -1.1747014  0.051708074   -1.9469696   0.77226817   424551 
   96000    0.6441628   -1.9478624   -1.9478624   -1.1752012  0.057777505   -1.9478624   0.77266125   424551 
   97000   0.64395822   -1.9482417   -1.9482417   -1.1758258  0.055099195   -1.9482417   0.77241586   424551 
   98000   0.64403798   -1.9486469   -1.9486469   -1.1761354  0.044172032   -1.9486469   0.77251154   424551 
   99000   0.64378152    -1.948986    -1.948986   -1.1767821  0.055285594    -1.948986   0.77220391   424551 
  100000   0.64422448   -1.9498286   -1.9498286   -1.1770933  0.056409702   -1.9498286   0.77273524   424551 
  101000   0.64375967   -1.9495073   -1.9495073   -1.1773296  0.055247418   -1.9495073   0.77217771   424551 
  102000   0.64352008   -1.9494433   -1.9494433    -1.177553  0.052291476   -1.9494433   0.77189032   424551 
  103000   0.64379246   -1.9499631   -1.9499631    -1.177746  0.060484626   -1.9499631   0.77221704   424551 
  104000   0.64425718   -1.9519241   -1.9519241   -1.1791496  0.048079652   -1.9519241   0.77277447   424551 
  105000   0.64332661   -1.9512572   -1.9512572    -1.179599  0.054026628   -1.9512572   0.77165826   424551 
  106000   0.64385561   -1.9524921   -1.9524921   -1.1801993  0.052498986   -1.9524921   0.77229278   424551 
  107000   0.64471522    -1.953708    -1.953708   -1.1803842   0.05123131    -1.953708   0.77332387   424551 
  108000   0.64202926   -1.9509292   -1.9509292   -1.1808271   0.04601493   -1.9509292   0.77010211   424551 
  109000   0.64372092   -1.9529633   -1.9529633    -1.180832  0.051383066   -1.9529633   0.77213123   424551 
  110000   0.64224477   -1.9510497   -1.9510497   -1.1806891  0.044124483   -1.9510497   0.77036062   424551 
  111000   0.64340067    -1.952673    -1.952673   -1.1809259  0.046050239    -1.952673   0.77174709   424551 
  112000   0.64172603   -1.9517968   -1.9517968   -1.1820584  0.046815354   -1.9517968   0.76973839   424551 
  113000   0.64250502   -1.9530677   -1.9530677   -1.1823949  0.050157412   -1.9530677   0.77067278   424551 
  114000   0.64094379   -1.9519315   -1.9519315   -1.1831314  0.050678931   -1.9519315   0.76880011   424551 
  115000   0.64208065   -1.9536188   -1.9536188    -1.183455  0.056278796   -1.9536188   0.77016375   424551 
  116000   0.64206455   -1.9538255   -1.9538255    -1.183681  0.046072956   -1.9538255   0.77014444   424551 
  117000   0.64068204   -1.9526459   -1.9526459   -1.1841597  0.053803147   -1.9526459   0.76848614   424551 
  118000   0.64134594   -1.9538815   -1.9538815    -1.184599  0.052126865   -1.9538815   0.76928248   424551 
  119000   0.64013752   -1.9534348   -1.9534348   -1.1856018  0.050931449   -1.9534348   0.76783301   424551 
  120000   0.64041242   -1.9538339   -1.9538339   -1.1856712  0.051539854   -1.9538339   0.76816274   424551 
  121000   0.64063192   -1.9546266   -1.9546266   -1.1862006  0.056189392   -1.9546266   0.76842603   424551 
  122000   0.64046755   -1.9542145   -1.9542145   -1.1859856  0.055020675   -1.9542145   0.76822887   424551 
  123000   0.64138578   -1.9563553   -1.9563553    -1.187025  0.047741873   -1.9563553   0.76933027   424551 
  124000   0.64023613   -1.9552485   -1.9552485   -1.1872972  0.052823369   -1.9552485   0.76795128   424551 
  125000   0.64060415   -1.9559439   -1.9559439   -1.1875512  0.045758715   -1.9559439   0.76839272   424551 
  126000    0.6410166    -1.957506    -1.957506   -1.1886186  0.048394565    -1.957506   0.76888745   424551 
  127000   0.64028017   -1.9569155   -1.9569155   -1.1889113  0.050124015   -1.9569155   0.76800412   424551 
  128000   0.64030904   -1.9571196   -1.9571196   -1.1890809  0.049465227   -1.9571196   0.76803874   424551 
  129000   0.63922409   -1.9566241   -1.9566241   -1.1898867    0.0577621   -1.9566241   0.76673737   424551 
  130000   0.63968956   -1.9569239   -1.9569239   -1.1896282  0.045826219   -1.9569239   0.76729568   424551 
  131000   0.63993867    -1.956898    -1.956898   -1.1893035  0.044842244    -1.956898   0.76759449   424551 
  132000   0.63943588   -1.9566826   -1.9566826   -1.1896912  0.044893338   -1.9566826    0.7669914   424551 
  133000   0.63957766   -1.9576195   -1.9576195   -1.1904581  0.047773874   -1.9576195   0.76716147   424551 
  134000   0.64041263   -1.9592928   -1.9592928   -1.1911298  0.055661947   -1.9592928   0.76816299   424551 
  135000   0.63948525   -1.9591737   -1.9591737   -1.1921231  0.044378318   -1.9591737   0.76705062   424551 
  136000   0.63916025   -1.9589621   -1.9589621   -1.1923013  0.047808017   -1.9589621   0.76666078   424551 
  137000   0.63933707   -1.9597144   -1.9597144   -1.1928416  0.047051251   -1.9597144   0.76687288   424551 
  138000   0.64048394   -1.9604016   -1.9604016   -1.1921531  0.055019339   -1.9604016   0.76824853   424551 
  139000   0.64174656    -1.961929    -1.961929   -1.1921659  0.053609632    -1.961929   0.76976302   424551 
  140000   0.63857507    -1.960384    -1.960384   -1.1944251  0.047063704    -1.960384   0.76595888   424551 
  141000   0.63923852   -1.9616408   -1.9616408   -1.1948861  0.042206606   -1.9616408   0.76675467   424551 
  142000   0.63884436   -1.9609594   -1.9609594   -1.1946776  0.051070351   -1.9609594   0.76628188   424551 
  143000    0.6389163   -1.9611654   -1.9611654   -1.1947972  0.048092964   -1.9611654   0.76636818   424551 
  144000   0.63939341   -1.9628295   -1.9628295   -1.1958891  0.044456759   -1.9628295   0.76694046   424551 
  145000   0.63866874   -1.9615131   -1.9615131   -1.1954419  0.052695159   -1.9615131   0.76607123   424551 
  146000    0.6385901   -1.9621033   -1.9621033   -1.1961264  0.054967986   -1.9621033   0.76597691   424551 
  147000   0.63735074   -1.9610591   -1.9610591   -1.1965688  0.051023482   -1.9610591   0.76449031   424551 
  148000   0.63862511   -1.9628975   -1.9628975   -1.1968786  0.046091513   -1.9628975    0.7660189   424551 
  149000   0.63877495   -1.9628391   -1.9628391   -1.1966405  0.051170018   -1.9628391   0.76619863   424551 
  150000    0.6404733     -1.96499     -1.96499   -1.1967543  0.045055772     -1.96499   0.76823577   424551 
  151000   0.63889984   -1.9637623   -1.9637623   -1.1974139  0.054382911   -1.9637623   0.76634844   424551 
  152000   0.63916153   -1.9640635   -1.9640635   -1.1974012   0.05087285   -1.9640635   0.76666232   424551 
  153000   0.63919011    -1.964509    -1.964509   -1.1978124  0.048644773    -1.964509    0.7666966   424551 
  154000   0.63913851   -1.9652597   -1.9652597    -1.198625  0.047164634   -1.9652597   0.76663471   424551 
  155000   0.63746579   -1.9640207   -1.9640207   -1.1993924  0.053537494   -1.9640207   0.76462832   424551 
  156000   0.63953203   -1.9661405   -1.9661405   -1.1990338  0.050907044   -1.9661405   0.76710673   424551 
  157000   0.63868877   -1.9655856   -1.9655856   -1.1994904  0.052183069   -1.9655856   0.76609525   424551 
  158000   0.63885148   -1.9661377   -1.9661377   -1.1998473  0.048399383   -1.9661377   0.76629042   424551 
  159000    0.6398129   -1.9674309   -1.9674309   -1.1999873  0.046706003   -1.9674309   0.76744363   424551 
  160000   0.63822153   -1.9653598   -1.9653598    -1.199825  0.042759459   -1.9653598   0.76553481   424551 
  161000   0.63944793   -1.9679033   -1.9679033   -1.2008974  0.050645834   -1.9679033   0.76700585   424551 
  162000    0.6377404   -1.9664412   -1.9664412   -1.2014835   0.04679907   -1.9664412    0.7649577   424551 
  163000   0.63865771   -1.9684843   -1.9684843   -1.2024263  0.052141658   -1.9684843   0.76605801   424551 
  164000   0.63930158   -1.9695009   -1.9695009   -1.2026706  0.044563878   -1.9695009   0.76683031   424551 
  165000   0.63663948   -1.9670457   -1.9670457   -1.2034085  0.053788413   -1.9670457   0.76363717   424551 
  166000   0.63833914   -1.9696984   -1.9696984   -1.2040225  0.057743307   -1.9696984   0.76567589   424551 
  167000   0.63935343   -1.9714171   -1.9714171   -1.2045246  0.050921236   -1.9714171   0.76689251   424551 
  168000   0.63764552   -1.9696564   -1.9696564   -1.2048125  0.053444236   -1.9696564    0.7648439   424551 
  169000   0.63814343   -1.9711644   -1.9711644   -1.2057232  0.058746624   -1.9711644   0.76544114   424551 
  170000    0.6380783   -1.9708287   -1.9708287   -1.2054657  0.055072895   -1.9708287   0.76536301   424551 
  171000   0.63974424   -1.9731601   -1.9731601   -1.2057988  0.049811962   -1.9731601   0.76736127   424551 
  172000   0.63862688   -1.9721656   -1.9721656   -1.2061446  0.050097767   -1.9721656   0.76602103   424551 
  173000   0.63685453   -1.9705914   -1.9705914   -1.2066963   0.05058108   -1.9705914   0.76389513   424551 
  174000    0.6374572   -1.9713315   -1.9713315   -1.2067135  0.054883875   -1.9713315   0.76461801   424551 
  175000   0.63794469   -1.9717403   -1.9717403   -1.2065376  0.050192025   -1.9717403   0.76520274   424551 
  176000   0.63758389   -1.9712905   -1.9712905   -1.2065206  0.048946245   -1.9712905   0.76476997   424551 
  177000    0.6375742   -1.9718603   -1.9718603   -1.2071019  0.047561392   -1.9718603   0.76475836   424551 
  178000   0.63757353   -1.9729373   -1.9729373   -1.2081797  0.056734872   -1.9729373   0.76475755   424551 
  179000   0.63918157   -1.9743332   -1.9743332   -1.2076468  0.040660675   -1.9743332   0.76668636   424551 
  180000   0.63838478   -1.9745717   -1.9745717   -1.2088411  0.052048513   -1.9745717   0.76573063   424551 
  181000   0.63684657   -1.9728689   -1.9728689   -1.2089833  0.055429243   -1.9728689   0.76388558   424551 
  182000   0.63729363   -1.9735784   -1.9735784   -1.2091566  0.051932377   -1.9735784   0.76442182   424551 
  183000   0.63829733   -1.9752791   -1.9752791   -1.2096534  0.048600171   -1.9752791   0.76562574   424551 
  184000   0.63801568   -1.9748632   -1.9748632   -1.2095753  0.047848017   -1.9748632    0.7652879   424551 
  185000   0.63804446   -1.9747751   -1.9747751   -1.2094527  0.047222456   -1.9747751   0.76532243   424551 
  186000   0.63725179   -1.9746607   -1.9746607   -1.2102891  0.054246351   -1.9746607   0.76437162   424551 
  187000   0.63838805   -1.9749525   -1.9749525    -1.209218  0.054808318   -1.9749525   0.76573455   424551 
  188000   0.63789963   -1.9746761   -1.9746761   -1.2095274  0.056375465   -1.9746761    0.7651487   424551 
  189000   0.63832384   -1.9762763   -1.9762763   -1.2106188  0.050114263   -1.9762763   0.76565753   424551 
  190000   0.63810937   -1.9759673   -1.9759673    -1.210567  0.048460259   -1.9759673   0.76540028   424551 
  191000   0.63819344   -1.9768351   -1.9768351    -1.211334  0.053513308   -1.9768351   0.76550112   424551 
  192000   0.63788495   -1.9764955   -1.9764955   -1.2113644  0.046335709   -1.9764955   0.76513109   424551 
  193000   0.63754287   -1.9758142   -1.9758142   -1.2110935  0.051399877   -1.9758142   0.76472078   424551 
  194000   0.63783881   -1.9763777   -1.9763777    -1.211302  0.052178597   -1.9763777   0.76507575   424551 
  195000   0.63747009   -1.9757949   -1.9757949   -1.2111614  0.052226385   -1.9757949   0.76463347   424551 
  196000   0.63821025   -1.9780924   -1.9780924   -1.2125711   0.05194157   -1.9780924   0.76552129   424551 
  197000   0.63624419   -1.9753161   -1.9753161   -1.2121531  0.043730683   -1.9753161   0.76316303   424551 
  198000   0.63773155   -1.9775616   -1.9775616   -1.2126145  0.049607289   -1.9775616   0.76494709   424551 
  199000    0.6375486   -1.9778242   -1.9778242   -1.2130966  0.056620236   -1.9778242   0.76472765   424551 
  200000   0.63806938   -1.9781984   -1.9781984   -1.2128461  0.056115301   -1.9781984   0.76535231   424551 
  201000   0.63707916   -1.9780013   -1.9780013   -1.2138367  0.050133198   -1.9780013   0.76416457   424551 
  202000   0.63612555   -1.9771898   -1.9771898   -1.2141691  0.054288936   -1.9771898   0.76302072   424551 
  203000    0.6376793   -1.9788369   -1.9788369   -1.2139525  0.051640434   -1.9788369   0.76488441   424551 
  204000   0.63739064   -1.9796494   -1.9796494   -1.2151112  0.054149879   -1.9796494   0.76453818   424551 
  205000   0.63781898   -1.9796402   -1.9796402   -1.2145883  0.053621797   -1.9796402   0.76505196   424551 
  206000   0.63657134   -1.9795742   -1.9795742   -1.2160187  0.046308195   -1.9795742   0.76355544   424551 
  207000    0.6357833   -1.9789711   -1.9789711   -1.2163609  0.046142158   -1.9789711    0.7626102   424551 
  208000   0.63783182   -1.9823294   -1.9823294    -1.217262  0.050984659   -1.9823294   0.76506736   424551 
  209000   0.63804387   -1.9825608   -1.9825608   -1.2172391  0.048615934   -1.9825608   0.76532171   424551 
  210000   0.63528549   -1.9804339   -1.9804339   -1.2184209  0.052629033   -1.9804339   0.76201308   424551 
  211000   0.63710923   -1.9822619   -1.9822619   -1.2180612  0.053789605   -1.9822619   0.76420062   424551 
  212000   0.63784014   -1.9834126   -1.9834126   -1.2183353  0.041296917   -1.9834126   0.76507734   424551 
  213000   0.63628203   -1.9813992   -1.9813992   -1.2181908  0.052482428   -1.9813992   0.76320842   424551 
  214000   0.63599058   -1.9812957   -1.9812957   -1.2184369  0.051532833   -1.9812957   0.76285883   424551 
  215000   0.63661746   -1.9824249   -1.9824249   -1.2188141  0.054312168   -1.9824249   0.76361076   424551 
  216000   0.63632476   -1.9826909   -1.9826909   -1.2194312  0.049502066   -1.9826909   0.76325967   424551 
  217000   0.63394971   -1.9803119   -1.9803119   -1.2199011  0.045939217   -1.9803119   0.76041084   424551 
  218000   0.63507028   -1.9818307   -1.9818307   -1.2200757  0.044792964   -1.9818307   0.76175495   424551 
  219000   0.63557728   -1.9828478   -1.9828478   -1.2204847  0.050856178   -1.9828478   0.76236308   424551 
  220000   0.63543038   -1.9840692   -1.9840692   -1.2218823  0.050029372   -1.9840692   0.76218688   424551 
  221000   0.63584922   -1.9844271   -1.9844271   -1.2217378  0.044930826   -1.9844271   0.76268928   424551 
  222000   0.63619734   -1.9853054   -1.9853054   -1.2221986  0.046565767   -1.9853054   0.76310684   424551 
  223000    0.6359338   -1.9858877   -1.9858877    -1.223097  0.054052029   -1.9858877   0.76279072   424551 
  224000   0.63624999   -1.9859666   -1.9859666   -1.2227966  0.050586825   -1.9859666   0.76316999   424551 
  225000   0.63697323   -1.9868979   -1.9868979   -1.2228604  0.052243423   -1.9868979   0.76403749   424551 
  226000   0.63728413   -1.9880986   -1.9880986   -1.2236882  0.050890367   -1.9880986   0.76441042   424551 
  227000   0.63593721   -1.9871311   -1.9871311   -1.2243363  0.051642337   -1.9871311   0.76279481   424551 
  228000   0.63663145   -1.9874783   -1.9874783   -1.2238508  0.044659833   -1.9874783   0.76362754   424551 
  229000   0.63564407    -1.987624    -1.987624   -1.2251808  0.044648267    -1.987624    0.7624432   424551 
  230000   0.63587576   -1.9880692   -1.9880692   -1.2253481   0.04593362   -1.9880692    0.7627211   424551 
  231000   0.63614358   -1.9880887   -1.9880887   -1.2250463  0.051508851   -1.9880887   0.76304235   424551 
  232000   0.63549322   -1.9874309   -1.9874309   -1.2251686  0.050841352   -1.9874309   0.76226226   424551 
  233000   0.63481433    -1.987285    -1.987285    -1.225837   0.04981817    -1.987285   0.76144794   424551 
  234000   0.63371755   -1.9866229   -1.9866229   -1.2264905  0.052833362   -1.9866229   0.76013237   424551 
  235000   0.63501478   -1.9885254   -1.9885254    -1.226837  0.051134348   -1.9885254   0.76168838   424551 
  236000   0.63404713    -1.987049    -1.987049   -1.2265214  0.051706083    -1.987049   0.76052769   424551 
  237000   0.63535906   -1.9890154   -1.9890154   -1.2269141  0.047128221   -1.9890154   0.76210133   424551 
  238000   0.63529371   -1.9885954   -1.9885954   -1.2265724  0.036465031   -1.9885954   0.76202295   424551 
  239000   0.63553886   -1.9889382   -1.9889382   -1.2266212  0.050317542   -1.9889382   0.76231701   424551 
  240000   0.63566497   -1.9892339   -1.9892339   -1.2267657   0.04544256   -1.9892339   0.76246826   424551 
  241000   0.63514474   -1.9891676   -1.9891676   -1.2273233  0.052781185   -1.9891676   0.76184426   424551 
  242000   0.63528537   -1.9890829   -1.9890829     -1.22707  0.047867545   -1.9890829   0.76201294   424551 
  243000   0.63445391   -1.9893605   -1.9893605   -1.2283449  0.049119544   -1.9893605   0.76101563   424551 
  244000   0.63558478   -1.9896663   -1.9896663   -1.2272942  0.057854331   -1.9896663   0.76237209   424551 
  245000   0.63456754   -1.9887502   -1.9887502   -1.2275983  0.052871264   -1.9887502   0.76115191   424551 
  246000   0.63468904   -1.9898467   -1.9898467    -1.228549  0.041640224   -1.9898467   0.76129765   424551 
  247000   0.63533995   -1.9916298   -1.9916298   -1.2295514  0.047848079   -1.9916298   0.76207841   424551 
  248000   0.63460097   -1.9912194   -1.9912194   -1.2300274  0.048990688   -1.9912194   0.76119201   424551 
  249000   0.63406385   -1.9914449   -1.9914449   -1.2308971  0.046072189   -1.9914449   0.76054775   424551 
  250000   0.63536174   -1.9925081   -1.9925081   -1.2304036   0.05924156   -1.9925081   0.76210454   424551 
  251000   0.63538338   -1.9926989   -1.9926989   -1.2305684  0.049746362   -1.9926989    0.7621305   424551 
  252000    0.6332226   -1.9916174   -1.9916174   -1.2320787  0.052864449   -1.9916174   0.75953868   424551 
  253000   0.63380741   -1.9936743   -1.9936743   -1.2334342  0.045953752   -1.9936743   0.76024016   424551 
  254000   0.63478718   -1.9954692   -1.9954692   -1.2340538  0.050544607   -1.9954692   0.76141538   424551 
  255000   0.63386277   -1.9941574   -1.9941574   -1.2338508  0.041862756   -1.9941574   0.76030656   424551 
  256000   0.63448956   -1.9942432   -1.9942432   -1.2331848  0.052264132   -1.9942432   0.76105838   424551 
  257000   0.63340749   -1.9931631   -1.9931631   -1.2334027  0.050680155   -1.9931631   0.75976047   424551 
  258000   0.63332455   -1.9932073   -1.9932073   -1.2335463  0.045931696   -1.9932073   0.75966098   424551 
  259000   0.63320111    -1.993138    -1.993138   -1.2336251  0.051115231    -1.993138   0.75951292   424551 
  260000   0.63453546   -1.9942451   -1.9942451   -1.2331317   0.05749394   -1.9942451   0.76111344   424551 
  261000   0.63479654   -1.9954291   -1.9954291   -1.2340025  0.044921828   -1.9954291   0.76142661   424551 
  262000   0.63392518   -1.9943244   -1.9943244    -1.233943  0.053606876   -1.9943244   0.76038142   424551 
  263000   0.63469105   -1.9955534   -1.9955534   -1.2342533  0.053362652   -1.9955534   0.76130006   424551 
  264000   0.63385343   -1.9942206   -1.9942206   -1.2339252  0.056931747   -1.9942206   0.76029535   424551 
  265000   0.63461982   -1.9952893   -1.9952893   -1.2340747  0.050896891   -1.9952893   0.76121463   424551 
  266000   0.63560387   -1.9971268   -1.9971268   -1.2347318  0.051775252   -1.9971268   0.76239498   424551 
  267000   0.63450729   -1.9961109   -1.9961109   -1.2350312  0.051417015   -1.9961109   0.76107965   424551 
  268000   0.63533329   -1.9973463   -1.9973463   -1.2352759  0.045619935   -1.9973463   0.76207042   424551 
  269000   0.63441264   -1.9964431   -1.9964431    -1.235477  0.047509708   -1.9964431   0.76096611   424551 
  270000   0.63302983   -1.9960041   -1.9960041   -1.2366966  0.044467218   -1.9960041   0.75930747   424551 
  271000   0.63370683   -1.9970656   -1.9970656   -1.2369461  0.051571205   -1.9970656   0.76011952   424551 
  272000   0.63413044   -1.9979472   -1.9979472   -1.2373196  0.040886804   -1.9979472   0.76062763   424551 
  273000   0.63424669   -1.9981886   -1.9981886   -1.2374215  0.052564538   -1.9981886   0.76076707   424551 
  274000   0.63317967   -1.9977952   -1.9977952    -1.238308  0.048815021   -1.9977952    0.7594872   424551 
  275000   0.63371492   -1.9973608   -1.9973608   -1.2372316  0.054724636   -1.9973608   0.76012921   424551 
  276000    0.6343328   -1.9985358   -1.9985358   -1.2376654   0.04463724   -1.9985358   0.76087035   424551 
  277000   0.63411829   -1.9987177   -1.9987177   -1.2381046   0.05620587   -1.9987177   0.76061305   424551 
  278000   0.63493319   -1.9999009   -1.9999009   -1.2383104  0.050267732   -1.9999009   0.76159051   424551 
  279000   0.63377208    -1.998288    -1.998288   -1.2380902   0.05372815    -1.998288   0.76019778   424551 
  280000   0.63261096   -1.9980558   -1.9980558   -1.2392507  0.050065466   -1.9980558   0.75880504   424551 
  281000   0.63299334   -1.9982129   -1.9982129   -1.2389492  0.054424502   -1.9982129    0.7592637   424551 
  282000   0.63423595   -2.0003061   -2.0003061    -1.239552  0.040579263   -2.0003061   0.76075418   424551 
  283000   0.63312126   -1.9996947   -1.9996947   -1.2402775   0.04917277   -1.9996947   0.75941713   424551 
  284000   0.63366464   -1.9999932   -1.9999932   -1.2399243  0.050709765   -1.9999932   0.76006891   424551 
  285000   0.63283214    -1.999489    -1.999489   -1.2404187    0.0524159    -1.999489   0.75907034   424551 
  286000   0.63303222   -1.9999737   -1.9999737   -1.2406633  0.051703019   -1.9999737   0.75931033   424551 
  287000   0.63305601   -1.9994919   -1.9994919   -1.2401531  0.050166654   -1.9994919   0.75933886   424551 
  288000   0.63369812   -2.0010818   -2.0010818   -1.2409727  0.053508026   -2.0010818   0.76010907   424551 
  289000   0.63388472   -2.0017718   -2.0017718   -1.2414389  0.047136025   -2.0017718   0.76033288   424551 
  290000   0.63314593   -2.0005899   -2.0005899   -1.2411432  0.060546519   -2.0005899   0.75944672   424551 
  291000   0.63284775   -2.0006692   -2.0006692   -1.2415802  0.053354644   -2.0006692   0.75908906   424551 
  292000   0.63306847   -2.0011211   -2.0011211   -1.2417672   0.04837386   -2.0011211   0.75935382   424551 
  293000   0.63197798   -2.0003044   -2.0003044   -1.2422586  0.049161405   -2.0003044   0.75804579   424551 
  294000   0.63164467   -2.0010895   -2.0010895   -1.2434435  0.052518191   -2.0010895   0.75764599   424551 
  295000   0.63464172    -2.003377    -2.003377   -1.2421361  0.047799054    -2.003377    0.7612409   424551 
  296000   0.63384234   -2.0023102   -2.0023102   -1.2420282  0.043195655   -2.0023102   0.76028206   424551 
  297000   0.63268435   -2.0010621   -2.0010621   -1.2421691  0.052619216   -2.0010621   0.75889307   424551 
  298000   0.63237994   -2.0008302   -2.0008302   -1.2423023  0.056868313   -2.0008302   0.75852794   424551 
  299000   0.63184013   -2.0007984   -2.0007984    -1.242918  0.046123833   -2.0007984   0.75788044   424551 
  300000   0.63188394   -2.0015309   -2.0015309   -1.2435979  0.049056251   -2.0015309   0.75793299   424551 
  301000   0.63292204   -2.0032545   -2.0032545   -1.2440764  0.046485561   -2.0032545   0.75917817   424551 
  302000   0.63388776   -2.0041972   -2.0041972   -1.2438607  0.048232571   -2.0041972   0.76033654   424551 
  303000   0.63287373   -2.0030293   -2.0030293   -1.2439091  0.045845834   -2.0030293   0.75912022   424551 
  304000   0.63274061   -2.0031466   -2.0031466    -1.244186  0.048950827   -2.0031466   0.75896056   424551 
  305000   0.63394661   -2.0045491   -2.0045491    -1.244142  0.044384485   -2.0045491   0.76040713   424551 
  306000    0.6327791   -2.0038441   -2.0038441   -1.2448373  0.047555371   -2.0038441   0.75900672   424551 
  307000   0.63210036   -2.0032382   -2.0032382   -1.2450457  0.055202357   -2.0032382   0.75819258   424551 
  308000   0.63272242   -2.0040314   -2.0040314   -1.2450926  0.051053404   -2.0040314   0.75893873   424551 
  309000   0.63323332    -2.004556    -2.004556   -1.2450044   0.05038437    -2.004556   0.75955155   424551 
  310000   0.63206986   -2.0033536   -2.0033536   -1.2451976  0.053445556   -2.0033536     0.758156   424551 
  311000   0.63227342   -2.0036451   -2.0036451   -1.2452449  0.046437436   -2.0036451   0.75840016   424551 
  312000   0.63199441   -2.0034471   -2.0034471   -1.2453816  0.049599364   -2.0034471    0.7580655   424551 
  313000   0.63194613    -2.003899    -2.003899   -1.2458914  0.046705791    -2.003899   0.75800759   424551 
  314000   0.63255248   -2.0047403   -2.0047403   -1.2460054  0.048156696   -2.0047403    0.7587349   424551 
  315000   0.63191486    -2.004213    -2.004213   -1.2462429  0.044816879    -2.004213   0.75797008   424551 
  316000   0.63329802   -2.0060269   -2.0060269   -1.2463977  0.054428168   -2.0060269   0.75962915   424551 
  317000   0.63229436    -2.004648    -2.004648   -1.2462227  0.043264045    -2.004648   0.75842529   424551 
  318000   0.63251428   -2.0066327   -2.0066327   -1.2479436  0.043355655   -2.0066327   0.75868907   424551 
  319000   0.63138194    -2.005294    -2.005294   -1.2479632  0.047984301    -2.005294   0.75733085   424551 
  320000    0.6318813   -2.0056227   -2.0056227   -1.2476929   0.05084293   -2.0056227   0.75792982   424551 
  321000   0.63221902   -2.0071876   -2.0071876   -1.2488527  0.048493199   -2.0071876   0.75833492   424551 
  322000   0.63208532   -2.0071787   -2.0071787   -1.2490042  0.050975498   -2.0071787   0.75817454   424551 
  323000   0.63199655   -2.0067282   -2.0067282   -1.2486602  0.056744108   -2.0067282   0.75806806   424551 
  324000   0.63176934   -2.0077163   -2.0077163   -1.2499208  0.047190352   -2.0077163   0.75779553   424551 
  325000   0.63071271     -2.00717     -2.00717   -1.2506419  0.052746969     -2.00717   0.75652812   424551 
  326000   0.63090641   -2.0071598   -2.0071598   -1.2503993  0.042235498   -2.0071598   0.75676047   424551 
  327000   0.63260008   -2.0094284   -2.0094284   -1.2506364   0.05690364   -2.0094284   0.75879199   424551 
  328000   0.63197356   -2.0089391   -2.0089391   -1.2508986  0.057582615   -2.0089391   0.75804048   424551 
  329000   0.63064676   -2.0071719   -2.0071719   -1.2507229  0.050030646   -2.0071719   0.75644902   424551 
  330000   0.63200764   -2.0086788   -2.0086788   -1.2505974   0.03895607   -2.0086788   0.75808136   424551 
  331000   0.63117244   -2.0083037   -2.0083037   -1.2512242  0.056655291   -2.0083037   0.75707956   424551 
  332000   0.63199389   -2.0098332   -2.0098332   -1.2517683  0.047405962   -2.0098332   0.75806487   424551 
  333000   0.63222904   -2.0096513   -2.0096513   -1.2513044  0.042076864   -2.0096513   0.75834693   424551 
  334000   0.63131575   -2.0087596   -2.0087596   -1.2515082   0.04279392   -2.0087596   0.75725146   424551 
  335000   0.63026522   -2.0074423   -2.0074423   -1.2514509  0.052461347   -2.0074423   0.75599136   424551 
  336000   0.63065438   -2.0073717   -2.0073717   -1.2509135  0.051967611   -2.0073717   0.75645815   424551 
  337000   0.63129535   -2.0088698   -2.0088698   -1.2516428  0.049039148   -2.0088698   0.75722699   424551 
  338000   0.63151612   -2.0103919   -2.0103919   -1.2529001  0.049161098   -2.0103919    0.7574918   424551 
  339000   0.63133377   -2.0098135   -2.0098135   -1.2525404  0.047336396   -2.0098135   0.75727307   424551 
  340000   0.63142764    -2.010252    -2.010252   -1.2528663  0.053617544    -2.010252   0.75738567   424551 
  341000   0.63115925   -2.0103455   -2.0103455   -1.2532818   0.04949918   -2.0103455   0.75706374   424551 
  342000   0.63137312    -2.010986    -2.010986   -1.2536658   0.05433836    -2.010986   0.75732027   424551 
  343000   0.63163305   -2.0123418   -2.0123418   -1.2547098  0.057477656   -2.0123418   0.75763206   424551 
  344000   0.63042371   -2.0109001   -2.0109001   -1.2547186  0.051374122   -2.0109001   0.75618148   424551 
  345000   0.63078736   -2.0123215   -2.0123215   -1.2557038  0.055935394   -2.0123215   0.75661767   424551 
  346000   0.63045357   -2.0117731   -2.0117731   -1.2555558  0.047871834   -2.0117731   0.75621729   424551 
  347000   0.63156445   -2.0133502   -2.0133502   -1.2558004  0.057362446   -2.0133502   0.75754976   424551 
  348000   0.63139752   -2.0134918   -2.0134918   -1.2561423  0.052000823   -2.0134918   0.75734954   424551 
  349000   0.63111865   -2.0130399   -2.0130399   -1.2560248  0.049800826   -2.0130399   0.75701504   424551 
  350000   0.63131106   -2.0141464   -2.0141464   -1.2569005  0.051771875   -2.0141464   0.75724583   424551 
  351000   0.63030306    -2.013798    -2.013798   -1.2577613  0.046251507    -2.013798   0.75603676   424551 
  352000   0.63103342   -2.0134276   -2.0134276   -1.2565148    0.0500806   -2.0134276   0.75691281   424551 
  353000   0.63076338   -2.0133638   -2.0133638   -1.2567749  0.047039098   -2.0133638    0.7565889   424551 
  354000   0.63047088   -2.0136405   -2.0136405   -1.2574024  0.050661858   -2.0136405   0.75623805   424551 
  355000   0.63047586   -2.0129795   -2.0129795   -1.2567355  0.046677751   -2.0129795   0.75624402   424551 
  356000   0.63120853   -2.0146634   -2.0146634   -1.2575405  0.045851952   -2.0146634   0.75712284   424551 
  357000   0.63035912   -2.0141206   -2.0141206   -1.2580166  0.048368025   -2.0141206     0.756104   424551 
  358000   0.63121971   -2.0150513   -2.0150513    -1.257915  0.049918191   -2.0150513   0.75713626   424551 
  359000   0.63038908   -2.0140415   -2.0140415   -1.2579016  0.050579321   -2.0140415   0.75613994   424551 
  360000   0.63007416   -2.0142814   -2.0142814   -1.2585192  0.052549539   -2.0142814    0.7557622   424551 
  361000   0.62947646   -2.0132217   -2.0132217   -1.2581764  0.047299808   -2.0132217   0.75504526   424551 
  362000    0.6307261   -2.0156296   -2.0156296   -1.2590854  0.049870833   -2.0156296   0.75654418   424551 
  363000   0.63044552   -2.0153348   -2.0153348   -1.2591271  0.053149256   -2.0153348   0.75620764   424551 
  364000     0.631531   -2.0162155   -2.0162155   -1.2587058  0.049242566   -2.0162155   0.75750964   424551 
  365000   0.63150453   -2.0160151   -2.0160151   -1.2585372  0.044981393   -2.0160151   0.75747789   424551 
  366000    0.6308921   -2.0156904   -2.0156904   -1.2589471  0.059472925   -2.0156904    0.7567433   424551 
  367000   0.62904009   -2.0139767   -2.0139767   -1.2594549  0.050064259   -2.0139767   0.75452185   424551 
  368000   0.63076202   -2.0156971   -2.0156971   -1.2591098  0.053315294   -2.0156971   0.75658727   424551 
  369000   0.63037019   -2.0159683   -2.0159683   -1.2598511  0.050034211   -2.0159683   0.75611728   424551 
  370000   0.63065971   -2.0172923   -2.0172923   -1.2608277  0.046167236   -2.0172923   0.75646455   424551 
  371000   0.63071478   -2.0169407   -2.0169407   -1.2604101  0.051489299   -2.0169407   0.75653061   424551 
  372000   0.63085671   -2.0170181   -2.0170181   -1.2603172   0.05206496   -2.0170181   0.75670085   424551 
  373000   0.63082131   -2.0177466   -2.0177466   -1.2610882  0.052344585   -2.0177466   0.75665839   424551 
  374000    0.6306119   -2.0178961   -2.0178961   -1.2614889  0.050610043   -2.0178961   0.75640721   424551 
  375000   0.63037093    -2.017722    -2.017722   -1.2616039  0.050282113    -2.017722   0.75611816   424551 
  376000    0.6302938   -2.0183852   -2.0183852   -1.2623596  0.043702492   -2.0183852   0.75602565   424551 
  377000   0.63062171   -2.0182931   -2.0182931   -1.2618741  0.051462734   -2.0182931   0.75641897   424551 
  378000   0.62927895   -2.0174347   -2.0174347   -1.2626264  0.048796665   -2.0174347   0.75480835   424551 
  379000    0.6299735   -2.0190798   -2.0190798   -1.2634384  0.043523136   -2.0190798   0.75564146   424551 
  380000    0.6308569   -2.0199758   -2.0199758   -1.2632747  0.054359702   -2.0199758   0.75670108   424551 
  381000   0.63137329     -2.02067     -2.02067   -1.2633495  0.047146307     -2.02067   0.75732048   424551 
  382000   0.63039025   -2.0193997   -2.0193997   -1.2632584  0.041201047   -2.0193997   0.75614134   424551 
  383000   0.63083835    -2.020583    -2.020583   -1.2639041  0.048847429    -2.020583   0.75667883   424551 
  384000   0.63049637   -2.0203095   -2.0203095   -1.2640409   0.05322881   -2.0203095   0.75626863   424551 
  385000   0.62829733   -2.0175336   -2.0175336   -1.2639027  0.054661782   -2.0175336   0.75363092   424551 
  386000   0.63050206   -2.0203778   -2.0203778   -1.2641024  0.043502531   -2.0203778   0.75627545   424551 
  387000   0.62949256   -2.0192038   -2.0192038   -1.2641392  0.050494519   -2.0192038   0.75506457   424551 
  388000   0.62966463   -2.0197309   -2.0197309   -1.2644599  0.047355436   -2.0197309   0.75527097   424551 
  389000   0.62849377   -2.0187193   -2.0187193   -1.2648528  0.049117756   -2.0187193   0.75386654   424551 
  390000   0.62860718   -2.0189537   -2.0189537   -1.2649511  0.054944771   -2.0189537   0.75400258   424551 
  391000   0.62991299   -2.0204378   -2.0204378    -1.264869  0.047448448   -2.0204378   0.75556887   424551 
  392000   0.62919098   -2.0194813   -2.0194813   -1.2647784  0.050426502   -2.0194813   0.75470284   424551 
  393000   0.62943913   -2.0197286   -2.0197286   -1.2647281  0.049703286   -2.0197286   0.75500048   424551 
  394000     0.629357   -2.0197581   -2.0197581   -1.2648561  0.051956249   -2.0197581   0.75490197   424551 
  395000   0.62942573   -2.0208938   -2.0208938   -1.2659094  0.049754022   -2.0208938   0.75498442   424551 
  396000   0.62948497   -2.0215293   -2.0215293   -1.2664739  0.042473161   -2.0215293   0.75505547   424551 
  397000   0.62891295   -2.0211606   -2.0211606   -1.2667912  0.051669095   -2.0211606   0.75436935   424551 
  398000   0.62936222   -2.0218649   -2.0218649   -1.2669567  0.050402525   -2.0218649   0.75490824   424551 
  399000   0.62953458   -2.0221767   -2.0221767   -1.2670618  0.049330222   -2.0221767   0.75511497   424551 
  400000   0.63077425   -2.0232583   -2.0232583   -1.2666564  0.047416871   -2.0232583   0.75660194   424551 
  401000   0.63042829   -2.0234375   -2.0234375   -1.2672505  0.049409321   -2.0234375   0.75618697   424551 
  402000   0.62997671   -2.0231411   -2.0231411   -1.2674958  0.046500028   -2.0231411    0.7556453   424551 
  403000   0.62922287   -2.0232905   -2.0232905   -1.2685495  0.049966134   -2.0232905   0.75474109   424551 
  404000   0.62909763   -2.0233166   -2.0233166   -1.2687257  0.052193079   -2.0233166   0.75459086   424551 
  405000   0.62782941   -2.0213929   -2.0213929   -1.2683232  0.051340067   -2.0213929   0.75306966   424551 
  406000    0.6284653   -2.0229518   -2.0229518   -1.2691195  0.050250882   -2.0229518    0.7538324   424551 
  407000   0.62914254   -2.0232909   -2.0232909   -1.2686461  0.044784108   -2.0232909   0.75464473   424551 
  408000   0.62728386   -2.0207467   -2.0207467   -1.2683314  0.051527841   -2.0207467   0.75241528   424551 
  409000   0.62815351   -2.0218656   -2.0218656   -1.2684072  0.046365103   -2.0218656   0.75345841   424551 
  410000   0.62702621    -2.020916    -2.020916   -1.2688098  0.051207064    -2.020916   0.75210624   424551 
  411000   0.62943229   -2.0242153   -2.0242153    -1.269223  0.048593449   -2.0242153   0.75499228   424551 
  412000   0.62912775   -2.0235736   -2.0235736   -1.2689466  0.050476733   -2.0235736     0.754627   424551 
  413000    0.6271547    -2.022267    -2.022267   -1.2700067  0.048179079    -2.022267   0.75226035   424551 
  414000   0.62922736   -2.0242482   -2.0242482   -1.2695017  0.047987583   -2.0242482   0.75474648   424551 
  415000   0.62742207   -2.0218834   -2.0218834   -1.2693024  0.050585511   -2.0218834   0.75258107   424551 
  416000   0.62901696     -2.02371     -2.02371   -1.2692159  0.047412261     -2.02371    0.7544941   424551 
  417000   0.62865909   -2.0242979   -2.0242979    -1.270233  0.047966533   -2.0242979   0.75406484   424551 
  418000   0.62905615   -2.0245726   -2.0245726   -1.2700315  0.040522046   -2.0245726   0.75454111   424551 
  419000   0.62956347   -2.0251586   -2.0251586   -1.2700089  0.048062792   -2.0251586   0.75514964   424551 
  420000   0.62941602   -2.0250323   -2.0250323   -1.2700596  0.053350717   -2.0250323   0.75497277   424551 
  421000   0.63037341     -2.02649     -2.02649   -1.2703688  0.055775221     -2.02649   0.75612114   424551 
  422000   0.62832631   -2.0248648   -2.0248648   -1.2711992  0.048643102   -2.0248648   0.75366568   424551 
  423000   0.62775886   -2.0249179   -2.0249179   -1.2719329  0.052492475   -2.0249179   0.75298503   424551 
  424000   0.62889926   -2.0271365   -2.0271365   -1.2727836  0.050271678   -2.0271365   0.75435292   424551 
  425000   0.62820027   -2.0267963   -2.0267963   -1.2732818  0.045187833   -2.0267963    0.7535145   424551 
  426000    0.6285359   -2.0271022   -2.0271022   -1.2731851  0.047338848   -2.0271022   0.75391708   424551 
  427000   0.62732232    -2.025011    -2.025011   -1.2725496  0.045313237    -2.025011   0.75246142   424551 
  428000   0.62806207    -2.025981    -2.025981   -1.2726322   0.04287929    -2.025981   0.75334873   424551 
  429000   0.62908421   -2.0265555   -2.0265555   -1.2719807   0.05085713   -2.0265555   0.75457477   424551 
  430000   0.62904886    -2.026918    -2.026918   -1.2723856  0.050634624    -2.026918   0.75453237   424551 
  431000   0.62954949   -2.0271077   -2.0271077   -1.2719748  0.055443692   -2.0271077   0.75513286   424551 
  432000   0.62950521   -2.0273475   -2.0273475   -1.2722677  0.049278125   -2.0273475   0.75507975   424551 
  433000    0.6293969   -2.0284076   -2.0284076   -1.2734578  0.055552341   -2.0284076   0.75494983   424551 
  434000   0.62891203   -2.0281546   -2.0281546   -1.2737864  0.054218318   -2.0281546   0.75436824   424551 
  435000   0.62846655   -2.0276617   -2.0276617   -1.2738278   0.05353106   -2.0276617   0.75383389   424551 
  436000   0.62740836   -2.0270662   -2.0270662   -1.2745016  0.044781218   -2.0270662   0.75256462   424551 
  437000   0.62782694   -2.0280454   -2.0280454   -1.2749787  0.044147249   -2.0280454    0.7530667   424551 
  438000   0.62795558   -2.0291702   -2.0291702   -1.2759492  0.045843107   -2.0291702   0.75322099   424551 
  439000   0.62805012   -2.0293187   -2.0293187   -1.2759843  0.045319619   -2.0293187    0.7533344   424551 
  440000   0.62866633   -2.0298792   -2.0298792   -1.2758057  0.054267219   -2.0298792   0.75407353   424551 
  441000   0.62699935   -2.0280779   -2.0280779   -1.2760039  0.041356626   -2.0280779   0.75207402   424551 
  442000   0.62717918    -2.028347    -2.028347   -1.2760573  0.044139832    -2.028347   0.75228971   424551 
  443000   0.62913115    -2.029898    -2.029898   -1.2752669  0.044922338    -2.029898   0.75463107   424551 
  444000   0.62702624   -2.0278478   -2.0278478   -1.2757415  0.049915147   -2.0278478   0.75210627   424551 
  445000    0.6269583   -2.0289771   -2.0289771   -1.2769523   0.06423214   -2.0289771   0.75202478   424551 
  446000   0.62760897   -2.0291681   -2.0291681   -1.2763628   0.05067471   -2.0291681   0.75280524   424551 
  447000   0.62850215   -2.0304353   -2.0304353   -1.2765587   0.04818795   -2.0304353   0.75387659   424551 
  448000   0.62723939   -2.0292805   -2.0292805   -1.2769185  0.050100747   -2.0292805   0.75236195   424551 
  449000   0.62757523   -2.0291908   -2.0291908   -1.2764261  0.053442317   -2.0291908   0.75276477   424551 
  450000   0.62627292   -2.0283152   -2.0283152   -1.2771125  0.038681621   -2.0283152   0.75120267   424551 
  451000   0.62671455   -2.0291618   -2.0291618   -1.2774294  0.047699061   -2.0291618    0.7517324   424551 
  452000    0.6273504   -2.0301087   -2.0301087   -1.2776136     0.052544   -2.0301087    0.7524951   424551 
  453000   0.62609503   -2.0287659   -2.0287659   -1.2777766  0.048031932   -2.0287659    0.7509893   424551 
  454000   0.62774446   -2.0299668   -2.0299668    -1.276999  0.044650612   -2.0299668   0.75296776   424551 
  455000   0.62809341   -2.0308186   -2.0308186   -1.2774322  0.045892317   -2.0308186   0.75338633   424551 
  456000   0.62773381   -2.0312692   -2.0312692   -1.2783142  0.049023539   -2.0312692   0.75295499   424551 
  457000   0.62777964   -2.0315956   -2.0315956   -1.2785857  0.049267622   -2.0315956   0.75300996   424551 
  458000   0.62735109   -2.0307019   -2.0307019    -1.278206  0.053704718   -2.0307019   0.75249592   424551 
  459000   0.62747755   -2.0317331   -2.0317331   -1.2790855  0.046914678   -2.0317331   0.75264761   424551 
  460000   0.62635316   -2.0305549   -2.0305549    -1.279256  0.048654339   -2.0305549   0.75129893   424551 
  461000   0.62912764   -2.0336216   -2.0336216   -1.2789948  0.041172158   -2.0336216   0.75462686   424551 
  462000   0.62874357   -2.0331526   -2.0331526   -1.2789865  0.046555747   -2.0331526   0.75416618   424551 
  463000   0.62738284   -2.0321643   -2.0321643   -1.2796303  0.050929015   -2.0321643     0.752534   424551 
  464000   0.62733517   -2.0324292   -2.0324292   -1.2799524  0.050470301   -2.0324292   0.75247682   424551 
  465000   0.62719347    -2.033017    -2.033017   -1.2807101  0.042847361    -2.033017   0.75230686   424551 
  466000   0.62694791   -2.0315045   -2.0315045   -1.2794921  0.054734968   -2.0315045   0.75201232   424551 
  467000   0.62693098   -2.0315435   -2.0315435   -1.2795515  0.049699982   -2.0315435   0.75199201   424551 
  468000   0.62804503   -2.0332977   -2.0332977   -1.2799694  0.042536489   -2.0332977   0.75332829   424551 
  469000   0.62754533    -2.031698    -2.031698   -1.2789691  0.055914042    -2.031698   0.75272891   424551 
  470000   0.62733354   -2.0322167   -2.0322167   -1.2797418  0.040169935   -2.0322167   0.75247487   424551 
  471000   0.62683156   -2.0311672   -2.0311672   -1.2792944  0.045718368   -2.0311672   0.75187275   424551 
  472000    0.6270771   -2.0309174   -2.0309174   -1.2787501  0.044973605   -2.0309174   0.75216728   424551 
  473000   0.62885289   -2.0328324   -2.0328324   -1.2785351  0.047051221   -2.0328324    0.7542973   424551 
  474000    0.6273216   -2.0320197   -2.0320197   -1.2795591  0.043402134   -2.0320197   0.75246055   424551 
  475000   0.62616586   -2.0311992   -2.0311992   -1.2801249  0.041460961   -2.0311992   0.75107426   424551 
  476000   0.62787391   -2.0329995   -2.0329995   -1.2798764   0.04683723   -2.0329995   0.75312303   424551 
  477000   0.62774559   -2.0319723   -2.0319723   -1.2790031  0.040990814   -2.0319723   0.75296912   424551 
  478000   0.62585356   -2.0304911   -2.0304911   -1.2797915  0.047129724   -2.0304911   0.75069966   424551 
  479000   0.62779338   -2.0328553   -2.0328553   -1.2798289  0.048778775   -2.0328553   0.75302644   424551 
  480000   0.62781701   -2.0337512   -2.0337512   -1.2806964  0.045322946   -2.0337512   0.75305479   424551 
  481000   0.62841254     -2.03397     -2.03397   -1.2802009  0.046976668     -2.03397   0.75376911   424551 
  482000   0.62753488    -2.032821    -2.032821   -1.2801046  0.050891204    -2.032821   0.75271638   424551 
  483000   0.62756546   -2.0335169   -2.0335169   -1.2807639  0.039235178   -2.0335169   0.75275306   424551 
  484000   0.62684914   -2.0335851   -2.0335851   -1.2816913  0.046328844   -2.0335851   0.75189384   424551 
  485000    0.6260826   -2.0328955   -2.0328955   -1.2819211  0.051742261   -2.0328955   0.75097439   424551 
  486000    0.6266803   -2.0335786   -2.0335786   -1.2818872  0.050830369   -2.0335786   0.75169133   424551 
  487000   0.62784205   -2.0357008   -2.0357008   -1.2826159  0.046842937   -2.0357008   0.75308483   424551 
  488000   0.62797228   -2.0357613   -2.0357613   -1.2825203  0.054429587   -2.0357613   0.75324103   424551 
  489000   0.62782117   -2.0351791   -2.0351791   -1.2821193  0.046047585   -2.0351791   0.75305977   424551 
  490000   0.62935681   -2.0375324   -2.0375324   -1.2826307  0.047684723   -2.0375324   0.75490175   424551 
  491000    0.6288479      -2.0361      -2.0361   -1.2818086  0.052999394      -2.0361   0.75429132   424551 
  492000   0.62820284   -2.0360016   -2.0360016    -1.282484  0.052599313   -2.0360016   0.75351758   424551 
  493000   0.62866041   -2.0369925   -2.0369925   -1.2829261  0.045271191   -2.0369925   0.75406643   424551 
  494000   0.62658292   -2.0345978   -2.0345978   -1.2830233   0.04581884   -2.0345978   0.75157452   424551 
  495000   0.62690192   -2.0358406   -2.0358406   -1.2838835  0.047157154   -2.0358406   0.75195715   424551 
  496000   0.62590191   -2.0342658   -2.0342658   -1.2835082  0.046255923   -2.0342658   0.75075766   424551 
  497000   0.62613508   -2.0357132   -2.0357132   -1.2846758  0.044389241   -2.0357132   0.75103735   424551 
  498000   0.62609805    -2.035126    -2.035126   -1.2841331  0.050120727    -2.035126   0.75099292   424551 
  499000   0.62708628   -2.0357341   -2.0357341   -1.2835558  0.046741226   -2.0357341   0.75217829   424551 
  500000   0.62642381   -2.0354443   -2.0354443   -1.2840606   0.05477937   -2.0354443   0.75138366   424551 
  501000    0.6274319   -2.0373064   -2.0373064   -1.2847135  0.041156781   -2.0373064   0.75259285   424551 
  502000   0.62774173    -2.037071    -2.037071   -1.2841065  0.045264703    -2.037071   0.75296449   424551 
  503000    0.6264948   -2.0360258   -2.0360258    -1.284557  0.047668981   -2.0360258   0.75146882   424551 
  504000   0.62666676   -2.0367592   -2.0367592   -1.2850841  0.043243933   -2.0367592   0.75167508   424551 
  505000   0.62543815   -2.0362506   -2.0362506   -1.2860492  0.047536837   -2.0362506   0.75020139   424551 
  506000   0.62624804   -2.0372735   -2.0372735   -1.2861006   0.04320096   -2.0372735   0.75117284   424551 
  507000   0.62780888   -2.0391508   -2.0391508   -1.2861057  0.048179498   -2.0391508   0.75304503   424551 
  508000   0.62648241   -2.0375429   -2.0375429    -1.286089  0.048739561   -2.0375429   0.75145395   424551 
  509000   0.62781655   -2.0396036   -2.0396036   -1.2865493  0.048713288   -2.0396036   0.75305423   424551 
  510000   0.62682195   -2.0385193   -2.0385193    -1.286658  0.046470117   -2.0385193   0.75186122   424551 
  511000   0.62711249   -2.0391755   -2.0391755   -1.2869658  0.050099371   -2.0391755   0.75220973   424551 
  512000   0.62625274   -2.0387182   -2.0387182   -1.2875397  0.043116751   -2.0387182   0.75117847   424551 
  513000    0.6260043   -2.0381145   -2.0381145    -1.287234  0.047132943   -2.0381145   0.75088047   424551 
  514000   0.62741178   -2.0404157   -2.0404157    -1.287847  0.045609285   -2.0404157   0.75256872   424551 
  515000   0.62573612   -2.0392028   -2.0392028    -1.288644  0.053318381   -2.0392028   0.75055879   424551 
  516000   0.62643707   -2.0394685   -2.0394685    -1.288069  0.057849141   -2.0394685   0.75139958   424551 
  517000   0.62591139   -2.0386281   -2.0386281    -1.287859  0.059462488   -2.0386281   0.75076903   424551 
  518000   0.62621092   -2.0382109   -2.0382109   -1.2870825  0.053790243   -2.0382109   0.75112831   424551 
  519000   0.62628061   -2.0383906   -2.0383906   -1.2871787  0.055496063   -2.0383906    0.7512119   424551 
  520000   0.62838609   -2.0416865   -2.0416865   -1.2879491  0.043794759   -2.0416865   0.75373739   424551 
  521000   0.62564068   -2.0389269   -2.0389269   -1.2884825  0.042191013   -2.0389269   0.75044432   424551 
  522000   0.62558239   -2.0394045   -2.0394045   -1.2890301  0.045825749   -2.0394045   0.75037439   424551 
  523000   0.62670553   -2.0405937   -2.0405937   -1.2888721  0.043014424   -2.0405937   0.75172159   424551 
  524000   0.62599759   -2.0394564   -2.0394564    -1.288584  0.055300112   -2.0394564   0.75087242   424551 
  525000   0.62603461   -2.0406707   -2.0406707   -1.2897539  0.041232464   -2.0406707   0.75091683   424551 
  526000   0.62570432   -2.0409597   -2.0409597    -1.290439  0.047764958   -2.0409597   0.75052066   424551 
  527000   0.62697891   -2.0413572   -2.0413572   -1.2893077  0.050172453   -2.0413572    0.7520495   424551 
  528000   0.62587713   -2.0398507   -2.0398507   -1.2891228  0.052155376   -2.0398507   0.75072793   424551 
  529000   0.62663736   -2.0410335   -2.0410335   -1.2893936  0.044231291   -2.0410335   0.75163981   424551 
  530000   0.62601479   -2.0407898   -2.0407898   -1.2898967  0.040687674   -2.0407898   0.75089305   424551 
  531000   0.62550346    -2.041007    -2.041007   -1.2907273  0.043013009    -2.041007   0.75027973   424551 
  532000   0.62564831    -2.040985    -2.040985   -1.2905316  0.047749924    -2.040985   0.75045347   424551 
  533000   0.62635259   -2.0418768   -2.0418768   -1.2905785  0.043497594   -2.0418768   0.75129824   424551 
  534000   0.62493856   -2.0401787   -2.0401787   -1.2905766  0.052420847   -2.0401787   0.74960213   424551 
  535000   0.62557936   -2.0410701   -2.0410701   -1.2906993  0.047777596   -2.0410701   0.75037077   424551 
  536000   0.62555166   -2.0410509   -2.0410509   -1.2907133  0.047255985   -2.0410509   0.75033754   424551 
  537000   0.62603639   -2.0416174   -2.0416174   -1.2906985  0.040009175   -2.0416174   0.75091897   424551 
  538000   0.62635264   -2.0420091   -2.0420091   -1.2907108  0.042666381   -2.0420091   0.75129831   424551 
  539000   0.62591941   -2.0412937   -2.0412937   -1.2905151  0.049545318   -2.0412937   0.75077865   424551 
  540000   0.62683699    -2.042522    -2.042522   -1.2906428   0.05200574    -2.042522   0.75187927   424551 
  541000    0.6256722    -2.041308    -2.041308   -1.2908258  0.047532759    -2.041308   0.75048212   424551 
  542000   0.62677887   -2.0419719   -2.0419719   -1.2901624  0.046724375   -2.0419719   0.75180956   424551 
  543000   0.62771201   -2.0434857   -2.0434857   -1.2905569  0.040954564   -2.0434857   0.75292884   424551 
  544000   0.62636611   -2.0418179   -2.0418179   -1.2905034  0.045076546   -2.0418179   0.75131446   424551 
  545000   0.62583993   -2.0413216   -2.0413216   -1.2906383  0.055887327   -2.0413216   0.75068332   424551 
  546000   0.62617585   -2.0417219   -2.0417219   -1.2906357  0.046021207   -2.0417219   0.75108625   424551 
  547000   0.62694602   -2.0431014   -2.0431014   -1.2910913  0.045173678   -2.0431014   0.75201005   424551 
  548000   0.62652141   -2.0428657   -2.0428657    -1.291365  0.041533592   -2.0428657   0.75150073   424551 
  549000   0.62597958   -2.0421307   -2.0421307   -1.2912799  0.053435121   -2.0421307   0.75085082   424551 
  550000   0.62563343   -2.0420009   -2.0420009   -1.2915653  0.054196862   -2.0420009   0.75043562   424551 
  551000   0.62598079   -2.0428162   -2.0428162   -1.2919639  0.048640389   -2.0428162   0.75085228   424551 
  552000   0.62558502    -2.043796    -2.043796   -1.2934184  0.039992137    -2.043796   0.75037756   424551 
  553000   0.62620146   -2.0450529   -2.0450529   -1.2939359  0.040184697   -2.0450529   0.75111697   424551 
  554000   0.62586451   -2.0449072   -2.0449072   -1.2941944  0.041769298   -2.0449072    0.7507128   424551 
  555000   0.62665526   -2.0454099   -2.0454099   -1.2937486  0.050754985   -2.0454099   0.75166129   424551 
  556000   0.62525132   -2.0439478   -2.0439478   -1.2939705  0.055064001   -2.0439478   0.74997728   424551 
  557000   0.62640058   -2.0456507   -2.0456507   -1.2942949  0.048831621   -2.0456507   0.75135581   424551 
  558000   0.62688574   -2.0456366   -2.0456366   -1.2936988  0.043014283   -2.0456366   0.75193774   424551 
  559000   0.62632909   -2.0452779   -2.0452779   -1.2940079  0.044462317   -2.0452779   0.75127006   424551 
  560000   0.62519917   -2.0434773   -2.0434773   -1.2935626  0.046997959   -2.0434773   0.74991474   424551 
  561000   0.62650504   -2.0457082   -2.0457082   -1.2942271  0.046247114   -2.0457082    0.7514811   424551 
  562000   0.62441611   -2.0446559   -2.0446559   -1.2956804  0.046454292   -2.0446559   0.74897546   424551 
  563000   0.62587106   -2.0461423   -2.0461423   -1.2954217  0.049559078   -2.0461423   0.75072066   424551 
  564000   0.62493057   -2.0448566   -2.0448566    -1.295264    0.0457902   -2.0448566   0.74959256   424551 
  565000   0.62486575   -2.0453419   -2.0453419   -1.2958271  0.049018716   -2.0453419    0.7495148   424551 
  566000    0.6264587   -2.0461769   -2.0461769   -1.2947514  0.050925665   -2.0461769   0.75142552   424551 
  567000   0.62642393   -2.0473569   -2.0473569   -1.2959731  0.046144559   -2.0473569   0.75138381   424551 
  568000   0.62772062   -2.0486271   -2.0486271   -1.2956879  0.042197025   -2.0486271   0.75293917   424551 
  569000   0.62623871   -2.0473909   -2.0473909   -1.2962292  0.047387092   -2.0473909   0.75116165   424551 
  570000   0.62582532   -2.0477449   -2.0477449   -1.2970791  0.051603044   -2.0477449   0.75066579   424551 
  571000   0.62574638   -2.0477352   -2.0477352   -1.2971641  0.039304627   -2.0477352    0.7505711   424551 
  572000   0.62577023   -2.0478888   -2.0478888   -1.2972891  0.037980715   -2.0478888   0.75059971   424551 
  573000   0.62616232   -2.0486637   -2.0486637   -1.2975937  0.047855714   -2.0486637   0.75107001   424551 
  574000   0.62538019    -2.047871    -2.047871   -1.2977392  0.051628486    -2.047871   0.75013187   424551 
  575000   0.62527814   -2.0481329   -2.0481329   -1.2981234  0.046774567   -2.0481329   0.75000946   424551 
  576000   0.62669753   -2.0493539   -2.0493539   -1.2976419  0.052501338   -2.0493539   0.75171199   424551 
  577000   0.62634032   -2.0495692   -2.0495692   -1.2982856  0.045180441   -2.0495692   0.75128352   424551 
  578000   0.62608045   -2.0489276   -2.0489276   -1.2979558  0.047622687   -2.0489276   0.75097181   424551 
  579000   0.62580422   -2.0492907   -2.0492907   -1.2986502  0.049530469   -2.0492907   0.75064048   424551 
  580000   0.62426333   -2.0480478   -2.0480478   -1.2992555   0.04127888   -2.0480478   0.74879222   424551 
  581000   0.62520881   -2.0489313   -2.0489313    -1.299005  0.046375597   -2.0489313   0.74992629   424551 
  582000   0.62494705   -2.0490222   -2.0490222   -1.2994098  0.051931013   -2.0490222   0.74961232   424551 
  583000   0.62634714   -2.0507891   -2.0507891   -1.2994974  0.046597659   -2.0507891   0.75129171   424551 
  584000   0.62505244   -2.0491424   -2.0491424   -1.2994037  0.041564415   -2.0491424   0.74973873   424551 
  585000   0.62629912   -2.0507878   -2.0507878   -1.2995537  0.049630836   -2.0507878    0.7512341   424551 
  586000   0.62537543   -2.0492887   -2.0492887   -1.2991625  0.049361516   -2.0492887   0.75012616   424551 
  587000   0.62632278   -2.0502926   -2.0502926   -1.2990301  0.045872941   -2.0502926   0.75126248   424551 
  588000   0.62452246   -2.0486872   -2.0486872   -1.2995841   0.04327127   -2.0486872   0.74910303   424551 
  589000   0.62522128   -2.0496083   -2.0496083    -1.299667  0.048678874   -2.0496083   0.74994125   424551 
  590000   0.62610191   -2.0503971   -2.0503971   -1.2993996  0.041844032   -2.0503971   0.75099756   424551 
  591000   0.62584437    -2.050032    -2.050032   -1.2993434  0.047057558    -2.050032   0.75068864   424551 
  592000   0.62578375    -2.049358    -2.049358    -1.298742  0.044391809    -2.049358   0.75061593   424551 
  593000   0.62604106   -2.0497239   -2.0497239   -1.2987993  0.046869387   -2.0497239   0.75092456   424551 
  594000   0.62656925   -2.0503725   -2.0503725   -1.2988144  0.046317401   -2.0503725   0.75155812   424551 
  595000    0.6246554   -2.0481491   -2.0481491   -1.2988866  0.047907785   -2.0481491    0.7492625   424551 
  596000   0.62527747   -2.0488784   -2.0488784   -1.2988697  0.046359583   -2.0488784   0.75000865   424551 
  597000   0.62573208   -2.0492862   -2.0492862   -1.2987322  0.046165043   -2.0492862   0.75055395   424551 
  598000   0.62598593   -2.0502001   -2.0502001   -1.2993416  0.046204076   -2.0502001   0.75085844   424551 
  599000   0.62609083   -2.0503348   -2.0503348   -1.2993505  0.037888882   -2.0503348   0.75098427   424551 
  600000   0.62517937   -2.0502634   -2.0502634   -1.3003724  0.042725187   -2.0502634   0.74989099   424551 
  601000    0.6245241   -2.0500673   -2.0500673   -1.3009623  0.042323012   -2.0500673     0.749105   424551 
  602000   0.62493541   -2.0512255   -2.0512255   -1.3016272  0.049904129   -2.0512255   0.74959836   424551 
  603000   0.62467001   -2.0508014   -2.0508014   -1.3015213  0.038546107   -2.0508014   0.74928002   424551 
  604000   0.62466307   -2.0520637   -2.0520637    -1.302792  0.047842413   -2.0520637    0.7492717   424551 
  605000   0.62523634    -2.051497    -2.051497   -1.3015377  0.043526803    -2.051497   0.74995932   424551 
  606000   0.62507218   -2.0515884   -2.0515884    -1.301826  0.048874362   -2.0515884   0.74976242   424551 
  607000   0.62544671   -2.0519241   -2.0519241   -1.3017125  0.040160501   -2.0519241   0.75021165   424551 
  608000   0.62610298   -2.0527116   -2.0527116   -1.3017128  0.047191165   -2.0527116   0.75099884   424551 
  609000    0.6249509   -2.0511007   -2.0511007   -1.3014837  0.044658121   -2.0511007   0.74961694   424551 
  610000   0.62655209   -2.0528304   -2.0528304   -1.3012928  0.040056287   -2.0528304   0.75153753   424551 
  611000   0.62513528   -2.0525509   -2.0525509   -1.3027127  0.041884519   -2.0525509   0.74983811   424551 
  612000   0.62510504   -2.0524747   -2.0524747   -1.3026729  0.045946472   -2.0524747   0.74980183   424551 
  613000   0.62535717   -2.0527447   -2.0527447   -1.3026405  0.043028545   -2.0527447   0.75010425   424551 
  614000   0.62466659   -2.0521164   -2.0521164   -1.3028405  0.041889509   -2.0521164   0.74927592   424551 
  615000   0.62573276   -2.0536846   -2.0536846   -1.3031298  0.049563195   -2.0536846   0.75055476   424551 
  616000   0.62460961   -2.0537549   -2.0537549   -1.3045473  0.040354913   -2.0537549   0.74920757   424551 
  617000      0.62376   -2.0526958   -2.0526958   -1.3045074  0.042592833   -2.0526958   0.74818848   424551 
  618000   0.62368686   -2.0529564   -2.0529564   -1.3048556  0.045746219   -2.0529564   0.74810075   424551 
  619000   0.62547556   -2.0550709   -2.0550709   -1.3048247  0.047361293   -2.0550709   0.75024626   424551 
  620000   0.62445088   -2.0537981   -2.0537981   -1.3047809  0.040368113   -2.0537981   0.74901718   424551 
  621000   0.62514354   -2.0542896   -2.0542896   -1.3044416   0.04410159   -2.0542896   0.74984801   424551 
  622000   0.62590337    -2.055319    -2.055319   -1.3045596  0.047565841    -2.055319   0.75075941   424551 
  623000   0.62417303   -2.0535097   -2.0535097   -1.3048258  0.054835316   -2.0535097    0.7486839   424551 
  624000    0.6244332   -2.0537091   -2.0537091   -1.3047131   0.04929497   -2.0537091   0.74899597   424551 
  625000   0.62510438   -2.0543544   -2.0543544   -1.3045533  0.043798763   -2.0543544   0.74980103   424551 
  626000   0.62584702   -2.0559159   -2.0559159   -1.3052241  0.050089431   -2.0559159   0.75069181   424551 
  627000   0.62520845   -2.0547948   -2.0547948    -1.304869  0.049468569   -2.0547948   0.74992587   424551 
  628000   0.62510179   -2.0547002   -2.0547002   -1.3049023  0.051850294   -2.0547002   0.74979793   424551 
  629000   0.62428165   -2.0544093   -2.0544093   -1.3055951  0.050670163   -2.0544093   0.74881418   424551 
  630000   0.62572333    -2.056477    -2.056477   -1.3059336  0.043701878    -2.056477   0.75054346   424551 
  631000   0.62351581   -2.0547778   -2.0547778   -1.3068823  0.048900938   -2.0547778   0.74789557   424551 
  632000    0.6236765   -2.0554894   -2.0554894   -1.3074011  0.040543276   -2.0554894   0.74808832   424551 
  633000   0.62355935    -2.056355    -2.056355   -1.3084072  0.045787052    -2.056355    0.7479478   424551 
  634000    0.6228761   -2.0551281   -2.0551281   -1.3079999   0.04656626   -2.0551281   0.74712825   424551 
  635000   0.62304875   -2.0554264   -2.0554264   -1.3080911   0.04460803   -2.0554264   0.74733535   424551 
  636000   0.62306337   -2.0553731   -2.0553731   -1.3080202  0.045506547   -2.0553731   0.74735288   424551 
  637000   0.62392198   -2.0567505   -2.0567505   -1.3083677  0.040443816   -2.0567505   0.74838277   424551 
  638000   0.62376798   -2.0571756   -2.0571756   -1.3089776  0.050555992   -2.0571756   0.74819805   424551 
  639000   0.62318966   -2.0556998   -2.0556998   -1.3081954  0.039981223   -2.0556998   0.74750437   424551 
  640000   0.62246093    -2.054952    -2.054952   -1.3083217  0.046432703    -2.054952   0.74663027   424551 
  641000   0.62495476   -2.0577912   -2.0577912   -1.3081696  0.049482281   -2.0577912   0.74962156   424551 
  642000   0.62442507   -2.0575064   -2.0575064   -1.3085202  0.048723813   -2.0575064   0.74898621   424551 
  643000   0.62387058   -2.0564908   -2.0564908   -1.3081697  0.051530114   -2.0564908   0.74832112   424551 
  644000   0.62505098   -2.0580944   -2.0580944   -1.3083574  0.048079188   -2.0580944   0.74973698   424551 
  645000    0.6241475   -2.0568065   -2.0568065   -1.3081532  0.043115839   -2.0568065   0.74865328   424551 
  646000   0.62485968   -2.0580681   -2.0580681   -1.3085606  0.052140399   -2.0580681   0.74950752   424551 
  647000    0.6233828   -2.0568175   -2.0568175   -1.3090815  0.037187011   -2.0568175   0.74773604   424551 
  648000   0.62374764   -2.0579371   -2.0579371   -1.3097635   0.04054049   -2.0579371   0.74817365   424551 
  649000   0.62424901   -2.0591391   -2.0591391   -1.3103641  0.050035189   -2.0591391   0.74877504   424551 
  650000   0.62399852   -2.0593111   -2.0593111   -1.3108366  0.050830826   -2.0593111   0.74847457   424551 
  651000    0.6233453   -2.0577751   -2.0577751   -1.3100841  0.043825574   -2.0577751   0.74769105   424551 
  652000   0.62334859   -2.0578509   -2.0578509   -1.3101559  0.044970563   -2.0578509     0.747695   424551 
  653000    0.6262559   -2.0612394   -2.0612394   -1.3100572  0.046830222   -2.0612394   0.75118226   424551 
  654000   0.62465763   -2.0589863   -2.0589863   -1.3097211  0.041303867   -2.0589863   0.74926517   424551 
  655000   0.62382015   -2.0583014   -2.0583014   -1.3100408  0.047321037   -2.0583014   0.74826063   424551 
  656000   0.62524559   -2.0598729   -2.0598729   -1.3099025  0.043794055   -2.0598729   0.74997041   424551 
  657000    0.6255092   -2.0599873   -2.0599873   -1.3097007  0.054122239   -2.0599873   0.75028661   424551 
  658000   0.62476221   -2.0598885   -2.0598885   -1.3104979  0.046099583   -2.0598885   0.74939061   424551 
  659000   0.62488355   -2.0599307   -2.0599307   -1.3103946  0.042851211   -2.0599307   0.74953615   424551 
  660000   0.62324635   -2.0596135   -2.0596135   -1.3120411   0.04733358   -2.0596135   0.74757236   424551 
  661000   0.62341963   -2.0594317   -2.0594317   -1.3116515   0.04692439   -2.0594317   0.74778021   424551 
  662000   0.62480191   -2.0614494   -2.0614494   -1.3120112  0.050562261   -2.0614494   0.74943823   424551 
  663000   0.62321476   -2.0600243   -2.0600243   -1.3124899  0.050215047   -2.0600243   0.74753447   424551 
  664000   0.62417206   -2.0611198   -2.0611198   -1.3124371   0.04790816   -2.0611198   0.74868274   424551 
  665000   0.62370986   -2.0613255   -2.0613255   -1.3131971  0.050277485   -2.0613255   0.74812834   424551 
  666000   0.62343378   -2.0608734   -2.0608734   -1.3130763  0.047997492   -2.0608734   0.74779719   424551 
  667000   0.62282779   -2.0608598   -2.0608598   -1.3137895  0.043970181   -2.0608598   0.74707031   424551 
  668000   0.62364795   -2.0622638   -2.0622638   -1.3142097  0.043314969   -2.0622638   0.74805408   424551 
  669000   0.62377559   -2.0630962   -2.0630962    -1.314889  0.041358804   -2.0630962   0.74820718   424551 
  670000   0.62328004   -2.0629195   -2.0629195   -1.3153067  0.045166878   -2.0629195   0.74761278   424551 
  671000    0.6241539   -2.0642286   -2.0642286   -1.3155677  0.042260261   -2.0642286   0.74866096   424551 
  672000   0.62410327   -2.0643612   -2.0643612    -1.315761  0.048990903   -2.0643612   0.74860022   424551 
  673000   0.62449223   -2.0654127   -2.0654127   -1.3163459  0.047081671   -2.0654127   0.74906678   424551 
  674000   0.62323177   -2.0644464   -2.0644464   -1.3168916  0.055316721   -2.0644464   0.74755487   424551 
  675000   0.62399287   -2.0650498   -2.0650498    -1.316582  0.049217844   -2.0650498    0.7484678   424551 
  676000   0.62510284   -2.0654838   -2.0654838   -1.3156846  0.053643605   -2.0654838   0.74979919   424551 
  677000   0.62498425   -2.0660402   -2.0660402   -1.3163833   0.04761199   -2.0660402   0.74965694   424551 
  678000   0.62295419   -2.0641968   -2.0641968   -1.3169749  0.050998621   -2.0641968   0.74722192   424551 
  679000   0.62423045   -2.0662841   -2.0662841   -1.3175314   0.05251245   -2.0662841   0.74875277   424551 
  680000   0.62419749   -2.0667354   -2.0667354   -1.3180221  0.048830625   -2.0667354   0.74871324   424551 
  681000   0.62370962   -2.0665177   -2.0665177   -1.3183896  0.053441537   -2.0665177   0.74812805   424551 
  682000   0.62278405   -2.0651235   -2.0651235   -1.3181057  0.053677696   -2.0651235   0.74701785   424551 
  683000   0.62398095    -2.066263    -2.066263   -1.3178095  0.044860466    -2.066263   0.74845351   424551 
  684000   0.62353674    -2.065427    -2.065427   -1.3175063  0.045555416    -2.065427   0.74792069   424551 
  685000    0.6245394   -2.0664794   -2.0664794   -1.3173561  0.049876869   -2.0664794   0.74912335   424551 
  686000   0.62456918   -2.0661614   -2.0661614   -1.3170023  0.039227612   -2.0661614   0.74915908   424551 
  687000   0.62533539   -2.0667084   -2.0667084   -1.3166303  0.048783876   -2.0667084   0.75007813   424551 
  688000   0.62465111    -2.067027    -2.067027   -1.3177696  0.044659489    -2.067027   0.74925735   424551 
  689000   0.62447733   -2.0664468   -2.0664468   -1.3173979  0.044196657   -2.0664468   0.74904891   424551 
  690000   0.62324746   -2.0655359   -2.0655359   -1.3179622  0.047657593   -2.0655359   0.74757369   424551 
  691000   0.62269263   -2.0645169   -2.0645169   -1.3176088  0.037633344   -2.0645169   0.74690818   424551 
  692000   0.62286869   -2.0652175   -2.0652175   -1.3180982  0.040576604   -2.0652175   0.74711936   424551 
  693000    0.6231981   -2.0652129   -2.0652129   -1.3176984  0.042891298   -2.0652129   0.74751449   424551 
  694000   0.62283526   -2.0640314   -2.0640314   -1.3169521  0.043962736   -2.0640314   0.74707927   424551 
  695000   0.62451392   -2.0657251   -2.0657251   -1.3166323  0.039478183   -2.0657251   0.74909279   424551 
  696000   0.62433367   -2.0648383   -2.0648383   -1.3159617  0.045041646   -2.0648383   0.74887658   424551 
  697000   0.62431364   -2.0642116   -2.0642116    -1.315359  0.045095967   -2.0642116   0.74885256   424551 
  698000   0.62419046   -2.0646199   -2.0646199   -1.3159151  0.043322339   -2.0646199   0.74870481   424551 
  699000   0.62502196   -2.0655509   -2.0655509   -1.3158487  0.051561371   -2.0655509   0.74970218   424551 
  700000   0.62488912   -2.0655991   -2.0655991   -1.3160563  0.036474934   -2.0655991   0.74954284   424551 
  701000   0.62314665   -2.0637754   -2.0637754   -1.3163226  0.045614336   -2.0637754   0.74745278   424551 
  702000   0.62390961   -2.0652465   -2.0652465   -1.3168786  0.048860451   -2.0652465   0.74836793   424551 
  703000   0.62400699    -2.065224    -2.065224   -1.3167393  0.050181069    -2.065224   0.74848474   424551 
  704000     0.623361   -2.0637608   -2.0637608    -1.316051  0.043705187   -2.0637608   0.74770989   424551 
  705000   0.62429516   -2.0649622   -2.0649622   -1.3161318  0.036431439   -2.0649622   0.74883039   424551 
  706000   0.62409971   -2.0650438   -2.0650438   -1.3164478  0.045696188   -2.0650438   0.74859596   424551 
  707000   0.62508144   -2.0651308   -2.0651308   -1.3153573  0.049250178   -2.0651308   0.74977352   424551 
  708000   0.62392986   -2.0642943   -2.0642943   -1.3159021  0.041878202   -2.0642943   0.74839222   424551 
  709000    0.6250551   -2.0653604   -2.0653604   -1.3156185  0.047259562   -2.0653604   0.74974192   424551 
  710000   0.62288143   -2.0637947   -2.0637947   -1.3166601  0.046497221   -2.0637947   0.74713465   424551 
  711000   0.62328489   -2.0644459   -2.0644459   -1.3168273  0.050399123   -2.0644459   0.74761859   424551 
  712000   0.62441146    -2.065607    -2.065607   -1.3166371  0.039346262    -2.065607   0.74896989   424551 
  713000   0.62437102   -2.0656932   -2.0656932   -1.3167718  0.043419171   -2.0656932   0.74892138   424551 
  714000   0.62320634    -2.064178    -2.064178   -1.3166536   0.04477733    -2.064178   0.74752437   424551 
  715000   0.62280631   -2.0637053   -2.0637053   -1.3166608  0.045970903   -2.0637053   0.74704455   424551 
  716000   0.62517019     -2.06583     -2.06583   -1.3159501  0.041315714     -2.06583   0.74987997   424551 
  717000   0.62457019    -2.065211    -2.065211   -1.3160507   0.04854203    -2.065211   0.74916029   424551 
  718000   0.62358055   -2.0645164   -2.0645164   -1.3165431  0.049191432   -2.0645164   0.74797323   424551 
  719000   0.62421907   -2.0648977   -2.0648977   -1.3161586  0.049772031   -2.0648977   0.74873912   424551 
  720000   0.62414245   -2.0650721   -2.0650721   -1.3164249  0.042067404   -2.0650721   0.74864722   424551 
  721000   0.62391008    -2.064943    -2.064943   -1.3165745  0.045305496    -2.064943   0.74836849   424551 
  722000   0.62453489   -2.0655485   -2.0655485   -1.3164305  0.040075469   -2.0655485   0.74911794   424551 
  723000   0.62513667   -2.0660866   -2.0660866   -1.3162468  0.047548793   -2.0660866   0.74983977   424551 
  724000   0.62438737   -2.0660412   -2.0660412   -1.3171002  0.043476677   -2.0660412   0.74894099   424551 
  725000   0.62415175   -2.0659832   -2.0659832   -1.3173248   0.04837957   -2.0659832   0.74865837   424551 
  726000   0.62388088   -2.0656464   -2.0656464    -1.317313  0.047042379   -2.0656464   0.74833347   424551 
  727000   0.62505929   -2.0674039   -2.0674039   -1.3176569  0.045084398   -2.0674039   0.74974695   424551 
  728000   0.62498669   -2.0677874   -2.0677874   -1.3181276  0.046217308   -2.0677874   0.74965987   424551 
  729000   0.62432422   -2.0678325   -2.0678325   -1.3189672  0.047068256   -2.0678325   0.74886525   424551 
  730000   0.62406598   -2.0682675   -2.0682675    -1.319712  0.055440555   -2.0682675   0.74855549   424551 
  731000   0.62566218   -2.0699383   -2.0699383   -1.3194682  0.056126322   -2.0699383   0.75047011   424551 
  732000    0.6236264   -2.0680805   -2.0680805   -1.3200522  0.049470872   -2.0680805   0.74802822   424551 
  733000   0.62359884   -2.0684385   -2.0684385   -1.3204433  0.046285373   -2.0684385   0.74799516   424551 
  734000   0.62332774   -2.0678883   -2.0678883   -1.3202184  0.042747715   -2.0678883   0.74766999   424551 
  735000   0.62420167    -2.068924    -2.068924   -1.3202057  0.042554465    -2.068924   0.74871826   424551 
  736000   0.62287932   -2.0678869   -2.0678869   -1.3207548  0.044174959   -2.0678869   0.74713211   424551 
  737000   0.62240378   -2.0673811   -2.0673811   -1.3208194  0.046917133   -2.0673811   0.74656171   424551 
  738000   0.62307427   -2.0678955   -2.0678955   -1.3205295  0.046778681   -2.0678955   0.74736596   424551 
  739000   0.62446632    -2.069491    -2.069491   -1.3204553  0.046598482    -2.069491    0.7490357   424551 
  740000   0.62403676    -2.069392    -2.069392   -1.3208715  0.041798394    -2.069392   0.74852044   424551 
  741000   0.62457719   -2.0697544   -2.0697544   -1.3205857   0.05021841   -2.0697544   0.74916868   424551 
  742000   0.62409179   -2.0694058   -2.0694058   -1.3208193  0.047557423   -2.0694058   0.74858645   424551 
  743000   0.62404057   -2.0692732   -2.0692732   -1.3207482  0.038792262   -2.0692732   0.74852502   424551 
  744000   0.62316148   -2.0692879   -2.0692879   -1.3218174  0.050558457   -2.0692879   0.74747057   424551 
  745000   0.62389009   -2.0691335   -2.0691335    -1.320789  0.049597976   -2.0691335   0.74834452   424551 
  746000   0.62486734   -2.0702968   -2.0702968   -1.3207801  0.043907807   -2.0702968   0.74951671   424551 
  747000   0.62394085   -2.0683895   -2.0683895   -1.3199841  0.048939991   -2.0683895    0.7484054   424551 
  748000    0.6258796   -2.0707045   -2.0707045   -1.3199736  0.047452246   -2.0707045    0.7507309   424551 
  749000   0.62378473   -2.0690996   -2.0690996   -1.3208814   0.04341021   -2.0690996   0.74821814   424551 
  750000   0.62453272   -2.0696117   -2.0696117   -1.3204963  0.046802221   -2.0696117   0.74911534   424551 
  751000   0.62410273   -2.0690604   -2.0690604   -1.3204608    0.0452718   -2.0690604   0.74859958   424551 
  752000   0.62413036   -2.0693226   -2.0693226   -1.3206899  0.047247988   -2.0693226   0.74863271   424551 
  753000   0.62372194   -2.0696569   -2.0696569   -1.3215141  0.040965661   -2.0696569   0.74814282   424551 
  754000   0.62444559   -2.0699967   -2.0699967   -1.3209859  0.044680815   -2.0699967   0.74901083   424551 
  755000   0.62453049   -2.0702178   -2.0702178   -1.3211051   0.04588534   -2.0702178   0.74911266   424551 
  756000   0.62380839   -2.0703825   -2.0703825    -1.322136  0.040120505   -2.0703825   0.74824652   424551 
  757000   0.62360762   -2.0702316   -2.0702316   -1.3222259  0.044748889   -2.0702316    0.7480057   424551 
  758000   0.62203079   -2.0687489   -2.0687489   -1.3226346  0.047029021   -2.0687489   0.74611432   424551 
  759000   0.62259452   -2.0690741   -2.0690741   -1.3222836  0.043461129   -2.0690741   0.74679051   424551 
  760000   0.62343484   -2.0701196   -2.0701196   -1.3223211  0.047187047   -2.0701196   0.74779845   424551 
  761000   0.62365099    -2.069956    -2.069956   -1.3218983  0.043146834    -2.069956   0.74805772   424551 
  762000   0.62453185   -2.0705525   -2.0705525   -1.3214382  0.045216785   -2.0705525   0.74911429   424551 
  763000    0.6256799   -2.0710958   -2.0710958   -1.3206044  0.051100013   -2.0710958   0.75049136   424551 
  764000   0.62496175    -2.071427    -2.071427    -1.321797  0.045587813    -2.071427   0.74962995   424551 
  765000   0.62478159   -2.0714315   -2.0714315   -1.3220177   0.04147115   -2.0714315   0.74941386   424551 
  766000   0.62335908   -2.0701758   -2.0701758   -1.3224682  0.042474188   -2.0701758   0.74770758   424551 
  767000    0.6233542   -2.0701042   -2.0701042   -1.3224025   0.04852884   -2.0701042   0.74770173   424551 
  768000   0.62413609   -2.0711594   -2.0711594   -1.3225198  0.041614337   -2.0711594   0.74863959   424551 
  769000   0.62352928   -2.0712405   -2.0712405   -1.3233288  0.044781363   -2.0712405   0.74791174   424551 
  770000   0.62364366   -2.0726052   -2.0726052   -1.3245562  0.043906757   -2.0726052   0.74804893   424551 
  771000   0.62330707   -2.0707771   -2.0707771   -1.3231319  0.049305939   -2.0707771    0.7476452   424551 
  772000   0.62396215   -2.0724893   -2.0724893   -1.3240584  0.040745472   -2.0724893   0.74843095   424551 
  773000   0.62398081   -2.0732216   -2.0732216   -1.3247682  0.047602354   -2.0732216   0.74845333   424551 
  774000   0.62264776   -2.0725578   -2.0725578   -1.3257034  0.051666461   -2.0725578   0.74685436   424551 
  775000    0.6238885   -2.0737894   -2.0737894   -1.3254468  0.049609625   -2.0737894   0.74834261   424551 
  776000   0.62422642   -2.0740969   -2.0740969    -1.325349  0.038197296   -2.0740969   0.74874794   424551 
  777000   0.62528422   -2.0753153   -2.0753153   -1.3252985   0.03951297   -2.0753153   0.75001676   424551 
  778000   0.62480587    -2.074996    -2.074996    -1.325553  0.045123763    -2.074996   0.74944297   424551 
  779000   0.62430595   -2.0736433   -2.0736433   -1.3247999  0.044389316   -2.0736433   0.74884334   424551 
  780000   0.62577728   -2.0750773   -2.0750773   -1.3244691  0.048530024   -2.0750773   0.75060816   424551 
  781000   0.62515252   -2.0738714   -2.0738714   -1.3240126  0.053091197   -2.0738714   0.74985877   424551 
  782000   0.62596496   -2.0747004   -2.0747004   -1.3238671  0.043574707   -2.0747004   0.75083329   424551 
  783000   0.62476214   -2.0738214   -2.0738214   -1.3244309  0.044926407   -2.0738214   0.74939052   424551 
  784000    0.6242935   -2.0737483   -2.0737483   -1.3249199  0.046419348   -2.0737483    0.7488284   424551 
  785000   0.62383343   -2.0726408   -2.0726408   -1.3243642  0.045558317   -2.0726408   0.74827656   424551 
  786000   0.62353316   -2.0727517   -2.0727517   -1.3248353  0.046190547   -2.0727517   0.74791638   424551 
  787000   0.62410576    -2.073652    -2.073652   -1.3250487  0.040046516    -2.073652   0.74860321   424551 
  788000   0.62303592    -2.071892    -2.071892   -1.3245721  0.044699412    -2.071892   0.74731995   424551 
  789000   0.62425335   -2.0736655   -2.0736655   -1.3248852  0.042349131   -2.0736655   0.74878024   424551 
  790000   0.62414735   -2.0733545   -2.0733545   -1.3247014  0.042504857   -2.0733545   0.74865309   424551 
  791000   0.62427293   -2.0737735   -2.0737735   -1.3249698  0.044096932   -2.0737735   0.74880373   424551 
  792000   0.62336622   -2.0733336   -2.0733336   -1.3256175  0.048351858   -2.0733336   0.74771614   424551 
  793000   0.62258823   -2.0722393   -2.0722393   -1.3254563   0.04520925   -2.0722393   0.74678296   424551 
  794000   0.62400561   -2.0742357   -2.0742357   -1.3257526  0.051818639   -2.0742357   0.74848308   424551 
  795000   0.62416454   -2.0746618   -2.0746618   -1.3259881  0.040295853   -2.0746618   0.74867371   424551 
  796000   0.62330128    -2.074056    -2.074056   -1.3264177  0.038695308    -2.074056   0.74763825   424551 
  797000   0.62339867   -2.0750468   -2.0750468   -1.3272917  0.046465393   -2.0750468   0.74775507   424551 
  798000    0.6235889   -2.0745743   -2.0745743    -1.326591  0.039672306   -2.0745743   0.74798324   424551 
  799000   0.62243316   -2.0738258   -2.0738258   -1.3272288  0.044569715   -2.0738258   0.74659696   424551 
  800000   0.62367441    -2.075271    -2.075271   -1.3271852  0.041283367    -2.075271   0.74808581   424551 
  801000   0.62350593   -2.0752396   -2.0752396   -1.3273559  0.042412709   -2.0752396   0.74788373   424551 
  802000   0.62256568   -2.0745393   -2.0745393   -1.3277833  0.037985737   -2.0745393   0.74675591   424551 
  803000   0.62309682   -2.0749339   -2.0749339   -1.3275409  0.043573592   -2.0749339   0.74739301   424551 
  804000   0.62316086   -2.0742746   -2.0742746   -1.3268048  0.045307323   -2.0742746   0.74746982   424551 
  805000   0.62404766   -2.0757241   -2.0757241   -1.3271906  0.043630042   -2.0757241   0.74853352   424551 
  806000   0.62520636   -2.0763904   -2.0763904    -1.326467  0.043742358   -2.0763904   0.74992336   424551 
  807000   0.62356014    -2.075031    -2.075031   -1.3270823  0.044615204    -2.075031   0.74794875   424551 
  808000   0.62348008   -2.0752163   -2.0752163   -1.3273636  0.041474315   -2.0752163   0.74785272   424551 
  809000   0.62429326   -2.0763587   -2.0763587   -1.3275306  0.038910506   -2.0763587   0.74882811   424551 
  810000   0.62379315   -2.0753706   -2.0753706   -1.3271424  0.045620101   -2.0753706   0.74822824   424551 
  811000   0.62276788   -2.0738609   -2.0738609   -1.3268624    0.0456149   -2.0738609   0.74699844   424551 
  812000   0.62340748   -2.0745836   -2.0745836    -1.326818  0.039204102   -2.0745836   0.74776563   424551 
  813000   0.62342935    -2.075259    -2.075259   -1.3274672  0.041062872    -2.075259   0.74779187   424551 
  814000   0.62333104   -2.0758366   -2.0758366   -1.3281626  0.036823159   -2.0758366   0.74767395   424551 
  815000   0.62381271   -2.0762669   -2.0762669   -1.3280152  0.046471297   -2.0762669   0.74825171   424551 
  816000   0.62412102     -2.07703     -2.07703   -1.3284085   0.03772925     -2.07703   0.74862151   424551 
  817000    0.6240984   -2.0767336   -2.0767336   -1.3281392  0.041363211   -2.0767336   0.74859439   424551 
  818000   0.62288123   -2.0760509   -2.0760509   -1.3289165  0.046094311   -2.0760509   0.74713441   424551 
  819000   0.62244148   -2.0764737   -2.0764737   -1.3298667  0.042639413   -2.0764737   0.74660693   424551 
  820000   0.62267382   -2.0769375   -2.0769375   -1.3300519  0.050136973   -2.0769375   0.74688563   424551 
  821000    0.6219719   -2.0761182   -2.0761182   -1.3300746  0.046197336   -2.0761182   0.74604368   424551 
  822000   0.62266795   -2.0766177   -2.0766177   -1.3297391  0.048611974   -2.0766177   0.74687859   424551 
  823000   0.62230045   -2.0763646   -2.0763646   -1.3299268  0.044696312   -2.0763646   0.74643777   424551 
  824000    0.6223574   -2.0767236   -2.0767236   -1.3302175   0.04645841   -2.0767236   0.74650608   424551 
  825000   0.62334399   -2.0775316   -2.0775316   -1.3298421   0.04329898   -2.0775316   0.74768948   424551 
  826000   0.62399863   -2.0784205   -2.0784205   -1.3299458  0.045966272   -2.0784205   0.74847471   424551 
  827000   0.62360465   -2.0779191   -2.0779191    -1.329917   0.04084582   -2.0779191   0.74800214   424551 
  828000   0.62407959    -2.078635    -2.078635   -1.3300631  0.043556087    -2.078635   0.74857182   424551 
  829000   0.62298682   -2.0773714   -2.0773714   -1.3301104  0.049586794   -2.0773714   0.74726106   424551 
  830000   0.62316666   -2.0773514   -2.0773514   -1.3298746  0.044565136   -2.0773514   0.74747678   424551 
  831000   0.62398617   -2.0781379   -2.0781379   -1.3296781  0.044542529   -2.0781379   0.74845976   424551 
  832000   0.62272161   -2.0768974   -2.0768974   -1.3299545   0.04332786   -2.0768974   0.74694295   424551 
  833000   0.62233899   -2.0775835   -2.0775835   -1.3310995  0.040603602   -2.0775835   0.74648401   424551 
  834000   0.62070096   -2.0763017   -2.0763017   -1.3317825  0.044020935   -2.0763017   0.74451922   424551 
  835000   0.62338714   -2.0784809   -2.0784809   -1.3307396  0.044002302   -2.0784809   0.74774124   424551 
  836000   0.62260018   -2.0776929   -2.0776929   -1.3308956  0.038985182   -2.0776929    0.7467973   424551 
  837000    0.6233679   -2.0792805   -2.0792805   -1.3315624  0.043691977   -2.0792805   0.74771816   424551 
  838000   0.62439375   -2.0799192   -2.0799192   -1.3309706  0.042116962   -2.0799192   0.74894865   424551 
  839000   0.62274295   -2.0784096   -2.0784096   -1.3314411  0.045691479   -2.0784096   0.74696855   424551 
  840000   0.62441326   -2.0795279   -2.0795279   -1.3305559  0.041609737   -2.0795279   0.74897205   424551 
  841000   0.62427724   -2.0793347   -2.0793347   -1.3305258  0.033434739   -2.0793347    0.7488089   424551 
  842000   0.62485797   -2.0806777   -2.0806777   -1.3311722  0.045660683   -2.0806777   0.74950547   424551 
  843000   0.62395719   -2.0798986   -2.0798986   -1.3314736  0.046362467   -2.0798986     0.748425   424551 
  844000   0.62373732    -2.079422    -2.079422   -1.3312607  0.047123704    -2.079422   0.74816128   424551 
  845000   0.62480722   -2.0802274   -2.0802274   -1.3307828  0.047262505   -2.0802274   0.74944459   424551 
  846000   0.62474833   -2.0800045   -2.0800045   -1.3306305  0.046210687   -2.0800045   0.74937396   424551 
  847000   0.62422666   -2.0796567   -2.0796567   -1.3309085  0.047895486   -2.0796567   0.74874822   424551 
  848000   0.62344778   -2.0801903   -2.0801903   -1.3323764  0.042872189   -2.0801903   0.74781398   424551 
  849000   0.62358039   -2.0798078   -2.0798078   -1.3318348  0.043391794   -2.0798078   0.74797304   424551 
  850000   0.62237883   -2.0788544   -2.0788544   -1.3323226  0.047058106   -2.0788544   0.74653178   424551 
  851000   0.62340451   -2.0806804   -2.0806804   -1.3329184  0.040861209   -2.0806804   0.74776207   424551 
  852000   0.62157295   -2.0801349   -2.0801349   -1.3345697  0.050243513   -2.0801349   0.74556516   424551 
  853000   0.62144879   -2.0796086   -2.0796086   -1.3341923  0.045547409   -2.0796086   0.74541622   424551 
  854000   0.62209486   -2.0801694   -2.0801694   -1.3339783  0.050096598   -2.0801694   0.74619117   424551 
  855000   0.62192524   -2.0802781   -2.0802781   -1.3342903  0.042469375   -2.0802781   0.74598772   424551 
  856000   0.62286008   -2.0813063   -2.0813063   -1.3341973   0.04375777   -2.0813063   0.74710904   424551 
  857000   0.62292318   -2.0813231   -2.0813231   -1.3341384  0.047952723   -2.0813231   0.74718473   424551 
  858000   0.62227615   -2.0813722   -2.0813722   -1.3349636  0.047575787   -2.0813722   0.74640863   424551 
  859000   0.62396307   -2.0826302   -2.0826302   -1.3341982  0.048248561   -2.0826302   0.74843205   424551 
  860000   0.62426544   -2.0830486   -2.0830486   -1.3342539  0.048577802   -2.0830486   0.74879475   424551 
  861000   0.62381205   -2.0841919   -2.0841919    -1.335941  0.042152053   -2.0841919   0.74825091   424551 
  862000   0.62338075   -2.0833037   -2.0833037   -1.3355701  0.035702314   -2.0833037   0.74773357   424551 
  863000   0.62263325   -2.0825255   -2.0825255   -1.3356886  0.044886581   -2.0825255   0.74683696   424551 
  864000   0.62324007   -2.0825219   -2.0825219   -1.3349571  0.047836777   -2.0825219   0.74756483   424551 
  865000   0.62273246   -2.0821944   -2.0821944   -1.3352384  0.048778691   -2.0821944   0.74695596   424551 
  866000    0.6230969   -2.0829328   -2.0829328   -1.3355397   0.04732437   -2.0829328    0.7473931   424551 
  867000   0.62369365   -2.0837817   -2.0837817   -1.3356728  0.038167287   -2.0837817   0.74810889   424551 
  868000   0.62277857   -2.0823093   -2.0823093    -1.335298  0.038440335   -2.0823093   0.74701127   424551 
  869000   0.62337778    -2.082814    -2.082814    -1.335084  0.051518395    -2.082814   0.74773001   424551 
  870000   0.62296724    -2.082978    -2.082978   -1.3357404  0.045359219    -2.082978   0.74723758   424551 
  871000   0.62384781   -2.0841338   -2.0841338     -1.33584  0.045606292   -2.0841338   0.74829381   424551 
  872000   0.62313367   -2.0836612   -2.0836612    -1.336224   0.04850814   -2.0836612    0.7474372   424551 
  873000   0.62325742    -2.083508    -2.083508   -1.3359224  0.042092312    -2.083508   0.74758564   424551 
  874000   0.62368014   -2.0846214   -2.0846214   -1.3365287  0.051927841   -2.0846214   0.74809268   424551 
  875000   0.62243038   -2.0828053   -2.0828053   -1.3362117  0.047043052   -2.0828053   0.74659363   424551 
  876000   0.62243928   -2.0835743   -2.0835743     -1.33697  0.046136723   -2.0835743    0.7466043   424551 
  877000   0.62283089   -2.0836781   -2.0836781   -1.3366041  0.051488074   -2.0836781   0.74707403   424551 
  878000   0.62295929   -2.0842674   -2.0842674   -1.3370393  0.041729783   -2.0842674   0.74722804   424551 
  879000    0.6215382   -2.0832059   -2.0832059   -1.3376824  0.049214562   -2.0832059   0.74552347   424551 
  880000   0.62187807   -2.0831968   -2.0831968   -1.3372657  0.046586743   -2.0831968   0.74593114   424551 
  881000   0.62253681   -2.0842882   -2.0842882    -1.337567  0.044938953   -2.0842882   0.74672129   424551 
  882000    0.6217018   -2.0832852   -2.0832852   -1.3375655  0.046632423   -2.0832852    0.7457197   424551 
  883000   0.62240992   -2.0844096   -2.0844096   -1.3378405  0.041423869   -2.0844096   0.74656908   424551 
  884000   0.62217011   -2.0843239   -2.0843239   -1.3380424  0.041175685   -2.0843239   0.74628143   424551 
  885000   0.62455015    -2.086703    -2.086703   -1.3375667  0.037245879    -2.086703   0.74913625   424551 
  886000   0.62222339   -2.0844263   -2.0844263    -1.338081  0.041697812   -2.0844263   0.74634534   424551 
  887000    0.6223716    -2.084929    -2.084929   -1.3384059  0.042329599    -2.084929   0.74652311   424551 
  888000   0.62236848   -2.0847965   -2.0847965   -1.3382771  0.045302589   -2.0847965   0.74651938   424551 
  889000   0.62367254   -2.0856649   -2.0856649   -1.3375813  0.041751454   -2.0856649   0.74808357   424551 
  890000   0.62307187   -2.0861284   -2.0861284   -1.3387653  0.042546984   -2.0861284   0.74736308   424551 
  891000   0.62237088   -2.0856948   -2.0856948   -1.3391726  0.048802972   -2.0856948   0.74652226   424551 
  892000     0.622202   -2.0857479   -2.0857479   -1.3394283  0.045106207   -2.0857479   0.74631968   424551 
  893000   0.62256712    -2.086786    -2.086786   -1.3400284  0.037938358    -2.086786   0.74675765   424551 
  894000   0.62199957   -2.0875177   -2.0875177   -1.3414408  0.051142861   -2.0875177   0.74607687   424551 
  895000   0.62266186   -2.0877438   -2.0877438   -1.3408725  0.048586234   -2.0877438   0.74687127   424551 
  896000   0.62208724    -2.087455    -2.087455    -1.341273  0.052176065    -2.087455   0.74618203   424551 
  897000   0.62366055   -2.0895599   -2.0895599   -1.3414907  0.045449083   -2.0895599   0.74806919   424551 
  898000   0.62295446   -2.0893565   -2.0893565   -1.3421343  0.034749753   -2.0893565   0.74722224   424551 
  899000    0.6229247   -2.0885029   -2.0885029   -1.3413164  0.048023586   -2.0885029   0.74718655   424551 
  900000   0.62312643   -2.0889409   -2.0889409   -1.3415124  0.048087389   -2.0889409   0.74742852   424551 
  901000   0.62334534   -2.0885592   -2.0885592   -1.3408681  0.049375143   -2.0885592    0.7476911   424551 
  902000   0.62280011   -2.0876207   -2.0876207   -1.3405836  0.048723672   -2.0876207    0.7470371   424551 
  903000   0.62243427   -2.0874398   -2.0874398   -1.3408415  0.044683549   -2.0874398   0.74659829   424551 
  904000   0.62194564   -2.0876109   -2.0876109   -1.3415987  0.049297606   -2.0876109   0.74601219   424551 
  905000   0.62227972   -2.0872833   -2.0872833   -1.3408704  0.049988999   -2.0872833   0.74641291   424551 
  906000   0.62278032   -2.0868285   -2.0868285   -1.3398152  0.038814952   -2.0868285   0.74701337   424551 
  907000   0.62130154   -2.0867812   -2.0867812   -1.3415416  0.048348219   -2.0867812    0.7452396   424551 
  908000   0.62231233    -2.087281    -2.087281    -1.340829  0.047652656    -2.087281   0.74645202   424551 
  909000   0.62222195   -2.0876588   -2.0876588   -1.3413152  0.053103264   -2.0876588   0.74634362   424551 
  910000   0.62133949   -2.0873589   -2.0873589   -1.3420738  0.042934547   -2.0873589   0.74528512   424551 
  911000   0.62222179   -2.0887645   -2.0887645   -1.3424211  0.048417705   -2.0887645   0.74634342   424551 
  912000    0.6220036     -2.08771     -2.08771   -1.3416283  0.050047613     -2.08771   0.74608171   424551 
  913000   0.62194501   -2.0884814   -2.0884814     -1.34247  0.041180986   -2.0884814   0.74601143   424551 
  914000   0.62346761   -2.0895454   -2.0895454   -1.3417077  0.044208697   -2.0895454   0.74783776   424551 
  915000   0.62332654   -2.0893676   -2.0893676    -1.341699  0.052988351   -2.0893676   0.74766855   424551 
  916000   0.62257872   -2.0883214   -2.0883214   -1.3415498  0.046691453   -2.0883214   0.74677156   424551 
  917000   0.62247159   -2.0883821   -2.0883821   -1.3417391  0.043216245   -2.0883821   0.74664305   424551 
  918000   0.62254761   -2.0887838   -2.0887838   -1.3420496  0.047098905   -2.0887838   0.74673424   424551 
  919000   0.62317115   -2.0894553   -2.0894553   -1.3419731  0.056293015   -2.0894553   0.74748217   424551 
  920000   0.62250088   -2.0892431   -2.0892431   -1.3425649  0.039978149   -2.0892431   0.74667818   424551 
  921000   0.62187116   -2.0902353   -2.0902353   -1.3443124  0.047336374   -2.0902353   0.74592285   424551 
  922000   0.62251668   -2.0908436   -2.0908436   -1.3441464   0.04353805   -2.0908436   0.74669714   424551 
  923000    0.6235088   -2.0923656   -2.0923656   -1.3444784  0.039950371   -2.0923656   0.74788716   424551 
  924000   0.62147018   -2.0902477   -2.0902477   -1.3448058  0.041557702   -2.0902477   0.74544188   424551 
  925000   0.62297692   -2.0917127   -2.0917127   -1.3444635  0.034605835   -2.0917127   0.74724919   424551 
  926000   0.62202946   -2.0918946   -2.0918946   -1.3457819  0.047484253   -2.0918946   0.74611273   424551 
  927000   0.62207669   -2.0922624   -2.0922624    -1.346093   0.03589803   -2.0922624   0.74616938   424551 
  928000   0.62103802   -2.0908673   -2.0908673   -1.3459437  0.048495411   -2.0908673   0.74492351   424551 
  929000   0.62151868   -2.0915499   -2.0915499   -1.3460498  0.042588293   -2.0915499   0.74550005   424551 
  930000   0.62165784   -2.0925293   -2.0925293   -1.3468624  0.050661789   -2.0925293   0.74566697   424551 
  931000   0.62283151    -2.093994    -2.093994   -1.3469192  0.040969678    -2.093994   0.74707477   424551 
  932000   0.62116292   -2.0924011   -2.0924011   -1.3473278  0.053383616   -2.0924011   0.74507333   424551 
  933000   0.62133882   -2.0933068   -2.0933068   -1.3480225  0.040855486   -2.0933068   0.74528431   424551 
  934000   0.62185759   -2.0933709   -2.0933709   -1.3474643  0.050396741   -2.0933709   0.74590657   424551 
  935000   0.62168059   -2.0928892   -2.0928892   -1.3471949  0.048173719   -2.0928892   0.74569427   424551 
  936000   0.62217267   -2.0929736   -2.0929736   -1.3466891  0.045438482   -2.0929736   0.74628451   424551 
  937000   0.62194473   -2.0923945   -2.0923945   -1.3463834  0.043456251   -2.0923945   0.74601109   424551 
  938000   0.62295551   -2.0934409   -2.0934409   -1.3462174  0.043955271   -2.0934409   0.74722351   424551 
  939000    0.6219707   -2.0923591   -2.0923591   -1.3463169  0.041574333   -2.0923591   0.74604224   424551 
  940000   0.62172358   -2.0927849   -2.0927849   -1.3470391  0.037404848   -2.0927849   0.74574583   424551 
  941000   0.62166634   -2.0927984   -2.0927984   -1.3471212  0.045822645   -2.0927984   0.74567717   424551 
  942000   0.62278354   -2.0937517   -2.0937517   -1.3467345  0.040467669   -2.0937517   0.74701724   424551 
  943000   0.62191636   -2.0919176   -2.0919176   -1.3459405  0.045736001   -2.0919176   0.74597706   424551 
  944000    0.6220989   -2.0929336   -2.0929336   -1.3467376  0.047289303   -2.0929336   0.74619602   424551 
  945000   0.62139342   -2.0917705   -2.0917705   -1.3464207  0.041971878   -2.0917705    0.7453498   424551 
  946000   0.62192924    -2.092873    -2.092873   -1.3468805  0.043798361    -2.092873   0.74599251   424551 
  947000   0.62314751   -2.0937475   -2.0937475   -1.3462937  0.043867073   -2.0937475    0.7474538   424551 
  948000   0.62243771    -2.093264    -2.093264   -1.3466616  0.052078241    -2.093264   0.74660242   424551 
  949000   0.62344754   -2.0941079   -2.0941079   -1.3462942  0.047077568   -2.0941079   0.74781369   424551 
  950000   0.62150971   -2.0914074   -2.0914074   -1.3459181  0.047381106   -2.0914074   0.74548929   424551 
  951000   0.62265974   -2.0931225   -2.0931225   -1.3462538  0.044578626   -2.0931225   0.74686873   424551 
  952000   0.62226607   -2.0930698   -2.0930698   -1.3466732  0.047420236   -2.0930698   0.74639653   424551 
  953000   0.62244936   -2.0936289   -2.0936289   -1.3470125  0.039202341   -2.0936289   0.74661639   424551 
  954000   0.62147699    -2.092929    -2.092929   -1.3474789   0.04026697    -2.092929   0.74545004   424551 
  955000   0.62104391    -2.092219    -2.092219   -1.3472884  0.050976293    -2.092219   0.74493058   424551 
  956000   0.62225439   -2.0933143   -2.0933143   -1.3469318  0.041434236   -2.0933143   0.74638252   424551 
  957000   0.62201113   -2.0927733   -2.0927733   -1.3466825   0.04866301   -2.0927733   0.74609074   424551 
  958000    0.6219409   -2.0932625   -2.0932625    -1.347256  0.049533469   -2.0932625    0.7460065   424551 
  959000   0.62146591   -2.0926387   -2.0926387   -1.3472019  0.044556837   -2.0926387   0.74543676   424551 
  960000   0.62149502   -2.0927928   -2.0927928   -1.3473211  0.045098888   -2.0927928   0.74547168   424551 
  961000   0.62267659   -2.0951452   -2.0951452   -1.3482563   0.04026482   -2.0951452   0.74688895   424551 
  962000   0.62253472   -2.0950867   -2.0950867    -1.348368  0.043530214   -2.0950867   0.74671877   424551 
  963000   0.62215118   -2.0941854   -2.0941854   -1.3479266  0.047597586   -2.0941854   0.74625873   424551 
  964000   0.62057249   -2.0930801   -2.0930801    -1.348715  0.046985904   -2.0930801   0.74436511   424551 
  965000   0.62188136   -2.0950261   -2.0950261    -1.349091  0.042660213   -2.0950261   0.74593509   424551 
  966000   0.62168602   -2.0947451   -2.0947451   -1.3490443  0.043396298   -2.0947451   0.74570077   424551 
  967000     0.622209   -2.0957567   -2.0957567   -1.3494286  0.044828403   -2.0957567   0.74632808   424551 
  968000   0.62256675   -2.0956903   -2.0956903   -1.3489331  0.047747294   -2.0956903   0.74675719   424551 
  969000    0.6208465   -2.0942155   -2.0942155   -1.3495217  0.044367667   -2.0942155   0.74469379   424551 
  970000   0.62165914   -2.0948513   -2.0948513   -1.3491828  0.045079383   -2.0948513   0.74566854   424551 
  971000   0.62053731   -2.0943265   -2.0943265   -1.3500036  0.052449407   -2.0943265   0.74432292   424551 
  972000    0.6203793   -2.0937732   -2.0937732   -1.3496398  0.050527446   -2.0937732   0.74413339   424551 
  973000    0.6207896    -2.093868    -2.093868   -1.3492424  0.046646565    -2.093868   0.74462554   424551 
  974000   0.62110153   -2.0948941   -2.0948941   -1.3498944  0.044242696   -2.0948941   0.74499969   424551 
  975000   0.62091305   -2.0944245   -2.0944245   -1.3496509  0.045663704   -2.0944245   0.74477361   424551 
  976000   0.62087368   -2.0943895   -2.0943895   -1.3496631   0.03833503   -2.0943895   0.74472639   424551 
  977000   0.62088957   -2.0941509   -2.0941509   -1.3494055  0.037368075   -2.0941509   0.74474544   424551 
  978000   0.62045635   -2.0933513   -2.0933513   -1.3491255  0.042733101   -2.0933513   0.74422582   424551 
  979000   0.62255355   -2.0963559   -2.0963559   -1.3496145  0.039581376   -2.0963559   0.74674136   424551 
  980000   0.62034405   -2.0941905   -2.0941905   -1.3500994  0.051179012   -2.0941905   0.74409111   424551 
  981000    0.6214228   -2.0957321   -2.0957321    -1.350347   0.04869452   -2.0957321   0.74538505   424551 
  982000   0.62170282   -2.0959997   -2.0959997   -1.3502788  0.037746564   -2.0959997   0.74572093   424551 
  983000    0.6217066    -2.095793    -2.095793   -1.3500675  0.052285384    -2.095793   0.74572546   424551 
  984000   0.62081353   -2.0953459   -2.0953459   -1.3506917   0.05550307   -2.0953459   0.74465424   424551 
  985000   0.62217019   -2.0970194   -2.0970194   -1.3507379  0.049102668   -2.0970194   0.74628152   424551 
  986000   0.62169863   -2.0968533   -2.0968533   -1.3511374  0.046431266   -2.0968533   0.74571591   424551 
  987000   0.62132485   -2.0964767   -2.0964767   -1.3512091  0.042097122   -2.0964767   0.74526756   424551 
  988000   0.62045826   -2.0953665   -2.0953665   -1.3511384  0.046912244   -2.0953665    0.7442281   424551 
  989000   0.62107463   -2.0962072   -2.0962072   -1.3512398  0.051409548   -2.0962072   0.74496742   424551 
  990000   0.62119092    -2.096121    -2.096121   -1.3510141  0.042011819    -2.096121   0.74510691   424551 
  991000   0.62059888   -2.0954436   -2.0954436   -1.3510469  0.050906551   -2.0954436   0.74439677   424551 
  992000   0.62142262    -2.096941    -2.096941   -1.3515562   0.04102717    -2.096941   0.74538483   424551 
  993000   0.62019601   -2.0957109   -2.0957109   -1.3517974  0.042191865   -2.0957109   0.74391354   424551 
  994000   0.62100491   -2.0968633   -2.0968633   -1.3519795   0.04835158   -2.0968633    0.7448838   424551 
  995000   0.62117211   -2.0974321   -2.0974321   -1.3523477  0.043315593   -2.0974321   0.74508435   424551 
  996000   0.62021191   -2.0976705   -2.0976705   -1.3537379  0.043993704   -2.0976705   0.74393261   424551 
  997000   0.61997718   -2.0973411   -2.0973411   -1.3536901  0.043689424   -2.0973411   0.74365106   424551 
  998000   0.62002303   -2.0977691   -2.0977691    -1.354063  0.045117675   -2.0977691   0.74370605   424551 
  999000   0.61969147   -2.0974815   -2.0974815   -1.3541731  0.051463925   -2.0974815   0.74330836   424551 
 1000000   0.62013871   -2.0972718   -2.0972718    -1.353427  0.047537293   -2.0972718    0.7438448   424551 
 1001000   0.62176864   -2.0988235   -2.0988235   -1.3530236  0.048921556   -2.0988235   0.74579988   424551 
 1002000   0.62054386   -2.0984341   -2.0984341   -1.3541034  0.050094856   -2.0984341   0.74433078   424551 
 1003000   0.62015178   -2.0970172   -2.0970172   -1.3531567  0.046355303   -2.0970172   0.74386049   424551 
 1004000   0.62193443   -2.0990824   -2.0990824   -1.3530837  0.048731553   -2.0990824   0.74599874   424551 
 1005000   0.62205219   -2.0993211   -2.0993211   -1.3531812  0.041009337   -2.0993211   0.74613999   424551 
 1006000   0.62130406   -2.0983055   -2.0983055   -1.3530628  0.042193519   -2.0983055   0.74524262   424551 
 1007000    0.6217148   -2.0990557   -2.0990557   -1.3533204  0.047949913   -2.0990557    0.7457353   424551 
 1008000   0.62220125   -2.1001437   -2.1001437   -1.3538249  0.048166631   -2.1001437   0.74631879   424551 
 1009000   0.62165711   -2.0990439   -2.0990439   -1.3533778  0.050949478   -2.0990439    0.7456661   424551 
 1010000   0.62109046   -2.0977324   -2.0977324    -1.352746  0.050306119   -2.0977324   0.74498641   424551 
 1011000   0.62099141    -2.098344    -2.098344   -1.3534764  0.050173697    -2.098344    0.7448676   424551 
 1012000   0.62171165   -2.0994691   -2.0994691   -1.3537375  0.046999443   -2.0994691   0.74573152   424551 
 1013000   0.62172263   -2.1003142   -2.1003142   -1.3545695  0.047920397   -2.1003142   0.74574468   424551 
 1014000   0.62087874    -2.099002    -2.099002   -1.3542695  0.048810743    -2.099002   0.74473246   424551 
 1015000   0.62135238   -2.0994303   -2.0994303   -1.3541298  0.044644561   -2.0994303   0.74530058   424551 
 1016000   0.62076665   -2.0992122   -2.0992122   -1.3546142  0.042139903   -2.0992122   0.74459801   424551 
 1017000   0.61973979   -2.0979189   -2.0979189   -1.3545526  0.045373904   -2.0979189   0.74336631   424551 
 1018000   0.62047218   -2.0989076   -2.0989076   -1.3546628  0.041447009   -2.0989076    0.7442448   424551 
 1019000   0.62001899   -2.0986654   -2.0986654   -1.3549642  0.041233459   -2.0986654    0.7437012   424551 
 1020000   0.61973907   -2.0981628   -2.0981628   -1.3547974  0.045231463   -2.0981628   0.74336545   424551 
 1021000    0.6201266   -2.0981993   -2.0981993   -1.3543691   0.04764594   -2.0981993   0.74383028   424551 
 1022000   0.62105345   -2.0984515   -2.0984515   -1.3535095  0.044455149   -2.0984515   0.74494202   424551 
 1023000   0.62063504   -2.0983777   -2.0983777   -1.3539376  0.048288296   -2.0983777   0.74444015   424551 
 1024000     0.620181   -2.0986748   -2.0986748   -1.3547792  0.036036207   -2.0986748   0.74389553   424551 
 1025000   0.61931129   -2.0984218   -2.0984218   -1.3555695  0.045259426   -2.0984218   0.74285234   424551 
 1026000   0.61954355   -2.0992676   -2.0992676   -1.3561367  0.049697881   -2.0992676   0.74313093   424551 
 1027000   0.61988116   -2.1006083   -2.1006083   -1.3570724  0.041154009   -2.1006083   0.74353588   424551 
 1028000    0.6206567   -2.1009293   -2.1009293   -1.3564631  0.048775684   -2.1009293   0.74446613   424551 
 1029000    0.6214227   -2.1017221   -2.1017221   -1.3563372  0.039837667   -2.1017221   0.74538492   424551 
 1030000   0.61970708   -2.1001918   -2.1001918   -1.3568648   0.04445338   -2.1001918   0.74332708   424551 
 1031000   0.62026699   -2.1009505   -2.1009505   -1.3569518   0.04536018   -2.1009505   0.74399867   424551 
 1032000   0.62043091       -2.101       -2.101   -1.3568047  0.048640728       -2.101    0.7441953   424551 
 1033000   0.61998488    -2.100255    -2.100255   -1.3565947  0.049000909    -2.100255   0.74366029   424551 
 1034000   0.62019926    -2.100228    -2.100228   -1.3563106  0.047515659    -2.100228   0.74391744   424551 
 1035000   0.62029532   -2.1003951   -2.1003951   -1.3563625  0.045536225   -2.1003951   0.74403266   424551 
 1036000   0.61957015    -2.100092    -2.100092   -1.3569292  0.044387237    -2.100092   0.74316283   424551 
 1037000    0.6214378   -2.1028848   -2.1028848   -1.3574817  0.044989681   -2.1028848   0.74540304   424551 
 1038000   0.62099604   -2.1020745   -2.1020745   -1.3572013   0.04161986   -2.1020745   0.74487316   424551 
 1039000   0.62083972   -2.1017636   -2.1017636   -1.3570779  0.035747906   -2.1017636   0.74468566   424551 
 1040000   0.62035092   -2.1018995   -2.1018995   -1.3578002  0.052381896   -2.1018995   0.74409935   424551 
 1041000   0.62130502   -2.1018205   -2.1018205   -1.3565768  0.046273866   -2.1018205   0.74524377   424551 
 1042000    0.6205695   -2.1006859   -2.1006859   -1.3563243  0.040815168   -2.1006859   0.74436153   424551 
 1043000   0.62065893   -2.1010817   -2.1010817   -1.3566129    0.0465194   -2.1010817    0.7444688   424551 
 1044000   0.62061725   -2.1012493   -2.1012493   -1.3568304   0.03756661   -2.1012493   0.74441881   424551 
 1045000   0.62092862   -2.1018763   -2.1018763    -1.357084  0.045733728   -2.1018763   0.74479229   424551 
 1046000   0.61919478   -2.0994681   -2.0994681   -1.3567555  0.043042134   -2.0994681   0.74271258   424551 
 1047000   0.62015921   -2.1003587   -2.1003587   -1.3564893  0.044173551   -2.1003587    0.7438694   424551 
 1048000   0.62123966      -2.1011      -2.1011   -1.3559346  0.046360469      -2.1011   0.74516538   424551 
 1049000   0.62055816   -2.1003243   -2.1003243   -1.3559764  0.044046712   -2.1003243   0.74434793   424551 
 1050000   0.62045226   -2.0999943   -2.0999943   -1.3557734  0.047288339   -2.0999943    0.7442209   424551 
 1051000   0.62076302   -2.1006577   -2.1006577   -1.3560641  0.049402772   -2.1006577   0.74459365   424551 
 1052000   0.62040779   -2.1008162   -2.1008162   -1.3566487  0.042428118   -2.1008162   0.74416756   424551 
 1053000   0.61942269   -2.1005851   -2.1005851   -1.3575992  0.047215076   -2.1005851   0.74298595   424551 
 1054000   0.62002873   -2.1009066   -2.1009066   -1.3571937   0.04210941   -2.1009066   0.74371289   424551 
 1055000   0.61981439   -2.1000418   -2.1000418    -1.356586  0.047752818   -2.1000418    0.7434558   424551 
 1056000    0.6202891   -2.1005587   -2.1005587   -1.3565335  0.043362625   -2.1005587    0.7440252   424551 
 1057000   0.61994781   -2.1002842   -2.1002842   -1.3566684  0.042367723   -2.1002842   0.74361583   424551 
 1058000   0.61930427   -2.1005047   -2.1005047   -1.3576608  0.042641369   -2.1005047   0.74284392   424551 
 1059000   0.62009072   -2.1009645   -2.1009645   -1.3571772  0.040765519   -2.1009645   0.74378725   424551 
 1060000   0.62105573   -2.1019464   -2.1019464   -1.3570016  0.051724862   -2.1019464   0.74494476   424551 
 1061000   0.62118788   -2.1025439   -2.1025439   -1.3574406  0.034521419   -2.1025439   0.74510327   424551 
 1062000   0.61938328   -2.1013713   -2.1013713   -1.3584327  0.046302053   -2.1013713   0.74293868   424551 
 1063000   0.61921418   -2.1020341   -2.1020341   -1.3592982  0.047146324   -2.1020341   0.74273585   424551 
 1064000   0.62184828   -2.1056958   -2.1056958   -1.3598004   0.04246519   -2.1056958    0.7458954   424551 
 1065000   0.61969691   -2.1031628   -2.1031628   -1.3598479  0.048432174   -2.1031628   0.74331487   424551 
 1066000   0.62011934    -2.103811    -2.103811   -1.3599894  0.046413143    -2.103811   0.74382158   424551 
 1067000   0.62013321   -2.1042146   -2.1042146   -1.3603764  0.052349702   -2.1042146   0.74383822   424551 
 1068000   0.62009113   -2.1048286   -2.1048286   -1.3610409  0.049708129   -2.1048286   0.74378773   424551 
 1069000   0.62033449   -2.1051463   -2.1051463   -1.3610667  0.045222653   -2.1051463   0.74407965   424551 
 1070000   0.62073377   -2.1059492   -2.1059492   -1.3613906   0.03987254   -2.1059492   0.74455857   424551 
 1071000   0.62061539   -2.1060305   -2.1060305   -1.3616139  0.050643853   -2.1060305   0.74441658   424551 
 1072000   0.62052981   -2.1059881   -2.1059881   -1.3616742  0.039672804   -2.1059881   0.74431392   424551 
 1073000   0.61921142   -2.1048253   -2.1048253   -1.3620928  0.042878917   -2.1048253   0.74273255   424551 
 1074000   0.61974555   -2.1059407   -2.1059407   -1.3625675  0.041752843   -2.1059407   0.74337322   424551 
 1075000   0.62088401   -2.1076367   -2.1076367   -1.3628979  0.043927428   -2.1076367   0.74473878   424551 
 1076000   0.61973704   -2.1058904   -2.1058904   -1.3625274  0.045394055   -2.1058904   0.74336301   424551 
 1077000   0.61909711   -2.1049538   -2.1049538   -1.3623583  0.050690769   -2.1049538   0.74259543   424551 
 1078000   0.61892134    -2.105259    -2.105259   -1.3628744  0.047941027    -2.105259    0.7423846   424551 
 1079000    0.6191571   -2.1056347   -2.1056347   -1.3629674   0.03893841   -2.1056347   0.74266739   424551 
 1080000    0.6189048   -2.1048693   -2.1048693   -1.3625045  0.043233396   -2.1048693   0.74236476   424551 
 1081000   0.61902991   -2.1045632   -2.1045632   -1.3620484  0.049682551   -2.1045632   0.74251482   424551 
 1082000   0.61852686   -2.1039258   -2.1039258   -1.3620144  0.041610303   -2.1039258   0.74191142   424551 
 1083000     0.619041   -2.1043505   -2.1043505   -1.3618224  0.044714523   -2.1043505   0.74252813   424551 
 1084000   0.61908223   -2.1044385   -2.1044385    -1.361861  0.047583132   -2.1044385   0.74257758   424551 
 1085000   0.62096041   -2.1064669   -2.1064669   -1.3616365  0.045225859   -2.1064669   0.74483042   424551 
 1086000   0.61917886   -2.1044364   -2.1044364   -1.3617429  0.046297481   -2.1044364   0.74269349   424551 
 1087000   0.61934924   -2.1053328   -2.1053328   -1.3624349  0.046663434   -2.1053328   0.74289786   424551 
 1088000   0.61862975   -2.1049227   -2.1049227   -1.3628879  0.044055665   -2.1049227   0.74203483   424551 
 1089000   0.61898324   -2.1050662   -2.1050662   -1.3626074  0.041821413   -2.1050662   0.74245885   424551 
 1090000   0.62023401   -2.1064354   -2.1064354   -1.3624762  0.041613676   -2.1064354   0.74395911   424551 
 1091000   0.61900249   -2.1056644   -2.1056644   -1.3631825  0.048709833   -2.1056644   0.74248193   424551 
 1092000   0.61955019   -2.1058431   -2.1058431   -1.3627042  0.049136133   -2.1058431   0.74313889   424551 
 1093000   0.61872599   -2.1061811   -2.1061811   -1.3640309   0.04908842   -2.1061811   0.74215028   424551 
 1094000   0.61909436   -2.1069939   -2.1069939   -1.3644018  0.041545914   -2.1069939   0.74259213   424551 
 1095000   0.62109305   -2.1093025   -2.1093025   -1.3643129  0.042365624   -2.1093025   0.74498953   424551 
 1096000   0.61877406   -2.1064073   -2.1064073   -1.3641993  0.044398565   -2.1064073   0.74220794   424551 
 1097000   0.61930921   -2.1069246   -2.1069246   -1.3640747  0.044045595   -2.1069246   0.74284984   424551 
 1098000   0.62051649   -2.1080156   -2.1080156   -1.3637177  0.047313202   -2.1080156   0.74429795   424551 
 1099000    0.6211712   -2.1087702   -2.1087702   -1.3636869  0.042862089   -2.1087702   0.74508326   424551 
 1100000   0.62048958   -2.1076616   -2.1076616   -1.3633959  0.045571641   -2.1076616   0.74426567   424551 
 1101000   0.62162768   -2.1098827   -2.1098827   -1.3642519  0.042325187   -2.1098827    0.7456308   424551 
 1102000   0.62024806   -2.1079599   -2.1079599   -1.3639839  0.048619658   -2.1079599   0.74397597   424551 
 1103000   0.62011968   -2.1083211   -2.1083211   -1.3644991  0.040604231   -2.1083211   0.74382199   424551 
 1104000   0.62117531    -2.109585    -2.109585   -1.3644968  0.040467641    -2.109585   0.74508819   424551 
 1105000   0.62098348   -2.1092318   -2.1092318   -1.3643737  0.049694971   -2.1092318    0.7448581   424551 
 1106000   0.62149876   -2.1095532   -2.1095532    -1.364077  0.047706532   -2.1095532   0.74547616   424551 
 1107000   0.62056883   -2.1084008   -2.1084008   -1.3640401  0.045735483   -2.1084008   0.74436073   424551 
 1108000   0.62075147    -2.108372    -2.108372   -1.3637922  0.050820348    -2.108372   0.74457981   424551 
 1109000   0.61921573   -2.1069628   -2.1069628   -1.3642251  0.036451908   -2.1069628   0.74273771   424551 
 1110000   0.62078024   -2.1086968   -2.1086968   -1.3640825  0.046631143   -2.1086968   0.74461432   424551 
 1111000   0.61936173   -2.1075419   -2.1075419   -1.3646291  0.047877183   -2.1075419   0.74291284   424551 
 1112000   0.61940062   -2.1075866   -2.1075866   -1.3646271  0.040681758   -2.1075866   0.74295948   424551 
 1113000   0.62009332   -2.1089064   -2.1089064    -1.365116  0.046612367   -2.1089064   0.74379036   424551 
 1114000   0.61865722   -2.1070159   -2.1070159   -1.3649481  0.036903921   -2.1070159   0.74206779   424551 
 1115000   0.61907615   -2.1076493   -2.1076493    -1.365079  0.047674444   -2.1076493   0.74257029   424551 
 1116000   0.61998955   -2.1085351   -2.1085351   -1.3648692  0.039948435   -2.1085351   0.74366589   424551 
 1117000   0.61911779   -2.1079265   -2.1079265   -1.3653063  0.037610988   -2.1079265   0.74262023   424551 
 1118000   0.61855972    -2.106993    -2.106993   -1.3650422  0.038693804    -2.106993   0.74195084   424551 
 1119000   0.61832015   -2.1067377   -2.1067377   -1.3650742  0.047602628   -2.1067377   0.74166347   424551 
 1120000   0.61930225   -2.1081212   -2.1081212   -1.3652797   0.04393353   -2.1081212   0.74284149   424551 
 1121000   0.61892108    -2.107619    -2.107619   -1.3652347   0.04100856    -2.107619   0.74238428   424551 
 1122000   0.61897096   -2.1080724   -2.1080724   -1.3656283   0.03820354   -2.1080724   0.74244412   424551 
 1123000   0.61861779   -2.1066954   -2.1066954   -1.3646749  0.049356875   -2.1066954    0.7420205   424551 
 1124000   0.61844987   -2.1071518   -2.1071518   -1.3653328  0.043159283   -2.1071518   0.74181907   424551 
 1125000   0.61949376   -2.1075275   -2.1075275   -1.3644563  0.045945143   -2.1075275    0.7430712   424551 
 1126000   0.61887247   -2.1077431   -2.1077431   -1.3654171   0.04831705   -2.1077431   0.74232598   424551 
 1127000   0.61941078   -2.1081181   -2.1081181   -1.3651465  0.044629485   -2.1081181   0.74297167   424551 
 1128000   0.61887216   -2.1076476   -2.1076476   -1.3653219  0.050757496   -2.1076476   0.74232561   424551 
 1129000   0.61953328   -2.1092154   -2.1092154   -1.3660968  0.047102651   -2.1092154   0.74311861   424551 
 1130000   0.61944148   -2.1098448   -2.1098448   -1.3668363  0.047500604   -2.1098448   0.74300849   424551 
 1131000   0.61912644   -2.1087698   -2.1087698   -1.3661392  0.040459596   -2.1087698   0.74263061   424551 
 1132000   0.61885329   -2.1090837   -2.1090837   -1.3667808  0.049541796   -2.1090837   0.74230297   424551 
 1133000   0.61859598   -2.1091612   -2.1091612   -1.3671669  0.044314044   -2.1091612   0.74199434   424551 
 1134000   0.61876186   -2.1097832   -2.1097832   -1.3675899  0.056152548   -2.1097832    0.7421933   424551 
 1135000   0.61977814   -2.1108241   -2.1108241   -1.3674118  0.048475556   -2.1108241   0.74341231   424551 
 1136000   0.61957523   -2.1108646   -2.1108646   -1.3676957  0.043645445   -2.1108646   0.74316892   424551 
 1137000   0.61921911   -2.1108683   -2.1108683   -1.3681266   0.04006698   -2.1108683   0.74274176   424551 
 1138000   0.61961335   -2.1124697   -2.1124697   -1.3692551  0.039779788   -2.1124697   0.74321465   424551 
 1139000   0.61839962   -2.1109495   -2.1109495   -1.3691907  0.049311032   -2.1109495    0.7417588   424551 
 1140000   0.61971182    -2.113192    -2.113192   -1.3698593  0.042862328    -2.113192   0.74333276   424551 
 1141000   0.61857146   -2.1120114   -2.1120114   -1.3700465  0.054362972   -2.1120114   0.74196493   424551 
 1142000   0.61749625   -2.1109636   -2.1109636   -1.3702884  0.045022217   -2.1109636   0.74067522   424551 
 1143000    0.6189728   -2.1123229   -2.1123229   -1.3698766   0.04460878   -2.1123229   0.74244631   424551 
 1144000   0.61937022   -2.1123872   -2.1123872   -1.3694642  0.044284596   -2.1123872   0.74292302   424551 
 1145000   0.61941984   -2.1125142   -2.1125142   -1.3695317  0.033159187   -2.1125142   0.74298254   424551 
 1146000   0.61849508   -2.1115178   -2.1115178   -1.3696445  0.040474177   -2.1115178    0.7418733   424551 
 1147000   0.61921497   -2.1120701   -2.1120701   -1.3693333  0.054378522   -2.1120701    0.7427368   424551 
 1148000   0.61866389   -2.1115206   -2.1115206   -1.3694448  0.045037034   -2.1115206   0.74207579   424551 
 1149000   0.61878152   -2.1111814   -2.1111814   -1.3689646  0.041835899   -2.1111814   0.74221689   424551 
 1150000   0.61812052   -2.1095422   -2.1095422   -1.3681182  0.046597992   -2.1095422   0.74142402   424551 
 1151000   0.61924645   -2.1112893   -2.1112893   -1.3685148  0.042762605   -2.1112893   0.74277456   424551 
 1152000    0.6180796   -2.1102153   -2.1102153   -1.3688404   0.04842364   -2.1102153   0.74137494   424551 
 1153000   0.61939254   -2.1118668   -2.1118668    -1.368917  0.046691533   -2.1118668    0.7429498   424551 
 1154000   0.61771831   -2.1099613   -2.1099613   -1.3690197  0.047457541   -2.1099613   0.74094158   424551 
 1155000   0.61852863    -2.111024    -2.111024   -1.3691104  0.045178487    -2.111024   0.74191355   424551 
 1156000   0.61840368   -2.1117293   -2.1117293   -1.3699656  0.047553029   -2.1117293   0.74176367   424551 
 1157000    0.6180812   -2.1118901   -2.1118901   -1.3705132  0.041238391   -2.1118901   0.74137687   424551 
 1158000   0.61776685   -2.1119818   -2.1119818    -1.370982  0.036986962   -2.1119818    0.7409998   424551 
 1159000   0.61735936   -2.1112345   -2.1112345   -1.3707235   0.03660604   -2.1112345   0.74051102   424551 
 1160000   0.61868837   -2.1131266   -2.1131266   -1.3710214   0.03996693   -2.1131266   0.74210515   424551 
 1161000   0.61822598   -2.1126856   -2.1126856   -1.3711351   0.04251912   -2.1126856   0.74155052   424551 
 1162000   0.61781939   -2.1121557   -2.1121557   -1.3710929  0.049339843   -2.1121557   0.74106283   424551 
 1163000   0.61880106   -2.1131359   -2.1131359   -1.3708956  0.053272187   -2.1131359   0.74224032   424551 
 1164000   0.61748191   -2.1117568   -2.1117568   -1.3710988  0.046599405   -2.1117568   0.74065803   424551 
 1165000   0.61726043   -2.1118387   -2.1118387   -1.3714463   0.05278819   -2.1118387   0.74039237   424551 
 1166000   0.61830283   -2.1139809   -2.1139809   -1.3723382  0.045462682   -2.1139809    0.7416427   424551 
 1167000   0.61926389    -2.115035    -2.115035   -1.3722395  0.042026866    -2.115035   0.74279547   424551 
 1168000   0.62007169   -2.1155916   -2.1155916   -1.3718272   0.05152972   -2.1155916   0.74376442   424551 
 1169000   0.62035855   -2.1160725   -2.1160725    -1.371964  0.042562131   -2.1160725    0.7441085   424551 
 1170000   0.61915828    -2.115261    -2.115261   -1.3725922  0.042792635    -2.115261    0.7426688   424551 
 1171000   0.61929067   -2.1151289   -2.1151289   -1.3723013  0.045356664   -2.1151289    0.7428276   424551 
 1172000   0.61854947   -2.1152799   -2.1152799   -1.3733413  0.041117382   -2.1152799   0.74193855   424551 
 1173000    0.6190724   -2.1154105   -2.1154105   -1.3728448   0.04073024   -2.1154105   0.74256579   424551 
 1174000   0.61673012   -2.1131797   -2.1131797   -1.3734234  0.046250599   -2.1131797   0.73975627   424551 
 1175000   0.61807311   -2.1149725   -2.1149725   -1.3736054   0.04332574   -2.1149725   0.74136716   424551 
 1176000   0.61759543   -2.1147609   -2.1147609   -1.3739667  0.047273164   -2.1147609   0.74079419   424551 
 1177000   0.61775849   -2.1149627   -2.1149627   -1.3739729  0.043991284   -2.1149627   0.74098978   424551 
 1178000   0.61845036   -2.1154099   -2.1154099   -1.3735902  0.037782426   -2.1154099   0.74181967   424551 
 1179000   0.61897586   -2.1162665   -2.1162665   -1.3738166  0.042403183   -2.1162665   0.74244999   424551 
 1180000   0.61838139   -2.1154939   -2.1154939    -1.373757   0.04720268   -2.1154939   0.74173694   424551 
 1181000    0.6175354   -2.1149969   -2.1149969   -1.3742747  0.039806047   -2.1149969   0.74072219   424551 
 1182000   0.61791121   -2.1149361   -2.1149361   -1.3737632   0.03829088   -2.1149361   0.74117297   424551 
 1183000    0.6181991   -2.1149658   -2.1149658   -1.3734475  0.046092705   -2.1149658   0.74151828   424551 
 1184000   0.61941211   -2.1167174   -2.1167174   -1.3737442   0.04503568   -2.1167174   0.74297326   424551 
 1185000   0.61887743   -2.1159026   -2.1159026   -1.3735707  0.043017469   -2.1159026   0.74233193   424551 
 1186000    0.6179326    -2.115557    -2.115557   -1.3743584  0.050331282    -2.115557   0.74119862   424551 
 1187000   0.61792673   -2.1151243   -2.1151243   -1.3739328  0.046389802   -2.1151243   0.74119158   424551 
 1188000   0.61974219   -2.1170011   -2.1170011   -1.3736319  0.036440864   -2.1170011   0.74336919   424551 
 1189000   0.61738544   -2.1147999   -2.1147999   -1.3742576   0.04903931   -2.1147999   0.74054231   424551 
 1190000   0.61739504   -2.1148165   -2.1148165   -1.3742627  0.044333943   -2.1148165   0.74055383   424551 
 1191000   0.61839662   -2.1151284   -2.1151284   -1.3733732  0.038565949   -2.1151284    0.7417552   424551 
 1192000   0.61753091   -2.1148557   -2.1148557   -1.3741389  0.047679047   -2.1148557    0.7407168   424551 
 1193000   0.61687454   -2.1146603   -2.1146603   -1.3747309  0.043106622   -2.1146603   0.73992949   424551 
 1194000   0.61682117   -2.1141608   -2.1141608   -1.3742953  0.047946069   -2.1141608   0.73986548   424551 
 1195000   0.61835895   -2.1154159   -2.1154159   -1.3737059  0.049583072   -2.1154159   0.74171002   424551 
 1196000   0.61755037   -2.1145468   -2.1145468   -1.3738067  0.048208419   -2.1145468   0.74074014   424551 
 1197000   0.61814256   -2.1156544   -2.1156544   -1.3742039  0.041452408   -2.1156544   0.74145047   424551 
 1198000   0.61705342   -2.1145598   -2.1145598   -1.3744158  0.046623146   -2.1145598   0.74014406   424551 
 1199000    0.6165145   -2.1140798   -2.1140798   -1.3745822  0.038265179   -2.1140798   0.73949763   424551 
 1200000   0.61807805   -2.1160327   -2.1160327   -1.3746597  0.040384562   -2.1160327   0.74137309   424551 
 1201000    0.6184007   -2.1156862   -2.1156862   -1.3739261  0.041322102   -2.1156862    0.7417601   424551 
 1202000   0.61815622   -2.1160928   -2.1160928    -1.374626  0.043914801   -2.1160928   0.74146685   424551 
 1203000   0.61723814   -2.1151725   -2.1151725   -1.3748068  0.037253129   -2.1151725   0.74036562   424551 
 1204000    0.6166153   -2.1148515   -2.1148515   -1.3752329  0.043415464   -2.1148515   0.73961854   424551 
 1205000   0.61755638   -2.1150947   -2.1150947   -1.3743474  0.042011156   -2.1150947   0.74074735   424551 
 1206000   0.61754588   -2.1155382   -2.1155382   -1.3748034  0.036936406   -2.1155382   0.74073476   424551 
 1207000   0.61773387   -2.1160399   -2.1160399   -1.3750796  0.051134342   -2.1160399   0.74096025   424551 
 1208000   0.61860984   -2.1165441   -2.1165441   -1.3745332  0.040829142   -2.1165441   0.74201096   424551 
 1209000   0.61956385   -2.1175537   -2.1175537   -1.3743985  0.047928033   -2.1175537   0.74315527   424551 
 1210000   0.61825095   -2.1163538   -2.1163538   -1.3747733   0.04551522   -2.1163538   0.74158048   424551 
 1211000   0.61849483   -2.1165405   -2.1165405   -1.3746675  0.049154843   -2.1165405   0.74187301   424551 
 1212000    0.6185396   -2.1165726   -2.1165726   -1.3746459  0.045312976   -2.1165726    0.7419267   424551 
 1213000   0.61831489    -2.117013    -2.117013   -1.3753559  0.038827589    -2.117013   0.74165717   424551 
 1214000   0.61704166   -2.1154634   -2.1154634   -1.3753335  0.044787156   -2.1154634   0.74012996   424551 
 1215000   0.61703224   -2.1162781   -2.1162781   -1.3761594  0.044267524   -2.1162781   0.74011866   424551 
 1216000   0.61765352    -2.117648    -2.117648   -1.3767842  0.047321588    -2.117648   0.74086387   424551 
 1217000   0.61778753   -2.1174152   -2.1174152   -1.3763906  0.046664414   -2.1174152   0.74102461   424551 
 1218000   0.61739879   -2.1167365   -2.1167365   -1.3761782  0.042785016   -2.1167365   0.74055832   424551 
 1219000   0.61727813   -2.1170837   -2.1170837   -1.3766701  0.045921539   -2.1170837    0.7404136   424551 
 1220000   0.61773552   -2.1175151   -2.1175151   -1.3765529  0.036081226   -2.1175151   0.74096223   424551 
 1221000   0.61719897   -2.1173115   -2.1173115   -1.3769928  0.040383936   -2.1173115   0.74031864   424551 
 1222000   0.61781893   -2.1175878   -2.1175878   -1.3765255  0.035094063   -2.1175878   0.74106228   424551 
 1223000   0.61779528   -2.1171947   -2.1171947   -1.3761608  0.050221748   -2.1171947    0.7410339   424551 
 1224000   0.61764989   -2.1176426   -2.1176426   -1.3767831  0.042856773   -2.1176426   0.74085951   424551 
 1225000   0.61662875   -2.1168117   -2.1168117    -1.377177  0.049184917   -2.1168117   0.73963468   424551 
 1226000   0.61773026   -2.1176402   -2.1176402   -1.3766843  0.052676326   -2.1176402   0.74095591   424551 
 1227000   0.61704431    -2.117161    -2.117161   -1.3770279  0.050991451    -2.117161   0.74013313   424551 
 1228000   0.61816022   -2.1185407   -2.1185407   -1.3770691  0.035997201   -2.1185407   0.74147164   424551 
 1229000   0.61799142   -2.1179147   -2.1179147   -1.3766455  0.046355104   -2.1179147   0.74126917   424551 
 1230000   0.61859105   -2.1191735   -2.1191735   -1.3771851  0.042541244   -2.1191735   0.74198842   424551 
 1231000   0.61833793   -2.1187491   -2.1187491   -1.3770642  0.052389017   -2.1187491    0.7416848   424551 
 1232000   0.61769588   -2.1178893   -2.1178893   -1.3769746  0.038952925   -2.1178893   0.74091468   424551 
 1233000   0.61681409   -2.1168951   -2.1168951   -1.3770381  0.047028986   -2.1168951   0.73985698   424551 
 1234000   0.61741887   -2.1174273   -2.1174273   -1.3768449  0.051519444   -2.1174273   0.74058242   424551 
 1235000   0.61835865   -2.1176292   -2.1176292   -1.3759195  0.044416404   -2.1176292   0.74170966   424551 
 1236000    0.6180011   -2.1184212   -2.1184212   -1.3771404  0.047621573   -2.1184212   0.74128078   424551 
 1237000   0.61798612   -2.1185187   -2.1185187   -1.3772559  0.041382534   -2.1185187   0.74126281   424551 
 1238000   0.61686119   -2.1179177   -2.1179177   -1.3780042  0.047384832   -2.1179177   0.73991349   424551 
 1239000   0.61684738   -2.1181749   -2.1181749    -1.378278  0.045300626   -2.1181749   0.73989692   424551 
 1240000   0.61726199   -2.1197256   -2.1197256   -1.3793314  0.035838162   -2.1197256   0.74039423   424551 
 1241000   0.61776934   -2.1194721   -2.1194721   -1.3784693  0.040081197   -2.1194721   0.74100279   424551 
 1242000   0.61694376   -2.1186429   -2.1186429   -1.3786304  0.050113622   -2.1186429   0.74001253   424551 
 1243000   0.61704769   -2.1186692   -2.1186692    -1.378532  0.041487158   -2.1186692   0.74013718   424551 
 1244000   0.61651342   -2.1177977   -2.1177977   -1.3783013  0.044169389   -2.1177977   0.73949634   424551 
 1245000   0.61760164   -2.1185015   -2.1185015   -1.3776999  0.042282971   -2.1185015   0.74080163   424551 
 1246000   0.61748254   -2.1186517   -2.1186517    -1.377993  0.043592962   -2.1186517   0.74065878   424551 
 1247000   0.61664853   -2.1175972   -2.1175972   -1.3779388  0.042427143   -2.1175972   0.73965841   424551 
 1248000   0.61762347    -2.118835    -2.118835   -1.3780072  0.052550629    -2.118835   0.74082783   424551 
 1249000   0.61728806   -2.1187479   -2.1187479   -1.3783224  0.052468457   -2.1187479   0.74042551   424551 
 1250000   0.61690342   -2.1178366   -2.1178366   -1.3778725   0.04429977   -2.1178366   0.73996414   424551 
 1251000   0.61723647   -2.1185155   -2.1185155   -1.3781519   0.04296338   -2.1185155   0.74036363   424551 
 1252000   0.61724718   -2.1190452   -2.1190452   -1.3786688  0.041200399   -2.1190452   0.74037648   424551 
 1253000   0.61759292   -2.1202598   -2.1202598   -1.3794686  0.039458979   -2.1202598   0.74079118   424551 
 1254000    0.6157564   -2.1183118   -2.1183118   -1.3797235  0.044271095   -2.1183118   0.73858831   424551 
 1255000   0.61586243   -2.1182947   -2.1182947   -1.3795792  0.046716548   -2.1182947   0.73871549   424551 
 1256000   0.61598141   -2.1191909   -2.1191909   -1.3803327   0.03417524   -2.1191909    0.7388582   424551 
 1257000   0.61730965   -2.1206224   -2.1206224    -1.380171  0.041427814   -2.1206224   0.74045141   424551 
 1258000   0.61733985   -2.1206069   -2.1206069   -1.3801193  0.032615904   -2.1206069   0.74048763   424551 
 1259000   0.61716314   -2.1213067   -2.1213067   -1.3810311  0.051735884   -2.1213067   0.74027567   424551 
 1260000   0.61721007   -2.1212661   -2.1212661   -1.3809341  0.044813619   -2.1212661   0.74033196   424551 
 1261000   0.61716373   -2.1217901   -2.1217901   -1.3815137   0.04759916   -2.1217901   0.74027638   424551 
 1262000   0.61718068   -2.1216432   -2.1216432   -1.3813465  0.044769044   -2.1216432   0.74029671   424551 
 1263000   0.61782164   -2.1218251   -2.1218251   -1.3807596  0.047586177   -2.1218251   0.74106553   424551 
 1264000   0.61757339   -2.1220055   -2.1220055   -1.3812378  0.040826546   -2.1220055   0.74076775   424551 
 1265000   0.61630039   -2.1211675   -2.1211675   -1.3819267  0.041968548   -2.1211675   0.73924082   424551 
 1266000   0.61821417   -2.1231884   -2.1231884    -1.381652  0.046559042   -2.1231884   0.74153636   424551 
 1267000     0.618228   -2.1225974   -2.1225974   -1.3810445  0.039093825   -2.1225974   0.74155294   424551 
 1268000    0.6182741   -2.1232635   -2.1232635   -1.3816553  0.048287435   -2.1232635   0.74160824   424551 
 1269000   0.61870569   -2.1241733   -2.1241733   -1.3820474  0.044844611   -2.1241733   0.74212593   424551 
 1270000    0.6179344    -2.123197    -2.123197   -1.3819962  0.049975419    -2.123197   0.74120078   424551 
 1271000   0.61801901   -2.1229798   -2.1229798   -1.3816775  0.052754972   -2.1229798   0.74130227   424551 
 1272000   0.61762208   -2.1226126   -2.1226126   -1.3817864   0.04688534   -2.1226126   0.74082616   424551 
 1273000    0.6172601   -2.1229368   -2.1229368   -1.3825448  0.041442285   -2.1229368   0.74039197   424551 
 1274000    0.6174947   -2.1240481   -2.1240481   -1.3833747  0.050523188   -2.1240481   0.74067337   424551 
 1275000   0.61753482   -2.1234331   -2.1234331   -1.3827116  0.053346089   -2.1234331   0.74072149   424551 
 1276000   0.61704371   -2.1230555   -2.1230555   -1.3829231  0.040325701   -2.1230555   0.74013241   424551 
 1277000   0.61627504    -2.122125    -2.122125   -1.3829146  0.037316315    -2.122125    0.7392104   424551 
 1278000   0.61768267   -2.1240193   -2.1240193   -1.3831205  0.044544365   -2.1240193   0.74089883   424551 
 1279000   0.61718837   -2.1227862   -2.1227862   -1.3824802  0.045414522   -2.1227862   0.74030593   424551 
 1280000    0.6174054   -2.1234652   -2.1234652   -1.3828989  0.046649396   -2.1234652   0.74056625   424551 
 1281000   0.61704177   -2.1229905   -2.1229905   -1.3828604  0.039254328   -2.1229905   0.74013008   424551 
 1282000   0.61667721   -2.1226189   -2.1226189   -1.3829261  0.041059449   -2.1226189   0.73969281   424551 
 1283000   0.61785231    -2.123281    -2.123281   -1.3821787  0.046085598    -2.123281   0.74110231   424551 
 1284000   0.61762199   -2.1231766   -2.1231766   -1.3823505   0.04297032   -2.1231766   0.74082605   424551 
 1285000   0.61616643   -2.1220741   -2.1220741    -1.382994   0.05130261   -2.1220741   0.73908014   424551 
 1286000   0.61725328   -2.1229458   -2.1229458   -1.3825621  0.042424719   -2.1229458   0.74038379   424551 
 1287000   0.61754387   -2.1230257   -2.1230257   -1.3822933  0.034489926   -2.1230257   0.74073235   424551 
 1288000   0.61697803   -2.1232463   -2.1232463   -1.3831927  0.039435308   -2.1232463   0.74005363   424551 
 1289000   0.61666326   -2.1229565   -2.1229565   -1.3832804   0.03706301   -2.1229565   0.73967607   424551 
 1290000   0.61655106   -2.1229523   -2.1229523   -1.3834108  0.034651756   -2.1229523   0.73954149   424551 
 1291000   0.61636948   -2.1221357   -2.1221357   -1.3828121  0.043454118   -2.1221357   0.73932369   424551 
 1292000   0.61686122   -2.1216969   -2.1216969   -1.3817834  0.049396676   -2.1216969   0.73991352   424551 
 1293000   0.61781939   -2.1217451   -2.1217451   -1.3806823  0.050405641   -2.1217451   0.74106283   424551 
 1294000   0.61775138   -2.1223077   -2.1223077   -1.3813264  0.042638733   -2.1223077   0.74098125   424551 
 1295000   0.61767883   -2.1217457   -2.1217457   -1.3808515   0.04316312   -2.1217457   0.74089422   424551 
 1296000   0.61802053   -2.1221314   -2.1221314   -1.3808273  0.039249572   -2.1221314   0.74130409   424551 
 1297000   0.61739725   -2.1221882   -2.1221882   -1.3816317  0.041226568   -2.1221882   0.74055648   424551 
 1298000   0.61815115   -2.1232627   -2.1232627   -1.3818019  0.038500753   -2.1232627   0.74146076   424551 
 1299000    0.6159628   -2.1211289   -2.1211289    -1.382293  0.035220415   -2.1211289   0.73883588   424551 
 1300000   0.61735543   -2.1223669   -2.1223669   -1.3818606  0.036656755   -2.1223669   0.74050632   424551 
 1301000   0.61743257    -2.122595    -2.122595   -1.3819961  0.046396838    -2.122595   0.74059884   424551 
 1302000   0.61706519   -2.1223211   -2.1223211   -1.3821629  0.046696307   -2.1223211   0.74015817   424551 
 1303000   0.61676745   -2.1221554   -2.1221554   -1.3823543  0.043042925   -2.1221554   0.73980105   424551 
 1304000   0.61774481   -2.1236471   -2.1236471   -1.3826737  0.045864999   -2.1236471   0.74097337   424551 
 1305000   0.61741195   -2.1226242   -2.1226242   -1.3820501  0.043800245   -2.1226242    0.7405741   424551 
 1306000   0.61636079   -2.1221336   -2.1221336   -1.3828203   0.05031382   -2.1221336   0.73931326   424551 
 1307000   0.61838684   -2.1239507   -2.1239507   -1.3822073  0.048249046   -2.1239507   0.74174347   424551 
 1308000    0.6169878   -2.1226995   -2.1226995   -1.3826342  0.044484476   -2.1226995   0.74006534   424551 
 1309000   0.61664643    -2.122233    -2.122233   -1.3825771  0.046877035    -2.122233   0.73965588   424551 
 1310000   0.61727044   -2.1231471   -2.1231471   -1.3827428  0.040972171   -2.1231471   0.74040437   424551 
 1311000    0.6165122   -2.1224726   -2.1224726   -1.3829778  0.044168372   -2.1224726   0.73949488   424551 
 1312000   0.61632603   -2.1225282   -2.1225282   -1.3832566  0.042897623   -2.1225282   0.73927157   424551 
 1313000   0.61701956   -2.1241536   -2.1241536   -1.3840501  0.046646747   -2.1241536   0.74010345   424551 
 1314000   0.61693066   -2.1242787   -2.1242787   -1.3842819  0.046434574   -2.1242787   0.73999681   424551 
 1315000   0.61489868   -2.1230708   -2.1230708   -1.3855113  0.038318865   -2.1230708   0.73755949   424551 
 1316000   0.61648104   -2.1251256   -2.1251256   -1.3856681  0.051266883   -2.1251256   0.73945751   424551 
 1317000   0.61560267   -2.1246704   -2.1246704   -1.3862665  0.043653976   -2.1246704   0.73840391   424551 
 1318000   0.61558273   -2.1250912   -2.1250912   -1.3867112  0.045754894   -2.1250912   0.73837999   424551 
 1319000   0.61660981    -2.125783    -2.125783    -1.386171  0.047314858    -2.125783   0.73961196   424551 
 1320000   0.61644062   -2.1254207   -2.1254207   -1.3860116  0.051715436   -2.1254207   0.73940902   424551 
 1321000   0.61637395   -2.1258215   -2.1258215   -1.3864924  0.044648844   -2.1258215   0.73932905   424551 
 1322000   0.61744748   -2.1271917   -2.1271917    -1.386575  0.046734724   -2.1271917   0.74061672   424551 
 1323000   0.61743565   -2.1266329   -2.1266329   -1.3860303  0.051275738   -2.1266329   0.74060254   424551 
 1324000   0.61817333   -2.1272247   -2.1272247   -1.3857373  0.049796612   -2.1272247   0.74148737   424551 
 1325000   0.61777021    -2.127161    -2.127161   -1.3861572  0.044323997    -2.127161   0.74100383   424551 
 1326000   0.61775174   -2.1267672   -2.1267672   -1.3857855  0.046832064   -2.1267672   0.74098169   424551 
 1327000   0.61747729   -2.1269215   -2.1269215    -1.386269  0.042648192   -2.1269215   0.74065248   424551 
 1328000    0.6171251    -2.126325    -2.126325    -1.386095    0.0453217    -2.126325   0.74023004   424551 
 1329000   0.61699812   -2.1263978   -2.1263978   -1.3863201  0.044700014   -2.1263978   0.74007773   424551 
 1330000   0.61650398   -2.1256625   -2.1256625   -1.3861775  0.046583192   -2.1256625   0.73948502   424551 
 1331000   0.61613325   -2.1249527   -2.1249527   -1.3859124  0.048165442   -2.1249527   0.73904034   424551 
 1332000   0.61560527   -2.1247139   -2.1247139   -1.3863068  0.034339793   -2.1247139   0.73840704   424551 
 1333000   0.61560671   -2.1247041   -2.1247041   -1.3862953  0.040835838   -2.1247041   0.73840876   424551 
 1334000   0.61702747    -2.125742    -2.125742    -1.385629  0.034518848    -2.125742   0.74011294   424551 
 1335000   0.61557519   -2.1244058   -2.1244058   -1.3860348  0.034070778   -2.1244058   0.73837094   424551 
 1336000   0.61624786     -2.12516     -2.12516   -1.3859822  0.037002621     -2.12516    0.7391778   424551 
 1337000   0.61572741   -2.1241892   -2.1241892   -1.3856357  0.043392518   -2.1241892   0.73855353   424551 
 1338000   0.61725836   -2.1253184   -2.1253184   -1.3849285  0.049267634   -2.1253184   0.74038989   424551 
 1339000   0.61637557   -2.1248036   -2.1248036   -1.3854726  0.041204862   -2.1248036     0.739331   424551 
 1340000   0.61557018   -2.1246541   -2.1246541   -1.3862891   0.03489078   -2.1246541   0.73836494   424551 
 1341000   0.61443902    -2.123124    -2.123124   -1.3861159  0.042072899    -2.123124   0.73700814   424551 
 1342000   0.61608586   -2.1258611   -2.1258611   -1.3868777  0.048208891   -2.1258611   0.73898348   424551 
 1343000   0.61616696   -2.1253342   -2.1253342   -1.3862534  0.038347843   -2.1253342   0.73908077   424551 
 1344000   0.61747028   -2.1274887   -2.1274887   -1.3868446  0.045706676   -2.1274887   0.74064408   424551 
 1345000   0.61653225   -2.1262441   -2.1262441   -1.3867252  0.044177591   -2.1262441   0.73951893   424551 
 1346000   0.61620234    -2.126242    -2.126242   -1.3871188  0.047014419    -2.126242    0.7391232   424551 
 1347000   0.61548799    -2.125687    -2.125687   -1.3874206  0.045365101    -2.125687   0.73826635   424551 
 1348000   0.61660583   -2.1269622   -2.1269622    -1.387355  0.047638319   -2.1269622   0.73960718   424551 
 1349000   0.61788295   -2.1287167   -2.1287167   -1.3875777  0.045479788   -2.1287167   0.74113906   424551 
 1350000   0.61736431   -2.1277434   -2.1277434   -1.3872264   0.04710664   -2.1277434   0.74051697   424551 
 1351000   0.61570168   -2.1257576   -2.1257576    -1.387235  0.044587079   -2.1257576   0.73852267   424551 
 1352000   0.61640849   -2.1266528   -2.1266528   -1.3872823  0.044350762   -2.1266528   0.73937048   424551 
 1353000   0.61576636   -2.1272974   -2.1272974   -1.3886971  0.051736543   -2.1272974   0.73860025   424551 
 1354000   0.61684447   -2.1276863   -2.1276863   -1.3877929  0.052616815   -2.1276863   0.73989342   424551 
 1355000   0.61748242   -2.1286891   -2.1286891   -1.3880305  0.044802973   -2.1286891   0.74065863   424551 
 1356000   0.61645279   -2.1267405   -2.1267405   -1.3873168  0.039119476   -2.1267405   0.73942362   424551 
 1357000   0.61599765   -2.1262295   -2.1262295   -1.3873518  0.049145555   -2.1262295   0.73887768   424551 
 1358000   0.61724708   -2.1271816   -2.1271816   -1.3868053  0.039361958   -2.1271816   0.74037635   424551 
 1359000   0.61767914   -2.1273897   -2.1273897   -1.3864951  0.053124181   -2.1273897    0.7408946   424551 
 1360000   0.61689721   -2.1266842   -2.1266842   -1.3867276  0.043756606   -2.1266842   0.73995668   424551 
 1361000   0.61785253   -2.1276847   -2.1276847   -1.3865821  0.039009656   -2.1276847   0.74110257   424551 
 1362000    0.6165847   -2.1264432   -2.1264432   -1.3868613  0.044154979   -2.1264432   0.73958184   424551 
 1363000   0.61615016   -2.1260095   -2.1260095   -1.3869489  0.041525923   -2.1260095   0.73906062   424551 
 1364000   0.61646184   -2.1269703   -2.1269703   -1.3875358  0.039554998   -2.1269703   0.73943447   424551 
 1365000   0.61463778    -2.125064    -2.125064   -1.3878174  0.046984842    -2.125064   0.73724655   424551 
 1366000   0.61616653   -2.1269291   -2.1269291   -1.3878488  0.043190715   -2.1269291   0.73908025   424551 
 1367000   0.61463964   -2.1256651   -2.1256651   -1.3884163  0.042945311   -2.1256651   0.73724877   424551 
 1368000   0.61590434   -2.1271109   -2.1271109   -1.3883452  0.041416726   -2.1271109   0.73876576   424551 
 1369000   0.61658069   -2.1276331   -2.1276331   -1.3880561  0.042034833   -2.1276331   0.73957703   424551 
 1370000   0.61706507   -2.1276549   -2.1276549   -1.3874969  0.039840965   -2.1276549   0.74015803   424551 
 1371000   0.61638885   -2.1268089   -2.1268089   -1.3874619  0.046823955   -2.1268089   0.73934692   424551 
 1372000   0.61532562   -2.1250504   -2.1250504   -1.3869788  0.046705255   -2.1250504    0.7380716   424551 
 1373000   0.61610169   -2.1269366   -2.1269366   -1.3879341  0.043319806   -2.1269366   0.73900248   424551 
 1374000   0.61577695   -2.1264042   -2.1264042   -1.3877912  0.045770993   -2.1264042   0.73861296   424551 
 1375000   0.61702969   -2.1282627   -2.1282627   -1.3881471  0.043969342   -2.1282627   0.74011559   424551 
 1376000   0.61592888   -2.1272177   -2.1272177   -1.3884225  0.044568656   -2.1272177   0.73879519   424551 
 1377000   0.61588357   -2.1270165   -2.1270165   -1.3882756  0.043548069   -2.1270165   0.73874084   424551 
 1378000   0.61695885   -2.1274931   -2.1274931   -1.3874625  0.044429377   -2.1274931   0.74003063   424551 
 1379000   0.61667779   -2.1271818   -2.1271818   -1.3874883  0.045384847   -2.1271818   0.73969349   424551 
 1380000   0.61595086    -2.126424    -2.126424   -1.3876024  0.046819447    -2.126424   0.73882156   424551 
 1381000   0.61715795     -2.12846     -2.12846   -1.3881906  0.038865131     -2.12846   0.74026944   424551 
 1382000   0.61668303   -2.1276511   -2.1276511   -1.3879514  0.042866359   -2.1276511   0.73969978   424551 
 1383000   0.61738991   -2.1283177   -2.1283177     -1.38777  0.046830388   -2.1283177   0.74054767   424551 
 1384000   0.61681307   -2.1281014   -2.1281014   -1.3882456  0.040057711   -2.1281014   0.73985576   424551 
 1385000   0.61675802   -2.1280148   -2.1280148   -1.3882251  0.036605622   -2.1280148   0.73978974   424551 
 1386000   0.61729102   -2.1293176   -2.1293176   -1.3888885  0.040496268   -2.1293176   0.74042905   424551 
 1387000   0.61630399   -2.1275879   -2.1275879   -1.3883428  0.042830272   -2.1275879   0.73924513   424551 
 1388000   0.61767549   -2.1290667   -2.1290667   -1.3881765  0.037729292   -2.1290667   0.74089022   424551 
 1389000   0.61660519   -2.1284146   -2.1284146   -1.3888082  0.038961242   -2.1284146   0.73960642   424551 
 1390000   0.61708622   -2.1288175   -2.1288175   -1.3886341  0.042821741   -2.1288175    0.7401834   424551 
 1391000   0.61559881    -2.127137    -2.127137   -1.3887377  0.047335792    -2.127137   0.73839928   424551 
 1392000   0.61587126   -2.1286276   -2.1286276   -1.3899015  0.042075743   -2.1286276   0.73872608   424551 
 1393000   0.61538413   -2.1284145   -2.1284145   -1.3902727  0.039405459   -2.1284145   0.73814178   424551 
 1394000    0.6160673   -2.1299434   -2.1299434   -1.3909822  0.037830485   -2.1299434   0.73896123   424551 
 1395000   0.61602842   -2.1294696   -2.1294696    -1.390555  0.044850961   -2.1294696   0.73891459   424551 
 1396000    0.6168615   -2.1303868   -2.1303868    -1.390473   0.03872173   -2.1303868   0.73991386   424551 
 1397000   0.61566617   -2.1291903   -2.1291903   -1.3907102   0.04407114   -2.1291903   0.73848007   424551 
 1398000   0.61698386   -2.1308569   -2.1308569   -1.3907962  0.035570454   -2.1308569   0.74006062   424551 
 1399000   0.61472508   -2.1288046   -2.1288046   -1.3914534  0.042189878   -2.1288046   0.73735126   424551 
 1400000   0.61681251   -2.1306056   -2.1306056   -1.3907505  0.039082432   -2.1306056    0.7398551   424551 
 1401000   0.61660878   -2.1311515   -2.1311515   -1.3915408  0.042402766   -2.1311515   0.73961072   424551 
 1402000   0.61693849   -2.1324699   -2.1324699   -1.3924637  0.040096904   -2.1324699    0.7400062   424551 
 1403000   0.61548157   -2.1314569   -2.1314569   -1.3931983   0.04283349   -2.1314569   0.73825865   424551 
 1404000    0.6156653   -2.1315458   -2.1315458   -1.3930667   0.04250023   -2.1315458   0.73847904   424551 
 1405000   0.61470689   -2.1303382   -2.1303382   -1.3930088   0.04124302   -2.1303382   0.73732944   424551 
 1406000   0.61539534   -2.1327495   -2.1327495   -1.3945943  0.046124173   -2.1327495   0.73815523   424551 
 1407000   0.61575104   -2.1334547   -2.1334547   -1.3948728  0.041043275   -2.1334547   0.73858189   424551 
 1408000   0.61563308    -2.133556    -2.133556   -1.3951156  0.039611519    -2.133556   0.73844038   424551 
 1409000   0.61633516   -2.1335145   -2.1335145    -1.394232  0.042989184   -2.1335145   0.73928253   424551 
 1410000   0.61659503    -2.133829    -2.133829   -1.3942347  0.048219783    -2.133829   0.73959423   424551 
 1411000   0.61640887   -2.1341301   -2.1341301   -1.3947592  0.041619936   -2.1341301   0.73937093   424551 
 1412000    0.6168281   -2.1333683   -2.1333683   -1.3934945  0.053220648   -2.1333683   0.73987379   424551 
 1413000   0.61681029   -2.1338225   -2.1338225   -1.3939701  0.045746442   -2.1338225   0.73985242   424551 
 1414000   0.61617773     -2.13315     -2.13315   -1.3940564  0.045435233     -2.13315   0.73909368   424551 
 1415000   0.61659099   -2.1333074   -2.1333074    -1.393718  0.045968829   -2.1333074   0.73958938   424551 
 1416000   0.61701422   -2.1342408   -2.1342408   -1.3941438  0.043753173   -2.1342408   0.74009704   424551 
 1417000   0.61670887   -2.1333284   -2.1333284   -1.3935976  0.044134899   -2.1333284   0.73973078   424551 
 1418000   0.61619718   -2.1326757   -2.1326757   -1.3935586  0.044841852   -2.1326757   0.73911702   424551 
 1419000   0.61546124   -2.1318824   -2.1318824   -1.3936481  0.047325017   -2.1318824   0.73823427   424551 
 1420000    0.6156159   -2.1326933   -2.1326933   -1.3942735  0.045454301   -2.1326933   0.73841979   424551 
 1421000   0.61567898   -2.1323274   -2.1323274   -1.3938319  0.039150534   -2.1323274   0.73849544   424551 
 1422000   0.61585075   -2.1315211   -2.1315211   -1.3928196  0.047924396   -2.1315211   0.73870148   424551 
 1423000   0.61726186   -2.1329452   -2.1329452   -1.3925511  0.038223899   -2.1329452   0.74039408   424551 
 1424000   0.61684032   -2.1319136   -2.1319136   -1.3920251  0.044507685   -2.1319136   0.73988845   424551 
 1425000   0.61577812   -2.1310559   -2.1310559   -1.3924415  0.048305876   -2.1310559   0.73861436   424551 
 1426000     0.614832   -2.1301623   -2.1301623   -1.3926828  0.041449985   -2.1301623   0.73747951   424551 
 1427000   0.61650229   -2.1315308   -2.1315308   -1.3920479  0.047326158   -2.1315308   0.73948299   424551 
 1428000   0.61546588   -2.1309825   -2.1309825   -1.3927427  0.045251197   -2.1309825   0.73823983   424551 
 1429000   0.61502733   -2.1295892   -2.1295892   -1.3918754  0.043045912   -2.1295892    0.7377138   424551 
 1430000   0.61459432   -2.1295686   -2.1295686   -1.3923742  0.042810354   -2.1295686   0.73719442   424551 
 1431000   0.61400285   -2.1288636   -2.1288636   -1.3923786  0.035037088   -2.1288636   0.73648496   424551 
 1432000   0.61344229   -2.1284235   -2.1284235   -1.3926109  0.042720913   -2.1284235   0.73581258   424551 
 1433000   0.61387991     -2.12913     -2.12913   -1.3927925   0.03760765     -2.12913    0.7363375   424551 
 1434000   0.61386274   -2.1292134   -2.1292134   -1.3928965  0.043582469   -2.1292134    0.7363169   424551 
 1435000   0.61429921   -2.1288531   -2.1288531   -1.3920127  0.043012055   -2.1288531   0.73684043   424551 
 1436000    0.6155706   -2.1301247   -2.1301247   -1.3917593  0.041821099   -2.1301247   0.73836545   424551 
 1437000   0.61637966   -2.1314939   -2.1314939    -1.392158  0.039220925   -2.1314939   0.73933589   424551 
 1438000   0.61455637   -2.1293291   -2.1293291   -1.3921802  0.045814512   -2.1293291   0.73714889   424551 
 1439000   0.61622377    -2.131363    -2.131363   -1.3922141  0.048107095    -2.131363   0.73914891   424551 
 1440000    0.6163281   -2.1313896   -2.1313896   -1.3921156  0.045723326   -2.1313896   0.73927405   424551 
 1441000    0.6170928   -2.1321319   -2.1321319   -1.3919406  0.048732417   -2.1321319   0.74019129   424551 
 1442000   0.61607858   -2.1314834   -2.1314834   -1.3925086  0.048081316   -2.1314834   0.73897475   424551 
 1443000   0.61537452   -2.1307354   -2.1307354   -1.3926051  0.042036351   -2.1307354   0.73813025   424551 
 1444000    0.6152244   -2.1309299   -2.1309299   -1.3929797   0.04844706   -2.1309299   0.73795018   424551 
 1445000   0.61518918   -2.1310829   -2.1310829    -1.393175  0.038858331   -2.1310829   0.73790793   424551 
 1446000   0.61503926   -2.1314817   -2.1314817   -1.3937535  0.034526841   -2.1314817   0.73772812   424551 
 1447000   0.61604381    -2.132346    -2.132346    -1.393413  0.043753686    -2.132346   0.73893305   424551 
 1448000   0.61582998   -2.1320114   -2.1320114   -1.3933348  0.047977647   -2.1320114   0.73867657   424551 
 1449000   0.61585168   -2.1320385   -2.1320385   -1.3933359   0.04425628   -2.1320385   0.73870259   424551 
 1450000   0.61595377   -2.1326627   -2.1326627   -1.3938376  0.051061711   -2.1326627   0.73882505   424551 
 1451000   0.61520274   -2.1324441   -2.1324441   -1.3945199  0.040036847   -2.1324441    0.7379242   424551 
 1452000   0.61367264   -2.1313315   -2.1313315   -1.3952426  0.041828327   -2.1313315   0.73608887   424551 
 1453000   0.61438813   -2.1317496   -2.1317496   -1.3948025  0.048270965   -2.1317496   0.73694709   424551 
 1454000   0.61453262   -2.1310759   -2.1310759   -1.3939555  0.046562665   -2.1310759    0.7371204   424551 
 1455000   0.61634766   -2.1337043   -2.1337043   -1.3944068  0.037427424   -2.1337043   0.73929751   424551 
 1456000   0.61528269    -2.133883    -2.133883   -1.3958629  0.040689684    -2.133883   0.73802011   424551 
 1457000   0.61467922   -2.1331464   -2.1331464   -1.3958501  0.046882862   -2.1331464   0.73729625   424551 
 1458000   0.61454785   -2.1324516   -2.1324516    -1.395313   0.04905035   -2.1324516   0.73713868   424551 
 1459000   0.61518083    -2.133104    -2.133104    -1.395206  0.042614676    -2.133104   0.73789792   424551 
 1460000   0.61565269   -2.1335661   -2.1335661   -1.3951022  0.045116688   -2.1335661   0.73846391   424551 
 1461000   0.61431179   -2.1324935   -2.1324935   -1.3956379  0.044712029   -2.1324935   0.73685552   424551 
 1462000   0.61366757   -2.1320042   -2.1320042   -1.3959214  0.037532722   -2.1320042    0.7360828   424551 
 1463000   0.61435964   -2.1330018   -2.1330018   -1.3960889  0.029444584   -2.1330018   0.73691292   424551 
 1464000   0.61531098   -2.1347269   -2.1347269   -1.3966729   0.03751047   -2.1347269   0.73805403   424551 
 1465000   0.61511858   -2.1340669   -2.1340669   -1.3962437  0.044231828   -2.1340669   0.73782325   424551 
 1466000   0.61499184   -2.1339388   -2.1339388   -1.3962675   0.04565004   -2.1339388   0.73767123   424551 
 1467000   0.61491503   -2.1344211   -2.1344211    -1.396842  0.039889298   -2.1344211    0.7375791   424551 
 1468000   0.61471863   -2.1336108   -2.1336108   -1.3962673  0.034720872   -2.1336108   0.73734353   424551 
 1469000   0.61527448   -2.1351644   -2.1351644   -1.3971541  0.039272788   -2.1351644   0.73801026   424551 
 1470000   0.61486635   -2.1342431   -2.1342431   -1.3967223  0.047433393   -2.1342431   0.73752072   424551 
 1471000   0.61564711   -2.1350979   -2.1350979   -1.3966407  0.045230024   -2.1350979   0.73845722   424551 
 1472000   0.61486001   -2.1339364   -2.1339364   -1.3964233  0.039662793   -2.1339364   0.73751311   424551 
 1473000   0.61505049   -2.1343404   -2.1343404   -1.3965989  0.042586712   -2.1343404   0.73774158   424551 
 1474000   0.61515067   -2.1343835   -2.1343835   -1.3965218  0.044662971   -2.1343835   0.73786175   424551 
 1475000   0.61361529   -2.1325614   -2.1325614   -1.3965414  0.042231624   -2.1325614   0.73602008   424551 
 1476000   0.61387402   -2.1328425   -2.1328425   -1.3965121  0.045781749   -2.1328425   0.73633042   424551 
 1477000   0.61441348   -2.1334196   -2.1334196   -1.3964421  0.041302173   -2.1334196    0.7369775   424551 
 1478000   0.61451602    -2.133547    -2.133547   -1.3964465  0.034981556    -2.133547   0.73710049   424551 
 1479000    0.6145216   -2.1332559   -2.1332559   -1.3961487  0.043804613   -2.1332559   0.73710719   424551 
 1480000   0.61584056   -2.1345332   -2.1345332   -1.3958439  0.040431403   -2.1345332   0.73868925   424551 
 1481000   0.61513626   -2.1341181   -2.1341181   -1.3962737  0.040664328   -2.1341181   0.73784447   424551 
 1482000   0.61364887   -2.1327376   -2.1327376   -1.3966772  0.039709891   -2.1327376   0.73606037   424551 
 1483000   0.61210913   -2.1314021   -2.1314021   -1.3971887  0.037667847   -2.1314021   0.73421347   424551 
 1484000   0.61341737   -2.1322522   -2.1322522   -1.3964695  0.040153025   -2.1322522   0.73578268   424551 
 1485000   0.61515103   -2.1332008   -2.1332008   -1.3953386  0.038595796   -2.1332008   0.73786218   424551 
 1486000    0.6143712    -2.132892    -2.132892   -1.3959652  0.046756985    -2.132892   0.73692679   424551 
 1487000   0.61474789   -2.1330715   -2.1330715   -1.3956929  0.038771277   -2.1330715   0.73737861   424551 
 1488000   0.61456587   -2.1333269   -2.1333269   -1.3961666  0.044206032   -2.1333269   0.73716028   424551 
 1489000   0.61514928    -2.134923    -2.134923   -1.3970629  0.048295116    -2.134923   0.73786008   424551 
 1490000   0.61434449   -2.1345221   -2.1345221   -1.3976273  0.038161909   -2.1345221   0.73689475   424551 
 1491000   0.61442729   -2.1344293   -2.1344293   -1.3974352  0.033629307   -2.1344293   0.73699407   424551 
 1492000   0.61440329    -2.134432    -2.134432   -1.3974667   0.03834714    -2.134432   0.73696528   424551 
 1493000   0.61389471    -2.134571    -2.134571   -1.3982158  0.044604979    -2.134571   0.73635524   424551 
 1494000   0.61335719   -2.1343192   -2.1343192   -1.3986087  0.037293072   -2.1343192    0.7357105   424551 
 1495000   0.61399037   -2.1355835   -2.1355835   -1.3991135  0.042512609   -2.1355835   0.73646999   424551 
 1496000   0.61302087   -2.1341567   -2.1341567   -1.3988496  0.036599352   -2.1341567   0.73530709   424551 
 1497000   0.61458318   -2.1361476   -2.1361476   -1.3989665  0.039026712   -2.1361476   0.73718105   424551 
 1498000   0.61402169    -2.134243    -2.134243   -1.3977355  0.044710343    -2.134243   0.73650755   424551 
 1499000    0.6155457   -2.1356338   -2.1356338   -1.3972982  0.038102424   -2.1356338   0.73833558   424551 
 1500000   0.61472114   -2.1350711   -2.1350711   -1.3977245  0.042044416   -2.1350711   0.73734653   424551 
 1501000   0.61599627   -2.1367477   -2.1367477   -1.3978717  0.041187979   -2.1367477   0.73887603   424551 
 1502000   0.61582806   -2.1366773   -2.1366773   -1.3980031  0.041556463   -2.1366773   0.73867426   424551 
 1503000   0.61643293   -2.1377551   -2.1377551   -1.3983554  0.039823579   -2.1377551   0.73939979   424551 
 1504000   0.61491613    -2.136609    -2.136609   -1.3990286  0.047653031    -2.136609   0.73758042   424551 
 1505000   0.61540301   -2.1369007   -2.1369007   -1.3987363  0.046901304   -2.1369007   0.73816442   424551 
 1506000    0.6149439   -2.1364689   -2.1364689   -1.3988552  0.046148723   -2.1364689   0.73761373   424551 
 1507000    0.6152366   -2.1361396   -2.1361396   -1.3981748   0.05187002   -2.1361396   0.73796482   424551 
 1508000   0.61477522   -2.1359876   -2.1359876   -1.3985762  0.045062368   -2.1359876   0.73741141   424551 
 1509000   0.61482401   -2.1360306   -2.1360306   -1.3985607  0.041078656   -2.1360306   0.73746993   424551 
 1510000   0.61585739   -2.1378593   -2.1378593   -1.3991499  0.049482663   -2.1378593   0.73870945   424551 
 1511000   0.61664264   -2.1382648   -2.1382648   -1.3986134  0.041436209   -2.1382648   0.73965134   424551 
 1512000   0.61426236   -2.1354554   -2.1354554   -1.3986591  0.050076736   -2.1354554   0.73679624   424551 
 1513000   0.61487568   -2.1365785   -2.1365785   -1.3990466  0.039798187   -2.1365785    0.7375319   424551 
 1514000   0.61478672   -2.1361442   -2.1361442    -1.398719  0.042774535   -2.1361442    0.7374252   424551 
 1515000   0.61525045   -2.1356005   -2.1356005   -1.3976191  0.050276335   -2.1356005   0.73798144   424551 
 1516000   0.61513212   -2.1359611   -2.1359611   -1.3981216  0.041136515   -2.1359611   0.73783949   424551 
 1517000   0.61474338   -2.1356557   -2.1356557   -1.3982825  0.041235685   -2.1356557   0.73737321   424551 
 1518000   0.61557394     -2.13645     -2.13645   -1.3980806  0.041211329     -2.13645   0.73836945   424551 
 1519000   0.61431239   -2.1348555   -2.1348555   -1.3979992  0.040862929   -2.1348555   0.73685625   424551 
 1520000   0.61567051   -2.1360467   -2.1360467   -1.3975614   0.04404961   -2.1360467   0.73848529   424551 
 1521000   0.61605096   -2.1361252   -2.1361252   -1.3971835  0.044634223   -2.1361252   0.73894163   424551 
 1522000   0.61483712    -2.135455    -2.135455   -1.3979693  0.046455272    -2.135455   0.73748565   424551 
 1523000   0.61496669   -2.1351564   -2.1351564   -1.3975153  0.043157823   -2.1351564   0.73764106   424551 
 1524000   0.61389409   -2.1345936   -2.1345936   -1.3982391  0.034885788   -2.1345936    0.7363545   424551 
 1525000   0.61415752   -2.1351481   -2.1351481   -1.3984776  0.039852856   -2.1351481   0.73667049   424551 
 1526000   0.61356125   -2.1346216   -2.1346216   -1.3986663  0.045220306   -2.1346216   0.73595527   424551 
 1527000   0.61506145   -2.1360654   -2.1360654   -1.3983107  0.044379752   -2.1360654   0.73775473   424551 
 1528000    0.6147974   -2.1354679   -2.1354679   -1.3980299  0.040685443   -2.1354679   0.73743801   424551 
 1529000   0.61415047   -2.1350098   -2.1350098   -1.3983478  0.042135959   -2.1350098   0.73666203   424551 
 1530000   0.61467062   -2.1360241   -2.1360241   -1.3987382  0.042660452   -2.1360241   0.73728593   424551 
 1531000    0.6151253   -2.1361568   -2.1361568   -1.3983255  0.042664755   -2.1361568   0.73783132   424551 
 1532000   0.61370813   -2.1347973   -2.1347973   -1.3986659  0.050872331   -2.1347973   0.73613144   424551 
 1533000   0.61512449   -2.1362753   -2.1362753   -1.3984449  0.039777058   -2.1362753   0.73783034   424551 
 1534000   0.61600721   -2.1369921   -2.1369921    -1.398103  0.044680146   -2.1369921   0.73888914   424551 
 1535000   0.61482984   -2.1352827   -2.1352827   -1.3978058  0.043319849   -2.1352827   0.73747691   424551 
 1536000    0.6132204   -2.1335388   -2.1335388   -1.3979924  0.041921069   -2.1335388   0.73554643   424551 
 1537000   0.61413367   -2.1355649   -2.1355649    -1.398923  0.045061264   -2.1355649   0.73664188   424551 
 1538000   0.61386577    -2.135765    -2.135765   -1.3994444  0.038555067    -2.135765   0.73632053   424551 
 1539000    0.6141536   -2.1366195   -2.1366195   -1.3999537  0.038521879   -2.1366195   0.73666578   424551 
 1540000   0.61423317   -2.1365038   -2.1365038   -1.3997426  0.047535032   -2.1365038   0.73676122   424551 
 1541000    0.6140449   -2.1362154   -2.1362154     -1.39968  0.041237669   -2.1362154    0.7365354   424551 
 1542000   0.61493321   -2.1371584   -2.1371584   -1.3995575  0.039015664   -2.1371584    0.7376009   424551 
 1543000   0.61619609   -2.1386958   -2.1386958   -1.3995801  0.049600096   -2.1386958   0.73911571   424551 
 1544000   0.61551215   -2.1371541   -2.1371541   -1.3988587  0.046332201   -2.1371541   0.73829533   424551 
 1545000   0.61508157   -2.1377262   -2.1377262   -1.3999473  0.035828358   -2.1377262   0.73777886   424551 
 1546000   0.61404764   -2.1353437   -2.1353437    -1.398805  0.042259579   -2.1353437   0.73653868   424551 
 1547000   0.61629716    -2.138235    -2.138235   -1.3989981  0.038673058    -2.138235   0.73923694   424551 
 1548000   0.61533995   -2.1373533   -2.1373533   -1.3992646  0.039390961   -2.1373533   0.73808878   424551 
 1549000   0.61459654   -2.1361045   -2.1361045   -1.3989074  0.040574427   -2.1361045   0.73719708   424551 
 1550000   0.61380087   -2.1347623   -2.1347623   -1.3985196  0.047975465   -2.1347623   0.73624268   424551 
 1551000   0.61485943   -2.1364286   -2.1364286   -1.3989162  0.035624413   -2.1364286   0.73751241   424551 
 1552000    0.6131943    -2.135125    -2.135125   -1.3996099  0.044067797    -2.135125   0.73551511   424551 
 1553000   0.61488121   -2.1380068   -2.1380068   -1.4004683  0.040583866   -2.1380068   0.73753853   424551 
 1554000   0.61327652   -2.1369487   -2.1369487    -1.401335  0.043388936   -2.1369487   0.73561374   424551 
 1555000   0.61267637   -2.1362736   -2.1362736   -1.4013797   0.03662754   -2.1362736   0.73489387   424551 
 1556000   0.61445193   -2.1379717   -2.1379717   -1.4009481  0.043659405   -2.1379717   0.73702363   424551 
 1557000   0.61390212   -2.1369211   -2.1369211    -1.400557  0.048578127   -2.1369211   0.73636414   424551 
 1558000   0.61553617   -2.1383659   -2.1383659   -1.4000418  0.047227518   -2.1383659   0.73832414   424551 
 1559000   0.61635871   -2.1396622   -2.1396622   -1.4003514  0.045996638   -2.1396622   0.73931077   424551 
 1560000   0.61388108   -2.1370837   -2.1370837   -1.4007448   0.04702586   -2.1370837   0.73633889   424551 
 1561000   0.61462146   -2.1378185   -2.1378185   -1.4005915  0.044361611   -2.1378185   0.73722697   424551 
 1562000   0.61603211   -2.1396525   -2.1396525   -1.4007335  0.044081881   -2.1396525   0.73891902   424551 
 1563000   0.61487944   -2.1387105   -2.1387105   -1.4011741  0.051163514   -2.1387105   0.73753641   424551 
 1564000   0.61566181   -2.1409598   -2.1409598    -1.402485  0.043091464   -2.1409598   0.73847485   424551 
 1565000   0.61430131   -2.1402056   -2.1402056   -1.4033626  0.037822903   -2.1402056   0.73684296   424551 
 1566000    0.6149437   -2.1404771   -2.1404771   -1.4028636  0.044214756   -2.1404771   0.73761349   424551 
 1567000   0.61402222   -2.1391929   -2.1391929   -1.4026847  0.048312351   -2.1391929   0.73650819   424551 
 1568000   0.61452046   -2.1402693   -2.1402693   -1.4031634   0.05152342   -2.1402693   0.73710583   424551 
 1569000   0.61641433   -2.1427056   -2.1427056   -1.4033281  0.037231185   -2.1427056   0.73937748   424551 
 1570000   0.61467315   -2.1404267   -2.1404267   -1.4031378  0.041778557   -2.1404267   0.73728897   424551 
 1571000   0.61488148   -2.1395672   -2.1395672   -1.4020284  0.040792186   -2.1395672   0.73753886   424551 
 1572000   0.61355498   -2.1387452   -2.1387452   -1.4027975  0.041395222   -2.1387452   0.73594774   424551 
 1573000   0.61448987   -2.1399689   -2.1399689   -1.4028997  0.045612425   -2.1399689   0.73706913   424551 
 1574000   0.61387776   -2.1384153   -2.1384153   -1.4020804  0.043867738   -2.1384153   0.73633492   424551 
 1575000   0.61505739   -2.1399328   -2.1399328   -1.4021829  0.039950623   -2.1399328   0.73774986   424551 
 1576000   0.61386431   -2.1378484   -2.1378484   -1.4015296  0.046390543   -2.1378484   0.73631878   424551 
 1577000   0.61479283   -2.1383759   -2.1383759   -1.4009434  0.041402031   -2.1383759   0.73743252   424551 
 1578000   0.61489256   -2.1392958   -2.1392958   -1.4017437  0.037084317   -2.1392958   0.73755215   424551 
 1579000   0.61338249   -2.1378311   -2.1378311   -1.4020902  0.036933464   -2.1378311   0.73574085   424551 
 1580000   0.61246566   -2.1372504   -2.1372504   -1.4026093  0.041335747   -2.1372504   0.73464113   424551 
 1581000   0.61413208   -2.1384182   -2.1384182   -1.4017782  0.041518844   -2.1384182   0.73663997   424551 
 1582000   0.61380464   -2.1385786   -2.1385786   -1.4023314  0.042596885   -2.1385786   0.73624721   424551 
 1583000   0.61346108   -2.1382166   -2.1382166   -1.4023814  0.043185215   -2.1382166   0.73583511   424551 
 1584000   0.61495067   -2.1395278   -2.1395278    -1.401906  0.041105021   -2.1395278   0.73762185   424551 
 1585000   0.61503546   -2.1405148   -2.1405148   -1.4027912  0.038908502   -2.1405148   0.73772356   424551 
 1586000   0.61491539   -2.1399063   -2.1399063   -1.4023268  0.042552583   -2.1399063   0.73757954   424551 
 1587000   0.61355349   -2.1374876   -2.1374876   -1.4015416  0.041417339   -2.1374876   0.73594596   424551 
 1588000   0.61551625   -2.1392238   -2.1392238   -1.4009235  0.039343026   -2.1392238   0.73830025   424551 
 1589000   0.61396334   -2.1380208   -2.1380208   -1.4015833  0.047126657   -2.1380208   0.73643757   424551 
 1590000   0.61391298   -2.1386842   -2.1386842   -1.4023071  0.045563141   -2.1386842   0.73637715   424551 
 1591000   0.61397262   -2.1393114   -2.1393114   -1.4028627  0.036878976   -2.1393114   0.73644869   424551 
 1592000   0.61392349    -2.139531    -2.139531   -1.4031412  0.035205523    -2.139531   0.73638977   424551 
 1593000   0.61368589   -2.1394319   -2.1394319   -1.4033271  0.036301337   -2.1394319   0.73610477   424551 
 1594000   0.61404391   -2.1399285   -2.1399285   -1.4033942  0.044025428   -2.1399285   0.73653421   424551 
 1595000   0.61378906   -2.1395263   -2.1395263   -1.4032978  0.041710776   -2.1395263   0.73622852   424551 
 1596000   0.61481894   -2.1403472   -2.1403472   -1.4028834  0.045320841   -2.1403472   0.73746385   424551 
 1597000   0.61492151   -2.1404239   -2.1404239    -1.402837  0.040262905   -2.1404239   0.73758687   424551 
 1598000   0.61441868   -2.1405375   -2.1405375   -1.4035537  0.048587069   -2.1405375   0.73698373   424551 
 1599000   0.61396699    -2.140584    -2.140584    -1.404142  0.044767058    -2.140584   0.73644194   424551 
 1600000   0.61605835   -2.1425131   -2.1425131   -1.4035626  0.045487128   -2.1425131   0.73895049   424551 
 1601000   0.61424737   -2.1401353   -2.1401353    -1.403357  0.048067522   -2.1401353   0.73677825   424551 
 1602000   0.61389331   -2.1404379   -2.1404379   -1.4040843    0.0461113   -2.1404379   0.73635357   424551 
 1603000   0.61450191   -2.1414009   -2.1414009   -1.4043173  0.042680083   -2.1414009   0.73708357   424551 
 1604000   0.61474424   -2.1420042   -2.1420042   -1.4046299  0.040719076   -2.1420042   0.73737424   424551 
 1605000   0.61503368   -2.1421478   -2.1421478   -1.4044264  0.041893095   -2.1421478   0.73772142   424551 
 1606000   0.61397916   -2.1407979   -2.1407979   -1.4043414  0.041825779   -2.1407979   0.73645655   424551 
 1607000   0.61380112   -2.1407364   -2.1407364   -1.4044934   0.03962758   -2.1407364   0.73624299   424551 
 1608000   0.61377008   -2.1406492   -2.1406492   -1.4044435   0.04140203   -2.1406492   0.73620575   424551 
 1609000   0.61522904   -2.1427973   -2.1427973   -1.4048415  0.034802931   -2.1427973   0.73795575   424551 
 1610000   0.61446882   -2.1416806   -2.1416806   -1.4046367  0.041544332   -2.1416806   0.73704388   424551 
 1611000   0.61303666   -2.1397305   -2.1397305   -1.4044045  0.044060561   -2.1397305   0.73532603   424551 
 1612000   0.61491676   -2.1422058   -2.1422058   -1.4046246  0.043338612   -2.1422058   0.73758118   424551 
 1613000   0.61479533   -2.1419315   -2.1419315   -1.4044959  0.039074083   -2.1419315   0.73743552   424551 
 1614000   0.61511426   -2.1421618   -2.1421618   -1.4043438  0.053653532   -2.1421618   0.73781807   424551 
 1615000   0.61485411   -2.1416589   -2.1416589   -1.4041529  0.044614266   -2.1416589   0.73750603   424551 
 1616000   0.61543449   -2.1421805   -2.1421805   -1.4039784  0.037009696   -2.1421805   0.73820219   424551 
 1617000   0.61378326   -2.1403976   -2.1403976   -1.4041761  0.039743628   -2.1403976   0.73622157   424551 
 1618000   0.61434013   -2.1411001   -2.1411001   -1.4042105  0.038983425   -2.1411001   0.73688951   424551 
 1619000   0.61447787   -2.1409874   -2.1409874   -1.4039327  0.041375506   -2.1409874   0.73705473   424551 
 1620000   0.61437303   -2.1408819   -2.1408819   -1.4039529  0.041299068   -2.1408819   0.73692898   424551 
 1621000   0.61451986      -2.1409      -2.1409   -1.4037949  0.037925772      -2.1409    0.7371051   424551 
 1622000   0.61541873   -2.1411428   -2.1411428   -1.4029595   0.03752801   -2.1411428   0.73818327   424551 
 1623000   0.61471031   -2.1403883   -2.1403883   -1.4030548  0.050600525   -2.1403883   0.73733354   424551 
 1624000   0.61463673   -2.1405921   -2.1405921   -1.4033468  0.045288834   -2.1405921   0.73724529   424551 
 1625000   0.61485461   -2.1406653   -2.1406653   -1.4031586  0.043175242   -2.1406653   0.73750663   424551 
 1626000   0.61442873   -2.1410995   -2.1410995   -1.4041037  0.037956005   -2.1410995   0.73699579   424551 
 1627000   0.61397604   -2.1405288   -2.1405288    -1.404076  0.046109675   -2.1405288    0.7364528   424551 
 1628000   0.61371204   -2.1402792   -2.1402792   -1.4041431    0.0398245   -2.1402792   0.73613613   424551 
 1629000   0.61473755   -2.1414448   -2.1414448   -1.4040786  0.046371534   -2.1414448   0.73736622   424551 
 1630000   0.61424847   -2.1414785   -2.1414785    -1.404699  0.035643489   -2.1414785   0.73677958   424551 
 1631000   0.61311972   -2.1402813   -2.1402813   -1.4048556  0.048140065   -2.1402813   0.73542567   424551 
 1632000   0.61439257   -2.1422201   -2.1422201   -1.4052677  0.041728524   -2.1422201   0.73695242   424551 
 1633000   0.61355582   -2.1411578   -2.1411578    -1.405209  0.048518795   -2.1411578   0.73594876   424551 
 1634000   0.61337656   -2.1406782   -2.1406782   -1.4049445  0.037845614   -2.1406782   0.73573373   424551 
 1635000   0.61399698   -2.1407776   -2.1407776   -1.4042997   0.04258238   -2.1407776   0.73647792   424551 
 1636000   0.61408386   -2.1410547   -2.1410547   -1.4044726  0.038990217   -2.1410547   0.73658213   424551 
 1637000    0.6151138   -2.1426336   -2.1426336   -1.4048161  0.041822662   -2.1426336   0.73781752   424551 
 1638000   0.61381858   -2.1409864   -2.1409864   -1.4047224  0.038882077   -2.1409864   0.73626393   424551 
 1639000   0.61394898   -2.1420466   -2.1420466   -1.4056263  0.035527769   -2.1420466   0.73642034   424551 
 1640000   0.61492522   -2.1432465   -2.1432465   -1.4056551  0.038539796   -2.1432465   0.73759132   424551 
 1641000   0.61381813   -2.1411955   -2.1411955   -1.4049321  0.042205421   -2.1411955   0.73626339   424551 
 1642000   0.61413001   -2.1423942   -2.1423942   -1.4057567  0.051263706   -2.1423942   0.73663748   424551 
 1643000   0.61330777   -2.1416908   -2.1416908   -1.4060396  0.044779613   -2.1416908   0.73565122   424551 
 1644000   0.61314932   -2.1416394   -2.1416394   -1.4061782   0.04370151   -2.1416394   0.73546116   424551 
 1645000      0.61523   -2.1430502   -2.1430502   -1.4050933  0.047441252   -2.1430502    0.7379569   424551 
 1646000   0.61423564   -2.1429014   -2.1429014   -1.4061373  0.046430569   -2.1429014   0.73676419   424551 
 1647000   0.61418886   -2.1431242   -2.1431242   -1.4064162  0.038314349   -2.1431242   0.73670807   424551 
 1648000   0.61580667   -2.1450068   -2.1450068   -1.4063582   0.04153769   -2.1450068    0.7386486   424551 
 1649000   0.61458069    -2.143598    -2.143598   -1.4064199  0.044790403    -2.143598   0.73717806   424551 
 1650000   0.61545879   -2.1453912   -2.1453912   -1.4071599  0.046593571   -2.1453912   0.73823134   424551 
 1651000   0.61291939   -2.1436841   -2.1436841   -1.4084988  0.046771136   -2.1436841   0.73518537   424551 
 1652000   0.61386523   -2.1440264   -2.1440264   -1.4077065  0.039139134   -2.1440264   0.73631988   424551 
 1653000   0.61417486   -2.1446767   -2.1446767   -1.4079855  0.048254863   -2.1446767   0.73669127   424551 
 1654000   0.61423773   -2.1441758   -2.1441758   -1.4074091  0.040539634   -2.1441758    0.7367667   424551 
 1655000   0.61319534    -2.143545    -2.143545   -1.4080286  0.052588828    -2.143545   0.73551636   424551 
 1656000   0.61285831   -2.1433027   -2.1433027   -1.4081906  0.043339774   -2.1433027    0.7351121   424551 
 1657000   0.61298159   -2.1430617   -2.1430617   -1.4078017  0.045777509   -2.1430617   0.73525998   424551 
 1658000   0.61326186   -2.1431423   -2.1431423   -1.4075462  0.042269126   -2.1431423   0.73559616   424551 
 1659000   0.61223212   -2.1419507   -2.1419507   -1.4075897  0.038101671   -2.1419507     0.734361   424551 
 1660000   0.61426231   -2.1430514   -2.1430514   -1.4062552  0.038287149   -2.1430514   0.73679618   424551 
 1661000   0.61493269   -2.1437917   -2.1437917   -1.4061914  0.039166856   -2.1437917   0.73760028   424551 
 1662000   0.61248438   -2.1424358   -2.1424358   -1.4077722  0.036785576   -2.1424358   0.73466358   424551 
 1663000   0.61440488   -2.1447631   -2.1447631   -1.4077959   0.04256147   -2.1447631   0.73696719   424551 
 1664000   0.61221746   -2.1415228   -2.1415228   -1.4071794   0.03965227   -2.1415228   0.73434342   424551 
 1665000   0.61296353   -2.1422617   -2.1422617   -1.4070234  0.044363839   -2.1422617   0.73523831   424551 
 1666000   0.61313168    -2.142226    -2.142226    -1.406786  0.043670908    -2.142226      0.73544   424551 
 1667000   0.61276992   -2.1417879   -2.1417879   -1.4067818  0.034693712   -2.1417879   0.73500608   424551 
 1668000   0.61208195   -2.1413202   -2.1413202   -1.4071393  0.035222458   -2.1413202   0.73418088   424551 
 1669000   0.61390894   -2.1436143   -2.1436143   -1.4072419  0.040515386   -2.1436143   0.73637232   424551 
 1670000   0.61275994   -2.1422124   -2.1422124   -1.4072182  0.052545096   -2.1422124   0.73499411   424551 
 1671000   0.61270811   -2.1419508   -2.1419508   -1.4070189  0.043127762   -2.1419508   0.73493194   424551 
 1672000   0.61414766   -2.1441942   -2.1441942   -1.4075356  0.033938225   -2.1441942   0.73665865   424551 
 1673000   0.61206107   -2.1420608   -2.1420608    -1.407905  0.044310995   -2.1420608   0.73415583   424551 
 1674000    0.6141639   -2.1446765   -2.1446765   -1.4079984  0.046878772   -2.1446765   0.73667813   424551 
 1675000   0.61458356   -2.1445747   -2.1445747   -1.4073932  0.037442456   -2.1445747   0.73718151   424551 
 1676000   0.61235027   -2.1425623   -2.1425623   -1.4080595  0.039631874   -2.1425623   0.73450272   424551 
 1677000   0.61320606   -2.1439435   -2.1439435   -1.4084142   0.04035107   -2.1439435   0.73552922   424551 
 1678000   0.61267117   -2.1436283   -2.1436283   -1.4087406  0.041098331   -2.1436283   0.73488763   424551 
 1679000   0.61275253   -2.1435685   -2.1435685   -1.4085833  0.037734668   -2.1435685   0.73498522   424551 
 1680000   0.61341304   -2.1447754   -2.1447754   -1.4089979  0.042838144   -2.1447754   0.73577749   424551 
 1681000   0.61255667   -2.1437624   -2.1437624   -1.4090121  0.039995807   -2.1437624   0.73475029   424551 
 1682000   0.61368471   -2.1456255   -2.1456255   -1.4095222     0.039834   -2.1456255   0.73610336   424551 
 1683000   0.61237263   -2.1440914   -2.1440914   -1.4095618   0.04187824   -2.1440914   0.73452954   424551 
 1684000   0.61355489   -2.1450688   -2.1450688   -1.4091212  0.043609145   -2.1450688   0.73594764   424551 
 1685000   0.61436459   -2.1462222   -2.1462222   -1.4093033  0.047393593   -2.1462222   0.73691886   424551 
 1686000   0.61307981   -2.1447092   -2.1447092   -1.4093314  0.045483573   -2.1447092   0.73537778   424551 
 1687000   0.61319829    -2.145267    -2.145267   -1.4097471  0.041752912    -2.145267   0.73551991   424551 
 1688000   0.61292113   -2.1455622   -2.1455622   -1.4103747  0.042917612   -2.1455622   0.73518745   424551 
 1689000    0.6131056   -2.1456803   -2.1456803   -1.4102716  0.038484441   -2.1456803   0.73540872   424551 
 1690000   0.61455906   -2.1475606   -2.1475606   -1.4104085  0.046571291   -2.1475606   0.73715212   424551 
 1691000   0.61475608   -2.1470751   -2.1470751   -1.4096867  0.045461006   -2.1470751   0.73738844   424551 
 1692000   0.61426538   -2.1470362   -2.1470362   -1.4102364  0.043371731   -2.1470362   0.73679985   424551 
 1693000   0.61488612   -2.1477188   -2.1477188   -1.4101744  0.042738114   -2.1477188   0.73754443   424551 
 1694000   0.61463484   -2.1470832   -2.1470832   -1.4098402  0.040585558   -2.1470832   0.73724302   424551 
 1695000    0.6140944   -2.1459751   -2.1459751   -1.4093804  0.043625725   -2.1459751   0.73659477   424551 
 1696000    0.6142795   -2.1466096   -2.1466096   -1.4097928  0.044697518   -2.1466096   0.73681679   424551 
 1697000   0.61409945   -2.1462881   -2.1462881   -1.4096873  0.043440641   -2.1462881   0.73660083   424551 
 1698000    0.6147209   -2.1474509   -2.1474509   -1.4101047  0.044880403   -2.1474509   0.73734625   424551 
 1699000   0.61416005   -2.1473584   -2.1473584   -1.4106849  0.043537863   -2.1473584   0.73667351   424551 
 1700000   0.61317392   -2.1464688   -2.1464688   -1.4109781  0.039734594   -2.1464688   0.73549067   424551 
 1701000   0.61159213   -2.1456065   -2.1456065   -1.4120131   0.04534861   -2.1456065   0.73359334   424551 
 1702000   0.61270365   -2.1463756   -2.1463756    -1.411449  0.041836838   -2.1463756   0.73492659   424551 
 1703000   0.61240119   -2.1464235   -2.1464235   -1.4118597  0.043650024   -2.1464235   0.73456379   424551 
 1704000   0.61300489   -2.1473311   -2.1473311   -1.4120432  0.041587917   -2.1473311   0.73528792   424551 
 1705000   0.61340995    -2.147499    -2.147499   -1.4117252   0.04700913    -2.147499   0.73577378   424551 
 1706000   0.61209186   -2.1461904   -2.1461904   -1.4119976  0.029653497   -2.1461904   0.73419276   424551 
 1707000   0.61213603   -2.1459321   -2.1459321   -1.4116864  0.036748033   -2.1459321   0.73424574   424551 
 1708000   0.61303003   -2.1464628   -2.1464628   -1.4111447  0.042624806   -2.1464628   0.73531808   424551 
 1709000   0.61228297   -2.1454538   -2.1454538   -1.4110318  0.038988102   -2.1454538   0.73442199   424551 
 1710000   0.61285979   -2.1460127   -2.1460127   -1.4108988  0.049023643   -2.1460127   0.73511387   424551 
 1711000   0.61304339   -2.1465836   -2.1465836   -1.4112495  0.041449994   -2.1465836    0.7353341   424551 
 1712000   0.61340376   -2.1471546   -2.1471546   -1.4113882  0.035503784   -2.1471546   0.73576636   424551 
 1713000   0.61235251   -2.1464581   -2.1464581   -1.4119527  0.042854914   -2.1464581   0.73450541   424551 
 1714000   0.61323465   -2.1476673   -2.1476673   -1.4121038  0.046784726   -2.1476673   0.73556352   424551 
 1715000   0.61231573   -2.1470105   -2.1470105   -1.4125492   0.03650066   -2.1470105   0.73446129   424551 
 1716000   0.61216884   -2.1462411   -2.1462411    -1.411956  0.037700786   -2.1462411   0.73428509   424551 
 1717000   0.61302626   -2.1477447   -2.1477447   -1.4124311  0.034321278   -2.1477447   0.73531356   424551 
 1718000   0.61171837   -2.1461336   -2.1461336   -1.4123889   0.04390032   -2.1461336   0.73374477   424551 
 1719000   0.61260344   -2.1479634   -2.1479634    -1.413157  0.043216812   -2.1479634   0.73480639   424551 
 1720000   0.61237637   -2.1481255   -2.1481255   -1.4135915  0.041581214   -2.1481255   0.73453402   424551 
 1721000   0.61306542   -2.1482053   -2.1482053   -1.4128447  0.042612167   -2.1482053   0.73536052   424551 
 1722000   0.61381125   -2.1483836   -2.1483836   -1.4121284  0.041635506   -2.1483836   0.73625513   424551 
 1723000   0.61339679   -2.1485205   -2.1485205   -1.4127625  0.034649712   -2.1485205   0.73575799   424551 
 1724000   0.61433704    -2.148917    -2.148917   -1.4120312  0.040702242    -2.148917   0.73688581   424551 
 1725000   0.61347137   -2.1486011   -2.1486011   -1.4127536  0.044896268   -2.1486011   0.73584745   424551 
 1726000   0.61317193   -2.1475012   -2.1475012   -1.4120129  0.040629967   -2.1475012   0.73548829   424551 
 1727000   0.61299652   -2.1473984   -2.1473984   -1.4121205  0.045474488   -2.1473984   0.73527788   424551 
 1728000   0.61294718   -2.1471401   -2.1471401   -1.4119214  0.041935831   -2.1471401    0.7352187   424551 
 1729000   0.61400782   -2.1483213   -2.1483213   -1.4118304  0.040968316   -2.1483213   0.73649092   424551 
 1730000   0.61407388   -2.1480052   -2.1480052    -1.411435  0.037093125   -2.1480052   0.73657016   424551 
 1731000   0.61296248   -2.1469323   -2.1469323   -1.4116952   0.04674459   -2.1469323   0.73523705   424551 
 1732000   0.61346457   -2.1478865   -2.1478865   -1.4120472   0.04313949   -2.1478865    0.7358393   424551 
 1733000   0.61265643   -2.1465737   -2.1465737   -1.4117038  0.043144572   -2.1465737   0.73486995   424551 
 1734000   0.61313065   -2.1471635   -2.1471635   -1.4117247  0.037546575   -2.1471635   0.73543877   424551 
 1735000   0.61213515   -2.1463887   -2.1463887    -1.412144   0.04069585   -2.1463887   0.73424469   424551 
 1736000   0.61292078   -2.1472317   -2.1472317   -1.4120447   0.04305123   -2.1472317   0.73518704   424551 
 1737000   0.61364271   -2.1473739   -2.1473739    -1.411321  0.046543956   -2.1473739   0.73605297   424551 
 1738000   0.61355687   -2.1478445   -2.1478445   -1.4118945  0.043887753   -2.1478445   0.73595001   424551 
 1739000   0.61310922   -2.1485055   -2.1485055   -1.4130924  0.043887301   -2.1485055   0.73541307   424551 
 1740000   0.61127667     -2.14585     -2.14585    -1.412635  0.045906643     -2.14585   0.73321496   424551 
 1741000   0.61285075   -2.1471138   -2.1471138   -1.4120108  0.044645006   -2.1471138   0.73510303   424551 
 1742000   0.61266569   -2.1464755   -2.1464755   -1.4115944  0.047082899   -2.1464755   0.73488106   424551 
 1743000    0.6128496   -2.1472557   -2.1472557    -1.412154  0.041429393   -2.1472557   0.73510166   424551 
 1744000   0.61269908   -2.1469589   -2.1469589   -1.4120378   0.04128674   -2.1469589   0.73492111   424551 
 1745000   0.61438431   -2.1488894   -2.1488894   -1.4119469  0.045703349   -2.1488894   0.73694252   424551 
 1746000   0.61441433   -2.1494715   -2.1494715   -1.4124929  0.039954928   -2.1494715   0.73697852   424551 
 1747000   0.61319184   -2.1483155   -2.1483155   -1.4128034  0.039952407   -2.1483155   0.73551216   424551 
 1748000   0.61240321   -2.1477434   -2.1477434   -1.4131772  0.034479158   -2.1477434   0.73456622   424551 
 1749000   0.61275308   -2.1479296   -2.1479296   -1.4129437  0.038234017   -2.1479296   0.73498589   424551 
 1750000   0.61256254   -2.1480502   -2.1480502   -1.4132928  0.037860306   -2.1480502   0.73475733   424551 
 1751000   0.61298725    -2.148767    -2.148767   -1.4135003  0.045100284    -2.148767   0.73526677   424551 
 1752000   0.61256918   -2.1484521   -2.1484521   -1.4136868  0.038866915   -2.1484521    0.7347653   424551 
 1753000   0.61214482   -2.1480301   -2.1480301   -1.4137738  0.043522586   -2.1480301   0.73425629   424551 
 1754000   0.61233227   -2.1477316   -2.1477316   -1.4132505   0.04207763   -2.1477316   0.73448112   424551 
 1755000   0.61327753   -2.1489445   -2.1489445   -1.4133295  0.037805889   -2.1489445   0.73561495   424551 
 1756000   0.61341808   -2.1487863   -2.1487863   -1.4130028  0.041403118   -2.1487863   0.73578354   424551 
 1757000   0.61323205   -2.1490117   -2.1490117   -1.4134513   0.04471131   -2.1490117    0.7355604   424551 
 1758000     0.612869   -2.1484925   -2.1484925   -1.4133676  0.044529098   -2.1484925   0.73512493   424551 
 1759000   0.61421769   -2.1497534   -2.1497534   -1.4130107  0.039128584   -2.1497534   0.73674266   424551 
 1760000   0.61377802   -2.1484733   -2.1484733    -1.412258  0.040791994   -2.1484733   0.73621527   424551 
 1761000   0.61322618   -2.1474718   -2.1474718   -1.4119184  0.042729552   -2.1474718   0.73555336   424551 
 1762000   0.61299581   -2.1475846   -2.1475846   -1.4123075  0.044776513   -2.1475846   0.73527703   424551 
 1763000   0.61222968   -2.1468272   -2.1468272   -1.4124691  0.045517359   -2.1468272   0.73435807   424551 
 1764000   0.61270298   -2.1476853   -2.1476853   -1.4127595  0.044745653   -2.1476853   0.73492579   424551 
 1765000   0.61359456   -2.1481522   -2.1481522    -1.412157  0.037908037   -2.1481522   0.73599522   424551 
 1766000   0.61285042   -2.1471224   -2.1471224   -1.4120197  0.043758913   -2.1471224   0.73510264   424551 
 1767000   0.61281404   -2.1471691   -2.1471691   -1.4121101  0.039714347   -2.1471691     0.735059   424551 
 1768000   0.61305643   -2.1474174   -2.1474174   -1.4120677  0.036554973   -2.1474174   0.73534975   424551 
 1769000   0.61211552   -2.1461103   -2.1461103   -1.4118891    0.0375678   -2.1461103   0.73422114   424551 
 1770000    0.6119717   -2.1457807   -2.1457807   -1.4117321  0.044153053   -2.1457807   0.73404863   424551 
 1771000   0.61381626   -2.1471624   -2.1471624   -1.4109013  0.039340384   -2.1471624   0.73626115   424551 
 1772000   0.61354098   -2.1480155   -2.1480155   -1.4120845  0.034966796   -2.1480155   0.73593095   424551 
 1773000   0.61278239   -2.1467754   -2.1467754   -1.4117543  0.040964679   -2.1467754   0.73502104   424551 
 1774000   0.61198716   -2.1463821   -2.1463821   -1.4123149   0.03592579   -2.1463821   0.73406717   424551 
 1775000   0.61276615   -2.1476623   -2.1476623   -1.4126608  0.037010569   -2.1476623   0.73500156   424551 
 1776000   0.61248945   -2.1469278   -2.1469278   -1.4122581  0.043095656   -2.1469278   0.73466967   424551 
 1777000   0.61311838   -2.1481102   -2.1481102   -1.4126862   0.03472968   -2.1481102   0.73542405   424551 
 1778000    0.6132989   -2.1484492   -2.1484492   -1.4128086  0.039369966   -2.1484492   0.73564059   424551 
 1779000   0.61350533   -2.1489459   -2.1489459   -1.4130577  0.047159921   -2.1489459    0.7358882   424551 
 1780000    0.6134706   -2.1492093   -2.1492093   -1.4133627  0.037251176   -2.1492093   0.73584654   424551 
 1781000   0.61361212   -2.1495891   -2.1495891   -1.4135729  0.041164327   -2.1495891   0.73601628   424551 
 1782000   0.61385187   -2.1493504   -2.1493504   -1.4130466  0.046387545   -2.1493504   0.73630386   424551 
 1783000   0.61476246   -2.1498008   -2.1498008   -1.4124047   0.04524512   -2.1498008   0.73739609   424551 
 1784000   0.61394192   -2.1501312   -2.1501312   -1.4137193  0.044347801   -2.1501312   0.73641187   424551 
 1785000   0.61486176   -2.1509625   -2.1509625   -1.4134473  0.040598612   -2.1509625    0.7375152   424551 
 1786000   0.61433897   -2.1502108   -2.1502108   -1.4133226  0.045434081   -2.1502108   0.73688812   424551 
 1787000   0.61399639   -2.1494462   -2.1494462    -1.412969  0.045586696   -2.1494462   0.73647721   424551 
 1788000   0.61554691   -2.1511642   -2.1511642   -1.4128271  0.036842072   -2.1511642   0.73833703   424551 
 1789000   0.61390042   -2.1501262   -2.1501262   -1.4137641  0.048655222   -2.1501262    0.7363621   424551 
 1790000   0.61262897   -2.1482795   -2.1482795   -1.4134425  0.047001986   -2.1482795   0.73483702   424551 
 1791000   0.61345715   -2.1493912   -2.1493912   -1.4135608  0.037472947   -2.1493912    0.7358304   424551 
 1792000   0.61287327   -2.1488264   -2.1488264   -1.4136963  0.040942311   -2.1488264   0.73513005   424551 
 1793000   0.61133986   -2.1475765   -2.1475765   -1.4142858  0.045247757   -2.1475765   0.73329075   424551 
 1794000   0.61205955   -2.1489679   -2.1489679   -1.4148139  0.039727243   -2.1489679     0.734154   424551 
 1795000   0.61241025   -2.1477097   -2.1477097    -1.413135  0.040375572   -2.1477097   0.73457466   424551 
 1796000    0.6130826   -2.1483601   -2.1483601    -1.412979  0.033489437   -2.1483601   0.73538113   424551 
 1797000   0.61226216   -2.1470634   -2.1470634   -1.4126663  0.045389137   -2.1470634   0.73439703   424551 
 1798000   0.61273583   -2.1469305   -2.1469305   -1.4119653  0.040707298   -2.1469305   0.73496519   424551 
 1799000   0.61352449   -2.1479137   -2.1479137   -1.4120025  0.037069097   -2.1479137   0.73591118   424551 
 1800000   0.61376385   -2.1487025   -2.1487025   -1.4125042  0.039095284   -2.1487025   0.73619829   424551 
 1801000   0.61283765   -2.1480019   -2.1480019   -1.4129146  0.038160291   -2.1480019   0.73508732   424551 
 1802000   0.61317123   -2.1484023   -2.1484023   -1.4129149  0.046036604   -2.1484023   0.73548744   424551 
 1803000   0.61253913   -2.1480598   -2.1480598   -1.4133306  0.034033223   -2.1480598   0.73472925   424551 
 1804000   0.61301324   -2.1490968   -2.1490968   -1.4137989   0.04481309   -2.1490968   0.73529793   424551 
 1805000   0.61366079   -2.1507415   -2.1507415   -1.4146668  0.041476448   -2.1507415   0.73607466   424551 
 1806000   0.61251564   -2.1489424   -2.1489424   -1.4142413  0.040064292   -2.1489424   0.73470108   424551 
 1807000   0.61421948   -2.1509726   -2.1509726   -1.4142278   0.03497607   -2.1509726    0.7367448   424551 
 1808000   0.61178713   -2.1491924   -2.1491924   -1.4153651  0.041014614   -2.1491924   0.73382724   424551 
 1809000   0.61204102   -2.1497348   -2.1497348    -1.415603  0.049161168   -2.1497348   0.73413178   424551 
 1810000   0.61455217   -2.1518921   -2.1518921   -1.4147483  0.034114093   -2.1518921   0.73714386   424551 
 1811000   0.61415546   -2.1522847   -2.1522847   -1.4156167  0.035790737   -2.1522847   0.73666801   424551 
 1812000   0.61224741   -2.1507387   -2.1507387   -1.4163594  0.044866792   -2.1507387   0.73437934   424551 
 1813000   0.61300125    -2.151717    -2.151717   -1.4164335  0.041538061    -2.151717   0.73528356   424551 
 1814000   0.61366966   -2.1528655   -2.1528655   -1.4167802   0.04092701   -2.1528655    0.7360853   424551 
 1815000    0.6127771   -2.1524359   -2.1524359   -1.4174212  0.044717423   -2.1524359    0.7350147   424551 
 1816000   0.61243893   -2.1515919   -2.1515919   -1.4169828  0.038601054   -2.1515919   0.73460906   424551 
 1817000   0.61256363   -2.1520206   -2.1520206    -1.417262  0.045968323   -2.1520206   0.73475863   424551 
 1818000   0.61186967   -2.1517441   -2.1517441   -1.4178179  0.041301307   -2.1517441   0.73392624   424551 
 1819000   0.61226012   -2.1521703   -2.1521703   -1.4177757  0.047286231   -2.1521703   0.73439459   424551 
 1820000   0.61318852   -2.1534023   -2.1534023   -1.4178941  0.037451925   -2.1534023   0.73550818   424551 
 1821000   0.61305801    -2.152903    -2.152903   -1.4175513  0.045112901    -2.152903   0.73535164   424551 
 1822000   0.61286901   -2.1534639   -2.1534639   -1.4183389  0.038718232   -2.1534639   0.73512494   424551 
 1823000    0.6131667   -2.1535229   -2.1535229   -1.4180409  0.032656597   -2.1535229   0.73548201   424551 
 1824000   0.61239157   -2.1522577   -2.1522577   -1.4177054  0.041520786   -2.1522577   0.73455225   424551 
 1825000    0.6119669   -2.1521341   -2.1521341   -1.4180913  0.040981151   -2.1521341   0.73404287   424551 
 1826000   0.61237078   -2.1521265   -2.1521265   -1.4175992  0.040916035   -2.1521265   0.73452732   424551 
 1827000   0.61225473   -2.1519771   -2.1519771    -1.417589  0.037036142   -2.1519771   0.73438812   424551 
 1828000   0.61185611   -2.1518013   -2.1518013   -1.4178913  0.044582093   -2.1518013   0.73390999   424551 
 1829000   0.61230877   -2.1514822   -2.1514822   -1.4170293  0.038589259   -2.1514822   0.73445294   424551 
 1830000   0.61132285   -2.1508255   -2.1508255   -1.4175551  0.044491938   -2.1508255   0.73327035   424551 
 1831000   0.61300824   -2.1528231   -2.1528231   -1.4175312   0.03876131   -2.1528231   0.73529195   424551 
 1832000   0.61237337   -2.1516021   -2.1516021   -1.4170716  0.037074515   -2.1516021   0.73453043   424551 
 1833000   0.61240173   -2.1526697   -2.1526697   -1.4181053  0.044605029   -2.1526697   0.73456445   424551 
 1834000   0.61198523    -2.151553    -2.151553   -1.4174882  0.043099912    -2.151553   0.73406486   424551 
 1835000   0.61177497   -2.1508619   -2.1508619   -1.4170493   0.04002488   -2.1508619   0.73381266   424551 
 1836000   0.61192834   -2.1503975   -2.1503975   -1.4164009  0.041491806   -2.1503975   0.73399662   424551 
 1837000   0.61274745   -2.1516001   -2.1516001   -1.4166209  0.039688124   -2.1516001   0.73497913   424551 
 1838000    0.6129912   -2.1518417   -2.1518417   -1.4165702  0.040052221   -2.1518417    0.7352715   424551 
 1839000   0.61173766   -2.1506625   -2.1506625   -1.4168946  0.038929588   -2.1506625   0.73376791   424551 
 1840000   0.61242125   -2.1510927   -2.1510927   -1.4165048    0.0401163   -2.1510927   0.73458786   424551 
 1841000   0.61304325   -2.1519229   -2.1519229   -1.4165889  0.031701602   -2.1519229   0.73533393   424551 
 1842000   0.61346584   -2.1522417   -2.1522417   -1.4164008  0.035795745   -2.1522417   0.73584083   424551 
 1843000   0.61177998   -2.1503888   -2.1503888   -1.4165702  0.041558364   -2.1503888   0.73381867   424551 
 1844000   0.61254748   -2.1520667   -2.1520667   -1.4173274  0.040906321   -2.1520667   0.73473927   424551 
 1845000   0.61259273   -2.1524354   -2.1524354   -1.4176419  0.035190768   -2.1524354   0.73479355   424551 
 1846000   0.61226731   -2.1522168   -2.1522168   -1.4178136    0.0449427   -2.1522168   0.73440321   424551 
 1847000   0.61304005   -2.1525337   -2.1525337   -1.4172036  0.049573813   -2.1525337   0.73533009   424551 
 1848000   0.61329394   -2.1521648   -2.1521648   -1.4165301  0.037181634   -2.1521648   0.73563464   424551 
 1849000   0.61297916   -2.1520825   -2.1520825   -1.4168254  0.047362147   -2.1520825   0.73525706   424551 
 1850000   0.61328491   -2.1534235   -2.1534235   -1.4177997  0.039647207   -2.1534235   0.73562381   424551 
 1851000    0.6130751   -2.1530876   -2.1530876   -1.4177155   0.04264886   -2.1530876   0.73537214   424551 
 1852000   0.61277123   -2.1535328   -2.1535328   -1.4185251  0.033421371   -2.1535328   0.73500765   424551 
 1853000   0.61213347   -2.1532095   -2.1532095   -1.4189669   0.03077507   -2.1532095   0.73424267   424551 
 1854000   0.61293542   -2.1528757   -2.1528757   -1.4176711  0.039870312   -2.1528757    0.7352046   424551 
 1855000   0.61230412   -2.1527037   -2.1527037   -1.4182563  0.037145278   -2.1527037   0.73444736   424551 
 1856000   0.61280197   -2.1532986   -2.1532986   -1.4182541  0.036287819   -2.1532986   0.73504453   424551 
 1857000   0.61181055   -2.1520773   -2.1520773    -1.418222  0.044175931   -2.1520773   0.73385534   424551 
 1858000   0.61229634   -2.1525101   -2.1525101   -1.4180721  0.047486512   -2.1525101   0.73443803   424551 
 1859000   0.61194642   -2.1519132   -2.1519132   -1.4178948   0.03938513   -2.1519132   0.73401831   424551 
 1860000   0.61103127   -2.1511999   -2.1511999   -1.4182793  0.041385299   -2.1511999    0.7329206   424551 
 1861000   0.61286667   -2.1534348   -2.1534348   -1.4183127  0.036517915   -2.1534348   0.73512213   424551 
 1862000    0.6121662   -2.1523165   -2.1523165   -1.4180345  0.047537727   -2.1523165   0.73428193   424551 
 1863000   0.61218012   -2.1530278   -2.1530278   -1.4187292   0.04003433   -2.1530278   0.73429862   424551 
 1864000   0.61155697   -2.1521274   -2.1521274   -1.4185763   0.03956052   -2.1521274   0.73355117   424551 
 1865000   0.61107585   -2.1517176   -2.1517176   -1.4187435  0.045540934   -2.1517176   0.73297407   424551 
 1866000   0.61150897   -2.1513454   -2.1513454   -1.4178518  0.041426021   -2.1513454    0.7334936   424551 
 1867000   0.61194766   -2.1517353   -2.1517353   -1.4177155   0.04708047   -2.1517353    0.7340198   424551 
 1868000   0.61151243   -2.1516174   -2.1516174   -1.4181197  0.038182904   -2.1516174   0.73349774   424551 
 1869000   0.61166168   -2.1515002   -2.1515002   -1.4178234  0.042311376   -2.1515002   0.73367677   424551 
 1870000   0.61296928   -2.1530206   -2.1530206   -1.4177754   0.03959191   -2.1530206    0.7352452   424551 
 1871000   0.61304626   -2.1529786   -2.1529786    -1.417641  0.042166147   -2.1529786   0.73533754   424551 
 1872000   0.61159452   -2.1518778   -2.1518778   -1.4182816   0.04197894   -2.1518778   0.73359621   424551 
 1873000   0.61347497   -2.1542414   -2.1542414   -1.4183896  0.040251326   -2.1542414   0.73585177   424551 
 1874000   0.61241715   -2.1528927   -2.1528927   -1.4183097  0.042986446   -2.1528927   0.73458294   424551 
 1875000   0.61329498   -2.1536152   -2.1536152   -1.4179793  0.036718329   -2.1536152   0.73563589   424551 
 1876000   0.61265183   -2.1530841   -2.1530841   -1.4182197  0.041360697   -2.1530841   0.73486444   424551 
 1877000    0.6116908   -2.1530299   -2.1530299   -1.4193183  0.036966656   -2.1530299    0.7337117   424551 
 1878000   0.61235002   -2.1541815   -2.1541815   -1.4196791  0.036140674   -2.1541815   0.73450242   424551 
 1879000   0.61325071   -2.1539715   -2.1539715   -1.4183887  0.036806685   -2.1539715   0.73558278   424551 
 1880000   0.61181386   -2.1529254   -2.1529254   -1.4190661   0.03812585   -2.1529254   0.73385931   424551 
 1881000   0.61072343    -2.151915    -2.151915   -1.4193636  0.042427163    -2.151915   0.73255136   424551 
 1882000   0.61077724    -2.152577    -2.152577   -1.4199611  0.036168474    -2.152577    0.7326159   424551 
 1883000   0.61159647   -2.1535184   -2.1535184   -1.4199199  0.046868469   -2.1535184   0.73359855   424551 
 1884000    0.6118551   -2.1533709   -2.1533709   -1.4194621  0.038508644   -2.1533709   0.73390877   424551 
 1885000   0.61117103   -2.1523575   -2.1523575   -1.4192693  0.036115139   -2.1523575   0.73308824   424551 
 1886000   0.61110222   -2.1529203   -2.1529203   -1.4199146  0.036568109   -2.1529203    0.7330057   424551 
 1887000   0.61207734   -2.1533908   -2.1533908   -1.4192155   0.03893669   -2.1533908   0.73417534   424551 
 1888000   0.61274974   -2.1541882   -2.1541882   -1.4192064  0.039958883   -2.1541882   0.73498187   424551 
 1889000   0.61136388   -2.1536847   -2.1536847   -1.4203652  0.042175198   -2.1536847   0.73331956   424551 
 1890000   0.61195469   -2.1545418   -2.1545418   -1.4205136  0.041225163   -2.1545418   0.73402823   424551 
 1891000   0.61109444   -2.1535333   -2.1535333    -1.420537  0.043907291   -2.1535333   0.73299637   424551 
 1892000    0.6130235   -2.1554232   -2.1554232   -1.4201129  0.041538348   -2.1554232   0.73531024   424551 
 1893000   0.61226112   -2.1547817   -2.1547817   -1.4203859  0.040760081   -2.1547817   0.73439579   424551 
 1894000   0.61314157   -2.1556397   -2.1556397   -1.4201879  0.033049165   -2.1556397   0.73545186   424551 
 1895000   0.61327731   -2.1551608   -2.1551608   -1.4195461  0.047126821   -2.1551608   0.73561468   424551 
 1896000   0.61224303   -2.1544324   -2.1544324   -1.4200583  0.046519734   -2.1544324   0.73437408   424551 
 1897000   0.61345325   -2.1557881   -2.1557881   -1.4199624  0.047719783   -2.1557881   0.73582572   424551 
 1898000   0.61387061   -2.1566295   -2.1566295   -1.4203031  0.047783573   -2.1566295   0.73632634   424551 
 1899000    0.6120042   -2.1552764   -2.1552764   -1.4211887  0.046216806   -2.1552764   0.73408761   424551 
 1900000   0.61253387   -2.1563128   -2.1563128   -1.4215899  0.041698261   -2.1563128   0.73472294   424551 
 1901000    0.6118656   -2.1556414   -2.1556414   -1.4217201  0.035618993   -2.1556414   0.73392137   424551 
 1902000   0.61253448   -2.1564867   -2.1564867   -1.4217631  0.045561864   -2.1564867   0.73472367   424551 
 1903000   0.61196814   -2.1563569   -2.1563569   -1.4223125  0.041800727   -2.1563569   0.73404436   424551 
 1904000   0.61241373   -2.1562086   -2.1562086   -1.4216297  0.036219501   -2.1562086   0.73457883   424551 
 1905000   0.61109894   -2.1546297   -2.1546297    -1.421628  0.033492365   -2.1546297   0.73300178   424551 
 1906000   0.61319267   -2.1570147   -2.1570147   -1.4215015  0.042012415   -2.1570147   0.73551316   424551 
 1907000   0.61194493   -2.1570945   -2.1570945    -1.423078  0.038473698   -2.1570945   0.73401652   424551 
 1908000   0.61141792   -2.1560892   -2.1560892   -1.4227048  0.043819124   -2.1560892   0.73338439   424551 
 1909000   0.61113415   -2.1555175   -2.1555175   -1.4224735  0.035793035   -2.1555175   0.73304401   424551 
 1910000   0.61264262   -2.1563834   -2.1563834     -1.42153  0.045592583   -2.1563834   0.73485339   424551 
 1911000    0.6121591   -2.1556436   -2.1556436   -1.4213702  0.040080418   -2.1556436   0.73427341   424551 
 1912000   0.61221867   -2.1552324   -2.1552324   -1.4208876  0.037537064   -2.1552324   0.73434487   424551 
 1913000   0.61297585   -2.1566096   -2.1566096   -1.4213565  0.042597885   -2.1566096   0.73525309   424551 
 1914000   0.61252935   -2.1559047   -2.1559047   -1.4211872  0.046326971   -2.1559047   0.73471752   424551 
 1915000   0.61309454   -2.1563571   -2.1563571   -1.4209616  0.042781794   -2.1563571   0.73539545   424551 
 1916000   0.61254058   -2.1557078   -2.1557078   -1.4209768   0.04414333   -2.1557078   0.73473099   424551 
 1917000   0.61333787   -2.1568561   -2.1568561   -1.4211688    0.0423575   -2.1568561   0.73568733   424551 
 1918000   0.61180556   -2.1553929   -2.1553929   -1.4215436  0.041519081   -2.1553929   0.73384935   424551 
 1919000   0.61151148   -2.1547093   -2.1547093   -1.4212127   0.04249507   -2.1547093   0.73349661   424551 
 1920000   0.61189497   -2.1549929   -2.1549929   -1.4210363  0.045394089   -2.1549929    0.7339566   424551 
 1921000   0.61048297   -2.1530475   -2.1530475   -1.4207846  0.044175122   -2.1530475   0.73226293   424551 
 1922000   0.61058151   -2.1533866   -2.1533866   -1.4210055  0.040535826   -2.1533866   0.73238112   424551 
 1923000   0.61209274   -2.1545531   -2.1545531   -1.4203593  0.038111187   -2.1545531   0.73419382   424551 
 1924000   0.61124645   -2.1534113   -2.1534113   -1.4202326  0.049084256   -2.1534113   0.73317871   424551 
 1925000   0.61141282   -2.1538219   -2.1538219   -1.4204436  0.050106496   -2.1538219   0.73337826   424551 
 1926000   0.61265766   -2.1545944   -2.1545944    -1.419723  0.037845416   -2.1545944   0.73487143   424551 
 1927000   0.61243312   -2.1548473   -2.1548473   -1.4202452  0.042268478   -2.1548473    0.7346021   424551 
 1928000   0.61166611   -2.1541297   -2.1541297   -1.4204476  0.042828345   -2.1541297   0.73368208   424551 
 1929000   0.61254217   -2.1559975   -2.1559975   -1.4212646  0.041943385   -2.1559975    0.7347329   424551 
 1930000   0.61235744   -2.1552745   -2.1552745   -1.4207632  0.042268654   -2.1552745   0.73451132   424551 
 1931000   0.61317181   -2.1565204   -2.1565204   -1.4210322  0.033499769   -2.1565204   0.73548815   424551 
 1932000   0.61230428   -2.1552785   -2.1552785   -1.4208309  0.041483806   -2.1552785   0.73444756   424551 
 1933000   0.61315122   -2.1559432   -2.1559432   -1.4204798  0.035056439   -2.1559432   0.73546344   424551 
 1934000   0.61246272   -2.1559818   -2.1559818   -1.4213442   0.03757872   -2.1559818    0.7346376   424551 
 1935000   0.61317443   -2.1570009   -2.1570009   -1.4215097  0.031698639   -2.1570009   0.73549128   424551 
 1936000   0.61234672   -2.1561859   -2.1561859   -1.4216875  0.036560424   -2.1561859   0.73449847   424551 
 1937000   0.61247642   -2.1567094   -2.1567094   -1.4220554  0.041220523   -2.1567094   0.73465404   424551 
 1938000   0.61227392   -2.1571454   -2.1571454   -1.4227343  0.044426869   -2.1571454   0.73441114   424551 
 1939000   0.61216257   -2.1566195   -2.1566195   -1.4223419  0.039275462   -2.1566195   0.73427758   424551 
 1940000   0.61109168   -2.1555191   -2.1555191    -1.422526  0.042079683   -2.1555191   0.73299306   424551 
 1941000   0.61323423   -2.1577486   -2.1577486   -1.4221856   0.03875873   -2.1577486   0.73556301   424551 
 1942000   0.61229538    -2.157801    -2.157801   -1.4233641  0.033500279    -2.157801   0.73443688   424551 
 1943000   0.61215143   -2.1569129   -2.1569129   -1.4226487  0.039453989   -2.1569129   0.73426421   424551 
 1944000   0.61194837   -2.1574392   -2.1574392   -1.4234186  0.038781647   -2.1574392   0.73402064   424551 
 1945000   0.61245577   -2.1584304   -2.1584304   -1.4238011  0.040325609   -2.1584304   0.73462927   424551 
 1946000   0.61255828   -2.1586138   -2.1586138   -1.4238616  0.033373364   -2.1586138   0.73475222   424551 
 1947000   0.61296812   -2.1587796   -2.1587796   -1.4235358  0.039952711   -2.1587796   0.73524382   424551 
 1948000   0.61300644   -2.1589695   -2.1589695   -1.4236798  0.041497679   -2.1589695   0.73528978   424551 
 1949000   0.61422476   -2.1599204   -2.1599204   -1.4231693  0.047073137   -2.1599204   0.73675113   424551 
 1950000   0.61268971   -2.1581276   -2.1581276   -1.4232177  0.041129866   -2.1581276   0.73490987   424551 
 1951000   0.61300476   -2.1584675   -2.1584675   -1.4231797  0.039298626   -2.1584675   0.73528777   424551 
 1952000   0.61366615   -2.1599723   -2.1599723   -1.4238913  0.043305547   -2.1599723   0.73608109   424551 
 1953000    0.6130011   -2.1591257   -2.1591257   -1.4238423  0.049139646   -2.1591257   0.73528338   424551 
 1954000   0.61193511   -2.1585487   -2.1585487    -1.424544  0.040870059   -2.1585487   0.73400474   424551 
 1955000   0.61236498   -2.1588244   -2.1588244    -1.424304  0.041388631   -2.1588244   0.73452036   424551 
 1956000    0.6121675   -2.1585469   -2.1585469   -1.4242634  0.045271867   -2.1585469   0.73428349   424551 
 1957000   0.61363229   -2.1587891   -2.1587891   -1.4227486  0.045212209   -2.1587891   0.73604047   424551 
 1958000   0.61398111   -2.1597184   -2.1597184   -1.4232595  0.045618189   -2.1597184   0.73645889   424551 
 1959000   0.61237552   -2.1581242   -2.1581242   -1.4235911  0.042237371   -2.1581242   0.73453301   424551 
 1960000   0.61193778   -2.1579597   -2.1579597   -1.4239517  0.045705288   -2.1579597   0.73400795   424551 
 1961000   0.61131372   -2.1565939   -2.1565939   -1.4233345  0.045980038   -2.1565939   0.73325939   424551 
 1962000   0.61033126   -2.1566124   -2.1566124   -1.4245314  0.043027361   -2.1566124   0.73208096   424551 
 1963000   0.61036296   -2.1562107   -2.1562107   -1.4240917  0.031882143   -2.1562107   0.73211897   424551 
 1964000   0.60944228   -2.1550779   -2.1550779   -1.4240633  0.040948175   -2.1550779   0.73101464   424551 
 1965000    0.6095026   -2.1559136   -2.1559136   -1.4248266  0.038612037   -2.1559136     0.731087   424551 
 1966000   0.60991701   -2.1561775   -2.1561775   -1.4245934  0.043980092   -2.1561775   0.73158407   424551 
 1967000   0.61073651    -2.157412    -2.157412   -1.4248449  0.041535059    -2.157412   0.73256704   424551 
 1968000   0.61057452   -2.1569069   -2.1569069   -1.4245342  0.041517974   -2.1569069   0.73237274   424551 
 1969000   0.61087494   -2.1570878   -2.1570878   -1.4243547  0.045280093   -2.1570878   0.73273308   424551 
 1970000   0.61049895   -2.1562698   -2.1562698   -1.4239877  0.039334424   -2.1562698   0.73228209   424551 
 1971000   0.61136213   -2.1574755   -2.1574755   -1.4241581  0.038480337   -2.1574755   0.73331746   424551 
 1972000   0.61180279   -2.1578228   -2.1578228   -1.4239768  0.046090836   -2.1578228   0.73384603   424551 
 1973000   0.61253793   -2.1588123   -2.1588123   -1.4240845  0.041215165   -2.1588123   0.73472781   424551 
 1974000   0.61176774   -2.1587501   -2.1587501   -1.4249461  0.041117412   -2.1587501   0.73380398   424551 
 1975000   0.61197579   -2.1599045   -2.1599045    -1.425851  0.038657475   -2.1599045   0.73405354   424551 
 1976000   0.61137601   -2.1599834   -2.1599834   -1.4266493   0.04537362   -2.1599834   0.73333411   424551 
 1977000   0.61155743   -2.1599085   -2.1599085   -1.4263567  0.046045832   -2.1599085   0.73355173   424551 
 1978000   0.61079424   -2.1592433   -2.1592433    -1.426607  0.035887799   -2.1592433   0.73263629   424551 
 1979000   0.61138136   -2.1602231   -2.1602231   -1.4268826  0.041312897   -2.1602231   0.73334053   424551 
 1980000   0.61179588    -2.160011    -2.160011   -1.4261732  0.044397471    -2.160011   0.73383774   424551 
 1981000   0.61098494   -2.1592226   -2.1592226   -1.4263576  0.042403762   -2.1592226   0.73286503   424551 
 1982000   0.61106777   -2.1602613   -2.1602613   -1.4272969  0.050732954   -2.1602613   0.73296438   424551 
 1983000   0.61194058   -2.1618993   -2.1618993    -1.427888  0.044765617   -2.1618993   0.73401131   424551 
 1984000   0.61082491   -2.1606723   -2.1606723   -1.4279992  0.043674843   -2.1606723   0.73267308   424551 
 1985000    0.6107765   -2.1600927   -2.1600927   -1.4274777  0.042341816   -2.1600927   0.73261501   424551 
 1986000    0.6109136   -2.1602648   -2.1602648   -1.4274854  0.041165897   -2.1602648   0.73277946   424551 
 1987000    0.6120222   -2.1615744   -2.1615744   -1.4274652  0.043120941   -2.1615744    0.7341092   424551 
 1988000   0.60993072   -2.1590344   -2.1590344   -1.4274339   0.04319098   -2.1590344   0.73160051   424551 
 1989000   0.61100429    -2.160414    -2.160414   -1.4275258  0.044330984    -2.160414   0.73288825   424551 
 1990000   0.61107576   -2.1603889   -2.1603889   -1.4274149  0.040113563   -2.1603889   0.73297397   424551 
 1991000   0.61150635   -2.1604094   -2.1604094   -1.4269189  0.041215543   -2.1604094   0.73349045   424551 
 1992000   0.61173561   -2.1604542   -2.1604542   -1.4266887  0.037013069   -2.1604542   0.73376545   424551 
 1993000   0.61102427   -2.1600309   -2.1600309   -1.4271187  0.039778686   -2.1600309   0.73291221   424551 
 1994000   0.61230054   -2.1611643   -2.1611643   -1.4267212  0.041607346   -2.1611643   0.73444307   424551 
 1995000   0.61203776   -2.1609952   -2.1609952   -1.4268673  0.041766089   -2.1609952   0.73412787   424551 
 1996000   0.61099139   -2.1600856   -2.1600856   -1.4272128  0.040435446   -2.1600856   0.73287277   424551 
 1997000   0.61082702   -2.1600581   -2.1600581   -1.4273825  0.043191077   -2.1600581   0.73267561   424551 
 1998000   0.61169407   -2.1607179   -2.1607179   -1.4270023  0.041539737   -2.1607179   0.73371562   424551 
 1999000   0.61123719   -2.1600536   -2.1600536    -1.426886   0.03885756   -2.1600536    0.7331676   424551 
 2000000   0.61080546   -2.1599592   -2.1599592   -1.4273094  0.048690948   -2.1599592   0.73264975   424551 
 2001000   0.61084686   -2.1605572   -2.1605572   -1.4278578  0.034944084   -2.1605572   0.73269941   424551 
 2002000   0.61151404   -2.1604054   -2.1604054   -1.4269057  0.039345773   -2.1604054   0.73349967   424551 
 2003000   0.61113871   -2.1592918   -2.1592918   -1.4262423  0.048353295   -2.1592918   0.73304947   424551 
 2004000    0.6112812   -2.1597242   -2.1597242   -1.4265038  0.031130058   -2.1597242   0.73322038   424551 
 2005000    0.6124265   -2.1603204   -2.1603204   -1.4257262   0.04303118   -2.1603204   0.73459416   424551 
 2006000   0.61162575   -2.1590924   -2.1590924   -1.4254587  0.044763564   -2.1590924   0.73363367   424551 
 2007000   0.61193726   -2.1600159   -2.1600159   -1.4260086  0.028258838   -2.1600159   0.73400732   424551 
 2008000   0.61212443   -2.1603663   -2.1603663   -1.4261345  0.036262294   -2.1603663   0.73423182   424551 
 2009000   0.61182306   -2.1597017   -2.1597017   -1.4258313  0.041197713   -2.1597017   0.73387034   424551 
 2010000   0.61202358   -2.1598993   -2.1598993   -1.4257884  0.039393905   -2.1598993   0.73411086   424551 
 2011000   0.61160609   -2.1598382   -2.1598382   -1.4262281  0.034519115   -2.1598382   0.73361009   424551 
 2012000   0.61137908   -2.1598026   -2.1598026   -1.4264648  0.037083812   -2.1598026    0.7333378   424551 
 2013000   0.61061861   -2.1594606   -2.1594606    -1.427035  0.032561759   -2.1594606   0.73242563   424551 
 2014000   0.60989676   -2.1587338   -2.1587338    -1.427174  0.034302572   -2.1587338   0.73155978   424551 
 2015000   0.61064982   -2.1594994   -2.1594994   -1.4270364   0.03993656   -2.1594994   0.73246306   424551 
 2016000    0.6107663    -2.159619    -2.159619   -1.4270162  0.042349799    -2.159619   0.73260278   424551 
 2017000   0.61168216   -2.1611308   -2.1611308   -1.4274295  0.038363656   -2.1611308   0.73370133   424551 
 2018000   0.61080539   -2.1604597   -2.1604597   -1.4278101  0.037296698   -2.1604597   0.73264966   424551 
 2019000   0.61105797   -2.1604738   -2.1604738   -1.4275212  0.040852816   -2.1604738   0.73295263   424551 
 2020000   0.61165548   -2.1606517   -2.1606517   -1.4269823  0.038320508   -2.1606517   0.73366933   424551 
 2021000   0.61052254   -2.1600056   -2.1600056   -1.4276952  0.043173275   -2.1600056    0.7323104   424551 
 2022000   0.61216121   -2.1620904   -2.1620904   -1.4278144  0.035361857   -2.1620904   0.73427594   424551 
 2023000   0.61211663   -2.1616563   -2.1616563   -1.4274339  0.042033786   -2.1616563   0.73422247   424551 
 2024000   0.61183744   -2.1615904   -2.1615904   -1.4277028  0.041678764   -2.1615904   0.73388759   424551 
 2025000   0.61196866   -2.1625182   -2.1625182   -1.4284732  0.043123652   -2.1625182   0.73404499   424551 
 2026000   0.61078592   -2.1614983   -2.1614983    -1.428872  0.051647244   -2.1614983   0.73262631   424551 
 2027000   0.61067303   -2.1621694   -2.1621694   -1.4296785  0.040081217   -2.1621694    0.7324909   424551 
 2028000    0.6108007   -2.1623435   -2.1623435   -1.4296995  0.036309185   -2.1623435   0.73264404   424551 
 2029000   0.60985209    -2.161779    -2.161779   -1.4302728  0.051409847    -2.161779    0.7315062   424551 
 2030000   0.61152407   -2.1633982   -2.1633982   -1.4298865  0.039601447   -2.1633982    0.7335117   424551 
 2031000   0.60889147   -2.1602745   -2.1602745   -1.4299206  0.043605576   -2.1602745   0.73035395   424551 
 2032000   0.61044899   -2.1617206   -2.1617206   -1.4294985  0.041876974   -2.1617206   0.73222217   424551 
 2033000   0.61133896   -2.1634686   -2.1634686   -1.4301789  0.043716056   -2.1634686   0.73328968   424551 
 2034000   0.61235833   -2.1649715   -2.1649715   -1.4304592  0.036559566   -2.1649715   0.73451238   424551 
 2035000   0.61180731   -2.1634916   -2.1634916   -1.4296401  0.037999037   -2.1634916   0.73385145   424551 
 2036000    0.6116724   -2.1633169   -2.1633169   -1.4296273  0.047560599   -2.1633169   0.73368962   424551 
 2037000   0.61236919   -2.1639003   -2.1639003   -1.4293748  0.044279875   -2.1639003   0.73452542   424551 
 2038000   0.61059322   -2.1618794   -2.1618794   -1.4294842  0.047713323   -2.1618794   0.73239518   424551 
 2039000   0.61164677   -2.1629329   -2.1629329   -1.4292741  0.041625032   -2.1629329   0.73365888   424551 
 2040000   0.61093088   -2.1623391   -2.1623391   -1.4295389    0.0428905   -2.1623391   0.73280019   424551 
 2041000   0.61114836   -2.1629334   -2.1629334   -1.4298724  0.040481227   -2.1629334   0.73306105   424551 
 2042000   0.61148713   -2.1635807   -2.1635807   -1.4301133  0.045052808   -2.1635807    0.7334674   424551 
 2043000   0.61131155   -2.1634368   -2.1634368     -1.43018  0.041734824   -2.1634368   0.73325679   424551 
 2044000   0.61088239   -2.1631845   -2.1631845   -1.4304425  0.033785225   -2.1631845   0.73274202   424551 
 2045000   0.61133159   -2.1632693   -2.1632693   -1.4299884  0.045752562   -2.1632693   0.73328084   424551 
 2046000   0.61084821   -2.1621139   -2.1621139   -1.4294129  0.046579394   -2.1621139   0.73270103   424551 
 2047000   0.61261203    -2.164469    -2.164469   -1.4296524  0.037038894    -2.164469   0.73481669   424551 
 2048000   0.61249439   -2.1638486   -2.1638486    -1.429173  0.045728965   -2.1638486   0.73467559   424551 
 2049000   0.61104641   -2.1622989   -2.1622989   -1.4293601  0.049703101   -2.1622989   0.73293877   424551 
 2050000   0.61064515   -2.1621792   -2.1621792   -1.4297218  0.041915701   -2.1621792   0.73245746   424551 
 2051000   0.61029393    -2.161471    -2.161471   -1.4294348  0.042770999    -2.161471   0.73203618   424551 
 2052000   0.61233669   -2.1638202   -2.1638202   -1.4293338  0.032494078   -2.1638202   0.73448643   424551 
 2053000   0.61042269   -2.1611481   -2.1611481   -1.4289575  0.036588647   -2.1611481   0.73219063   424551 
 2054000   0.61041289    -2.161571    -2.161571   -1.4293921  0.035887121    -2.161571   0.73217886   424551 
 2055000   0.61053356   -2.1616015   -2.1616015   -1.4292779  0.037602934   -2.1616015   0.73232361   424551 
 2056000   0.61104362   -2.1622179   -2.1622179   -1.4292825  0.033647541   -2.1622179   0.73293542   424551 
 2057000   0.61120193   -2.1616661   -2.1616661   -1.4285408  0.043129531   -2.1616661    0.7331253   424551 
 2058000   0.61154445   -2.1621582   -2.1621582    -1.428622  0.036611361   -2.1621582   0.73353615   424551 
 2059000   0.61054536    -2.161583    -2.161583   -1.4292452  0.036842934    -2.161583   0.73233776   424551 
 2060000   0.60983548   -2.1618581   -2.1618581   -1.4303718  0.034065888   -2.1618581   0.73148628   424551 
 2061000   0.61074965   -2.1620999   -2.1620999   -1.4295171  0.040471892   -2.1620999    0.7325828   424551 
 2062000   0.61068047   -2.1616332   -2.1616332   -1.4291333  0.038350821   -2.1616332   0.73249982   424551 
 2063000   0.61141228    -2.162332    -2.162332   -1.4289544  0.046725704    -2.162332   0.73337762   424551 
 2064000   0.61111938   -2.1622906   -2.1622906   -1.4292643  0.043146055   -2.1622906   0.73302629   424551 
 2065000   0.61080817   -2.1616061   -2.1616061   -1.4289531  0.044134785   -2.1616061     0.732653   424551 
 2066000   0.61226327   -2.1641399   -2.1641399   -1.4297416  0.037907928   -2.1641399   0.73439837   424551 
 2067000   0.61142403   -2.1633492   -2.1633492   -1.4299575  0.035903352   -2.1633492   0.73339171   424551 
 2068000   0.61041303   -2.1616114   -2.1616114   -1.4294323  0.042736189   -2.1616114   0.73217903   424551 
 2069000   0.61077698   -2.1612808   -2.1612808   -1.4286652   0.04518618   -2.1612808   0.73261558   424551 
 2070000   0.61179871   -2.1632997   -2.1632997   -1.4294585  0.045386622   -2.1632997   0.73384113   424551 
 2071000   0.60974155   -2.1614948   -2.1614948   -1.4301212  0.033835541   -2.1614948   0.73137361   424551 
 2072000   0.61089349   -2.1633884   -2.1633884   -1.4306331  0.042395616   -2.1633884   0.73275533   424551 
 2073000   0.61185635   -2.1638971   -2.1638971   -1.4299868  0.037554676   -2.1638971   0.73391027   424551 
 2074000   0.61120196   -2.1632154   -2.1632154   -1.4300901  0.045185987   -2.1632154   0.73312535   424551 
 2075000   0.61099579   -2.1643457   -2.1643457   -1.4314677  0.045247483   -2.1643457   0.73287805   424551 
 2076000   0.61132413   -2.1638487   -2.1638487   -1.4305768  0.043403004   -2.1638487   0.73327188   424551 
 2077000   0.61184996    -2.164411    -2.164411   -1.4305084   0.04858165    -2.164411   0.73390261   424551 
 2078000   0.61032832   -2.1628627   -2.1628627   -1.4307853  0.041747425   -2.1628627   0.73207743   424551 
 2079000   0.61142454   -2.1645748   -2.1645748   -1.4311825   0.04204281   -2.1645748   0.73339232   424551 
 2080000   0.61024651   -2.1630631   -2.1630631   -1.4310838  0.035998484   -2.1630631    0.7319793   424551 
 2081000   0.61007409   -2.1630385   -2.1630385   -1.4312661  0.043240502   -2.1630385   0.73177248   424551 
 2082000   0.61006328   -2.1629705   -2.1629705    -1.431211  0.045923793   -2.1629705   0.73175952   424551 
 2083000    0.6094226   -2.1614967   -2.1614967   -1.4305057  0.042312999   -2.1614967   0.73099103   424551 
 2084000   0.61069517    -2.163786    -2.163786   -1.4312686  0.039109559    -2.163786   0.73251745   424551 
 2085000   0.61167102   -2.1642699   -2.1642699   -1.4305819   0.03408848   -2.1642699   0.73368797   424551 
 2086000   0.61036256   -2.1633193   -2.1633193   -1.4312008  0.042197365   -2.1633193    0.7321185   424551 
 2087000   0.61094439   -2.1636339   -2.1636339   -1.4308175  0.043258118   -2.1636339   0.73281639   424551 
 2088000   0.60961223   -2.1625809   -2.1625809   -1.4313624  0.040497769   -2.1625809   0.73121849   424551 
 2089000    0.6099935   -2.1634575   -2.1634575   -1.4317817  0.038693735   -2.1634575   0.73167581   424551 
 2090000   0.61024861   -2.1636441   -2.1636441   -1.4316622  0.034030677   -2.1636441   0.73198182   424551 
 2091000   0.61017812   -2.1638922   -2.1638922    -1.431995  0.037163511   -2.1638922   0.73189727   424551 
 2092000   0.60837976    -2.161456    -2.161456   -1.4317159  0.036003476    -2.161456   0.72974016   424551 
 2093000   0.60962097   -2.1630305   -2.1630305   -1.4318015  0.035119869   -2.1630305   0.73122898   424551 
 2094000   0.61049791   -2.1637263   -2.1637263   -1.4314454  0.039770015   -2.1637263   0.73228085   424551 
 2095000   0.61154221   -2.1635443   -2.1635443   -1.4300109  0.042034439   -2.1635443   0.73353347   424551 
 2096000   0.61107223   -2.1632789   -2.1632789   -1.4303091   0.04479044   -2.1632789   0.73296974   424551 
 2097000    0.6117953    -2.163677    -2.163677   -1.4298399  0.038618913    -2.163677   0.73383704   424551 
 2098000   0.61075932   -2.1635094   -2.1635094    -1.430915  0.041908687   -2.1635094    0.7325944   424551 
 2099000   0.61093175   -2.1634297   -2.1634297   -1.4306285   0.04135991   -2.1634297   0.73280123   424551 
 2100000   0.61138308   -2.1646163   -2.1646163   -1.4312737  0.044493155   -2.1646163    0.7333426   424551 
 2101000   0.61144069   -2.1640948   -2.1640948   -1.4306831  0.044543085   -2.1640948    0.7334117   424551 
 2102000   0.61193042   -2.1660351   -2.1660351    -1.432036  0.042787364   -2.1660351   0.73399911   424551 
 2103000   0.61131829   -2.1646794   -2.1646794   -1.4314145  0.039682079   -2.1646794   0.73326488   424551 
 2104000   0.61129626   -2.1649866   -2.1649866   -1.4317482  0.042491144   -2.1649866   0.73323846   424551 
 2105000   0.61160311   -2.1653866   -2.1653866   -1.4317801  0.037578423   -2.1653866   0.73360652   424551 
 2106000   0.61171694    -2.165653    -2.165653   -1.4319099  0.039615216    -2.165653   0.73374305   424551 
 2107000   0.61146235    -2.165719    -2.165719   -1.4322813  0.039198106    -2.165719   0.73343768   424551 
 2108000   0.61164668   -2.1658658   -2.1658658    -1.432207   0.04254371   -2.1658658   0.73365878   424551 
 2109000   0.61162113   -2.1655054   -2.1655054   -1.4318773  0.039496051   -2.1655054   0.73362813   424551 
 2110000     0.612503   -2.1664746   -2.1664746   -1.4317887  0.039932548   -2.1664746   0.73468592   424551 
 2111000   0.61095774   -2.1654267   -2.1654267   -1.4325943  0.038570283   -2.1654267    0.7328324   424551 
 2112000   0.61151052   -2.1661899   -2.1661899   -1.4326944  0.039271769   -2.1661899   0.73349545   424551 
 2113000   0.61146093   -2.1651063   -2.1651063   -1.4316703  0.047312153   -2.1651063   0.73343597   424551 
 2114000   0.61115969   -2.1656831   -2.1656831   -1.4326084  0.042026958   -2.1656831   0.73307464   424551 
 2115000   0.61126692   -2.1651988   -2.1651988   -1.4319956  0.036464417   -2.1651988   0.73320326   424551 
 2116000   0.61102088   -2.1646952   -2.1646952   -1.4317871  0.044435481   -2.1646952   0.73290814   424551 
 2117000   0.61118426   -2.1638356   -2.1638356   -1.4307315   0.03765995   -2.1638356   0.73310411   424551 
 2118000   0.61132242   -2.1644169   -2.1644169   -1.4311471  0.041024717   -2.1644169   0.73326983   424551 
 2119000   0.61072877   -2.1637694   -2.1637694   -1.4312117   0.04103674   -2.1637694   0.73255776   424551 
 2120000   0.61062036   -2.1634396   -2.1634396   -1.4310119  0.032695879   -2.1634396   0.73242772   424551 
 2121000   0.61213839   -2.1647383   -2.1647383   -1.4304898  0.041769772   -2.1647383   0.73424857   424551 
 2122000   0.60942301   -2.1615083   -2.1615083   -1.4305168  0.043404613   -2.1615083   0.73099153   424551 
 2123000   0.61190329    -2.164654    -2.164654   -1.4306874  0.039521301    -2.164654   0.73396658   424551 
 2124000   0.61217256   -2.1660821   -2.1660821   -1.4317925   0.04042928   -2.1660821   0.73428956   424551 
 2125000   0.61087413   -2.1642229   -2.1642229   -1.4314908  0.038296543   -2.1642229   0.73273211   424551 
 2126000   0.61134108   -2.1650008   -2.1650008   -1.4317086   0.03471792   -2.1650008   0.73329221   424551 
 2127000   0.61098031   -2.1644995   -2.1644995     -1.43164  0.039609659   -2.1644995   0.73285948   424551 
 2128000   0.61116775   -2.1646468   -2.1646468   -1.4315625  0.039234065   -2.1646468   0.73308431   424551 
 2129000   0.61072643   -2.1640653   -2.1640653   -1.4315103  0.043414848   -2.1640653   0.73255496   424551 
 2130000   0.61106313   -2.1641333   -2.1641333   -1.4311745  0.046817218   -2.1641333   0.73295882   424551 
 2131000   0.61041786   -2.1637539   -2.1637539    -1.431569  0.043704671   -2.1637539   0.73218483   424551 
 2132000   0.61109416   -2.1643619   -2.1643619   -1.4313659  0.040803565   -2.1643619   0.73299604   424551 
 2133000    0.6092668   -2.1627723   -2.1627723   -1.4319681  0.037467103   -2.1627723   0.73080415   424551 
 2134000   0.61121786    -2.164928    -2.164928   -1.4317836  0.038954603    -2.164928   0.73314442   424551 
 2135000   0.61043322   -2.1642291   -2.1642291   -1.4320258  0.043996104   -2.1642291   0.73220326   424551 
 2136000   0.61083724   -2.1646539   -2.1646539    -1.431966   0.04140064   -2.1646539   0.73268786   424551 
 2137000   0.61002224   -2.1647639   -2.1647639   -1.4330536  0.039363936   -2.1647639   0.73171029   424551 
 2138000   0.61095878   -2.1653225   -2.1653225   -1.4324889  0.033257686   -2.1653225   0.73283365   424551 
 2139000   0.60920531   -2.1629607   -2.1629607   -1.4322303  0.042178374   -2.1629607    0.7307304   424551 
 2140000   0.60963353    -2.163433    -2.163433    -1.432189  0.036484856    -2.163433   0.73124404   424551 
 2141000   0.61073679   -2.1647259   -2.1647259   -1.4321585  0.045291807   -2.1647259   0.73256738   424551 
 2142000   0.61088719   -2.1650799   -2.1650799   -1.4323321  0.042763638   -2.1650799   0.73274778   424551 
 2143000   0.61150832   -2.1656393   -2.1656393   -1.4321465  0.034402733   -2.1656393   0.73349281   424551 
 2144000   0.61057269   -2.1646964   -2.1646964   -1.4323258  0.036240043   -2.1646964   0.73237055   424551 
 2145000   0.61108078   -2.1656529   -2.1656529    -1.432673  0.039164053   -2.1656529   0.73297999   424551 
 2146000   0.61064596   -2.1650873   -2.1650873   -1.4326288    0.0443887   -2.1650873   0.73245843   424551 
 2147000   0.61134671   -2.1663816   -2.1663816   -1.4330826  0.040742496   -2.1663816   0.73329897   424551 
 2148000   0.61131261   -2.1659592   -2.1659592   -1.4327011   0.03144076   -2.1659592   0.73325807   424551 
 2149000   0.61174574   -2.1656548   -2.1656548   -1.4318772  0.036560591   -2.1656548    0.7337776   424551 
 2150000   0.61063409   -2.1660007   -2.1660007   -1.4335565   0.03390178   -2.1660007    0.7324442   424551 
 2151000   0.61055706   -2.1657613   -2.1657613   -1.4334095  0.043627721   -2.1657613    0.7323518   424551 
 2152000   0.61043105   -2.1654576   -2.1654576    -1.433257  0.038642454   -2.1654576   0.73220065   424551 
 2153000   0.60975073   -2.1646627   -2.1646627   -1.4332781  0.035754757   -2.1646627   0.73138462   424551 
 2154000   0.61059284   -2.1662786   -2.1662786   -1.4338839  0.035680324   -2.1662786   0.73239472   424551 
 2155000    0.6111607   -2.1671353   -2.1671353   -1.4340594  0.038016194   -2.1671353   0.73307585   424551 
 2156000    0.6108927   -2.1667358   -2.1667358   -1.4339814  0.034579686   -2.1667358   0.73275439   424551 
 2157000   0.61051663   -2.1661484   -2.1661484   -1.4338451   0.03367117   -2.1661484    0.7323033   424551 
 2158000   0.61019746   -2.1656517   -2.1656517   -1.4337312  0.046941275   -2.1656517   0.73192046   424551 
 2159000   0.61000528   -2.1658663   -2.1658663   -1.4341763  0.040052115   -2.1658663   0.73168995   424551 
 2160000   0.61073636   -2.1660784   -2.1660784   -1.4335116  0.042577937   -2.1660784   0.73256687   424551 
 2161000   0.61043269   -2.1660689   -2.1660689   -1.4338663   0.04162222   -2.1660689   0.73220262   424551 
 2162000   0.61007738   -2.1658347   -2.1658347   -1.4340583   0.03610089   -2.1658347   0.73177643   424551 
 2163000   0.60971709    -2.164974    -2.164974   -1.4336298   0.03397928    -2.164974   0.73134427   424551 
 2164000   0.61121847   -2.1674077   -2.1674077   -1.4342625  0.042947948   -2.1674077   0.73314514   424551 
 2165000   0.61141605   -2.1670304   -2.1670304   -1.4336482  0.045302393   -2.1670304   0.73338214   424551 
 2166000   0.61004955   -2.1655213   -2.1655213   -1.4337783  0.041853085   -2.1655213   0.73174305   424551 
 2167000   0.61051869   -2.1652851   -2.1652851   -1.4329794  0.040828412   -2.1652851   0.73230578   424551 
 2168000   0.61028071    -2.165112    -2.165112   -1.4330917  0.045175386    -2.165112   0.73202032   424551 
 2169000   0.61102973    -2.167072    -2.167072   -1.4341532   0.03996308    -2.167072   0.73291875   424551 
 2170000   0.61218358   -2.1682624   -2.1682624   -1.4339597  0.038380583   -2.1682624   0.73430278   424551 
 2171000   0.61201258   -2.1684138   -2.1684138   -1.4343161  0.033989238   -2.1684138   0.73409767   424551 
 2172000   0.61170677   -2.1684703   -2.1684703   -1.4347395  0.033025971   -2.1684703   0.73373085   424551 
 2173000   0.60965216   -2.1667979   -2.1667979   -1.4355315  0.037958219   -2.1667979   0.73126639   424551 
 2174000   0.61026296   -2.1675154   -2.1675154   -1.4355164  0.042692361   -2.1675154   0.73199903   424551 
 2175000    0.6099735   -2.1672584   -2.1672584   -1.4356066  0.036743773   -2.1672584   0.73165183   424551 
 2176000   0.61011912   -2.1671092   -2.1671092   -1.4352827  0.036541931   -2.1671092   0.73182649   424551 
 2177000   0.61009414   -2.1674108   -2.1674108   -1.4356143  0.042478371   -2.1674108   0.73179653   424551 
 2178000   0.61012059   -2.1672845   -2.1672845   -1.4354563  0.043763095   -2.1672845   0.73182826   424551 
 2179000   0.61031795   -2.1686072   -2.1686072   -1.4365422  0.047995942   -2.1686072   0.73206499   424551 
 2180000   0.61050125   -2.1685387   -2.1685387   -1.4362538  0.032131149   -2.1685387   0.73228486   424551 
 2181000   0.61007254   -2.1674157   -2.1674157   -1.4356451  0.044673197   -2.1674157   0.73177063   424551 
 2182000   0.61055598    -2.169003    -2.169003   -1.4366525  0.038790749    -2.169003    0.7323505   424551 
 2183000   0.61078588   -2.1692422   -2.1692422   -1.4366159  0.041566909   -2.1692422   0.73262627   424551 
 2184000   0.61086465    -2.168571    -2.168571   -1.4358502  0.037990006    -2.168571   0.73272075   424551 
 2185000   0.61125426   -2.1685734   -2.1685734   -1.4353854  0.034502352   -2.1685734   0.73318808   424551 
 2186000   0.61050593    -2.167659    -2.167659   -1.4353685  0.033372239    -2.167659   0.73229046   424551 
 2187000   0.61096753   -2.1686862   -2.1686862   -1.4358421    0.0400175   -2.1686862   0.73284415   424551 
 2188000   0.61088525   -2.1681295   -2.1681295    -1.435384  0.035349611   -2.1681295   0.73274546   424551 
 2189000   0.61104859   -2.1683159   -2.1683159   -1.4353745  0.038530674   -2.1683159   0.73294138   424551 
 2190000   0.61018384   -2.1679799   -2.1679799   -1.4360758  0.039730239   -2.1679799   0.73190413   424551 
 2191000   0.61138069   -2.1684285   -2.1684285   -1.4350887  0.047141591   -2.1684285   0.73333973   424551 
 2192000   0.61040475   -2.1671231   -2.1671231    -1.434954  0.039573655   -2.1671231    0.7321691   424551 
 2193000   0.61024311   -2.1679359   -2.1679359   -1.4359607  0.035013958   -2.1679359   0.73197522   424551 
 2194000   0.60939707   -2.1666604   -2.1666604      -1.4357  0.040990644   -2.1666604   0.73096041   424551 
 2195000   0.61004965   -2.1668279   -2.1668279   -1.4350847  0.034589836   -2.1668279   0.73174317   424551 
 2196000   0.61009498   -2.1664706   -2.1664706   -1.4346731  0.043191812   -2.1664706   0.73179754   424551 
 2197000   0.61075165   -2.1673652   -2.1673652     -1.43478  0.042495028   -2.1673652   0.73258521   424551 
 2198000   0.61148429   -2.1685393   -2.1685393   -1.4350753  0.043679361   -2.1685393   0.73346399   424551 
 2199000   0.61190412   -2.1689367   -2.1689367   -1.4349691  0.040403515   -2.1689367   0.73396757   424551 
 2200000   0.61018123   -2.1666354   -2.1666354   -1.4347344  0.042012695   -2.1666354     0.731901   424551 
 2201000   0.61000376   -2.1666935   -2.1666935   -1.4350054    0.0449444   -2.1666935   0.73168813   424551 
 2202000   0.61071043   -2.1674653   -2.1674653   -1.4349295  0.040753729   -2.1674653   0.73253576   424551 
 2203000   0.61103857   -2.1691425   -2.1691425   -1.4362132  0.035477485   -2.1691425   0.73292936   424551 
 2204000   0.60994467   -2.1677547   -2.1677547   -1.4361375  0.046751469   -2.1677547   0.73161725   424551 
 2205000   0.61004932   -2.1686823   -2.1686823   -1.4369395  0.035965278   -2.1686823   0.73174278   424551 
 2206000   0.60932886   -2.1673406   -2.1673406    -1.436462   0.03971309   -2.1673406   0.73087859   424551 
 2207000   0.60955762   -2.1674253   -2.1674253   -1.4362724  0.032346727   -2.1674253   0.73115299   424551 
 2208000   0.60921646   -2.1666378   -2.1666378   -1.4358941  0.035177255   -2.1666378   0.73074377   424551 
 2209000   0.60997769   -2.1679696   -2.1679696   -1.4363128  0.042694613   -2.1679696   0.73165686   424551 
 2210000   0.61024609   -2.1679837   -2.1679837   -1.4360049  0.041998198   -2.1679837   0.73197879   424551 
 2211000   0.61166509   -2.1692592   -2.1692592   -1.4355784  0.039524695   -2.1692592   0.73368086   424551 
 2212000   0.61142413   -2.1697715   -2.1697715   -1.4363797  0.043191133   -2.1697715   0.73339183   424551 
 2213000   0.61030484   -2.1682411   -2.1682411   -1.4361918  0.039788101   -2.1682411   0.73204926   424551 
 2214000   0.61020676   -2.1679972   -2.1679972   -1.4360656  0.038742724   -2.1679972   0.73193162   424551 
 2215000    0.6118098   -2.1698577   -2.1698577   -1.4360032   0.03686296   -2.1698577   0.73385443   424551 
 2216000   0.61068671    -2.168275    -2.168275   -1.4357677  0.034726593    -2.168275   0.73250731   424551 
 2217000   0.61023794   -2.1683067   -2.1683067   -1.4363377  0.043585384   -2.1683067   0.73196901   424551 
 2218000   0.60902968   -2.1674939   -2.1674939   -1.4369741  0.034124855   -2.1674939   0.73051973   424551 
 2219000   0.60984412   -2.1684265   -2.1684265   -1.4369299  0.039120652   -2.1684265   0.73149664   424551 
 2220000   0.61067331    -2.169182    -2.169182   -1.4366908  0.042038537    -2.169182   0.73249123   424551 
 2221000   0.61062508   -2.1693211   -2.1693211   -1.4368877  0.039778666   -2.1693211   0.73243339   424551 
 2222000   0.61102642   -2.1697211   -2.1697211   -1.4368063  0.043238274   -2.1697211   0.73291479   424551 
 2223000   0.61122741   -2.1697493   -2.1697493   -1.4365934  0.045220325   -2.1697493   0.73315587   424551 
 2224000    0.6110163   -2.1705097   -2.1705097   -1.4376071  0.041370236   -2.1705097   0.73290265   424551 
 2225000   0.60983052   -2.1697038   -2.1697038   -1.4382234  0.044409172   -2.1697038   0.73148033   424551 
 2226000   0.60978763   -2.1699552   -2.1699552   -1.4385263  0.045063082   -2.1699552   0.73142889   424551 
 2227000   0.60863744   -2.1689292   -2.1689292   -1.4388799  0.042703925   -2.1689292   0.73004924   424551 
 2228000   0.60880401   -2.1692176   -2.1692176   -1.4389686  0.033364048   -2.1692176   0.73024905   424551 
 2229000   0.60908412   -2.1693551   -2.1693551     -1.43877  0.037729124   -2.1693551   0.73058504   424551 
 2230000   0.60982446   -2.1701816   -2.1701816   -1.4387086  0.035613982   -2.1701816   0.73147306   424551 
 2231000   0.60868408   -2.1687512   -2.1687512    -1.438646  0.040714588   -2.1687512    0.7301052   424551 
 2232000   0.61069533   -2.1714214   -2.1714214   -1.4389037  0.031741947   -2.1714214   0.73251764   424551 
 2233000   0.61178922    -2.172507    -2.172507   -1.4386773  0.047205433    -2.172507   0.73382975   424551 
 2234000     0.610139   -2.1699997   -2.1699997   -1.4381494  0.042082453   -2.1699997   0.73185034   424551 
 2235000   0.61179722   -2.1719132   -2.1719132   -1.4380739  0.040816363   -2.1719132   0.73383934   424551 
 2236000   0.61146863   -2.1718675   -2.1718675   -1.4384223  0.037288919   -2.1718675   0.73344521   424551 
 2237000   0.60989354   -2.1692589   -2.1692589    -1.437703  0.049528857   -2.1692589   0.73155591   424551 
 2238000   0.61088166   -2.1709241   -2.1709241    -1.438183   0.04286272   -2.1709241   0.73274115   424551 
 2239000     0.610748   -2.1709881   -2.1709881   -1.4384073  0.043053351   -2.1709881   0.73258082   424551 
 2240000   0.60986055   -2.1697085   -2.1697085   -1.4381921  0.046645903   -2.1697085   0.73151635   424551 
 2241000   0.61084184   -2.1703055   -2.1703055   -1.4376121  0.038419176   -2.1703055   0.73269339   424551 
 2242000   0.61015206   -2.1703338   -2.1703338   -1.4384678  0.046944232   -2.1703338   0.73186601   424551 
 2243000   0.61159758   -2.1723951   -2.1723951   -1.4387952  0.037921831   -2.1723951   0.73359988   424551 
 2244000   0.60954236   -2.1692892   -2.1692892   -1.4381545  0.044596178   -2.1692892   0.73113468   424551 
 2245000   0.60979578   -2.1695565   -2.1695565   -1.4381179  0.039420902   -2.1695565   0.73143866   424551 
 2246000   0.61000599   -2.1693784   -2.1693784   -1.4376876  0.043052847   -2.1693784    0.7316908   424551 
 2247000   0.61021799   -2.1702115   -2.1702115   -1.4382664  0.030933479   -2.1702115   0.73194509   424551 
 2248000   0.60943802   -2.1693575   -2.1693575   -1.4383479  0.037784556   -2.1693575   0.73100953   424551 
 2249000    0.6099237   -2.1698455   -2.1698455   -1.4382535  0.043387138   -2.1698455   0.73159209   424551 
 2250000   0.60879316   -2.1684985   -2.1684985   -1.4382625  0.039926204   -2.1684985   0.73023604   424551 
 2251000   0.60934648   -2.1692975   -2.1692975   -1.4383977  0.039976233   -2.1692975   0.73089973   424551 
 2252000   0.60824751   -2.1678716   -2.1678716     -1.43829  0.041761374   -2.1678716   0.72958154   424551 
 2253000   0.60819142     -2.16848     -2.16848   -1.4389658  0.037949926     -2.16848   0.72951426   424551 
 2254000   0.60880546   -2.1693621   -2.1693621   -1.4391113  0.037426551   -2.1693621   0.73025078   424551 
 2255000   0.60964204   -2.1711329   -2.1711329   -1.4398786  0.038007101   -2.1711329   0.73125425   424551 
 2256000   0.60998961   -2.1717122   -2.1717122    -1.440041  0.037101053   -2.1717122   0.73167116   424551 
 2257000   0.60938825   -2.1706619   -2.1706619   -1.4397121  0.036632437   -2.1706619   0.73094984   424551 
 2258000   0.60908152   -2.1703828   -2.1703828   -1.4398009  0.042259329   -2.1703828   0.73058192   424551 
 2259000   0.61001201   -2.1711335   -2.1711335   -1.4394355  0.048396581   -2.1711335   0.73169801   424551 
 2260000   0.61132997   -2.1723132   -2.1723132   -1.4390343  0.043677845   -2.1723132   0.73327889   424551 
 2261000   0.60991593   -2.1707184   -2.1707184   -1.4391357  0.038543291   -2.1707184   0.73158277   424551 
 2262000   0.61060822   -2.1722284   -2.1722284   -1.4398152  0.038888569   -2.1722284   0.73241316   424551 
 2263000   0.61076969   -2.1722275   -2.1722275   -1.4396206  0.044255328   -2.1722275   0.73260684   424551 
 2264000   0.61088359   -2.1721576   -2.1721576   -1.4394142  0.039972726   -2.1721576   0.73274347   424551 
 2265000   0.61116935    -2.172966    -2.172966   -1.4398797  0.040280229    -2.172966   0.73308623   424551 
 2266000   0.61102755   -2.1731832   -2.1731832   -1.4402671  0.044500356   -2.1731832   0.73291614   424551 
 2267000   0.61095105   -2.1735818   -2.1735818   -1.4407574  0.035383015   -2.1735818   0.73282438   424551 
 2268000   0.61070324   -2.1741537   -2.1741537   -1.4416266  0.037939025   -2.1741537   0.73252714   424551 
 2269000   0.61090784   -2.1748093   -2.1748093   -1.4420368  0.048512085   -2.1748093   0.73277255   424551 
 2270000   0.61012074   -2.1734245   -2.1734245   -1.4415961   0.04177202   -2.1734245   0.73182844   424551 
 2271000   0.61084509   -2.1745515   -2.1745515   -1.4418542  0.038335441   -2.1745515   0.73269728   424551 
 2272000   0.60937429   -2.1725855   -2.1725855   -1.4416524  0.040486138   -2.1725855   0.73093309   424551 
 2273000   0.60915331   -2.1728157   -2.1728157   -1.4421477  0.043968686   -2.1728157   0.73066802   424551 
 2274000   0.60914104   -2.1720128   -2.1720128   -1.4413595   0.03861322   -2.1720128    0.7306533   424551 
 2275000   0.61015052   -2.1727616   -2.1727616   -1.4408975  0.035538065   -2.1727616   0.73186416   424551 
 2276000   0.61076105   -2.1736483   -2.1736483   -1.4410518  0.034274442   -2.1736483   0.73259648   424551 
 2277000   0.61012556    -2.173087    -2.173087   -1.4412528  0.046435769    -2.173087   0.73183422   424551 
 2278000   0.61065476   -2.1730242   -2.1730242   -1.4405552  0.038177353   -2.1730242   0.73246899   424551 
 2279000   0.61023289   -2.1727472   -2.1727472   -1.4407843  0.034404786   -2.1727472   0.73196297   424551 
 2280000   0.60904924   -2.1722489   -2.1722489   -1.4417057  0.043379873   -2.1722489    0.7305432   424551 
 2281000   0.61024913   -2.1729192   -2.1729192   -1.4409368  0.039214493   -2.1729192   0.73198244   424551 
 2282000    0.6101825   -2.1728318   -2.1728318   -1.4409293  0.034523753   -2.1728318   0.73190252   424551 
 2283000   0.61022202   -2.1730889   -2.1730889    -1.441139  0.036967912   -2.1730889   0.73194992   424551 
 2284000   0.61122059   -2.1740981   -2.1740981   -1.4409504  0.035679357   -2.1740981   0.73314769   424551 
 2285000   0.61041045   -2.1725023   -2.1725023   -1.4403263  0.044767182   -2.1725023   0.73217594   424551 
 2286000   0.61052867   -2.1720985   -2.1720985   -1.4397808   0.04229486   -2.1720985   0.73231775   424551 
 2287000   0.61157693   -2.1726404   -2.1726404   -1.4390653  0.046226279   -2.1726404   0.73357511   424551 
 2288000   0.61031696   -2.1719986   -2.1719986   -1.4399348  0.039534073   -2.1719986    0.7320638   424551 
 2289000   0.61053385   -2.1718446   -2.1718446   -1.4395206   0.04314568   -2.1718446   0.73232395   424551 
 2290000   0.61088541   -2.1728013   -2.1728013   -1.4400556  0.037444969   -2.1728013   0.73274565   424551 
 2291000   0.60967428    -2.170923    -2.170923     -1.43963  0.039364501    -2.170923   0.73129292   424551 
 2292000   0.61096248    -2.172595    -2.172595   -1.4397569  0.046390477    -2.172595   0.73283809   424551 
 2293000   0.61052712   -2.1721871   -2.1721871   -1.4398712  0.033753347   -2.1721871   0.73231588   424551 
 2294000   0.61000361   -2.1713785   -2.1713785   -1.4396905  0.039912774   -2.1713785   0.73168794   424551 
 2295000   0.60965422   -2.1712191   -2.1712191   -1.4399502  0.036261618   -2.1712191   0.73126885   424551 
 2296000   0.60981064   -2.1714455   -2.1714455    -1.439989  0.037047624   -2.1714455   0.73145648   424551 
 2297000   0.60935027   -2.1709317   -2.1709317   -1.4400274  0.040903202   -2.1709317   0.73090428   424551 
 2298000   0.60971797   -2.1717305   -2.1717305   -1.4403852  0.036872983   -2.1717305   0.73134532   424551 
 2299000   0.61100216    -2.172534    -2.172534   -1.4396483  0.040049144    -2.172534   0.73288569   424551 
 2300000   0.61047724   -2.1714484   -2.1714484   -1.4391924  0.040671409   -2.1714484   0.73225605   424551 
 2301000   0.61010236   -2.1710407   -2.1710407   -1.4392343  0.034194717   -2.1710407   0.73180639   424551 
 2302000   0.61071054   -2.1718068   -2.1718068   -1.4392709  0.045469756   -2.1718068   0.73253589   424551 
 2303000   0.61105408    -2.171488    -2.171488     -1.43854  0.040935639    -2.171488   0.73294797   424551 
 2304000   0.60961749   -2.1699396   -2.1699396   -1.4387148  0.038209683   -2.1699396    0.7312248   424551 
 2305000   0.60963816   -2.1710644   -2.1710644   -1.4398148  0.032341821   -2.1710644   0.73124959   424551 
 2306000   0.60931115   -2.1714892   -2.1714892   -1.4406319  0.035151713   -2.1714892   0.73085735   424551 
 2307000   0.61005496   -2.1725437   -2.1725437   -1.4407941  0.038887569   -2.1725437   0.73174954   424551 
 2308000   0.60903914   -2.1711268   -2.1711268   -1.4405957  0.042574387   -2.1711268   0.73053108   424551 
 2309000   0.61037629    -2.172512    -2.172512    -1.440377  0.034670674    -2.172512   0.73213496   424551 
 2310000   0.60965033   -2.1718204   -2.1718204   -1.4405563  0.040214517   -2.1718204   0.73126419   424551 
 2311000   0.61002583   -2.1724032   -2.1724032   -1.4406886  0.042437989   -2.1724032   0.73171459   424551 
 2312000    0.6105779   -2.1727215   -2.1727215   -1.4403447  0.032358545   -2.1727215    0.7323768   424551 
 2313000   0.61009215   -2.1727567   -2.1727567   -1.4409625  0.039985662   -2.1727567   0.73179415   424551 
 2314000   0.61038971   -2.1732623   -2.1732623   -1.4411113  0.039212271   -2.1732623   0.73215106   424551 
 2315000   0.61069438   -2.1731032   -2.1731032   -1.4405867  0.041647664   -2.1731032   0.73251651   424551 
 2316000   0.61145582   -2.1737129   -2.1737129   -1.4402831  0.042612169   -2.1737129   0.73342984   424551 
 2317000   0.60932942   -2.1712178   -2.1712178   -1.4403385  0.040343729   -2.1712178   0.73087927   424551 
 2318000   0.61102195   -2.1730339   -2.1730339   -1.4401245  0.034631283   -2.1730339   0.73290943   424551 
 2319000   0.60929726   -2.1716032   -2.1716032   -1.4407625  0.027790696   -2.1716032   0.73084069   424551 
 2320000   0.61062382   -2.1726793   -2.1726793   -1.4402474  0.046803873   -2.1726793   0.73243188   424551 
 2321000   0.61053046   -2.1730819   -2.1730819    -1.440762     0.043185   -2.1730819   0.73231989   424551 
 2322000    0.6111357   -2.1743323   -2.1743323   -1.4412864  0.040711145   -2.1743323   0.73304587   424551 
 2323000   0.61149191   -2.1749989   -2.1749989   -1.4415258  0.036310807   -2.1749989   0.73347314   424551 
 2324000   0.61063439   -2.1744063   -2.1744063   -1.4419618   0.04858679   -2.1744063   0.73244456   424551 
 2325000   0.60990021   -2.1739426   -2.1739426   -1.4423786  0.034668027   -2.1739426   0.73156392   424551 
 2326000   0.61059981   -2.1744247   -2.1744247   -1.4420217    0.0320528   -2.1744247   0.73240307   424551 
 2327000    0.6112442   -2.1750247   -2.1750247   -1.4418486    0.0399347   -2.1750247   0.73317601   424551 
 2328000   0.60975804   -2.1737015   -2.1737015   -1.4423081   0.03761287   -2.1737015   0.73139339   424551 
 2329000   0.61029904   -2.1745702   -2.1745702   -1.4425279  0.041722773   -2.1745702   0.73204231   424551 
 2330000   0.61001828   -2.1741895   -2.1741895   -1.4424839  0.040820274   -2.1741895   0.73170554   424551 
 2331000   0.61017693   -2.1739637   -2.1739637   -1.4420679  0.045808464   -2.1739637   0.73189584   424551 
 2332000   0.60834114   -2.1729872   -2.1729872   -1.4432934  0.043349557   -2.1729872   0.72969385   424551 
 2333000   0.60993984   -2.1736054   -2.1736054    -1.441994  0.034664182   -2.1736054   0.73161145   424551 
 2334000   0.61007935   -2.1740447   -2.1740447    -1.442266  0.037594962   -2.1740447    0.7317788   424551 
 2335000   0.60963229   -2.1727934   -2.1727934   -1.4415508   0.03538801   -2.1727934   0.73124256   424551 
 2336000   0.61045651    -2.174056    -2.174056   -1.4418248  0.038147336    -2.174056   0.73223119   424551 
 2337000   0.61002211   -2.1742294   -2.1742294   -1.4425192  0.038157033   -2.1742294   0.73171014   424551 
 2338000   0.61040894   -2.1749239   -2.1749239   -1.4427497  0.039999566   -2.1749239   0.73217413   424551 
 2339000   0.60915209   -2.1740106   -2.1740106    -1.443344  0.034857091   -2.1740106   0.73066657   424551 
 2340000   0.60948013   -2.1739903   -2.1739903   -1.4429303  0.040849982   -2.1739903   0.73106004   424551 
 2341000   0.61086666   -2.1748799   -2.1748799   -1.4421568  0.040377698   -2.1748799   0.73272315   424551 
 2342000   0.60985207   -2.1740039   -2.1740039   -1.4424977  0.037745667   -2.1740039   0.73150617   424551 
 2343000    0.6093301   -2.1737266   -2.1737266   -1.4428465  0.039532836   -2.1737266   0.73088008   424551 
 2344000   0.60972573   -2.1738007   -2.1738007    -1.442446  0.040568521   -2.1738007   0.73135463   424551 
 2345000   0.61093686   -2.1749572   -2.1749572   -1.4421498  0.038478181   -2.1749572   0.73280736   424551 
 2346000   0.60915181   -2.1730446   -2.1730446   -1.4423783  0.044483138   -2.1730446   0.73066623   424551 
 2347000   0.61028345   -2.1731587   -2.1731587   -1.4411351  0.042681922   -2.1731587   0.73202361   424551 
 2348000   0.61162013   -2.1752217   -2.1752217   -1.4415947  0.034057494   -2.1752217   0.73362693   424551 
 2349000   0.61098809   -2.1742545   -2.1742545   -1.4413857  0.042289102   -2.1742545    0.7328688   424551 
 2350000   0.61118335   -2.1743213   -2.1743213   -1.4412183  0.035228081   -2.1743213   0.73310302   424551 
 2351000   0.61023783   -2.1733262   -2.1733262   -1.4413573  0.040183671   -2.1733262   0.73196889   424551 
 2352000   0.60973149    -2.172938    -2.172938   -1.4415764  0.036217265    -2.172938   0.73136154   424551 
 2353000   0.60874905   -2.1725829   -2.1725829   -1.4423998  0.031899021   -2.1725829   0.73018312   424551 
 2354000   0.60916198    -2.173094    -2.173094   -1.4424156  0.030839697    -2.173094   0.73067843   424551 
 2355000    0.6082639   -2.1731352   -2.1731352   -1.4435341  0.035866731   -2.1731352    0.7296012   424551 
 2356000   0.60766763   -2.1731863   -2.1731863   -1.4443003  0.035673271   -2.1731863   0.72888598   424551 
 2357000   0.60879088   -2.1747499   -2.1747499   -1.4445166  0.034002434   -2.1747499    0.7302333   424551 
 2358000    0.6074563   -2.1738489   -2.1738489   -1.4452164  0.037995437   -2.1738489   0.72863249   424551 
 2359000   0.60946255   -2.1754694   -2.1754694   -1.4444304  0.040875494   -2.1754694   0.73103896   424551 
 2360000   0.60952437   -2.1753338   -2.1753338   -1.4442207  0.041314374   -2.1753338   0.73111311   424551 
 2361000   0.61041689   -2.1760799   -2.1760799   -1.4438962  0.034914945   -2.1760799   0.73218367   424551 
 2362000   0.61104996   -2.1760012   -2.1760012   -1.4430581  0.040888115   -2.1760012   0.73294302   424551 
 2363000   0.60836654   -2.1736319   -2.1736319   -1.4439076  0.046132697   -2.1736319   0.72972431   424551 
 2364000   0.61030789   -2.1759763   -2.1759763   -1.4439234  0.042282407   -2.1759763   0.73205293   424551 
 2365000   0.60870665   -2.1743446   -2.1743446   -1.4442123  0.045912412   -2.1743446   0.73013227   424551 
 2366000   0.60909405   -2.1743244   -2.1743244   -1.4437275  0.038594473   -2.1743244   0.73059694   424551 
 2367000    0.6098348   -2.1757365   -2.1757365    -1.444251   0.04144769   -2.1757365   0.73148546   424551 
 2368000   0.60993721   -2.1758511   -2.1758511   -1.4442428  0.035997507   -2.1758511    0.7316083   424551 
 2369000   0.60935197   -2.1756942   -2.1756942   -1.4447879  0.041274909   -2.1756942   0.73090631   424551 
 2370000   0.60871638   -2.1751907   -2.1751907   -1.4450468  0.044010022   -2.1751907   0.73014393   424551 
 2371000   0.60915999   -2.1757974   -2.1757974   -1.4451213  0.043797813   -2.1757974   0.73067604   424551 
 2372000   0.60789403   -2.1740528   -2.1740528   -1.4448953  0.040972709   -2.1740528   0.72915754   424551 
 2373000   0.60884027   -2.1752435   -2.1752435   -1.4449509  0.045949405   -2.1752435   0.73029254   424551 
 2374000   0.60931688   -2.1751887   -2.1751887   -1.4443245  0.040146256   -2.1751887   0.73086423   424551 
 2375000   0.60854571   -2.1749416   -2.1749416   -1.4450024  0.040545011   -2.1749416   0.72993922   424551 
 2376000   0.60807243   -2.1737886   -2.1737886   -1.4444171  0.038120343   -2.1737886   0.72937154   424551 
 2377000   0.60994545    -2.175827    -2.175827   -1.4442088  0.037996985    -2.175827   0.73161818   424551 
 2378000   0.60903487    -2.174573    -2.174573    -1.444047  0.037995657    -2.174573   0.73052595   424551 
 2379000   0.61049248   -2.1763314   -2.1763314   -1.4440571  0.034330745   -2.1763314   0.73227434   424551 
 2380000   0.61057771   -2.1770106   -2.1770106    -1.444634  0.041123974   -2.1770106   0.73237657   424551 
 2381000   0.60996133   -2.1763543   -2.1763543   -1.4447171  0.034909745   -2.1763543   0.73163723   424551 
 2382000   0.60945646   -2.1756173   -2.1756173   -1.4445856  0.038917028   -2.1756173   0.73103164   424551 
 2383000   0.60954166   -2.1756265   -2.1756265   -1.4444926  0.044048117   -2.1756265   0.73113385   424551 
 2384000   0.61052534   -2.1766921   -2.1766921   -1.4443783   0.03795541   -2.1766921   0.73231375   424551 
 2385000   0.60947111   -2.1752156   -2.1752156   -1.4441664  0.036435551   -2.1752156   0.73104922   424551 
 2386000   0.61036286   -2.1759636   -2.1759636   -1.4438447  0.040764344   -2.1759636   0.73211886   424551 
 2387000   0.61013165   -2.1755979   -2.1755979   -1.4437564  0.037399463   -2.1755979   0.73184152   424551 
 2388000   0.61065745   -2.1766891   -2.1766891   -1.4442169  0.044541101   -2.1766891   0.73247221   424551 
 2389000    0.6093276   -2.1742816   -2.1742816   -1.4434045  0.034119262   -2.1742816   0.73087708   424551 
 2390000   0.60996376   -2.1758624   -2.1758624   -1.4442222  0.036818126   -2.1758624   0.73164014   424551 
 2391000   0.60955279   -2.1754566   -2.1754566   -1.4443095  0.041483574   -2.1754566   0.73114719   424551 
 2392000   0.60977185   -2.1742349   -2.1742349   -1.4428249  0.040949095   -2.1742349   0.73140995   424551 
 2393000    0.6103177   -2.1752655   -2.1752655   -1.4432008  0.037728325   -2.1752655   0.73206468   424551 
 2394000   0.61120723   -2.1757362   -2.1757362   -1.4426045  0.035323352   -2.1757362   0.73313167   424551 
 2395000   0.61162497   -2.1760107   -2.1760107    -1.442378  0.036137348   -2.1760107   0.73363274   424551 
 2396000   0.61049833   -2.1749344   -2.1749344   -1.4426531  0.039279859   -2.1749344   0.73228135   424551 
 2397000   0.60930367   -2.1736847   -2.1736847   -1.4428363  0.040418599   -2.1736847   0.73084838   424551 
 2398000   0.60958571   -2.1739391   -2.1739391   -1.4427524  0.039447689   -2.1739391   0.73118668   424551 
 2399000   0.61014309     -2.17408     -2.17408   -1.4422247  0.040617359     -2.17408   0.73185525   424551 
 2400000   0.60891966   -2.1727991   -2.1727991   -1.4424113  0.042559845   -2.1727991   0.73038776   424551 
 2401000   0.60903456    -2.173337    -2.173337   -1.4428114  0.041433756    -2.173337   0.73052558   424551 
 2402000   0.60978063   -2.1740814   -2.1740814   -1.4426609  0.030714366   -2.1740814   0.73142048   424551 
 2403000   0.60903301   -2.1737224   -2.1737224   -1.4431987  0.041219143   -2.1737224   0.73052373   424551 
 2404000   0.60948381   -2.1738999   -2.1738999   -1.4428354  0.037949361   -2.1738999   0.73106446   424551 
 2405000   0.61061531   -2.1747097   -2.1747097    -1.442288  0.037605135   -2.1747097   0.73242166   424551 
 2406000    0.6097835   -2.1740372   -2.1740372   -1.4426133  0.033030674   -2.1740372   0.73142393   424551 
 2407000   0.60963263   -2.1741834   -2.1741834   -1.4429404  0.041724851   -2.1741834   0.73124296   424551 
 2408000   0.60964108   -2.1737444   -2.1737444   -1.4424913  0.040939669   -2.1737444    0.7312531   424551 
 2409000   0.61003429   -2.1737157   -2.1737157   -1.4419909   0.03530622   -2.1737157   0.73172475   424551 
 2410000   0.60899471   -2.1731724   -2.1731724   -1.4426947  0.043093701   -2.1731724   0.73047778   424551 
 2411000   0.60995201   -2.1739917   -2.1739917   -1.4423656  0.039444813   -2.1739917   0.73162605   424551 
 2412000   0.61000393   -2.1746761   -2.1746761   -1.4429878  0.036020352   -2.1746761   0.73168833   424551 
 2413000   0.60919924   -2.1739052   -2.1739052   -1.4431821   0.03317174   -2.1739052   0.73072312   424551 
 2414000   0.60888621   -2.1742713   -2.1742713   -1.4439236  0.030658577   -2.1742713   0.73034764   424551 
 2415000    0.6086319   -2.1742938   -2.1742938   -1.4442512  0.041190451   -2.1742938   0.73004261   424551 
 2416000   0.61052131   -2.1772461   -2.1772461   -1.4449371  0.038262468   -2.1772461   0.73230892   424551 
 2417000    0.6082425   -2.1747093   -2.1747093   -1.4451338  0.041999405   -2.1747093   0.72957553   424551 
 2418000   0.61049518   -2.1766088   -2.1766088   -1.4443312  0.045263552   -2.1766088   0.73227758   424551 
 2419000   0.60900035   -2.1748469   -2.1748469   -1.4443623  0.043235458   -2.1748469   0.73048455   424551 
 2420000   0.61013882   -2.1765034   -2.1765034   -1.4446533  0.034120437   -2.1765034   0.73185012   424551 
 2421000   0.61026053   -2.1767899   -2.1767899   -1.4447937  0.033784835   -2.1767899   0.73199612   424551 
 2422000   0.61038814   -2.1763292   -2.1763292     -1.44418  0.034008256   -2.1763292   0.73214918   424551 
 2423000   0.61098311   -2.1772589   -2.1772589   -1.4443961  0.038189883   -2.1772589   0.73286284   424551 
 2424000   0.61037873   -2.1766854   -2.1766854   -1.4445475  0.036292371   -2.1766854   0.73213789   424551 
 2425000   0.60914421   -2.1749428   -2.1749428   -1.4442857  0.038170751   -2.1749428   0.73065711   424551 
 2426000   0.61133581   -2.1771745   -2.1771745   -1.4438886  0.027703422   -2.1771745   0.73328589   424551 
 2427000   0.61021736   -2.1763864   -2.1763864    -1.444442   0.04604943   -2.1763864   0.73194433   424551 
 2428000   0.60978381   -2.1762222   -2.1762222   -1.4447979  0.044037677   -2.1762222   0.73142429   424551 
 2429000   0.61065983   -2.1781545   -2.1781545   -1.4456794   0.03753278   -2.1781545   0.73247507   424551 
 2430000   0.61042252   -2.1778682   -2.1778682   -1.4456778  0.037014545   -2.1778682   0.73219042   424551 
 2431000   0.61022934   -2.1771898   -2.1771898   -1.4452311  0.034840005   -2.1771898    0.7319587   424551 
 2432000   0.60968244   -2.1766631   -2.1766631   -1.4453604  0.036131237   -2.1766631   0.73130271   424551 
 2433000   0.60962214    -2.176217    -2.176217   -1.4449867  0.041911152    -2.176217   0.73123037   424551 
 2434000   0.60918296   -2.1767523   -2.1767523   -1.4460487  0.038919051   -2.1767523   0.73070359   424551 
 2435000   0.60878895   -2.1754885   -2.1754885   -1.4452575  0.037140535   -2.1754885   0.73023098   424551 
 2436000   0.61013752   -2.1770976   -2.1770976    -1.445249  0.044130201   -2.1770976   0.73184856   424551 
 2437000   0.60916615    -2.175797    -2.175797   -1.4451136   0.04103038    -2.175797   0.73068343   424551 
 2438000   0.60817493   -2.1747281   -2.1747281   -1.4452337  0.040163905   -2.1747281   0.72949447   424551 
 2439000   0.61044605   -2.1766541   -2.1766541   -1.4444355  0.035422272   -2.1766541   0.73221864   424551 
 2440000   0.60709424   -2.1736142   -2.1736142    -1.445416  0.045494319   -2.1736142   0.72819821   424551 
 2441000   0.60958232   -2.1757682   -2.1757682   -1.4445856  0.032585312   -2.1757682   0.73118262   424551 
 2442000   0.60870992    -2.175371    -2.175371   -1.4452348  0.036813189    -2.175371   0.73013618   424551 
 2443000   0.60813085   -2.1749982   -2.1749982   -1.4455566  0.036372889   -2.1749982    0.7294416   424551 
 2444000   0.60962318   -2.1763647   -2.1763647    -1.445133  0.042080984   -2.1763647   0.73123163   424551 
 2445000   0.60918776   -2.1758882   -2.1758882   -1.4451788  0.042628818   -2.1758882   0.73070935   424551 
 2446000   0.61017897    -2.176548    -2.176548   -1.4446497  0.038822262    -2.176548   0.73189828   424551 
 2447000   0.60959899   -2.1758592   -2.1758592   -1.4446566  0.039189616   -2.1758592   0.73120261   424551 
 2448000   0.61063921   -2.1779143   -2.1779143    -1.445464  0.040933041   -2.1779143   0.73245034   424551 
 2449000   0.60971587   -2.1775975   -2.1775975   -1.4462547  0.043352217   -2.1775975   0.73134281   424551 
 2450000   0.60960689   -2.1778862   -2.1778862   -1.4466741  0.047111031   -2.1778862   0.73121209   424551 
 2451000   0.60842649   -2.1764005   -2.1764005   -1.4466043  0.041482868   -2.1764005   0.72979621   424551 
 2452000   0.61064318   -2.1781318   -2.1781318   -1.4456767  0.038411871   -2.1781318    0.7324551   424551 
 2453000   0.60896421   -2.1766616   -2.1766616   -1.4462204  0.045043013   -2.1766616    0.7304412   424551 
 2454000   0.60955362   -2.1772703   -2.1772703   -1.4461221  0.045871135   -2.1772703    0.7311482   424551 
 2455000   0.61036837   -2.1784373   -2.1784373   -1.4463119   0.03639608   -2.1784373   0.73212547   424551 
 2456000   0.60968706   -2.1778571   -2.1778571   -1.4465489  0.042158679   -2.1778571   0.73130825   424551 
 2457000   0.60922609   -2.1777393   -2.1777393    -1.446984   0.03651831   -2.1777393   0.73075532   424551 
 2458000   0.60940058   -2.1773661   -2.1773661   -1.4464015  0.036853298   -2.1773661   0.73096462   424551 
 2459000   0.60857192   -2.1769784   -2.1769784   -1.4470077  0.035485828   -2.1769784   0.72997066   424551 
 2460000   0.60838596   -2.1769182   -2.1769182   -1.4471706  0.045116234   -2.1769182    0.7297476   424551 
 2461000   0.60888554   -2.1773992   -2.1773992   -1.4470523  0.039036177   -2.1773992   0.73034684   424551 
 2462000   0.60959838   -2.1785546   -2.1785546   -1.4473528  0.036320533   -2.1785546   0.73120188   424551 
 2463000   0.60969917   -2.1792839   -2.1792839   -1.4479611  0.040796218   -2.1792839   0.73132277   424551 
 2464000   0.60982027   -2.1793116   -2.1793116   -1.4478436  0.035843263   -2.1793116   0.73146803   424551 
 2465000   0.60989571   -2.1801889   -2.1801889   -1.4486303  0.037827736   -2.1801889   0.73155852   424551 
 2466000   0.60927529    -2.179919    -2.179919   -1.4491047  0.041380432    -2.179919   0.73081434   424551 
 2467000   0.60836455   -2.1785175   -2.1785175   -1.4487956  0.043291957   -2.1785175   0.72972192   424551 
 2468000   0.60825044   -2.1779453   -2.1779453   -1.4483602  0.041328281   -2.1779453   0.72958505   424551 
 2469000   0.60824996   -2.1780835   -2.1780835    -1.448499  0.038674825   -2.1780835   0.72958447   424551 
 2470000   0.61034161   -2.1801638   -2.1801638   -1.4480704  0.035936133   -2.1801638   0.73209337   424551 
 2471000   0.61005303   -2.1800301   -2.1800301   -1.4482829  0.032804008   -2.1800301   0.73174722   424551 
 2472000   0.61022809   -2.1803969   -2.1803969   -1.4484397  0.040736345   -2.1803969    0.7319572   424551 
 2473000   0.60975278   -2.1800231   -2.1800231    -1.448636  0.036509666   -2.1800231   0.73138708   424551 
 2474000   0.60918404   -2.1790391   -2.1790391   -1.4483342  0.039918819   -2.1790391   0.73070488   424551 
 2475000   0.61006566   -2.1809004   -2.1809004   -1.4491381  0.035550595   -2.1809004   0.73176237   424551 
 2476000   0.60880391    -2.179335    -2.179335    -1.449086   0.04530525    -2.179335   0.73024893   424551 
 2477000   0.60829973   -2.1784917   -2.1784917   -1.4488475  0.042815555   -2.1784917   0.72964417   424551 
 2478000    0.6093009   -2.1785429   -2.1785429   -1.4476978  0.037765774   -2.1785429   0.73084506   424551 
 2479000   0.60926627   -2.1791402   -2.1791402   -1.4483367  0.035831341   -2.1791402   0.73080352   424551 
 2480000   0.60754363   -2.1774197   -2.1774197   -1.4486824   0.03774781   -2.1774197   0.72873725   424551 
 2481000   0.60809206    -2.177426    -2.177426   -1.4480309  0.044043139    -2.177426   0.72939507   424551 
 2482000   0.60919518   -2.1792755   -2.1792755   -1.4485572  0.041232143   -2.1792755   0.73071825   424551 
 2483000   0.60934712   -2.1786728   -2.1786728   -1.4477723  0.041510804   -2.1786728    0.7309005   424551 
 2484000   0.60889392    -2.178126    -2.178126   -1.4477692  0.035967959    -2.178126    0.7303569   424551 
 2485000    0.6092093   -2.1787908   -2.1787908   -1.4480556  0.042791099   -2.1787908   0.73073518   424551 
 2486000   0.60899969   -2.1791108   -2.1791108    -1.448627  0.035382418   -2.1791108   0.73048376   424551 
 2487000   0.60909112   -2.1792548   -2.1792548   -1.4486614  0.038862768   -2.1792548   0.73059343   424551 
 2488000   0.60949092   -2.1795224   -2.1795224   -1.4484494  0.035722188   -2.1795224   0.73107298   424551 
 2489000   0.60831793   -2.1787332   -2.1787332   -1.4490672  0.038162068   -2.1787332   0.72966601   424551 
 2490000    0.6083536   -2.1786138   -2.1786138    -1.448905  0.035150072   -2.1786138   0.72970879   424551 
 2491000   0.60969719   -2.1798073   -2.1798073   -1.4484869  0.037735065   -2.1798073    0.7313204   424551 
 2492000   0.61039217   -2.1808202   -2.1808202   -1.4486661  0.042293557   -2.1808202   0.73215401   424551 
 2493000   0.60959533   -2.1796691   -2.1796691   -1.4484709  0.032154435   -2.1796691   0.73119822   424551 
 2494000    0.6097147   -2.1798817   -2.1798817   -1.4485403  0.041593506   -2.1798817   0.73134141   424551 
 2495000   0.60988605   -2.1806649   -2.1806649    -1.449118  0.042934886   -2.1806649   0.73154694   424551 
 2496000   0.61062591   -2.1808764   -2.1808764   -1.4484421  0.040221725   -2.1808764   0.73243438   424551 
 2497000    0.6101324   -2.1799398   -2.1799398   -1.4480973  0.027735122   -2.1799398   0.73184243   424551 
 2498000   0.60885267   -2.1783644   -2.1783644    -1.448057  0.041970801   -2.1783644   0.73030741   424551 
 2499000   0.60998703   -2.1795834   -2.1795834   -1.4479154  0.048506632   -2.1795834   0.73166805   424551 
 2500000   0.61037229   -2.1808223   -2.1808223   -1.4486921  0.036221162   -2.1808223   0.73213017   424551 
 2501000   0.61094551   -2.1808616   -2.1808616   -1.4480439   0.03631324   -2.1808616   0.73281774   424551 
 2502000   0.61046961   -2.1798389   -2.1798389    -1.447592  0.043862686   -2.1798389    0.7322469   424551 
 2503000   0.60915324   -2.1781122   -2.1781122   -1.4474442   0.03676524   -2.1781122   0.73066794   424551 
 2504000   0.61004483   -2.1788244   -2.1788244   -1.4470871  0.037051051   -2.1788244   0.73173738   424551 
 2505000   0.60969205   -2.1786054   -2.1786054   -1.4472911  0.037434903   -2.1786054   0.73131423   424551 
 2506000   0.60800205   -2.1767518   -2.1767518   -1.4474646  0.038218453   -2.1767518   0.72928711   424551 
 2507000   0.60880538   -2.1775841   -2.1775841   -1.4473334  0.037476626   -2.1775841   0.73025069   424551 
 2508000   0.60918125   -2.1775102   -2.1775102   -1.4468087  0.034677071   -2.1775102   0.73070154   424551 
 2509000   0.60912226   -2.1777002   -2.1777002   -1.4470694  0.040028137   -2.1777002   0.73063079   424551 
 2510000   0.60890583   -2.1773451   -2.1773451    -1.446974  0.037384975   -2.1773451   0.73037117   424551 
 2511000   0.60863311   -2.1767849   -2.1767849   -1.4467409  0.036305402   -2.1767849   0.73004406   424551 
 2512000   0.60802335   -2.1758617   -2.1758617   -1.4465491  0.039333428   -2.1758617   0.72931266   424551 
 2513000   0.60969821   -2.1774416   -2.1774416     -1.44612  0.034733597   -2.1774416   0.73132162   424551 
 2514000   0.60838718   -2.1754664   -2.1754664   -1.4457173  0.041394822   -2.1754664   0.72974906   424551 
 2515000   0.60880773   -2.1778285   -2.1778285    -1.447575  0.039192995   -2.1778285   0.73025351   424551 
 2516000   0.60863012   -2.1781709   -2.1781709   -1.4481304  0.035229772   -2.1781709   0.73004046   424551 
 2517000   0.60915142   -2.1782251   -2.1782251   -1.4475593  0.031652385   -2.1782251   0.73066575   424551 
 2518000   0.61020788   -2.1795369   -2.1795369   -1.4476039  0.036478374   -2.1795369   0.73193297   424551 
 2519000   0.60951654   -2.1789168   -2.1789168   -1.4478131   0.03562741   -2.1789168   0.73110372   424551 
 2520000   0.61007373   -2.1796031   -2.1796031   -1.4478311  0.033330139   -2.1796031   0.73177205   424551 
 2521000     0.609805   -2.1793139   -2.1793139   -1.4478642  0.042242236   -2.1793139   0.73144971   424551 
 2522000   0.60998878   -2.1799914   -2.1799914   -1.4483212  0.033945085   -2.1799914   0.73167016   424551 
 2523000    0.6099616    -2.180667    -2.180667   -1.4490294  0.036088917    -2.180667   0.73163755   424551 
 2524000   0.60994798   -2.1812126   -2.1812126   -1.4495914  0.037497434   -2.1812126   0.73162121   424551 
 2525000   0.60961014   -2.1814841   -2.1814841   -1.4502681  0.044298622   -2.1814841   0.73121598   424551 
 2526000   0.60986275   -2.1819603   -2.1819603   -1.4504413  0.045410462   -2.1819603   0.73151898   424551 
 2527000   0.60960599   -2.1819436   -2.1819436   -1.4507326  0.040573438   -2.1819436     0.731211   424551 
 2528000   0.60896074   -2.1820177   -2.1820177   -1.4515807  0.037418445   -2.1820177   0.73043704   424551 
 2529000   0.60923235   -2.1830283   -2.1830283   -1.4522655  0.042850929   -2.1830283   0.73076283   424551 
 2530000   0.60935203   -2.1829064   -2.1829064       -1.452  0.036777104   -2.1829064   0.73090639   424551 
 2531000   0.61018519   -2.1840333   -2.1840333   -1.4521275  0.044510388   -2.1840333   0.73190575   424551 
 2532000   0.60937745   -2.1842668   -2.1842668   -1.4533299  0.038142776   -2.1842668   0.73093688   424551 
 2533000   0.60903834   -2.1833786   -2.1833786   -1.4528485  0.039640051   -2.1833786   0.73053012   424551 
 2534000   0.60933292   -2.1839179   -2.1839179   -1.4530344  0.050207987   -2.1839179   0.73088347   424551 
 2535000   0.60825637   -2.1824562   -2.1824562   -1.4528641  0.036353875   -2.1824562   0.72959217   424551 
 2536000   0.60867955   -2.1831224   -2.1831224   -1.4530227  0.041584288   -2.1831224   0.73009976   424551 
 2537000   0.61013939   -2.1845595   -2.1845595   -1.4527086  0.041471593   -2.1845595   0.73185081   424551 
 2538000   0.60983656   -2.1838389   -2.1838389   -1.4523514  0.038064963   -2.1838389   0.73148757   424551 
 2539000   0.60835416   -2.1829376   -2.1829376   -1.4532282  0.035576768   -2.1829376   0.72970946   424551 
 2540000   0.60904318    -2.182492    -2.182492   -1.4519561  0.043844528    -2.182492   0.73053592   424551 
 2541000    0.6098227   -2.1837251   -2.1837251   -1.4522542  0.037756589   -2.1837251   0.73147094   424551 
 2542000   0.60941856   -2.1834965   -2.1834965   -1.4525103  0.044262686   -2.1834965   0.73098619   424551 
 2543000   0.60916745   -2.1826301   -2.1826301   -1.4519451  0.044757176   -2.1826301   0.73068499   424551 
 2544000   0.60873552   -2.1825979   -2.1825979    -1.452431  0.041034105   -2.1825979    0.7301669   424551 
 2545000   0.60955083   -2.1828015   -2.1828015   -1.4516567  0.042657047   -2.1828015   0.73114484   424551 
 2546000   0.60838189   -2.1812292   -2.1812292   -1.4514865  0.039189364   -2.1812292   0.72974272   424551 
 2547000   0.60921821   -2.1821016   -2.1821016   -1.4513558  0.041362235   -2.1821016   0.73074587   424551 
 2548000   0.60852773   -2.1812322   -2.1812322   -1.4513146  0.033922827   -2.1812322   0.72991765   424551 
 2549000   0.60863179   -2.1813264   -2.1813264    -1.451284  0.036008831   -2.1813264   0.73004247   424551 
 2550000    0.6078192   -2.1810911   -2.1810911   -1.4520233  0.031537405   -2.1810911   0.72906778   424551 
 2551000   0.60714495   -2.1808889   -2.1808889   -1.4526298  0.037525066   -2.1808889   0.72825904   424551 
 2552000   0.60754686   -2.1814019   -2.1814019   -1.4526608  0.035405319   -2.1814019   0.72874112   424551 
 2553000   0.60710323   -2.1806196   -2.1806196   -1.4524106  0.039564037   -2.1806196   0.72820899   424551 
 2554000   0.60654225   -2.1798656   -2.1798656   -1.4523295  0.040059569   -2.1798656    0.7275361   424551 
 2555000    0.6093679   -2.1822661   -2.1822661   -1.4513407   0.03318417   -2.1822661   0.73092543   424551 
 2556000   0.60814413   -2.1812979   -2.1812979   -1.4518403  0.036831972   -2.1812979   0.72945753   424551 
 2557000   0.60885305   -2.1820663   -2.1820663   -1.4517584  0.044792299   -2.1820663   0.73030787   424551 
 2558000   0.60817602   -2.1814858   -2.1814858   -1.4519901  0.034910902   -2.1814858   0.72949578   424551 
 2559000   0.60991159    -2.182671    -2.182671   -1.4510935  0.034167054    -2.182671   0.73157757   424551 
 2560000   0.60983168   -2.1825172   -2.1825172   -1.4510355  0.035671698   -2.1825172   0.73148172   424551 
 2561000   0.60961714   -2.1824444   -2.1824444   -1.4512201  0.046039661   -2.1824444   0.73122438   424551 
 2562000   0.60975505   -2.1831655   -2.1831655   -1.4517757  0.044936861   -2.1831655    0.7313898   424551 
 2563000   0.61044504   -2.1841322   -2.1841322   -1.4519148  0.037748587   -2.1841322   0.73221744   424551 
 2564000   0.60921738   -2.1831197   -2.1831197   -1.4523749  0.044205591   -2.1831197   0.73074488   424551 
 2565000   0.60841583   -2.1825462   -2.1825462   -1.4527628  0.036187504   -2.1825462   0.72978343   424551 
 2566000   0.60889326   -2.1837411   -2.1837411    -1.453385  0.034993557   -2.1837411   0.73035611   424551 
 2567000   0.60798541   -2.1831572   -2.1831572     -1.45389  0.035039573   -2.1831572   0.72926715   424551 
 2568000   0.60888482   -2.1831344   -2.1831344   -1.4527884   0.03759499   -2.1831344   0.73034598   424551 
 2569000    0.6099069   -2.1847527   -2.1847527   -1.4531808  0.042594493   -2.1847527   0.73157195   424551 
 2570000   0.61052254   -2.1856855   -2.1856855   -1.4533751  0.034384945   -2.1856855   0.73231039   424551 
 2571000   0.60886944   -2.1842762   -2.1842762   -1.4539486  0.040641622   -2.1842762   0.73032753   424551 
 2572000    0.6086031   -2.1839396   -2.1839396   -1.4539316  0.034763174   -2.1839396   0.73000806   424551 
 2573000    0.6096503   -2.1849935   -2.1849935   -1.4537293  0.042573909   -2.1849935   0.73126415   424551 
 2574000   0.60865965   -2.1838108   -2.1838108    -1.453735  0.034367379   -2.1838108   0.73007589   424551 
 2575000   0.60896354   -2.1836931   -2.1836931   -1.4532527  0.037783233   -2.1836931    0.7304404   424551 
 2576000   0.60882371   -2.1834346   -2.1834346   -1.4531619  0.035372917   -2.1834346   0.73027268   424551 
 2577000   0.60840112   -2.1834978   -2.1834978    -1.453732  0.040700062   -2.1834978   0.72976579   424551 
 2578000   0.60858308   -2.1835144   -2.1835144   -1.4535304  0.040252351   -2.1835144   0.72998405   424551 
 2579000   0.60908699   -2.1843887   -2.1843887   -1.4538002  0.031651517   -2.1843887   0.73058848   424551 
 2580000   0.60844463   -2.1831219   -2.1831219   -1.4533039  0.037377471   -2.1831219   0.72981798   424551 
 2581000   0.60956232   -2.1841619   -2.1841619   -1.4530033  0.037366811   -2.1841619   0.73115863   424551 
 2582000   0.60841198    -2.182337    -2.182337   -1.4525582  0.035463247    -2.182337   0.72977882   424551 
 2583000   0.60910419   -2.1832237   -2.1832237   -1.4526146  0.039064901   -2.1832237   0.73060911   424551 
 2584000   0.60986766   -2.1836077   -2.1836077   -1.4520828  0.037255275   -2.1836077   0.73152488   424551 
 2585000   0.61037214   -2.1846746   -2.1846746   -1.4525446  0.030771096   -2.1846746   0.73212999   424551 
 2586000   0.60884953   -2.1827268   -2.1827268   -1.4524231  0.039227882   -2.1827268   0.73030365   424551 
 2587000   0.60960444   -2.1844181   -2.1844181    -1.453209  0.030668836   -2.1844181   0.73120915   424551 
 2588000   0.60870893   -2.1836231   -2.1836231   -1.4534881   0.03642953   -2.1836231     0.730135   424551 
 2589000   0.60685238   -2.1816737   -2.1816737   -1.4537656  0.038853293   -2.1816737   0.72790811   424551 
 2590000   0.60851535   -2.1831901   -2.1831901   -1.4532873  0.038783898   -2.1831901    0.7299028   424551 
 2591000   0.60961007   -2.1839279   -2.1839279    -1.452712  0.043530002   -2.1839279    0.7312159   424551 
 2592000   0.60948284   -2.1840228   -2.1840228   -1.4529595  0.037367671   -2.1840228   0.73106329   424551 
 2593000   0.60973003   -2.1841562   -2.1841562   -1.4527964  0.042166647   -2.1841562   0.73135979   424551 
 2594000   0.60969156   -2.1839821   -2.1839821   -1.4526685  0.033793567   -2.1839821   0.73131365   424551 
 2595000    0.6095159   -2.1839631   -2.1839631   -1.4528602  0.039005852   -2.1839631   0.73110294   424551 
 2596000    0.6095045   -2.1843118   -2.1843118   -1.4532225  0.032517946   -2.1843118   0.73108927   424551 
 2597000   0.60927992    -2.183944    -2.183944   -1.4531241  0.037761707    -2.183944   0.73081989   424551 
 2598000   0.60879674    -2.183812    -2.183812   -1.4535717  0.043762561    -2.183812   0.73024032   424551 
 2599000   0.60968417   -2.1848649   -2.1848649   -1.4535601  0.047739786   -2.1848649   0.73130479   424551 
 2600000   0.61015209   -2.1862073   -2.1862073   -1.4543413  0.036206442   -2.1862073   0.73186604   424551 
 2601000   0.61002485   -2.1868209   -2.1868209   -1.4551075  0.022385825   -2.1868209   0.73171343   424551 
 2602000   0.60965418   -2.1860044   -2.1860044   -1.4547355   0.03925929   -2.1860044   0.73126881   424551 
 2603000   0.61020259   -2.1855575   -2.1855575   -1.4536309  0.042594079   -2.1855575   0.73192662   424551 
 2604000   0.60959478    -2.184431    -2.184431   -1.4532334  0.039716511    -2.184431   0.73119756   424551 
 2605000   0.60896666   -2.1837058   -2.1837058   -1.4532617   0.03546859   -2.1837058   0.73044414   424551 
 2606000   0.60913292   -2.1839574   -2.1839574   -1.4533138  0.031581938   -2.1839574   0.73064357   424551 
 2607000     0.608751   -2.1838182   -2.1838182   -1.4536327  0.035967244   -2.1838182   0.73018546   424551 
 2608000   0.60866559   -2.1836072   -2.1836072   -1.4535242  0.038418852   -2.1836072   0.73008302   424551 
 2609000   0.60929811   -2.1841346   -2.1841346   -1.4532929  0.035701527   -2.1841346   0.73084171   424551 
 2610000   0.60832572   -2.1833252   -2.1833252   -1.4536499  0.039271544   -2.1833252   0.72967534   424551 
 2611000   0.60876207   -2.1837148   -2.1837148    -1.453516  0.041568811   -2.1837148   0.73019874   424551 
 2612000    0.6084095   -2.1832909   -2.1832909   -1.4535151  0.037856395   -2.1832909   0.72977584   424551 
 2613000    0.6084802   -2.1832973   -2.1832973   -1.4534367  0.033068539   -2.1832973   0.72986064   424551 
 2614000   0.60926883   -2.1833683   -2.1833683   -1.4525617  0.039250557   -2.1833683   0.73080659   424551 
 2615000   0.60868045   -2.1829904   -2.1829904   -1.4528896   0.04100459   -2.1829904   0.73010083   424551 
 2616000   0.60846569   -2.1822898   -2.1822898   -1.4524466  0.042520047   -2.1822898   0.72984324   424551 
 2617000   0.60913354   -2.1834922   -2.1834922   -1.4528479  0.041801639   -2.1834922   0.73064431   424551 
 2618000   0.60907178   -2.1840459   -2.1840459   -1.4534757  0.044543923   -2.1840459   0.73057023   424551 
 2619000    0.6085018   -2.1838443   -2.1838443   -1.4539578  0.036985311   -2.1838443   0.72988655   424551 
 2620000   0.60810876   -2.1827982   -2.1827982   -1.4533831  0.036458482   -2.1827982   0.72941511   424551 
 2621000   0.60775749   -2.1831297   -2.1831297    -1.454136  0.042952637   -2.1831297   0.72899376   424551 
 2622000   0.60756162   -2.1824303   -2.1824303   -1.4536715  0.033155022   -2.1824303   0.72875883   424551 
 2623000   0.60799893    -2.182991    -2.182991   -1.4537076  0.042793693    -2.182991   0.72928336   424551 
 2624000   0.60819392   -2.1832583   -2.1832583    -1.453741  0.041696051   -2.1832583   0.72951726   424551 
 2625000   0.60812995   -2.1834158   -2.1834158   -1.4539753  0.037155863   -2.1834158   0.72944052   424551 
 2626000   0.60802577   -2.1833691   -2.1833691   -1.4540535  0.041364679   -2.1833691   0.72931556   424551 
 2627000   0.60768286   -2.1836863   -2.1836863   -1.4547821  0.037203208   -2.1836863   0.72890425   424551 
 2628000   0.60773507   -2.1827227   -2.1827227   -1.4537558   0.04032899   -2.1827227   0.72896688   424551 
 2629000   0.60830943   -2.1839001   -2.1839001   -1.4542443  0.035203864   -2.1839001    0.7296558   424551 
 2630000   0.60875847   -2.1845907   -2.1845907   -1.4543962  0.035391865   -2.1845907   0.73019442   424551 
 2631000   0.61071467    -2.186543    -2.186543   -1.4540021  0.043409563    -2.186543   0.73254085   424551 
 2632000   0.61109103   -2.1861963   -2.1861963    -1.453204  0.047688395   -2.1861963   0.73299228   424551 
 2633000   0.61030734   -2.1856073   -2.1856073    -1.453555  0.036341291   -2.1856073   0.73205227   424551 
 2634000   0.60952967   -2.1851367   -2.1851367   -1.4540173  0.048579055   -2.1851367   0.73111946   424551 
 2635000   0.60963804   -2.1855397   -2.1855397   -1.4542902  0.041659632   -2.1855397   0.73124944   424551 
 2636000   0.60930358   -2.1859436   -2.1859436   -1.4550953  0.031590017   -2.1859436   0.73084827   424551 
 2637000   0.60905796   -2.1856464   -2.1856464   -1.4550928  0.038920705   -2.1856464   0.73055365   424551 
 2638000   0.60861665   -2.1855306   -2.1855306   -1.4555063  0.042112268   -2.1855306   0.73002431   424551 
 2639000   0.60921853   -2.1863321   -2.1863321   -1.4555858  0.041829941   -2.1863321   0.73074625   424551 
 2640000   0.60915273   -2.1860076   -2.1860076   -1.4553403  0.035546553   -2.1860076   0.73066733   424551 
 2641000   0.60789842   -2.1833679   -2.1833679   -1.4542051  0.038994459   -2.1833679   0.72916281   424551 
 2642000   0.60848595   -2.1849832   -2.1849832   -1.4551156  0.042718718   -2.1849832   0.72986754   424551 
 2643000    0.6084567   -2.1850421   -2.1850421   -1.4552096  0.032800949   -2.1850421   0.72983245   424551 
 2644000   0.60897885   -2.1854721   -2.1854721   -1.4550133  0.032796131   -2.1854721   0.73045877   424551 
 2645000   0.60920969   -2.1853081   -2.1853081   -1.4545725  0.035760813   -2.1853081   0.73073565   424551 
 2646000   0.60854328   -2.1846848   -2.1846848   -1.4547484  0.037051837   -2.1846848   0.72993631   424551 
 2647000   0.60879394   -2.1847135   -2.1847135   -1.4544765  0.036696423   -2.1847135   0.73023697   424551 
 2648000   0.60895118   -2.1839498   -2.1839498   -1.4535242  0.046928749   -2.1839498   0.73042557   424551 
 2649000    0.6081833   -2.1833319   -2.1833319   -1.4538274  0.035723663   -2.1833319   0.72950452   424551 
 2650000   0.60921894   -2.1844221   -2.1844221   -1.4536753  0.040987774   -2.1844221   0.73074675   424551 
 2651000   0.60760006   -2.1827963   -2.1827963   -1.4539914  0.033356759   -2.1827963   0.72880493   424551 
 2652000   0.60789006   -2.1841041   -2.1841041   -1.4549513  0.028210076   -2.1841041   0.72915278   424551 
 2653000   0.60863682   -2.1845997   -2.1845997   -1.4545512  0.035982887   -2.1845997   0.73004851   424551 
 2654000   0.60881865    -2.185065    -2.185065   -1.4547984  0.038085175    -2.185065    0.7302666   424551 
 2655000   0.60950442   -2.1857831   -2.1857831   -1.4546939   0.03566297   -2.1857831   0.73108918   424551 
 2656000    0.6096846   -2.1863271   -2.1863271   -1.4550218  0.044498943   -2.1863271    0.7313053   424551 
 2657000   0.60923626   -2.1857579   -2.1857579   -1.4549904  0.035245725   -2.1857579   0.73076752   424551 
 2658000   0.60988769   -2.1861314   -2.1861314   -1.4545825  0.039230055   -2.1861314    0.7315489   424551 
 2659000    0.6105034    -2.186402    -2.186402   -1.4541146  0.032978463    -2.186402   0.73228744   424551 
 2660000   0.60854282   -2.1846815   -2.1846815   -1.4547458  0.035294457   -2.1846815   0.72993575   424551 
 2661000   0.60888923   -2.1861598   -2.1861598   -1.4558085  0.038762856   -2.1861598   0.73035126   424551 
 2662000   0.60878836   -2.1858642   -2.1858642   -1.4556339  0.038390757   -2.1858642   0.73023027   424551 
 2663000   0.60844243   -2.1850177   -2.1850177   -1.4552023  0.044339852   -2.1850177   0.72981534   424551 
 2664000   0.60785803   -2.1847597   -2.1847597   -1.4556453  0.035826889   -2.1847597   0.72911436   424551 
 2665000    0.6085124   -2.1850463   -2.1850463    -1.455147  0.039965134   -2.1850463   0.72989927   424551 
 2666000   0.60773853   -2.1843572   -2.1843572   -1.4553862  0.038192244   -2.1843572   0.72897103   424551 
 2667000   0.60940108   -2.1864928   -2.1864928   -1.4555276  0.044622834   -2.1864928   0.73096522   424551 
 2668000   0.60950168   -2.1868383   -2.1868383   -1.4557524  0.045820797   -2.1868383   0.73108589   424551 
 2669000   0.60866061    -2.185799    -2.185799   -1.4557219  0.046299642    -2.185799   0.73007704   424551 
 2670000   0.60844077   -2.1861994   -2.1861994   -1.4563861  0.036713558   -2.1861994   0.72981335   424551 
 2671000   0.60914286   -2.1860125   -2.1860125   -1.4553571  0.041455759   -2.1860125   0.73065549   424551 
 2672000   0.60956712   -2.1861539   -2.1861539   -1.4549895  0.041653358   -2.1861539   0.73116439   424551 
 2673000   0.60810237   -2.1847134   -2.1847134   -1.4553059  0.045027006   -2.1847134   0.72940744   424551 
 2674000   0.60822946   -2.1845424   -2.1845424   -1.4549825   0.04167833   -2.1845424   0.72955989   424551 
 2675000   0.60959874   -2.1867515   -2.1867515   -1.4555491  0.040441821   -2.1867515   0.73120231   424551 
 2676000   0.60881748   -2.1855406   -2.1855406   -1.4552754  0.043084718   -2.1855406    0.7302652   424551 
 2677000   0.60781805   -2.1839102   -2.1839102   -1.4548438  0.030894062   -2.1839102    0.7290664   424551 
 2678000   0.60878478   -2.1857094   -2.1857094   -1.4554834  0.046316303   -2.1857094   0.73022598   424551 
 2679000   0.60764921   -2.1837853   -2.1837853   -1.4549214  0.034191544   -2.1837853   0.72886388   424551 
 2680000   0.60780618    -2.185537    -2.185537   -1.4564848  0.033227178    -2.185537   0.72905217   424551 
 2681000   0.60680671   -2.1840465   -2.1840465   -1.4561932   0.03506202   -2.1840465   0.72785332   424551 
 2682000   0.60819293   -2.1849158   -2.1849158   -1.4553998  0.035932978   -2.1849158   0.72951607   424551 
 2683000    0.6083188    -2.184747    -2.184747     -1.45508  0.037085374    -2.184747   0.72966705   424551 
 2684000    0.6089979   -2.1853848   -2.1853848   -1.4549032  0.038746008   -2.1853848   0.73048162   424551 
 2685000   0.60775622   -2.1837927   -2.1837927   -1.4548005  0.043642898   -2.1837927   0.72899225   424551 
 2686000   0.60972453   -2.1856178   -2.1856178   -1.4542646    0.0438044   -2.1856178    0.7313532   424551 
 2687000   0.60897806   -2.1849599   -2.1849599    -1.454502  0.038279845   -2.1849599   0.73045782   424551 
 2688000   0.60888765   -2.1850092   -2.1850092   -1.4546599   0.03603892   -2.1850092   0.73034938   424551 
 2689000   0.60842354     -2.18469     -2.18469   -1.4548973  0.032262039     -2.18469   0.72979268   424551 
 2690000   0.60774268   -2.1836628   -2.1836628   -1.4546868  0.031943454   -2.1836628     0.728976   424551 
 2691000   0.60776224   -2.1839674   -2.1839674    -1.454968  0.041554573   -2.1839674   0.72899946   424551 
 2692000   0.60777404   -2.1832826   -2.1832826    -1.454269  0.035986912   -2.1832826   0.72901362   424551 
 2693000   0.60963272   -2.1856476   -2.1856476   -1.4544045  0.031542114   -2.1856476   0.73124307   424551 
 2694000   0.60765463   -2.1834988   -2.1834988   -1.4546284  0.035415059   -2.1834988   0.72887039   424551 
 2695000   0.60770128   -2.1827508   -2.1827508   -1.4538245  0.040850236   -2.1827508   0.72892634   424551 
 2696000   0.60881556   -2.1840205   -2.1840205   -1.4537576  0.034403013   -2.1840205   0.73026291   424551 
 2697000   0.60876562    -2.185518    -2.185518    -1.455315  0.038934758    -2.185518   0.73020299   424551 
 2698000   0.60720618   -2.1833149   -2.1833149   -1.4549824  0.032636339   -2.1833149   0.72833248   424551 
 2699000   0.60762608    -2.184066    -2.184066   -1.4552299  0.039020207    -2.184066   0.72883614   424551 
 2700000   0.60871108   -2.1844347   -2.1844347   -1.4542971   0.03932739   -2.1844347   0.73013758   424551 
 2701000   0.60855415   -2.1835528   -2.1835528   -1.4536035  0.043996849   -2.1835528   0.72994934   424551 
 2702000   0.60969382   -2.1846429   -2.1846429   -1.4533266  0.039196379   -2.1846429   0.73131636   424551 
 2703000   0.60879156   -2.1845529   -2.1845529   -1.4543188   0.04351815   -2.1845529   0.73023412   424551 
 2704000   0.60848393   -2.1845533   -2.1845533   -1.4546882  0.048178846   -2.1845533   0.72986512   424551 
 2705000   0.60912671   -2.1845713   -2.1845713   -1.4539351   0.04666605   -2.1845713   0.73063612   424551 
 2706000   0.60853364   -2.1842707   -2.1842707    -1.454346   0.04002928   -2.1842707   0.72992474   424551 
 2707000   0.60827718   -2.1838425   -2.1838425   -1.4542253  0.043622073   -2.1838425   0.72961713   424551 
 2708000   0.60916917   -2.1845336   -2.1845336   -1.4538466  0.040870681   -2.1845336   0.73068705   424551 
 2709000   0.60906415   -2.1856088   -2.1856088   -1.4550477  0.044206407   -2.1856088   0.73056108   424551 
 2710000   0.60869756    -2.185706    -2.185706   -1.4555847   0.03812086    -2.185706   0.73012137   424551 
 2711000   0.60918338   -2.1863214   -2.1863214   -1.4556173  0.037043593   -2.1863214   0.73070409   424551 
 2712000   0.60849297   -2.1851627   -2.1851627   -1.4552868  0.035029176   -2.1851627   0.72987596   424551 
 2713000   0.60873474   -2.1848121   -2.1848121   -1.4546462   0.03573419   -2.1848121   0.73016596   424551 
 2714000   0.60902691   -2.1854108   -2.1854108   -1.4548943  0.030893095   -2.1854108   0.73051641   424551 
 2715000   0.60912293   -2.1859698   -2.1859698   -1.4553382  0.041001437   -2.1859698   0.73063159   424551 
 2716000   0.60819018   -2.1845061   -2.1845061   -1.4549933  0.043001862   -2.1845061   0.72951277   424551 
 2717000   0.60873797   -2.1852012   -2.1852012   -1.4550314  0.040619493   -2.1852012   0.73016983   424551 
 2718000   0.60926974   -2.1846259   -2.1846259   -1.4538183  0.037018793   -2.1846259   0.73080768   424551 
 2719000   0.60796966   -2.1837477   -2.1837477   -1.4544995  0.041233767   -2.1837477   0.72924827   424551 
 2720000   0.60875095   -2.1854227   -2.1854227   -1.4552373  0.041928132   -2.1854227    0.7301854   424551 
 2721000   0.60761464   -2.1834261   -2.1834261   -1.4546037  0.040659625   -2.1834261   0.72882242   424551 
 2722000   0.60901973   -2.1844567   -2.1844567   -1.4539489  0.035621692   -2.1844567    0.7305078   424551 
 2723000   0.60845831   -2.1838575   -2.1838575   -1.4540231  0.031627387   -2.1838575   0.72983438   424551 
 2724000   0.60922878   -2.1847123   -2.1847123   -1.4539537  0.039095321   -2.1847123   0.73075855   424551 
 2725000   0.60826055   -2.1847853   -2.1847853   -1.4551882  0.042520381   -2.1847853   0.72959718   424551 
 2726000   0.60931292   -2.1862256   -2.1862256   -1.4553662  0.037583057   -2.1862256   0.73085947   424551 
 2727000     0.607591    -2.184424    -2.184424   -1.4556299  0.043809384    -2.184424   0.72879406   424551 
 2728000    0.6090236   -2.1859626   -2.1859626   -1.4554501  0.040193044   -2.1859626   0.73051245   424551 
 2729000   0.60659117    -2.183185    -2.183185   -1.4555903  0.037589392    -2.183185   0.72759478   424551 
 2730000   0.60921844   -2.1854391   -2.1854391   -1.4546929  0.041295847   -2.1854391   0.73074615   424551 
 2731000    0.6082606   -2.1845035   -2.1845035   -1.4549062  0.044410806   -2.1845035   0.72959724   424551 
 2732000   0.60804515   -2.1849621   -2.1849621   -1.4556233  0.038990181   -2.1849621    0.7293388   424551 
 2733000   0.60895551   -2.1857495   -2.1857495   -1.4553188  0.036773961   -2.1857495   0.73043077   424551 
 2734000   0.60813343   -2.1848037   -2.1848037    -1.455359   0.03830576   -2.1848037    0.7294447   424551 
 2735000   0.60761958   -2.1842226   -2.1842226   -1.4553943  0.039483085   -2.1842226   0.72882834   424551 
 2736000   0.60773278    -2.184603    -2.184603   -1.4556388  0.044281073    -2.184603   0.72896413   424551 
 2737000   0.60832561   -2.1856124   -2.1856124   -1.4559372  0.039140395   -2.1856124   0.72967522   424551 
 2738000   0.60699966    -2.184325    -2.184325   -1.4562402  0.028951412    -2.184325   0.72808476   424551 
 2739000   0.60769943   -2.1848385   -2.1848385   -1.4559144  0.037564826   -2.1848385   0.72892412   424551 
 2740000   0.60853067    -2.185846    -2.185846   -1.4559248  0.037867048    -2.185846   0.72992118   424551 
 2741000   0.60883397   -2.1861217   -2.1861217   -1.4558367  0.040286108   -2.1861217   0.73028499   424551 
 2742000   0.60890195   -2.1853806   -2.1853806   -1.4550141  0.033748929   -2.1853806   0.73036653   424551 
 2743000   0.60886006   -2.1854537   -2.1854537   -1.4551375  0.033326629   -2.1854537   0.73031627   424551 
 2744000   0.60876463   -2.1856324   -2.1856324   -1.4554306  0.036421079   -2.1856324   0.73020181   424551 
 2745000   0.60817869   -2.1853947   -2.1853947   -1.4558957  0.031884171   -2.1853947   0.72949899   424551 
 2746000   0.60944379   -2.1872866   -2.1872866   -1.4562701  0.041055197   -2.1872866   0.73101645   424551 
 2747000   0.60787674   -2.1854117   -2.1854117   -1.4562748  0.028001498   -2.1854117   0.72913681   424551 
 2748000   0.60818203   -2.1858493   -2.1858493   -1.4563463  0.036138534   -2.1858493   0.72950299   424551 
 2749000   0.60757194   -2.1859009   -2.1859009   -1.4571297  0.044780087   -2.1859009    0.7287712   424551 
 2750000   0.60732297    -2.185994    -2.185994   -1.4575215  0.028940325    -2.185994   0.72847256   424551 
 2751000   0.60797986   -2.1861986   -2.1861986   -1.4569381  0.043191369   -2.1861986    0.7292605   424551 
 2752000   0.60849681   -2.1861868   -2.1861868   -1.4563062  0.041727437   -2.1861868   0.72988057   424551 
 2753000   0.60911058    -2.186905    -2.186905   -1.4562882  0.038232869    -2.186905   0.73061677   424551 
 2754000     0.607406   -2.1854671   -2.1854671    -1.456895  0.041361705   -2.1854671   0.72857215   424551 
 2755000   0.60681822   -2.1853901   -2.1853901   -1.4575229  0.045658383   -2.1853901   0.72786713   424551 
 2756000   0.60760904   -2.1867247   -2.1867247    -1.457909  0.038802874   -2.1867247    0.7288157   424551 
 2757000   0.60823326   -2.1874794   -2.1874794    -1.457915  0.039526985   -2.1874794   0.72956444   424551 
 2758000   0.60841428   -2.1864675   -2.1864675   -1.4566859  0.034744841   -2.1864675   0.72978157   424551 
 2759000   0.60742393   -2.1858426   -2.1858426   -1.4572489   0.04184791   -2.1858426   0.72859366   424551 
 2760000   0.60783728     -2.18662     -2.18662   -1.4575306  0.041952402     -2.18662   0.72908948   424551 
 2761000   0.60864349   -2.1878975   -2.1878975    -1.457841  0.040442136   -2.1878975   0.73005651   424551 
 2762000   0.60792707   -2.1865238   -2.1865238   -1.4573267  0.040973118   -2.1865238   0.72919717   424551 
 2763000   0.60758191   -2.1865634   -2.1865634   -1.4577803    0.0332523   -2.1865634   0.72878316   424551 
 2764000   0.60843537   -2.1870367   -2.1870367   -1.4572298  0.039880605   -2.1870367   0.72980687   424551 
 2765000    0.6087997    -2.187822    -2.187822   -1.4575781  0.038876286    -2.187822   0.73024387   424551 
 2766000   0.60848886   -2.1873394   -2.1873394   -1.4574684  0.040266024   -2.1873394   0.72987103   424551 
 2767000   0.60731918   -2.1853675   -2.1853675   -1.4568994  0.041703406   -2.1853675   0.72846802   424551 
 2768000   0.60899051   -2.1879089   -2.1879089   -1.4574361  0.039891801   -2.1879089   0.73047275   424551 
 2769000   0.60820454   -2.1876155   -2.1876155   -1.4580855  0.036352369   -2.1876155   0.72952999   424551 
 2770000    0.6088948     -2.18801     -2.18801   -1.4576521  0.044856523     -2.18801   0.73035795   424551 
 2771000    0.6079823   -2.1872142   -2.1872142   -1.4579508   0.03628533   -2.1872142   0.72926342   424551 
 2772000   0.60787459   -2.1876768   -2.1876768   -1.4585425  0.037216798   -2.1876768   0.72913422   424551 
 2773000   0.60751011   -2.1870102   -2.1870102   -1.4583131  0.041613732   -2.1870102   0.72869704   424551 
 2774000   0.60693822   -2.1860274   -2.1860274   -1.4580163  0.036735368   -2.1860274   0.72801107   424551 
 2775000   0.60752807    -2.186269    -2.186269   -1.4575504  0.040020255    -2.186269   0.72871858   424551 
 2776000   0.60756136   -2.1871334   -2.1871334   -1.4583749  0.038003485   -2.1871334   0.72875851   424551 
 2777000   0.60730622   -2.1871339   -2.1871339   -1.4586814  0.034663312   -2.1871339   0.72845248   424551 
 2778000   0.60823692   -2.1882426   -2.1882426   -1.4586738  0.032904942   -2.1882426   0.72956883   424551 
 2779000   0.60774428   -2.1872899   -2.1872899    -1.458312  0.031466576   -2.1872899   0.72897792   424551 
 2780000   0.60784515   -2.1871998   -2.1871998   -1.4581009  0.042776854   -2.1871998   0.72909891   424551 
 2781000   0.60849357   -2.1878823   -2.1878823   -1.4580056  0.037004123   -2.1878823   0.72987668   424551 
 2782000   0.60799866   -2.1878736   -2.1878736   -1.4585906  0.029959104   -2.1878736   0.72928304   424551 
 2783000    0.6091465   -2.1896351   -2.1896351   -1.4589752  0.036140756   -2.1896351   0.73065986   424551 
 2784000   0.60947299   -2.1884983   -2.1884983   -1.4574468  0.033425872   -2.1884983   0.73105147   424551 
 2785000   0.60956856   -2.1880331   -2.1880331    -1.456867  0.038897701   -2.1880331   0.73116611   424551 
 2786000   0.60935921   -2.1889946   -2.1889946   -1.4580796  0.037713818   -2.1889946     0.730915   424551 
 2787000    0.6089853   -2.1884427   -2.1884427   -1.4579762  0.045901895   -2.1884427   0.73046651   424551 
 2788000   0.60908413   -2.1882536   -2.1882536   -1.4576686  0.036865719   -2.1882536   0.73058504   424551 
 2789000   0.61049728   -2.1904908   -2.1904908   -1.4582107  0.031964519   -2.1904908   0.73228009   424551 
 2790000   0.60879013   -2.1886995   -2.1886995   -1.4584671  0.030288711   -2.1886995    0.7302324   424551 
 2791000   0.60744602   -2.1881176   -2.1881176   -1.4594974  0.033863158   -2.1881176   0.72862016   424551 
 2792000   0.60745813   -2.1876581   -2.1876581   -1.4590234  0.031040372   -2.1876581   0.72863469   424551 
 2793000   0.60733431    -2.188252    -2.188252   -1.4597658  0.038752098    -2.188252   0.72848617   424551 
 2794000   0.60759308   -2.1885525   -2.1885525   -1.4597559  0.029942455   -2.1885525   0.72879656   424551 
 2795000   0.60732304   -2.1887938   -2.1887938   -1.4603211  0.037921194   -2.1887938   0.72847265   424551 
 2796000    0.6080312   -2.1898939   -2.1898939   -1.4605718  0.037564089   -2.1898939   0.72932207   424551 
 2797000   0.60766261   -2.1885144   -2.1885144   -1.4596344  0.039729022   -2.1885144   0.72887996   424551 
 2798000   0.60777128    -2.189319    -2.189319   -1.4603087  0.030396394    -2.189319    0.7290103   424551 
 2799000   0.60753657   -2.1891826   -2.1891826   -1.4604538  0.041492598   -2.1891826   0.72872877   424551 
 2800000   0.60833468   -2.1887611   -2.1887611    -1.459075  0.037592955   -2.1887611   0.72968609   424551 
 2801000   0.60892441   -2.1891629   -2.1891629   -1.4587694  0.036554001   -2.1891629   0.73039346   424551 
 2802000   0.60766753   -2.1888741   -2.1888741   -1.4599882  0.032628222   -2.1888741   0.72888586   424551 
 2803000   0.60773201   -2.1883689   -2.1883689   -1.4594057  0.034818512   -2.1883689    0.7289632   424551 
 2804000    0.6082735   -2.1887278   -2.1887278   -1.4591151  0.036555147   -2.1887278   0.72961271   424551 
 2805000   0.60740498   -2.1889031   -2.1889031   -1.4603322  0.035147531   -2.1889031   0.72857094   424551 
 2806000   0.60756269   -2.1888126   -2.1888126   -1.4600525  0.040405249   -2.1888126   0.72876011   424551 
 2807000   0.60852145    -2.189415    -2.189415   -1.4595049    0.0362591    -2.189415   0.72991012   424551 
 2808000   0.60846407   -2.1893719   -2.1893719   -1.4595306  0.040217661   -2.1893719    0.7298413   424551 
 2809000   0.60784004   -2.1879287   -2.1879287    -1.458836  0.038958575   -2.1879287   0.72909278   424551 
 2810000   0.60818717   -2.1893142   -2.1893142    -1.459805  0.035945092   -2.1893142   0.72950916   424551 
 2811000   0.60980655   -2.1903388   -2.1903388   -1.4588872   0.03359769   -2.1903388   0.73145157   424551 
 2812000   0.60850112   -2.1881729   -2.1881729   -1.4582872  0.040891014   -2.1881729   0.72988574   424551 
 2813000   0.60917285   -2.1888897   -2.1888897   -1.4581983  0.043121562   -2.1888897   0.73069147   424551 
 2814000   0.60903347   -2.1885777   -2.1885777   -1.4580534  0.037735096   -2.1885777   0.73052427   424551 
 2815000   0.60911733   -2.1880284   -2.1880284   -1.4574036  0.039247504   -2.1880284   0.73062487   424551 
 2816000   0.60819347    -2.188035    -2.188035   -1.4585183  0.035768215    -2.188035   0.72951672   424551 
 2817000   0.60803716   -2.1885456   -2.1885456   -1.4592164  0.029593157   -2.1885456   0.72932923   424551 
 2818000   0.60831719   -2.1886087   -2.1886087   -1.4589436  0.034147735   -2.1886087   0.72966512   424551 
 2819000   0.60763121   -2.1881592   -2.1881592   -1.4593169  0.039067495   -2.1881592    0.7288423   424551 
 2820000   0.60778775   -2.1888856   -2.1888856   -1.4598555  0.036606328   -2.1888856   0.72903006   424551 
 2821000   0.60809695   -2.1891299   -2.1891299   -1.4597289  0.040634372   -2.1891299   0.72940094   424551 
 2822000   0.60634864   -2.1875095   -2.1875095   -1.4602057   0.03082599   -2.1875095   0.72730387   424551 
 2823000   0.60805845   -2.1892646   -2.1892646   -1.4599098   0.04294646   -2.1892646   0.72935476   424551 
 2824000    0.6083231   -2.1897797   -2.1897797   -1.4601075  0.035433407   -2.1897797    0.7296722   424551 
 2825000   0.60767473   -2.1890334   -2.1890334   -1.4601389  0.036796272   -2.1890334    0.7288945   424551 
 2826000   0.60789569   -2.1897881   -2.1897881   -1.4606285  0.039256543   -2.1897881   0.72915953   424551 
 2827000   0.60899895   -2.1911992   -2.1911992   -1.4607163  0.030016295   -2.1911992   0.73048287   424551 
 2828000   0.60859028   -2.1914425   -2.1914425   -1.4614499  0.040404969   -2.1914425   0.72999268   424551 
 2829000   0.60914332   -2.1923298   -2.1923298   -1.4616738  0.036289362   -2.1923298   0.73065605   424551 
 2830000   0.60728229   -2.1896488   -2.1896488   -1.4612251  0.046107445   -2.1896488   0.72842377   424551 
 2831000   0.60808055   -2.1899576   -2.1899576   -1.4605763  0.038380435   -2.1899576   0.72938127   424551 
 2832000   0.60827951    -2.190475    -2.190475   -1.4608551  0.043744201    -2.190475   0.72961991   424551 
 2833000   0.60818697    -2.190524    -2.190524    -1.461015  0.041559238    -2.190524   0.72950892   424551 
 2834000   0.60824359   -2.1916868   -2.1916868     -1.46211  0.041135807   -2.1916868   0.72957683   424551 
 2835000   0.60789304   -2.1921946   -2.1921946   -1.4630382  0.042821529   -2.1921946   0.72915635   424551 
 2836000    0.6076661   -2.1922505   -2.1922505   -1.4633663  0.032391496   -2.1922505   0.72888414   424551 
 2837000    0.6086316   -2.1924717   -2.1924717   -1.4624294  0.032100733   -2.1924717   0.73004225   424551 
 2838000   0.60860091   -2.1925406   -2.1925406   -1.4625352  0.039193853   -2.1925406   0.73000543   424551 
 2839000   0.60728765   -2.1908943   -2.1908943   -1.4624641  0.045519833   -2.1908943    0.7284302   424551 
 2840000   0.60604321   -2.1900277   -2.1900277   -1.4630901  0.035722985   -2.1900277   0.72693751   424551 
 2841000   0.60766503   -2.1912747   -2.1912747   -1.4623919  0.031444903   -2.1912747   0.72888287   424551 
 2842000    0.6074229   -2.1912689   -2.1912689   -1.4626765  0.044698254   -2.1912689   0.72859243   424551 
 2843000    0.6066915   -2.1906657   -2.1906657   -1.4629506   0.03883442   -2.1906657   0.72771512   424551 
 2844000   0.60735298   -2.1909606   -2.1909606   -1.4624521   0.03576747   -2.1909606   0.72850857   424551 
 2845000   0.60762389   -2.1910985   -2.1910985   -1.4622649  0.035782964   -2.1910985   0.72883352   424551 
 2846000   0.60800473   -2.1922342   -2.1922342   -1.4629439  0.036629783   -2.1922342   0.72929032   424551 
 2847000   0.60841765    -2.192474    -2.192474   -1.4626884  0.040338103    -2.192474   0.72978561   424551 
 2848000   0.60824707   -2.1923107   -2.1923107   -1.4627297  0.033363704   -2.1923107     0.729581   424551 
 2849000   0.60743848   -2.1908822   -2.1908822   -1.4622711  0.035717296   -2.1908822   0.72861111   424551 
 2850000    0.6081171   -2.1913832   -2.1913832   -1.4619581  0.041317986   -2.1913832   0.72942511   424551 
 2851000   0.60822861   -2.1918259   -2.1918259    -1.462267  0.041120165   -2.1918259   0.72955886   424551 
 2852000   0.60849237   -2.1917664   -2.1917664   -1.4618911  0.037842302   -2.1917664   0.72987524   424551 
 2853000   0.60767995   -2.1913624   -2.1913624   -1.4624617  0.037452984   -2.1913624   0.72890076   424551 
 2854000   0.60972691   -2.1934199   -2.1934199   -1.4620639  0.038000392   -2.1934199   0.73135605   424551 
 2855000   0.60864528   -2.1918001   -2.1918001   -1.4617414  0.041131238   -2.1918001   0.73005865   424551 
 2856000   0.60806679   -2.1917712   -2.1917712   -1.4624064   0.04430349   -2.1917712   0.72936476   424551 
 2857000    0.6081461   -2.1911931   -2.1911931   -1.4617332  0.037595821   -2.1911931   0.72945989   424551 
 2858000   0.60825595   -2.1918746   -2.1918746   -1.4622829   0.03624936   -2.1918746   0.72959166   424551 
 2859000   0.60792428   -2.1923478   -2.1923478    -1.463154    0.0363976   -2.1923478   0.72919383   424551 
 2860000   0.60724584   -2.1911359   -2.1911359   -1.4627558  0.034447076   -2.1911359   0.72838006   424551 
 2861000   0.60716731   -2.1910463   -2.1910463   -1.4627604  0.039328222   -2.1910463   0.72828586   424551 
 2862000   0.60833419   -2.1928532   -2.1928532   -1.4631677  0.039704639   -2.1928532   0.72968551   424551 
 2863000   0.60772442   -2.1915079   -2.1915079   -1.4625538  0.039907204   -2.1915079    0.7289541   424551 
 2864000   0.60865879   -2.1923882   -2.1923882   -1.4623134  0.039964745   -2.1923882   0.73007486   424551 
 2865000   0.60841057   -2.1921104   -2.1921104   -1.4623332  0.043521014   -2.1921104   0.72977712   424551 
 2866000   0.60865375   -2.1926787   -2.1926787   -1.4626099   0.03546796   -2.1926787   0.73006881   424551 
 2867000   0.60765521   -2.1914673   -2.1914673   -1.4625962  0.041755014   -2.1914673   0.72887108   424551 
 2868000   0.60678508   -2.1909877   -2.1909877   -1.4631603  0.038781733   -2.1909877   0.72782738   424551 
 2869000   0.60645779   -2.1919827   -2.1919827   -1.4645479  0.037330001   -2.1919827   0.72743479   424551 
 2870000   0.60685131   -2.1927827   -2.1927827   -1.4648759  0.041283631   -2.1927827   0.72790682   424551 
 2871000   0.60690408   -2.1924447   -2.1924447   -1.4644746  0.038097898   -2.1924447   0.72797011   424551 
 2872000   0.60652404   -2.1923863   -2.1923863    -1.464872  0.043355993   -2.1923863   0.72751427   424551 
 2873000   0.60716374   -2.1927371   -2.1927371   -1.4644555  0.035592391   -2.1927371   0.72828158   424551 
 2874000   0.60693086   -2.1927295   -2.1927295   -1.4647273  0.032255679   -2.1927295   0.72800223   424551 
 2875000   0.60660091    -2.192218    -2.192218   -1.4646116  0.038420107    -2.192218   0.72760647   424551 
 2876000   0.60758671    -2.193346    -2.193346   -1.4645571  0.044880473    -2.193346   0.72878892   424551 
 2877000   0.60692434   -2.1919954   -2.1919954    -1.464001  0.038722309   -2.1919954   0.72799441   424551 
 2878000   0.60682265   -2.1922142   -2.1922142   -1.4643417  0.035146424   -2.1922142   0.72787244   424551 
 2879000   0.60854565   -2.1933967   -2.1933967   -1.4634575  0.039993858   -2.1933967   0.72993915   424551 
 2880000   0.60794039   -2.1929635   -2.1929635   -1.4637503  0.041987425   -2.1929635   0.72921315   424551 
 2881000   0.60813121   -2.1932274   -2.1932274   -1.4637853  0.035276035   -2.1932274   0.72944204   424551 
 2882000   0.60754691   -2.1923078   -2.1923078   -1.4635666  0.038164242   -2.1923078   0.72874117   424551 
 2883000   0.60834253    -2.193929    -2.193929   -1.4642335  0.037575672    -2.193929   0.72969551   424551 
 2884000   0.60823737   -2.1923791   -2.1923791   -1.4628097  0.041294981   -2.1923791   0.72956937   424551 
 2885000   0.60800805   -2.1924975   -2.1924975   -1.4632032  0.042373869   -2.1924975    0.7292943   424551 
 2886000   0.60849209   -2.1940357   -2.1940357   -1.4641608  0.038118607   -2.1940357   0.72987491   424551 
 2887000   0.60849009   -2.1937833   -2.1937833   -1.4639108  0.039945444   -2.1937833   0.72987251   424551 
 2888000   0.60878535   -2.1947124   -2.1947124   -1.4644857  0.037496017   -2.1947124   0.73022666   424551 
 2889000   0.60847545   -2.1942839   -2.1942839   -1.4644289  0.037097173   -2.1942839   0.72985495   424551 
 2890000   0.60761367   -2.1939396   -2.1939396   -1.4651183  0.039084351   -2.1939396   0.72882126   424551 
 2891000     0.608242   -2.1943195   -2.1943195   -1.4647445  0.044686765   -2.1943195   0.72957492   424551 
 2892000   0.60744122    -2.193914    -2.193914   -1.4652996  0.043060718    -2.193914    0.7286144   424551 
 2893000   0.60832168   -2.1942838   -2.1942838   -1.4646133  0.038654132   -2.1942838    0.7296705   424551 
 2894000   0.60838773   -2.1937864   -2.1937864   -1.4640367  0.034888475   -2.1937864   0.72974972   424551 
 2895000   0.60774509    -2.192972    -2.192972   -1.4639931  0.043155124    -2.192972   0.72897889   424551 
 2896000    0.6063726   -2.1915245   -2.1915245   -1.4641919  0.031887363   -2.1915245   0.72733261   424551 
 2897000   0.60643626   -2.1918352   -2.1918352   -1.4644263  0.043332221   -2.1918352   0.72740898   424551 
 2898000   0.60738497   -2.1928698   -2.1928698   -1.4643229  0.041632123   -2.1928698   0.72854694   424551 
 2899000   0.60828085   -2.1927968   -2.1927968   -1.4631753  0.038828434   -2.1927968   0.72962152   424551 
 2900000   0.60729939   -2.1920413   -2.1920413    -1.463597  0.042207406   -2.1920413   0.72844428   424551 
 2901000   0.60840779   -2.1932862   -2.1932862   -1.4635124  0.045218337   -2.1932862   0.72977379   424551 
 2902000   0.60900607   -2.1934996   -2.1934996   -1.4630082   0.03317783   -2.1934996   0.73049142   424551 
 2903000   0.60752066    -2.191498    -2.191498   -1.4627883   0.04186905    -2.191498    0.7287097   424551 
 2904000   0.60698186   -2.1907393   -2.1907393   -1.4626759  0.035355183   -2.1907393   0.72806341   424551 
 2905000   0.60769124   -2.1920278   -2.1920278   -1.4631135  0.033922158   -2.1920278    0.7289143   424551 
 2906000   0.60717867   -2.1915642   -2.1915642   -1.4632647  0.039001005   -2.1915642   0.72829948   424551 
 2907000   0.60718318   -2.1919184   -2.1919184   -1.4636135  0.036969923   -2.1919184   0.72830489   424551 
 2908000   0.60707862    -2.191018    -2.191018   -1.4628385  0.037445698    -2.191018   0.72817947   424551 
 2909000   0.60803301   -2.1922499   -2.1922499   -1.4629257  0.037171071   -2.1922499   0.72932424   424551 
 2910000    0.6075382   -2.1914868   -2.1914868   -1.4627561  0.038572511   -2.1914868   0.72873073   424551 
 2911000   0.60642981   -2.1900676   -2.1900676   -1.4626664  0.037903714   -2.1900676   0.72740124   424551 
 2912000   0.60636771   -2.1894984   -2.1894984   -1.4621716  0.040806753   -2.1894984   0.72732675   424551 
 2913000   0.60810004   -2.1919863   -2.1919863   -1.4625816  0.031487443   -2.1919863   0.72940464   424551 
 2914000   0.60846286   -2.1925377   -2.1925377   -1.4626978  0.035874449   -2.1925377   0.72983984   424551 
 2915000   0.60706833   -2.1911189   -2.1911189   -1.4629518  0.039142593   -2.1911189   0.72816713   424551 
 2916000   0.60689919   -2.1909594   -2.1909594   -1.4629951  0.040454788   -2.1909594   0.72796425   424551 
 2917000   0.60800166   -2.1923346   -2.1923346    -1.463048    0.0371324   -2.1923346   0.72928665   424551 
 2918000   0.60737363   -2.1908578   -2.1908578   -1.4623245  0.034683638   -2.1908578   0.72853333   424551 
 2919000   0.60738372   -2.1917637   -2.1917637   -1.4632183  0.041715934   -2.1917637   0.72854543   424551 
 2920000   0.60595597   -2.1907551   -2.1907551   -1.4639222  0.039740486   -2.1907551   0.72683287   424551 
 2921000   0.60726514   -2.1917905   -2.1917905   -1.4633872  0.043674834   -2.1917905    0.7284032   424551 
 2922000   0.60704005   -2.1912952   -2.1912952    -1.463162  0.047325822   -2.1912952   0.72813321   424551 
 2923000   0.60642572   -2.1910963   -2.1910963   -1.4636999  0.043710819   -2.1910963   0.72739633   424551 
 2924000   0.60718686   -2.1916345   -2.1916345   -1.4633252  0.036969964   -2.1916345    0.7283093   424551 
 2925000   0.60768221    -2.191761    -2.191761   -1.4628575  0.039731517    -2.191761   0.72890346   424551 
 2926000   0.60863328   -2.1918318   -2.1918318   -1.4617875  0.035778197   -2.1918318   0.73004426   424551 
 2927000   0.60879477   -2.1916994   -2.1916994   -1.4614614  0.047295055   -2.1916994   0.73023796   424551 
 2928000   0.60932719   -2.1929686   -2.1929686    -1.462092  0.036405251   -2.1929686   0.73087659   424551 
 2929000   0.60795829   -2.1920059   -2.1920059   -1.4627713   0.03746584   -2.1920059   0.72923462   424551 
 2930000   0.60860958   -2.1931374   -2.1931374   -1.4631216   0.03792975   -2.1931374   0.73001583   424551 
 2931000    0.6075442   -2.1920378   -2.1920378   -1.4632998   0.03992601   -2.1920378   0.72873793   424551 
 2932000   0.60714358   -2.1921763   -2.1921763   -1.4639189  0.041287122   -2.1921763   0.72825739   424551 
 2933000   0.60709741   -2.1924816   -2.1924816   -1.4642796  0.033430866   -2.1924816   0.72820201   424551 
 2934000   0.60543788   -2.1910949   -2.1910949   -1.4648835  0.036093761   -2.1910949   0.72621144   424551 
 2935000   0.60582535   -2.1915108   -2.1915108   -1.4648346  0.036559641   -2.1915108   0.72667621   424551 
 2936000   0.60604911   -2.1914434   -2.1914434   -1.4644989  0.039416015   -2.1914434   0.72694459   424551 
 2937000   0.60598329   -2.1911353   -2.1911353   -1.4642696  0.032984597   -2.1911353   0.72686565   424551 
 2938000   0.60660341    -2.191419    -2.191419   -1.4638095  0.043299161    -2.191419   0.72760947   424551 
 2939000   0.60631902   -2.1911812   -2.1911812   -1.4639128  0.035946512   -2.1911812   0.72726835   424551 
 2940000   0.60638862   -2.1913824   -2.1913824   -1.4640306  0.036750538   -2.1913824   0.72735183   424551 
 2941000   0.60736251   -2.1914929   -2.1914929   -1.4629729  0.043044768   -2.1914929   0.72851999   424551 
 2942000   0.60759297   -2.1922923   -2.1922923   -1.4634959  0.033436313   -2.1922923   0.72879643   424551 
 2943000   0.60782092   -2.1930712   -2.1930712   -1.4640013  0.032871762   -2.1930712   0.72906984   424551 
 2944000   0.60711206   -2.1918862   -2.1918862   -1.4636666  0.032901566   -2.1918862   0.72821958   424551 
 2945000   0.60655117   -2.1912198   -2.1912198    -1.463673   0.03642609   -2.1912198   0.72754681   424551 
 2946000   0.60726692   -2.1915022   -2.1915022   -1.4630968  0.042214363   -2.1915022   0.72840533   424551 
 2947000   0.60631518    -2.191208    -2.191208   -1.4639443  0.037374759    -2.191208   0.72726374   424551 
 2948000   0.60652415   -2.1911107   -2.1911107   -1.4635963  0.031681891   -2.1911107    0.7275144   424551 
 2949000   0.60644637   -2.1912632   -2.1912632    -1.463842  0.041671781   -2.1912632   0.72742111   424551 
 2950000   0.60681119   -2.1929228   -2.1929228   -1.4650641  0.040175928   -2.1929228    0.7278587   424551 
 2951000   0.60710814   -2.1926206   -2.1926206   -1.4644058  0.039175957   -2.1926206   0.72821488   424551 
 2952000   0.60797459   -2.1937562   -2.1937562    -1.464502  0.042160668   -2.1937562   0.72925418   424551 
 2953000    0.6087968   -2.1939789   -2.1939789   -1.4637385  0.040559529   -2.1939789   0.73024039   424551 
 2954000   0.60737737   -2.1931136   -2.1931136   -1.4645758  0.038793638   -2.1931136   0.72853781   424551 
 2955000   0.60681746   -2.1927766   -2.1927766   -1.4649104  0.032353014   -2.1927766   0.72786622   424551 
 2956000   0.60735651   -2.1935447   -2.1935447   -1.4650319  0.035436448   -2.1935447    0.7285128   424551 
 2957000   0.60777112   -2.1937132   -2.1937132    -1.464703  0.039160885   -2.1937132   0.72901012   424551 
 2958000   0.60660467   -2.1920104   -2.1920104   -1.4643994  0.030716963   -2.1920104   0.72761097   424551 
 2959000   0.60758976   -2.1924317   -2.1924317   -1.4636391  0.038634285   -2.1924317   0.72879258   424551 
 2960000   0.60814289   -2.1934079   -2.1934079   -1.4639519  0.044776022   -2.1934079   0.72945604   424551 
 2961000    0.6079885   -2.1926164   -2.1926164   -1.4633455    0.0338098   -2.1926164   0.72927086   424551 
 2962000   0.60836584   -2.1934764   -2.1934764   -1.4637529  0.041756402   -2.1934764   0.72972347   424551 
 2963000   0.60871432   -2.1943094   -2.1943094   -1.4641679  0.040132943   -2.1943094   0.73014147   424551 
 2964000   0.60839615   -2.1931008   -2.1931008   -1.4633409   0.03733168   -2.1931008   0.72975983   424551 
 2965000   0.60701878   -2.1926805   -2.1926805   -1.4645728  0.033485535   -2.1926805    0.7281077   424551 
 2966000   0.60629689   -2.1926734   -2.1926734   -1.4654316  0.042283534   -2.1926734   0.72724181   424551 
 2967000   0.60674291   -2.1921087   -2.1921087   -1.4643319  0.035865978   -2.1921087    0.7277768   424551 
 2968000   0.60661931   -2.1931361   -2.1931361   -1.4655076  0.040680786   -2.1931361   0.72762854   424551 
 2969000   0.60761441   -2.1937037   -2.1937037   -1.4648815  0.043633266   -2.1937037   0.72882215   424551 
 2970000    0.6079778   -2.1939257   -2.1939257   -1.4646677  0.039506809   -2.1939257   0.72925802   424551 
 2971000   0.60750687   -2.1931022   -2.1931022    -1.464409  0.037612906   -2.1931022   0.72869315   424551 
 2972000   0.60905854   -2.1939815   -2.1939815   -1.4634271  0.038484313   -2.1939815   0.73055436   424551 
 2973000   0.60802839   -2.1939018   -2.1939018   -1.4645831   0.03321198   -2.1939018    0.7293187   424551 
 2974000   0.60735898   -2.1935266   -2.1935266   -1.4650108  0.045087864   -2.1935266   0.72851576   424551 
 2975000   0.60749174   -2.1935593   -2.1935593   -1.4648843  0.042499426   -2.1935593     0.728675   424551 
 2976000   0.60749544   -2.1936724   -2.1936724   -1.4649929  0.041068202   -2.1936724   0.72867944   424551 
 2977000   0.60722927    -2.192646    -2.192646   -1.4642858  0.034096064    -2.192646   0.72836018   424551 
 2978000   0.60769233   -2.1933165   -2.1933165   -1.4644009  0.039020028   -2.1933165    0.7289156   424551 
 2979000   0.60678189   -2.1924338   -2.1924338   -1.4646102  0.035234373   -2.1924338   0.72782355   424551 
 2980000   0.60804797   -2.1934212   -2.1934212    -1.464079  0.034862615   -2.1934212   0.72934219   424551 
 2981000   0.60727961   -2.1926592   -2.1926592   -1.4642387  0.037801863   -2.1926592   0.72842056   424551 
 2982000   0.60758542   -2.1930332   -2.1930332   -1.4642458  0.044983094   -2.1930332   0.72878737   424551 
 2983000   0.60791036   -2.1938816   -2.1938816   -1.4647045  0.041965804   -2.1938816   0.72917713   424551 
 2984000   0.60747219   -2.1924558   -2.1924558   -1.4638043  0.033845244   -2.1924558   0.72865156   424551 
 2985000   0.60822937   -2.1945618   -2.1945618   -1.4650021  0.038422203   -2.1945618   0.72955978   424551 
 2986000   0.60842102   -2.1942934   -2.1942934   -1.4645037  0.043056809   -2.1942934   0.72978966   424551 
 2987000   0.60724097   -2.1928803   -2.1928803   -1.4645061  0.037950493   -2.1928803    0.7283742   424551 
 2988000   0.60743421   -2.1930264   -2.1930264   -1.4644204  0.037415127   -2.1930264     0.728606   424551 
 2989000   0.60634724   -2.1915687   -2.1915687   -1.4642665  0.030323699   -2.1915687   0.72730219   424551 
 2990000   0.60698884   -2.1924761   -2.1924761   -1.4644043  0.040959009   -2.1924761   0.72807178   424551 
 2991000   0.60724396   -2.1928271   -2.1928271   -1.4644493  0.033924601   -2.1928271    0.7283778   424551 
 2992000   0.60722385   -2.1927632   -2.1927632   -1.4644095  0.034871122   -2.1927632   0.72835368   424551 
 2993000     0.607414   -2.1927403   -2.1927403   -1.4641585  0.036254669   -2.1927403   0.72858176   424551 
 2994000    0.6064503   -2.1926604   -2.1926604   -1.4652346  0.036430851   -2.1926604   0.72742582   424551 
 2995000    0.6065166   -2.1930919   -2.1930919   -1.4655866  0.029408698   -2.1930919   0.72750534   424551 
 2996000   0.60688945   -2.1926998   -2.1926998   -1.4647472  0.046042873   -2.1926998   0.72795257   424551 
 2997000   0.60818638   -2.1939574   -2.1939574   -1.4644491  0.039123251   -2.1939574   0.72950821   424551 
 2998000   0.60651211   -2.1926902   -2.1926902   -1.4651903  0.036965363   -2.1926902   0.72749996   424551 
 2999000   0.60780267   -2.1938609   -2.1938609    -1.464813  0.047393111   -2.1938609   0.72904796   424551 
 3000000   0.60703793   -2.1929749   -2.1929749   -1.4648443  0.030893495   -2.1929749   0.72813067   424551 
 3001000   0.60704051   -2.1929555   -2.1929555   -1.4648218  0.040884145   -2.1929555   0.72813376   424551 
 3002000   0.60718775   -2.1939052   -2.1939052   -1.4655949  0.028324602   -2.1939052   0.72831037   424551 
 3003000   0.60644677   -2.1932421   -2.1932421   -1.4658205  0.036684893   -2.1932421   0.72742158   424551 
 3004000   0.60694997   -2.1940637   -2.1940637   -1.4660385  0.037105806   -2.1940637   0.72802516   424551 
 3005000    0.6077695   -2.1944183   -2.1944183   -1.4654102  0.040425561   -2.1944183   0.72900817   424551 
 3006000   0.60869086   -2.1958379   -2.1958379   -1.4657246  0.036729963   -2.1958379   0.73011332   424551 
 3007000   0.60769641   -2.1945524   -2.1945524   -1.4656319  0.039010315   -2.1945524   0.72892051   424551 
 3008000   0.60745201   -2.1952274   -2.1952274      -1.4666  0.043869906   -2.1952274   0.72862735   424551 
 3009000   0.60785713    -2.195517    -2.195517   -1.4664038    0.0408553    -2.195517   0.72911328   424551 
 3010000   0.60653948   -2.1941456   -2.1941456   -1.4666129  0.034239309   -2.1941456   0.72753278   424551 
 3011000   0.60652786    -2.193769    -2.193769   -1.4662502  0.034117858    -2.193769   0.72751885   424551 
 3012000    0.6069676   -2.1949758   -2.1949758   -1.4669295  0.031105421   -2.1949758    0.7280463   424551 
 3013000   0.60734211   -2.1952812   -2.1952812   -1.4667857  0.037368599   -2.1952812   0.72849553   424551 
 3014000   0.60746034   -2.1957111   -2.1957111   -1.4670738  0.038040798   -2.1957111   0.72863734   424551 
 3015000   0.60870352    -2.196187    -2.196187   -1.4660585  0.032975332    -2.196187   0.73012851   424551 
 3016000   0.60875459   -2.1968747   -2.1968747   -1.4666849  0.039012897   -2.1968747   0.73018976   424551 
 3017000   0.60839712   -2.1954389   -2.1954389   -1.4656779     0.042656   -2.1954389   0.72976099   424551 
 3018000    0.6084111   -2.1956991   -2.1956991   -1.4659213  0.036684308   -2.1956991   0.72977775   424551 
 3019000   0.60814726   -2.1948283   -2.1948283   -1.4653671  0.043486262   -2.1948283   0.72946128   424551 
 3020000   0.60888705   -2.1960824   -2.1960824   -1.4657338  0.033373624   -2.1960824   0.73034866   424551 
 3021000   0.60634774   -2.1930964   -2.1930964   -1.4657936  0.039075325   -2.1930964    0.7273028   424551 
 3022000   0.60738101   -2.1937355   -2.1937355   -1.4651933  0.036673237   -2.1937355   0.72854219   424551 
 3023000   0.60779691   -2.1946438   -2.1946438   -1.4656027  0.046478891   -2.1946438   0.72904104   424551 
 3024000   0.60750535   -2.1949814   -2.1949814   -1.4662901  0.033518282   -2.1949814   0.72869133   424551 
 3025000   0.60712752   -2.1949803   -2.1949803   -1.4667422  0.039632668   -2.1949803   0.72823813   424551 
 3026000   0.60704071   -2.1951816   -2.1951816   -1.4670476  0.038686336   -2.1951816     0.728134   424551 
 3027000   0.60805154   -2.1948699   -2.1948699   -1.4655234  0.039167537   -2.1948699   0.72934647   424551 
 3028000   0.60824347    -2.195203    -2.195203   -1.4656263   0.04309478    -2.195203   0.72957669   424551 
 3029000   0.60710982   -2.1934346   -2.1934346   -1.4652177  0.041342126   -2.1934346    0.7282169   424551 
 3030000   0.60770363   -2.1944217   -2.1944217   -1.4654925   0.03504355   -2.1944217   0.72892916   424551 
 3031000   0.60747082   -2.1943752   -2.1943752   -1.4657253  0.036449809   -2.1943752   0.72864991   424551 
 3032000   0.60730151   -2.1949258   -2.1949258    -1.466479  0.028667174   -2.1949258   0.72844683   424551 
 3033000   0.60636292   -2.1935272   -2.1935272   -1.4662062  0.035190032   -2.1935272   0.72732101   424551 
 3034000   0.60714509   -2.1947959   -2.1947959   -1.4665367  0.029782542   -2.1947959    0.7282592   424551 
 3035000   0.60597087   -2.1941557   -2.1941557    -1.467305  0.038895186   -2.1941557   0.72685075   424551 
 3036000   0.60757599   -2.1949401   -2.1949401   -1.4661641  0.033808481   -2.1949401   0.72877606   424551 
 3037000    0.6081344   -2.1954624   -2.1954624   -1.4660166  0.040199568   -2.1954624   0.72944586   424551 
 3038000    0.6070612   -2.1947663   -2.1947663   -1.4666077  0.042201751   -2.1947663   0.72815858   424551 
 3039000   0.60735461   -2.1952687   -2.1952687   -1.4667582  0.033723472   -2.1952687   0.72851052   424551 
 3040000   0.60822883   -2.1956083   -2.1956083   -1.4660491  0.035478002   -2.1956083   0.72955913   424551 
 3041000   0.60714178   -2.1948255   -2.1948255   -1.4665703  0.041413294   -2.1948255   0.72825523   424551 
 3042000   0.60760404   -2.1956159   -2.1956159   -1.4668062   0.03683231   -2.1956159    0.7288097   424551 
 3043000   0.60857901   -2.1965208   -2.1965208   -1.4665416  0.036593014   -2.1965208   0.72997916   424551 
 3044000   0.60684395   -2.1951426   -2.1951426   -1.4672446  0.034166391   -2.1951426   0.72789799   424551 
 3045000   0.60869963   -2.1973314   -2.1973314   -1.4672076  0.032666675   -2.1973314   0.73012384   424551 
 3046000   0.60856565   -2.1970741   -2.1970741    -1.467111  0.035513388   -2.1970741   0.72996314   424551 
 3047000   0.60848906   -2.1974751   -2.1974751   -1.4676038   0.03815228   -2.1974751   0.72987126   424551 
 3048000   0.60755032   -2.1968644   -2.1968644   -1.4681191    0.0362344   -2.1968644   0.72874526   424551 
 3049000   0.60747183   -2.1967147   -2.1967147   -1.4680636  0.036224081   -2.1967147   0.72865112   424551 
 3050000    0.6088286   -2.1976296   -2.1976296   -1.4673511  0.041226114   -2.1976296   0.73027854   424551 
 3051000   0.60744798   -2.1956833   -2.1956833   -1.4670608   0.03405792   -2.1956833   0.72862251   424551 
 3052000   0.60783172   -2.1963849   -2.1963849   -1.4673021    0.0391422   -2.1963849    0.7290828   424551 
 3053000   0.60698948   -2.1956531   -2.1956531   -1.4675805  0.039958553   -2.1956531   0.72807255   424551 
 3054000   0.60736069   -2.1961969   -2.1961969   -1.4676791  0.041812724   -2.1961969   0.72851781   424551 
 3055000    0.6067239   -2.1957388   -2.1957388   -1.4679848  0.040614397   -2.1957388   0.72775399   424551 
 3056000   0.60783288   -2.1975097   -2.1975097   -1.4684255  0.038578606   -2.1975097   0.72908419   424551 
 3057000   0.60797523   -2.1974744   -2.1974744   -1.4682195  0.036097111   -2.1974744   0.72925494   424551 
 3058000   0.60869426   -2.1978847   -2.1978847   -1.4677673  0.042282331   -2.1978847   0.73011741   424551 
 3059000   0.60823407   -2.1978825   -2.1978825   -1.4683171  0.044494846   -2.1978825   0.72956542   424551 
 3060000   0.60764718   -2.1971252   -2.1971252   -1.4682638  0.036753506   -2.1971252   0.72886145   424551 
 3061000   0.60727127   -2.1967713   -2.1967713   -1.4683607  0.034667392   -2.1967713   0.72841055   424551 
 3062000   0.60792331   -2.1974233   -2.1974233   -1.4682306  0.036328222   -2.1974233   0.72919266   424551 
 3063000    0.6073507   -2.1964341   -2.1964341   -1.4679283  0.034032915   -2.1964341   0.72850583   424551 
 3064000   0.60686661   -2.1961036   -2.1961036   -1.4681785  0.036377646   -2.1961036   0.72792518   424551 
 3065000   0.60586378   -2.1943616   -2.1943616   -1.4676394  0.040318495   -2.1943616   0.72672229   424551 
 3066000   0.60850928   -2.1974349   -2.1974349   -1.4675394  0.047420795   -2.1974349   0.72989552   424551 
 3067000    0.6062778   -2.1956324   -2.1956324   -1.4684135  0.041243556   -2.1956324   0.72721891   424551 
 3068000   0.60774706   -2.1961305   -2.1961305   -1.4671492  0.041610845   -2.1961305   0.72898126   424551 
 3069000   0.60780289   -2.1965916   -2.1965916   -1.4675434  0.034127264   -2.1965916   0.72904822   424551 
 3070000   0.60781403   -2.1963959   -2.1963959   -1.4673344  0.038174654   -2.1963959   0.72906158   424551 
 3071000   0.60819867   -2.1965459   -2.1965459    -1.467023  0.038564589   -2.1965459   0.72952295   424551 
 3072000   0.60772372   -2.1964167   -2.1964167   -1.4674635  0.031382895   -2.1964167   0.72895325   424551 
 3073000   0.60787448   -2.1973279   -2.1973279   -1.4681938   0.03779666   -2.1973279    0.7291341   424551 
 3074000   0.60736064   -2.1974141   -2.1974141   -1.4688964   0.03115175   -2.1974141   0.72851775   424551 
 3075000   0.60593493   -2.1963625   -2.1963625   -1.4695549  0.027345738   -2.1963625   0.72680764   424551 
 3076000   0.60582147   -2.1960582   -2.1960582   -1.4693867  0.034113118   -2.1960582   0.72667155   424551 
 3077000   0.60676118   -2.1964944   -2.1964944   -1.4686957  0.032314628   -2.1964944   0.72779871   424551 
 3078000   0.60585465   -2.1959272   -2.1959272   -1.4692159  0.030438574   -2.1959272   0.72671135   424551 
 3079000   0.60651063   -2.1967376   -2.1967376   -1.4692394  0.039281054   -2.1967376   0.72749818   424551 
 3080000   0.60683379   -2.1967767   -2.1967767   -1.4688909  0.034145082   -2.1967767    0.7278858   424551 
 3081000    0.6081952   -2.1980262   -2.1980262   -1.4685074  0.036219491   -2.1980262   0.72951879   424551 
 3082000   0.60787904   -2.1972515   -2.1972515   -1.4681119  0.038101279   -2.1972515   0.72913956   424551 
 3083000   0.60691518   -2.1956409   -2.1956409   -1.4676575  0.040198185   -2.1956409   0.72798343   424551 
 3084000   0.60771292   -2.1972904   -2.1972904   -1.4683501   0.04124811   -2.1972904    0.7289403   424551 
 3085000   0.60904999   -2.1990099   -2.1990099   -1.4684658  0.036241017   -2.1990099    0.7305441   424551 
 3086000   0.60994846   -2.1997488   -2.1997488    -1.468127  0.042272795   -2.1997488    0.7316218   424551 
 3087000   0.60813432   -2.1977356   -2.1977356   -1.4682898   0.05160045   -2.1977356   0.72944576   424551 
 3088000   0.60803109   -2.1976376   -2.1976376   -1.4683157  0.041024786   -2.1976376   0.72932194   424551 
 3089000   0.60796365   -2.1976259   -2.1976259   -1.4683849  0.040400733   -2.1976259   0.72924105   424551 
 3090000   0.60748787   -2.1971626   -2.1971626   -1.4684923  0.040380289   -2.1971626   0.72867036   424551 
 3091000   0.60871647    -2.198699    -2.198699    -1.468555  0.034913913    -2.198699   0.73014404   424551 
 3092000   0.60833126   -2.1979524   -2.1979524   -1.4682705  0.038765301   -2.1979524   0.72968199   424551 
 3093000   0.60754138   -2.1974485   -2.1974485    -1.468714  0.035942148   -2.1974485   0.72873454   424551 
 3094000   0.60638539   -2.1968022   -2.1968022   -1.4694543  0.026826894   -2.1968022   0.72734796   424551 
 3095000   0.60800447   -2.1982326   -2.1982326   -1.4689426  0.039227139   -2.1982326   0.72929001   424551 
 3096000   0.60754216    -2.197623    -2.197623   -1.4688875   0.03336175    -2.197623   0.72873548   424551 
 3097000    0.6068491   -2.1971706   -2.1971706   -1.4692665  0.035977375   -2.1971706   0.72790417   424551 
 3098000   0.60601336   -2.1969662   -2.1969662   -1.4700645  0.033881227   -2.1969662   0.72690172   424551 
 3099000   0.60625192    -2.196457    -2.196457   -1.4692691  0.039921227    -2.196457   0.72718786   424551 
 3100000   0.60717607   -2.1963186   -2.1963186   -1.4680222  0.031326772   -2.1963186   0.72829636   424551 
 3101000   0.60653405   -2.1959447   -2.1959447   -1.4684184  0.040003325   -2.1959447   0.72752627   424551 
 3102000   0.60700365   -2.1964051   -2.1964051   -1.4683155  0.031391665   -2.1964051   0.72808955   424551 
 3103000   0.60712749   -2.1965719   -2.1965719   -1.4683338  0.037874745   -2.1965719    0.7282381   424551 
 3104000   0.60717778      -2.1963      -2.1963   -1.4680016   0.04078437      -2.1963   0.72829842   424551 
 3105000   0.60907874    -2.198225    -2.198225   -1.4676464  0.037928922    -2.198225   0.73057858   424551 
 3106000   0.60792905   -2.1969721   -2.1969721   -1.4677726  0.034521943   -2.1969721   0.72919955   424551 
 3107000   0.60799838    -2.197649    -2.197649   -1.4683663   0.03436871    -2.197649    0.7292827   424551 
 3108000   0.60718754   -2.1967692   -2.1967692   -1.4684591  0.042539897   -2.1967692   0.72831012   424551 
 3109000   0.60725668   -2.1968438   -2.1968438   -1.4684507  0.040956906   -2.1968438   0.72839305   424551 
 3110000   0.60789608   -2.1982012   -2.1982012   -1.4690412  0.034491537   -2.1982012      0.72916   424551 
 3111000   0.60700987   -2.1976318   -2.1976318   -1.4695348  0.048552167   -2.1976318   0.72809701   424551 
 3112000   0.60722604     -2.19746     -2.19746   -1.4691037  0.034534439     -2.19746    0.7283563   424551 
 3113000    0.6073076   -2.1977763   -2.1977763   -1.4693222  0.044637677   -2.1977763   0.72845413   424551 
 3114000   0.60673134   -2.1972457   -2.1972457   -1.4694828  0.039041321   -2.1972457   0.72776292   424551 
 3115000   0.60694872   -2.1977515   -2.1977515   -1.4697279  0.030281467   -2.1977515   0.72802366   424551 
 3116000   0.60681149    -2.197834    -2.197834   -1.4699749  0.039358252    -2.197834   0.72785906   424551 
 3117000   0.60718769    -2.198112    -2.198112   -1.4698017   0.03434211    -2.198112   0.72831029   424551 
 3118000   0.60758307   -2.1987477   -2.1987477   -1.4699631  0.039176676   -2.1987477   0.72878455   424551 
 3119000    0.6070761   -2.1982436   -2.1982436   -1.4700671  0.035106137   -2.1982436   0.72817645   424551 
 3120000   0.60790334   -2.1986071   -2.1986071   -1.4694384  0.035549842   -2.1986071   0.72916871   424551 
 3121000   0.60739757   -2.1977915   -2.1977915   -1.4692295  0.034741364   -2.1977915   0.72856205   424551 
 3122000    0.6071007   -2.1979714   -2.1979714   -1.4697654  0.044609402   -2.1979714   0.72820596   424551 
 3123000   0.60609548   -2.1972328   -2.1972328   -1.4702326  0.037639597   -2.1972328   0.72700021   424551 
 3124000   0.60681416   -2.1981208   -2.1981208   -1.4702585  0.035620366   -2.1981208   0.72786226   424551 
 3125000    0.6069566   -2.1980117   -2.1980117   -1.4699786  0.039866331   -2.1980117   0.72803311   424551 
 3126000   0.60719554   -2.1982093   -2.1982093   -1.4698896  0.033015718   -2.1982093   0.72831971   424551 
 3127000   0.60665874   -2.1971549   -2.1971549    -1.469479  0.037710238   -2.1971549   0.72767584   424551 
 3128000   0.60680622   -2.1972074   -2.1972074   -1.4693547  0.040408864   -2.1972074   0.72785274   424551 
 3129000   0.60704458   -2.1976212   -2.1976212   -1.4694826  0.035241847   -2.1976212   0.72813864   424551 
 3130000   0.60707764   -2.1985705   -2.1985705   -1.4703922  0.041853638   -2.1985705   0.72817829   424551 
 3131000   0.60775499   -2.1988331   -2.1988331   -1.4698423   0.03156478   -2.1988331   0.72899076   424551 
 3132000   0.60702051   -2.1971957   -2.1971957    -1.469086  0.038811125   -2.1971957   0.72810977   424551 
 3133000   0.60657392   -2.1975318   -2.1975318   -1.4699577    0.0417498   -2.1975318    0.7275741   424551 
 3134000   0.60660651   -2.1983438   -2.1983438   -1.4707307  0.035998424   -2.1983438   0.72761318   424551 
 3135000    0.6069687   -2.1985549   -2.1985549   -1.4705073  0.032882383   -2.1985549   0.72804763   424551 
 3136000   0.60693217   -2.1982593   -2.1982593   -1.4702555  0.039152334   -2.1982593   0.72800381   424551 
 3137000   0.60676275   -2.1981591   -2.1981591   -1.4703585  0.035249929   -2.1981591   0.72780059   424551 
 3138000     0.607571   -2.1992233   -2.1992233   -1.4704532  0.040248163   -2.1992233   0.72877007   424551 
 3139000   0.60784064   -2.1988703   -2.1988703   -1.4697768  0.044909508   -2.1988703    0.7290935   424551 
 3140000   0.60635185   -2.1980904   -2.1980904   -1.4707827  0.035760646   -2.1980904   0.72730773   424551 
 3141000   0.60726364   -2.1991594   -2.1991594    -1.470758  0.029053135   -2.1991594    0.7284014   424551 
 3142000   0.60732351   -2.1989163   -2.1989163   -1.4704431  0.044201169   -2.1989163   0.72847321   424551 
 3143000   0.60736399   -2.1985059   -2.1985059   -1.4699841  0.036202072   -2.1985059   0.72852177   424551 
 3144000   0.60712596   -2.1989122   -2.1989122   -1.4706759  0.040153699   -2.1989122   0.72823625   424551 
 3145000   0.60668659   -2.1981407   -2.1981407   -1.4704314  0.035252844   -2.1981407   0.72770925   424551 
 3146000   0.60633458    -2.197772    -2.197772   -1.4704849  0.038742839    -2.197772   0.72728701   424551 
 3147000   0.60677771   -2.1981274   -2.1981274   -1.4703089  0.041932942   -2.1981274   0.72781853   424551 
 3148000   0.60663122   -2.1974558   -2.1974558   -1.4698129  0.039245953   -2.1974558   0.72764283   424551 
 3149000   0.60594443   -2.1974621   -2.1974621   -1.4706431  0.034752328   -2.1974621   0.72681903   424551 
 3150000   0.60627653    -2.198401    -2.198401   -1.4711836   0.03617265    -2.198401   0.72721739   424551 
 3151000    0.6060885   -2.1980741   -2.1980741   -1.4710823  0.033264583   -2.1980741   0.72699184   424551 
 3152000   0.60648722   -2.1980121   -2.1980121    -1.470542  0.039267251   -2.1980121    0.7274701   424551 
 3153000   0.60570169   -2.1970255   -2.1970255   -1.4704977   0.03919642   -2.1970255   0.72652787   424551 
 3154000   0.60744526   -2.1987892   -2.1987892     -1.47017  0.043584021   -2.1987892   0.72861926   424551 
 3155000   0.60594619   -2.1975729   -2.1975729   -1.4707517   0.03937993   -2.1975729   0.72682114   424551 
 3156000   0.60671646   -2.1982658   -2.1982658   -1.4705207   0.04093075   -2.1982658   0.72774506   424551 
 3157000    0.6074848   -2.1990194   -2.1990194   -1.4703527   0.03773224   -2.1990194   0.72866668   424551 
 3158000   0.60856771   -2.1991795   -2.1991795   -1.4692139  0.042752067   -2.1991795   0.72996561   424551 
 3159000   0.60781998     -2.19952     -2.19952   -1.4704512  0.035512772     -2.19952   0.72906872   424551 
 3160000   0.60737168    -2.200109    -2.200109    -1.471578  0.033692647    -2.200109     0.728531   424551 
 3161000    0.6071666   -2.1995349   -2.1995349   -1.4712499  0.038814248   -2.1995349     0.728285   424551 
 3162000    0.6063059   -2.1987967   -2.1987967   -1.4715441  0.043040759   -2.1987967    0.7272526   424551 
 3163000   0.60692745   -2.1997573   -2.1997573   -1.4717591   0.03544399   -2.1997573   0.72799815   424551 
 3164000   0.60663763   -2.1998623   -2.1998623   -1.4722118  0.034828172   -2.1998623   0.72765051   424551 
 3165000   0.60726079   -2.1998832   -2.1998832   -1.4714852  0.033520044   -2.1998832   0.72839798   424551 
 3166000   0.60787977   -2.2008516   -2.2008516   -1.4717112  0.035056188   -2.2008516   0.72914044   424551 
 3167000   0.60855383   -2.2009758   -2.2009758   -1.4710269   0.03758683   -2.2009758   0.72994896   424551 
 3168000   0.60860923   -2.2017196   -2.2017196   -1.4717042  0.036397894   -2.2017196   0.73001541   424551 
 3169000   0.60751728   -2.2005301   -2.2005301   -1.4718244  0.034468093   -2.2005301   0.72870564   424551 
 3170000   0.60804267   -2.1998674   -2.1998674   -1.4705316   0.03067353   -2.1998674   0.72933583   424551 
 3171000   0.60675292   -2.1983094   -2.1983094   -1.4705206  0.041782485   -2.1983094    0.7277888   424551 
 3172000     0.607068   -2.1991931   -2.1991931   -1.4710263  0.036649341   -2.1991931   0.72816674   424551 
 3173000   0.60673922   -2.1981425   -2.1981425   -1.4703701  0.041645475   -2.1981425   0.72777236   424551 
 3174000   0.60675161   -2.1989877   -2.1989877   -1.4712004  0.033219393   -2.1989877   0.72778723   424551 
 3175000   0.60623967   -2.1985882   -2.1985882    -1.471415  0.039013692   -2.1985882   0.72717317   424551 
 3176000   0.60767817   -2.2002368   -2.2002368   -1.4713381  0.033432202   -2.2002368   0.72889862   424551 
 3177000   0.60704428   -2.1996798   -2.1996798   -1.4715415  0.033369216   -2.1996798   0.72813828   424551 
 3178000    0.6064667   -2.1990821   -2.1990821   -1.4716366  0.032255351   -2.1990821   0.72744549   424551 
 3179000   0.60658394   -2.1994895   -2.1994895   -1.4719034  0.036608315   -2.1994895   0.72758612   424551 
 3180000   0.60650982   -2.1986633   -2.1986633   -1.4711661  0.033643279   -2.1986633   0.72749721   424551 
 3181000   0.60793899   -2.1998091   -2.1998091   -1.4705977  0.032597485   -2.1998091   0.72921147   424551 
 3182000   0.60789935   -2.1999176   -2.1999176   -1.4707536   0.03835252   -2.1999176   0.72916393   424551 
 3183000   0.60810951   -2.2003477   -2.2003477   -1.4709317  0.039553632   -2.2003477   0.72941601   424551 
 3184000   0.60801416   -2.1996865   -2.1996865   -1.4703849  0.036535795   -2.1996865   0.72930163   424551 
 3185000   0.60752105   -2.1991807   -2.1991807   -1.4704705  0.042989369   -2.1991807   0.72871016   424551 
 3186000   0.60683606   -2.1983852   -2.1983852   -1.4704967  0.034955184   -2.1983852   0.72788852   424551 
 3187000   0.60780297   -2.1997965   -2.1997965   -1.4707482  0.038448038   -2.1997965   0.72904832   424551 
 3188000   0.60697803   -2.1993803   -2.1993803   -1.4713215  0.032559165   -2.1993803   0.72805882   424551 
 3189000   0.60660529   -2.1991092   -2.1991092   -1.4714974  0.036483036   -2.1991092   0.72761173   424551 
 3190000   0.60594089   -2.1982442   -2.1982442   -1.4714295  0.032952908   -2.1982442   0.72681479   424551 
 3191000   0.60712365   -2.1984949   -2.1984949   -1.4702614  0.036617463   -2.1984949   0.72823349   424551 
 3192000   0.60690183   -2.1986725   -2.1986725   -1.4707051  0.028601149   -2.1986725   0.72796741   424551 
 3193000   0.60636542   -2.1981644   -2.1981644   -1.4708404  0.037583561   -2.1981644     0.727324   424551 
 3194000   0.60710337   -2.1979316   -2.1979316   -1.4697224  0.037575358   -2.1979316   0.72820916   424551 
 3195000   0.60637987    -2.197885    -2.197885   -1.4705437  0.036119702    -2.197885   0.72734133   424551 
 3196000   0.60637069   -2.1975661   -2.1975661   -1.4702358  0.039501212   -2.1975661   0.72733033   424551 
 3197000   0.60716982   -2.1993658   -2.1993658    -1.471077  0.035499769   -2.1993658   0.72828887   424551 
 3198000   0.60696426   -2.1985095   -2.1985095   -1.4704672  0.027254486   -2.1985095    0.7280423   424551 
 3199000   0.60693064   -2.1982801   -2.1982801   -1.4702781  0.046351368   -2.1982801   0.72800197   424551 
 3200000   0.60702359     -2.19912     -2.19912   -1.4710065  0.033019475     -2.19912   0.72811347   424551 
 3201000   0.60687191   -2.1987401   -2.1987401   -1.4708086  0.041092601   -2.1987401   0.72793153   424551 
 3202000   0.60673659     -2.19817     -2.19817   -1.4704008  0.032835908     -2.19817   0.72776921   424551 
 3203000   0.60689087   -2.1989071   -2.1989071   -1.4709528  0.037282374   -2.1989071   0.72795427   424551 
 3204000    0.6070888   -2.1991181   -2.1991181   -1.4709265  0.040116639   -2.1991181   0.72819168   424551 
 3205000   0.60682884   -2.1989296   -2.1989296   -1.4710497  0.047240667   -2.1989296   0.72787986   424551 
 3206000   0.60603274   -2.1985556   -2.1985556   -1.4716306  0.041342713   -2.1985556   0.72692495   424551 
 3207000   0.60735884   -2.1992056   -2.1992056     -1.47069  0.039423256   -2.1992056   0.72851559   424551 
 3208000   0.60679356   -2.1988065   -2.1988065   -1.4709689  0.040995734   -2.1988065   0.72783755   424551 
 3209000   0.60734611   -2.1993205   -2.1993205   -1.4708202  0.033723422   -2.1993205   0.72850032   424551 
 3210000   0.60715822   -2.1994296   -2.1994296   -1.4711547  0.032324114   -2.1994296   0.72827495   424551 
 3211000   0.60620314   -2.1982709   -2.1982709   -1.4711416  0.040363322   -2.1982709   0.72712935   424551 
 3212000    0.6068876   -2.1988791   -2.1988791   -1.4709288  0.037914498   -2.1988791   0.72795035   424551 
 3213000   0.60656469   -2.1982916   -2.1982916   -1.4707286  0.038656065   -2.1982916   0.72756302   424551 
 3214000   0.60717987    -2.198827    -2.198827    -1.470526  0.046332607    -2.198827   0.72830092   424551 
 3215000   0.60830068   -2.1998544   -2.1998544   -1.4702091   0.04290851   -2.1998544   0.72964531   424551 
 3216000   0.60721834   -2.1989326   -2.1989326   -1.4705856  0.039342772   -2.1989326   0.72834706   424551 
 3217000   0.60658379   -2.1976622   -2.1976622   -1.4700763  0.044417143   -2.1976622   0.72758593   424551 
 3218000   0.60753527   -2.1988801   -2.1988801   -1.4701529  0.032937233   -2.1988801   0.72872721   424551 
 3219000   0.60677614   -2.1990706   -2.1990706    -1.471254  0.030683865   -2.1990706   0.72781665   424551 
 3220000   0.60702281   -2.1985306   -2.1985306   -1.4704181  0.038759677   -2.1985306   0.72811253   424551 
 3221000   0.60836744   -2.1998328   -2.1998328   -1.4701074  0.032144557   -2.1998328   0.72972539   424551 
 3222000   0.60795676    -2.199902    -2.199902   -1.4706692  0.034451147    -2.199902   0.72923279   424551 
 3223000   0.60602118   -2.1983791   -2.1983791    -1.471468  0.037922616   -2.1983791   0.72691109   424551 
 3224000   0.60594315   -2.1990127   -2.1990127   -1.4721952  0.040226648   -2.1990127    0.7268175   424551 
 3225000   0.60517216   -2.1985468   -2.1985468   -1.4726541     0.035522   -2.1985468   0.72589271   424551 
 3226000   0.60623057   -2.1996175   -2.1996175   -1.4724553  0.038200262   -2.1996175   0.72716225   424551 
 3227000   0.60692756   -2.2005035   -2.2005035   -1.4725052   0.04081549   -2.2005035   0.72799828   424551 
 3228000   0.60665212   -2.2003419   -2.2003419    -1.472674  0.039304247   -2.2003419   0.72766789   424551 
 3229000   0.60796782   -2.2009922   -2.2009922   -1.4717462  0.041943853   -2.2009922   0.72924605   424551 
 3230000   0.60696266   -2.2007627   -2.2007627   -1.4727223     0.041722   -2.2007627   0.72804038   424551 
 3231000   0.60683565   -2.2011656   -2.2011656   -1.4732775   0.03584456   -2.2011656   0.72788803   424551 
 3232000    0.6052392   -2.1992719   -2.1992719   -1.4732988  0.036913707   -2.1992719   0.72597313   424551 
 3233000   0.60660512   -2.2004886   -2.2004886   -1.4728771  0.040375017   -2.2004886   0.72761152   424551 
 3234000    0.6079296    -2.201918    -2.201918   -1.4727178  0.035686396    -2.201918    0.7292002   424551 
 3235000   0.60827213   -2.2021574   -2.2021574   -1.4725463  0.041567586   -2.2021574   0.72961106   424551 
 3236000   0.60703268   -2.2006404   -2.2006404    -1.472516  0.045471823   -2.2006404   0.72812437   424551 
 3237000   0.60847864   -2.2022871   -2.2022871   -1.4724283  0.046290169   -2.2022871   0.72985877   424551 
 3238000   0.60694733   -2.2010474   -2.2010474   -1.4730254  0.038075749   -2.2010474     0.728022   424551 
 3239000    0.6068881   -2.2008512   -2.2008512   -1.4729003  0.035242001   -2.2008512   0.72795095   424551 
 3240000   0.60601261   -2.1996627   -2.1996627   -1.4727619  0.032487493   -2.1996627   0.72690081   424551 
 3241000   0.60712379   -2.2013969   -2.2013969   -1.4731632  0.036194272   -2.2013969   0.72823366   424551 
 3242000   0.60719139   -2.2015467   -2.2015467    -1.473232  0.044043056   -2.2015467   0.72831474   424551 
 3243000   0.60569128   -2.1993259   -2.1993259   -1.4728105  0.036432683   -2.1993259   0.72651538   424551 
 3244000   0.60722132   -2.2011931   -2.2011931   -1.4728424  0.044349952   -2.2011931   0.72835064   424551 
 3245000   0.60697449   -2.2012337   -2.2012337   -1.4731791  0.037733582   -2.2012337   0.72805457   424551 
 3246000    0.6063765   -2.2014949   -2.2014949   -1.4741576  0.027980164   -2.2014949   0.72733729   424551 
 3247000   0.60623922    -2.200604    -2.200604   -1.4734314  0.040852107    -2.200604   0.72717262   424551 
 3248000   0.60577684   -2.2009557   -2.2009557   -1.4743377    0.0321159   -2.2009557   0.72661802   424551 
 3249000   0.60682778   -2.2019682   -2.2019682   -1.4740896  0.034232422   -2.2019682    0.7278786   424551 
 3250000   0.60590981   -2.2002964   -2.2002964   -1.4735189  0.034598085   -2.2002964    0.7267775   424551 
 3251000   0.60717246   -2.2020238   -2.2020238   -1.4737318  0.032557602   -2.2020238   0.72829203   424551 
 3252000   0.60649194   -2.2011704   -2.2011704   -1.4736946  0.038222382   -2.2011704   0.72747576   424551 
 3253000   0.60643012   -2.2012534   -2.2012534   -1.4738518  0.035325437   -2.2012534   0.72740161   424551 
 3254000   0.60713876   -2.2024655   -2.2024655   -1.4742139   0.04627939   -2.2024655   0.72825161   424551 
 3255000   0.60674132   -2.2020709   -2.2020709    -1.474296  0.035084729   -2.2020709   0.72777489   424551 
 3256000   0.60728552   -2.2018843   -2.2018843   -1.4734566  0.043338485   -2.2018843   0.72842764   424551 
 3257000   0.60744815   -2.2020616   -2.2020616   -1.4734389  0.036024774   -2.2020616   0.72862271   424551 
 3258000   0.60791681   -2.2024502   -2.2024502   -1.4732654  0.040448941   -2.2024502   0.72918487   424551 
 3259000   0.60700605   -2.2015988   -2.2015988   -1.4735063  0.035989787   -2.2015988   0.72809243   424551 
 3260000   0.60746051   -2.2023624   -2.2023624   -1.4737249  0.039869017   -2.2023624   0.72863754   424551 
 3261000   0.60747608   -2.2025589   -2.2025589   -1.4739027  0.039651432   -2.2025589   0.72865621   424551 
 3262000   0.60567632   -2.2009374   -2.2009374   -1.4744399  0.038434617   -2.2009374   0.72649745   424551 
 3263000   0.60540097   -2.2004801   -2.2004801   -1.4743129  0.039299165   -2.2004801   0.72616716   424551 
 3264000   0.60528158    -2.200519    -2.200519   -1.4744951  0.039676035    -2.200519   0.72602396   424551 
 3265000   0.60560333   -2.2019523   -2.2019523   -1.4755424  0.035766442   -2.2019523   0.72640989   424551 
 3266000   0.60678783   -2.2022041   -2.2022041   -1.4743734  0.031304807   -2.2022041   0.72783068   424551 
 3267000   0.60654643   -2.2019453   -2.2019453   -1.4744041  0.041576442   -2.2019453   0.72754112   424551 
 3268000   0.60697654   -2.2021128   -2.2021128   -1.4740558  0.030882021   -2.2021128   0.72805703   424551 
 3269000   0.60640696   -2.2015294   -2.2015294   -1.4741556  0.035671336   -2.2015294   0.72737383   424551 
 3270000   0.60770512   -2.2030658   -2.2030658   -1.4741349   0.03059471   -2.2030658   0.72893095   424551 
 3271000   0.60552274   -2.2011413   -2.2011413    -1.474828  0.041904251   -2.2011413   0.72631323   424551 
 3272000   0.60577692    -2.201656    -2.201656   -1.4750379  0.030135454    -2.201656   0.72661811   424551 
 3273000   0.60691077   -2.2025176   -2.2025176   -1.4745394  0.038680611   -2.2025176   0.72797814   424551 
 3274000   0.60674403    -2.202212    -2.202212   -1.4744339   0.04701149    -2.202212   0.72777813   424551 
 3275000   0.60683343   -2.2017634   -2.2017634    -1.473878  0.035736894   -2.2017634   0.72788537   424551 
 3276000   0.60668145   -2.2015343   -2.2015343   -1.4738313  0.041870527   -2.2015343   0.72770308   424551 
 3277000    0.6061734   -2.2010531   -2.2010531   -1.4739594  0.040858582   -2.2010531   0.72709368   424551 
 3278000   0.60804048   -2.2028092   -2.2028092    -1.473476  0.043544437   -2.2028092    0.7293332   424551 
 3279000   0.60712946   -2.2019642   -2.2019642   -1.4737237  0.033368138   -2.2019642   0.72824046   424551 
 3280000   0.60845455   -2.2033247   -2.2033247   -1.4734949  0.041528703   -2.2033247   0.72982988   424551 
 3281000   0.60788925   -2.2034563   -2.2034563   -1.4743045  0.029733723   -2.2034563   0.72915181   424551 
 3282000   0.60609576   -2.2018637   -2.2018637   -1.4748632  0.028919386   -2.2018637   0.72700055   424551 
 3283000   0.60647321   -2.2019556   -2.2019556   -1.4745023  0.034687305   -2.2019556    0.7274533   424551 
 3284000   0.60563521   -2.2009085   -2.2009085   -1.4744603  0.034193399   -2.2009085   0.72644813   424551 
 3285000   0.60569253   -2.2003313   -2.2003313   -1.4738144  0.041291262   -2.2003313   0.72651688   424551 
 3286000   0.60557692    -2.201536    -2.201536   -1.4751578  0.033219401    -2.201536   0.72637821   424551 
 3287000   0.60603782    -2.202222    -2.202222    -1.475291  0.037365108    -2.202222   0.72693105   424551 
 3288000   0.60665111   -2.2020104   -2.2020104   -1.4743437  0.035568688   -2.2020104   0.72766668   424551 
 3289000   0.60652517   -2.2010485   -2.2010485   -1.4735329   0.04265577   -2.2010485   0.72751562   424551 
 3290000   0.60733035   -2.2019983   -2.2019983   -1.4735169   0.03462474   -2.2019983   0.72848141   424551 
 3291000   0.60651076   -2.2007386   -2.2007386   -1.4732402  0.033880447   -2.2007386   0.72749834   424551 
 3292000   0.60601917   -2.2011082   -2.2011082   -1.4741995   0.03247934   -2.2011082   0.72690868   424551 
 3293000   0.60703186   -2.2018195   -2.2018195   -1.4736961  0.033430813   -2.2018195   0.72812339   424551 
 3294000   0.60583873    -2.200919    -2.200919   -1.4742268  0.038286808    -2.200919   0.72669225   424551 
 3295000   0.60643569   -2.2015477   -2.2015477   -1.4741394  0.032417052   -2.2015477    0.7274083   424551 
 3296000    0.6064218   -2.2014413   -2.2014413   -1.4740496  0.032131119   -2.2014413   0.72739163   424551 
 3297000   0.60497075   -2.2000182   -2.2000182    -1.474367  0.032999311   -2.2000182   0.72565113   424551 
 3298000   0.60551957   -2.2003332   -2.2003332   -1.4740238  0.035821294   -2.2003332   0.72630942   424551 
 3299000   0.60582164    -2.200305    -2.200305   -1.4736333  0.032733923    -2.200305   0.72667175   424551 
 3300000   0.60676395   -2.2010974   -2.2010974   -1.4732954  0.039706057   -2.2010974   0.72780203   424551 
 3301000   0.60646629   -2.2004679   -2.2004679   -1.4730229  0.035103405   -2.2004679   0.72744499   424551 
 3302000   0.60554372    -2.199419    -2.199419   -1.4730806  0.034434844    -2.199419   0.72633839   424551 
 3303000   0.60715322   -2.2005126   -2.2005126   -1.4722436  0.033731696   -2.2005126   0.72826895   424551 
 3304000   0.60668459   -2.2009461   -2.2009461   -1.4732393  0.044974233   -2.2009461   0.72770685   424551 
 3305000   0.60626576   -2.2004282   -2.2004282   -1.4732237  0.025713663   -2.2004282   0.72720446   424551 
 3306000   0.60592817   -2.2010836   -2.2010836   -1.4742841  0.026631916   -2.2010836   0.72679953   424551 
 3307000   0.60590274   -2.2009882   -2.2009882   -1.4742192  0.041796366   -2.2009882   0.72676902   424551 
 3308000   0.60679585   -2.2008264   -2.2008264   -1.4729861  0.034382134   -2.2008264   0.72784029   424551 
 3309000    0.6064684   -2.2002429   -2.2002429   -1.4727954  0.039899824   -2.2002429   0.72744753   424551 
 3310000    0.6072324   -2.2010755   -2.2010755   -1.4727116  0.046379794   -2.2010755   0.72836393   424551 
 3311000   0.60639081    -2.200945    -2.200945   -1.4735905  0.031549095    -2.200945   0.72735445   424551 
 3312000   0.60660522   -2.2012661   -2.2012661   -1.4736545   0.04025685   -2.2012661   0.72761164   424551 
 3313000   0.60638766   -2.2015669   -2.2015669   -1.4742162   0.03552337   -2.2015669   0.72735068   424551 
 3314000   0.60793401   -2.2031687   -2.2031687   -1.4739632  0.043173616   -2.2031687    0.7292055   424551 
 3315000    0.6071779   -2.2023235   -2.2023235   -1.4740249  0.035291258   -2.2023235   0.72829856   424551 
 3316000    0.6073563    -2.202116    -2.202116   -1.4736034  0.034340531    -2.202116   0.72851255   424551 
 3317000   0.60637173    -2.200687    -2.200687   -1.4733554  0.040038894    -2.200687   0.72733158   424551 
 3318000   0.60683244   -2.2019495   -2.2019495   -1.4740653  0.039716554   -2.2019495   0.72788419   424551 
 3319000   0.60642935   -2.2015917   -2.2015917    -1.474191  0.042017782   -2.2015917   0.72740068   424551 
 3320000   0.60595819   -2.2018036   -2.2018036    -1.474968  0.036017633   -2.2018036   0.72683554   424551 
 3321000   0.60509889   -2.2002234   -2.2002234   -1.4744186  0.037225263   -2.2002234   0.72580483   424551 
 3322000   0.60673633   -2.2015087   -2.2015087   -1.4737398  0.040285611   -2.2015087    0.7277689   424551 
 3323000   0.60541323   -2.2014104   -2.2014104   -1.4752285  0.039883697   -2.2014104   0.72618187   424551 
 3324000   0.60580822   -2.2016912   -2.2016912   -1.4750356  0.037525676   -2.2016912   0.72665565   424551 
 3325000    0.6054157   -2.2014466   -2.2014466   -1.4752617  0.038436825   -2.2014466   0.72618483   424551 
 3326000   0.60564186   -2.2014616   -2.2014616   -1.4750055  0.029290028   -2.2014616   0.72645611   424551 
 3327000   0.60650997   -2.2025236   -2.2025236   -1.4750262  0.037520603   -2.2025236   0.72749738   424551 
 3328000   0.60732542   -2.2035602   -2.2035602   -1.4750847  0.035474441   -2.2035602    0.7284755   424551 
 3329000   0.60635753   -2.2025485   -2.2025485    -1.475234  0.038761882   -2.2025485   0.72731454   424551 
 3330000   0.60638142   -2.2027759   -2.2027759   -1.4754327  0.039291287   -2.2027759    0.7273432   424551 
 3331000   0.60672358   -2.2032024   -2.2032024   -1.4754488  0.040262714   -2.2032024   0.72775361   424551 
 3332000   0.60666185   -2.2035317   -2.2035317   -1.4758521  0.030750323   -2.2035317   0.72767956   424551 
 3333000   0.60706092   -2.2038849   -2.2038849   -1.4757267  0.042210253   -2.2038849   0.72815824   424551 
 3334000   0.60744293   -2.2034527   -2.2034527   -1.4748363  0.036851563   -2.2034527   0.72861646   424551 
 3335000   0.60726064   -2.2032004   -2.2032004   -1.4748026  0.034972522   -2.2032004   0.72839781   424551 
 3336000   0.60723078   -2.2030626   -2.2030626   -1.4747006  0.038801819   -2.2030626   0.72836198   424551 
 3337000     0.608154   -2.2043346   -2.2043346   -1.4748653  0.040532947   -2.2043346   0.72946937   424551 
 3338000   0.60735631   -2.2037038   -2.2037038   -1.4751913  0.034430955   -2.2037038   0.72851256   424551 
 3339000   0.60776601   -2.2039088   -2.2039088   -1.4749048  0.038736433   -2.2039088   0.72900399   424551 
 3340000   0.60753403   -2.2037603   -2.2037603   -1.4750346  0.034113384   -2.2037603   0.72872573   424551 
 3341000   0.60584628   -2.2022443   -2.2022443    -1.475543    0.0266759   -2.2022443    0.7267013   424551 
 3342000   0.60605589   -2.2028825   -2.2028825   -1.4759298  0.032445601   -2.2028825   0.72695272   424551 
 3343000   0.60630857   -2.2031814   -2.2031814   -1.4759256    0.0387682   -2.2031814   0.72725581   424551 
 3344000   0.60553831   -2.2027338   -2.2027338   -1.4764019  0.034679511   -2.2027338    0.7263319   424551 
 3345000   0.60632926   -2.2031222   -2.2031222   -1.4758416  0.033813164   -2.2031222   0.72728063   424551 
 3346000   0.60659141   -2.2022301   -2.2022301    -1.474635  0.032966551   -2.2022301   0.72759508   424551 
 3347000    0.6064279   -2.2026451   -2.2026451   -1.4752462  0.038013965   -2.2026451   0.72739894   424551 
 3348000   0.60684627   -2.2028315   -2.2028315   -1.4749307  0.038768896   -2.2028315   0.72790077   424551 
 3349000   0.60613881   -2.2028338   -2.2028338   -1.4757816  0.041001168   -2.2028338   0.72705219   424551 
 3350000   0.60690223   -2.2034719   -2.2034719    -1.475504  0.041327623   -2.2034719    0.7279679   424551 
 3351000   0.60706409   -2.2040329   -2.2040329   -1.4758709  0.042148998   -2.2040329   0.72816204   424551 
 3352000   0.60612475   -2.2024969   -2.2024969   -1.4754616  0.030811235   -2.2024969   0.72703532   424551 
 3353000   0.60662013    -2.203001    -2.203001   -1.4753715  0.038211809    -2.203001   0.72762952   424551 
 3354000   0.60681512   -2.2034856   -2.2034856   -1.4756222  0.037782493   -2.2034856    0.7278634   424551 
 3355000   0.60668057   -2.2026859   -2.2026859   -1.4749838  0.042415576   -2.2026859   0.72770202   424551 
 3356000   0.60598032   -2.2017145   -2.2017145   -1.4748524  0.038485563   -2.2017145   0.72686208   424551 
 3357000   0.60762421    -2.204144    -2.204144   -1.4753101  0.035153916    -2.204144   0.72883389   424551 
 3358000   0.60655746   -2.2023129   -2.2023129   -1.4747585  0.035181821   -2.2023129   0.72755435   424551 
 3359000   0.60643736   -2.2025938   -2.2025938   -1.4751835  0.040946517   -2.2025938    0.7274103   424551 
 3360000   0.60729601   -2.2037645   -2.2037645   -1.4753243  0.030436841   -2.2037645   0.72844023   424551 
 3361000   0.60624958    -2.202403    -2.202403    -1.475218  0.032941405    -2.202403   0.72718505   424551 
 3362000    0.6068034   -2.2034846   -2.2034846   -1.4756352  0.041023072   -2.2034846   0.72784936   424551 
 3363000   0.60667355   -2.2035701   -2.2035701   -1.4758765  0.044947031   -2.2035701    0.7276936   424551 
 3364000   0.60691358   -2.2035958   -2.2035958   -1.4756143  0.042763718   -2.2035958   0.72798151   424551 
 3365000   0.60554996    -2.202145    -2.202145   -1.4757991  0.043187247    -2.202145   0.72634588   424551 
 3366000   0.60725558   -2.2035854   -2.2035854   -1.4751936  0.037821903   -2.2035854   0.72839174   424551 
 3367000   0.60685711   -2.2029344   -2.2029344   -1.4750206   0.03051082   -2.2029344   0.72791377   424551 
 3368000   0.60698307   -2.2030445   -2.2030445   -1.4749796  0.041722132   -2.2030445   0.72806487   424551 
 3369000   0.60648928   -2.2029363   -2.2029363   -1.4754637  0.035624086   -2.2029363   0.72747257   424551 
 3370000   0.60737361   -2.2035112   -2.2035112   -1.4749779  0.041920383   -2.2035112    0.7285333   424551 
 3371000   0.60780041   -2.2048987   -2.2048987   -1.4758534  0.035345597   -2.2048987   0.72904525   424551 
 3372000   0.60620317   -2.2031317   -2.2031317   -1.4760023  0.041213181   -2.2031317   0.72712938   424551 
 3373000   0.60664135   -2.2039745   -2.2039745   -1.4763195  0.027187417   -2.2039745   0.72765497   424551 
 3374000   0.60576868   -2.2037514   -2.2037514   -1.4771431  0.038303112   -2.2037514   0.72660823   424551 
 3375000   0.60555236   -2.2029371   -2.2029371   -1.4765883  0.034304175   -2.2029371   0.72634875   424551 
 3376000   0.60664734   -2.2041084   -2.2041084   -1.4764462  0.038628847   -2.2041084   0.72766216   424551 
 3377000   0.60705547   -2.2051227   -2.2051227    -1.476971   0.03604159   -2.2051227    0.7281517   424551 
 3378000   0.60698544   -2.2044166   -2.2044166   -1.4763488  0.039277682   -2.2044166    0.7280677   424551 
 3379000   0.60664994   -2.2034677   -2.2034677   -1.4758024  0.040911103   -2.2034677   0.72766528   424551 
 3380000   0.60623885   -2.2037057   -2.2037057   -1.4765335  0.034800846   -2.2037057   0.72717218   424551 
 3381000   0.60634155   -2.2037292   -2.2037292   -1.4764338  0.036831952   -2.2037292   0.72729537   424551 
 3382000      0.60552   -2.2026543   -2.2026543   -1.4763444  0.045570979   -2.2026543   0.72630994   424551 
 3383000   0.60667415   -2.2040171   -2.2040171   -1.4763228  0.028207353   -2.2040171   0.72769432   424551 
 3384000   0.60803724   -2.2054408   -2.2054408   -1.4761114  0.037826406   -2.2054408   0.72932932   424551 
 3385000   0.60680978   -2.2042324   -2.2042324   -1.4763754  0.040863756   -2.2042324   0.72785701   424551 
 3386000   0.60648607   -2.2040789   -2.2040789   -1.4766102  0.033265812   -2.2040789   0.72746873   424551 
 3387000   0.60674877   -2.2046787   -2.2046787   -1.4768948  0.039845305   -2.2046787   0.72778383   424551 
 3388000   0.60569372   -2.2035827   -2.2035827   -1.4770644  0.040002926   -2.2035827   0.72651831   424551 
 3389000   0.60666206    -2.204418    -2.204418   -1.4767382  0.047837415    -2.204418   0.72767982   424551 
 3390000   0.60663277   -2.2047092   -2.2047092   -1.4770645  0.036983259   -2.2047092   0.72764468   424551 
 3391000    0.6057372    -2.204059    -2.204059   -1.4774885  0.038937556    -2.204059   0.72657046   424551 
 3392000   0.60637292   -2.2044734   -2.2044734   -1.4771404  0.043585047   -2.2044734     0.727333   424551 
 3393000   0.60642403   -2.2047918   -2.2047918   -1.4773975   0.03961243   -2.2047918    0.7273943   424551 
 3394000   0.60658021   -2.2052794   -2.2052794   -1.4776977  0.031686374   -2.2052794   0.72758164   424551 
 3395000   0.60805341   -2.2059589   -2.2059589   -1.4766101  0.043230471   -2.2059589   0.72934872   424551 
 3396000   0.60567381   -2.2036101   -2.2036101   -1.4771156  0.033462321   -2.2036101   0.72649443   424551 
 3397000   0.60589921   -2.2036812   -2.2036812   -1.4769164  0.038079824   -2.2036812   0.72676479   424551 
 3398000   0.60632475   -2.2045775   -2.2045775   -1.4773023  0.036511102   -2.2045775   0.72727522   424551 
 3399000   0.60483297   -2.2030983   -2.2030983   -1.4776124  0.040203011   -2.2030983   0.72548586   424551 
 3400000   0.60632881   -2.2042931   -2.2042931    -1.477013  0.036655933   -2.2042931   0.72728008   424551 
 3401000   0.60524083   -2.2033039   -2.2033039   -1.4773288  0.047214185   -2.2033039   0.72597508   424551 
 3402000   0.60560812   -2.2044152   -2.2044152   -1.4779996  0.037874044   -2.2044152   0.72641563   424551 
 3403000   0.60558683   -2.2034702   -2.2034702   -1.4770801  0.038959591   -2.2034702    0.7263901   424551 
 3404000   0.60651302    -2.205029    -2.205029    -1.477528  0.040030882    -2.205029   0.72750104   424551 
 3405000   0.60746694   -2.2049785   -2.2049785   -1.4763332  0.034957285   -2.2049785   0.72864526   424551 
 3406000    0.6066955   -2.2040196   -2.2040196   -1.4762997   0.03525301   -2.2040196   0.72771993   424551 
 3407000   0.60630503   -2.2037763   -2.2037763   -1.4765248  0.037762337   -2.2037763   0.72725157   424551 
 3408000   0.60609917   -2.2037944   -2.2037944   -1.4767898  0.036291512   -2.2037944   0.72700464   424551 
 3409000   0.60651032   -2.2038897   -2.2038897   -1.4763918  0.029900442   -2.2038897   0.72749781   424551 
 3410000    0.6068121   -2.2036319   -2.2036319   -1.4757721  0.029368293   -2.2036319   0.72785979   424551 
 3411000   0.60736603   -2.2050647   -2.2050647   -1.4765405  0.038202985   -2.2050647   0.72852422   424551 
 3412000   0.60768374   -2.2049929   -2.2049929   -1.4760876   0.03853444   -2.2049929    0.7289053   424551 
 3413000   0.60631036   -2.2033459   -2.2033459   -1.4760879  0.042184832   -2.2033459   0.72725796   424551 
 3414000   0.60559118   -2.2028039   -2.2028039   -1.4764086  0.039162668   -2.2028039   0.72639532   424551 
 3415000   0.60430625   -2.2018943   -2.2018943   -1.4770402  0.032675964   -2.2018943   0.72485407   424551 
 3416000   0.60515413   -2.2033261   -2.2033261    -1.477455  0.039172765   -2.2033261   0.72587109   424551 
 3417000   0.60604004   -2.2035782   -2.2035782   -1.4766445  0.038639992   -2.2035782   0.72693371   424551 
 3418000   0.60580847   -2.2039159   -2.2039159   -1.4772599  0.035628358   -2.2039159   0.72665595   424551 
 3419000   0.60495151   -2.2021915   -2.2021915   -1.4765635  0.032802111   -2.2021915   0.72562805   424551 
 3420000   0.60626192   -2.2029805   -2.2029805   -1.4757807  0.031771732   -2.2029805   0.72719986   424551 
 3421000   0.60614982   -2.2036875   -2.2036875   -1.4766221  0.038063327   -2.2036875   0.72706539   424551 
 3422000   0.60691671   -2.2042356   -2.2042356   -1.4762503  0.030264548   -2.2042356   0.72798527   424551 
 3423000   0.60759086   -2.2048662   -2.2048662   -1.4760724  0.042962099   -2.2048662   0.72879389   424551 
 3424000   0.60814308   -2.2051703   -2.2051703    -1.475714  0.036212225   -2.2051703   0.72945627   424551 
 3425000   0.60771982   -2.2048017   -2.2048017   -1.4758531  0.039627051   -2.2048017   0.72894858   424551 
 3426000   0.60734807   -2.2040534   -2.2040534   -1.4755508  0.037175576   -2.2040534   0.72850267   424551 
 3427000   0.60808825   -2.2057278   -2.2057278   -1.4763373  0.041371998   -2.2057278   0.72939051   424551 
 3428000   0.60692793   -2.2038727   -2.2038727   -1.4758739  0.037810723   -2.2038727   0.72799872   424551 
 3429000   0.60668044   -2.2038525   -2.2038525   -1.4761507  0.036732155   -2.2038525   0.72770186   424551 
 3430000   0.60724083   -2.2045909   -2.2045909   -1.4762169  0.036002601   -2.2045909   0.72837404   424551 
 3431000   0.60737518   -2.2050137   -2.2050137   -1.4764786  0.030385259   -2.2050137   0.72853519   424551 
 3432000   0.60735858   -2.2056374   -2.2056374   -1.4771221  0.037277825   -2.2056374   0.72851529   424551 
 3433000   0.60627077   -2.2043082   -2.2043082   -1.4770977   0.03861153   -2.2043082   0.72721047   424551 
 3434000   0.60782307    -2.205035    -2.205035   -1.4759626  0.037725247    -2.205035   0.72907242   424551 
 3435000   0.60724878   -2.2052126   -2.2052126    -1.476829  0.032857828   -2.2052126   0.72838358   424551 
 3436000   0.60689892   -2.2049461   -2.2049461   -1.4769822  0.035068623   -2.2049461   0.72796393   424551 
 3437000   0.60688255   -2.2048883   -2.2048883   -1.4769441  0.040823811   -2.2048883   0.72794429   424551 
 3438000   0.60767303   -2.2060511   -2.2060511   -1.4771586  0.035685646   -2.2060511   0.72889246   424551 
 3439000   0.60754698   -2.2054761   -2.2054761   -1.4767348  0.032840835   -2.2054761   0.72874126   424551 
 3440000    0.6057731   -2.2041165   -2.2041165    -1.477503  0.037633231   -2.2041165   0.72661352   424551 
 3441000   0.60658238   -2.2045788   -2.2045788   -1.4769946  0.038650215   -2.2045788   0.72758424   424551 
 3442000   0.60647686   -2.2043273   -2.2043273   -1.4768696  0.037381773   -2.2043273   0.72745768   424551 
 3443000   0.60676852   -2.2043435   -2.2043435    -1.476536  0.041843546   -2.2043435   0.72780752   424551 
 3444000   0.60629749   -2.2042407   -2.2042407   -1.4769982  0.038400135   -2.2042407   0.72724253   424551 
 3445000   0.60587575   -2.2033863   -2.2033863   -1.4766496  0.032895184   -2.2033863   0.72673666   424551 
 3446000   0.60566666   -2.2033797   -2.2033797   -1.4768938  0.040652754   -2.2033797   0.72648585   424551 
 3447000   0.60663943   -2.2044396   -2.2044396    -1.476787  0.030919264   -2.2044396   0.72765267   424551 
 3448000   0.60544138   -2.2031918   -2.2031918   -1.4769762  0.027515588   -2.2031918   0.72621564   424551 
 3449000   0.60617489   -2.2049273   -2.2049273   -1.4778318  0.034673246   -2.2049273   0.72709547   424551 
 3450000   0.60608171   -2.2042204   -2.2042204   -1.4772367  0.037992088   -2.2042204    0.7269837   424551 
 3451000   0.60547437   -2.2037291   -2.2037291   -1.4774739  0.034943778   -2.2037291    0.7262552   424551 
 3452000   0.60636626   -2.2042678   -2.2042678   -1.4769428  0.037112961   -2.2042678   0.72732501   424551 
 3453000   0.60630384   -2.2039821   -2.2039821   -1.4767319  0.034184876   -2.2039821   0.72725014   424551 
 3454000   0.60548011   -2.2030529   -2.2030529   -1.4767908  0.040337478   -2.2030529   0.72626209   424551 
 3455000   0.60628048   -2.2044424   -2.2044424   -1.4772202  0.035741155   -2.2044424   0.72722211   424551 
 3456000   0.60709381   -2.2050987   -2.2050987    -1.476901  0.035685538   -2.2050987    0.7281977   424551 
 3457000    0.6069005   -2.2048369   -2.2048369   -1.4768711  0.038624759   -2.2048369   0.72796582   424551 
 3458000   0.60636236    -2.204343    -2.204343   -1.4770227  0.036942686    -2.204343   0.72732034   424551 
 3459000   0.60526195   -2.2031645   -2.2031645   -1.4771641  0.038759158   -2.2031645   0.72600042   424551 
 3460000   0.60609136   -2.2045608   -2.2045608   -1.4775655   0.03498351   -2.2045608   0.72699527   424551 
 3461000   0.60711029   -2.2058325   -2.2058325    -1.477615  0.034017578   -2.2058325   0.72821746   424551 
 3462000   0.60616443   -2.2049658   -2.2049658   -1.4778829  0.025283399   -2.2049658   0.72708292   424551 
 3463000   0.60662927   -2.2046531   -2.2046531   -1.4770126  0.037883793   -2.2046531   0.72764048   424551 
 3464000   0.60613584   -2.2035702   -2.2035702   -1.4765215  0.038200661   -2.2035702   0.72704862   424551 
 3465000    0.6081715    -2.206433    -2.206433   -1.4769426  0.032622594    -2.206433   0.72949036   424551 
 3466000   0.60581001   -2.2045073   -2.2045073   -1.4778495  0.039536459   -2.2045073   0.72665779   424551 
 3467000   0.60788359   -2.2063781   -2.2063781   -1.4772331  0.035141364   -2.2063781   0.72914502   424551 
 3468000   0.60683173   -2.2056079   -2.2056079   -1.4777246  0.034802361   -2.2056079   0.72788333   424551 
 3469000   0.60678269   -2.2055486   -2.2055486   -1.4777241   0.03792289   -2.2055486   0.72782452   424551 
 3470000   0.60527663   -2.2045913   -2.2045913   -1.4785733  0.042737607   -2.2045913   0.72601802   424551 
 3471000   0.60660611   -2.2054383   -2.2054383   -1.4778256  0.033959119   -2.2054383   0.72761271   424551 
 3472000   0.60611329   -2.2052881   -2.2052881   -1.4782665  0.030833777   -2.2052881   0.72702158   424551 
 3473000   0.60719808   -2.2059018   -2.2059018    -1.477579  0.036377288   -2.2059018   0.72832276   424551 
 3474000   0.60684324   -2.2046229   -2.2046229   -1.4767258  0.031754838   -2.2046229   0.72789714   424551 
 3475000   0.60570055    -2.203331    -2.203331   -1.4768045  0.044308705    -2.203331    0.7265265   424551 
 3476000   0.60648084   -2.2045622   -2.2045622   -1.4770998  0.036900338   -2.2045622   0.72746245   424551 
 3477000   0.60649457   -2.2046706   -2.2046706   -1.4771917  0.030805108   -2.2046706   0.72747891   424551 
 3478000   0.60539766   -2.2033637   -2.2033637   -1.4772005  0.037958623   -2.2033637   0.72616319   424551 
 3479000   0.60652685   -2.2041721   -2.2041721   -1.4766545  0.037495758   -2.2041721   0.72751763   424551 
 3480000   0.60623761   -2.2039668   -2.2039668   -1.4767961  0.038812552   -2.2039668    0.7271707   424551 
 3481000   0.60534572   -2.2032815   -2.2032815   -1.4771806  0.032176849   -2.2032815    0.7261009   424551 
 3482000   0.60705968   -2.2052414   -2.2052414   -1.4770846  0.035539272   -2.2052414   0.72815676   424551 
 3483000   0.60627785   -2.2047305   -2.2047305   -1.4775115  0.031980049   -2.2047305   0.72721896   424551 
 3484000   0.60593217   -2.2046291   -2.2046291   -1.4778247  0.039792155   -2.2046291   0.72680433   424551 
 3485000   0.60690585   -2.2058936   -2.2058936   -1.4779214  0.035574819   -2.2058936   0.72797224   424551 
 3486000   0.60609084   -2.2058907   -2.2058907   -1.4788961   0.03972297   -2.2058907   0.72699465   424551 
 3487000   0.60605646   -2.2060935   -2.2060935   -1.4791401  0.032140477   -2.2060935   0.72695341   424551 
 3488000   0.60650777   -2.2071547   -2.2071547     -1.47966  0.033060635   -2.2071547   0.72749474   424551 
 3489000   0.60474756   -2.2051631   -2.2051631   -1.4797797  0.036232218   -2.2051631   0.72538341   424551 
 3490000   0.60657944    -2.206379    -2.206379   -1.4787983  0.043078537    -2.206379   0.72758072   424551 
 3491000   0.60679495   -2.2076522   -2.2076522    -1.479813  0.033448716   -2.2076522   0.72783922   424551 
 3492000   0.60582579   -2.2071166   -2.2071166   -1.4804398  0.039427143   -2.2071166   0.72667673   424551 
 3493000   0.60642662   -2.2073091   -2.2073091   -1.4799117   0.03646665   -2.2073091   0.72739741   424551 
 3494000   0.60749482   -2.2084949   -2.2084949   -1.4798162  0.041250288   -2.2084949    0.7286787   424551 
 3495000   0.60592965    -2.207027    -2.207027   -1.4802257   0.03715201    -2.207027   0.72680131   424551 
 3496000   0.60600672   -2.2078862   -2.2078862   -1.4809924  0.040459905   -2.2078862   0.72689375   424551 
 3497000   0.60722208   -2.2087022   -2.2087022   -1.4803507  0.036954261   -2.2087022   0.72835155   424551 
 3498000   0.60652079   -2.2090166   -2.2090166   -1.4815063  0.034362948   -2.2090166   0.72751036   424551 
 3499000   0.60682197   -2.2089446   -2.2089446    -1.481073  0.037064701   -2.2089446   0.72787162   424551 
 3500000   0.60783643    -2.210608    -2.210608   -1.4815196  0.038574081    -2.210608   0.72908846   424551 
 3501000   0.60590545   -2.2087045   -2.2087045   -1.4819322  0.041837178   -2.2087045   0.72677227   424551 
 3502000   0.60545414   -2.2077357   -2.2077357   -1.4815048  0.042115629   -2.2077357   0.72623094   424551 
 3503000   0.60578971   -2.2079777   -2.2079777   -1.4813443  0.037002257   -2.2079777   0.72663345   424551 
 3504000   0.60563074   -2.2079105   -2.2079105   -1.4814677  0.033751701   -2.2079105   0.72644277   424551 
 3505000   0.60532906   -2.2080836   -2.2080836   -1.4820027  0.045256105   -2.2080836   0.72608091   424551 
 3506000   0.60568424   -2.2092241   -2.2092241   -1.4827171  0.040755992   -2.2092241   0.72650694   424551 
 3507000   0.60681033   -2.2102514   -2.2102514   -1.4823937  0.034355041   -2.2102514   0.72785766   424551 
 3508000   0.60588395   -2.2101494   -2.2101494   -1.4834029  0.026843579   -2.2101494   0.72674649   424551 
 3509000   0.60733109   -2.2103234   -2.2103234   -1.4818411  0.034567447   -2.2103234    0.7284823   424551 
 3510000   0.60653554   -2.2099549   -2.2099549   -1.4824269  0.032894102   -2.2099549   0.72752806   424551 
 3511000   0.60672806   -2.2097178   -2.2097178   -1.4819588  0.032051556   -2.2097178   0.72775898   424551 
 3512000   0.60692328   -2.2099277   -2.2099277   -1.4819346   0.04244522   -2.2099277   0.72799314   424551 
 3513000    0.6060663   -2.2083099   -2.2083099   -1.4813447  0.041938595   -2.2083099   0.72696521   424551 
 3514000   0.60705924   -2.2103684   -2.2103684   -1.4822122  0.038302337   -2.2103684   0.72815623   424551 
 3515000   0.60562429   -2.2086152   -2.2086152   -1.4821801  0.035813055   -2.2086152   0.72643503   424551 
 3516000   0.60654516   -2.2096481   -2.2096481   -1.4821085  0.035982474   -2.2096481    0.7275396   424551 
 3517000   0.60640774   -2.2091088   -2.2091088    -1.481734  0.039850583   -2.2091088   0.72737476   424551 
 3518000    0.6061332   -2.2094449   -2.2094449   -1.4823995  0.038806951   -2.2094449   0.72704546   424551 
 3519000   0.60615306   -2.2087551   -2.2087551   -1.4816859  0.029861444   -2.2087551   0.72706928   424551 
 3520000   0.60554735   -2.2086602   -2.2086602   -1.4823175  0.033075415   -2.2086602   0.72634274   424551 
 3521000     0.604071   -2.2071701   -2.2071701   -1.4825982  0.039559219   -2.2071701   0.72457189   424551 
 3522000   0.60580165    -2.208733    -2.208733   -1.4820853  0.036407747    -2.208733   0.72664777   424551 
 3523000   0.60501585   -2.2077717   -2.2077717   -1.4820665  0.031705671   -2.2077717   0.72570522   424551 
 3524000   0.60604569     -2.20888     -2.20888   -1.4819395  0.032641744     -2.20888    0.7269405   424551 
 3525000   0.60561521   -2.2077136   -2.2077136   -1.4812895  0.033947446   -2.2077136   0.72642414   424551 
 3526000    0.6049305   -2.2072486   -2.2072486   -1.4816457  0.039608823   -2.2072486   0.72560284   424551 
 3527000    0.6054597   -2.2076818   -2.2076818   -1.4814442  0.035602926   -2.2076818   0.72623761   424551 
 3528000   0.60558754   -2.2080932   -2.2080932   -1.4817022  0.035079328   -2.2080932   0.72639096   424551 
 3529000   0.60583707    -2.208211    -2.208211   -1.4815207  0.023193535    -2.208211   0.72669026   424551 
 3530000   0.60550888    -2.207399    -2.207399   -1.4811024  0.037490253    -2.207399    0.7262966   424551 
 3531000   0.60682891   -2.2084315   -2.2084315   -1.4805515  0.035996799   -2.2084315   0.72787995   424551 
 3532000   0.60691822   -2.2089525   -2.2089525   -1.4809654   0.03957882   -2.2089525   0.72798707   424551 
 3533000   0.60580444   -2.2082722   -2.2082722   -1.4816211  0.040197832   -2.2082722   0.72665111   424551 
 3534000   0.60703056    -2.209328    -2.209328   -1.4812062   0.03986476    -2.209328   0.72812182   424551 
 3535000   0.60452524   -2.2076975   -2.2076975   -1.4825808  0.042556211   -2.2076975   0.72511674   424551 
 3536000   0.60653566   -2.2105401   -2.2105401   -1.4830119  0.041649336   -2.2105401   0.72752821   424551 
 3537000   0.60504612   -2.2091736   -2.2091736   -1.4834321   0.03923368   -2.2091736   0.72574152   424551 
 3538000   0.60670581   -2.2103726   -2.2103726   -1.4826403  0.030400624   -2.2103726   0.72773229   424551 
 3539000   0.60574101   -2.2092248   -2.2092248   -1.4826498  0.031760441   -2.2092248   0.72657504   424551 
 3540000   0.60561212    -2.209438    -2.209438   -1.4830176  0.039078778    -2.209438   0.72642043   424551 
 3541000    0.6057487    -2.209722    -2.209722   -1.4831377  0.043214441    -2.209722   0.72658426   424551 
 3542000   0.60555477   -2.2095229   -2.2095229   -1.4831713  0.036139927   -2.2095229   0.72635165   424551 
 3543000   0.60562044   -2.2089562   -2.2089562   -1.4825258  0.037619365   -2.2089562   0.72643042   424551 
 3544000   0.60556286   -2.2088103   -2.2088103   -1.4824489     0.036198   -2.2088103   0.72636134   424551 
 3545000   0.60557858    -2.208476    -2.208476   -1.4820958  0.041179419    -2.208476    0.7263802   424551 
 3546000   0.60651524   -2.2092602   -2.2092602   -1.4817565  0.038635099   -2.2092602   0.72750371   424551 
 3547000   0.60686242   -2.2087388   -2.2087388   -1.4808187  0.039880025   -2.2087388   0.72792014   424551 
 3548000   0.60728292   -2.2086811   -2.2086811   -1.4802565  0.039691056   -2.2086811   0.72842452   424551 
 3549000   0.60569252   -2.2075252   -2.2075252   -1.4810083  0.041613577   -2.2075252   0.72651687   424551 
 3550000   0.60532209   -2.2071988   -2.2071988   -1.4811263  0.034021995   -2.2071988   0.72607254   424551 
 3551000   0.60613673   -2.2078266   -2.2078266   -1.4807769   0.03534545   -2.2078266   0.72704969   424551 
 3552000   0.60527216   -2.2072586   -2.2072586   -1.4812459  0.028560917   -2.2072586   0.72601266   424551 
 3553000   0.60554394   -2.2074989   -2.2074989   -1.4811603  0.031799213   -2.2074989   0.72633866   424551 
 3554000   0.60418942   -2.2050825   -2.2050825   -1.4803685  0.028534563   -2.2050825   0.72471393   424551 
 3555000   0.60533426   -2.2063044   -2.2063044   -1.4802172  0.039210082   -2.2063044   0.72608715   424551 
 3556000   0.60538201   -2.2062265   -2.2062265   -1.4800821  0.038603489   -2.2062265   0.72614443   424551 
 3557000   0.60525224   -2.2058926   -2.2058926   -1.4799039  0.033059764   -2.2058926   0.72598876   424551 
 3558000   0.60606647   -2.2061016   -2.2061016   -1.4791362  0.035413342   -2.2061016   0.72696542   424551 
 3559000   0.60448715   -2.2046079   -2.2046079   -1.4795369  0.038223268   -2.2046079   0.72507105   424551 
 3560000   0.60535029   -2.2060669   -2.2060669   -1.4799606  0.030426636   -2.2060669   0.72610637   424551 
 3561000   0.60451596   -2.2051201   -2.2051201   -1.4800145    0.0398879   -2.2051201   0.72510561   424551 
 3562000   0.60473315    -2.205498    -2.205498   -1.4801319  0.039958839    -2.205498   0.72536612   424551 
 3563000   0.60620593   -2.2058258   -2.2058258   -1.4786931  0.041859739   -2.2058258    0.7271327   424551 
 3564000   0.60581899   -2.2057019   -2.2057019   -1.4790333  0.039570363   -2.2057019   0.72666857   424551 
 3565000   0.60625294   -2.2064976   -2.2064976   -1.4793085  0.035302876   -2.2064976   0.72718909   424551 
 3566000   0.60692989   -2.2075029   -2.2075029   -1.4795018  0.034318631   -2.2075029   0.72800108   424551 
 3567000   0.60723646   -2.2084103   -2.2084103   -1.4800415  0.039114957   -2.2084103    0.7283688   424551 
 3568000   0.60717113   -2.2078889   -2.2078889   -1.4795985  0.036980223   -2.2078889   0.72829043   424551 
 3569000   0.60678166   -2.2082954   -2.2082954   -1.4804721  0.031849001   -2.2082954   0.72782327   424551 
 3570000   0.60665351   -2.2073411   -2.2073411   -1.4796715  0.030181408   -2.2073411   0.72766956   424551 
 3571000   0.60680905   -2.2076197   -2.2076197   -1.4797636  0.027847174   -2.2076197   0.72785613   424551 
 3572000    0.6084457   -2.2093361   -2.2093361   -1.4795169  0.043127494   -2.2093361   0.72981926   424551 
 3573000   0.60680646   -2.2078516   -2.2078516   -1.4799986  0.043994021   -2.2078516   0.72785303   424551 
 3574000   0.60566706   -2.2072062   -2.2072062   -1.4807198  0.036909034   -2.2072062   0.72648634   424551 
 3575000   0.60508108   -2.2066794   -2.2066794    -1.480896  0.039201463   -2.2066794   0.72578346   424551 
 3576000   0.60567734    -2.207637    -2.207637   -1.4811383  0.036300636    -2.207637   0.72649867   424551 
 3577000   0.60527061   -2.2072625   -2.2072625   -1.4812517  0.039288324   -2.2072625   0.72601079   424551 
 3578000   0.60634428   -2.2081464   -2.2081464   -1.4808477  0.036274818   -2.2081464   0.72729865   424551 
 3579000   0.60705747   -2.2090662   -2.2090662   -1.4809121   0.03330426   -2.2090662    0.7281541   424551 
 3580000   0.60558723   -2.2073589   -2.2073589   -1.4809684  0.035510761   -2.2073589   0.72639057   424551 
 3581000    0.6072995    -2.208604    -2.208604   -1.4801596  0.037439993    -2.208604   0.72844441   424551 
 3582000    0.6061095   -2.2075148   -2.2075148   -1.4804977  0.038931844   -2.2075148   0.72701703   424551 
 3583000   0.60732996   -2.2085931   -2.2085931   -1.4801122  0.044174481   -2.2085931   0.72848095   424551 
 3584000   0.60608218   -2.2074805   -2.2074805   -1.4804963  0.035676622   -2.2074805   0.72698426   424551 
 3585000   0.60529445   -2.2062733   -2.2062733   -1.4802339  0.031525542   -2.2062733   0.72603939   424551 
 3586000   0.60564943   -2.2077513   -2.2077513   -1.4812861  0.033052696   -2.2077513   0.72646518   424551 
 3587000   0.60613247    -2.208312    -2.208312   -1.4812674  0.037708547    -2.208312   0.72704458   424551 
 3588000   0.60499246   -2.2066007   -2.2066007   -1.4809235  0.035590339   -2.2066007   0.72567716   424551 
 3589000    0.6055725   -2.2068469   -2.2068469    -1.480474  0.037628045   -2.2068469   0.72637291   424551 
 3590000   0.60525745   -2.2063998   -2.2063998   -1.4804048  0.033463652   -2.2063998   0.72599502   424551 
 3591000    0.6048893   -2.2063478   -2.2063478   -1.4807943  0.036175359   -2.2063478   0.72555343   424551 
 3592000   0.60468221   -2.2058424   -2.2058424   -1.4805374  0.038223076   -2.2058424   0.72530503   424551 
 3593000   0.60601484   -2.2068165   -2.2068165    -1.479913  0.035045795   -2.2068165   0.72690349   424551 
 3594000   0.60644302   -2.2074054   -2.2074054   -1.4799883  0.032620788   -2.2074054   0.72741709   424551 
 3595000   0.60654327   -2.2068209   -2.2068209   -1.4792836  0.029298431   -2.2068209   0.72753733   424551 
 3596000   0.60619789   -2.2061444   -2.2061444   -1.4790214  0.037208455   -2.2061444   0.72712305   424551 
 3597000    0.6058158   -2.2065897   -2.2065897   -1.4799249  0.044769917   -2.2065897   0.72666474   424551 
 3598000   0.60587614   -2.2068169   -2.2068169   -1.4800798  0.032456608   -2.2068169   0.72673712   424551 
 3599000   0.60603821   -2.2068798   -2.2068798   -1.4799482  0.031939247   -2.2068798   0.72693152   424551 
 3600000   0.60560189   -2.2062926   -2.2062926   -1.4798844  0.040210215   -2.2062926   0.72640817   424551 
 3601000   0.60570935   -2.2061716   -2.2061716   -1.4796345  0.035483568   -2.2061716   0.72653705   424551 
 3602000   0.60730858   -2.2076584   -2.2076584   -1.4792031  0.025291032   -2.2076584    0.7284553   424551 
 3603000   0.60513733    -2.205186    -2.205186   -1.4793351  0.042572018    -2.205186   0.72585093   424551 
 3604000   0.60494183   -2.2057222   -2.2057222   -1.4801058  0.036515203   -2.2057222   0.72561643   424551 
 3605000   0.60619516   -2.2064089   -2.2064089   -1.4792891  0.038070845   -2.2064089   0.72711978   424551 
 3606000   0.60517498   -2.2054583   -2.2054583   -1.4795622  0.038507519   -2.2054583   0.72589609   424551 
 3607000   0.60808501   -2.2086616   -2.2086616    -1.479275  0.035839477   -2.2086616   0.72938661   424551 
 3608000   0.60685775   -2.2077494   -2.2077494   -1.4798349  0.036720248   -2.2077494   0.72791455   424551 
 3609000     0.606226   -2.2074704   -2.2074704   -1.4803137  0.037840129   -2.2074704   0.72715677   424551 
 3610000    0.6059554   -2.2076773   -2.2076773   -1.4808451  0.034680772   -2.2076773   0.72683219   424551 
 3611000   0.60561123   -2.2076922   -2.2076922   -1.4812729  0.034368028   -2.2076922   0.72641937   424551 
 3612000   0.60566032   -2.2076436   -2.2076436   -1.4811653  0.039524364   -2.2076436   0.72647825   424551 
 3613000   0.60602048   -2.2077067   -2.2077067   -1.4807964  0.038366688   -2.2077067   0.72691026   424551 
 3614000   0.60688805   -2.2071416   -2.2071416   -1.4791907  0.035022508   -2.2071416   0.72795089   424551 
 3615000   0.60731897   -2.2079071   -2.2079071   -1.4794393  0.033125441   -2.2079071   0.72846776   424551 
 3616000   0.60706752   -2.2077703   -2.2077703   -1.4796042  0.041022324   -2.2077703   0.72816616   424551 
 3617000   0.60719514   -2.2075799   -2.2075799   -1.4792606  0.042002498   -2.2075799   0.72831924   424551 
 3618000   0.60574799    -2.207481    -2.207481   -1.4808976  0.034658394    -2.207481   0.72658341   424551 
 3619000   0.60775195   -2.2089718   -2.2089718   -1.4799846  0.038936081   -2.2089718   0.72898712   424551 
 3620000   0.60637909   -2.2070156   -2.2070156   -1.4796752  0.037366319   -2.2070156    0.7273404   424551 
 3621000   0.60581586   -2.2072159   -2.2072159   -1.4805511  0.036467199   -2.2072159   0.72666482   424551 
 3622000   0.60580735    -2.206566    -2.206566   -1.4799114  0.035735481    -2.206566   0.72665461   424551 
 3623000     0.606495   -2.2064166   -2.2064166   -1.4789372  0.034020903   -2.2064166   0.72747943   424551 
 3624000   0.60498343   -2.2054881   -2.2054881   -1.4798217  0.039777522   -2.2054881   0.72566633   424551 
 3625000   0.60606778   -2.2070174   -2.2070174   -1.4800504  0.034633754   -2.2070174   0.72696699   424551 
 3626000   0.60595229   -2.2080286   -2.2080286   -1.4812002  0.033134704   -2.2080286   0.72682847   424551 
 3627000   0.60436143   -2.2065713   -2.2065713    -1.481651  0.032177715   -2.2065713   0.72492025   424551 
 3628000   0.60614738   -2.2077875   -2.2077875   -1.4807251  0.032271623   -2.2077875   0.72706247   424551 
 3629000   0.60529232   -2.2060565   -2.2060565   -1.4800197  0.041777166   -2.2060565   0.72603684   424551 
 3630000   0.60595112   -2.2065474   -2.2065474   -1.4797203  0.029513324   -2.2065474   0.72682705   424551 
 3631000   0.60495524   -2.2057622   -2.2057622   -1.4801297  0.040636642   -2.2057622   0.72563251   424551 
 3632000   0.60609062    -2.206443    -2.206443   -1.4794486  0.033714589    -2.206443   0.72699438   424551 
 3633000   0.60739802   -2.2084161   -2.2084161   -1.4798535  0.037788818   -2.2084161   0.72856258   424551 
 3634000   0.60627537    -2.206983    -2.206983    -1.479767  0.030888653    -2.206983   0.72721598   424551 
 3635000    0.6072488   -2.2079739   -2.2079739   -1.4795903  0.027111931   -2.2079739   0.72838361   424551 
 3636000   0.60617269   -2.2078658   -2.2078658    -1.480773  0.032522118   -2.2078658   0.72709283   424551 
 3637000   0.60744946   -2.2090333   -2.2090333    -1.480409  0.029282924   -2.2090333   0.72862429   424551 
 3638000   0.60679209    -2.207559    -2.207559   -1.4797232  0.032336175    -2.207559   0.72783579   424551 
 3639000   0.60709295   -2.2083369   -2.2083369   -1.4801403  0.029944184   -2.2083369   0.72819666   424551 
 3640000   0.60597118    -2.207388    -2.207388   -1.4805368  0.039399659    -2.207388   0.72685112   424551 
 3641000   0.60624786   -2.2071707   -2.2071707   -1.4799877  0.035417268   -2.2071707   0.72718299   424551 
 3642000   0.60651044   -2.2071822   -2.2071822   -1.4796842  0.044631335   -2.2071822   0.72749795   424551 
 3643000   0.60709282   -2.2084209   -2.2084209   -1.4802244  0.035263024   -2.2084209   0.72819651   424551 
 3644000   0.60579303   -2.2072566   -2.2072566   -1.4806191  0.042317425   -2.2072566   0.72663743   424551 
 3645000   0.60515993   -2.2077087   -2.2077087   -1.4818307   0.03113056   -2.2077087   0.72587804   424551 
 3646000   0.60535747   -2.2071231   -2.2071231   -1.4810081  0.037425379   -2.2071231   0.72611498   424551 
 3647000   0.60554979   -2.2066596   -2.2066596   -1.4803139  0.045366475   -2.2066596   0.72634567   424551 
 3648000    0.6061069   -2.2069799   -2.2069799    -1.479966  0.031755162   -2.2069799   0.72701392   424551 
 3649000   0.60519339   -2.2061266   -2.2061266   -1.4802085  0.035049542   -2.2061266   0.72591818   424551 
 3650000   0.60450026   -2.2049731   -2.2049731   -1.4798863  0.038652729   -2.2049731   0.72508677   424551 
 3651000   0.60696343   -2.2081061   -2.2081061   -1.4800648  0.039735376   -2.2081061    0.7280413   424551 
 3652000   0.60597497   -2.2075198   -2.2075198   -1.4806642  0.033720103   -2.2075198   0.72685566   424551 
 3653000   0.60762616   -2.2088879   -2.2088879   -1.4800517    0.0325923   -2.2088879   0.72883623   424551 
 3654000   0.60676271   -2.2084238   -2.2084238   -1.4806232  0.036408757   -2.2084238   0.72780055   424551 
 3655000   0.60537646   -2.2068823   -2.2068823   -1.4807446  0.036952023   -2.2068823   0.72613776   424551 
 3656000   0.60504791   -2.2066033   -2.2066033   -1.4808597  0.033140088   -2.2066033   0.72574367   424551 
 3657000    0.6042878      -2.2064      -2.2064    -1.481568  0.042387187      -2.2064   0.72483194   424551 
 3658000   0.60514689   -2.2078294   -2.2078294    -1.481967  0.034746688   -2.2078294    0.7258624   424551 
 3659000   0.60508403   -2.2075065   -2.2075065   -1.4817195  0.037752922   -2.2075065     0.725787   424551 
 3660000   0.60544622   -2.2077254   -2.2077254   -1.4815039   0.02747597   -2.2077254   0.72622144   424551 
 3661000   0.60530874   -2.2090396   -2.2090396    -1.482983  0.036669636   -2.2090396   0.72605654   424551 
 3662000   0.60531825    -2.208907    -2.208907    -1.482839    0.0398209    -2.208907   0.72606794   424551 
 3663000   0.60576776   -2.2098406   -2.2098406   -1.4832335  0.036897071   -2.2098406   0.72660713   424551 
 3664000   0.60576287   -2.2092859   -2.2092859   -1.4826847  0.037716314   -2.2092859   0.72660125   424551 
 3665000   0.60683811   -2.2106018   -2.2106018   -1.4827108  0.040638364   -2.2106018   0.72789098   424551 
 3666000   0.60587436   -2.2093073   -2.2093073   -1.4825723  0.044113237   -2.2093073   0.72673499   424551 
 3667000   0.60608628   -2.2092721   -2.2092721   -1.4822829   0.04027865   -2.2092721   0.72698918   424551 
 3668000   0.60635879   -2.2094972   -2.2094972   -1.4821811  0.034407242   -2.2094972   0.72731606   424551 
 3669000   0.60665606   -2.2107663   -2.2107663   -1.4830936  0.039225622   -2.2107663   0.72767261   424551 
 3670000   0.60512948    -2.209701    -2.209701   -1.4838595  0.034222819    -2.209701   0.72584152   424551 
 3671000   0.60617071   -2.2100859   -2.2100859   -1.4829954  0.038134436   -2.2100859   0.72709046   424551 
 3672000   0.60621276    -2.210366    -2.210366   -1.4832251  0.038153054    -2.210366   0.72714089   424551 
 3673000   0.60568395   -2.2096496   -2.2096496    -1.483143  0.034048943   -2.2096496    0.7265066   424551 
 3674000   0.60529731   -2.2095523   -2.2095523   -1.4835095  0.037074223   -2.2095523   0.72604282   424551 
 3675000   0.60526311   -2.2091045   -2.2091045   -1.4831027  0.034892841   -2.2091045    0.7260018   424551 
 3676000   0.60586698   -2.2096655   -2.2096655   -1.4829393  0.033096067   -2.2096655   0.72672614   424551 
 3677000   0.60610741   -2.2101762   -2.2101762   -1.4831616  0.032744246   -2.2101762   0.72701452   424551 
 3678000   0.60548296   -2.2095938   -2.2095938   -1.4833283  0.040453619   -2.2095938    0.7262655   424551 
 3679000   0.60469532   -2.2090879   -2.2090879   -1.4837671  0.039769486   -2.2090879   0.72532075   424551 
 3680000   0.60427792   -2.2078881   -2.2078881    -1.483068  0.039503874   -2.2078881   0.72482009   424551 
 3681000   0.60598671   -2.2108136   -2.2108136   -1.4839438  0.043106743   -2.2108136   0.72686975   424551 
 3682000   0.60546222   -2.2097951   -2.2097951   -1.4835545  0.036664706   -2.2097951   0.72624063   424551 
 3683000   0.60525514   -2.2098554   -2.2098554   -1.4838631  0.042791958   -2.2098554   0.72599224   424551 
 3684000    0.6057999   -2.2103287   -2.2103287   -1.4836831  0.042699226   -2.2103287   0.72664567   424551 
 3685000   0.60626951   -2.2104735   -2.2104735   -1.4832646  0.031587816   -2.2104735   0.72720896   424551 
 3686000   0.60612661    -2.210345    -2.210345   -1.4833074  0.040548745    -2.210345   0.72703755   424551 
 3687000   0.60640313   -2.2111357   -2.2111357   -1.4837664  0.044175873   -2.2111357   0.72736924   424551 
 3688000   0.60601983   -2.2102621   -2.2102621   -1.4833527  0.032561097   -2.2102621   0.72690948   424551 
 3689000   0.60510265   -2.2091635   -2.2091635   -1.4833542  0.034675983   -2.2091635   0.72580933   424551 
 3690000   0.60533818   -2.2092308   -2.2092308    -1.483139  0.040261423   -2.2092308   0.72609185   424551 
 3691000   0.60482837   -2.2085341   -2.2085341   -1.4830537  0.032216303   -2.2085341   0.72548034   424551 
 3692000   0.60514903   -2.2086112   -2.2086112   -1.4827462  0.036331223   -2.2086112   0.72586496   424551 
 3693000   0.60529263   -2.2085806   -2.2085806   -1.4825434  0.031886378   -2.2085806   0.72603722   424551 
 3694000   0.60588502    -2.209324    -2.209324   -1.4825762  0.037051855    -2.209324   0.72674777   424551 
 3695000   0.60537208    -2.208445    -2.208445   -1.4823125  0.040158578    -2.208445   0.72613251   424551 
 3696000    0.6070007    -2.208773    -2.208773    -1.480687  0.038970597    -2.208773   0.72808601   424551 
 3697000   0.60572721   -2.2076475   -2.2076475    -1.481089  0.038297455   -2.2076475   0.72655848   424551 
 3698000    0.6066731   -2.2092297   -2.2092297   -1.4815366  0.034222881   -2.2092297   0.72769306   424551 
 3699000   0.60618875    -2.208341    -2.208341   -1.4812289  0.036000294    -2.208341   0.72711209   424551 
 3700000    0.6053943   -2.2078874   -2.2078874   -1.4817282  0.035781602   -2.2078874   0.72615916   424551 
 3701000   0.60561833    -2.207801    -2.207801   -1.4813731  0.039199169    -2.207801   0.72642788   424551 
 3702000   0.60608961   -2.2091753   -2.2091753   -1.4821821  0.031948968   -2.2091753   0.72699317   424551 
 3703000   0.60717773   -2.2105892   -2.2105892   -1.4822909  0.036713163   -2.2105892   0.72829835   424551 
 3704000   0.60634543   -2.2092325   -2.2092325   -1.4819325  0.033272478   -2.2092325   0.72730002   424551 
 3705000   0.60564299   -2.2083785   -2.2083785   -1.4819211  0.033677175   -2.2083785   0.72645746   424551 
 3706000   0.60594444   -2.2083792   -2.2083792   -1.4815601  0.047124967   -2.2083792   0.72681905   424551 
 3707000   0.60609063   -2.2086298   -2.2086298   -1.4816354  0.036059391   -2.2086298   0.72699439   424551 
 3708000    0.6065931   -2.2099059   -2.2099059   -1.4823088  0.036479074   -2.2099059    0.7275971   424551 
 3709000   0.60654783   -2.2098377   -2.2098377   -1.4822949   0.03917133   -2.2098377    0.7275428   424551 
 3710000   0.60528658   -2.2087729   -2.2087729   -1.4827429  0.039495957   -2.2087729   0.72602995   424551 
 3711000   0.60543976   -2.2088044   -2.2088044   -1.4825907  0.046721465   -2.2088044    0.7262137   424551 
 3712000   0.60606442   -2.2095275   -2.2095275   -1.4825645  0.033682825   -2.2095275   0.72696296   424551 
 3713000   0.60517455   -2.2086543   -2.2086543   -1.4827587  0.039809352   -2.2086543   0.72589557   424551 
 3714000   0.60613911   -2.2092648   -2.2092648   -1.4822123  0.040781557   -2.2092648   0.72705255   424551 
 3715000   0.60652918   -2.2095463   -2.2095463   -1.4820259  0.043625163   -2.2095463   0.72752043   424551 
 3716000   0.60610511   -2.2098359   -2.2098359   -1.4828241  0.031491232   -2.2098359   0.72701177   424551 
 3717000   0.60551254   -2.2093073   -2.2093073   -1.4830063  0.038730023   -2.2093073   0.72630099   424551 
 3718000   0.60503619   -2.2091494   -2.2091494   -1.4834198  0.031743949   -2.2091494   0.72572962   424551 
 3719000   0.60605091   -2.2097555   -2.2097555   -1.4828088  0.041469822   -2.2097555   0.72694675   424551 
 3720000   0.60605901   -2.2101046   -2.2101046   -1.4831481  0.035253421   -2.2101046   0.72695647   424551 
 3721000   0.60576919   -2.2099613   -2.2099613   -1.4833525  0.040364293   -2.2099613   0.72660884   424551 
 3722000    0.6054766   -2.2100821   -2.2100821   -1.4838242  0.041484438   -2.2100821   0.72625788   424551 
 3723000   0.60652974   -2.2104135   -2.2104135   -1.4828924  0.041544369   -2.2104135    0.7275211   424551 
 3724000   0.60504563   -2.2091669   -2.2091669   -1.4834259  0.037215013   -2.2091669   0.72574094   424551 
 3725000   0.60606661   -2.2100286   -2.2100286    -1.483063  0.036326846   -2.2100286   0.72696558   424551 
 3726000   0.60592556   -2.2100165   -2.2100165   -1.4832202  0.030427139   -2.2100165    0.7267964   424551 
 3727000   0.60547809   -2.2101041   -2.2101041   -1.4838444  0.037041137   -2.2101041   0.72625967   424551 
 3728000   0.60656556   -2.2111484   -2.2111484   -1.4835844    0.0313836   -2.2111484   0.72756407   424551 
 3729000   0.60650376   -2.2108467   -2.2108467   -1.4833568  0.026452936   -2.2108467   0.72748993   424551 
 3730000   0.60589214   -2.2096622   -2.2096622   -1.4829059  0.046684423   -2.2096622   0.72675631   424551 
 3731000   0.60542856   -2.2086498   -2.2086498   -1.4824495  0.031813445   -2.2086498   0.72620026   424551 
 3732000   0.60648911   -2.2104402   -2.2104402   -1.4829679  0.041667949   -2.2104402   0.72747236   424551 
 3733000   0.60582665   -2.2095002   -2.2095002   -1.4828224  0.040808659   -2.2095002   0.72667776   424551 
 3734000   0.60555184   -2.2094484   -2.2094484   -1.4831002  0.027451034   -2.2094484   0.72634813   424551 
 3735000   0.60651694   -2.2110359   -2.2110359   -1.4835302  0.037924086   -2.2110359   0.72750575   424551 
 3736000   0.60590219    -2.210095    -2.210095   -1.4833266  0.046119721    -2.210095   0.72676836   424551 
 3737000   0.60592831   -2.2092034   -2.2092034   -1.4824037  0.041311215   -2.2092034   0.72679969   424551 
 3738000   0.60582025   -2.2088112   -2.2088112   -1.4821411  0.037589884   -2.2088112   0.72667008   424551 
 3739000   0.60554835   -2.2090609   -2.2090609   -1.4827169  0.036390311   -2.2090609   0.72634395   424551 
 3740000   0.60538016   -2.2081829   -2.2081829   -1.4820407  0.039492466   -2.2081829    0.7261422   424551 
 3741000   0.60661349   -2.2096909   -2.2096909   -1.4820694  0.035008564   -2.2096909   0.72762155   424551 
 3742000     0.605934   -2.2090713   -2.2090713   -1.4822647  0.036127474   -2.2090713   0.72680653   424551 
 3743000   0.60537894   -2.2095051   -2.2095051   -1.4833644   0.03316403   -2.2095051   0.72614073   424551 
 3744000   0.60525388   -2.2093283   -2.2093283   -1.4833375  0.036603177   -2.2093283   0.72599073   424551 
 3745000   0.60616305   -2.2099716   -2.2099716   -1.4828904  0.037489109   -2.2099716   0.72708126   424551 
 3746000   0.60551739    -2.209648    -2.209648   -1.4833412  0.036461059    -2.209648   0.72630681   424551 
 3747000   0.60613708   -2.2100433   -2.2100433   -1.4829932  0.038805122   -2.2100433   0.72705012   424551 
 3748000     0.606349    -2.210084    -2.210084   -1.4827797  0.039812164    -2.210084   0.72730431   424551 
 3749000   0.60563007   -2.2099489   -2.2099489   -1.4835069  0.037095359   -2.2099489   0.72644197   424551 
 3750000    0.6060458   -2.2096762   -2.2096762   -1.4827356  0.031873274   -2.2096762   0.72694062   424551 
 3751000   0.60600656   -2.2097517   -2.2097517   -1.4828581  0.037277072   -2.2097517   0.72689356   424551 
 3752000   0.60605241   -2.2101309   -2.2101309   -1.4831823  0.033705958   -2.2101309   0.72694856   424551 
 3753000    0.6065741   -2.2106643   -2.2106643     -1.48309   0.03780768   -2.2106643   0.72757432   424551 
 3754000   0.60541612   -2.2092093   -2.2092093    -1.483024  0.037744214   -2.2092093   0.72618534   424551 
 3755000   0.60502508   -2.2090998   -2.2090998   -1.4833835  0.034310516   -2.2090998   0.72571629   424551 
 3756000   0.60415419   -2.2083068   -2.2083068   -1.4836351  0.034480813   -2.2083068   0.72467167   424551 
 3757000   0.60617966   -2.2097933   -2.2097933   -1.4826921  0.034867492   -2.2097933   0.72710119   424551 
 3758000    0.6062302   -2.2102224   -2.2102224   -1.4830605  0.037725322   -2.2102224   0.72716181   424551 
 3759000   0.60571422   -2.2088326   -2.2088326   -1.4822897  0.034529004   -2.2088326    0.7265429   424551 
 3760000   0.60576145   -2.2091102   -2.2091102   -1.4825106  0.034276951   -2.2091102   0.72659955   424551 
 3761000   0.60549541   -2.2092677   -2.2092677   -1.4829872  0.039896203   -2.2092677   0.72628044   424551 
 3762000   0.60461893   -2.2082424   -2.2082424   -1.4830133  0.036475924   -2.2082424   0.72522912   424551 
 3763000   0.60478886   -2.2089599   -2.2089599   -1.4835269  0.034678306   -2.2089599   0.72543295   424551 
 3764000   0.60573418   -2.2096478   -2.2096478    -1.483081  0.031537153   -2.2096478   0.72656684   424551 
 3765000   0.60525923   -2.2087898   -2.2087898   -1.4827926  0.037876111   -2.2087898   0.72599715   424551 
 3766000   0.60542185   -2.2087607   -2.2087607   -1.4825685   0.04085861   -2.2087607   0.72619221   424551 
 3767000   0.60494827   -2.2085704   -2.2085704   -1.4829462  0.037932546   -2.2085704   0.72562416   424551 
 3768000   0.60647743   -2.2094383   -2.2094383     -1.48198   0.04600648   -2.2094383   0.72745835   424551 
 3769000   0.60828629   -2.2109778   -2.2109778   -1.4813497  0.035153511   -2.2109778   0.72962804   424551 
 3770000   0.60653557   -2.2098091   -2.2098091    -1.482281  0.030719552   -2.2098091   0.72752809   424551 
 3771000   0.60654462   -2.2092873   -2.2092873   -1.4817483  0.031216025   -2.2092873   0.72753895   424551 
 3772000   0.60755161   -2.2114447   -2.2114447   -1.4826979  0.036067978   -2.2114447   0.72874682   424551 
 3773000   0.60638792   -2.2099502   -2.2099502   -1.4825992   0.04262458   -2.2099502   0.72735099   424551 
 3774000   0.60790251   -2.2112367   -2.2112367    -1.482069  0.039344851   -2.2112367   0.72916771   424551 
 3775000    0.6067955   -2.2101859   -2.2101859    -1.482346  0.035042124   -2.2101859   0.72783988   424551 
 3776000   0.60641546   -2.2097336   -2.2097336   -1.4823496  0.038790624   -2.2097336   0.72738402   424551 
 3777000   0.60599359   -2.2094197   -2.2094197   -1.4825417  0.038196552   -2.2094197     0.726878   424551 
 3778000    0.6058195    -2.209976    -2.209976   -1.4833068  0.035126482    -2.209976   0.72666918   424551 
 3779000   0.60384884   -2.2080142   -2.2080142   -1.4837088  0.042705009   -2.2080142   0.72430542   424551 
 3780000   0.60673324   -2.2109887   -2.2109887   -1.4832235  0.034393781   -2.2109887   0.72776519   424551 
 3781000   0.60580922   -2.2105335   -2.2105335   -1.4838766  0.034505258   -2.2105335   0.72665685   424551 
 3782000   0.60658609   -2.2105486   -2.2105486   -1.4829599  0.031778004   -2.2105486    0.7275887   424551 
 3783000   0.60724733   -2.2110378   -2.2110378   -1.4826559  0.034468422   -2.2110378   0.72838183   424551 
 3784000   0.60616548   -2.2101936   -2.2101936   -1.4831094  0.038671075   -2.2101936   0.72708418   424551 
 3785000   0.60627678   -2.2103085   -2.2103085   -1.4830908  0.037595655   -2.2103085   0.72721768   424551 
 3786000   0.60591786   -2.2098555   -2.2098555   -1.4830684  0.037572104   -2.2098555   0.72678716   424551 
 3787000   0.60606758   -2.2096431   -2.2096431   -1.4826763  0.040673599   -2.2096431   0.72696675   424551 
 3788000   0.60682816   -2.2096998   -2.2096998   -1.4818208  0.042636033   -2.2096998   0.72787905   424551 
 3789000   0.60550023   -2.2080045   -2.2080045   -1.4817182  0.042819054   -2.2080045   0.72628622   424551 
 3790000   0.60621742   -2.2094666   -2.2094666   -1.4823201  0.038012229   -2.2094666   0.72714648   424551 
 3791000   0.60509296   -2.2079437   -2.2079437    -1.482146   0.03572547   -2.2079437   0.72579771   424551 
 3792000   0.60628443   -2.2091371   -2.2091371   -1.4819102  0.034549142   -2.2091371   0.72722685   424551 
 3793000   0.60603287   -2.2091472   -2.2091472   -1.4822221  0.042369434   -2.2091472   0.72692511   424551 
 3794000   0.60564585   -2.2085466   -2.2085466   -1.4820857  0.032499686   -2.2085466   0.72646089   424551 
 3795000   0.60453257   -2.2068398   -2.2068398   -1.4817142  0.034106594   -2.2068398   0.72512553   424551 
 3796000   0.60585768   -2.2083168   -2.2083168   -1.4816018  0.033704227   -2.2083168   0.72671498   424551 
 3797000   0.60607927   -2.2086792   -2.2086792   -1.4816984  0.036035614   -2.2086792   0.72698077   424551 
 3798000   0.60587586   -2.2085497   -2.2085497   -1.4818129  0.039363267   -2.2085497   0.72673679   424551 
 3799000   0.60591997   -2.2081527   -2.2081527    -1.481363  0.037782181   -2.2081527   0.72678969   424551 
 3800000   0.60594998   -2.2087494   -2.2087494   -1.4819237  0.038997943   -2.2087494   0.72682569   424551 
 3801000   0.60666437   -2.2096482   -2.2096482   -1.4819656   0.03568522   -2.2096482   0.72768259   424551 
 3802000   0.60640559   -2.2095421   -2.2095421   -1.4821699  0.039740449   -2.2095421   0.72737218   424551 
 3803000    0.6052684   -2.2093559   -2.2093559   -1.4833478  0.031578632   -2.2093559   0.72600815   424551 
 3804000   0.60564432   -2.2090798   -2.2090798   -1.4826207  0.037313095   -2.2090798   0.72645906   424551 
 3805000   0.60598264   -2.2091361   -2.2091361   -1.4822712   0.03432677   -2.2091361   0.72686486   424551 
 3806000   0.60593184   -2.2097191   -2.2097191   -1.4829151  0.044009286   -2.2097191   0.72680394   424551 
 3807000   0.60579871    -2.209481    -2.209481   -1.4828367  0.038032306    -2.209481   0.72664425   424551 
 3808000    0.6063483   -2.2102555   -2.2102555   -1.4829521  0.037201966   -2.2102555   0.72730347   424551 
 3809000   0.60609539   -2.2100575   -2.2100575   -1.4830574    0.0327556   -2.2100575    0.7270001   424551 
 3810000   0.60683538   -2.2103732   -2.2103732   -1.4824855  0.045440362   -2.2103732   0.72788771   424551 
 3811000   0.60668501   -2.2110014   -2.2110014    -1.483294   0.03529719   -2.2110014   0.72770734   424551 
 3812000   0.60633747   -2.2101399   -2.2101399   -1.4828494  0.043014166   -2.2101399   0.72729048   424551 
 3813000   0.60540333   -2.2086651   -2.2086651   -1.4824951  0.032097868   -2.2086651      0.72617   424551 
 3814000   0.60565604   -2.2091674   -2.2091674   -1.4826943  0.032494602   -2.2091674   0.72647312   424551 
 3815000   0.60507797   -2.2089994   -2.2089994   -1.4832197   0.03777748   -2.2089994   0.72577973   424551 
 3816000   0.60589398   -2.2092563   -2.2092563   -1.4824978  0.036533091   -2.2092563   0.72675852   424551 
 3817000   0.60562995   -2.2092233   -2.2092233   -1.4827815  0.036337306   -2.2092233   0.72644182   424551 
 3818000   0.60552243    -2.209664    -2.209664   -1.4833512  0.038993006    -2.209664   0.72631285   424551 
 3819000   0.60642015   -2.2102705   -2.2102705   -1.4828809  0.038347281   -2.2102705   0.72738965   424551 
 3820000   0.60634847   -2.2101529   -2.2101529   -1.4828493  0.035747961   -2.2101529   0.72730368   424551 
 3821000   0.60603964   -2.2099531   -2.2099531   -1.4830199  0.042157318   -2.2099531   0.72693324   424551 
 3822000    0.6051206   -2.2100584   -2.2100584   -1.4842275  0.033924071   -2.2100584   0.72583087   424551 
 3823000   0.60527279   -2.2095198   -2.2095198   -1.4835064  0.034412001   -2.2095198   0.72601342   424551 
 3824000   0.60758211   -2.2115741   -2.2115741   -1.4827907  0.035312586   -2.2115741   0.72878341   424551 
 3825000    0.6061398   -2.2101041   -2.2101041   -1.4830507  0.035380917   -2.2101041   0.72705337   424551 
 3826000   0.60620741    -2.211037    -2.211037   -1.4839025  0.032240635    -2.211037   0.72713447   424551 
 3827000   0.60637224   -2.2108383   -2.2108383   -1.4835061  0.043012444   -2.2108383   0.72733218   424551 
 3828000   0.60596476   -2.2106925   -2.2106925   -1.4838491  0.041556086   -2.2106925   0.72684342   424551 
 3829000   0.60627607   -2.2109469   -2.2109469     -1.48373  0.038424387   -2.2109469   0.72721683   424551 
 3830000    0.6062871   -2.2115455   -2.2115455   -1.4843155  0.047047494   -2.2115455   0.72723006   424551 
 3831000   0.60601859   -2.2109307   -2.2109307   -1.4840227  0.036069587   -2.2109307   0.72690799   424551 
 3832000   0.60598011    -2.211194    -2.211194   -1.4843322  0.037295968    -2.211194   0.72686183   424551 
 3833000   0.60533118   -2.2103826   -2.2103826   -1.4842991  0.038074078   -2.2103826   0.72608345   424551 
 3834000   0.60516116   -2.2096045   -2.2096045   -1.4837249  0.038315117   -2.2096045   0.72587952   424551 
 3835000   0.60572146   -2.2099868   -2.2099868   -1.4834352  0.032932777   -2.2099868   0.72655158   424551 
 3836000    0.6065276   -2.2112475   -2.2112475    -1.483729  0.032458935   -2.2112475   0.72751854   424551 
 3837000    0.6050203   -2.2099724   -2.2099724   -1.4842618  0.039792293   -2.2099724   0.72571055   424551 
 3838000   0.60511927   -2.2098896   -2.2098896   -1.4840603   0.03798387   -2.2098896   0.72582927   424551 
 3839000   0.60591583   -2.2109221   -2.2109221   -1.4841374  0.041345637   -2.2109221   0.72678473   424551 
 3840000   0.60573803    -2.211211    -2.211211   -1.4846395  0.036790658    -2.211211   0.72657146   424551 
 3841000   0.60574044   -2.2109965   -2.2109965   -1.4844222  0.041093723   -2.2109965   0.72657435   424551 
 3842000   0.60609163   -2.2116449   -2.2116449   -1.4846493  0.033482066   -2.2116449    0.7269956   424551 
 3843000   0.60516269   -2.2107652   -2.2107652   -1.4848839  0.036286941   -2.2107652   0.72588135   424551 
 3844000   0.60595196   -2.2120318   -2.2120318   -1.4852037  0.037395094   -2.2120318   0.72682807   424551 
 3845000   0.60509283   -2.2106785   -2.2106785    -1.484881  0.041154393   -2.2106785   0.72579756   424551 
 3846000   0.60565917   -2.2114923   -2.2114923   -1.4850154  0.045593625   -2.2114923   0.72647687   424551 
 3847000    0.6058335   -2.2120135   -2.2120135   -1.4853275  0.039162625   -2.2120135   0.72668597   424551 
 3848000   0.60477682   -2.2110644   -2.2110644   -1.4856459  0.040708779   -2.2110644    0.7254185   424551 
 3849000   0.60500687   -2.2113642   -2.2113642   -1.4856697  0.037522601   -2.2113642   0.72569445   424551 
 3850000    0.6058599   -2.2119029   -2.2119029   -1.4851853  0.042315722   -2.2119029   0.72671764   424551 
 3851000   0.60666297   -2.2129322   -2.2129322   -1.4852513  0.037296092   -2.2129322   0.72768091   424551 
 3852000   0.60648752   -2.2127151   -2.2127151   -1.4852446  0.034657747   -2.2127151   0.72747046   424551 
 3853000   0.60708232   -2.2134854   -2.2134854   -1.4853015  0.035415068   -2.2134854   0.72818391   424551 
 3854000   0.60568089    -2.212152    -2.212152   -1.4856491  0.035829109    -2.212152   0.72650292   424551 
 3855000   0.60686322   -2.2137283   -2.2137283   -1.4858072  0.036239232   -2.2137283    0.7279211   424551 
 3856000   0.60582472   -2.2125722   -2.2125722   -1.4858968  0.037366246   -2.2125722   0.72667544   424551 
 3857000   0.60593952   -2.2131168   -2.2131168   -1.4863036  0.042635066   -2.2131168   0.72681315   424551 
 3858000    0.6058237   -2.2129797   -2.2129797   -1.4863055   0.03702865   -2.2129797   0.72667422   424551 
 3859000   0.60616191   -2.2140556   -2.2140556   -1.4869757  0.038770669   -2.2140556    0.7270799   424551 
 3860000    0.6065624   -2.2149035   -2.2149035   -1.4873433  0.032308927   -2.2149035   0.72756027   424551 
 3861000    0.6063451   -2.2147369   -2.2147369   -1.4874373  0.030325649   -2.2147369   0.72729962   424551 
 3862000   0.60501928   -2.2130717   -2.2130717   -1.4873624  0.043136276   -2.2130717   0.72570933   424551 
 3863000   0.60576898   -2.2138955   -2.2138955   -1.4872869  0.041745825   -2.2138955   0.72660859   424551 
 3864000   0.60485042   -2.2121329   -2.2121329   -1.4866261  0.034198004   -2.2121329   0.72550679   424551 
 3865000   0.60543929   -2.2120911   -2.2120911   -1.4858779  0.047408051   -2.2120911   0.72621313   424551 
 3866000    0.6038596   -2.2103416   -2.2103416   -1.4860233  0.030194114   -2.2103416   0.72431832   424551 
 3867000   0.60511476   -2.2104385   -2.2104385   -1.4846146  0.042177561   -2.2104385   0.72582386   424551 
 3868000   0.60627346   -2.2124451   -2.2124451   -1.4852314  0.039028156   -2.2124451    0.7272137   424551 
 3869000   0.60660602   -2.2128435   -2.2128435   -1.4852309  0.046516228   -2.2128435    0.7276126   424551 
 3870000   0.60735567   -2.2132784   -2.2132784   -1.4847666  0.042981826   -2.2132784   0.72851179   424551 
 3871000   0.60648429    -2.212811    -2.212811   -1.4853444   0.03798841    -2.212811   0.72746659   424551 
 3872000   0.60687633   -2.2139759   -2.2139759    -1.486039  0.030697033   -2.2139759   0.72793683   424551 
 3873000   0.60473747   -2.2111306   -2.2111306   -1.4857593  0.047955952   -2.2111306   0.72537131   424551 
 3874000   0.60557804   -2.2121061   -2.2121061   -1.4857266  0.034107903   -2.2121061   0.72637956   424551 
 3875000   0.60530154   -2.2126756   -2.2126756   -1.4866277   0.04163925   -2.2126756    0.7260479   424551 
 3876000   0.60565373   -2.2125441   -2.2125441   -1.4860737  0.034155017   -2.2125441   0.72647035   424551 
 3877000    0.6056295   -2.2125325   -2.2125325   -1.4860912  0.045380147   -2.2125325   0.72644128   424551 
 3878000   0.60485008   -2.2120731   -2.2120731   -1.4865667  0.035947797   -2.2120731   0.72550638   424551 
 3879000   0.60554511   -2.2119546   -2.2119546   -1.4856145  0.031943618   -2.2119546   0.72634006   424551 
 3880000   0.60523493   -2.2112519   -2.2112519   -1.4852839  0.037603057   -2.2112519   0.72596801   424551 
 3881000   0.60617373   -2.2110846   -2.2110846   -1.4839905    0.0345862   -2.2110846   0.72709407   424551 
 3882000   0.60588579   -2.2109191   -2.2109191   -1.4841704  0.042725294   -2.2109191    0.7267487   424551 
 3883000   0.60592575   -2.2112734   -2.2112734   -1.4844768  0.039998709   -2.2112734   0.72679663   424551 
 3884000   0.60547353   -2.2122977   -2.2122977   -1.4860435  0.037906808   -2.2122977    0.7262542   424551 
 3885000   0.60638125   -2.2125771   -2.2125771   -1.4852341  0.031932776   -2.2125771   0.72734299   424551 
 3886000   0.60555749   -2.2113668   -2.2113668   -1.4850119  0.032408262   -2.2113668    0.7263549   424551 
 3887000   0.60575872   -2.2118992   -2.2118992   -1.4853029  0.042912622   -2.2118992   0.72659627   424551 
 3888000   0.60624226   -2.2122889   -2.2122889   -1.4851126   0.03380871   -2.2122889   0.72717627   424551 
 3889000   0.60580799   -2.2117596   -2.2117596   -1.4851042  0.031015762   -2.2117596   0.72665538   424551 
 3890000   0.60559768   -2.2117728   -2.2117728   -1.4853697  0.040099713   -2.2117728   0.72640311   424551 
 3891000   0.60509965     -2.21102     -2.21102   -1.4852143  0.035193276     -2.21102   0.72580574   424551 
 3892000   0.60583153   -2.2122243   -2.2122243   -1.4855407  0.034785333   -2.2122243   0.72668361   424551 
 3893000   0.60485185   -2.2111715   -2.2111715    -1.485663  0.035673258   -2.2111715    0.7255085   424551 
 3894000    0.6048347    -2.210943    -2.210943   -1.4854551  0.043475417    -2.210943   0.72548794   424551 
 3895000   0.60415872   -2.2101687   -2.2101687   -1.4854916  0.043858767   -2.2101687   0.72467711   424551 
 3896000   0.60573767   -2.2131027   -2.2131027   -1.4865317  0.031284562   -2.2131027   0.72657103   424551 
 3897000   0.60491755   -2.2125677   -2.2125677   -1.4869804  0.037276364   -2.2125677   0.72558731   424551 
 3898000   0.60525757   -2.2129607   -2.2129607   -1.4869656  0.035432573   -2.2129607   0.72599515   424551 
 3899000    0.6049468   -2.2120079   -2.2120079   -1.4863855  0.038876289   -2.2120079   0.72562239   424551 
 3900000   0.60597763   -2.2131366   -2.2131366   -1.4862777  0.041292243   -2.2131366   0.72685886   424551 
 3901000   0.60594181   -2.2124833   -2.2124833   -1.4856674  0.044309778   -2.2124833   0.72681589   424551 
 3902000   0.60583123   -2.2130989   -2.2130989   -1.4864156  0.035850975   -2.2130989   0.72668326   424551 
 3903000   0.60594992   -2.2131022   -2.2131022   -1.4862766  0.044816384   -2.2131022   0.72682562   424551 
 3904000    0.6060633   -2.2137511   -2.2137511   -1.4867895  0.042416289   -2.2137511   0.72696162   424551 
 3905000   0.60541359   -2.2139604   -2.2139604   -1.4877781  0.036256874   -2.2139604   0.72618231   424551 
 3906000   0.60614583   -2.2148348   -2.2148348   -1.4877742  0.035075613   -2.2148348   0.72706061   424551 
 3907000   0.60588247   -2.2138462   -2.2138462   -1.4871015  0.034202574   -2.2138462   0.72674471   424551 
 3908000   0.60623541   -2.2138994   -2.2138994   -1.4867314  0.038585798   -2.2138994   0.72716806   424551 
 3909000   0.60588421   -2.2136462   -2.2136462   -1.4868994  0.039577104   -2.2136462    0.7267468   424551 
 3910000   0.60598987   -2.2143295   -2.2143295   -1.4874559  0.032544429   -2.2143295   0.72687354   424551 
 3911000   0.60507805   -2.2135887   -2.2135887   -1.4878089  0.041634851   -2.2135887   0.72577982   424551 
 3912000   0.60580196   -2.2141515   -2.2141515   -1.4875034  0.041573163   -2.2141515   0.72664814   424551 
 3913000   0.60647428   -2.2149906   -2.2149906    -1.487536  0.039410424   -2.2149906   0.72745457   424551 
 3914000   0.60613016   -2.2146709   -2.2146709   -1.4876291  0.045592393   -2.2146709   0.72704182   424551 
 3915000   0.60658799   -2.2145551   -2.2145551   -1.4869641  0.040531676   -2.2145551   0.72759098   424551 
 3916000   0.60507347    -2.212136    -2.212136   -1.4863616  0.043823524    -2.212136   0.72577434   424551 
 3917000    0.6059051   -2.2128894   -2.2128894   -1.4861176  0.036379984   -2.2128894   0.72677186   424551 
 3918000   0.60480504   -2.2134272   -2.2134272   -1.4879749  0.034165029   -2.2134272   0.72545235   424551 
 3919000   0.60462804   -2.2125043   -2.2125043   -1.4872642  0.033736532   -2.2125043   0.72524005   424551 
 3920000   0.60394448   -2.2125099   -2.2125099   -1.4880898  0.029941243   -2.2125099   0.72442013   424551 
 3921000   0.60496781   -2.2126841   -2.2126841   -1.4870365  0.030556655   -2.2126841   0.72564759   424551 
 3922000   0.60453945   -2.2119674   -2.2119674   -1.4868336  0.038043314   -2.2119674   0.72513378   424551 
 3923000   0.60531776   -2.2126665   -2.2126665   -1.4865992  0.031703155   -2.2126665   0.72606735   424551 
 3924000   0.60430329   -2.2115003   -2.2115003   -1.4866498   0.03788297   -2.2115003   0.72485051   424551 
 3925000   0.60550567   -2.2122888   -2.2122888    -1.485996  0.038748502   -2.2122888   0.72629275   424551 
 3926000   0.60601612   -2.2122805   -2.2122805   -1.4853755   0.03365884   -2.2122805   0.72690503   424551 
 3927000   0.60634783    -2.212572    -2.212572   -1.4852691  0.038304687    -2.212572   0.72730291   424551 
 3928000   0.60464943   -2.2109694   -2.2109694   -1.4857037  0.041575601   -2.2109694   0.72526571   424551 
 3929000   0.60516506   -2.2108773   -2.2108773   -1.4849931  0.041796976   -2.2108773   0.72588419   424551 
 3930000   0.60474005   -2.2115191   -2.2115191   -1.4861447  0.033746175   -2.2115191    0.7253744   424551 
 3931000   0.60565686   -2.2124195   -2.2124195   -1.4859454  0.048496785   -2.2124195    0.7264741   424551 
 3932000   0.60629724   -2.2121167   -2.2121167   -1.4848745  0.030622355   -2.2121167   0.72724222   424551 
 3933000   0.60566007   -2.2116727   -2.2116727   -1.4851947  0.034481884   -2.2116727   0.72647795   424551 
 3934000   0.60590554   -2.2119028   -2.2119028   -1.4851304  0.038303795   -2.2119028   0.72677239   424551 
 3935000   0.60621661   -2.2115164   -2.2115164   -1.4843709  0.032269152   -2.2115164   0.72714551   424551 
 3936000   0.60527691   -2.2110126   -2.2110126   -1.4849942  0.037444234   -2.2110126   0.72601836   424551 
 3937000   0.60433058   -2.2101819   -2.2101819   -1.4852986  0.037464237   -2.2101819   0.72488325   424551 
 3938000   0.60339507   -2.2093513   -2.2093513   -1.4855902  0.039678546   -2.2093513   0.72376112   424551 
 3939000   0.60550105   -2.2108644   -2.2108644   -1.4845772  0.032534763   -2.2108644    0.7262872   424551 
 3940000   0.60496708   -2.2105232   -2.2105232   -1.4848765  0.034959535   -2.2105232   0.72564672   424551 
 3941000   0.60558303   -2.2115048   -2.2115048   -1.4851193  0.038575816   -2.2115048   0.72638554   424551 
 3942000   0.60530605   -2.2105696   -2.2105696   -1.4845163  0.036830548   -2.2105696   0.72605331   424551 
 3943000   0.60682584   -2.2127386   -2.2127386   -1.4848623  0.034509821   -2.2127386   0.72787627   424551 
 3944000   0.60630219   -2.2118444   -2.2118444   -1.4845962  0.043273788   -2.2118444   0.72724816   424551 
 3945000   0.60598134    -2.211639    -2.211639   -1.4847757  0.038441339    -2.211639    0.7268633   424551 
 3946000   0.60534869   -2.2117262   -2.2117262   -1.4856217  0.036564901   -2.2117262   0.72610445   424551 
 3947000   0.60673172   -2.2132049   -2.2132049   -1.4854415  0.034617385   -2.2132049   0.72776337   424551 
 3948000   0.60668251   -2.2132705   -2.2132705   -1.4855661  0.040722212   -2.2132705   0.72770435   424551 
 3949000   0.60534418   -2.2123017   -2.2123017   -1.4862026  0.027292865   -2.2123017   0.72609905   424551 
 3950000   0.60505193   -2.2128594   -2.2128594   -1.4871109  0.036689039   -2.2128594   0.72574849   424551 
 3951000   0.60527721   -2.2128326   -2.2128326   -1.4868139  0.040479764   -2.2128326   0.72601872   424551 
 3952000   0.60570124   -2.2134706   -2.2134706   -1.4869432  0.032016343   -2.2134706   0.72652733   424551 
 3953000    0.6062113   -2.2136139   -2.2136139   -1.4864747  0.036043216   -2.2136139   0.72713914   424551 
 3954000   0.60657171   -2.2137244   -2.2137244   -1.4861529  0.026904343   -2.2137244   0.72757145   424551 
 3955000   0.60657806    -2.214007    -2.214007   -1.4864279  0.038831566    -2.214007   0.72757906   424551 
 3956000   0.60611869   -2.2140721   -2.2140721    -1.487044   0.03441003   -2.2140721   0.72702806   424551 
 3957000   0.60583296   -2.2132423   -2.2132423    -1.486557  0.040614988   -2.2132423   0.72668533   424551 
 3958000   0.60600013   -2.2126677   -2.2126677   -1.4857818  0.036730116   -2.2126677   0.72688584   424551 
 3959000   0.60675992   -2.2136285   -2.2136285   -1.4858313  0.044247019   -2.2136285    0.7277972   424551 
 3960000   0.60680561   -2.2147619   -2.2147619   -1.4869099  0.041796898   -2.2147619   0.72785201   424551 
 3961000   0.60598796   -2.2137073   -2.2137073    -1.486836  0.039833828   -2.2137073   0.72687125   424551 
 3962000    0.6065998   -2.2131437   -2.2131437   -1.4855385  0.038818895   -2.2131437   0.72760514   424551 
 3963000   0.60650262   -2.2142747   -2.2142747   -1.4867861   0.03036235   -2.2142747   0.72748857   424551 
 3964000    0.6063895   -2.2146857   -2.2146857   -1.4873328  0.032223873   -2.2146857   0.72735289   424551 
 3965000   0.60576186   -2.2135522   -2.2135522   -1.4869521  0.038754131   -2.2135522   0.72660004   424551 
 3966000   0.60454502   -2.2116632   -2.2116632   -1.4865227  0.035294204   -2.2116632   0.72514047   424551 
 3967000   0.60539319   -2.2133949   -2.2133949   -1.4872371  0.029790919   -2.2133949   0.72615784   424551 
 3968000   0.60518121   -2.2143644   -2.2143644   -1.4884609   0.03975032   -2.2143644   0.72590357   424551 
 3969000    0.6042541   -2.2119954   -2.2119954   -1.4872039  0.041567849   -2.2119954   0.72479151   424551 
 3970000   0.60475944   -2.2127471   -2.2127471   -1.4873494  0.042004016   -2.2127471   0.72539766   424551 
 3971000   0.60520424   -2.2126526   -2.2126526   -1.4867214  0.036511817   -2.2126526   0.72593119   424551 
 3972000   0.60585934   -2.2131143   -2.2131143   -1.4863973  0.034836014   -2.2131143   0.72671697   424551 
 3973000   0.60446771   -2.2124531   -2.2124531   -1.4874054   0.03176744   -2.2124531   0.72504774   424551 
 3974000   0.60559996   -2.2132888   -2.2132888    -1.486883   0.03953518   -2.2132888   0.72640585   424551 
 3975000   0.60497641   -2.2133663   -2.2133663   -1.4877084  0.036200796   -2.2133663   0.72565791   424551 
 3976000   0.60566325   -2.2147293   -2.2147293   -1.4882475  0.041122335   -2.2147293   0.72648177   424551 
 3977000   0.60672402   -2.2156042   -2.2156042     -1.48785  0.033779647   -2.2156042   0.72775414   424551 
 3978000    0.6056521   -2.2130404   -2.2130404    -1.486572  0.041285043   -2.2130404   0.72646839   424551 
 3979000   0.60538302   -2.2135006   -2.2135006    -1.487355  0.040658744   -2.2135006   0.72614563   424551 
 3980000   0.60634606   -2.2140234   -2.2140234   -1.4867226   0.03702751   -2.2140234   0.72730078   424551 
 3981000   0.60468385   -2.2119937   -2.2119937   -1.4866867  0.038380847   -2.2119937   0.72530699   424551 
 3982000   0.60386025   -2.2120112   -2.2120112   -1.4876921  0.037703085   -2.2120112   0.72431909   424551 
 3983000   0.60531832    -2.213162    -2.213162    -1.487094  0.031170401    -2.213162   0.72606803   424551 
 3984000   0.60579525   -2.2138507   -2.2138507   -1.4872106  0.033884451   -2.2138507    0.7266401   424551 
 3985000   0.60455768   -2.2123945   -2.2123945   -1.4872388  0.040093306   -2.2123945   0.72515566   424551 
 3986000   0.60423476   -2.2114163   -2.2114163    -1.486648  0.036909694   -2.2114163   0.72476832   424551 
 3987000   0.60403935   -2.2108268   -2.2108268   -1.4862928  0.036046061   -2.2108268   0.72453393   424551 
 3988000   0.60482743   -2.2115839   -2.2115839   -1.4861047  0.033047221   -2.2115839   0.72547922   424551 
 3989000   0.60463406   -2.2113327   -2.2113327   -1.4860854  0.038113698   -2.2113327   0.72524727   424551 
 3990000   0.60526784   -2.2130471   -2.2130471   -1.4870396  0.034731971   -2.2130471   0.72600748   424551 
 3991000   0.60489605   -2.2120132   -2.2120132   -1.4864517  0.033888943   -2.2120132   0.72556152   424551 
 3992000   0.60531938   -2.2130664   -2.2130664   -1.4869971  0.035754248   -2.2130664    0.7260693   424551 
 3993000   0.60482415   -2.2119542   -2.2119542   -1.4864789  0.036778749   -2.2119542   0.72547528   424551 
 3994000    0.6043453    -2.211285    -2.211285   -1.4863841  0.031928111    -2.211285   0.72490091   424551 
 3995000   0.60416005   -2.2111236   -2.2111236   -1.4864449  0.035325162   -2.2111236    0.7246787   424551 
 3996000   0.60499645   -2.2119327   -2.2119327   -1.4862508  0.040761902   -2.2119327   0.72568196   424551 
 3997000   0.60468953   -2.2112779   -2.2112779   -1.4859641  0.036851659   -2.2112779    0.7253138   424551 
 3998000   0.60580519   -2.2122517   -2.2122517   -1.4855997  0.029405348   -2.2122517   0.72665201   424551 
 3999000   0.60619574   -2.2126737   -2.2126737   -1.4855532  0.033255413   -2.2126737   0.72712048   424551 
 4000000   0.60535211   -2.2117292   -2.2117292   -1.4856206  0.028375867   -2.2117292   0.72610856   424551 
 4001000     0.606189   -2.2119657   -2.2119657   -1.4848533  0.039855651   -2.2119657   0.72711238   424551 
 4002000   0.60664818   -2.2131754   -2.2131754   -1.4855122  0.045226048   -2.2131754   0.72766316   424551 
 4003000   0.60597819   -2.2117847   -2.2117847   -1.4849252  0.040836519   -2.2117847   0.72685953   424551 
 4004000   0.60540815   -2.2123002   -2.2123002   -1.4861244  0.035172913   -2.2123002   0.72617578   424551 
 4005000    0.6043529   -2.2111366   -2.2111366   -1.4862266  0.038562495   -2.2111366   0.72491002   424551 
 4006000    0.6056308   -2.2126267   -2.2126267   -1.4861839  0.039863984   -2.2126267   0.72644284   424551 
 4007000    0.6058994    -2.212923    -2.212923    -1.486158  0.041424469    -2.212923   0.72676502   424551 
 4008000   0.60410093   -2.2117714   -2.2117714   -1.4871636  0.034274457   -2.2117714   0.72460779   424551 
 4009000   0.60570846   -2.2129214   -2.2129214   -1.4863854  0.033654549   -2.2129214   0.72653599   424551 
 4010000   0.60527186   -2.2126956   -2.2126956   -1.4866833  0.041257901   -2.2126956    0.7260123   424551 
 4011000    0.6054335   -2.2133447   -2.2133447   -1.4871385  0.037492356   -2.2133447   0.72620618   424551 
 4012000   0.60504326   -2.2128979   -2.2128979   -1.4871598  0.032208852   -2.2128979    0.7257381   424551 
 4013000   0.60392187   -2.2113872   -2.2113872   -1.4869942   0.03387424   -2.2113872   0.72439301   424551 
 4014000   0.60638186   -2.2130185   -2.2130185   -1.4856748  0.043823726   -2.2130185   0.72734373   424551 
 4015000   0.60637253    -2.213001    -2.213001   -1.4856685  0.036984064    -2.213001   0.72733254   424551 
 4016000   0.60440996   -2.2110133   -2.2110133   -1.4860348  0.035493345   -2.2110133   0.72497847   424551 
 4017000   0.60463758   -2.2114194   -2.2114194   -1.4861679  0.040988202   -2.2114194   0.72525149   424551 
 4018000   0.60411523   -2.2112235   -2.2112235   -1.4865986  0.039405213   -2.2112235   0.72462494   424551 
 4019000   0.60502358   -2.2124277   -2.2124277   -1.4867132  0.031163928   -2.2124277   0.72571449   424551 
 4020000   0.60543922   -2.2121507   -2.2121507   -1.4859376  0.036768977   -2.2121507   0.72621304   424551 
 4021000   0.60497048   -2.2118014   -2.2118014   -1.4861506  0.035386406   -2.2118014    0.7256508   424551 
 4022000   0.60431581   -2.2113401   -2.2113401   -1.4864745   0.03223059   -2.2113401   0.72486553   424551 
 4023000   0.60633508   -2.2137935   -2.2137935   -1.4865058   0.03141207   -2.2137935   0.72728762   424551 
 4024000    0.6055183   -2.2132591   -2.2132591   -1.4869512  0.038165517   -2.2132591    0.7263079   424551 
 4025000   0.60493252   -2.2124275   -2.2124275   -1.4868222   0.03370625   -2.2124275   0.72560526   424551 
 4026000   0.60450253   -2.2123661   -2.2123661   -1.4872766  0.034089978   -2.2123661   0.72508951   424551 
 4027000   0.60416669   -2.2110652   -2.2110652   -1.4863786   0.03662273   -2.2110652   0.72468667   424551 
 4028000   0.60679121   -2.2137992   -2.2137992   -1.4859645   0.04184993   -2.2137992   0.72783473   424551 
 4029000   0.60628445    -2.213463    -2.213463   -1.4862361  0.031881523    -2.213463   0.72722688   424551 
 4030000   0.60430461   -2.2112389   -2.2112389   -1.4863868  0.041178289   -2.2112389    0.7248521   424551 
 4031000   0.60471411   -2.2116207   -2.2116207   -1.4862774  0.036719027   -2.2116207   0.72534329   424551 
 4032000   0.60671484   -2.2136284   -2.2136284   -1.4858852  0.044275999   -2.2136284   0.72774313   424551 
 4033000   0.60604707   -2.2128241   -2.2128241   -1.4858819  0.040210281   -2.2128241   0.72694215   424551 
 4034000   0.60465324   -2.2116317   -2.2116317   -1.4863614  0.031094628   -2.2116317   0.72527028   424551 
 4035000   0.60561367   -2.2131433   -2.2131433    -1.486721  0.039569894   -2.2131433   0.72642229   424551 
 4036000   0.60523981   -2.2122099   -2.2122099    -1.486236  0.034933589   -2.2122099   0.72597385   424551 
 4037000    0.6046746   -2.2114858   -2.2114858   -1.4861899  0.042755361   -2.2114858    0.7252959   424551 
 4038000   0.60404541   -2.2111165   -2.2111165   -1.4865753  0.034451537   -2.2111165   0.72454119   424551 
 4039000    0.6048328   -2.2110894   -2.2110894   -1.4856038  0.036792292   -2.2110894   0.72548565   424551 
 4040000   0.60443874   -2.2107646   -2.2107646   -1.4857516  0.034178257   -2.2107646   0.72501299   424551 
 4041000   0.60420523   -2.2105941   -2.2105941   -1.4858612  0.036754248   -2.2105941    0.7247329   424551 
 4042000   0.60561022    -2.211809    -2.211809   -1.4853908  0.040003984    -2.211809   0.72641815   424551 
 4043000    0.6058389   -2.2123656   -2.2123656   -1.4856732  0.043553324   -2.2123656   0.72669246   424551 
 4044000   0.60469277   -2.2119743   -2.2119743   -1.4866566  0.038138822   -2.2119743   0.72531769   424551 
 4045000   0.60491176   -2.2124537   -2.2124537   -1.4868734  0.031311586   -2.2124537   0.72558036   424551 
 4046000   0.60464846   -2.2124443   -2.2124443   -1.4871797  0.036886972   -2.2124443   0.72526455   424551 
 4047000    0.6049402   -2.2123389   -2.2123389   -1.4867245  0.029777745   -2.2123389   0.72561448   424551 
 4048000   0.60429377   -2.2122704   -2.2122704   -1.4874313  0.035741302   -2.2122704   0.72483909   424551 
 4049000   0.60349049   -2.2120995   -2.2120995   -1.4882239   0.03391246   -2.2120995   0.72387558   424551 
 4050000   0.60379741   -2.2121461   -2.2121461   -1.4879023  0.031709899   -2.2121461   0.72424373   424551 
 4051000   0.60411117   -2.2121669   -2.2121669   -1.4875469   0.03627597   -2.2121669   0.72462007   424551 
 4052000    0.6035087   -2.2113007   -2.2113007   -1.4874033  0.030935869   -2.2113007   0.72389742   424551 
 4053000   0.60379074    -2.212254    -2.212254   -1.4880183  0.033834183    -2.212254   0.72423572   424551 
 4054000    0.6044475   -2.2122294   -2.2122294   -1.4872059  0.040700428   -2.2122294    0.7250235   424551 
 4055000   0.60617203   -2.2146453   -2.2146453   -1.4875533  0.035666584   -2.2146453   0.72709204   424551 
 4056000   0.60434403   -2.2126879   -2.2126879   -1.4877885  0.043332577   -2.2126879   0.72489938   424551 
 4057000   0.60525094   -2.2134009   -2.2134009   -1.4874137  0.031937424   -2.2134009    0.7259872   424551 
 4058000   0.60553957    -2.214825    -2.214825   -1.4884916  0.035644539    -2.214825   0.72633341   424551 
 4059000   0.60444775   -2.2140392   -2.2140392   -1.4890154  0.037371907   -2.2140392    0.7250238   424551 
 4060000   0.60551919   -2.2145624   -2.2145624   -1.4882534  0.033382186   -2.2145624   0.72630896   424551 
 4061000    0.6050906   -2.2143498   -2.2143498   -1.4885549  0.037655037   -2.2143498   0.72579488   424551 
 4062000   0.60511731   -2.2145492   -2.2145492   -1.4887223  0.037674442   -2.2145492   0.72582692   424551 
 4063000   0.60312842   -2.2128981   -2.2128981   -1.4894568  0.046221248   -2.2128981   0.72344129   424551 
 4064000   0.60484878   -2.2152023   -2.2152023   -1.4896975  0.036518298   -2.2152023   0.72550482   424551 
 4065000   0.60521129   -2.2151514   -2.2151514   -1.4892118  0.034152114   -2.2151514   0.72593964   424551 
 4066000   0.60480919   -2.2144994   -2.2144994    -1.489042  0.032011699   -2.2144994   0.72545733   424551 
 4067000   0.60453755   -2.2136489   -2.2136489   -1.4885174  0.037675774   -2.2136489   0.72513151   424551 
 4068000   0.60545093    -2.214362    -2.214362   -1.4881349  0.039487038    -2.214362   0.72622709   424551 
 4069000   0.60559517   -2.2149775   -2.2149775   -1.4885774  0.038483095   -2.2149775    0.7264001   424551 
 4070000   0.60540993   -2.2145154   -2.2145154   -1.4883375  0.037710383   -2.2145154   0.72617792   424551 
 4071000   0.60496309   -2.2138617   -2.2138617   -1.4882197  0.037285898   -2.2138617   0.72564194   424551 
 4072000   0.60487238    -2.214017    -2.214017   -1.4884839  0.035726824    -2.214017   0.72553313   424551 
 4073000   0.60403184   -2.2141712   -2.2141712   -1.4896463   0.03474818   -2.2141712   0.72452492   424551 
 4074000   0.60543197   -2.2145152   -2.2145152   -1.4883108  0.030385294   -2.2145152   0.72620435   424551 
 4075000   0.60360134   -2.2124532   -2.2124532   -1.4884446  0.038637279   -2.2124532   0.72400853   424551 
 4076000   0.60642536   -2.2153258   -2.2153258   -1.4879299  0.036567854   -2.2153258    0.7273959   424551 
 4077000    0.6062399   -2.2150256   -2.2150256   -1.4878521  0.038391017   -2.2150256   0.72717344   424551 
 4078000   0.60439431   -2.2126877   -2.2126877    -1.487728  0.032807222   -2.2126877   0.72495969   424551 
 4079000   0.60537527   -2.2135565   -2.2135565   -1.4874202  0.036457502   -2.2135565   0.72613634   424551 
 4080000   0.60490021   -2.2131843   -2.2131843   -1.4876178  0.031517223   -2.2131843   0.72556652   424551 
 4081000   0.60494006    -2.213576    -2.213576   -1.4879616  0.037730723    -2.213576   0.72561431   424551 
 4082000     0.604704   -2.2129388   -2.2129388   -1.4876076  0.037729596   -2.2129388   0.72533116   424551 
 4083000   0.60595187   -2.2143115   -2.2143115   -1.4874836  0.035813617   -2.2143115   0.72682796   424551 
 4084000   0.60392273   -2.2124577   -2.2124577   -1.4880636  0.036412759   -2.2124577   0.72439404   424551 
 4085000   0.60381269   -2.2119326   -2.2119326   -1.4876706  0.037103305   -2.2119326   0.72426205   424551 
 4086000   0.60440212   -2.2125323   -2.2125323   -1.4875632  0.042861599   -2.2125323   0.72496906   424551 
 4087000   0.60539462   -2.2126106   -2.2126106   -1.4864511  0.027690265   -2.2126106   0.72615955   424551 
 4088000   0.60520439   -2.2131163   -2.2131163   -1.4871849  0.040641757   -2.2131163   0.72593136   424551 
 4089000   0.60446654   -2.2122827   -2.2122827   -1.4872364  0.035106338   -2.2122827   0.72504634   424551 
 4090000   0.60517334   -2.2129233   -2.2129233   -1.4870292  0.034209574   -2.2129233   0.72589412   424551 
 4091000   0.60673981    -2.213709    -2.213709    -1.485936  0.028522844    -2.213709   0.72777307   424551 
 4092000   0.60493502    -2.211881    -2.211881   -1.4862728   0.04217217    -2.211881   0.72560826   424551 
 4093000   0.60513461   -2.2118009   -2.2118009   -1.4859533  0.040246961   -2.2118009   0.72584767   424551 
 4094000   0.60468908   -2.2116096   -2.2116096   -1.4862963  0.037725995   -2.2116096   0.72531327   424551 
 4095000   0.60454854   -2.2117326   -2.2117326   -1.4865879  0.033318849   -2.2117326   0.72514469   424551 
 4096000   0.60474924   -2.2119383   -2.2119383   -1.4865529  0.040931535   -2.2119383   0.72538543   424551 
 4097000   0.60579308   -2.2127804   -2.2127804   -1.4861429  0.040737487   -2.2127804   0.72663749   424551 
 4098000   0.60522986   -2.2122345   -2.2122345   -1.4862726  0.040750047   -2.2122345   0.72596192   424551 
 4099000    0.6064086   -2.2138387   -2.2138387   -1.4864629  0.033975562   -2.2138387    0.7273758   424551 
 4100000   0.60521048   -2.2132403   -2.2132403   -1.4873016  0.037820566   -2.2132403   0.72593867   424551 
 4101000   0.60389758   -2.2125925   -2.2125925   -1.4882286  0.040748628   -2.2125925   0.72436387   424551 
 4102000   0.60463771   -2.2136909   -2.2136909   -1.4884392  0.035085481   -2.2136909   0.72525165   424551 
 4103000   0.60558964   -2.2134633   -2.2134633   -1.4870698  0.035467654   -2.2134633   0.72639347   424551 
 4104000   0.60504114   -2.2133077   -2.2133077   -1.4875722  0.036849474   -2.2133077   0.72573556   424551 
 4105000   0.60499712   -2.2136711   -2.2136711   -1.4879884   0.03621677   -2.2136711   0.72568275   424551 
 4106000    0.6051144   -2.2138311   -2.2138311   -1.4880077  0.036860666   -2.2138311   0.72582342   424551 
 4107000   0.60532815   -2.2150067   -2.2150067   -1.4889269  0.029082183   -2.2150067   0.72607981   424551 
 4108000   0.60448279   -2.2137892   -2.2137892   -1.4887234  0.041880849   -2.2137892   0.72506583   424551 
 4109000   0.60598085   -2.2143076   -2.2143076   -1.4874449  0.026340193   -2.2143076   0.72686272   424551 
 4110000    0.6057657    -2.214428    -2.214428   -1.4878233  0.046546682    -2.214428   0.72660465   424551 
 4111000    0.6062054   -2.2149657   -2.2149657   -1.4878336  0.035462883   -2.2149657   0.72713206   424551 
 4112000   0.60599736   -2.2142986   -2.2142986   -1.4874161  0.035310138   -2.2142986   0.72688252   424551 
 4113000   0.60586032   -2.2143098   -2.2143098   -1.4875916  0.033808614   -2.2143098   0.72671814   424551 
 4114000   0.60542595   -2.2139172   -2.2139172   -1.4877201  0.039825913   -2.2139172   0.72619712   424551 
 4115000   0.60459801   -2.2133037   -2.2133037   -1.4880997  0.033124048   -2.2133037   0.72520402   424551 
 4116000   0.60504863   -2.2147195   -2.2147195   -1.4889749  0.035850311   -2.2147195   0.72574453   424551 
 4117000   0.60439792   -2.2136923   -2.2136923   -1.4887282  0.036975899   -2.2136923   0.72496402   424551 
 4118000   0.60468573    -2.215087    -2.215087   -1.4897777   0.03451206    -2.215087   0.72530925   424551 
 4119000   0.60507134   -2.2153561   -2.2153561   -1.4895843  0.030753503   -2.2153561   0.72577178   424551 
 4120000   0.60644179   -2.2154239   -2.2154239   -1.4880083  0.031455718   -2.2154239   0.72741561   424551 
 4121000   0.60543712   -2.2141244   -2.2141244   -1.4879139  0.024811045   -2.2141244   0.72621052   424551 
 4122000    0.6053379    -2.213674    -2.213674   -1.4875825  0.045737868    -2.213674   0.72609151   424551 
 4123000    0.6044187   -2.2140261   -2.2140261   -1.4890372  0.034342771   -2.2140261   0.72498895   424551 
 4124000   0.60472503    -2.214423    -2.214423   -1.4890666  0.035207386    -2.214423   0.72535639   424551 
 4125000   0.60522786   -2.2142646   -2.2142646   -1.4883051  0.035043418   -2.2142646   0.72595952   424551 
 4126000     0.605098   -2.2138808   -2.2138808    -1.488077  0.031015658   -2.2138808   0.72580376   424551 
 4127000   0.60517299    -2.214191    -2.214191   -1.4882973  0.033711909    -2.214191   0.72589371   424551 
 4128000   0.60590567   -2.2147692   -2.2147692   -1.4879966  0.035658119   -2.2147692   0.72677254   424551 
 4129000   0.60509308   -2.2139163   -2.2139163   -1.4881185  0.036808333   -2.2139163   0.72579786   424551 
 4130000   0.60488926   -2.2143811   -2.2143811   -1.4888277   0.02956243   -2.2143811   0.72555338   424551 
 4131000   0.60339746   -2.2127618   -2.2127618   -1.4889978  0.028743124   -2.2127618     0.723764   424551 
 4132000   0.60372738   -2.2123877   -2.2123877    -1.488228  0.035762457   -2.2123877   0.72415973   424551 
 4133000   0.60416514   -2.2133626   -2.2133626   -1.4886778  0.035458251   -2.2133626   0.72468481   424551 
 4134000   0.60395055   -2.2126281   -2.2126281   -1.4882007  0.035051601   -2.2126281   0.72442741   424551 
 4135000   0.60481811   -2.2136395   -2.2136395   -1.4881715  0.036047484   -2.2136395   0.72546804   424551 
 4136000   0.60584571   -2.2143353   -2.2143353   -1.4876347  0.042773309   -2.2143353   0.72670062   424551 
 4137000   0.60571216   -2.2143666   -2.2143666   -1.4878262  0.038593496   -2.2143666   0.72654043   424551 
 4138000   0.60502678   -2.2127893   -2.2127893   -1.4870709  0.037539677   -2.2127893   0.72571833   424551 
 4139000   0.60481315   -2.2127387   -2.2127387   -1.4872766  0.035881748   -2.2127387   0.72546209   424551 
 4140000   0.60544044   -2.2137325   -2.2137325    -1.487518  0.042356581   -2.2137325   0.72621451   424551 
 4141000   0.60549628   -2.2140837   -2.2140837   -1.4878022    0.0369153   -2.2140837   0.72628149   424551 
 4142000   0.60516712   -2.2145002   -2.2145002   -1.4886135  0.036429901   -2.2145002   0.72588666   424551 
 4143000   0.60412132   -2.2132663   -2.2132663   -1.4886341  0.035806541   -2.2132663   0.72463225   424551 
 4144000   0.60524861   -2.2147636   -2.2147636   -1.4887792  0.032500608   -2.2147636   0.72598441   424551 
 4145000   0.60531515   -2.2155585   -2.2155585   -1.4894943  0.029308309   -2.2155585   0.72606422   424551 
 4146000   0.60576637   -2.2158674   -2.2158674    -1.489262  0.026830576   -2.2158674   0.72660545   424551 
 4147000   0.60589488   -2.2157622   -2.2157622   -1.4890026  0.046441502   -2.2157622    0.7267596   424551 
 4148000   0.60510486   -2.2155642   -2.2155642   -1.4897522    0.0382948   -2.2155642   0.72581199   424551 
 4149000   0.60371174   -2.2130042   -2.2130042   -1.4888633  0.041253113   -2.2130042   0.72414096   424551 
 4150000   0.60534998   -2.2152695   -2.2152695   -1.4891635  0.036627035   -2.2152695   0.72610601   424551 
 4151000   0.60524087   -2.2147079   -2.2147079   -1.4887327  0.038754821   -2.2147079   0.72597513   424551 
 4152000   0.60475584   -2.2150584   -2.2150584   -1.4896651  0.035831352   -2.2150584   0.72539334   424551 
 4153000    0.6050777   -2.2151218   -2.2151218   -1.4893424  0.036213276   -2.2151218   0.72577941   424551 
 4154000   0.60588542    -2.216247    -2.216247   -1.4894987  0.035956362    -2.216247   0.72674826   424551 
 4155000   0.60437692    -2.214788    -2.214788   -1.4898491  0.031807177    -2.214788   0.72493884   424551 
 4156000   0.60589828   -2.2168043   -2.2168043   -1.4900407   0.03287345   -2.2168043   0.72676368   424551 
 4157000   0.60395582   -2.2147089   -2.2147089   -1.4902752  0.031889083   -2.2147089   0.72443373   424551 
 4158000   0.60437141   -2.2150676   -2.2150676   -1.4901353  0.041589972   -2.2150676   0.72493222   424551 
 4159000   0.60407614   -2.2149016   -2.2149016   -1.4903235  0.043434886   -2.2149016   0.72457805   424551 
 4160000   0.60397183   -2.2148038   -2.2148038   -1.4903509  0.046655093   -2.2148038   0.72445294   424551 
 4161000    0.6043727   -2.2146127   -2.2146127    -1.489679  0.033662809   -2.2146127   0.72493378   424551 
 4162000   0.60569654   -2.2158263   -2.2158263   -1.4893046  0.035093103   -2.2158263   0.72652169   424551 
 4163000   0.60600035   -2.2156699   -2.2156699   -1.4887838  0.038510305   -2.2156699   0.72688611   424551 
 4164000    0.6055147   -2.2157793   -2.2157793   -1.4894758  0.037533731   -2.2157793   0.72630358   424551 
 4165000   0.60479231   -2.2149085   -2.2149085   -1.4894714  0.037564291   -2.2149085   0.72543709   424551 
 4166000   0.60388908   -2.2137031   -2.2137031   -1.4893494  0.033456189   -2.2137031   0.72435367   424551 
 4167000   0.60538505   -2.2153317   -2.2153317   -1.4891837  0.033217673   -2.2153317   0.72614807   424551 
 4168000   0.60488015   -2.2158037   -2.2158037   -1.4902613     0.029893   -2.2158037   0.72554244   424551 
 4169000   0.60618118   -2.2177661   -2.2177661   -1.4906631  0.029922764   -2.2177661   0.72710301   424551 
 4170000   0.60516542    -2.216882    -2.216882   -1.4909974  0.038766959    -2.216882   0.72588463   424551 
 4171000   0.60559326    -2.216583    -2.216583   -1.4901852  0.041228478    -2.216583   0.72639781   424551 
 4172000   0.60541902   -2.2153456   -2.2153456   -1.4891568  0.037038553   -2.2153456   0.72618881   424551 
 4173000   0.60571555   -2.2160338   -2.2160338   -1.4894893  0.037745872   -2.2160338    0.7265445   424551 
 4174000   0.60445427   -2.2153377   -2.2153377   -1.4903061  0.033432573   -2.2153377   0.72503161   424551 
 4175000   0.60492487   -2.2157438   -2.2157438   -1.4901477  0.034707022   -2.2157438   0.72559609   424551 
 4176000   0.60428776   -2.2152381   -2.2152381   -1.4904062  0.038846303   -2.2152381   0.72483189   424551 
 4177000   0.60410759   -2.2153896   -2.2153896   -1.4907738  0.038430919   -2.2153896   0.72461578   424551 
 4178000   0.60510565   -2.2163983   -2.2163983   -1.4905854  0.035365299   -2.2163983   0.72581293   424551 
 4179000   0.60424551   -2.2151695   -2.2151695   -1.4903883  0.036246915   -2.2151695   0.72478121   424551 
 4180000   0.60553669   -2.2162964   -2.2162964   -1.4899665   0.03310465   -2.2162964   0.72632996   424551 
 4181000   0.60493771   -2.2162718   -2.2162718   -1.4906603  0.041391194   -2.2162718   0.72561149   424551 
 4182000   0.60504011   -2.2164196   -2.2164196   -1.4906853  0.040270258   -2.2164196   0.72573431   424551 
 4183000   0.60485829   -2.2161568   -2.2161568   -1.4906406  0.039668464   -2.2161568   0.72551623   424551 
 4184000   0.60414447   -2.2147894   -2.2147894   -1.4901294  0.036655355   -2.2147894   0.72466001   424551 
 4185000   0.60377454   -2.2144761   -2.2144761   -1.4902598  0.038709981   -2.2144761   0.72421629   424551 
 4186000   0.60415858   -2.2150616   -2.2150616   -1.4903847  0.040797455   -2.2150616   0.72467694   424551 
 4187000   0.60559713   -2.2166649   -2.2166649   -1.4902624  0.033178514   -2.2166649   0.72640245   424551 
 4188000   0.60611008   -2.2174586   -2.2174586   -1.4904409  0.032094938   -2.2174586   0.72701773   424551 
 4189000   0.60543034   -2.2155172   -2.2155172   -1.4893148  0.038096927   -2.2155172   0.72620239   424551 
 4190000   0.60500916   -2.2161271   -2.2161271   -1.4904299  0.036746205   -2.2161271    0.7256972   424551 
 4191000   0.60442644   -2.2151662   -2.2151662    -1.490168  0.035473389   -2.2151662   0.72499823   424551 
 4192000   0.60486293   -2.2157845   -2.2157845   -1.4902627  0.032226672   -2.2157845    0.7255218   424551 
 4193000     0.605212   -2.2162293   -2.2162293   -1.4902888  0.037378523   -2.2162293    0.7259405   424551 
 4194000   0.60421128   -2.2146822   -2.2146822    -1.489942    0.0314569   -2.2146822   0.72474015   424551 
 4195000   0.60460457   -2.2151231   -2.2151231   -1.4899112  0.035926946   -2.2151231    0.7252119   424551 
 4196000   0.60495868   -2.2155839   -2.2155839   -1.4899473  0.037705869   -2.2155839   0.72563665   424551 
 4197000    0.6061476   -2.2161504   -2.2161504   -1.4890877  0.035404675   -2.2161504   0.72706273   424551 
 4198000   0.60492555   -2.2147356   -2.2147356   -1.4891387  0.039422311   -2.2147356    0.7255969   424551 
 4199000   0.60584462   -2.2157896   -2.2157896   -1.4890902  0.034663154   -2.2157896   0.72669932   424551 
 4200000    0.6051569   -2.2151591   -2.2151591   -1.4892847  0.034815389   -2.2151591    0.7258744   424551 
 4201000   0.60439802   -2.2140078   -2.2140078   -1.4890436  0.034493391   -2.2140078   0.72496414   424551 
 4202000   0.60457858   -2.2147072   -2.2147072   -1.4895265  0.031796831   -2.2147072   0.72518073   424551 
 4203000   0.60514426     -2.21506     -2.21506   -1.4892008  0.034314071     -2.21506   0.72585924   424551 
 4204000   0.60483571   -2.2151229   -2.2151229   -1.4896337  0.033270727   -2.2151229   0.72548914   424551 
 4205000   0.60495973   -2.2150218   -2.2150218   -1.4893839  0.034259359   -2.2150218   0.72563791   424551 
 4206000   0.60595984   -2.2167431   -2.2167431   -1.4899056  0.034961054   -2.2167431   0.72683751   424551 
 4207000   0.60546993   -2.2155226   -2.2155226   -1.4892728  0.032906519   -2.2155226   0.72624988   424551 
 4208000   0.60547578   -2.2153598   -2.2153598   -1.4891029  0.034763173   -2.2153598   0.72625689   424551 
 4209000   0.60556632   -2.2156425   -2.2156425    -1.489277  0.039111676   -2.2156425    0.7263655   424551 
 4210000   0.60503429    -2.215315    -2.215315   -1.4895877  0.034281011    -2.215315   0.72572733   424551 
 4211000   0.60563616   -2.2153378   -2.2153378   -1.4888885  0.036353987   -2.2153378   0.72644927   424551 
 4212000   0.60456996   -2.2146354   -2.2146354    -1.489465  0.035201614   -2.2146354   0.72517039   424551 
 4213000   0.60406827   -2.2143785   -2.2143785   -1.4898098  0.042230957   -2.2143785   0.72456862   424551 
 4214000   0.60504502   -2.2151634   -2.2151634   -1.4894232  0.035060311   -2.2151634   0.72574021   424551 
 4215000   0.60488164   -2.2146952   -2.2146952    -1.489151  0.025228447   -2.2146952   0.72554424   424551 
 4216000   0.60599418   -2.2157866   -2.2157866   -1.4889079  0.039342461   -2.2157866    0.7268787   424551 
 4217000   0.60431645   -2.2136242   -2.2136242   -1.4887579  0.042429811   -2.2136242    0.7248663   424551 
 4218000   0.60464317   -2.2132486   -2.2132486   -1.4879904  0.034608018   -2.2132486   0.72525819   424551 
 4219000   0.60598033   -2.2146474   -2.2146474   -1.4877853  0.034927695   -2.2146474   0.72686209   424551 
 4220000   0.60485722   -2.2147754   -2.2147754   -1.4892605  0.033100469   -2.2147754   0.72551494   424551 
 4221000    0.6059512   -2.2151041   -2.2151041    -1.488277  0.044818638   -2.2151041   0.72682716   424551 
 4222000   0.60570647   -2.2140023   -2.2140023   -1.4874687  0.027053779   -2.2140023    0.7265336   424551 
 4223000   0.60688464   -2.2148571   -2.2148571   -1.4869103  0.031311904   -2.2148571    0.7279468   424551 
 4224000   0.60437291   -2.2125794   -2.2125794   -1.4876454  0.032545292   -2.2125794   0.72493402   424551 
 4225000   0.60533373   -2.2141615   -2.2141615    -1.488075  0.035069265   -2.2141615   0.72608651   424551 
 4226000   0.60527307   -2.2138566   -2.2138566   -1.4878429  0.042377943   -2.2138566   0.72601375   424551 
 4227000   0.60507484   -2.2140195   -2.2140195   -1.4882435  0.042949337   -2.2140195   0.72577597   424551 
 4228000   0.60465319   -2.2138118   -2.2138118   -1.4885416   0.04375814   -2.2138118   0.72527021   424551 
 4229000   0.60482564   -2.2137071   -2.2137071     -1.48823  0.033278898   -2.2137071   0.72547707   424551 
 4230000   0.60396542   -2.2117539   -2.2117539   -1.4873087  0.039546744   -2.2117539   0.72444525   424551 
 4231000   0.60417603   -2.2122516   -2.2122516   -1.4875537  0.045786732   -2.2122516   0.72469787   424551 
 4232000   0.60503041   -2.2130955   -2.2130955   -1.4873728  0.036336783   -2.2130955   0.72572268   424551 
 4233000   0.60658445   -2.2152893   -2.2152893   -1.4877025  0.034467498   -2.2152893   0.72758673   424551 
 4234000   0.60530194   -2.2141218   -2.2141218   -1.4880735  0.032644193   -2.2141218   0.72604838   424551 
 4235000    0.6053886   -2.2138125   -2.2138125   -1.4876601   0.04404862   -2.2138125   0.72615233   424551 
 4236000   0.60578747   -2.2139747   -2.2139747    -1.487344   0.03554853   -2.2139747   0.72663077   424551 
 4237000    0.6033504   -2.2115085   -2.2115085   -1.4878009  0.037129039   -2.2115085   0.72370754   424551 
 4238000   0.60567408   -2.2135567   -2.2135567   -1.4870619  0.030519071   -2.2135567   0.72649475   424551 
 4239000   0.60460823     -2.21237     -2.21237   -1.4871537  0.030480719     -2.21237   0.72521628   424551 
 4240000   0.60370267   -2.2117495   -2.2117495   -1.4876194  0.039529159   -2.2117495   0.72413008   424551 
 4241000   0.60437359   -2.2123342   -2.2123342   -1.4873994  0.027196271   -2.2123342   0.72493484   424551 
 4242000   0.60492159   -2.2118939   -2.2118939   -1.4863017  0.037308286   -2.2118939   0.72559216   424551 
 4243000     0.605263   -2.2131428   -2.2131428   -1.4871411  0.035535191   -2.2131428   0.72600167   424551 
 4244000   0.60487213   -2.2132381   -2.2132381   -1.4877053  0.031248719   -2.2132381   0.72553283   424551 
 4245000   0.60439498   -2.2123286   -2.2123286   -1.4873681  0.036565188   -2.2123286    0.7249605   424551 
 4246000   0.60432174   -2.2121825   -2.2121825   -1.4873098  0.040103723   -2.2121825   0.72487265   424551 
 4247000   0.60492071   -2.2124008   -2.2124008   -1.4868097   0.03567596   -2.2124008    0.7255911   424551 
 4248000   0.60580276   -2.2130756   -2.2130756   -1.4864265  0.028714694   -2.2130756    0.7266491   424551 
 4249000   0.60531855   -2.2129719   -2.2129719   -1.4869036  0.035592416   -2.2129719   0.72606831   424551 
 4250000   0.60571992   -2.2131159   -2.2131159   -1.4865662  0.035379607   -2.2131159   0.72654974   424551 
 4251000   0.60534827    -2.212087    -2.212087   -1.4859831  0.038752024    -2.212087   0.72610394   424551 
 4252000   0.60502426   -2.2127211   -2.2127211   -1.4870058  0.039842559   -2.2127211   0.72571531   424551 
 4253000   0.60600304   -2.2139542   -2.2139542   -1.4870649  0.035871102   -2.2139542   0.72688934   424551 
 4254000   0.60486343   -2.2127761   -2.2127761   -1.4872537  0.026565254   -2.2127761   0.72552239   424551 
 4255000   0.60448966    -2.212926    -2.212926   -1.4878519  0.035113606    -2.212926   0.72507406   424551 
 4256000    0.6037677    -2.212371    -2.212371    -1.488163  0.030920893    -2.212371   0.72420809   424551 
 4257000   0.60395398    -2.212259    -2.212259   -1.4878275  0.035832155    -2.212259   0.72443153   424551 
 4258000   0.60385084   -2.2122517   -2.2122517   -1.4879438  0.039880428   -2.2122517   0.72430781   424551 
 4259000   0.60397366   -2.2115027   -2.2115027   -1.4870476   0.03451221   -2.2115027   0.72445513   424551 
 4260000   0.60508875   -2.2128051   -2.2128051   -1.4870124  0.038179939   -2.2128051   0.72579267   424551 
 4261000   0.60404732   -2.2122224   -2.2122224   -1.4876789  0.032021654   -2.2122224   0.72454349   424551 
 4262000   0.60488346   -2.2129733   -2.2129733   -1.4874269  0.040349386   -2.2129733   0.72554642   424551 
 4263000   0.60504967   -2.2131737   -2.2131737   -1.4874279  0.033279051   -2.2131737   0.72574579   424551 
 4264000   0.60450573   -2.2128496   -2.2128496   -1.4877562  0.041321749   -2.2128496   0.72509334   424551 
 4265000   0.60427861   -2.2124748   -2.2124748   -1.4876539  0.033890185   -2.2124748   0.72482091   424551 
 4266000   0.60618039   -2.2145212   -2.2145212   -1.4874192  0.033067825   -2.2145212   0.72710207   424551 
 4267000   0.60616195   -2.2145635   -2.2145635   -1.4874835  0.038919893   -2.2145635   0.72707994   424551 
 4268000   0.60459444   -2.2133109   -2.2133109   -1.4881112   0.03579334   -2.2133109   0.72519974   424551 
 4269000   0.60535406   -2.2133187   -2.2133187   -1.4872077  0.036717148   -2.2133187    0.7261109   424551 
 4270000   0.60619281   -2.2136548   -2.2136548   -1.4865378  0.036096254   -2.2136548   0.72711696   424551 
 4271000   0.60484009   -2.2134618   -2.2134618   -1.4879674  0.037677346   -2.2134618    0.7254944   424551 
 4272000   0.60533731   -2.2138711   -2.2138711   -1.4877803   0.03451031   -2.2138711   0.72609081   424551 
 4273000   0.60519995   -2.2143182   -2.2143182   -1.4883922  0.038792391   -2.2143182   0.72592605   424551 
 4274000   0.60461757   -2.2136501   -2.2136501   -1.4884226  0.032959772   -2.2136501   0.72522749   424551 
 4275000   0.60434197   -2.2139721   -2.2139721   -1.4890752  0.038983019   -2.2139721   0.72489692   424551 
 4276000   0.60501077   -2.2150045   -2.2150045   -1.4893054  0.039518809   -2.2150045   0.72569913   424551 
 4277000   0.60371047    -2.213572    -2.213572   -1.4894326  0.041766157    -2.213572   0.72413944   424551 
 4278000   0.60499919   -2.2146254   -2.2146254   -1.4889402  0.038590718   -2.2146254   0.72568524   424551 
 4279000   0.60441066   -2.2136765   -2.2136765   -1.4886972  0.041603201   -2.2136765    0.7249793   424551 
 4280000   0.60582345   -2.2151093   -2.2151093   -1.4884354  0.035079818   -2.2151093   0.72667391   424551 
 4281000   0.60394849   -2.2135074   -2.2135074   -1.4890824  0.032749422   -2.2135074   0.72442494   424551 
 4282000   0.60529192   -2.2152318   -2.2152318   -1.4891954  0.031873987   -2.2152318   0.72603636   424551 
 4283000   0.60412977   -2.2134935   -2.2134935   -1.4888512  0.035233443   -2.2134935   0.72464238   424551 
 4284000   0.60400624   -2.2128713   -2.2128713   -1.4883771  0.037101814   -2.2128713   0.72449421   424551 
 4285000   0.60422547   -2.2134807   -2.2134807   -1.4887235  0.033293739   -2.2134807   0.72475718   424551 
 4286000   0.60572665    -2.215005    -2.215005   -1.4884472  0.035269772    -2.215005   0.72655781   424551 
 4287000   0.60508128   -2.2147849   -2.2147849   -1.4890012  0.040182017   -2.2147849    0.7257837   424551 
 4288000   0.60469805   -2.2146987   -2.2146987   -1.4893747  0.031392761   -2.2146987   0.72532402   424551 
 4289000   0.60511041   -2.2146869   -2.2146869   -1.4888683  0.036425046   -2.2146869   0.72581864   424551 
 4290000   0.60495934   -2.2147379   -2.2147379   -1.4891004  0.034572825   -2.2147379   0.72563744   424551 
 4291000   0.60418042   -2.2140344   -2.2140344   -1.4893313  0.032444788   -2.2140344   0.72470314   424551 
 4292000   0.60398497   -2.2146403   -2.2146403   -1.4901716  0.034307114   -2.2146403    0.7244687   424551 
 4293000   0.60359208   -2.2138493   -2.2138493   -1.4898518  0.031324116   -2.2138493   0.72399743   424551 
 4294000   0.60449617   -2.2144676   -2.2144676   -1.4893857  0.038380796   -2.2144676   0.72508187   424551 
 4295000   0.60453379   -2.2145816   -2.2145816   -1.4894546  0.037074698   -2.2145816   0.72512699   424551 
 4296000    0.6045554    -2.215101    -2.215101   -1.4899481  0.040271786    -2.215101   0.72515291   424551 
 4297000   0.60544078   -2.2157883   -2.2157883   -1.4895734  0.038045772   -2.2157883   0.72621492   424551 
 4298000   0.60504901   -2.2157486   -2.2157486   -1.4900036  0.033271737   -2.2157486   0.72574499   424551 
 4299000   0.60487611   -2.2148939   -2.2148939   -1.4893563   0.03088841   -2.2148939    0.7255376   424551 
 4300000   0.60576119   -2.2154144   -2.2154144   -1.4888151  0.037821995   -2.2154144   0.72659924   424551 
 4301000   0.60589869   -2.2155334   -2.2155334   -1.4887692  0.037141446   -2.2155334   0.72676417   424551 
 4302000   0.60504459   -2.2140808   -2.2140808   -1.4883412  0.037073183   -2.2140808   0.72573969   424551 
 4303000   0.60621321   -2.2145435   -2.2145435   -1.4874021  0.032954617   -2.2145435   0.72714143   424551 
 4304000   0.60613939   -2.2142993   -2.2142993   -1.4872464  0.041523518   -2.2142993   0.72705289   424551 
 4305000   0.60547121   -2.2139143   -2.2139143   -1.4876629  0.038137366   -2.2139143   0.72625142   424551 
 4306000   0.60491875   -2.2135534   -2.2135534   -1.4879647  0.041487847   -2.2135534   0.72558875   424551 
 4307000   0.60354384   -2.2117542   -2.2117542   -1.4878146  0.029708545   -2.2117542   0.72393957   424551 
 4308000   0.60496912   -2.2139878   -2.2139878   -1.4883386  0.026463368   -2.2139878   0.72564917   424551 
 4309000   0.60436837   -2.2136084   -2.2136084   -1.4886798  0.037009157   -2.2136084   0.72492857   424551 
 4310000   0.60470335   -2.2142689   -2.2142689   -1.4889386  0.028198707   -2.2142689   0.72533038   424551 
 4311000   0.60496596   -2.2141401   -2.2141401   -1.4884947  0.031983412   -2.2141401   0.72564538   424551 
 4312000   0.60458583   -2.2132846   -2.2132846   -1.4880952  0.036677315   -2.2132846   0.72518941   424551 
 4313000    0.6044206   -2.2131439   -2.2131439   -1.4881526  0.036476836   -2.2131439   0.72499123   424551 
 4314000   0.60390159    -2.213019    -2.213019   -1.4886503  0.030466361    -2.213019   0.72436868   424551 
 4315000   0.60457472    -2.213842    -2.213842   -1.4886659  0.041422751    -2.213842   0.72517609   424551 
 4316000   0.60454104   -2.2139104   -2.2139104   -1.4887747  0.036730599   -2.2139104   0.72513569   424551 
 4317000   0.60508635   -2.2146651   -2.2146651   -1.4888754  0.030559488   -2.2146651   0.72578978   424551 
 4318000   0.60562106   -2.2157855   -2.2157855   -1.4893544  0.030791487   -2.2157855   0.72643116   424551 
 4319000   0.60399736   -2.2139731   -2.2139731   -1.4894895  0.037040365   -2.2139731   0.72448355   424551 
 4320000   0.60477741   -2.2144125   -2.2144125   -1.4889933   0.04208662   -2.2144125   0.72541921   424551 
 4321000   0.60568613   -2.2151771   -2.2151771   -1.4886679  0.040377439   -2.2151771    0.7265092   424551 
 4322000   0.60573043    -2.215683    -2.215683   -1.4891207  0.038726204    -2.215683   0.72656234   424551 
 4323000   0.60588772   -2.2158055   -2.2158055   -1.4890545  0.035826393   -2.2158055   0.72675101   424551 
 4324000   0.60484648   -2.2150004   -2.2150004   -1.4894984  0.033602925   -2.2150004   0.72550206   424551 
 4325000   0.60726599   -2.2177705   -2.2177705   -1.4893663  0.039061115   -2.2177705   0.72840422   424551 
 4326000   0.60690045   -2.2167901   -2.2167901   -1.4888243  0.035435987   -2.2167901   0.72796576   424551 
 4327000   0.60670543   -2.2171531   -2.2171531   -1.4894212  0.037783299   -2.2171531   0.72773184   424551 
 4328000   0.60504581    -2.215028    -2.215028   -1.4892868  0.037978227    -2.215028   0.72574116   424551 
 4329000   0.60568462   -2.2157651   -2.2157651   -1.4892577  0.036256712   -2.2157651   0.72650739   424551 
 4330000   0.60570014   -2.2157234   -2.2157234   -1.4891974  0.040410212   -2.2157234   0.72652601   424551 
 4331000   0.60557112   -2.2156082   -2.2156082    -1.489237  0.042332072   -2.2156082   0.72637126   424551 
 4332000   0.60641433   -2.2166726   -2.2166726     -1.48929  0.044869759   -2.2166726   0.72738267   424551 
 4333000   0.60461814   -2.2155458   -2.2155458   -1.4903176  0.029765646   -2.2155458   0.72522818   424551 
 4334000   0.60606593   -2.2174294   -2.2174294   -1.4904646  0.035338737   -2.2174294   0.72696477   424551 
 4335000   0.60620302     -2.21705     -2.21705   -1.4899208  0.032082831     -2.21705   0.72712921   424551 
 4336000   0.60560927   -2.2156395   -2.2156395   -1.4892225  0.034139061   -2.2156395   0.72641701   424551 
 4337000   0.60485069    -2.214555    -2.214555   -1.4890479  0.032103236    -2.214555   0.72550712   424551 
 4338000   0.60556412   -2.2163919   -2.2163919    -1.490029  0.032866802   -2.2163919   0.72636285   424551 
 4339000      0.60425   -2.2149302   -2.2149302   -1.4901436   0.03413087   -2.2149302   0.72478659   424551 
 4340000   0.60361143   -2.2137495   -2.2137495   -1.4897289  0.035998907   -2.2137495   0.72402064   424551 
 4341000   0.60471738   -2.2144077   -2.2144077   -1.4890605  0.030160789   -2.2144077   0.72534721   424551 
 4342000   0.60433295   -2.2135989   -2.2135989   -1.4887128  0.036346975   -2.2135989   0.72488609   424551 
 4343000   0.60458656   -2.2129538   -2.2129538   -1.4877635   0.02892109   -2.2129538    0.7251903   424551 
 4344000    0.6042934    -2.212639    -2.212639   -1.4878003   0.04349364    -2.212639   0.72483866   424551 
 4345000   0.60445519   -2.2131445   -2.2131445   -1.4881117  0.033725604   -2.2131445   0.72503272   424551 
 4346000   0.60478588    -2.214359    -2.214359   -1.4889296  0.030023535    -2.214359   0.72542937   424551 
 4347000   0.60424062   -2.2135319   -2.2135319   -1.4887565  0.028288289   -2.2135319   0.72477535   424551 
 4348000     0.603675   -2.2130527   -2.2130527   -1.4889558  0.033068084   -2.2130527    0.7240969   424551 
 4349000   0.60491136   -2.2131785   -2.2131785   -1.4875986  0.036304257   -2.2131785   0.72557989   424551 
 4350000   0.60454754   -2.2127849   -2.2127849   -1.4876414  0.028182852   -2.2127849   0.72514349   424551 
 4351000   0.60466612   -2.2129882   -2.2129882   -1.4877025  0.035081412   -2.2129882   0.72528572   424551 
 4352000   0.60544543    -2.214866    -2.214866   -1.4886455  0.035349955    -2.214866    0.7262205   424551 
 4353000   0.60556756   -2.2140684   -2.2140684   -1.4877014  0.032104778   -2.2140684   0.72636698   424551 
 4354000   0.60562448   -2.2139278   -2.2139278   -1.4874925  0.030588892   -2.2139278   0.72643526   424551 
 4355000   0.60537315   -2.2138622   -2.2138622   -1.4877284  0.037063096   -2.2138622   0.72613379   424551 
 4356000    0.6046674   -2.2136527   -2.2136527   -1.4883654  0.042507519   -2.2136527   0.72528727   424551 
 4357000   0.60508973   -2.2144886   -2.2144886   -1.4886948  0.029336453   -2.2144886   0.72579383   424551 
 4358000   0.60433095   -2.2140464   -2.2140464   -1.4891627  0.033976313   -2.2140464    0.7248837   424551 
 4359000   0.60454361   -2.2142845   -2.2142845   -1.4891457  0.033085917   -2.2142845   0.72513877   424551 
 4360000   0.60404545   -2.2137141   -2.2137141   -1.4891728  0.037459682   -2.2137141   0.72454125   424551 
 4361000   0.60545722   -2.2147918   -2.2147918   -1.4885571  0.036075897   -2.2147918   0.72623463   424551 
 4362000   0.60519895   -2.2148247   -2.2148247   -1.4888998  0.032962716   -2.2148247   0.72592485   424551 
 4363000   0.60620223    -2.215867    -2.215867   -1.4887387  0.029908855    -2.215867   0.72712826   424551 
 4364000   0.60384223     -2.21327     -2.21327   -1.4889725  0.036876747     -2.21327   0.72429748   424551 
 4365000   0.60555724   -2.2147821   -2.2147821   -1.4884275  0.035392983   -2.2147821    0.7263546   424551 
 4366000   0.60538745   -2.2151136   -2.2151136   -1.4889626  0.036835278   -2.2151136   0.72615094   424551 
 4367000   0.60557293   -2.2144889   -2.2144889   -1.4881155  0.037892166   -2.2144889   0.72637343   424551 
 4368000    0.6054955   -2.2147304   -2.2147304   -1.4884499  0.037393917   -2.2147304   0.72628055   424551 
 4369000   0.60580542   -2.2150895   -2.2150895   -1.4884372  0.039460409   -2.2150895    0.7266523   424551 
 4370000   0.60451656   -2.2138056   -2.2138056   -1.4886993  0.034015724   -2.2138056   0.72510633   424551 
 4371000   0.60533241   -2.2151061   -2.2151061   -1.4890212  0.035233815   -2.2151061   0.72608493   424551 
 4372000   0.60555652    -2.215533    -2.215533   -1.4891793  0.033062637    -2.215533   0.72635374   424551 
 4373000   0.60535262   -2.2157946   -2.2157946   -1.4896855  0.033927052   -2.2157946   0.72610917   424551 
 4374000   0.60471331   -2.2146617   -2.2146617   -1.4893193  0.037380132   -2.2146617   0.72534232   424551 
 4375000   0.60381333   -2.2141541   -2.2141541   -1.4898913  0.027431268   -2.2141541   0.72426282   424551 
 4376000   0.60402362    -2.213541    -2.213541    -1.489026  0.026933279    -2.213541   0.72451505   424551 
 4377000   0.60378025   -2.2140395   -2.2140395   -1.4898163  0.027879511   -2.2140395   0.72422313   424551 
 4378000    0.6043388   -2.2150923   -2.2150923   -1.4901992  0.037318955   -2.2150923   0.72489311   424551 
 4379000    0.6040021    -2.213875    -2.213875   -1.4893858  0.037688255    -2.213875   0.72448924   424551 
 4380000    0.6053935    -2.215989    -2.215989   -1.4898308   0.03003804    -2.215989    0.7261582   424551 
 4381000   0.60531917   -2.2152626   -2.2152626   -1.4891935  0.035788194   -2.2152626   0.72606905   424551 
 4382000   0.60511642   -2.2151054   -2.2151054   -1.4892796  0.038481835   -2.2151054   0.72582586   424551 
 4383000    0.6040381   -2.2146107   -2.2146107   -1.4900783  0.030009273   -2.2146107   0.72453243   424551 
 4384000    0.6059178    -2.215213    -2.215213   -1.4884259  0.029495878    -2.215213    0.7267871   424551 
 4385000   0.60447792   -2.2138164   -2.2138164   -1.4887564  0.035347864   -2.2138164   0.72505999   424551 
 4386000   0.60532412   -2.2145024   -2.2145024   -1.4884274  0.038709824   -2.2145024   0.72607498   424551 
 4387000   0.60565053   -2.2153819   -2.2153819   -1.4889154  0.038874729   -2.2153819   0.72646651   424551 
 4388000   0.60467249   -2.2135276   -2.2135276   -1.4882343  0.043900941   -2.2135276   0.72529336   424551 
 4389000    0.6061662   -2.2159153   -2.2159153   -1.4888303  0.044005927   -2.2159153   0.72708504   424551 
 4390000   0.60500728    -2.214674    -2.214674   -1.4889791  0.034893194    -2.214674   0.72569494   424551 
 4391000   0.60615379   -2.2158122   -2.2158122   -1.4887421   0.03387421   -2.2158122   0.72707016   424551 
 4392000   0.60378464   -2.2131709   -2.2131709   -1.4889425  0.041711982   -2.2131709    0.7242284   424551 
 4393000   0.60421655   -2.2141378   -2.2141378   -1.4893913  0.033759875   -2.2141378   0.72474647   424551 
 4394000    0.6053955   -2.2145695   -2.2145695   -1.4884089  0.037422322   -2.2145695   0.72616061   424551 
 4395000   0.60673554    -2.216414    -2.216414    -1.488646  0.039767478    -2.216414   0.72776795   424551 
 4396000    0.6055906   -2.2151634   -2.2151634   -1.4887688  0.042052191   -2.2151634   0.72639462   424551 
 4397000   0.60635224   -2.2156789   -2.2156789   -1.4883708  0.033760097   -2.2156789   0.72730819   424551 
 4398000   0.60608939   -2.2151103   -2.2151103   -1.4881174   0.03321236   -2.2151103   0.72699291   424551 
 4399000   0.60556476   -2.2140693   -2.2140693   -1.4877057  0.032041023   -2.2140693   0.72636363   424551 
 4400000   0.60494749   -2.2136275   -2.2136275   -1.4880043  0.037560621   -2.2136275   0.72562322   424551 
 4401000   0.60541826   -2.2141716   -2.2141716   -1.4879837  0.034305869   -2.2141716    0.7261879   424551 
 4402000   0.60459437   -2.2133853   -2.2133853   -1.4881857  0.038124477   -2.2133853   0.72519966   424551 
 4403000    0.6049689   -2.2132872   -2.2132872   -1.4876383  0.034674799   -2.2132872    0.7256489   424551 
 4404000   0.60462724   -2.2129973   -2.2129973   -1.4877582  0.039174371   -2.2129973   0.72523909   424551 
 4405000   0.60374094   -2.2121855   -2.2121855   -1.4880095  0.039775927   -2.2121855   0.72417599   424551 
 4406000   0.60467759   -2.2140696   -2.2140696   -1.4887701  0.036718306   -2.2140696   0.72529949   424551 
 4407000   0.60427169   -2.2123655   -2.2123655   -1.4875529  0.034085588   -2.2123655   0.72481261   424551 
 4408000   0.60439207   -2.2127872   -2.2127872   -1.4878302  0.033046628   -2.2127872     0.724957   424551 
 4409000   0.60546803   -2.2141469   -2.2141469   -1.4878993  0.042951823   -2.2141469    0.7262476   424551 
 4410000   0.60453185   -2.2132508   -2.2132508   -1.4881262  0.033913465   -2.2132508   0.72512467   424551 
 4411000   0.60497732   -2.2136997   -2.2136997   -1.4880407  0.031154541   -2.2136997   0.72565901   424551 
 4412000   0.60420593   -2.2117787   -2.2117787    -1.487045  0.035510973   -2.2117787   0.72473373   424551 
 4413000   0.60625643   -2.2137931   -2.2137931   -1.4865999  0.035163373   -2.2137931   0.72719327   424551 
 4414000   0.60470197    -2.211714    -2.211714   -1.4863853  0.035845529    -2.211714   0.72532873   424551 
 4415000   0.60417729   -2.2120499   -2.2120499   -1.4873505  0.039114627   -2.2120499   0.72469938   424551 
 4416000   0.60569717   -2.2134355   -2.2134355    -1.486913   0.03721161   -2.2134355   0.72652245   424551 
 4417000    0.6053447    -2.213621    -2.213621   -1.4875213  0.035586324    -2.213621   0.72609967   424551 
 4418000   0.60516286   -2.2133607   -2.2133607   -1.4874792   0.03854714   -2.2133607   0.72588155   424551 
 4419000   0.60560955   -2.2133999   -2.2133999   -1.4869825  0.034357491   -2.2133999   0.72641735   424551 
 4420000   0.60615456    -2.214674    -2.214674   -1.4876029  0.028034324    -2.214674   0.72707108   424551 
 4421000   0.60528342   -2.2141162   -2.2141162     -1.48809  0.036216096   -2.2141162   0.72602616   424551 
 4422000    0.6052542   -2.2140668   -2.2140668   -1.4880756  0.031045551   -2.2140668   0.72599112   424551 
 4423000   0.60349663   -2.2124186   -2.2124186   -1.4885357  0.037897314   -2.2124186   0.72388294   424551 
 4424000   0.60452228   -2.2129825   -2.2129825   -1.4878693  0.039394697   -2.2129825   0.72511319   424551 
 4425000   0.60497065   -2.2134196   -2.2134196   -1.4877686  0.043145432   -2.2134196     0.725651   424551 
 4426000   0.60503382    -2.213309    -2.213309   -1.4875822  0.029056394    -2.213309   0.72572678   424551 
 4427000   0.60434713   -2.2122581   -2.2122581    -1.487355  0.039080359   -2.2122581    0.7249031   424551 
 4428000   0.60405319   -2.2127717   -2.2127717   -1.4882212  0.038757293   -2.2127717   0.72455053   424551 
 4429000    0.6038148   -2.2133271   -2.2133271   -1.4890625  0.038604312   -2.2133271   0.72426459   424551 
 4430000   0.60421066   -2.2140051   -2.2140051   -1.4892657  0.036831366   -2.2140051   0.72473941   424551 
 4431000   0.60420041   -2.2135414   -2.2135414   -1.4888143  0.039623572   -2.2135414   0.72472712   424551 
 4432000   0.60493732   -2.2146096   -2.2146096   -1.4889985  0.029435631   -2.2146096   0.72561102   424551 
 4433000   0.60401461   -2.2136822   -2.2136822   -1.4891779  0.036451552   -2.2136822   0.72450425   424551 
 4434000   0.60530237   -2.2148991   -2.2148991   -1.4888502  0.033317664   -2.2148991   0.72604889   424551 
 4435000   0.60410381   -2.2141642   -2.2141642    -1.489553  0.033709818   -2.2141642   0.72461124   424551 
 4436000   0.60313919   -2.2125383   -2.2125383   -1.4890841  0.036838419   -2.2125383    0.7234542   424551 
 4437000   0.60445542   -2.2142452   -2.2142452   -1.4892122  0.034665798   -2.2142452   0.72503299   424551 
 4438000   0.60545367   -2.2152536   -2.2152536   -1.4890232  0.034803706   -2.2152536   0.72623038   424551 
 4439000   0.60538775   -2.2149371   -2.2149371   -1.4887858  0.037335627   -2.2149371    0.7261513   424551 
 4440000    0.6049379    -2.214398    -2.214398   -1.4887863  0.042334819    -2.214398   0.72561172   424551 
 4441000   0.60478377   -2.2148462   -2.2148462   -1.4894193  0.042476002   -2.2148462   0.72542684   424551 
 4442000   0.60511911   -2.2147631   -2.2147631    -1.488934  0.035570248   -2.2147631   0.72582908   424551 
 4443000   0.60441724   -2.2140112   -2.2140112    -1.489024  0.038392055   -2.2140112    0.7249872   424551 
 4444000   0.60466513   -2.2149723   -2.2149723   -1.4896877  0.039223456   -2.2149723   0.72528454   424551 
 4445000   0.60454706   -2.2143318   -2.2143318   -1.4891889  0.040264304   -2.2143318   0.72514291   424551 
 4446000   0.60548305   -2.2161477   -2.2161477   -1.4898821  0.041556582   -2.2161477   0.72626562   424551 
 4447000   0.60501966   -2.2143821   -2.2143821   -1.4886723  0.034594355   -2.2143821   0.72570979   424551 
 4448000   0.60495658   -2.2143834   -2.2143834   -1.4887493  0.035883254   -2.2143834   0.72563413   424551 
 4449000   0.60605239   -2.2152083   -2.2152083   -1.4882597  0.041241982   -2.2152083   0.72694853   424551 
 4450000   0.60542505   -2.2146223   -2.2146223   -1.4884263  0.040675321   -2.2146223   0.72619605   424551 
 4451000   0.60538122   -2.2149101   -2.2149101   -1.4887666  0.039084656   -2.2149101   0.72614348   424551 
 4452000   0.60512247   -2.2147268   -2.2147268   -1.4888937  0.043177214   -2.2147268    0.7258331   424551 
 4453000   0.60425989   -2.2146867   -2.2146867   -1.4898882  0.036877057   -2.2146867   0.72479846   424551 
 4454000   0.60438274   -2.2143776   -2.2143776   -1.4894318  0.032352748   -2.2143776   0.72494582   424551 
 4455000   0.60538714   -2.2150467   -2.2150467   -1.4888961  0.033948518   -2.2150467   0.72615057   424551 
 4456000   0.60370623   -2.2131739   -2.2131739   -1.4890396   0.03305679   -2.2131739   0.72413436   424551 
 4457000   0.60541237   -2.2149051   -2.2149051   -1.4887243  0.027257192   -2.2149051   0.72618083   424551 
 4458000   0.60542697   -2.2147557   -2.2147557   -1.4885574  0.038337211   -2.2147557   0.72619835   424551 
 4459000   0.60544466   -2.2149077   -2.2149077   -1.4886882  0.039407436   -2.2149077   0.72621957   424551 
 4460000   0.60548225   -2.2146458   -2.2146458   -1.4883811  0.039264614   -2.2146458   0.72626465   424551 
 4461000   0.60511845   -2.2137069   -2.2137069   -1.4878786  0.028595156   -2.2137069   0.72582828   424551 
 4462000    0.6056731   -2.2140123   -2.2140123   -1.4875187  0.035819764   -2.2140123   0.72649358   424551 
 4463000   0.60545895    -2.214272    -2.214272   -1.4880353  0.034023606    -2.214272   0.72623671   424551 
 4464000   0.60509747   -2.2145004   -2.2145004   -1.4886973  0.042489543   -2.2145004   0.72580312   424551 
 4465000   0.60432113   -2.2132449   -2.2132449    -1.488373  0.029501097   -2.2132449   0.72487192   424551 
 4466000   0.60508738   -2.2145025   -2.2145025   -1.4887115  0.037373422   -2.2145025   0.72579102   424551 
 4467000   0.60427199   -2.2135912   -2.2135912   -1.4887782  0.032065009   -2.2135912   0.72481297   424551 
 4468000   0.60392435    -2.214089    -2.214089    -1.489693  0.039526845    -2.214089   0.72439599   424551 
 4469000   0.60391523   -2.2135219   -2.2135219   -1.4891369  0.035928202   -2.2135219   0.72438505   424551 
 4470000   0.60421559   -2.2148085   -2.2148085   -1.4900631  0.038227453   -2.2148085   0.72474532   424551 
 4471000   0.60319214   -2.2134344   -2.2134344   -1.4899167  0.042618231   -2.2134344   0.72351771   424551 
 4472000   0.60374581    -2.213924    -2.213924   -1.4897421  0.038541427    -2.213924   0.72418183   424551 
 4473000   0.60386228   -2.2141326   -2.2141326   -1.4898111  0.033706594   -2.2141326   0.72432153   424551 
 4474000   0.60537933   -2.2158696   -2.2158696   -1.4897284  0.027278334   -2.2158696   0.72614121   424551 
 4475000   0.60512799   -2.2157692   -2.2157692   -1.4899294  0.034390423   -2.2157692   0.72583973   424551 
 4476000   0.60496213   -2.2152612   -2.2152612   -1.4896204  0.040781532   -2.2152612   0.72564079   424551 
 4477000   0.60664055   -2.2173539   -2.2173539   -1.4896999   0.02982334   -2.2173539   0.72765402   424551 
 4478000   0.60474531   -2.2152368   -2.2152368   -1.4898561  0.034848805   -2.2152368   0.72538072   424551 
 4479000   0.60586599   -2.2167305   -2.2167305   -1.4900055  0.035494962   -2.2167305   0.72672495   424551 
 4480000    0.6058406   -2.2169675   -2.2169675    -1.490273  0.043851865   -2.2169675    0.7266945   424551 
 4481000   0.60611139   -2.2166491   -2.2166491   -1.4896298  0.043123165   -2.2166491    0.7270193   424551 
 4482000   0.60527072   -2.2160127   -2.2160127   -1.4900017  0.042397466   -2.2160127   0.72601093   424551 
 4483000     0.606232   -2.2166082   -2.2166082   -1.4894442  0.037219465   -2.2166082   0.72716397   424551 
 4484000   0.60472176   -2.2147345   -2.2147345    -1.489382  0.038605991   -2.2147345   0.72535246   424551 
 4485000   0.60519675   -2.2150353   -2.2150353   -1.4891131  0.029659699   -2.2150353    0.7259222   424551 
 4486000   0.60389449   -2.2136539   -2.2136539   -1.4892937  0.036755354   -2.2136539   0.72436017   424551 
 4487000   0.60509184   -2.2139357   -2.2139357   -1.4881393  0.034131551   -2.2139357   0.72579637   424551 
 4488000   0.60573707   -2.2146123   -2.2146123    -1.488042  0.033110587   -2.2146123   0.72657031   424551 
 4489000   0.60403596   -2.2131305   -2.2131305   -1.4886006  0.050023668   -2.2131305   0.72452986   424551 
 4490000   0.60474972   -2.2135785   -2.2135785   -1.4881925  0.036317737   -2.2135785   0.72538601   424551 
 4491000   0.60446004   -2.2133822   -2.2133822   -1.4883436  0.036699502   -2.2133822   0.72503853   424551 
 4492000   0.60432733   -2.2132763   -2.2132763   -1.4883969  0.033712419   -2.2132763   0.72487935   424551 
 4493000   0.60440654   -2.2129888   -2.2129888   -1.4880145  0.035638563   -2.2129888   0.72497436   424551 
 4494000   0.60299406   -2.2126949   -2.2126949   -1.4894148  0.034548166   -2.2126949   0.72328012   424551 
 4495000   0.60346339   -2.2126939   -2.2126939   -1.4888508  0.034502407   -2.2126939   0.72384307   424551 
 4496000   0.60378998   -2.2127477   -2.2127477   -1.4885128   0.03142666   -2.2127477   0.72423481   424551 
 4497000   0.60398065   -2.2133414   -2.2133414   -1.4888779    0.0295942   -2.2133414   0.72446352   424551 
 4498000   0.60382548   -2.2131767   -2.2131767   -1.4888993  0.031021609   -2.2131767   0.72427739   424551 
 4499000   0.60465335   -2.2139146   -2.2139146   -1.4886442  0.036682138   -2.2139146    0.7252704   424551 
 4500000   0.60451002   -2.2134769   -2.2134769   -1.4883784  0.034479611   -2.2134769   0.72509848   424551 
 4501000   0.60544621    -2.215047    -2.215047   -1.4888256  0.034559015    -2.215047   0.72622143   424551 
 4502000   0.60444382   -2.2134862   -2.2134862   -1.4884671  0.038403885   -2.2134862   0.72501908   424551 
 4503000   0.60469296   -2.2145928   -2.2145928   -1.4892749  0.036541169   -2.2145928   0.72531791   424551 
 4504000   0.60531651   -2.2165658   -2.2165658   -1.4904999  0.040845648   -2.2165658   0.72606585   424551 
 4505000   0.60344726   -2.2145102   -2.2145102   -1.4906865  0.031746851   -2.2145102   0.72382372   424551 
 4506000   0.60384292   -2.2151395   -2.2151395   -1.4908412   0.03240546   -2.2151395   0.72429831   424551 
 4507000   0.60396493   -2.2144463   -2.2144463   -1.4900016  0.041480511   -2.2144463   0.72444465   424551 
 4508000   0.60466822   -2.2154574   -2.2154574   -1.4901692  0.031089726   -2.2154574   0.72528824   424551 
 4509000   0.60391524    -2.214776    -2.214776   -1.4903909  0.035496151    -2.214776   0.72438505   424551 
 4510000   0.60515679   -2.2160966   -2.2160966   -1.4902223   0.04623621   -2.2160966   0.72587428   424551 
 4511000   0.60428177   -2.2153841   -2.2153841   -1.4905594  0.036429962   -2.2153841    0.7248247   424551 
 4512000   0.60391979   -2.2151671   -2.2151671   -1.4907765  0.035160993   -2.2151671   0.72439052   424551 
 4513000   0.60572181   -2.2174896   -2.2174896   -1.4909376  0.035366862   -2.2174896     0.726552   424551 
 4514000   0.60396581   -2.2153958   -2.2153958     -1.49095  0.031445791   -2.2153958   0.72444571   424551 
 4515000   0.60429657   -2.2160186   -2.2160186   -1.4911762  0.039248736   -2.2160186   0.72484246   424551 
 4516000   0.60520471   -2.2168514   -2.2168514   -1.4909196   0.03812296   -2.2168514   0.72593176   424551 
 4517000   0.60547122   -2.2161332   -2.2161332   -1.4898818   0.03593668   -2.2161332   0.72625142   424551 
 4518000   0.60608714     -2.21659     -2.21659   -1.4895997  0.038804007     -2.21659   0.72699022   424551 
 4519000    0.6064144   -2.2169718   -2.2169718   -1.4895891  0.033830954   -2.2169718   0.72738276   424551 
 4520000   0.60577263   -2.2169411   -2.2169411   -1.4903281  0.038456904   -2.2169411   0.72661296   424551 
 4521000   0.60597789   -2.2172603   -2.2172603   -1.4904012  0.037812191   -2.2172603   0.72685917   424551 
 4522000   0.60558872   -2.2165079   -2.2165079   -1.4901156  0.042533179   -2.2165079   0.72639236   424551 
 4523000   0.60457141   -2.2154776   -2.2154776   -1.4903055  0.035961309   -2.2154776   0.72517213   424551 
 4524000   0.60428697   -2.2154786   -2.2154786   -1.4906476  0.032039068   -2.2154786   0.72483095   424551 
 4525000   0.60410921   -2.2152059   -2.2152059   -1.4905882  0.030845327   -2.2152059   0.72461772   424551 
 4526000   0.60414317   -2.2145456   -2.2145456   -1.4898872  0.031704505   -2.2145456   0.72465846   424551 
 4527000    0.6051565   -2.2158676   -2.2158676   -1.4899937   0.04027496   -2.2158676   0.72587393   424551 
 4528000   0.60404687   -2.2151171   -2.2151171   -1.4905742  0.035793517   -2.2151171   0.72454295   424551 
 4529000   0.60524406   -2.2158073   -2.2158073   -1.4898283  0.039831317   -2.2158073   0.72597896   424551 
 4530000    0.6062151   -2.2170436   -2.2170436   -1.4898999  0.035589407   -2.2170436    0.7271437   424551 
 4531000   0.60506745   -2.2160115   -2.2160115   -1.4902444  0.036476375   -2.2160115   0.72576711   424551 
 4532000    0.6050239   -2.2154924   -2.2154924   -1.4897775  0.032909481   -2.2154924   0.72571487   424551 
 4533000   0.60436193   -2.2145148   -2.2145148    -1.489594  0.035094452   -2.2145148   0.72492085   424551 
 4534000   0.60382686   -2.2149096   -2.2149096   -1.4906306   0.03678163   -2.2149096   0.72427905   424551 
 4535000   0.60374245   -2.2145424   -2.2145424   -1.4903646  0.040114911   -2.2145424    0.7241778   424551 
 4536000   0.60480217   -2.2166016   -2.2166016   -1.4911527  0.032384327   -2.2166016   0.72544891   424551 
 4537000   0.60435696   -2.2155703   -2.2155703   -1.4906554  0.037825313   -2.2155703   0.72491489   424551 
 4538000   0.60437346   -2.2151992   -2.2151992   -1.4902646  0.043128573   -2.2151992   0.72493469   424551 
 4539000   0.60484451   -2.2160545   -2.2160545   -1.4905548  0.042618759   -2.2160545    0.7254997   424551 
 4540000   0.60479568   -2.2164602   -2.2164602    -1.491019  0.036468013   -2.2164602   0.72544113   424551 
 4541000    0.6054856   -2.2170842   -2.2170842   -1.4908155  0.033899639   -2.2170842   0.72626868   424551 
 4542000   0.60483444    -2.215893    -2.215893   -1.4904054  0.038246227    -2.215893   0.72548762   424551 
 4543000   0.60512885   -2.2169102   -2.2169102   -1.4910694   0.03379927   -2.2169102   0.72584076   424551 
 4544000   0.60360013   -2.2159303   -2.2159303   -1.4919232  0.040106426   -2.2159303   0.72400709   424551 
 4545000    0.6040659   -2.2167592   -2.2167592   -1.4921934  0.038494231   -2.2167592   0.72456578   424551 
 4546000   0.60415404   -2.2169355   -2.2169355   -1.4922641  0.030392527   -2.2169355   0.72467149   424551 
 4547000   0.60363456   -2.2161314   -2.2161314    -1.492083  0.033997614   -2.2161314   0.72404839   424551 
 4548000   0.60527001   -2.2173055   -2.2173055   -1.4912954  0.042116051   -2.2173055   0.72601008   424551 
 4549000   0.60436385     -2.21628     -2.21628   -1.4913569  0.032888956     -2.21628   0.72492316   424551 
 4550000   0.60560711   -2.2176548   -2.2176548   -1.4912404  0.031733943   -2.2176548   0.72641442   424551 
 4551000   0.60456329   -2.2167088   -2.2167088   -1.4915464  0.039766167   -2.2167088   0.72516238   424551 
 4552000   0.60488139   -2.2173359   -2.2173359   -1.4917919  0.029970226   -2.2173359   0.72554394   424551 
 4553000   0.60532975   -2.2177941   -2.2177941   -1.4917124  0.034987709   -2.2177941   0.72608173   424551 
 4554000   0.60415797   -2.2164253   -2.2164253   -1.4917491  0.033773682   -2.2164253   0.72467621   424551 
 4555000   0.60576226   -2.2178093   -2.2178093   -1.4912087  0.038716756   -2.2178093   0.72660052   424551 
 4556000   0.60502529   -2.2167133   -2.2167133   -1.4909967  0.035627339   -2.2167133   0.72571655   424551 
 4557000   0.60587741     -2.21737     -2.21737   -1.4906314  0.034423475     -2.21737   0.72673865   424551 
 4558000   0.60421183    -2.215769    -2.215769   -1.4910282  0.046177154    -2.215769   0.72474082   424551 
 4559000   0.60494133   -2.2154433   -2.2154433   -1.4898274  0.040522475   -2.2154433   0.72561584   424551 
 4560000   0.60502549   -2.2155603   -2.2155603   -1.4898436  0.036036016   -2.2155603   0.72571678   424551 
 4561000   0.60569258   -2.2160007   -2.2160007   -1.4894837  0.034580409   -2.2160007   0.72651694   424551 
 4562000   0.60545538   -2.2160259   -2.2160259   -1.4897935  0.037088281   -2.2160259   0.72623242   424551 
 4563000   0.60509024    -2.215604    -2.215604   -1.4898096  0.032275211    -2.215604   0.72579445   424551 
 4564000   0.60499118   -2.2155664   -2.2155664   -1.4898908  0.035168033   -2.2155664   0.72567563   424551 
 4565000   0.60479325   -2.2157692   -2.2157692    -1.490331  0.035666193   -2.2157692   0.72543821   424551 
 4566000   0.60398809    -2.214955    -2.214955   -1.4904825  0.032698807    -2.214955   0.72447244   424551 
 4567000   0.60433642   -2.2151275   -2.2151275   -1.4902373  0.028715611   -2.2151275   0.72489026   424551 
 4568000   0.60504986   -2.2149636   -2.2149636   -1.4892176  0.026776001   -2.2149636   0.72574602   424551 
 4569000   0.60393607   -2.2137259   -2.2137259   -1.4893158  0.033556246   -2.2137259   0.72441004   424551 
 4570000   0.60320272    -2.213189    -2.213189   -1.4896586  0.032830838    -2.213189    0.7235304   424551 
 4571000   0.60465041   -2.2145536   -2.2145536   -1.4892867  0.029529433   -2.2145536   0.72526688   424551 
 4572000   0.60461732   -2.2144472   -2.2144472     -1.48922  0.029408402   -2.2144472   0.72522718   424551 
 4573000   0.60463041    -2.214716    -2.214716   -1.4894731  0.028555104    -2.214716    0.7252429   424551 
 4574000   0.60424111   -2.2143926   -2.2143926   -1.4896166  0.032559611   -2.2143926   0.72477594   424551 
 4575000   0.60567077   -2.2161853   -2.2161853   -1.4896945  0.036451984   -2.2161853   0.72649079   424551 
 4576000   0.60457872   -2.2155758   -2.2155758   -1.4903949  0.028263154   -2.2155758   0.72518089   424551 
 4577000    0.6041832   -2.2149767   -2.2149767   -1.4902702  0.043965817   -2.2149767   0.72470647   424551 
 4578000   0.60448667   -2.2160874   -2.2160874    -1.491017  0.039910749   -2.2160874   0.72507047   424551 
 4579000   0.60504704   -2.2162868   -2.2162868   -1.4905442  0.033594662   -2.2162868   0.72574263   424551 
 4580000   0.60471613   -2.2152441   -2.2152441   -1.4898984   0.03263791   -2.2152441   0.72534571   424551 
 4581000   0.60415817   -2.2154838   -2.2154838   -1.4908074  0.027532126   -2.2154838   0.72467645   424551 
 4582000   0.60518766   -2.2159257   -2.2159257   -1.4900144  0.034377808   -2.2159257    0.7259113   424551 
 4583000   0.60462167   -2.2162559   -2.2162559   -1.4910235  0.044264879   -2.2162559    0.7252324   424551 
 4584000   0.60505242    -2.216136    -2.216136   -1.4903869  0.029098566    -2.216136   0.72574908   424551 
 4585000   0.60480165   -2.2164617   -2.2164617   -1.4910134  0.042587522   -2.2164617   0.72544829   424551 
 4586000   0.60589265   -2.2176438   -2.2176438   -1.4908868  0.043949207   -2.2176438   0.72675693   424551 
 4587000   0.60351041    -2.215216    -2.215216   -1.4913166  0.036759368    -2.215216   0.72389947   424551 
 4588000   0.60442604   -2.2164014   -2.2164014   -1.4914037  0.039616962   -2.2164014   0.72499775   424551 
 4589000   0.60381342   -2.2154728   -2.2154728   -1.4912099  0.036834352   -2.2154728   0.72426293   424551 
 4590000   0.60379777   -2.2155866   -2.2155866   -1.4913424  0.033709495   -2.2155866   0.72424415   424551 
 4591000   0.60466769   -2.2165544   -2.2165544   -1.4912668  0.040195885   -2.2165544    0.7252876   424551 
 4592000   0.60405215   -2.2154836   -2.2154836   -1.4909343  0.032164441   -2.2154836   0.72454928   424551 
 4593000   0.60438173   -2.2152637   -2.2152637   -1.4903191  0.037866785   -2.2152637    0.7249446   424551 
 4594000   0.60416537   -2.2149882   -2.2149882   -1.4903031  0.033363248   -2.2149882   0.72468509   424551 
 4595000   0.60465518   -2.2155571   -2.2155571   -1.4902845  0.033373293   -2.2155571    0.7252726   424551 
 4596000   0.60349098   -2.2144872   -2.2144872   -1.4906111  0.036703476   -2.2144872   0.72387616   424551 
 4597000   0.60327298   -2.2149729   -2.2149729   -1.4913583  0.036421702   -2.2149729   0.72361468   424551 
 4598000   0.60328553    -2.214346    -2.214346   -1.4907163   0.04838265    -2.214346   0.72362973   424551 
 4599000   0.60411701    -2.214402    -2.214402   -1.4897749  0.032498914    -2.214402   0.72462707   424551 
 4600000   0.60434226   -2.2149056   -2.2149056   -1.4900083  0.038261592   -2.2149056   0.72489726   424551 
 4601000    0.6046516   -2.2149279   -2.2149279   -1.4896596  0.039917664   -2.2149279   0.72526831   424551 
 4602000   0.60467511   -2.2152312   -2.2152312   -1.4899347  0.033545731   -2.2152312    0.7252965   424551 
 4603000   0.60412781   -2.2146033   -2.2146033   -1.4899633   0.03675622   -2.2146033   0.72464003   424551 
 4604000   0.60471584   -2.2145318   -2.2145318   -1.4891864  0.032783762   -2.2145318   0.72534536   424551 
 4605000   0.60424697   -2.2135815   -2.2135815   -1.4887985   0.04308125   -2.2135815   0.72478296   424551 
 4606000   0.60530832   -2.2145963   -2.2145963   -1.4885402  0.036871462   -2.2145963   0.72605603   424551 
 4607000   0.60480233   -2.2143018   -2.2143018   -1.4888527  0.029927408   -2.2143018   0.72544911   424551 
 4608000   0.60461798   -2.2133532   -2.2133532   -1.4881252  0.036728802   -2.2133532   0.72522798   424551 
 4609000   0.60416268   -2.2141933   -2.2141933   -1.4895115  0.030075177   -2.2141933   0.72468186   424551 
 4610000   0.60318859   -2.2122971   -2.2122971   -1.4887836   0.03335808   -2.2122971   0.72351346   424551 
 4611000   0.60356173   -2.2128361   -2.2128361    -1.488875  0.032458986   -2.2128361   0.72396103   424551 
 4612000   0.60335594   -2.2130619   -2.2130619   -1.4893477  0.031832123   -2.2130619   0.72371418   424551 
 4613000   0.60389615   -2.2141065   -2.2141065   -1.4897443  0.040957522   -2.2141065   0.72436216   424551 
 4614000   0.60430223   -2.2145325   -2.2145325   -1.4896832  0.040640766   -2.2145325   0.72484924   424551 
 4615000   0.60433589   -2.2142529   -2.2142529   -1.4893632    0.0377886   -2.2142529   0.72488962   424551 
 4616000   0.60437586   -2.2140347   -2.2140347   -1.4890972  0.031935818   -2.2140347   0.72493757   424551 
 4617000   0.60493454   -2.2147906   -2.2147906   -1.4891829  0.038636251   -2.2147906   0.72560769   424551 
 4618000    0.6049524   -2.2148271   -2.2148271    -1.489198  0.039416781   -2.2148271   0.72562912   424551 
 4619000   0.60494031   -2.2145537   -2.2145537   -1.4889391  0.045356813   -2.2145537   0.72561461   424551 
 4620000   0.60578506    -2.216291    -2.216291   -1.4896631  0.046677916    -2.216291   0.72662787   424551 
 4621000   0.60543637   -2.2159305   -2.2159305   -1.4897209  0.047896101   -2.2159305   0.72620962   424551 
 4622000   0.60634408   -2.2166689   -2.2166689   -1.4893705  0.033955242   -2.2166689   0.72729841   424551 
 4623000   0.60546822   -2.2152338   -2.2152338    -1.488986  0.036188954   -2.2152338   0.72624783   424551 
 4624000   0.60587062   -2.2157877   -2.2157877   -1.4890572   0.03376122   -2.2157877    0.7267305   424551 
 4625000   0.60404496   -2.2136964   -2.2136964   -1.4891558  0.044497555   -2.2136964   0.72454066   424551 
 4626000   0.60500078    -2.214978    -2.214978   -1.4892909  0.028472939    -2.214978   0.72568715   424551 
 4627000   0.60502095   -2.2152915   -2.2152915   -1.4895802  0.033932244   -2.2152915   0.72571134   424551 
 4628000   0.60455063   -2.2151326   -2.2151326   -1.4899854  0.036727781   -2.2151326    0.7251472   424551 
 4629000    0.6055833   -2.2158505   -2.2158505   -1.4894646  0.034527257   -2.2158505   0.72638586   424551 
 4630000   0.60372766    -2.214278    -2.214278    -1.490118  0.036396698    -2.214278   0.72416006   424551 
 4631000   0.60346272   -2.2139984   -2.2139984   -1.4901561  0.030133816   -2.2139984   0.72384227   424551 
 4632000   0.60524095   -2.2161261   -2.2161261   -1.4901509  0.035729493   -2.2161261   0.72597522   424551 
 4633000   0.60379058   -2.2140471   -2.2140471   -1.4898116   0.03668809   -2.2140471   0.72423553   424551 
 4634000   0.60574883   -2.2158116   -2.2158116   -1.4892271  0.034126178   -2.2158116   0.72658442   424551 
 4635000   0.60355272   -2.2134673   -2.2134673   -1.4895171  0.035637548   -2.2134673   0.72395022   424551 
 4636000   0.60392963   -2.2146066   -2.2146066   -1.4902042  0.029270328   -2.2146066   0.72440231   424551 
 4637000   0.60318122    -2.213923    -2.213923   -1.4904184  0.032456896    -2.213923   0.72350462   424551 
 4638000   0.60404415   -2.2147157   -2.2147157    -1.490176  0.036574674   -2.2147157   0.72453969   424551 
 4639000   0.60262877   -2.2134513   -2.2134513   -1.4906094  0.034991432   -2.2134513   0.72284196   424551 
 4640000   0.60322531   -2.2151991   -2.2151991   -1.4916416   0.02934436   -2.2151991    0.7235575   424551 
 4641000   0.60415678   -2.2159715   -2.2159715   -1.4912967  0.026829974   -2.2159715   0.72467478   424551 
 4642000   0.60305832   -2.2151808   -2.2151808   -1.4918236  0.036502822   -2.2151808    0.7233572   424551 
 4643000   0.60221517   -2.2145939   -2.2145939    -1.492248  0.028185266   -2.2145939   0.72234585   424551 
 4644000   0.60455907   -2.2170991   -2.2170991   -1.4919418  0.046105601   -2.2170991   0.72515732   424551 
 4645000   0.60498175   -2.2168244   -2.2168244   -1.4911601  0.039929868   -2.2168244   0.72566432   424551 
 4646000   0.60570637   -2.2177974   -2.2177974   -1.4912639  0.034150374   -2.2177974   0.72653349   424551 
 4647000   0.60508722   -2.2172321   -2.2172321   -1.4914413   0.04664101   -2.2172321   0.72579083   424551 
 4648000   0.60587805   -2.2178923   -2.2178923   -1.4911529  0.039869522   -2.2178923   0.72673942   424551 
 4649000   0.60559923   -2.2177275   -2.2177275   -1.4913225    0.0394265   -2.2177275   0.72640497   424551 
 4650000   0.60482726   -2.2170631   -2.2170631   -1.4915841  0.036365554   -2.2170631   0.72547901   424551 
 4651000   0.60622414   -2.2183636   -2.2183636   -1.4912091  0.030765354   -2.2183636   0.72715454   424551 
 4652000   0.60598545   -2.2182358   -2.2182358   -1.4913676  0.038353443   -2.2182358   0.72686823   424551 
 4653000   0.60604014   -2.2183195   -2.2183195   -1.4913856  0.036966717   -2.2183195   0.72693384   424551 
 4654000   0.60535086   -2.2179633   -2.2179633   -1.4918563  0.036173371   -2.2179633   0.72610706   424551 
 4655000    0.6048206   -2.2178076   -2.2178076   -1.4923366  0.038770415   -2.2178076   0.72547102   424551 
 4656000   0.60474534    -2.217939    -2.217939   -1.4925583  0.036843613    -2.217939   0.72538075   424551 
 4657000     0.603918   -2.2171299   -2.2171299   -1.4927415  0.036793117   -2.2171299   0.72438837   424551 
 4658000   0.60536795   -2.2185938   -2.2185938   -1.4924662  0.038170483   -2.2185938   0.72612756   424551 
 4659000   0.60429881   -2.2171989   -2.2171989   -1.4923537  0.036060055   -2.2171989   0.72484514   424551 
 4660000   0.60320327   -2.2152117   -2.2152117   -1.4916807  0.041025081   -2.2152117   0.72353107   424551 
 4661000   0.60401747   -2.2163386   -2.2163386   -1.4918309  0.028099584   -2.2163386   0.72450768   424551 
 4662000   0.60361871   -2.2148849   -2.2148849   -1.4908556  0.033333596   -2.2148849   0.72402937   424551 
 4663000   0.60397234   -2.2147657   -2.2147657   -1.4903121    0.0384313   -2.2147657   0.72445354   424551 
 4664000   0.60461908   -2.2154096   -2.2154096   -1.4901803  0.034671879   -2.2154096    0.7252293   424551 
 4665000   0.60424388   -2.2150646   -2.2150646   -1.4902853  0.032952305   -2.2150646   0.72477926   424551 
 4666000   0.60524362   -2.2161703   -2.2161703   -1.4901919  0.032778013   -2.2161703   0.72597842   424551 
 4667000   0.60497158   -2.2157298   -2.2157298   -1.4900777  0.034250034   -2.2157298   0.72565212   424551 
 4668000   0.60367475   -2.2144236   -2.2144236    -1.490327  0.033552718   -2.2144236   0.72409659   424551 
 4669000   0.60481903   -2.2160059   -2.2160059   -1.4905368  0.033825992   -2.2160059   0.72546914   424551 
 4670000    0.6037013   -2.2144647   -2.2144647   -1.4903363  0.029327535   -2.2144647   0.72412844   424551 
 4671000   0.60329693   -2.2133618   -2.2133618   -1.4897184  0.034107136   -2.2133618   0.72364341   424551 
 4672000   0.60391706   -2.2144388   -2.2144388   -1.4900516  0.029182169   -2.2144388   0.72438724   424551 
 4673000    0.6039863   -2.2156621   -2.2156621   -1.4911918  0.037186604   -2.2156621    0.7244703   424551 
 4674000   0.60508396   -2.2172843   -2.2172843   -1.4914974  0.030087232   -2.2172843   0.72578692   424551 
 4675000   0.60438709   -2.2159158   -2.2159158   -1.4909648  0.038986204   -2.2159158   0.72495103   424551 
 4676000   0.60441825   -2.2169455   -2.2169455   -1.4919571  0.037953424   -2.2169455   0.72498841   424551 
 4677000    0.6038605   -2.2160229   -2.2160229   -1.4917035  0.038445701   -2.2160229    0.7243194   424551 
 4678000   0.60530006   -2.2175087   -2.2175087   -1.4914626  0.035495293   -2.2175087   0.72604613   424551 
 4679000     0.603893   -2.2160558   -2.2160558   -1.4916974   0.04594557   -2.2160558   0.72435838   424551 
 4680000   0.60473184   -2.2175392   -2.2175392   -1.4921746  0.033399745   -2.2175392   0.72536456   424551 
 4681000   0.60496792   -2.2183149   -2.2183149   -1.4926671  0.032543317   -2.2183149   0.72564773   424551 
 4682000   0.60413362   -2.2170633   -2.2170633   -1.4924163  0.037272301   -2.2170633     0.724647   424551 
 4683000   0.60477113   -2.2175865   -2.2175865   -1.4921748  0.037129194   -2.2175865   0.72541168   424551 
 4684000   0.60553609   -2.2185084   -2.2185084   -1.4921792  0.034835959   -2.2185084   0.72632924   424551 
 4685000   0.60549387   -2.2187137   -2.2187137   -1.4924352   0.02909595   -2.2187137   0.72627859   424551 
 4686000   0.60522726   -2.2180842   -2.2180842   -1.4921255  0.040698493   -2.2180842    0.7259588   424551 
 4687000   0.60369276    -2.216445    -2.216445   -1.4923268  0.037688281    -2.216445    0.7241182   424551 
 4688000   0.60362498   -2.2154127   -2.2154127   -1.4913758  0.038462978   -2.2154127    0.7240369   424551 
 4689000   0.60509797   -2.2170595   -2.2170595   -1.4912558   0.03358942   -2.2170595   0.72580372   424551 
 4690000   0.60383436   -2.2161812   -2.2161812   -1.4918932  0.034798539   -2.2161812   0.72428805   424551 
 4691000   0.60545807   -2.2182095   -2.2182095   -1.4919739  0.026690864   -2.2182095   0.72623566   424551 
 4692000   0.60501036   -2.2170427   -2.2170427   -1.4913441  0.036003809   -2.2170427   0.72569863   424551 
 4693000   0.60465952   -2.2173515   -2.2173515   -1.4920737  0.039373983   -2.2173515   0.72527781   424551 
 4694000   0.60283766   -2.2150359   -2.2150359   -1.4919434  0.039637385   -2.2150359   0.72309252   424551 
 4695000   0.60272129   -2.2153066   -2.2153066   -1.4923536  0.029315466   -2.2153066   0.72295293   424551 
 4696000   0.60418103   -2.2170229   -2.2170229    -1.492319  0.028014661   -2.2170229   0.72470386   424551 
 4697000   0.60486308   -2.2173722   -2.2173722   -1.4918502  0.035411217   -2.2173722   0.72552198   424551 
 4698000   0.60403728   -2.2169435   -2.2169435    -1.492412  0.035796446   -2.2169435   0.72453144   424551 
 4699000     0.604037   -2.2170674   -2.2170674   -1.4925363  0.034088764   -2.2170674   0.72453111   424551 
 4700000   0.60393479   -2.2173379   -2.2173379   -1.4929294  0.031578587   -2.2173379   0.72440851   424551 
 4701000   0.60315598   -2.2169155   -2.2169155   -1.4934411  0.033728845   -2.2169155   0.72347434   424551 
 4702000   0.60338192   -2.2168831   -2.2168831   -1.4931377  0.038335209   -2.2168831   0.72374535   424551 
 4703000   0.60442582   -2.2173497   -2.2173497   -1.4923522  0.038625923   -2.2173497   0.72499749   424551 
 4704000   0.60461983   -2.2176734   -2.2176734   -1.4924432  0.036762811   -2.2176734    0.7252302   424551 
 4705000   0.60485365   -2.2180646   -2.2180646   -1.4925539  0.036556158   -2.2180646   0.72551067   424551 
 4706000   0.60469794    -2.217937    -2.217937   -1.4926131  0.038256408    -2.217937   0.72532389   424551 
 4707000   0.60498985   -2.2185415   -2.2185415   -1.4928675  0.038001424   -2.2185415   0.72567403   424551 
 4708000   0.60383757    -2.217336    -2.217336   -1.4930441   0.03716839    -2.217336   0.72429189   424551 
 4709000   0.60344287   -2.2166769   -2.2166769   -1.4928584  0.045243882   -2.2166769   0.72381845   424551 
 4710000   0.60513759   -2.2185519   -2.2185519   -1.4927006  0.027800014   -2.2185519   0.72585125   424551 
 4711000   0.60357942   -2.2158628   -2.2158628   -1.4918805  0.038953811   -2.2158628   0.72398225   424551 
 4712000   0.60490301   -2.2186965   -2.2186965   -1.4931266  0.039434986   -2.2186965   0.72556987   424551 
 4713000    0.6037902    -2.217448    -2.217448   -1.4932129  0.025228394    -2.217448   0.72423507   424551 
 4714000   0.60348473   -2.2168254   -2.2168254   -1.4929567  0.025159269   -2.2168254   0.72386867   424551 
 4715000   0.60283624   -2.2167057   -2.2167057   -1.4936149  0.041581525   -2.2167057   0.72309082   424551 
 4716000   0.60419218    -2.218208    -2.218208   -1.4934908  0.038629137    -2.218208   0.72471724   424551 
 4717000   0.60334389   -2.2183108   -2.2183108    -1.494611  0.031216108   -2.2183108   0.72369974   424551 
 4718000   0.60380871   -2.2178424   -2.2178424   -1.4935851  0.036648934   -2.2178424   0.72425727   424551 
 4719000   0.60377124   -2.2177686   -2.2177686   -1.4935563  0.037271889   -2.2177686   0.72421233   424551 
 4720000    0.6026806   -2.2169771   -2.2169771    -1.494073  0.041092761   -2.2169771   0.72290413   424551 
 4721000    0.6038385   -2.2193251   -2.2193251   -1.4950321  0.036013041   -2.2193251   0.72429301   424551 
 4722000   0.60375277   -2.2195187   -2.2195187   -1.4953285  0.035054374   -2.2195187   0.72419018   424551 
 4723000   0.60362837   -2.2194038   -2.2194038   -1.4953628  0.041143093   -2.2194038   0.72404097   424551 
 4724000    0.6052435   -2.2212028   -2.2212028   -1.4952245  0.037882095   -2.2212028   0.72597828   424551 
 4725000   0.60467698   -2.2197812   -2.2197812   -1.4944825  0.037531581   -2.2197812   0.72529875   424551 
 4726000   0.60520296    -2.220456    -2.220456   -1.4945264  0.039923428    -2.220456   0.72592966   424551 
 4727000   0.60442564    -2.219475    -2.219475   -1.4944777  0.038552543    -2.219475   0.72499727   424551 
 4728000   0.60498972   -2.2200371   -2.2200371   -1.4943632  0.041411607   -2.2200371   0.72567388   424551 
 4729000   0.60468196   -2.2199186   -2.2199186   -1.4946139  0.039210536   -2.2199186   0.72530472   424551 
 4730000    0.6043917   -2.2193394   -2.2193394   -1.4943828  0.034170522   -2.2193394   0.72495656   424551 
 4731000   0.60445432   -2.2197987   -2.2197987    -1.494767  0.035347002   -2.2197987   0.72503168   424551 
 4732000   0.60322158   -2.2186771   -2.2186771   -1.4951241  0.037046897   -2.2186771   0.72355302   424551 
 4733000   0.60302459   -2.2178901   -2.2178901   -1.4945733  0.034183039   -2.2178901   0.72331674   424551 
 4734000   0.60362833   -2.2178934   -2.2178934   -1.4938525  0.035673123   -2.2178934   0.72404091   424551 
 4735000   0.60452769   -2.2196243   -2.2196243   -1.4945046  0.035370867   -2.2196243   0.72511968   424551 
 4736000   0.60533128    -2.219825    -2.219825   -1.4937414  0.037263899    -2.219825   0.72608357   424551 
 4737000   0.60520781   -2.2190104   -2.2190104   -1.4930749  0.044722776   -2.2190104   0.72593547   424551 
 4738000   0.60377377   -2.2179044   -2.2179044    -1.493689  0.033197713   -2.2179044   0.72421537   424551 
 4739000    0.6044761   -2.2193326   -2.2193326   -1.4942748  0.026014042   -2.2193326    0.7250578   424551 
 4740000   0.60463737    -2.219204    -2.219204   -1.4939528  0.032964159    -2.219204   0.72525124   424551 
 4741000   0.60386221   -2.2183182   -2.2183182   -1.4939967  0.040506378   -2.2183182   0.72432145   424551 
 4742000   0.60314573   -2.2173225   -2.2173225   -1.4938604  0.030892948   -2.2173225   0.72346204   424551 
 4743000   0.60305422   -2.2174196   -2.2174196   -1.4940673  0.039572985   -2.2174196   0.72335228   424551 
 4744000   0.60381387   -2.2175685   -2.2175685    -1.493305  0.031352868   -2.2175685   0.72426346   424551 
 4745000   0.60425487   -2.2183632   -2.2183632   -1.4935708  0.034073614   -2.2183632   0.72479244   424551 
 4746000   0.60441845   -2.2182177   -2.2182177    -1.493229  0.046134882   -2.2182177   0.72498865   424551 
 4747000   0.60404275   -2.2179707   -2.2179707   -1.4934326  0.037497636   -2.2179707   0.72453801   424551 
 4748000    0.6047632   -2.2191661   -2.2191661   -1.4937639   0.03673212   -2.2191661   0.72540216   424551 
 4749000   0.60435558   -2.2187837   -2.2187837   -1.4938705  0.040909953   -2.2187837   0.72491324   424551 
 4750000   0.60521201    -2.220208    -2.220208   -1.4942675  0.029197716    -2.220208   0.72594051   424551 
 4751000   0.60370917   -2.2183872   -2.2183872   -1.4942494  0.039525065   -2.2183872   0.72413788   424551 
 4752000   0.60415739   -2.2195907   -2.2195907   -1.4949152  0.044799082   -2.2195907   0.72467551   424551 
 4753000   0.60330024   -2.2191159   -2.2191159   -1.4954685  0.033990033   -2.2191159   0.72364738   424551 
 4754000   0.60338927   -2.2187582   -2.2187582    -1.495004   0.03497438   -2.2187582   0.72375417   424551 
 4755000   0.60508125   -2.2205219   -2.2205219   -1.4947382  0.033699874   -2.2205219   0.72578367   424551 
 4756000   0.60383753    -2.219975    -2.219975   -1.4956831  0.031646431    -2.219975   0.72429184   424551 
 4757000   0.60406367   -2.2201503   -2.2201503   -1.4955872  0.027705354   -2.2201503   0.72456309   424551 
 4758000   0.60399531   -2.2194898   -2.2194898   -1.4950087  0.037559726   -2.2194898    0.7244811   424551 
 4759000   0.60454421   -2.2203895   -2.2203895     -1.49525  0.034926413   -2.2203895    0.7251395   424551 
 4760000    0.6046403   -2.2208929   -2.2208929   -1.4956381  0.038806397   -2.2208929   0.72525475   424551 
 4761000   0.60471502   -2.2201429   -2.2201429   -1.4947985  0.033827482   -2.2201429   0.72534438   424551 
 4762000   0.60465101   -2.2206996   -2.2206996    -1.495432  0.042742921   -2.2206996    0.7252676   424551 
 4763000   0.60512161   -2.2205967   -2.2205967   -1.4947646  0.045287376   -2.2205967   0.72583208   424551 
 4764000   0.60487554   -2.2207024   -2.2207024   -1.4951655   0.04124288   -2.2207024   0.72553693   424551 
 4765000   0.60514769   -2.2208039   -2.2208039   -1.4949405  0.037805996   -2.2208039   0.72586336   424551 
 4766000   0.60602678   -2.2215052   -2.2215052   -1.4945874  0.031144165   -2.2215052   0.72691781   424551 
 4767000   0.60561165    -2.220842    -2.220842   -1.4944221  0.039604898    -2.220842   0.72641987   424551 
 4768000   0.60432572   -2.2195918   -2.2195918   -1.4947144   0.03598424   -2.2195918   0.72487742   424551 
 4769000   0.60375776   -2.2194802   -2.2194802    -1.495284  0.032162719   -2.2194802   0.72419616   424551 
 4770000    0.6037099    -2.219567    -2.219567   -1.4954283  0.034954843    -2.219567   0.72413875   424551 
 4771000   0.60359766   -2.2200865   -2.2200865   -1.4960824  0.040490297   -2.2200865   0.72400413   424551 
 4772000   0.60397099   -2.2195762   -2.2195762   -1.4951243  0.032133242   -2.2195762   0.72445193   424551 
 4773000   0.60470982   -2.2208075   -2.2208075   -1.4954694  0.030158901   -2.2208075   0.72533814   424551 
 4774000   0.60474704   -2.2209121   -2.2209121   -1.4955293  0.038668709   -2.2209121   0.72538278   424551 
 4775000   0.60382983   -2.2201501   -2.2201501   -1.4958675  0.033313962   -2.2201501   0.72428261   424551 
 4776000   0.60432122   -2.2198696   -2.2198696   -1.4949976  0.033781806   -2.2198696   0.72487203   424551 
 4777000     0.604437   -2.2193798   -2.2193798   -1.4943689  0.036076145   -2.2193798    0.7250109   424551 
 4778000   0.60405653   -2.2205416   -2.2205416   -1.4959871  0.032042261   -2.2205416   0.72455454   424551 
 4779000    0.6041254   -2.2203789   -2.2203789   -1.4957418  0.031666478   -2.2203789   0.72463714   424551 
 4780000   0.60536975   -2.2213539   -2.2213539   -1.4952242  0.037085287   -2.2213539   0.72612972   424551 
 4781000    0.6045747   -2.2204043   -2.2204043   -1.4952283  0.045886047   -2.2204043   0.72517606   424551 
 4782000   0.60462137   -2.2207313   -2.2207313   -1.4954992  0.031980367   -2.2207313   0.72523205   424551 
 4783000   0.60479643   -2.2214663   -2.2214663   -1.4960242  0.031386295   -2.2214663   0.72544203   424551 
 4784000   0.60473007   -2.2207919   -2.2207919   -1.4954294  0.042510233   -2.2207919   0.72536243   424551 
 4785000   0.60337686   -2.2201403   -2.2201403    -1.496401  0.031130479   -2.2201403   0.72373928   424551 
 4786000   0.60493322   -2.2211221   -2.2211221    -1.495516  0.034934767   -2.2211221    0.7256061   424551 
 4787000   0.60398304   -2.2201013   -2.2201013   -1.4956349  0.034991916   -2.2201013   0.72446638   424551 
 4788000   0.60461789   -2.2214161   -2.2214161   -1.4961882  0.035479661   -2.2214161   0.72522787   424551 
 4789000   0.60540532   -2.2224859   -2.2224859   -1.4963135  0.035314039   -2.2224859   0.72617239   424551 
 4790000   0.60415493   -2.2205679   -2.2205679   -1.4958954  0.032474623   -2.2205679   0.72467256   424551 
 4791000   0.60440517   -2.2207791   -2.2207791   -1.4958064  0.033309592   -2.2207791   0.72497272   424551 
 4792000   0.60461794   -2.2213431   -2.2213431   -1.4961151   0.03907291   -2.2213431   0.72522793   424551 
 4793000   0.60394866   -2.2206236   -2.2206236   -1.4961985  0.034704899   -2.2206236   0.72442515   424551 
 4794000   0.60501816   -2.2213774   -2.2213774   -1.4956694  0.035540124   -2.2213774   0.72570799   424551 
 4795000   0.60425099   -2.2206383   -2.2206383   -1.4958505  0.040412261   -2.2206383   0.72478779   424551 
 4796000   0.60456426   -2.2203758   -2.2203758   -1.4952123  0.037597861   -2.2203758   0.72516354   424551 
 4797000    0.6056402   -2.2206419   -2.2206419   -1.4941878  0.030271493   -2.2206419   0.72645412   424551 
 4798000   0.60497736   -2.2204586   -2.2204586   -1.4947995  0.035892948   -2.2204586   0.72565905   424551 
 4799000    0.6041237   -2.2199719   -2.2199719   -1.4953368  0.028076065   -2.2199719    0.7246351   424551 
 4800000   0.60334227   -2.2194088   -2.2194088    -1.495711  0.036099613   -2.2194088   0.72369779   424551 
 4801000   0.60387234   -2.2198761   -2.2198761   -1.4955425  0.032749255   -2.2198761   0.72433359   424551 
 4802000   0.60280142   -2.2184909   -2.2184909   -1.4954418   0.03215799   -2.2184909   0.72304905   424551 
 4803000   0.60301054    -2.218681    -2.218681   -1.4953811  0.028792829    -2.218681   0.72329989   424551 
 4804000   0.60280669    -2.218201    -2.218201   -1.4951457  0.035923075    -2.218201   0.72305537   424551 
 4805000   0.60356959   -2.2192581   -2.2192581   -1.4952876  0.038652988   -2.2192581   0.72397046   424551 
 4806000   0.60392857   -2.2195608   -2.2195608   -1.4951598  0.034101583   -2.2195608   0.72440105   424551 
 4807000    0.6047575   -2.2205607   -2.2205607   -1.4951653  0.039762612   -2.2205607   0.72539533   424551 
 4808000   0.60516964   -2.2201338   -2.2201338   -1.4942442  0.032945325   -2.2201338   0.72588969   424551 
 4809000   0.60433821   -2.2198088   -2.2198088   -1.4949164   0.03598585   -2.2198088    0.7248924   424551 
 4810000   0.60401029   -2.2193073   -2.2193073   -1.4948082  0.035340389   -2.2193073   0.72449907   424551 
 4811000   0.60484584   -2.2205245   -2.2205245   -1.4950232  0.033547298   -2.2205245    0.7255013   424551 
 4812000   0.60417436   -2.2199648   -2.2199648   -1.4952689  0.033153184   -2.2199648   0.72469587   424551 
 4813000   0.60516152   -2.2211701   -2.2211701   -1.4952902  0.041090541   -2.2211701   0.72587995   424551 
 4814000   0.60537651   -2.2213325   -2.2213325   -1.4951947   0.03912338   -2.2213325   0.72613782   424551 
 4815000   0.60599787   -2.2220564   -2.2220564   -1.4951733  0.036567029   -2.2220564   0.72688314   424551 
 4816000    0.6037649   -2.2200024   -2.2200024   -1.4957976  0.029253664   -2.2200024   0.72420473   424551 
 4817000   0.60569969    -2.222584    -2.222584   -1.4960585  0.027470976    -2.222584   0.72652547   424551 
 4818000   0.60485812   -2.2224613   -2.2224613   -1.4969453  0.035024236   -2.2224613   0.72551602   424551 
 4819000   0.60484998   -2.2223998   -2.2223998   -1.4968935  0.033303544   -2.2223998   0.72550627   424551 
 4820000   0.60456748   -2.2222927   -2.2222927   -1.4971253  0.040017848   -2.2222927   0.72516741   424551 
 4821000   0.60408896   -2.2224687   -2.2224687   -1.4978753  0.038171809   -2.2224687   0.72459343   424551 
 4822000   0.60480928   -2.2230129   -2.2230129   -1.4975555  0.038441192   -2.2230129   0.72545744   424551 
 4823000    0.6047194    -2.223046    -2.223046   -1.4976964  0.035875302    -2.223046   0.72534963   424551 
 4824000   0.60505271   -2.2242625   -2.2242625    -1.498513  0.038749144   -2.2242625   0.72574943   424551 
 4825000   0.60535135   -2.2238892   -2.2238892   -1.4977815  0.039518819   -2.2238892   0.72610765   424551 
 4826000   0.60473441   -2.2233352   -2.2233352   -1.4979676   0.04643681   -2.2233352   0.72536764   424551 
 4827000   0.60446504   -2.2228575   -2.2228575    -1.497813  0.048254585   -2.2228575   0.72504453   424551 
 4828000   0.60331718   -2.2220696   -2.2220696   -1.4984019   0.03670123   -2.2220696   0.72366769   424551 
 4829000   0.60503384   -2.2236993   -2.2236993   -1.4979725   0.03410213   -2.2236993    0.7257268   424551 
 4830000   0.60346703   -2.2226566   -2.2226566   -1.4988091  0.035002434   -2.2226566   0.72384744   424551 
 4831000   0.60411204   -2.2238131   -2.2238131    -1.499192  0.035261105   -2.2238131   0.72462111   424551 
 4832000   0.60430019   -2.2233064   -2.2233064   -1.4984596  0.036019307   -2.2233064    0.7248468   424551 
 4833000   0.60367957   -2.2223136   -2.2223136   -1.4982112  0.037434671   -2.2223136   0.72410237   424551 
 4834000   0.60380791   -2.2224782   -2.2224782   -1.4982219  0.037055634   -2.2224782   0.72425632   424551 
 4835000   0.60385096   -2.2226502   -2.2226502   -1.4983422  0.035213059   -2.2226502   0.72430796   424551 
 4836000   0.60327516   -2.2223959   -2.2223959   -1.4987786  0.031079327   -2.2223959    0.7236173   424551 
 4837000   0.60378093   -2.2227796   -2.2227796   -1.4985556  0.041459203   -2.2227796   0.72422395   424551 
 4838000   0.60459752   -2.2236365   -2.2236365   -1.4984331  0.033776893   -2.2236365   0.72520344   424551 
 4839000   0.60444368   -2.2233867   -2.2233867   -1.4983678  0.030419393   -2.2233867   0.72501892   424551 
 4840000   0.60472489   -2.2231774   -2.2231774   -1.4978212  0.035929843   -2.2231774   0.72535621   424551 
 4841000   0.60435394   -2.2230306   -2.2230306   -1.4981193  0.042189654   -2.2230306   0.72491127   424551 
 4842000   0.60554538    -2.224096    -2.224096   -1.4977557  0.039455568    -2.224096   0.72634038   424551 
 4843000   0.60554883   -2.2243838   -2.2243838   -1.4980393  0.033607715   -2.2243838   0.72634451   424551 
 4844000    0.6053248   -2.2231471   -2.2231471   -1.4970713  0.035021368   -2.2231471    0.7260758   424551 
 4845000   0.60505844    -2.222894    -2.222894   -1.4971377  0.030228899    -2.222894   0.72575631   424551 
 4846000   0.60539347   -2.2227563   -2.2227563   -1.4965981   0.03282932   -2.2227563   0.72615817   424551 
 4847000   0.60463988   -2.2218511   -2.2218511   -1.4965969  0.048829879   -2.2218511   0.72525425   424551 
 4848000   0.60491366   -2.2215925   -2.2215925   -1.4960099  0.035268527   -2.2215925   0.72558264   424551 
 4849000   0.60442024   -2.2210521   -2.2210521   -1.4960613  0.037688199   -2.2210521    0.7249908   424551 
 4850000   0.60410415   -2.2209822   -2.2209822   -1.4963706  0.035327504   -2.2209822   0.72461165   424551 
 4851000   0.60365551   -2.2211929   -2.2211929   -1.4971194  0.034883973   -2.2211929   0.72407352   424551 
 4852000   0.60318952   -2.2194425   -2.2194425   -1.4959279  0.032284977   -2.2194425   0.72351457   424551 
 4853000   0.60307959    -2.218101    -2.218101   -1.4947183  0.031959339    -2.218101   0.72338272   424551 
 4854000   0.60282152   -2.2174294   -2.2174294   -1.4943563  0.028133566   -2.2174294   0.72307317   424551 
 4855000    0.6036087   -2.2177409   -2.2177409   -1.4937236  0.037379335   -2.2177409   0.72401737   424551 
 4856000   0.60442892   -2.2189831   -2.2189831   -1.4939819  0.031853247   -2.2189831   0.72500121   424551 
 4857000   0.60418249   -2.2190604   -2.2190604   -1.4943548  0.035950153   -2.2190604   0.72470562   424551 
 4858000   0.60420351   -2.2187676   -2.2187676   -1.4940368  0.034504339   -2.2187676   0.72473083   424551 
 4859000   0.60465929   -2.2199434   -2.2199434   -1.4946659  0.032708095   -2.2199434   0.72527754   424551 
 4860000   0.60540021   -2.2203856   -2.2203856   -1.4942193   0.03945464   -2.2203856   0.72616625   424551 
 4861000   0.60461129   -2.2197306   -2.2197306   -1.4945107  0.039721612   -2.2197306   0.72521995   424551 
 4862000   0.60403264   -2.2188124   -2.2188124   -1.4942865  0.034621402   -2.2188124   0.72452587   424551 
 4863000    0.6022832   -2.2182289   -2.2182289   -1.4958014   0.03233294   -2.2182289   0.72242746   424551 
 4864000   0.60337316   -2.2201652   -2.2201652   -1.4964303  0.035348326   -2.2201652   0.72373485   424551 
 4865000   0.60316282   -2.2200713   -2.2200713   -1.4965887  0.029040369   -2.2200713   0.72348255   424551 
 4866000   0.60282429   -2.2185774   -2.2185774   -1.4955009  0.040946089   -2.2185774   0.72307648   424551 
 4867000   0.60411924    -2.219911    -2.219911   -1.4952812  0.034553699    -2.219911   0.72462975   424551 
 4868000    0.6042037   -2.2209405   -2.2209405   -1.4962094  0.039513675   -2.2209405   0.72473107   424551 
 4869000   0.60302016   -2.2196486   -2.2196486   -1.4963371  0.034979179   -2.2196486   0.72331142   424551 
 4870000   0.60356273   -2.2200204   -2.2200204   -1.4960582  0.038671445   -2.2200204   0.72396223   424551 
 4871000    0.6044056    -2.220949    -2.220949   -1.4959757  0.028771237    -2.220949   0.72497324   424551 
 4872000   0.60397061   -2.2200537   -2.2200537   -1.4956022  0.033765197   -2.2200537   0.72445148   424551 
 4873000   0.60345715   -2.2189294   -2.2189294   -1.4950938  0.047725778   -2.2189294   0.72383558   424551 
 4874000   0.60435406   -2.2197708   -2.2197708   -1.4948593  0.028317301   -2.2197708   0.72491142   424551 
 4875000   0.60497978   -2.2211211   -2.2211211   -1.4954592  0.033553519   -2.2211211   0.72566196   424551 
 4876000   0.60470539   -2.2204991   -2.2204991   -1.4951662  0.037080313   -2.2204991   0.72533283   424551 
 4877000   0.60572658   -2.2210075   -2.2210075   -1.4944498  0.037977267   -2.2210075   0.72655773   424551 
 4878000   0.60444833   -2.2206052   -2.2206052   -1.4955807  0.040329895   -2.2206052   0.72502449   424551 
 4879000   0.60441925   -2.2203102   -2.2203102   -1.4953206  0.033389869   -2.2203102   0.72498961   424551 
 4880000   0.60346985   -2.2198339   -2.2198339   -1.4959831    0.0318362   -2.2198339   0.72385082   424551 
 4881000   0.60388016   -2.2206608   -2.2206608   -1.4963178  0.035504292   -2.2206608   0.72434298   424551 
 4882000   0.60541002   -2.2212964   -2.2212964   -1.4951183  0.041633296   -2.2212964   0.72617802   424551 
 4883000   0.60538961    -2.221091    -2.221091   -1.4949375   0.03167678    -2.221091   0.72615354   424551 
 4884000   0.60618651   -2.2224105   -2.2224105   -1.4953011  0.037790481   -2.2224105   0.72710941   424551 
 4885000   0.60594538   -2.2218825   -2.2218825   -1.4950623  0.038218915   -2.2218825   0.72682018   424551 
 4886000   0.60515911   -2.2209429   -2.2209429   -1.4950658  0.036328308   -2.2209429   0.72587706   424551 
 4887000   0.60470131   -2.2205829   -2.2205829    -1.495255  0.043151252   -2.2205829   0.72532793   424551 
 4888000   0.60558861    -2.221928    -2.221928   -1.4955357  0.038777646    -2.221928   0.72639224   424551 
 4889000   0.60473325   -2.2211045   -2.2211045   -1.4957382  0.036773169   -2.2211045   0.72536625   424551 
 4890000   0.60379393   -2.2196617   -2.2196617   -1.4954221  0.027319298   -2.2196617   0.72423954   424551 
 4891000   0.60305727    -2.218975    -2.218975   -1.4956191  0.033116284    -2.218975   0.72335594   424551 
 4892000   0.60452735   -2.2207403   -2.2207403   -1.4956211  0.041163507   -2.2207403   0.72511927   424551 
 4893000   0.60340746   -2.2190327   -2.2190327   -1.4952567  0.037315655   -2.2190327   0.72377599   424551 
 4894000   0.60481577   -2.2206426   -2.2206426   -1.4951774  0.030391518   -2.2206426   0.72546523   424551 
 4895000   0.60422137   -2.2196634   -2.2196634   -1.4949112   0.03790161   -2.2196634   0.72475225   424551 
 4896000    0.6060787   -2.2219364   -2.2219364   -1.4949564  0.035401667   -2.2219364   0.72698009   424551 
 4897000   0.60499644   -2.2202259   -2.2202259    -1.494544  0.041642078   -2.2202259   0.72568194   424551 
 4898000   0.60511252   -2.2203404   -2.2203404   -1.4945192  0.037325753   -2.2203404   0.72582117   424551 
 4899000   0.60448653     -2.22026     -2.22026   -1.4951897  0.029954472     -2.22026   0.72507031   424551 
 4900000   0.60322597   -2.2190544   -2.2190544   -1.4954961  0.040889588   -2.2190544    0.7235583   424551 
 4901000   0.60309137   -2.2194285   -2.2194285   -1.4960317  0.031341493   -2.2194285   0.72339684   424551 
 4902000   0.60461313   -2.2207245   -2.2207245   -1.4955023  0.040857568   -2.2207245   0.72522216   424551 
 4903000   0.60469826   -2.2209526   -2.2209526   -1.4956283  0.030118406   -2.2209526   0.72532428   424551 
 4904000   0.60386813   -2.2198064   -2.2198064   -1.4954778  0.036439265   -2.2198064   0.72432855   424551 
 4905000   0.60430085   -2.2205689   -2.2205689   -1.4957213  0.037559549   -2.2205689   0.72484759   424551 
 4906000   0.60439807   -2.2206819   -2.2206819   -1.4957177  0.038175287   -2.2206819    0.7249642   424551 
 4907000   0.60436887   -2.2205438   -2.2205438   -1.4956146  0.033253683   -2.2205438   0.72492918   424551 
 4908000   0.60397446   -2.2202596   -2.2202596   -1.4958035  0.037213067   -2.2202596    0.7244561   424551 
 4909000   0.60540702   -2.2213955   -2.2213955    -1.495221  0.038006584   -2.2213955   0.72617442   424551 
 4910000   0.60583903   -2.2215937   -2.2215937   -1.4949011  0.033954041   -2.2215937   0.72669261   424551 
 4911000   0.60463141   -2.2197144   -2.2197144   -1.4944703  0.035926676   -2.2197144   0.72524409   424551 
 4912000   0.60561416   -2.2212662   -2.2212662   -1.4948433  0.033775761   -2.2212662   0.72642288   424551 
 4913000    0.6050364   -2.2202328   -2.2202328   -1.4945029  0.037444589   -2.2202328   0.72572987   424551 
 4914000   0.60589254   -2.2210708   -2.2210708    -1.494314  0.036310891   -2.2210708    0.7267568   424551 
 4915000   0.60502724   -2.2196636   -2.2196636   -1.4939447  0.040236736   -2.2196636   0.72571888   424551 
 4916000   0.60461358   -2.2200292   -2.2200292   -1.4948065  0.043820297   -2.2200292    0.7252227   424551 
 4917000     0.604175   -2.2197485   -2.2197485   -1.4950518  0.036448379   -2.2197485   0.72469663   424551 
 4918000   0.60393851   -2.2190343   -2.2190343   -1.4946213  0.035759711   -2.2190343   0.72441297   424551 
 4919000   0.60441007   -2.2202015   -2.2202015   -1.4952229  0.030763717   -2.2202015    0.7249786   424551 
 4920000    0.6048361   -2.2202967   -2.2202967   -1.4948071  0.031410773   -2.2202967   0.72548961   424551 
 4921000   0.60402339   -2.2190483   -2.2190483   -1.4945335  0.032873549   -2.2190483   0.72451478   424551 
 4922000   0.60422493   -2.2185696   -2.2185696   -1.4938131  0.037122776   -2.2185696   0.72475652   424551 
 4923000   0.60421408   -2.2187088   -2.2187088   -1.4939653  0.031375752   -2.2187088   0.72474352   424551 
 4924000   0.60366329   -2.2176469   -2.2176469    -1.493564   0.04196638   -2.2176469   0.72408285   424551 
 4925000   0.60381643   -2.2187525   -2.2187525   -1.4944859  0.032047846   -2.2187525   0.72426654   424551 
 4926000   0.60430554   -2.2198475   -2.2198475   -1.4949943  0.034164571   -2.2198475   0.72485322   424551 
 4927000   0.60457897   -2.2190736   -2.2190736   -1.4938924  0.037353835   -2.2190736   0.72518119   424551 
 4928000   0.60441699   -2.2183641   -2.2183641   -1.4933772  0.034393013   -2.2183641    0.7249869   424551 
 4929000   0.60470675   -2.2184165   -2.2184165   -1.4930821   0.04156775   -2.2184165   0.72533446   424551 
 4930000   0.60390567   -2.2183939   -2.2183939   -1.4940203  0.043135882   -2.2183939   0.72437357   424551 
 4931000   0.60516753   -2.2205036   -2.2205036   -1.4946165  0.040598862   -2.2205036   0.72588715   424551 
 4932000   0.60390952   -2.2194599   -2.2194599   -1.4950817  0.034805159   -2.2194599   0.72437819   424551 
 4933000   0.60393912   -2.2187323   -2.2187323   -1.4943186  0.035452922   -2.2187323    0.7244137   424551 
 4934000     0.603781   -2.2189409   -2.2189409   -1.4947169  0.027928785   -2.2189409   0.72422404   424551 
 4935000   0.60425675   -2.2193886   -2.2193886   -1.4945939  0.034807315   -2.2193886    0.7247947   424551 
 4936000   0.60330393    -2.218812    -2.218812   -1.4951602  0.031379965    -2.218812    0.7236518   424551 
 4937000    0.6037151   -2.2204655   -2.2204655   -1.4963205  0.036786641   -2.2204655     0.724145   424551 
 4938000   0.60407969    -2.220553    -2.220553   -1.4959707  0.037995897    -2.220553   0.72458231   424551 
 4939000   0.60430102   -2.2210024   -2.2210024   -1.4961546  0.039284661   -2.2210024   0.72484779   424551 
 4940000   0.60257952    -2.219231    -2.219231   -1.4964481  0.038604125    -2.219231   0.72278289   424551 
 4941000   0.60319971   -2.2207529   -2.2207529   -1.4972261  0.036007019   -2.2207529    0.7235268   424551 
 4942000   0.60375398   -2.2211471   -2.2211471   -1.4969554   0.03468957   -2.2211471   0.72419163   424551 
 4943000   0.60429935   -2.2216414   -2.2216414   -1.4967956  0.038767932   -2.2216414   0.72484579   424551 
 4944000   0.60361785   -2.2210617   -2.2210617   -1.4970333  0.038020935   -2.2210617   0.72402835   424551 
 4945000    0.6046269   -2.2226858   -2.2226858   -1.4974471  0.035901649   -2.2226858   0.72523868   424551 
 4946000   0.60601756   -2.2228291   -2.2228291   -1.4959224  0.034690928   -2.2228291   0.72690675   424551 
 4947000   0.60359776   -2.2198171   -2.2198171   -1.4958129  0.037189859   -2.2198171   0.72400424   424551 
 4948000   0.60491266   -2.2213733   -2.2213733   -1.4957918  0.036188572   -2.2213733   0.72558144   424551 
 4949000   0.60509614   -2.2216428   -2.2216428   -1.4958412  0.039950266   -2.2216428   0.72580152   424551 
 4950000   0.60600776   -2.2231945   -2.2231945   -1.4962995  0.036035766   -2.2231945   0.72689499   424551 
 4951000   0.60409665   -2.2216963   -2.2216963   -1.4970936  0.031297547   -2.2216963   0.72460266   424551 
 4952000   0.60404266    -2.222112    -2.222112   -1.4975741  0.038070823    -2.222112   0.72453789   424551 
 4953000   0.60348834    -2.221356    -2.221356    -1.497483   0.03981127    -2.221356     0.723873   424551 
 4954000   0.60327034   -2.2216833   -2.2216833   -1.4980718  0.034790108   -2.2216833   0.72361151   424551 
 4955000   0.60434434   -2.2222354   -2.2222354   -1.4973357   0.02995443   -2.2222354   0.72489975   424551 
 4956000   0.60412614   -2.2215303   -2.2215303   -1.4968923  0.039163359   -2.2215303   0.72463803   424551 
 4957000   0.60501854   -2.2233304   -2.2233304    -1.497622  0.035079311   -2.2233304   0.72570844   424551 
 4958000    0.6038915   -2.2221127   -2.2221127   -1.4977561  0.035166111   -2.2221127   0.72435658   424551 
 4959000   0.60439628   -2.2217762   -2.2217762   -1.4968141  0.036724594   -2.2217762   0.72496206   424551 
 4960000   0.60492202   -2.2219572   -2.2219572   -1.4963645  0.041323688   -2.2219572   0.72559268   424551 
 4961000   0.60488761   -2.2222336   -2.2222336   -1.4966822   0.04175631   -2.2222336    0.7255514   424551 
 4962000   0.60415912   -2.2210073   -2.2210073   -1.4963297  0.034959173   -2.2210073   0.72467758   424551 
 4963000   0.60425101   -2.2212276   -2.2212276   -1.4964398  0.040415292   -2.2212276   0.72478781   424551 
 4964000   0.60352297   -2.2203739   -2.2203739   -1.4964593  0.033609552   -2.2203739   0.72391454   424551 
 4965000   0.60441097   -2.2208018   -2.2208018   -1.4958221  0.032418766   -2.2208018   0.72497967   424551 
 4966000    0.6045352   -2.2210588   -2.2210588   -1.4959301  0.033420718   -2.2210588   0.72512869   424551 
 4967000   0.60517371   -2.2215878   -2.2215878   -1.4956932  0.029199221   -2.2215878   0.72589457   424551 
 4968000   0.60440848   -2.2206987   -2.2206987    -1.495722  0.037719639   -2.2206987    0.7249767   424551 
 4969000   0.60430033   -2.2207258   -2.2207258   -1.4958789   0.03925673   -2.2207258   0.72484697   424551 
 4970000   0.60443065   -2.2213423   -2.2213423    -1.496339  0.037589676   -2.2213423   0.72500328   424551 
 4971000   0.60489584   -2.2212171   -2.2212171   -1.4956558  0.033758577   -2.2212171   0.72556127   424551 
 4972000   0.60413288   -2.2203084   -2.2203084   -1.4956623   0.03644871   -2.2203084   0.72464611   424551 
 4973000    0.6040769    -2.220528    -2.220528   -1.4959491  0.035336622    -2.220528   0.72457897   424551 
 4974000   0.60462557   -2.2212691   -2.2212691    -1.496032  0.034955896   -2.2212691   0.72523709   424551 
 4975000   0.60374396   -2.2200116   -2.2200116    -1.495832  0.037103646   -2.2200116   0.72417962   424551 
 4976000    0.6052219   -2.2210754   -2.2210754    -1.495123  0.032703776   -2.2210754   0.72595237   424551 
 4977000   0.60429928   -2.2206503   -2.2206503   -1.4958046    0.0406402   -2.2206503    0.7248457   424551 
 4978000   0.60560539   -2.2219611   -2.2219611   -1.4955488  0.037367612   -2.2219611   0.72641236   424551 
 4979000   0.60377144   -2.2207736   -2.2207736    -1.496561  0.040633616   -2.2207736   0.72421257   424551 
 4980000    0.6035149   -2.2208725   -2.2208725   -1.4969676  0.031586952   -2.2208725   0.72390486   424551 
 4981000   0.60372942   -2.2209755   -2.2209755   -1.4968133  0.035209473   -2.2209755   0.72416218   424551 
 4982000   0.60426858   -2.2213437   -2.2213437   -1.4965349   0.03755512   -2.2213437   0.72480888   424551 
 4983000   0.60303823   -2.2201998   -2.2201998   -1.4968667  0.030168109   -2.2201998    0.7233331   424551 
 4984000   0.60468046   -2.2208922   -2.2208922   -1.4955892  0.028682366   -2.2208922   0.72530293   424551 
 4985000   0.60536734   -2.2212227   -2.2212227   -1.4950958  0.035023931   -2.2212227   0.72612682   424551 
 4986000    0.6055877   -2.2223682   -2.2223682   -1.4959771  0.038564459   -2.2223682   0.72639114   424551 
 4987000   0.60540671   -2.2215101   -2.2215101   -1.4953361  0.032319894   -2.2215101   0.72617405   424551 
 4988000   0.60587976   -2.2217087   -2.2217087   -1.4949672  0.037723104   -2.2217087   0.72674146   424551 
 4989000   0.60540692   -2.2215844   -2.2215844   -1.4954101   0.04193247   -2.2215844    0.7261743   424551 
 4990000   0.60466053   -2.2206221   -2.2206221   -1.4953431   0.04262581   -2.2206221   0.72527902   424551 
 4991000   0.60509313   -2.2204167   -2.2204167   -1.4946187   0.03958225   -2.2204167   0.72579792   424551 
 4992000   0.60465391   -2.2206657   -2.2206657   -1.4953946  0.035942601   -2.2206657   0.72527108   424551 
 4993000   0.60476995   -2.2211785   -2.2211785   -1.4957682  0.032157838   -2.2211785   0.72541026   424551 
 4994000   0.60388364   -2.2210868   -2.2210868   -1.4967397   0.03813265   -2.2210868   0.72434715   424551 
 4995000    0.6040121   -2.2205002   -2.2205002   -1.4959989  0.039898594   -2.2205002   0.72450125   424551 
 4996000    0.6048025   -2.2214962   -2.2214962   -1.4960469  0.037451653   -2.2214962   0.72544931   424551 
 4997000    0.6049191   -2.2217754   -2.2217754   -1.4961863  0.036644912   -2.2217754   0.72558917   424551 
 4998000   0.60448822   -2.2208711   -2.2208711   -1.4957987  0.025081309   -2.2208711   0.72507234   424551 
 4999000   0.60402571   -2.2210257   -2.2210257   -1.4965082  0.031380495   -2.2210257   0.72451757   424551 
 5000000   0.60352416   -2.2199241   -2.2199241   -1.4960082  0.039157903   -2.2199241   0.72391596   424551 
Loop time of 16299.1 on 288 procs for 5000000 steps with 424551 atoms

Performance: 132522.916 tau/day, 306.766 timesteps/s
92.4% CPU use with 288 MPI tasks x 1 OpenMP threads

MPI task timing breakdown:
Section |  min time  |  avg time  |  max time  |%varavg|  %CPU | %total
-----------------------------------------------------------------------
Pair    | 404.55     | 2456.6     | 4586.6     |2034.3 |  94.9 | 15.07
Bond    | 3.308      | 3.4857     | 4.1924     |   7.9 | 100.0 |  0.02
Neigh   | 888.25     | 3513.1     | 5930.8     |1942.5 |  99.1 | 21.55
Comm    | 3554.5     | 7416.1     | 12169      |2076.0 |  90.5 | 45.50
Output  | 599.1      | 599.85     | 601.27     |   2.8 |  88.3 |  3.68
Modify  | 1301       | 2201.3     | 5749.2     |1449.8 |  91.2 | 13.51
Other   |            | 108.5      |            |       |       |  0.67

Nlocal:        1474.14 ave        1925 max        1159 min
Histogram: 12 36 49 62 36 29 33 10 18 3
Nghost:        6877.46 ave       11089 max        2518 min
Histogram: 22 13 20 31 36 44 64 38 15 5
Neighs:        37485.8 ave       86169 max        3442 min
Histogram: 24 5 80 38 45 36 27 22 9 2

Total # of neighbors = 10795904
Ave neighs/atom = 25.428992
Ave special neighs/atom = 0.0000000
Neighbor list builds = 497216
Dangerous builds = 443916

Total wall time: 4:31:46
