LAMMPS (24 Dec 2020)
OMP_NUM_THREADS environment is not set. Defaulting to 1 thread. (src/comm.cpp:94)
  using 1 OpenMP thread(s) per MPI task
#Read the equilibrated lj fluid and add nanocubes

units           lj
atom_style      full
atom_modify     map array first cubes
dimension       3
boundary        p p f
pair_style      lj/cut/opt 2.5

variable        sigma           equal 1.0
variable        epsilon         equal 1.0
read_restart	restart.dat.3000000
Reading restart file ...
  restart file = 24 Dec 2020, LAMMPS = 24 Dec 2020
WARNING: Restart file used different # of processors: 48 vs. 288 (src/read_restart.cpp:697)
  restoring atom style full from restart
  orthogonal box = (0.0000000 0.0000000 0.0000000) to (80.000000 80.000000 160.00000)
  6 by 4 by 12 MPI processor grid
  restoring pair style lj/cut/opt from restart
  518400 atoms
Finding 1-2 1-3 1-4 neighbors ...
  special bond factors lj:    0        0        0       
  special bond factors coul:  0        0        0       
     0 = max # of 1-2 neighbors
     0 = max # of 1-3 neighbors
     0 = max # of 1-4 neighbors
     1 = max # of special neighbors
  special bonds CPU = 2.382 seconds
  read_restart CPU = 2.716 seconds

group		solvent type 1
518400 atoms in group solvent

read_data	data_125.cubes group cubes add append
Reading data file ...
  orthogonal box = (0.0000000 0.0000000 0.0000000) to (80.000000 80.000000 160.00000)
  6 by 4 by 12 MPI processor grid
  reading atoms ...
  142875 atoms
  reading velocities ...
  142875 velocities
Finding 1-2 1-3 1-4 neighbors ...
  special bond factors lj:    0        0        0       
  special bond factors coul:  0        0        0       
     0 = max # of 1-2 neighbors
     0 = max # of 1-3 neighbors
     0 = max # of 1-4 neighbors
     1 = max # of special neighbors
  special bonds CPU = 0.062 seconds
  read_data CPU = 0.468 seconds

group 		hull  type 2
55750 atoms in group hull
group 		dummy type 3
87125 atoms in group dummy

neighbor      0.4 bin
neigh_modify  exclude molecule/intra cubes


pair_modify   shift yes

pair_coeff    1 1 1.0 1.0 #solvent
pair_coeff    2 2 1.0 1.0 1.12 #np
pair_coeff    3 3 0.0 0.0 0.0 #dummy
pair_coeff    2 3 0.0 0.0 0.0 #np dummy
pair_coeff    1 2 ${eps} ${sig} ${nscut} #np solvent
pair_coeff    1 2 1.0 ${sig} ${nscut} 
pair_coeff    1 2 1.0 2.0 ${nscut} 
pair_coeff    1 2 1.0 2.0 4.0 
pair_coeff    1 3 0.0 0.0 2.5 #dummy solvent

# delete solvent where the cubes are
delete_atoms  overlap 2.0 solvent cubes
System init for delete_atoms ...
Neighbor list info ...
  update every 1 steps, delay 10 steps, check yes
  max neighbors/atom: 2000, page size: 100000
  master list distance cutoff = 4.4
  ghost atom cutoff = 4.4
  binsize = 2.2, bins = 37 37 73
  2 neighbor lists, perpetual/occasional/extra = 1 1 0
  (1) command delete_atoms, occasional
      attributes: full, newton on
      pair build: full/bin
      stencil: full/bin/3d
      bin: standard
  (2) pair lj/cut/opt, perpetual
      attributes: half, newton on
      pair build: half/bin/newton
      stencil: half/bin/3d/newton
      bin: standard
WARNING: Delete_atoms cutoff > minimum neighbor cutoff (src/delete_atoms.cpp:307)
WARNING: Ignoring 'compress yes' for molecular system (src/delete_atoms.cpp:125)
Deleted 140737 atoms, new total = 520538



pair_coeff    1 1 1.0 1.0 #solvent
pair_coeff    2 2 1.0 1.0 1.12 #np
pair_coeff    3 3 0.0 0.0 0.0 #dummy
pair_coeff    2 3 0.0 0.0 0.0 #np dummy
pair_coeff    1 2 ${eps} ${sig} ${nscut} #np solvent
pair_coeff    1 2 1.0 ${sig} ${nscut} 
pair_coeff    1 2 1.0 2.0 ${nscut} 
pair_coeff    1 2 1.0 2.0 4.0 
pair_coeff    1 3 0.0 0.0 0.0 #dummy solvent


comm_modify   mode multi cutoff/multi 1 2.5 cutoff/multi 2 2.5 cutoff/multi 3 6.95

reset_timestep 	0

balance 	1.05 shift z 10 1.05
Balancing ...
Neighbor list info ...
  update every 1 steps, delay 10 steps, check yes
  max neighbors/atom: 2000, page size: 100000
  master list distance cutoff = 4.4
  ghost atom cutoff = 6.95
  binsize = 2.2, bins = 37 37 73
  1 neighbor lists, perpetual/occasional/extra = 1 0 0
  (1) pair lj/cut/opt, perpetual
      attributes: half, newton on
      pair build: half/bin/newton
      stencil: half/bin/3d/newton
      bin: standard
 rebalancing time: 0.005 seconds
  iteration count = 4
  initial/final maximal load/proc = 2180.0000 2306.0000
  initial/final imbalance factor  = 1.2061367 1.2758492
  x cuts: 0.0000000 0.16666667 0.33333333 0.50000000 0.66666667 0.83333333 1.0000000
  y cuts: 0.0000000 0.25000000 0.50000000 0.75000000 1.0000000
  z cuts: 0.0000000 0.078125000 0.16145833 0.25520833 0.34895833 0.42187500 0.49479167 0.57812500 0.65104167 0.72395833 0.78645833 0.85937500 1.0000000

####################### WALLS ###########################

variable       epsilonWall equal 2*${epsilon}
variable       epsilonWall equal 2*1
variable       repulsive   equal   0.7147*${sigma}
variable       repulsive   equal   0.7147*1
variable       full	   equal   3*${sigma}
variable       full	   equal   3*1
region         lowWall block EDGE EDGE EDGE EDGE EDGE 2

fix            topWall all wall/lj93 zhi EDGE 	       ${epsilonWall} ${sigma} ${repulsive} units box
fix            topWall all wall/lj93 zhi EDGE 	       2 ${sigma} ${repulsive} units box
fix            topWall all wall/lj93 zhi EDGE 	       2 1 ${repulsive} units box
fix            topWall all wall/lj93 zhi EDGE 	       2 1 0.7147 units box
fix            lowSol solvent wall/lj93 zlo EDGE                ${epsilonWall} ${sigma} ${full} units box
fix            lowSol solvent wall/lj93 zlo EDGE                2 ${sigma} ${full} units box
fix            lowSol solvent wall/lj93 zlo EDGE                2 1 ${full} units box
fix            lowSol solvent wall/lj93 zlo EDGE                2 1 3 units box
fix 	       lowCub cubes wall/lj93 zlo EDGE                ${epsilonWall} ${sigma} ${repulsive} units box
fix 	       lowCub cubes wall/lj93 zlo EDGE                2 ${sigma} ${repulsive} units box
fix 	       lowCub cubes wall/lj93 zlo EDGE                2 1 ${repulsive} units box
fix 	       lowCub cubes wall/lj93 zlo EDGE                2 1 0.7147 units box


###################### COMPUTES ##########################

compute        bin1 solvent chunk/atom bin/1d z lower 1.0 units box


######################  FIXES ############################


fix             peclet solvent ave/chunk 10 10 10000 bin1 density/number norm                  none ave one file density.profile

fix              temp solvent ave/chunk 10 10 10000 bin1 temp norm                  none ave one file temp.profile

fix             1 cubes rigid/nve/small molecule
  create bodies CPU = 0.002 seconds
  125 rigid bodies with 142875 atoms
  6.9282032 = max distance from body owner to body atom

fix             2 solvent nve# temp ${temp} ${temp} 10


## Thermostat
region          regthermo block EDGE EDGE EDGE EDGE 0 15
group           thermo dynamic solvent region regthermo every 1000
dynamic group thermo defined
fix             3 thermo langevin ${temp} ${temp} 10 156453
fix             3 thermo langevin 1.0 ${temp} 10 156453
fix             3 thermo langevin 1.0 1.0 10 156453


#### Load balancing

fix             bal all balance 1000 1.05 shift z 10 1.05

############### Diagnostics and computes ###################

compute        	com cubes          rigid/local   1 mol x y z
compute        	quat cubes         rigid/local   1 mol quatw quati quatj quatk

compute 	cc2 cubes 	   chunk/atom 	 molecule
compute 	msd cubes 	   msd/chunk 	 cc2

fix 		msd all ave/time  1 1 10000 c_msd[*] file dump.msd ave one mode vector

dump            1 all custom 500000 dump.lammpstrj id mol type x y z
dump		cubetrj hull custom 500000 cubes.lammpstrj id mol type x y z
dump            com cubes local 10000 dump.*.xyz c_com[*]
dump	        xyz hull xyz 100000 cubes.xyz
dump            quat cubes      local 10000 dump.*.quat c_quat[*]
#dump		mol cubes molfile 10000 mol.xyz xyz


dump            2 all image 10000 image.*.png type type
dump_modify     2 pad 8
dump		image cubes image 10000 image_cubes.*.png type type
dump_modify	image pad 8
dump            3 all movie 5000 movie.avi type type
dump		4 cubes movie 5000 movie_cubes.avi type type


thermo          1000
thermo_style    custom step temp epair evdwl etotal press pe ke atoms

restart         1000000 restart.dat
timestep        0.005
timer           full
New timer settings: style=full  mode=nosync  timeout=off

run 		4000000
Per MPI rank memory allocation (min/avg/max) = 15.67 | 20.16 | 23.61 Mbytes
Step Temp E_pair E_vdwl TotEng Press PotEng KinEng Atoms 
       0   0.99285609   -2.8058845   -2.8058845   -1.7246602   -1.0751725   -2.8058845    1.0812243   520538 
    1000    1.2588258   -3.1171815   -3.1171815   -1.7463152   0.20127503   -3.1171815    1.3708664   520538 
    2000    1.2910255   -3.1742757   -3.1742757   -1.7683437   0.25202842   -3.1742757    1.4059321   520538 
    3000    1.3060434   -3.2103976   -3.2103976   -1.7881111   0.23728935   -3.2103976    1.4222865   520538 
    4000    1.3052313   -3.2281389   -3.2281389   -1.8067368   0.24042785   -3.2281389    1.4214022   520538 
    5000    1.2905467   -3.2305516   -3.2305516    -1.825141   0.22355321   -3.2305516    1.4054106   520538 
    6000    1.2756386   -3.2345721   -3.2345721   -1.8453965   0.19810857   -3.2345721    1.3891756   520538 
    7000    1.2656537   -3.2401974   -3.2401974   -1.8618953   0.19451177   -3.2401974    1.3783021   520538 
    8000    1.2617257   -3.2502388   -3.2502388   -1.8762143   0.19564459   -3.2502388    1.3740244   520538 
    9000    1.2558545   -3.2571797   -3.2571797   -1.8895491   0.20083061   -3.2571797    1.3676306   520538 
   10000    1.2573763   -3.2705959   -3.2705959   -1.9013081    0.1834365   -3.2705959    1.3692879   520538 
   11000    1.2559788   -3.2793683   -3.2793683   -1.9116023   0.19320254   -3.2793683    1.3677661   520538 
   12000    1.2605123    -3.293358    -3.293358    -1.920655   0.21306445    -3.293358     1.372703   520538 
   13000    1.2659703   -3.3084604   -3.3084604   -1.9298136    0.2348089   -3.3084604    1.3786468   520538 
   14000    1.2710279   -3.3218485   -3.3218485   -1.9376939   0.25532184   -3.3218485    1.3841546   520538 
   15000    1.2738349   -3.3313666   -3.3313666   -1.9441552   0.23951382   -3.3313666    1.3872114   520538 
   16000    1.2710168   -3.3340681   -3.3340681   -1.9499257   0.25403459   -3.3340681    1.3841424   520538 
   17000    1.2729982   -3.3412976   -3.3412976   -1.9549974   0.25075143   -3.3412976    1.3863002   520538 
   18000    1.2684201   -3.3401582   -3.3401582   -1.9588436   0.25125224   -3.3401582    1.3813146   520538 
   19000    1.2678323   -3.3438172   -3.3438172   -1.9631427   0.27058142   -3.3438172    1.3806745   520538 
   20000    1.2626531   -3.3428941   -3.3428941   -1.9678598   0.23876843   -3.3428941    1.3750344   520538 
   21000    1.2581721    -3.343167    -3.343167   -1.9730124   0.21846222    -3.343167    1.3701546   520538 
   22000    1.2518277   -3.3415175   -3.3415175    -1.978272    0.2352224   -3.3415175    1.3632455   520538 
   23000    1.2450024   -3.3387791   -3.3387791   -1.9829665    0.2139549   -3.3387791    1.3558126   520538 
   24000    1.2446396   -3.3425614   -3.3425614   -1.9871438   0.20427276   -3.3425614    1.3554176   520538 
   25000    1.2365736   -3.3375433   -3.3375433   -1.9909096   0.21596687   -3.3375433    1.3466336   520538 
   26000    1.2368737   -3.3419144   -3.3419144   -1.9949539   0.18830042   -3.3419144    1.3469605   520538 
   27000    1.2296362   -3.3396049   -3.3396049   -2.0005261   0.17858216   -3.3396049    1.3390789   520538 
   28000    1.2271602   -3.3419293   -3.3419293   -2.0055468    0.2078763   -3.3419293    1.3363825   520538 
   29000    1.2234276   -3.3430848   -3.3430848   -2.0107672   0.19394676   -3.3430848    1.3323176   520538 
   30000     1.218389    -3.341513    -3.341513   -2.0146824   0.18845353    -3.341513    1.3268306   520538 
   31000    1.2157892   -3.3442217   -3.3442217   -2.0202223    0.1918732   -3.3442217    1.3239994   520538 
   32000    1.2151441   -3.3470453   -3.3470453   -2.0237485   0.18761467   -3.3470453    1.3232968   520538 
   33000    1.2115849    -3.347195    -3.347195   -2.0277741    0.1920018    -3.347195    1.3194209   520538 
   34000    1.2106171   -3.3508022   -3.3508022   -2.0324352   0.18892601   -3.3508022     1.318367   520538 
   35000    1.2092412   -3.3532395   -3.3532395    -2.036371   0.16285783   -3.3532395    1.3168685   520538 
   36000      1.20553   -3.3539849   -3.3539849   -2.0411578   0.18371432   -3.3539849    1.3128271   520538 
   37000    1.2084279   -3.3603191   -3.3603191   -2.0443361   0.16906351   -3.3603191     1.315983   520538 
   38000    1.2064932   -3.3620279   -3.3620279   -2.0481519   0.18928508   -3.3620279     1.313876   520538 
   39000    1.2071494   -3.3667436   -3.3667436   -2.0521529   0.17922852   -3.3667436    1.3145906   520538 
   40000    1.2038414   -3.3661578   -3.3661578   -2.0551696    0.1674822   -3.3661578    1.3109882   520538 
   41000     1.203078   -3.3695855   -3.3695855   -2.0594286   0.17907825   -3.3695855    1.3101569   520538 
   42000     1.204206   -3.3720976   -3.3720976   -2.0607124   0.17933052   -3.3720976    1.3113852   520538 
   43000    1.2043685   -3.3757885   -3.3757885   -2.0642263    0.1754162   -3.3757885    1.3115622   520538 
   44000    1.2034484   -3.3788693   -3.3788693   -2.0683091   0.16109206   -3.3788693    1.3105602   520538 
   45000    1.2032042   -3.3814991   -3.3814991   -2.0712048   0.17952354   -3.3814991    1.3102943   520538 
   46000    1.2025245   -3.3838323   -3.3838323   -2.0742783   0.19183054   -3.3838323     1.309554   520538 
   47000     1.202224    -3.387158    -3.387158   -2.0779312   0.18698182    -3.387158    1.3092268   520538 
   48000    1.2029761   -3.3912676   -3.3912676   -2.0812217   0.18324725   -3.3912676    1.3100459   520538 
   49000    1.2013286   -3.3923867   -3.3923867    -2.084135   0.18087648   -3.3923867    1.3082517   520538 
   50000    1.2005674   -3.3947395   -3.3947395   -2.0873167   0.16474375   -3.3947395    1.3074228   520538 
   51000    1.2006267   -3.3974458   -3.3974458   -2.0899585   0.17221354   -3.3974458    1.3074873   520538 
   52000    1.1991504   -3.3980176   -3.3980176    -2.092138   0.18902235   -3.3980176    1.3058796   520538 
   53000    1.1953058   -3.3965995   -3.3965995   -2.0949066   0.18470096   -3.3965995    1.3016929   520538 
   54000    1.1944647   -3.3984829   -3.3984829   -2.0977061   0.18835327   -3.3984829    1.3007769   520538 
   55000    1.1929345   -3.3986592   -3.3986592   -2.0995486   0.16876066   -3.3986592    1.2991106   520538 
   56000     1.190589   -3.3996353   -3.3996353    -2.103079   0.18251155   -3.3996353    1.2965562   520538 
   57000    1.1894734   -3.4007635   -3.4007635   -2.1054222   0.16016132   -3.4007635    1.2953414   520538 
   58000     1.185654   -3.3996305   -3.3996305   -2.1084484    0.1652257   -3.3996305    1.2911821   520538 
   59000    1.1856907   -3.4015733   -3.4015733   -2.1103512   0.15829629   -3.4015733     1.291222   520538 
   60000     1.183483   -3.4011333   -3.4011333   -2.1123155   0.18371476   -3.4011333    1.2888178   520538 
   61000    1.1838059   -3.4049584   -3.4049584    -2.115789   0.16848364   -3.4049584    1.2891694   520538 
   62000    1.1806659   -3.4040574   -3.4040574   -2.1183075   0.16823875   -3.4040574      1.28575   520538 
   63000     1.178806   -3.4046791   -3.4046791   -2.1209546   0.16509312   -3.4046791    1.2837245   520538 
   64000    1.1769374   -3.4045769   -3.4045769   -2.1228873   0.14544859   -3.4045769    1.2816896   520538 
   65000     1.176957   -3.4069059   -3.4069059   -2.1251949   0.15602384   -3.4069059     1.281711   520538 
   66000     1.175586    -3.408777    -3.408777   -2.1285591   0.15266763    -3.408777    1.2802179   520538 
   67000    1.1745204   -3.4104844   -3.4104844    -2.131427   0.15879099   -3.4104844    1.2790575   520538 
   68000    1.1741905   -3.4127334   -3.4127334   -2.1340351   0.16774747   -3.4127334    1.2786983   520538 
   69000    1.1735319   -3.4146122   -3.4146122   -2.1366312   0.17388911   -3.4146122     1.277981   520538 
   70000    1.1742431   -3.4177582   -3.4177582   -2.1390027   0.16233937   -3.4177582    1.2787555   520538 
   71000     1.171673   -3.4183541   -3.4183541   -2.1423974   0.14617693   -3.4183541    1.2759567   520538 
   72000    1.1692905   -3.4180408   -3.4180408   -2.1446787   0.14931209   -3.4180408    1.2733621   520538 
   73000    1.1704569   -3.4212214   -3.4212214    -2.146589   0.15732573   -3.4212214    1.2746324   520538 
   74000     1.170145   -3.4238146   -3.4238146    -2.149522   0.16137061   -3.4238146    1.2742926   520538 
   75000    1.1665548    -3.422447    -3.422447   -2.1520641   0.15473214    -3.422447    1.2703829   520538 
   76000    1.1683701   -3.4261553   -3.4261553   -2.1537955   0.14056799   -3.4261553    1.2723598   520538 
   77000    1.1681763   -3.4283544   -3.4283544   -2.1562057   0.15846563   -3.4283544    1.2721487   520538 
   78000    1.1677174   -3.4294133   -3.4294133   -2.1577643   0.15863652   -3.4294133     1.271649   520538 
   79000    1.1678947   -3.4306875   -3.4306875   -2.1588454   0.15161362   -3.4306875    1.2718421   520538 
   80000    1.1675332   -3.4332864   -3.4332864    -2.161838   0.14688351   -3.4332864    1.2714484   520538 
   81000    1.1671663   -3.4353025   -3.4353025   -2.1642536   0.15957374   -3.4353025    1.2710489   520538 
   82000    1.1668006    -3.437458    -3.437458   -2.1668074   0.16208384    -3.437458    1.2706506   520538 
   83000    1.1650753   -3.4375957   -3.4375957   -2.1688239   0.16824546   -3.4375957    1.2687718   520538 
   84000    1.1640287   -3.4383606   -3.4383606   -2.1707286   0.16043497   -3.4383606     1.267632   520538 
   85000    1.1637217    -3.439369    -3.439369   -2.1720713   0.15863796    -3.439369    1.2672977   520538 
   86000    1.1636056   -3.4429073   -3.4429073   -2.1757361     0.159416   -3.4429073    1.2671712   520538 
   87000    1.1616005   -3.4431081   -3.4431081   -2.1781203   0.15688118   -3.4431081    1.2649877   520538 
   88000    1.1623176   -3.4452278   -3.4452278   -2.1794592   0.14345594   -3.4452278    1.2657686   520538 
   89000    1.1575559   -3.4409769   -3.4409769   -2.1803938    0.1607671   -3.4409769    1.2605831   520538 
   90000    1.1587457   -3.4441912   -3.4441912   -2.1823124   0.14535682   -3.4441912    1.2618787   520538 
   91000    1.1591893   -3.4467864   -3.4467864   -2.1844245    0.1447315   -3.4467864    1.2623619   520538 
   92000     1.157879   -3.4466242   -3.4466242   -2.1856892   0.14545514   -3.4466242     1.260935   520538 
   93000    1.1560129   -3.4467491   -3.4467491   -2.1878463   0.15268571   -3.4467491    1.2589028   520538 
   94000    1.1531378   -3.4459257   -3.4459257    -2.190154   0.14006056   -3.4459257    1.2557717   520538 
   95000    1.1547828   -3.4488766   -3.4488766   -2.1913135    0.1559941   -3.4488766    1.2575631   520538 
   96000    1.1543371   -3.4509071   -3.4509071   -2.1938293    0.1449998   -3.4509071    1.2570778   520538 
   97000    1.1526987   -3.4508593   -3.4508593   -2.1955657   0.15439511   -3.4508593    1.2552936   520538 
   98000    1.1553957   -3.4555373   -3.4555373   -2.1973067   0.13763546   -3.4555373    1.2582306   520538 
   99000    1.1515314   -3.4527738   -3.4527738   -2.1987514   0.15183306   -3.4527738    1.2540224   520538 
  100000    1.1523481   -3.4561822   -3.4561822   -2.2012705   0.12918985   -3.4561822    1.2549118   520538 
  101000    1.1515134   -3.4572308   -3.4572308    -2.203228   0.12863453   -3.4572308    1.2540027   520538 
  102000    1.1506318   -3.4591616   -3.4591616   -2.2061188   0.13892579   -3.4591616    1.2530428   520538 
  103000    1.1523608   -3.4615556   -3.4615556   -2.2066301   0.15071665   -3.4615556    1.2549256   520538 
  104000    1.1480352   -3.4587134   -3.4587134   -2.2084984     0.141347   -3.4587134     1.250215   520538 
  105000    1.1474682   -3.4600493   -3.4600493   -2.2104518   0.15563042   -3.4600493    1.2495976   520538 
  106000    1.1479029   -3.4625461   -3.4625461   -2.2124751   0.13471172   -3.4625461     1.250071   520538 
  107000    1.1470512   -3.4645973   -3.4645973   -2.2154539   0.11639974   -3.4645973    1.2491434   520538 
  108000    1.1443586   -3.4633348   -3.4633348   -2.2171236   0.14769998   -3.4633348    1.2462112   520538 
  109000    1.1465928    -3.467299    -3.467299   -2.2186548   0.13585391    -3.467299    1.2486442   520538 
  110000    1.1467877   -3.4693428   -3.4693428   -2.2204863   0.13104868   -3.4693428    1.2488565   520538 
  111000    1.1454792   -3.4692104   -3.4692104   -2.2217789   0.14503002   -3.4692104    1.2474315   520538 
  112000    1.1442694    -3.469932    -3.469932   -2.2238179   0.13603316    -3.469932    1.2461141   520538 
  113000    1.1445178   -3.4708088   -3.4708088   -2.2244243   0.14053503   -3.4708088    1.2463846   520538 
  114000    1.1429679    -3.471162    -3.471162   -2.2264653    0.1537897    -3.471162    1.2446967   520538 
  115000    1.1413355   -3.4707779   -3.4707779   -2.2278589   0.13780355   -3.4707779     1.242919   520538 
  116000    1.1408517   -3.4718762   -3.4718762    -2.229484   0.13980517   -3.4718762    1.2423922   520538 
  117000    1.1405118   -3.4732081   -3.4732081   -2.2311861   0.11601706   -3.4732081     1.242022   520538 
  118000    1.1395159   -3.4738748   -3.4738748   -2.2329373   0.14734322   -3.4738748    1.2409375   520538 
  119000     1.139124   -3.4749638   -3.4749638   -2.2344532    0.1326665   -3.4749638    1.2405106   520538 
  120000     1.141561   -3.4786309   -3.4786309   -2.2354664   0.13224631   -3.4786309    1.2431646   520538 
  121000    1.1411023   -3.4798492   -3.4798492   -2.2371842   0.12871961   -3.4798492     1.242665   520538 
  122000    1.1390754   -3.4792173   -3.4792173   -2.2387596   0.12892104   -3.4792173    1.2404577   520538 
  123000    1.1377094    -3.478586    -3.478586   -2.2396158   0.14441412    -3.478586    1.2389702   520538 
  124000    1.1368805   -3.4799523   -3.4799523   -2.2418848   0.14116291   -3.4799523    1.2380675   520538 
  125000    1.1358908   -3.4801363   -3.4801363   -2.2431467   0.14386264   -3.4801363    1.2369896   520538 
  126000    1.1363888    -3.481929    -3.481929   -2.2443969   0.13083853    -3.481929    1.2375321   520538 
  127000    1.1374176   -3.4840794   -3.4840794    -2.245427   0.13177781   -3.4840794    1.2386524   520538 
  128000    1.1336975   -3.4814738   -3.4814738   -2.2468726   0.13751385   -3.4814738    1.2346012   520538 
  129000     1.133484    -3.481666    -3.481666   -2.2472974   0.13989671    -3.481666    1.2343687   520538 
  130000    1.1326094   -3.4830456   -3.4830456   -2.2496294   0.13167867   -3.4830456    1.2334163   520538 
  131000    1.1336303   -3.4861548   -3.4861548   -2.2516269   0.13333363   -3.4861548     1.234528   520538 
  132000    1.1349104   -3.4883789   -3.4883789   -2.2524568   0.12165656   -3.4883789    1.2359221   520538 
  133000      1.13419   -3.4881445   -3.4881445    -2.253007    0.1247986   -3.4881445    1.2351375   520538 
  134000    1.1301383   -3.4856601   -3.4856601   -2.2549349   0.13547465   -3.4856601    1.2307252   520538 
  135000    1.1300103   -3.4867181   -3.4867181   -2.2561323   0.12703011   -3.4867181    1.2305858   520538 
  136000    1.1303352   -3.4889376   -3.4889376   -2.2579979   0.11920292   -3.4889376    1.2309397   520538 
  137000    1.1297748   -3.4899696   -3.4899696   -2.2596402   0.11883472   -3.4899696    1.2303293   520538 
  138000    1.1263343   -3.4875884   -3.4875884   -2.2610057   0.12318844   -3.4875884    1.2265826   520538 
  139000    1.1268993   -3.4883872   -3.4883872   -2.2611893   0.10052017   -3.4883872    1.2271979   520538 
  140000    1.1309059   -3.4936784   -3.4936784   -2.2621173   0.11827565   -3.4936784    1.2315611   520538 
  141000     1.128537   -3.4921556   -3.4921556   -2.2631742   0.13298816   -3.4921556    1.2289814   520538 
  142000    1.1289192   -3.4947585   -3.4947585   -2.2653609   0.12837167   -3.4947585    1.2293976   520538 
  143000    1.1269553   -3.4942043   -3.4942043   -2.2669454   0.12075766   -3.4942043    1.2272589   520538 
  144000    1.1253205   -3.4941315   -3.4941315   -2.2686529   0.11017487   -3.4941315    1.2254786   520538 
  145000    1.1261095   -3.4965235   -3.4965235   -2.2701857   0.12262728   -3.4965235    1.2263378   520538 
  146000    1.1242907   -3.4959104   -3.4959104   -2.2715532   0.11400426   -3.4959104    1.2243572   520538 
  147000    1.1242376   -3.4969344   -3.4969344   -2.2726351   0.12452782   -3.4969344    1.2242993   520538 
  148000    1.1232346   -3.4969959   -3.4969959   -2.2737889   0.11445031   -3.4969959     1.223207   520538 
  149000    1.1227557   -3.4980173   -3.4980173   -2.2753318   0.12229021   -3.4980173    1.2226855   520538 
  150000    1.1223441   -3.4989802   -3.4989802   -2.2767429   0.11775689   -3.4989802    1.2222373   520538 
  151000     1.124215   -3.5021501   -3.5021501   -2.2778754   0.11444248   -3.5021501    1.2242747   520538 
  152000    1.1231741   -3.5017485   -3.5017485   -2.2786073   0.11123552   -3.5017485    1.2231412   520538 
  153000    1.1217535   -3.5018924   -3.5018924   -2.2802983   0.12958808   -3.5018924    1.2215941   520538 
  154000    1.1222401   -3.5040609   -3.5040609   -2.2819369   0.12442107   -3.5040609     1.222124   520538 
  155000    1.1220091   -3.5041617   -3.5041617   -2.2822892   0.12730219   -3.5041617    1.2218724   520538 
  156000    1.1216333   -3.5049279   -3.5049279   -2.2834646   0.10441669   -3.5049279    1.2214632   520538 
  157000    1.1189518   -3.5035283   -3.5035283   -2.2849852   0.11838257   -3.5035283    1.2185431   520538 
  158000    1.1222542   -3.5089289   -3.5089289   -2.2867895    0.1090964   -3.5089289    1.2221394   520538 
  159000    1.1186968   -3.5068841   -3.5068841   -2.2886187   0.13184703   -3.5068841    1.2182654   520538 
  160000    1.1189008   -3.5080777   -3.5080777   -2.2895902   0.12457258   -3.5080777    1.2184875   520538 
  161000    1.1177387   -3.5080978   -3.5080978   -2.2908758   0.10756486   -3.5080978     1.217222   520538 
  162000    1.1161086   -3.5082133   -3.5082133   -2.2927665   0.10519442   -3.5082133    1.2154468   520538 
  163000    1.1159038   -3.5093057   -3.5093057   -2.2940819   0.11680015   -3.5093057    1.2152238   520538 
  164000    1.1149371   -3.5097893   -3.5097893   -2.2956183   0.12585916   -3.5097893    1.2141711   520538 
  165000    1.1167646   -3.5133522   -3.5133522    -2.297191    0.1228692   -3.5133522    1.2161612   520538 
  166000    1.1173143   -3.5152984   -3.5152984   -2.2985386   0.11074921   -3.5152984    1.2167598   520538 
  167000    1.1154011   -3.5134435   -3.5134435   -2.2987672   0.12167944   -3.5134435    1.2146763   520538 
  168000    1.1152954   -3.5153379   -3.5153379   -2.3007766  0.094512491   -3.5153379    1.2145612   520538 
  169000    1.1150088   -3.5155521   -3.5155521    -2.301303   0.12224366   -3.5155521    1.2142491   520538 
  170000    1.1140607   -3.5162975   -3.5162975   -2.3030809    0.1147594   -3.5162975    1.2132166   520538 
  171000    1.1133591   -3.5160438   -3.5160438   -2.3035912   0.11763705   -3.5160438    1.2124526   520538 
  172000    1.1129596   -3.5173761   -3.5173761   -2.3053586    0.1141656   -3.5173761    1.2120175   520538 
  173000    1.1141052   -3.5196862   -3.5196862   -2.3064211   0.11462568   -3.5196862    1.2132651   520538 
  174000    1.1132813     -3.52027     -3.52027   -2.3079022  0.096737072     -3.52027    1.2123678   520538 
  175000    1.1131949    -3.520672    -3.520672   -2.3083983   0.10680611    -3.520672    1.2122738   520538 
  176000    1.1118377    -3.520059    -3.520059   -2.3092633   0.10257932    -3.520059    1.2107958   520538 
  177000    1.1113023   -3.5211249   -3.5211249   -2.3109122   0.11791367   -3.5211249    1.2102127   520538 
  178000     1.108249   -3.5184577   -3.5184577     -2.31157    0.1099506   -3.5184577    1.2068877   520538 
  179000    1.1099656   -3.5211855   -3.5211855   -2.3124285   0.13456021   -3.5211855     1.208757   520538 
  180000    1.1128961     -3.52522     -3.52522   -2.3132716   0.11193354     -3.52522    1.2119484   520538 
  181000    1.1109785    -3.524882    -3.524882   -2.3150219  0.099969901    -3.524882    1.2098601   520538 
  182000    1.1097916   -3.5244114   -3.5244114   -2.3158438    0.1194446   -3.5244114    1.2085675   520538 
  183000    1.1073017   -3.5224811   -3.5224811    -2.316625   0.11339032   -3.5224811    1.2058561   520538 
  184000    1.1099022   -3.5253253   -3.5253253   -2.3166373   0.11130872   -3.5253253     1.208688   520538 
  185000    1.1103613   -3.5271404   -3.5271404   -2.3179524   0.12532659   -3.5271404     1.209188   520538 
  186000    1.1099945   -3.5277015   -3.5277015    -2.318913   0.10215697   -3.5277015    1.2087885   520538 
  187000    1.1067233   -3.5268552   -3.5268552   -2.3216291   0.11212769   -3.5268552    1.2052261   520538 
  188000    1.1097978   -3.5298351   -3.5298351   -2.3212607   0.11170917   -3.5298351    1.2085744   520538 
  189000    1.1079331   -3.5293129   -3.5293129   -2.3227693   0.11285095   -3.5293129    1.2065436   520538 
  190000    1.1055473   -3.5284993   -3.5284993   -2.3245538     0.106735   -3.5284993    1.2039455   520538 
  191000    1.1078491   -3.5314344   -3.5314344   -2.3249823   0.11415878   -3.5314344    1.2064521   520538 
  192000    1.1065103   -3.5306064   -3.5306064   -2.3256122   0.10446021   -3.5306064    1.2049942   520538 
  193000     1.105637   -3.5308354   -3.5308354   -2.3267922   0.10701511   -3.5308354    1.2040432   520538 
  194000     1.107391   -3.5348731   -3.5348731   -2.3289198  0.088225916   -3.5348731    1.2059533   520538 
  195000     1.105944   -3.5334185   -3.5334185    -2.329041   0.10593592   -3.5334185    1.2043775   520538 
  196000    1.1041283   -3.5318466   -3.5318466   -2.3294465   0.10930079   -3.5318466    1.2024002   520538 
  197000    1.1054795   -3.5346451   -3.5346451   -2.3307734   0.11055594   -3.5346451    1.2038716   520538 
  198000    1.1027878   -3.5324507   -3.5324507   -2.3315103   0.11284923   -3.5324507    1.2009404   520538 
  199000     1.104221   -3.5351933   -3.5351933   -2.3326922   0.11083655   -3.5351933    1.2025011   520538 
  200000    1.1049371   -3.5373514   -3.5373514   -2.3340704   0.11151397   -3.5373514     1.203281   520538 
  201000     1.103546   -3.5359449   -3.5359449   -2.3341788   0.11448688   -3.5359449    1.2017661   520538 
  202000    1.1026991   -3.5356871   -3.5356871   -2.3348432   0.11407754   -3.5356871    1.2008439   520538 
  203000     1.103096   -3.5367742   -3.5367742   -2.3354982    0.1035296   -3.5367742     1.201276   520538 
  204000    1.1022838   -3.5373298   -3.5373298   -2.3369382   0.10164079   -3.5373298    1.2003915   520538 
  205000    1.1029145   -3.5391586   -3.5391586   -2.3380803   0.10364396   -3.5391586    1.2010784   520538 
  206000    1.1007515   -3.5366506   -3.5366506   -2.3379278   0.10321805   -3.5366506    1.1987229   520538 
  207000    1.0998766   -3.5372633   -3.5372633   -2.3394931   0.10695714   -3.5372633    1.1977701   520538 
  208000    1.1006972   -3.5391403   -3.5391403   -2.3404766   0.12020432   -3.5391403    1.1986637   520538 
  209000    1.1028592   -3.5429495   -3.5429495   -2.3419313   0.10660716   -3.5429495    1.2010182   520538 
  210000    1.1021532   -3.5432951   -3.5432951   -2.3430457  0.099160172   -3.5432951    1.2002494   520538 
  211000    1.1031999   -3.5444402   -3.5444402   -2.3430511   0.10400026   -3.5444402    1.2013892   520538 
  212000    1.1011651   -3.5436609   -3.5436609   -2.3444876   0.10760445   -3.5436609    1.1991732   520538 
  213000    1.0984864   -3.5419512   -3.5419512    -2.345695   0.10067334   -3.5419512    1.1962562   520538 
  214000    1.0992671   -3.5449115   -3.5449115   -2.3478051   0.10305902   -3.5449115    1.1971064   520538 
  215000    1.1003734   -3.5468473   -3.5468473   -2.3485362   0.11489709   -3.5468473    1.1983111   520538 
  216000    1.0982608    -3.545192    -3.545192   -2.3491815   0.10685709    -3.545192    1.1960105   520538 
  217000    1.0984064    -3.546889    -3.546889     -2.35072   0.10913571    -3.546889     1.196169   520538 
  218000    1.0999781   -3.5491898   -3.5491898   -2.3513092   0.10697423   -3.5491898    1.1978807   520538 
  219000    1.0961351   -3.5454789   -3.5454789   -2.3517833  0.084834113   -3.5454789    1.1936956   520538 
  220000    1.0993865   -3.5499278   -3.5499278   -2.3526914   0.10917347   -3.5499278    1.1972364   520538 
  221000    1.1001238   -3.5517439   -3.5517439   -2.3537046   0.10918255   -3.5517439    1.1980393   520538 
  222000    1.0974495   -3.5496534   -3.5496534   -2.3545264   0.10989258   -3.5496534     1.195127   520538 
  223000    1.0985736   -3.5521066   -3.5521066   -2.3557555    0.1117899   -3.5521066    1.1963511   520538 
  224000    1.0970896   -3.5509245   -3.5509245   -2.3561894   0.10521214   -3.5509245    1.1947351   520538 
  225000    1.0974642   -3.5528125   -3.5528125   -2.3576695  0.099767019   -3.5528125     1.195143   520538 
  226000    1.0967373   -3.5544228   -3.5544228   -2.3600714   0.10846623   -3.5544228    1.1943514   520538 
  227000    1.0968172   -3.5548614   -3.5548614    -2.360423   0.10734165   -3.5548614    1.1944383   520538 
  228000    1.0949973   -3.5528036   -3.5528036    -2.360347   0.10375315   -3.5528036    1.1924566   520538 
  229000     1.096236   -3.5553123   -3.5553123   -2.3615069    0.1085165   -3.5553123    1.1938054   520538 
  230000    1.0945779   -3.5544419   -3.5544419   -2.3624421   0.11157971   -3.5544419    1.1919998   520538 
  231000    1.0958573   -3.5564913   -3.5564913   -2.3630982  0.095382579   -3.5564913    1.1933931   520538 
  232000    1.0950869   -3.5563395   -3.5563395   -2.3637854  0.093802418   -3.5563395    1.1925541   520538 
  233000    1.0964332   -3.5582931   -3.5582931    -2.364273  0.094924795   -3.5582931    1.1940202   520538 
  234000    1.0942696   -3.5569309   -3.5569309   -2.3652668   0.10116911   -3.5569309    1.1916641   520538 
  235000    1.0940153   -3.5578932   -3.5578932   -2.3665061  0.094099891   -3.5578932    1.1913871   520538 
  236000    1.0940633   -3.5582703   -3.5582703   -2.3668309   0.11015787   -3.5582703    1.1914394   520538 
  237000    1.0952414   -3.5602963   -3.5602963    -2.367574   0.11190333   -3.5602963    1.1927224   520538 
  238000    1.0925287   -3.5578709   -3.5578709   -2.3681027   0.11656198   -3.5578709    1.1897682   520538 
  239000    1.0924026   -3.5582043   -3.5582043   -2.3685735   0.10018683   -3.5582043    1.1896308   520538 
  240000    1.0930046    -3.559959    -3.559959   -2.3696726   0.10530582    -3.559959    1.1902864   520538 
  241000    1.0917027   -3.5597058   -3.5597058   -2.3708371  0.088505953   -3.5597058    1.1888687   520538 
  242000    1.0931705   -3.5622444   -3.5622444   -2.3717773   0.10669308   -3.5622444    1.1904671   520538 
  243000    1.0929292   -3.5622928   -3.5622928   -2.3720884  0.091570648   -3.5622928    1.1902044   520538 
  244000    1.0892231   -3.5598871   -3.5598871   -2.3737187   0.09937357   -3.5598871    1.1861684   520538 
  245000    1.0918125   -3.5633135   -3.5633135   -2.3743253   0.09764406   -3.5633135    1.1889883   520538 
  246000    1.0909884   -3.5643161   -3.5643161   -2.3762253   0.10529923   -3.5643161    1.1880909   520538 
  247000    1.0922863     -3.56609     -3.56609   -2.3765858   0.10889427     -3.56609    1.1895042   520538 
  248000    1.0909944     -3.56545     -3.56545   -2.3773527    0.1040101     -3.56545    1.1880974   520538 
  249000    1.0900959   -3.5647265   -3.5647265   -2.3776077   0.10311524   -3.5647265    1.1871188   520538 
  250000    1.0905522   -3.5660167   -3.5660167   -2.3784009   0.10466633   -3.5660167    1.1876158   520538 
  251000    1.0894747   -3.5657662   -3.5657662   -2.3793238    0.1103807   -3.5657662    1.1864424   520538 
  252000     1.087844   -3.5658658   -3.5658658   -2.3811993  0.099952391   -3.5658658    1.1846665   520538 
  253000    1.0896032   -3.5681822   -3.5681822   -2.3815999  0.093598081   -3.5681822    1.1865823   520538 
  254000    1.0884801   -3.5672271   -3.5672271   -2.3818678  0.094999182   -3.5672271    1.1853593   520538 
  255000    1.0876082   -3.5680792   -3.5680792   -2.3836694  0.091857185   -3.5680792    1.1844098   520538 
  256000    1.0884276   -3.5694991   -3.5694991   -2.3841971   0.11810584   -3.5694991    1.1853021   520538 
  257000    1.0853222   -3.5663452   -3.5663452   -2.3844249   0.11105773   -3.5663452    1.1819203   520538 
  258000    1.0865474   -3.5679714   -3.5679714   -2.3847169   0.10509278   -3.5679714    1.1832546   520538 
  259000    1.0870992    -3.569485    -3.569485   -2.3856295  0.094074805    -3.569485    1.1838555   520538 
  260000    1.0866157   -3.5695714   -3.5695714   -2.3862424  0.094188878   -3.5695714    1.1833289   520538 
  261000    1.0865808   -3.5699778   -3.5699778    -2.386687   0.10689355   -3.5699778    1.1832909   520538 
  262000    1.0859761   -3.5696634   -3.5696634    -2.387031  0.096530986   -3.5696634    1.1826324   520538 
  263000    1.0880176   -3.5734805   -3.5734805   -2.3886249  0.086658934   -3.5734805    1.1848556   520538 
  264000    1.0848231   -3.5711367   -3.5711367     -2.38976   0.10701267   -3.5711367    1.1813767   520538 
  265000    1.0853708   -3.5721432   -3.5721432     -2.39017   0.10495146   -3.5721432    1.1819732   520538 
  266000    1.0874839   -3.5747508   -3.5747508   -2.3904764   0.10435741   -3.5747508    1.1842744   520538 
  267000    1.0841421   -3.5722916   -3.5722916   -2.3916564   0.09882671   -3.5722916    1.1806352   520538 
  268000    1.0863177   -3.5752311   -3.5752311   -2.3922267  0.096911026   -3.5752311    1.1830044   520538 
  269000     1.084612   -3.5742582   -3.5742582   -2.3931114   0.10266015   -3.5742582    1.1811469   520538 
  270000    1.0867097    -3.577526    -3.577526   -2.3940947  0.097615065    -3.577526    1.1834313   520538 
  271000    1.0849221   -3.5755765   -3.5755765   -2.3940919  0.098566382   -3.5755765    1.1814846   520538 
  272000    1.0867836   -3.5776134   -3.5776134   -2.3941017    0.1036876   -3.5776134    1.1835117   520538 
  273000    1.0855301   -3.5769329   -3.5769329   -2.3947862  0.099609843   -3.5769329    1.1821467   520538 
  274000    1.0848387   -3.5770395   -3.5770395   -2.3956457  0.080537537   -3.5770395    1.1813938   520538 
  275000    1.0841782   -3.5769422   -3.5769422   -2.3962677  0.092656753   -3.5769422    1.1806745   520538 
  276000    1.0839465   -3.5782332   -3.5782332    -2.397811  0.082579725   -3.5782332    1.1804221   520538 
  277000     1.082949   -3.5776344   -3.5776344   -2.3982985  0.095086774   -3.5776344    1.1793359   520538 
  278000    1.0824724   -3.5781901   -3.5781901   -2.3993733   0.09761108   -3.5781901    1.1788168   520538 
  279000    1.0836869   -3.5794527   -3.5794527   -2.3993133  0.091238919   -3.5794527    1.1801395   520538 
  280000    1.0834311   -3.5801049   -3.5801049    -2.400244  0.091712561   -3.5801049    1.1798609   520538 
  281000    1.0829969    -3.580313    -3.580313   -2.4009249  0.092001374    -3.580313    1.1793881   520538 
  282000    1.0838659   -3.5817155   -3.5817155   -2.4013812  0.096873847   -3.5817155    1.1803343   520538 
  283000     1.081542   -3.5794261   -3.5794261   -2.4016224  0.083815784   -3.5794261    1.1778037   520538 
  284000    1.0807593   -3.5796876   -3.5796876   -2.4027364  0.095171979   -3.5796876    1.1769512   520538 
  285000    1.0792551   -3.5794952   -3.5794952    -2.404182   0.08888204   -3.5794952    1.1753132   520538 
  286000    1.0811967   -3.5823457   -3.5823457   -2.4049181   0.10062084   -3.5823457    1.1774276   520538 
  287000    1.0822721   -3.5833772   -3.5833772   -2.4047785  0.095975278   -3.5833772    1.1785987   520538 
  288000    1.0799739   -3.5813143   -3.5813143   -2.4052184  0.099845824   -3.5813143    1.1760959   520538 
  289000    1.0828263   -3.5848216   -3.5848216   -2.4056193   0.10220718   -3.5848216    1.1792023   520538 
  290000    1.0801385   -3.5828983   -3.5828983   -2.4066231  0.099661559   -3.5828983    1.1762752   520538 
  291000    1.0806712   -3.5835432   -3.5835432   -2.4066878   0.10389415   -3.5835432    1.1768554   520538 
  292000    1.0804986   -3.5843945   -3.5843945    -2.407727   0.10134469   -3.5843945    1.1766674   520538 
  293000    1.0803411   -3.5857207   -3.5857207   -2.4092248  0.097896518   -3.5857207    1.1764959   520538 
  294000    1.0800176   -3.5867246   -3.5867246    -2.410581   0.10152523   -3.5867246    1.1761436   520538 
  295000    1.0811375   -3.5883602   -3.5883602   -2.4109971  0.093533121   -3.5883602    1.1773631   520538 
  296000    1.0774192   -3.5848966   -3.5848966   -2.4115827   0.10374078   -3.5848966    1.1733139   520538 
  297000    1.0779549   -3.5860312   -3.5860312   -2.4121339   0.10537813   -3.5860312    1.1738973   520538 
  298000    1.0787314   -3.5879899   -3.5879899    -2.413247  0.087636099   -3.5879899    1.1747429   520538 
  299000    1.0779551   -3.5872552   -3.5872552   -2.4133577  0.094542139   -3.5872552    1.1738975   520538 
  300000    1.0771412   -3.5869902   -3.5869902    -2.413979  0.094520663   -3.5869902    1.1730111   520538 
  301000    1.0774236   -3.5875879   -3.5875879   -2.4142693    0.1091306   -3.5875879    1.1733186   520538 
  302000    1.0770134   -3.5881671   -3.5881671   -2.4152952   0.11147265   -3.5881671    1.1728719   520538 
  303000    1.0787243   -3.5914957   -3.5914957   -2.4167605   0.10501739   -3.5914957    1.1747352   520538 
  304000    1.0776406   -3.5908598   -3.5908598   -2.4173048   0.09877809   -3.5908598    1.1735549   520538 
  305000    1.0768526   -3.5909414   -3.5909414   -2.4182446  0.090892205   -3.5909414    1.1726969   520538 
  306000    1.0787815   -3.5937434   -3.5937434    -2.418946  0.088666893   -3.5937434    1.1747975   520538 
  307000     1.075428   -3.5910872   -3.5910872   -2.4199418  0.097372134   -3.5910872    1.1711455   520538 
  308000    1.0789924   -3.5946513   -3.5946513   -2.4196241  0.093355981   -3.5946513    1.1750271   520538 
  309000    1.0768947   -3.5933325   -3.5933325   -2.4205897  0.088704672   -3.5933325    1.1727427   520538 
  310000    1.0760752   -3.5928845   -3.5928845   -2.4210342   0.11122929   -3.5928845    1.1718503   520538 
  311000    1.0774785     -3.59392     -3.59392   -2.4205416  0.091339095     -3.59392    1.1733784   520538 
  312000      1.07712   -3.5935398   -3.5935398   -2.4205517   0.10966789   -3.5935398    1.1729881   520538 
  313000    1.0748148   -3.5916919   -3.5916919   -2.4212143   0.10111809   -3.5916919    1.1704777   520538 
  314000    1.0752329   -3.5928101   -3.5928101   -2.4218771  0.095915675   -3.5928101     1.170933   520538 
  315000    1.0760253   -3.5943479   -3.5943479    -2.422552  0.097178546   -3.5943479    1.1717959   520538 
  316000    1.0753965   -3.5946999   -3.5946999   -2.4235888  0.091202469   -3.5946999    1.1711111   520538 
  317000    1.0748861   -3.5939419   -3.5939419   -2.4233865  0.088371215   -3.5939419    1.1705553   520538 
  318000     1.077623   -3.5972505   -3.5972505   -2.4237146   0.08574468   -3.5972505    1.1735358   520538 
  319000    1.0764461   -3.5969149   -3.5969149   -2.4246607  0.087686711   -3.5969149    1.1722542   520538 
  320000    1.0770235    -3.597304    -3.597304    -2.424421  0.097966955    -3.597304     1.172883   520538 
  321000    1.0765168   -3.5986856   -3.5986856   -2.4263544   0.10672926   -3.5986856    1.1723312   520538 
  322000    1.0741454   -3.5966949   -3.5966949   -2.4269463  0.095725609   -3.5966949    1.1697487   520538 
  323000    1.0758832    -3.599133    -3.599133   -2.4274918  0.094328886    -3.599133    1.1716412   520538 
  324000    1.0754896   -3.5985681   -3.5985681   -2.4273555  0.093084577   -3.5985681    1.1712125   520538 
  325000    1.0757794   -3.5995774   -3.5995774   -2.4280492    0.1009971   -3.5995774    1.1715281   520538 
  326000    1.0759406   -3.6000876   -3.6000876    -2.428384   0.10274541   -3.6000876    1.1717037   520538 
  327000    1.0769662   -3.6013672   -3.6013672   -2.4285466  0.095058535   -3.6013672    1.1728206   520538 
  328000    1.0745126   -3.5983617   -3.5983617   -2.4282132  0.094547183   -3.5983617    1.1701486   520538 
  329000    1.0764414   -3.6010169   -3.6010169   -2.4287678  0.098409441   -3.6010169    1.1722491   520538 
  330000    1.0753419   -3.6006607   -3.6006607   -2.4296089  0.088752517   -3.6006607    1.1710517   520538 
  331000    1.0730287   -3.5992876   -3.5992876    -2.430755   0.09825871   -3.5992876    1.1685326   520538 
  332000    1.0743337   -3.6014569   -3.6014569   -2.4315031  0.090016163   -3.6014569    1.1699538   520538 
  333000    1.0741397   -3.6024874   -3.6024874   -2.4327449   0.10644556   -3.6024874    1.1697425   520538 
  334000    1.0744843   -3.6026409   -3.6026409   -2.4325231   0.10092144   -3.6026409    1.1701178   520538 
  335000    1.0719499   -3.6007135   -3.6007135   -2.4333558  0.096195762   -3.6007135    1.1673578   520538 
  336000    1.0751668   -3.6046442   -3.6046442   -2.4337832  0.090139175   -3.6046442     1.170861   520538 
  337000    1.0739106    -3.603888    -3.603888    -2.434395  0.091384498    -3.603888     1.169493   520538 
  338000    1.0721634    -3.602028    -3.602028   -2.4344377   0.10004554    -3.602028    1.1675903   520538 
  339000    1.0712304   -3.6027006   -3.6027006   -2.4361264   0.10049657   -3.6027006    1.1665742   520538 
  340000    1.0713649   -3.6024869   -3.6024869   -2.4357662  0.096213941   -3.6024869    1.1667208   520538 
  341000    1.0701858   -3.6017787   -3.6017787    -2.436342  0.081437386   -3.6017787    1.1654367   520538 
  342000    1.0726566    -3.604848    -3.604848   -2.4367206  0.070595587    -3.604848    1.1681274   520538 
  343000    1.0721389   -3.6046223   -3.6046223   -2.4370587    0.0894688   -3.6046223    1.1675636   520538 
  344000    1.0703303   -3.6042027   -3.6042027   -2.4386087   0.09571938   -3.6042027     1.165594   520538 
  345000    1.0698592    -3.604607    -3.604607    -2.439526  0.095960133    -3.604607     1.165081   520538 
  346000    1.0700428   -3.6052856   -3.6052856   -2.4400046  0.088586033   -3.6052856     1.165281   520538 
  347000    1.0707779   -3.6064578   -3.6064578   -2.4403762  0.089173346   -3.6064578    1.1660815   520538 
  348000    1.0721056   -3.6092062   -3.6092062   -2.4416788  0.099254262   -3.6092062    1.1675274   520538 
  349000    1.0705117   -3.6085947   -3.6085947   -2.4428031  0.093039204   -3.6085947    1.1657916   520538 
  350000    1.0711265   -3.6093333   -3.6093333   -2.4428723  0.095863645   -3.6093333    1.1664611   520538 
  351000    1.0699821   -3.6085516   -3.6085516   -2.4433367  0.096628166   -3.6085516    1.1652149   520538 
  352000    1.0713021   -3.6112061   -3.6112061   -2.4445537  0.075460141   -3.6112061    1.1666524   520538 
  353000    1.0717172    -3.611882    -3.611882   -2.4447776  0.081994141    -3.611882    1.1671044   520538 
  354000    1.0705667    -3.610884    -3.610884   -2.4450326  0.091675795    -3.610884    1.1658515   520538 
  355000    1.0698823    -3.610724    -3.610724   -2.4456178   0.10163466    -3.610724    1.1651062   520538 
  356000    1.0696266   -3.6117066   -3.6117066   -2.4468789  0.086039338   -3.6117066    1.1648277   520538 
  357000    1.0701539   -3.6116497   -3.6116497   -2.4462478  0.097269782   -3.6116497     1.165402   520538 
  358000      1.06908   -3.6112228   -3.6112228   -2.4469903   0.11015863   -3.6112228    1.1642325   520538 
  359000    1.0688384   -3.6124307   -3.6124307   -2.4484613   0.10126123   -3.6124307    1.1639694   520538 
  360000     1.069587   -3.6137148   -3.6137148   -2.4489302  0.086838108   -3.6137148    1.1647846   520538 
  361000    1.0700821   -3.6151374   -3.6151374   -2.4498136   0.10578311   -3.6151374    1.1653237   520538 
  362000    1.0701564   -3.6151459   -3.6151459   -2.4497412  0.092089967   -3.6151459    1.1654047   520538 
  363000    1.0706361   -3.6169259   -3.6169259   -2.4509988  0.077753407   -3.6169259    1.1659271   520538 
  364000    1.0693771   -3.6157549   -3.6157549   -2.4511988  0.088881062   -3.6157549     1.164556   520538 
  365000    1.0678994    -3.614169    -3.614169   -2.4512223   0.10075178    -3.614169    1.1629468   520538 
  366000    1.0696789   -3.6162862   -3.6162862   -2.4514015  0.094049014   -3.6162862    1.1648846   520538 
  367000    1.0686442   -3.6167731   -3.6167731   -2.4530152   0.10054315   -3.6167731    1.1637579   520538 
  368000     1.066253   -3.6152036   -3.6152036   -2.4540498  0.095682575   -3.6152036    1.1611538   520538 
  369000    1.0661778   -3.6159186   -3.6159186   -2.4548467  0.079950395   -3.6159186    1.1610719   520538 
  370000      1.06541   -3.6147762   -3.6147762   -2.4545404  0.079802258   -3.6147762    1.1602359   520538 
  371000    1.0655068   -3.6151292   -3.6151292   -2.4547879  0.090479476   -3.6151292    1.1603412   520538 
  372000    1.0691257   -3.6194461   -3.6194461   -2.4551638  0.090368764   -3.6194461    1.1642823   520538 
  373000    1.0688603   -3.6197674   -3.6197674   -2.4557742  0.087947118   -3.6197674    1.1639932   520538 
  374000    1.0679376   -3.6195418   -3.6195418   -2.4565535  0.087591749   -3.6195418    1.1629884   520538 
  375000    1.0666539   -3.6181224   -3.6181224    -2.456532   0.09977698   -3.6181224    1.1615904   520538 
  376000    1.0657296   -3.6189479   -3.6189479    -2.458364  0.079241899   -3.6189479    1.1605839   520538 
  377000    1.0681029    -3.621427    -3.621427   -2.4582587  0.091492572    -3.621427    1.1631684   520538 
  378000    1.0682075    -3.621654    -3.621654   -2.4583717  0.085682079    -3.621654    1.1632824   520538 
  379000    1.0653461   -3.6204385   -3.6204385   -2.4602723  0.086045043   -3.6204385    1.1601662   520538 
  380000    1.0662276   -3.6219417   -3.6219417   -2.4608154  0.084186676   -3.6219417    1.1611262   520538 
  381000    1.0666844    -3.622047    -3.622047   -2.4604234  0.079516577    -3.622047    1.1616236   520538 
  382000    1.0665704   -3.6220738   -3.6220738   -2.4605743  0.088699993   -3.6220738    1.1614995   520538 
  383000    1.0650084   -3.6204231   -3.6204231   -2.4606246  0.087762287   -3.6204231    1.1597985   520538 
  384000    1.0678306   -3.6231555   -3.6231555   -2.4602836  0.077984114   -3.6231555    1.1628718   520538 
  385000    1.0665267     -3.62192     -3.62192   -2.4604681  0.080463016     -3.62192    1.1614519   520538 
  386000    1.0657899   -3.6221869   -3.6221869   -2.4615374  0.082001386   -3.6221869    1.1606495   520538 
  387000    1.0652927   -3.6223122   -3.6223122   -2.4622041    0.1023086   -3.6223122    1.1601081   520538 
  388000    1.0653026   -3.6236512   -3.6236512   -2.4635324  0.087690435   -3.6236512    1.1601188   520538 
  389000    1.0651421   -3.6225243   -3.6225243   -2.4625803  0.083207701   -3.6225243     1.159944   520538 
  390000    1.0654732   -3.6232294   -3.6232294   -2.4629248   0.08682378   -3.6232294    1.1603046   520538 
  391000    1.0655474   -3.6233814   -3.6233814    -2.462996  0.065785031   -3.6233814    1.1603855   520538 
  392000    1.0639235   -3.6219881   -3.6219881   -2.4633711  0.087220018   -3.6219881     1.158617   520538 
  393000    1.0652206   -3.6229582   -3.6229582   -2.4629287  0.081358719   -3.6229582    1.1600295   520538 
  394000    1.0643719   -3.6230275   -3.6230275   -2.4639221   0.07467786   -3.6230275    1.1591053   520538 
  395000    1.0661485   -3.6253695   -3.6253695   -2.4643294  0.095696811   -3.6253695    1.1610401   520538 
  396000    1.0650227   -3.6259272   -3.6259272   -2.4661132  0.083542848   -3.6259272     1.159814   520538 
  397000    1.0643775    -3.626455    -3.626455   -2.4673436  0.077481517    -3.626455    1.1591114   520538 
  398000    1.0636644   -3.6259025   -3.6259025   -2.4675676  0.081624671   -3.6259025    1.1583348   520538 
  399000    1.0645977   -3.6277718   -3.6277718   -2.4684206  0.086531396   -3.6277718    1.1593512   520538 
  400000    1.0639152    -3.626565    -3.626565   -2.4679571  0.066506599    -3.626565     1.158608   520538 
  401000    1.0635395   -3.6263221   -3.6263221   -2.4681233  0.091098027   -3.6263221    1.1581988   520538 
  402000    1.0644975    -3.626886    -3.626886   -2.4676439  0.090334434    -3.626886    1.1592421   520538 
  403000    1.0628499   -3.6253043   -3.6253043   -2.4678564  0.098052392   -3.6253043    1.1574479   520538 
  404000    1.0631523   -3.6264262   -3.6264262    -2.468649   0.09680739   -3.6264262    1.1577772   520538 
  405000    1.0651683   -3.6288417   -3.6288417   -2.4688692  0.081825339   -3.6288417    1.1599726   520538 
  406000    1.0633253   -3.6274383   -3.6274383   -2.4694727  0.083295672   -3.6274383    1.1579656   520538 
  407000    1.0629239   -3.6268661   -3.6268661   -2.4693376  0.095548616   -3.6268661    1.1575285   520538 
  408000    1.0657044   -3.6306977   -3.6306977   -2.4701413  0.072202354   -3.6306977    1.1605564   520538 
  409000    1.0623554   -3.6285091   -3.6285091   -2.4715998   0.07266178   -3.6285091    1.1569094   520538 
  410000    1.0620513   -3.6269658   -3.6269658   -2.4703876   0.07780117   -3.6269658    1.1565782   520538 
  411000    1.0655754   -3.6314077   -3.6314077   -2.4709918  0.089105866   -3.6314077    1.1604159   520538 
  412000    1.0636335   -3.6293747   -3.6293747   -2.4710735  0.087380139   -3.6293747    1.1583012   520538 
  413000    1.0645545   -3.6306847   -3.6306847   -2.4713806  0.093442923   -3.6306847    1.1593042   520538 
  414000     1.063087   -3.6290693   -3.6290693   -2.4713631  0.088192453   -3.6290693    1.1577061   520538 
  415000     1.061997   -3.6292214   -3.6292214   -2.4727023  0.092659639   -3.6292214    1.1565191   520538 
  416000    1.0646244   -3.6316416   -3.6316416   -2.4722613  0.096620374   -3.6316416    1.1593804   520538 
  417000    1.0619886    -3.630202    -3.630202    -2.473692  0.095215821    -3.630202      1.15651   520538 
  418000    1.0637654   -3.6318184   -3.6318184   -2.4733735  0.091086565   -3.6318184    1.1584449   520538 
  419000    1.0623697   -3.6310816   -3.6310816   -2.4741568  0.089735113   -3.6310816    1.1569249   520538 
  420000    1.0634684    -3.632313    -3.632313   -2.4741915   0.10032103    -3.632313    1.1581214   520538 
  421000    1.0632231   -3.6323099   -3.6323099   -2.4744556  0.099503977   -3.6323099    1.1578543   520538 
  422000    1.0628551   -3.6316688   -3.6316688   -2.4742152  0.089701313   -3.6316688    1.1574535   520538 
  423000    1.0618447   -3.6317655   -3.6317655   -2.4754124   0.07577297   -3.6317655    1.1563532   520538 
  424000    1.0618336   -3.6322164   -3.6322164   -2.4758754  0.080492442   -3.6322164    1.1563411   520538 
  425000    1.0646743   -3.6359638   -3.6359638   -2.4765292  0.087843387   -3.6359638    1.1594346   520538 
  426000    1.0618731   -3.6318152   -3.6318152   -2.4754311  0.091440303   -3.6318152    1.1563841   520538 
  427000    1.0653403   -3.6359996   -3.6359996   -2.4758397  0.075696064   -3.6359996      1.16016   520538 
  428000     1.064045    -3.636042    -3.636042   -2.4772927  0.090660035    -3.636042    1.1587493   520538 
  429000    1.0623556   -3.6351339   -3.6351339   -2.4782243  0.095787423   -3.6351339    1.1569095   520538 
  430000    1.0635476   -3.6363623   -3.6363623   -2.4781546  0.079320004   -3.6363623    1.1582077   520538 
  431000    1.0623206   -3.6352095   -3.6352095    -2.478338  0.079967535   -3.6352095    1.1568715   520538 
  432000    1.0638091   -3.6366868   -3.6366868   -2.4781944   0.07555922   -3.6366868    1.1584924   520538 
  433000    1.0614857   -3.6354782   -3.6354782    -2.479516  0.073612807   -3.6354782    1.1559622   520538 
  434000    1.0608163   -3.6350887   -3.6350887   -2.4798554  0.089047786   -3.6350887    1.1552333   520538 
  435000    1.0639103   -3.6391474   -3.6391474   -2.4805448  0.083214188   -3.6391474    1.1586027   520538 
  436000    1.0598148   -3.6357111   -3.6357111   -2.4815684  0.090970245   -3.6357111    1.1541427   520538 
  437000    1.0614771   -3.6374203   -3.6374203   -2.4814674  0.087843066   -3.6374203    1.1559528   520538 
  438000    1.0614319   -3.6376942   -3.6376942   -2.4817905  0.081361474   -3.6376942    1.1559037   520538 
  439000    1.0608423   -3.6373659   -3.6373659   -2.4821043   0.10213308   -3.6373659    1.1552615   520538 
  440000    1.0622319    -3.639522    -3.639522   -2.4827471  0.092389303    -3.639522    1.1567749   520538 
  441000    1.0618055    -3.639928    -3.639928   -2.4836175  0.078713324    -3.639928    1.1563105   520538 
  442000    1.0581691   -3.6366903   -3.6366903   -2.4843398  0.081514093   -3.6366903    1.1523505   520538 
  443000    1.0581824   -3.6372039   -3.6372039    -2.484839  0.083526852   -3.6372039    1.1523649   520538 
  444000    1.0595392   -3.6388885   -3.6388885   -2.4850459  0.089086162   -3.6388885    1.1538425   520538 
  445000    1.0605208   -3.6397456   -3.6397456   -2.4848342  0.090656637   -3.6397456    1.1549114   520538 
  446000    1.0607462    -3.640511    -3.640511    -2.485354   0.08022327    -3.640511     1.155157   520538 
  447000    1.0601677   -3.6407765   -3.6407765   -2.4862496  0.083804668   -3.6407765     1.154527   520538 
  448000    1.0596355   -3.6396091   -3.6396091   -2.4856618  0.090823368   -3.6396091    1.1539474   520538 
  449000    1.0607058     -3.64098     -3.64098   -2.4858671  0.078065529     -3.64098    1.1551129   520538 
  450000    1.0594641   -3.6397708   -3.6397708   -2.4860101   0.08633615   -3.6397708    1.1537607   520538 
  451000     1.058506   -3.6390206   -3.6390206   -2.4863032  0.092193978   -3.6390206    1.1527174   520538 
  452000    1.0608338   -3.6418798   -3.6418798   -2.4866275  0.071028888   -3.6418798    1.1552523   520538 
  453000    1.0621004   -3.6438262   -3.6438262   -2.4871945  0.076112957   -3.6438262    1.1566317   520538 
  454000    1.0592466   -3.6408143   -3.6408143   -2.4872904  0.092369206   -3.6408143    1.1535239   520538 
  455000    1.0608853    -3.643459    -3.643459   -2.4881505  0.085926492    -3.643459    1.1553084   520538 
  456000    1.0615653   -3.6440874   -3.6440874   -2.4880385  0.089024858   -3.6440874    1.1560489   520538 
  457000    1.0594442   -3.6415359   -3.6415359   -2.4877969   0.08337925   -3.6415359     1.153739   520538 
  458000    1.0601601   -3.6421825   -3.6421825   -2.4876638  0.093243341   -3.6421825    1.1545187   520538 
  459000    1.0609592   -3.6435345   -3.6435345   -2.4881456  0.066272379   -3.6435345    1.1553888   520538 
  460000    1.0601211   -3.6430974   -3.6430974   -2.4886212  0.080934963   -3.6430974    1.1544762   520538 
  461000    1.0581013   -3.6417262   -3.6417262   -2.4894496  0.091610859   -3.6417262    1.1522766   520538 
  462000    1.0604117   -3.6444932   -3.6444932   -2.4897006   0.09553055   -3.6444932    1.1547926   520538 
  463000    1.0598602   -3.6451319   -3.6451319   -2.4909399  0.085380413   -3.6451319    1.1541921   520538 
  464000     1.059118   -3.6437227   -3.6437227   -2.4903388  0.079125214   -3.6437227    1.1533839   520538 
  465000     1.060059   -3.6454364   -3.6454364   -2.4910279  0.097252604   -3.6454364    1.1544086   520538 
  466000      1.06214   -3.6480643   -3.6480643   -2.4913895  0.083785386   -3.6480643    1.1566748   520538 
  467000    1.0607591   -3.6479993   -3.6479993   -2.4928283  0.096181163   -3.6479993     1.155171   520538 
  468000    1.0584856   -3.6461963   -3.6461963   -2.4935012  0.085252599   -3.6461963    1.1526951   520538 
  469000    1.0573036   -3.6462681   -3.6462681   -2.4948601  0.077556943   -3.6462681    1.1514079   520538 
  470000    1.0594843   -3.6487623   -3.6487623   -2.4949796  0.086688796   -3.6487623    1.1537827   520538 
  471000    1.0577165   -3.6477555   -3.6477555   -2.4958979  0.067275077   -3.6477555    1.1518576   520538 
  472000    1.0619784   -3.6527307   -3.6527307   -2.4962319  0.096807682   -3.6527307    1.1564988   520538 
  473000    1.0602272    -3.651069    -3.651069   -2.4964773  0.079613423    -3.651069    1.1545917   520538 
  474000    1.0584732   -3.6490025   -3.6490025   -2.4963208  0.077383318   -3.6490025    1.1526816   520538 
  475000    1.0578471   -3.6477991   -3.6477991   -2.4957992  0.091140849   -3.6477991    1.1519998   520538 
  476000    1.0587033   -3.6496454   -3.6496454   -2.4967131  0.083256624   -3.6496454    1.1529323   520538 
  477000     1.058608   -3.6504999   -3.6504999   -2.4976715  0.093138711   -3.6504999    1.1528284   520538 
  478000    1.0594239    -3.652207    -3.652207   -2.4984901  0.089468709    -3.652207    1.1537169   520538 
  479000      1.06087   -3.6542902   -3.6542902   -2.4989984  0.069490577   -3.6542902    1.1552918   520538 
  480000    1.0584938   -3.6514612   -3.6514612   -2.4987571   0.08814949   -3.6514612     1.152704   520538 
  481000    1.0589024   -3.6522495   -3.6522495   -2.4991005  0.088656512   -3.6522495     1.153149   520538 
  482000    1.0563426   -3.6501319   -3.6501319   -2.4997705  0.083160826   -3.6501319    1.1503614   520538 
  483000    1.0554564   -3.6511118   -3.6511118   -2.5017155  0.087519382   -3.6511118    1.1493964   520538 
  484000     1.058166   -3.6533543   -3.6533543   -2.5010072  0.091511533   -3.6533543    1.1523471   520538 
  485000    1.0585072     -3.65406     -3.65406   -2.5013414  0.080930937     -3.65406    1.1527186   520538 
  486000    1.0552033   -3.6505337   -3.6505337    -2.501413   0.09333692   -3.6505337    1.1491207   520538 
  487000    1.0546884   -3.6500547   -3.6500547   -2.5014948  0.073496067   -3.6500547    1.1485599   520538 
  488000    1.0573655   -3.6535755   -3.6535755   -2.5021002  0.068025198   -3.6535755    1.1514754   520538 
  489000     1.057823    -3.654224    -3.654224   -2.5022505   0.08599631    -3.654224    1.1519735   520538 
  490000    1.0578491   -3.6546989   -3.6546989   -2.5026969  0.081581241   -3.6546989     1.152002   520538 
  491000    1.0560654   -3.6533852   -3.6533852   -2.5033257  0.069895374   -3.6533852    1.1500595   520538 
  492000    1.0550888   -3.6527956   -3.6527956   -2.5037996  0.078665585   -3.6527956     1.148996   520538 
  493000    1.0553775   -3.6536081   -3.6536081   -2.5042977   0.08274919   -3.6536081    1.1493104   520538 
  494000    1.0556927   -3.6540107   -3.6540107   -2.5043571  0.096744675   -3.6540107    1.1496536   520538 
  495000    1.0592093   -3.6580568   -3.6580568   -2.5045736  0.079897174   -3.6580568    1.1534833   520538 
  496000    1.0582648   -3.6568361   -3.6568361   -2.5043815  0.080877606   -3.6568361    1.1524546   520538 
  497000    1.0553692   -3.6545077   -3.6545077   -2.5052063  0.079897842   -3.6545077    1.1493014   520538 
  498000    1.0563116   -3.6553912   -3.6553912   -2.5050635  0.089655432   -3.6553912    1.1503277   520538 
  499000    1.0587152   -3.6589751   -3.6589751     -2.50603  0.093111566   -3.6589751    1.1529451   520538 
  500000     1.055364   -3.6558996   -3.6558996   -2.5066039   0.10210575   -3.6558996    1.1492957   520538 
  501000    1.0585053   -3.6602813   -3.6602813   -2.5075646  0.095554693   -3.6602813    1.1527166   520538 
  502000    1.0552649   -3.6568541   -3.6568541   -2.5076664  0.099628366   -3.6568541    1.1491877   520538 
  503000    1.0554125   -3.6573076   -3.6573076   -2.5079591  0.090358909   -3.6573076    1.1493485   520538 
  504000    1.0547994   -3.6562324   -3.6562324   -2.5075515  0.082634821   -3.6562324    1.1486809   520538 
  505000    1.0559203   -3.6575397   -3.6575397   -2.5076383  0.078890095   -3.6575397    1.1499015   520538 
  506000    1.0557134   -3.6581176   -3.6581176   -2.5084414  0.084792553   -3.6581176    1.1496762   520538 
  507000    1.0543028   -3.6572689   -3.6572689   -2.5091289  0.077963041   -3.6572689    1.1481401   520538 
  508000    1.0559297   -3.6594304   -3.6594304   -2.5095187  0.069304246   -3.6594304    1.1499117   520538 
  509000    1.0555793   -3.6600491   -3.6600491   -2.5105189  0.079307536   -3.6600491    1.1495302   520538 
  510000    1.0562038   -3.6608558   -3.6608558   -2.5106456   0.10219445   -3.6608558    1.1502102   520538 
  511000    1.0564699   -3.6603276   -3.6603276   -2.5098276   0.07903063   -3.6603276       1.1505   520538 
  512000    1.0550656   -3.6600012   -3.6600012   -2.5110305  0.084513036   -3.6600012    1.1489707   520538 
  513000    1.0566424   -3.6624965   -3.6624965   -2.5118086  0.062103802   -3.6624965    1.1506879   520538 
  514000    1.0543044   -3.6603282   -3.6603282   -2.5121864   0.08033235   -3.6603282    1.1481418   520538 
  515000    1.0555707    -3.661321    -3.661321   -2.5118002   0.08928347    -3.661321    1.1495208   520538 
  516000    1.0539836   -3.6606305   -3.6606305    -2.512838  0.083947257   -3.6606305    1.1477925   520538 
  517000    1.0539954   -3.6614319   -3.6614319   -2.5136267  0.078442481   -3.6614319    1.1478052   520538 
  518000    1.0565269   -3.6641894   -3.6641894   -2.5136273  0.076312846   -3.6641894    1.1505621   520538 
  519000    1.0555568    -3.664104    -3.664104   -2.5145984  0.088981034    -3.664104    1.1495056   520538 
  520000    1.0555759   -3.6645598   -3.6645598   -2.5150333  0.097574857   -3.6645598    1.1495265   520538 
  521000    1.0542926   -3.6633919   -3.6633919    -2.515263  0.076809572   -3.6633919    1.1481289   520538 
  522000    1.0542965   -3.6633612   -3.6633612    -2.515228   0.09842327   -3.6633612    1.1481332   520538 
  523000    1.0564006   -3.6650978   -3.6650978   -2.5146732  0.077220837   -3.6650978    1.1504246   520538 
  524000    1.0545969   -3.6620578   -3.6620578   -2.5135975  0.094239033   -3.6620578    1.1484604   520538 
  525000    1.0554901   -3.6632946   -3.6632946   -2.5138616  0.078672868   -3.6632946     1.149433   520538 
  526000     1.055329   -3.6635299   -3.6635299   -2.5142723  0.081883702   -3.6635299    1.1492576   520538 
  527000    1.0535195    -3.662317    -3.662317     -2.51503  0.080853296    -3.662317     1.147287   520538 
  528000    1.0538212   -3.6627127   -3.6627127   -2.5150972  0.087143177   -3.6627127    1.1476155   520538 
  529000    1.0531692   -3.6626375   -3.6626375   -2.5157319  0.094807569   -3.6626375    1.1469056   520538 
  530000    1.0521951    -3.662143    -3.662143   -2.5162983  0.084689725    -3.662143    1.1458447   520538 
  531000    1.0549956    -3.664461    -3.664461   -2.5155665  0.084215477    -3.664461    1.1488945   520538 
  532000    1.0550303   -3.6660623   -3.6660623     -2.51713  0.084703158   -3.6660623    1.1489323   520538 
  533000    1.0525063   -3.6633342   -3.6633342   -2.5171505  0.081534414   -3.6633342    1.1461837   520538 
  534000    1.0532002   -3.6651235   -3.6651235   -2.5181842   0.08035494   -3.6651235    1.1469393   520538 
  535000    1.0534475   -3.6659363   -3.6659363   -2.5187276  0.084190782   -3.6659363    1.1472086   520538 
  536000    1.0526931   -3.6659473   -3.6659473   -2.5195602  0.093483702   -3.6659473    1.1463871   520538 
  537000    1.0524495   -3.6668928   -3.6668928    -2.520771  0.082711938   -3.6668928    1.1461218   520538 
  538000    1.0550179   -3.6689204   -3.6689204   -2.5200016  0.072223774   -3.6689204    1.1489188   520538 
  539000    1.0550782   -3.6694655   -3.6694655   -2.5204811  0.072225565   -3.6694655    1.1489844   520538 
  540000    1.0534516   -3.6684926   -3.6684926   -2.5212795  0.071906594   -3.6684926     1.147213   520538 
  541000    1.0533247   -3.6678587   -3.6678587   -2.5207838  0.090825315   -3.6678587    1.1470749   520538 
  542000    1.0535936    -3.667781    -3.667781   -2.5204132  0.083985252    -3.667781    1.1473677   520538 
  543000    1.0537356   -3.6683149   -3.6683149   -2.5207926  0.090305545   -3.6683149    1.1475223   520538 
  544000    1.0522923   -3.6671766   -3.6671766    -2.521226  0.086751945   -3.6671766    1.1459506   520538 
  545000    1.0532054   -3.6685602   -3.6685602   -2.5216152   0.06891773   -3.6685602     1.146945   520538 
  546000    1.0515198   -3.6667288   -3.6667288   -2.5216195  0.077954157   -3.6667288    1.1451093   520538 
  547000    1.0519774   -3.6679369   -3.6679369   -2.5223293  0.064909057   -3.6679369    1.1456077   520538 
  548000    1.0538423   -3.6703936   -3.6703936    -2.522755  0.088671342   -3.6703936    1.1476385   520538 
  549000     1.051361   -3.6684051   -3.6684051   -2.5234687  0.072112619   -3.6684051    1.1449364   520538 
  550000    1.0521439   -3.6693858   -3.6693858   -2.5235968  0.083472924   -3.6693858     1.145789   520538 
  551000    1.0546849   -3.6729674   -3.6729674   -2.5244113   0.10257303   -3.6729674    1.1485561   520538 
  552000     1.051793   -3.6704662   -3.6704662   -2.5250594  0.091320471   -3.6704662    1.1454068   520538 
  553000    1.0543797   -3.6726487   -3.6726487    -2.524425  0.075886271   -3.6726487    1.1482238   520538 
  554000    1.0513473    -3.669753    -3.669753   -2.5248315  0.071701769    -3.669753    1.1449215   520538 
  555000    1.0520923   -3.6700532   -3.6700532   -2.5243204  0.079141635   -3.6700532    1.1457328   520538 
  556000    1.0528781   -3.6713513   -3.6713513   -2.5247627  0.070159908   -3.6713513    1.1465886   520538 
  557000    1.0507435   -3.6701866   -3.6701866   -2.5259226  0.078913968   -3.6701866    1.1442639   520538 
  558000    1.0525967   -3.6723441   -3.6723441    -2.526062  0.081036372   -3.6723441    1.1462821   520538 
  559000    1.0539739   -3.6737538   -3.6737538   -2.5259719  0.090830008   -3.6737538    1.1477819   520538 
  560000     1.053235   -3.6739205   -3.6739205   -2.5269432  0.096725201   -3.6739205    1.1469772   520538 
  561000    1.0536265   -3.6749256   -3.6749256    -2.527522  0.077322172   -3.6749256    1.1474036   520538 
  562000    1.0511638   -3.6719554   -3.6719554   -2.5272338  0.082639218   -3.6719554    1.1447217   520538 
  563000    1.0516296   -3.6732396   -3.6732396   -2.5280107  0.072720754   -3.6732396     1.145229   520538 
  564000    1.0527398   -3.6744899   -3.6744899    -2.528052  0.091331154   -3.6744899    1.1464379   520538 
  565000    1.0522986   -3.6748334   -3.6748334    -2.528876  0.085324685   -3.6748334    1.1459574   520538 
  566000    1.0517778    -3.675129    -3.675129   -2.5297387  0.088646349    -3.675129    1.1453903   520538 
  567000    1.0519159   -3.6749446   -3.6749446   -2.5294039  0.078170281   -3.6749446    1.1455407   520538 
  568000    1.0529604   -3.6760506   -3.6760506   -2.5293724  0.085265059   -3.6760506    1.1466782   520538 
  569000    1.0500877   -3.6732189   -3.6732189   -2.5296692  0.075009673   -3.6732189    1.1435498   520538 
  570000    1.0508881   -3.6745956   -3.6745956   -2.5301742  0.092105406   -3.6745956    1.1444214   520538 
  571000    1.0507204   -3.6749221   -3.6749221   -2.5306833  0.080664685   -3.6749221    1.1442388   520538 
  572000    1.0509796   -3.6742641   -3.6742641    -2.529743  0.081710287   -3.6742641     1.144521   520538 
  573000    1.0515448   -3.6761495   -3.6761495   -2.5310129  0.061763034   -3.6761495    1.1451366   520538 
  574000     1.052036   -3.6764101   -3.6764101   -2.5307386  0.088525743   -3.6764101    1.1456715   520538 
  575000     1.052479    -3.677609    -3.677609    -2.531455  0.070997268    -3.677609    1.1461539   520538 
  576000    1.0528118   -3.6782908   -3.6782908   -2.5317745  0.078125105   -3.6782908    1.1465163   520538 
  577000    1.0506273   -3.6762132   -3.6762132   -2.5320758  0.082440773   -3.6762132    1.1441374   520538 
  578000    1.0518154   -3.6777824   -3.6777824   -2.5323511  0.072564052   -3.6777824    1.1454312   520538 
  579000    1.0504981   -3.6766556   -3.6766556   -2.5326588  0.073818228   -3.6766556    1.1439967   520538 
  580000    1.0522311   -3.6781224   -3.6781224   -2.5322384  0.084768983   -3.6781224     1.145884   520538 
  581000    1.0525661   -3.6794612   -3.6794612   -2.5332125  0.072196835   -3.6794612    1.1462487   520538 
  582000    1.0494491   -3.6767336   -3.6767336   -2.5338793  0.070325293   -3.6767336    1.1428543   520538 
  583000    1.0505578    -3.678661    -3.678661   -2.5345994  0.084917498    -3.678661    1.1440617   520538 
  584000    1.0493433   -3.6766337   -3.6766337   -2.5338946   0.07949554   -3.6766337    1.1427391   520538 
  585000    1.0514879   -3.6793687   -3.6793687   -2.5342941  0.093060871   -3.6793687    1.1450746   520538 
  586000    1.0511188   -3.6790313   -3.6790313   -2.5343586  0.081278623   -3.6790313    1.1446727   520538 
  587000    1.0529355   -3.6805944   -3.6805944   -2.5339433   0.08462494   -3.6805944    1.1466511   520538 
  588000    1.0530948   -3.6806618   -3.6806618   -2.5338373  0.067197294   -3.6806618    1.1468245   520538 
  589000    1.0498563   -3.6790529   -3.6790529   -2.5357551  0.062796862   -3.6790529    1.1432977   520538 
  590000     1.050545   -3.6803555   -3.6803555   -2.5363077  0.089037087   -3.6803555    1.1440478   520538 
  591000    1.0515571   -3.6815714   -3.6815714   -2.5364214  0.070399713   -3.6815714      1.14515   520538 
  592000     1.052547   -3.6825861   -3.6825861   -2.5363581  0.079921613   -3.6825861     1.146228   520538 
  593000        1.052   -3.6816802   -3.6816802   -2.5360479  0.096083414   -3.6816802    1.1456323   520538 
  594000     1.051176   -3.6815673   -3.6815673   -2.5368323  0.083075322   -3.6815673    1.1447349   520538 
  595000     1.049806   -3.6812075   -3.6812075   -2.5379645  0.072398681   -3.6812075     1.143243   520538 
  596000    1.0486299   -3.6797471   -3.6797471   -2.5377848  0.079924694   -3.6797471    1.1419623   520538 
  597000    1.0513074   -3.6827706   -3.6827706   -2.5378926  0.090989979   -3.6827706     1.144878   520538 
  598000    1.0507033   -3.6824663   -3.6824663   -2.5382461    0.0784695   -3.6824663    1.1442202   520538 
  599000    1.0513296   -3.6833176   -3.6833176   -2.5384154  0.099092314   -3.6833176    1.1449022   520538 
  600000    1.0519259      -3.6836      -3.6836   -2.5380484  0.082818604      -3.6836    1.1455516   520538 
  601000    1.0499285   -3.6829944   -3.6829944    -2.539618  0.084689081   -3.6829944    1.1433764   520538 
  602000    1.0517693   -3.6857265   -3.6857265   -2.5403454  0.088434968   -3.6857265     1.145381   520538 
  603000    1.0518339   -3.6855969   -3.6855969   -2.5401455  0.084869761   -3.6855969    1.1454514   520538 
  604000    1.0505106   -3.6843024   -3.6843024    -2.540292   0.06424829   -3.6843024    1.1440104   520538 
  605000    1.0497734   -3.6839794   -3.6839794   -2.5407719  0.072132257   -3.6839794    1.1432075   520538 
  606000    1.0496946   -3.6849936   -3.6849936   -2.5418719  0.092714498   -3.6849936    1.1431217   520538 
  607000    1.0504487   -3.6863051   -3.6863051   -2.5423622  0.058316435   -3.6863051    1.1439429   520538 
  608000     1.050525   -3.6861728   -3.6861728   -2.5421468   0.08210009   -3.6861728     1.144026   520538 
  609000    1.0479255   -3.6843675   -3.6843675   -2.5431724  0.067361918   -3.6843675    1.1411952   520538 
  610000    1.0489241    -3.685844    -3.685844   -2.5435613  0.078157384    -3.685844    1.1422827   520538 
  611000    1.0493202    -3.687762    -3.687762    -2.545048  0.071853155    -3.687762    1.1427139   520538 
  612000    1.0482347   -3.6859326   -3.6859326   -2.5444007  0.096904073   -3.6859326    1.1415319   520538 
  613000    1.0506006   -3.6883472   -3.6883472   -2.5442389  0.067283957   -3.6883472    1.1441083   520538 
  614000    1.0489089   -3.6873887   -3.6873887   -2.5451226  0.085935382   -3.6873887    1.1422661   520538 
  615000    1.0475755   -3.6852465   -3.6852465   -2.5444325  0.073344613   -3.6852465     1.140814   520538 
  616000    1.0489695   -3.6875503   -3.6875503   -2.5452183  0.092517421   -3.6875503     1.142332   520538 
  617000    1.0514286   -3.6905009   -3.6905009    -2.545491  0.082373545   -3.6905009      1.14501   520538 
  618000    1.0495521   -3.6888646   -3.6888646   -2.5458982  0.088295289   -3.6888646    1.1429665   520538 
  619000    1.0506149   -3.6904404   -3.6904404   -2.5463165  0.092992813   -3.6904404    1.1441239   520538 
  620000    1.0476341   -3.6877512   -3.6877512   -2.5468735  0.091142032   -3.6877512    1.1408778   520538 
  621000    1.0498336   -3.6908652   -3.6908652   -2.5475921   0.07043824   -3.6908652    1.1432731   520538 
  622000    1.0483128   -3.6893574   -3.6893574   -2.5477405  0.079602214   -3.6893574    1.1416169   520538 
  623000    1.0481358   -3.6880946   -3.6880946   -2.5466704  0.096051218   -3.6880946    1.1414242   520538 
  624000    1.0483389   -3.6894935   -3.6894935   -2.5478482    0.0900238   -3.6894935    1.1416453   520538 
  625000    1.0495128    -3.691302    -3.691302   -2.5483784   0.07784205    -3.691302    1.1429237   520538 
  626000    1.0500374   -3.6922607   -3.6922607   -2.5487657  0.075792626   -3.6922607     1.143495   520538 
  627000    1.0478788   -3.6898688   -3.6898688   -2.5487246  0.080852142   -3.6898688    1.1411442   520538 
  628000    1.0495129   -3.6923832   -3.6923832   -2.5494594  0.093705165   -3.6923832    1.1429238   520538 
  629000    1.0491354   -3.6927527   -3.6927527     -2.55024  0.074469503   -3.6927527    1.1425128   520538 
  630000    1.0496119   -3.6930426   -3.6930426    -2.550011  0.085572287   -3.6930426    1.1430316   520538 
  631000    1.0492339   -3.6940965   -3.6940965   -2.5514764  0.087592497   -3.6940965      1.14262   520538 
  632000    1.0486563   -3.6946094   -3.6946094   -2.5526184  0.088074546   -3.6946094     1.141991   520538 
  633000    1.0508416    -3.696707    -3.696707   -2.5523362  0.090814423    -3.696707    1.1443708   520538 
  634000    1.0479727   -3.6929948   -3.6929948   -2.5517483  0.096043726   -3.6929948    1.1412465   520538 
  635000    1.0496655   -3.6955235   -3.6955235   -2.5524336  0.074747429   -3.6955235      1.14309   520538 
  636000    1.0470079   -3.6930602   -3.6930602   -2.5528644  0.079764005   -3.6930602    1.1401958   520538 
  637000    1.0465427   -3.6918237   -3.6918237   -2.5521344  0.087938723   -3.6918237    1.1396893   520538 
  638000    1.0496191   -3.6959676   -3.6959676   -2.5529282  0.087277193   -3.6959676    1.1430395   520538 
  639000    1.0494892   -3.6961563   -3.6961563   -2.5532582  0.074866191   -3.6961563     1.142898   520538 
  640000    1.0491621   -3.6953685   -3.6953685   -2.5528267   0.09687873   -3.6953685    1.1425418   520538 
  641000    1.0465902   -3.6928659   -3.6928659   -2.5531248  0.081985447   -3.6928659     1.139741   520538 
  642000    1.0507436   -3.6983963   -3.6983963   -2.5541322  0.083750243   -3.6983963     1.144264   520538 
  643000    1.0498431   -3.6961955   -3.6961955    -2.552912  0.076215305   -3.6961955    1.1432834   520538 
  644000    1.0484948   -3.6955249   -3.6955249   -2.5537098  0.091875319   -3.6955249    1.1418151   520538 
  645000    1.0495074   -3.6966132   -3.6966132   -2.5536954  0.091666348   -3.6966132    1.1429178   520538 
  646000    1.0512791   -3.6986544   -3.6986544   -2.5538071   0.08807772   -3.6986544    1.1448473   520538 
  647000    1.0504469   -3.6980427   -3.6980427   -2.5541017  0.098625113   -3.6980427    1.1439409   520538 
  648000    1.0477986   -3.6957725   -3.6957725   -2.5547156  0.076726346   -3.6957725    1.1410569   520538 
  649000    1.0493263   -3.6967671   -3.6967671   -2.5540465  0.091900047   -3.6967671    1.1427206   520538 
  650000    1.0483587    -3.695981    -3.695981   -2.5543141   0.08498174    -3.695981    1.1416669   520538 
  651000    1.0473484   -3.6960168   -3.6960168   -2.5554501  0.082667975   -3.6960168    1.1405667   520538 
  652000    1.0479685   -3.6966253   -3.6966253   -2.5553834  0.081092102   -3.6966253     1.141242   520538 
  653000    1.0476225   -3.6957111   -3.6957111    -2.554846  0.074321224   -3.6957111    1.1408651   520538 
  654000    1.0478142    -3.696126    -3.696126   -2.5550521  0.084530317    -3.696126     1.141074   520538 
  655000    1.0485401   -3.6970326   -3.6970326   -2.5551682  0.078720785   -3.6970326    1.1418644   520538 
  656000    1.0484177   -3.6970177   -3.6970177   -2.5552866  0.084458537   -3.6970177    1.1417311   520538 
  657000    1.0490889   -3.6985115   -3.6985115   -2.5560495  0.084057768   -3.6985115     1.142462   520538 
  658000    1.0483688   -3.6982657   -3.6982657   -2.5565877  0.082256881   -3.6982657    1.1416779   520538 
  659000    1.0489004   -3.6987714   -3.6987714   -2.5565146  0.095524782   -3.6987714    1.1422568   520538 
  660000    1.0500728   -3.7007638   -3.7007638   -2.5572303  0.079830264   -3.7007638    1.1435335   520538 
  661000    1.0483631     -3.69918     -3.69918   -2.5575083  0.096415161     -3.69918    1.1416716   520538 
  662000    1.0472524   -3.6994748   -3.6994748   -2.5590127  0.085194097   -3.6994748    1.1404621   520538 
  663000    1.0482424   -3.7003575   -3.7003575   -2.5588173  0.084334205   -3.7003575    1.1415402   520538 
  664000    1.0463639   -3.6994699   -3.6994699   -2.5599754   0.07601979   -3.6994699    1.1394946   520538 
  665000    1.0470745   -3.7009367   -3.7009367   -2.5606683  0.075887266   -3.7009367    1.1402683   520538 
  666000    1.0459468   -3.7002745   -3.7002745   -2.5612342  0.085039539   -3.7002745    1.1390403   520538 
  667000    1.0450785   -3.6991011   -3.6991011   -2.5610063  0.084030398   -3.6991011    1.1380947   520538 
  668000    1.0449536   -3.6989736   -3.6989736    -2.561015  0.083253267   -3.6989736    1.1379587   520538 
  669000    1.0452955   -3.6992838   -3.6992838   -2.5609527  0.073838888   -3.6992838    1.1383311   520538 
  670000    1.0457039   -3.7011185   -3.7011185   -2.5623427  0.077972381   -3.7011185    1.1387758   520538 
  671000    1.0462726   -3.7015387   -3.7015387   -2.5621435  0.066380416   -3.7015387    1.1393951   520538 
  672000    1.0463399   -3.7013212   -3.7013212   -2.5618528  0.086910081   -3.7013212    1.1394685   520538 
  673000    1.0467476   -3.7025122   -3.7025122   -2.5625998  0.074981823   -3.7025122    1.1399124   520538 
  674000    1.0472876   -3.7033219   -3.7033219   -2.5628214  0.089451958   -3.7033219    1.1405005   520538 
  675000    1.0467022   -3.7030176   -3.7030176   -2.5631547  0.088159592   -3.7030176    1.1398629   520538 
  676000    1.0459984   -3.7028233   -3.7028233   -2.5637268  0.079529433   -3.7028233    1.1390965   520538 
  677000     1.048313   -3.7047883   -3.7047883   -2.5631712  0.082877314   -3.7047883    1.1416171   520538 
  678000    1.0465202   -3.7032095   -3.7032095   -2.5635447  0.080880451   -3.7032095    1.1396648   520538 
  679000    1.0465203   -3.7032151   -3.7032151   -2.5635502  0.085093557   -3.7032151    1.1396648   520538 
  680000    1.0473352   -3.7046601   -3.7046601   -2.5641078  0.070111393   -3.7046601    1.1405523   520538 
  681000    1.0482492   -3.7052759   -3.7052759   -2.5637282  0.080655959   -3.7052759    1.1415477   520538 
  682000     1.046823   -3.7046685   -3.7046685    -2.564674  0.087450212   -3.7046685    1.1399945   520538 
  683000    1.0483611   -3.7056323   -3.7056323   -2.5639628  0.082119051   -3.7056323    1.1416695   520538 
  684000    1.0459535   -3.7043489   -3.7043489   -2.5653013  0.070669399   -3.7043489    1.1390477   520538 
  685000    1.0470912   -3.7046307   -3.7046307   -2.5643441   0.07998021   -3.7046307    1.1402866   520538 
  686000    1.0458487    -3.703543    -3.703543   -2.5646095  0.084428602    -3.703543    1.1389334   520538 
  687000    1.0477639   -3.7053155   -3.7053155   -2.5642963  0.075590985   -3.7053155    1.1410192   520538 
  688000    1.0469813    -3.705671    -3.705671   -2.5655042  0.075132958    -3.705671    1.1401669   520538 
  689000    1.0447998   -3.7038233   -3.7038233    -2.566032  0.071145044   -3.7038233    1.1377912   520538 
  690000    1.0445802   -3.7046222   -3.7046222   -2.5670701  0.084122113   -3.7046222    1.1375521   520538 
  691000    1.0448253   -3.7049899   -3.7049899    -2.567171  0.078000532   -3.7049899     1.137819   520538 
  692000    1.0443866   -3.7052176   -3.7052176   -2.5678764  0.092206973   -3.7052176    1.1373413   520538 
  693000    1.0465258   -3.7069155   -3.7069155   -2.5672447   0.10135601   -3.7069155    1.1396708   520538 
  694000    1.0468072   -3.7082343   -3.7082343    -2.568257  0.091055233   -3.7082343    1.1399773   520538 
  695000    1.0450331   -3.7062887   -3.7062887   -2.5682434  0.082997156   -3.7062887    1.1380453   520538 
  696000    1.0466496   -3.7081781   -3.7081781   -2.5683724  0.078767248   -3.7081781    1.1398057   520538 
  697000    1.0447748   -3.7069637   -3.7069637   -2.5691997  0.071219074   -3.7069637     1.137764   520538 
  698000    1.0459276   -3.7084275   -3.7084275   -2.5694081   0.07426775   -3.7084275    1.1390195   520538 
  699000    1.0456928   -3.7085074   -3.7085074   -2.5697438  0.068047439   -3.7085074    1.1387637   520538 
  700000    1.0440018   -3.7070682   -3.7070682    -2.570146    0.0606778   -3.7070682    1.1369222   520538 
  701000    1.0452959   -3.7085115   -3.7085115     -2.57018  0.083686414   -3.7085115    1.1383315   520538 
  702000     1.043143   -3.7068879   -3.7068879   -2.5709009  0.088214435   -3.7068879     1.135987   520538 
  703000     1.044248   -3.7085019   -3.7085019   -2.5713116  0.084844303   -3.7085019    1.1371903   520538 
  704000    1.0446919   -3.7091047   -3.7091047    -2.571431  0.067959198   -3.7091047    1.1376737   520538 
  705000    1.0425627   -3.7068164   -3.7068164   -2.5714615  0.082624156   -3.7068164     1.135355   520538 
  706000    1.0441794   -3.7094261   -3.7094261   -2.5723105  0.085979078   -3.7094261    1.1371156   520538 
  707000    1.0452784   -3.7102665   -3.7102665   -2.5719541  0.076706669   -3.7102665    1.1383124   520538 
  708000    1.0444519   -3.7088078   -3.7088078   -2.5713955  0.079739628   -3.7088078    1.1374124   520538 
  709000    1.0436643   -3.7074139   -3.7074139   -2.5708592  0.062399211   -3.7074139    1.1365547   520538 
  710000    1.0439827   -3.7080884   -3.7080884    -2.571187   0.08781575   -3.7080884    1.1369014   520538 
  711000     1.046347   -3.7114531   -3.7114531    -2.571977  0.070644571   -3.7114531    1.1394761   520538 
  712000    1.0433056   -3.7085241   -3.7085241   -2.5723601  0.077357977   -3.7085241     1.136164   520538 
  713000    1.0443011   -3.7097042   -3.7097042    -2.572456  0.066344827   -3.7097042    1.1372481   520538 
  714000     1.044725    -3.710426    -3.710426   -2.5727162  0.077623757    -3.710426    1.1377098   520538 
  715000    1.0442188   -3.7101191   -3.7101191   -2.5729606  0.084492236   -3.7101191    1.1371585   520538 
  716000    1.0442282   -3.7107538   -3.7107538   -2.5735851  0.072786435   -3.7107538    1.1371688   520538 
  717000     1.045038   -3.7112142   -3.7112142   -2.5731636  0.067171017   -3.7112142    1.1380506   520538 
  718000    1.0417396   -3.7080849   -3.7080849   -2.5736262  0.083591845   -3.7080849    1.1344587   520538 
  719000    1.0433506    -3.710226    -3.710226    -2.574013  0.075583143    -3.710226     1.136213   520538 
  720000    1.0450474   -3.7120291   -3.7120291   -2.5739683  0.071041788   -3.7120291    1.1380608   520538 
  721000    1.0435919   -3.7106571   -3.7106571   -2.5741813  0.073785291   -3.7106571    1.1364758   520538 
  722000    1.0437506   -3.7114682   -3.7114682   -2.5748196  0.069994866   -3.7114682    1.1366486   520538 
  723000    1.0429633   -3.7113194   -3.7113194   -2.5755281  0.062678111   -3.7113194    1.1357913   520538 
  724000    1.0448858   -3.7125234   -3.7125234   -2.5746385  0.077908972   -3.7125234    1.1378848   520538 
  725000    1.0434814   -3.7114188   -3.7114188   -2.5750633  0.067479344   -3.7114188    1.1363555   520538 
  726000    1.0437773   -3.7122349   -3.7122349   -2.5755571  0.082057185   -3.7122349    1.1366778   520538 
  727000    1.0446757   -3.7127066   -3.7127066   -2.5750505  0.086642958   -3.7127066    1.1376561   520538 
  728000    1.0457465   -3.7131007   -3.7131007   -2.5742786  0.073402704   -3.7131007    1.1388222   520538 
  729000    1.0458603   -3.7146881   -3.7146881    -2.575742  0.078487078   -3.7146881    1.1389461   520538 
  730000    1.0451717   -3.7147291   -3.7147291   -2.5765329  0.081628643   -3.7147291    1.1381963   520538 
  731000     1.044604   -3.7137417   -3.7137417   -2.5761636  0.082500095   -3.7137417     1.137578   520538 
  732000    1.0447783   -3.7144441   -3.7144441   -2.5766763  0.078047934   -3.7144441    1.1377678   520538 
  733000    1.0473253   -3.7169242   -3.7169242   -2.5763827   0.07781036   -3.7169242    1.1405416   520538 
  734000    1.0436009   -3.7136701   -3.7136701   -2.5771844  0.082377452   -3.7136701    1.1364856   520538 
  735000    1.0442694   -3.7147553   -3.7147553   -2.5775416  0.086596882   -3.7147553    1.1372137   520538 
  736000    1.0431407   -3.7132092   -3.7132092   -2.5772247  0.076191654   -3.7132092    1.1359845   520538 
  737000    1.0426288   -3.7121114   -3.7121114   -2.5766844  0.073445918   -3.7121114     1.135427   520538 
  738000    1.0430167   -3.7124889   -3.7124889   -2.5766394  0.081407449   -3.7124889    1.1358494   520538 
  739000    1.0454861   -3.7149048   -3.7149048   -2.5763662  0.069486386   -3.7149048    1.1385386   520538 
  740000    1.0449929   -3.7146653   -3.7146653   -2.5766637  0.085723616   -3.7146653    1.1380015   520538 
  741000    1.0464983    -3.715854    -3.715854   -2.5762131  0.084709366    -3.715854    1.1396409   520538 
  742000    1.0461827   -3.7165441   -3.7165441   -2.5772468  0.083983757   -3.7165441    1.1392973   520538 
  743000    1.0454761   -3.7166129   -3.7166129   -2.5780852  0.068241312   -3.7166129    1.1385277   520538 
  744000     1.045641    -3.717371    -3.717371   -2.5786637  0.065282842    -3.717371    1.1387073   520538 
  745000    1.0423919   -3.7141683   -3.7141683   -2.5789992  0.077251657   -3.7141683     1.135169   520538 
  746000    1.0436223   -3.7153573   -3.7153573   -2.5788483  0.075244383   -3.7153573     1.136509   520538 
  747000    1.0425349   -3.7151594   -3.7151594   -2.5798347   0.08035805   -3.7151594    1.1353247   520538 
  748000    1.0450698   -3.7171184   -3.7171184   -2.5790332  0.072861828   -3.7171184    1.1380852   520538 
  749000    1.0433787   -3.7159653   -3.7159653   -2.5797217  0.068337335   -3.7159653    1.1362437   520538 
  750000    1.0414684   -3.7137553   -3.7137553   -2.5795919  0.077418253   -3.7137553    1.1341634   520538 
  751000    1.0432981   -3.7158965   -3.7158965   -2.5797406  0.082750573   -3.7158965    1.1361559   520538 
  752000    1.0429848   -3.7160179   -3.7160179   -2.5802033  0.078338294   -3.7160179    1.1358147   520538 
  753000    1.0426767   -3.7169693   -3.7169693   -2.5814902   0.07177008   -3.7169693    1.1354791   520538 
  754000    1.0426717   -3.7159334   -3.7159334   -2.5804597  0.076010178   -3.7159334    1.1354738   520538 
  755000    1.0436217   -3.7165259   -3.7165259   -2.5800176   0.08771766   -3.7165259    1.1365083   520538 
  756000    1.0432267   -3.7153885   -3.7153885   -2.5793104  0.073370775   -3.7153885    1.1360781   520538 
  757000    1.0436319   -3.7158817   -3.7158817   -2.5793623  0.069571922   -3.7158817    1.1365194   520538 
  758000    1.0415603   -3.7134075   -3.7134075   -2.5791441  0.079512596   -3.7134075    1.1342634   520538 
  759000     1.041441   -3.7129195   -3.7129195    -2.578786  0.080329597   -3.7129195    1.1341335   520538 
  760000    1.0419117   -3.7138666   -3.7138666   -2.5792205  0.070552219   -3.7138666    1.1346461   520538 
  761000    1.0433831   -3.7149285   -3.7149285     -2.57868   0.08004573   -3.7149285    1.1362484   520538 
  762000    1.0442365   -3.7162752   -3.7162752   -2.5790973  0.087381923   -3.7162752    1.1371778   520538 
  763000    1.0436755   -3.7157528   -3.7157528    -2.579186  0.080168889   -3.7157528    1.1365668   520538 
  764000     1.042936   -3.7159822   -3.7159822   -2.5802207   0.10074151   -3.7159822    1.1357615   520538 
  765000    1.0430411   -3.7161991   -3.7161991   -2.5803231  0.072780594   -3.7161991     1.135876   520538 
  766000    1.0429778   -3.7159736   -3.7159736   -2.5801666  0.079894941   -3.7159736     1.135807   520538 
  767000    1.0414903   -3.7140464   -3.7140464   -2.5798592  0.077233537   -3.7140464    1.1341872   520538 
  768000    1.0422845   -3.7156643   -3.7156643   -2.5806123  0.074720997   -3.7156643     1.135052   520538 
  769000    1.0440964   -3.7165815   -3.7165815   -2.5795563  0.075412734   -3.7165815    1.1370252   520538 
  770000    1.0446386   -3.7172255   -3.7172255   -2.5796098  0.068356608   -3.7172255    1.1376157   520538 
  771000    1.0425145   -3.7157702   -3.7157702   -2.5804677  0.076174543   -3.7157702    1.1353025   520538 
  772000    1.0454786   -3.7191123   -3.7191123   -2.5805819  0.067988015   -3.7191123    1.1385305   520538 
  773000    1.0436497   -3.7170714   -3.7170714   -2.5805326  0.070913234   -3.7170714    1.1365387   520538 
  774000    1.0432786   -3.7177904   -3.7177904   -2.5816558  0.061461469   -3.7177904    1.1361346   520538 
  775000    1.0436235   -3.7174706   -3.7174706   -2.5809604  0.069952112   -3.7174706    1.1365102   520538 
  776000    1.0436038   -3.7176226   -3.7176226   -2.5811338    0.0730257   -3.7176226    1.1364887   520538 
  777000    1.0443417   -3.7180422   -3.7180422   -2.5807498  0.066567663   -3.7180422    1.1372924   520538 
  778000    1.0441327   -3.7177837   -3.7177837    -2.580719  0.077634476   -3.7177837    1.1370648   520538 
  779000    1.0450996   -3.7184102   -3.7184102   -2.5802925   0.08678441   -3.7184102    1.1381178   520538 
  780000     1.043461    -3.717191    -3.717191   -2.5808577  0.075003578    -3.717191    1.1363333   520538 
  781000    1.0459622   -3.7191736   -3.7191736   -2.5801166  0.094137506   -3.7191736    1.1390571   520538 
  782000     1.044744   -3.7184173   -3.7184173   -2.5806868  0.089158887   -3.7184173    1.1377305   520538 
  783000    1.0434302   -3.7174335   -3.7174335   -2.5811338  0.069043341   -3.7174335    1.1362997   520538 
  784000    1.0434571   -3.7173884   -3.7173884   -2.5810594  0.072648165   -3.7173884     1.136329   520538 
  785000    1.0431097   -3.7167799   -3.7167799   -2.5808292   0.06939403   -3.7167799    1.1359507   520538 
  786000    1.0442213   -3.7184257   -3.7184257   -2.5812645  0.073916684   -3.7184257    1.1371612   520538 
  787000    1.0446028   -3.7191538   -3.7191538    -2.581577  0.078820917   -3.7191538    1.1375767   520538 
  788000    1.0422702   -3.7167954   -3.7167954   -2.5817589  0.063701391   -3.7167954    1.1350365   520538 
  789000    1.0438163   -3.7193942   -3.7193942    -2.582674  0.083679303   -3.7193942    1.1367202   520538 
  790000    1.0403204   -3.7157715   -3.7157715   -2.5828583  0.074000424   -3.7157715    1.1329132   520538 
  791000    1.0414634   -3.7173798   -3.7173798    -2.583222   0.07722655   -3.7173798    1.1341578   520538 
  792000    1.0437329   -3.7193655   -3.7193655   -2.5827361  0.063402484   -3.7193655    1.1366294   520538 
  793000    1.0440744   -3.7202012   -3.7202012      -2.5832  0.079628214   -3.7202012    1.1370012   520538 
  794000    1.0434276   -3.7197727   -3.7197727   -2.5834758  0.077355734   -3.7197727    1.1362969   520538 
  795000    1.0436252   -3.7189737   -3.7189737   -2.5824616  0.083230965   -3.7189737    1.1365121   520538 
  796000    1.0417634   -3.7175365   -3.7175365   -2.5830518  0.070166951   -3.7175365    1.1344846   520538 
  797000    1.0421258   -3.7185193   -3.7185193     -2.58364  0.067075687   -3.7185193    1.1348793   520538 
  798000    1.0425117   -3.7193251   -3.7193251   -2.5840257  0.067543391   -3.7193251    1.1352995   520538 
  799000    1.0444263   -3.7217795   -3.7217795   -2.5843949  0.068451236   -3.7217795    1.1373845   520538 
  800000    1.0418516   -3.7195138   -3.7195138   -2.5849331  0.077385869   -3.7195138    1.1345807   520538 
  801000    1.0442573   -3.7221996   -3.7221996   -2.5849992  0.067164271   -3.7221996    1.1372004   520538 
  802000    1.0423992   -3.7205989   -3.7205989   -2.5854219   0.08489857   -3.7205989     1.135177   520538 
  803000    1.0410714   -3.7206491   -3.7206491   -2.5869182  0.073579026   -3.7206491    1.1337309   520538 
  804000    1.0410094   -3.7208407   -3.7208407   -2.5871771  0.077043578   -3.7208407    1.1336635   520538 
  805000    1.0405917   -3.7208134   -3.7208134   -2.5876049  0.077938087   -3.7208134    1.1332085   520538 
  806000    1.0433161   -3.7235141   -3.7235141   -2.5873386  0.081048871   -3.7235141    1.1361755   520538 
  807000    1.0401157   -3.7205521   -3.7205521   -2.5878619   0.06730725   -3.7205521    1.1326902   520538 
  808000    1.0414923     -3.72246     -3.72246   -2.5882707  0.059272682     -3.72246    1.1341893   520538 
  809000    1.0395926   -3.7199745   -3.7199745   -2.5878539  0.086350548   -3.7199745    1.1321206   520538 
  810000    1.0423917   -3.7233737   -3.7233737   -2.5882049  0.079853431   -3.7233737    1.1351688   520538 
  811000    1.0434139   -3.7246286   -3.7246286   -2.5883466  0.074596526   -3.7246286     1.136282   520538 
  812000    1.0406562    -3.721384    -3.721384   -2.5881052  0.075719162    -3.721384    1.1332788   520538 
  813000    1.0409587   -3.7220306   -3.7220306   -2.5884223   0.07894053   -3.7220306    1.1336083   520538 
  814000     1.042179   -3.7227945   -3.7227945   -2.5878573   0.07274643   -3.7227945    1.1349372   520538 
  815000    1.0410301   -3.7230555   -3.7230555   -2.5893695  0.073089935   -3.7230555     1.133686   520538 
  816000    1.0410032   -3.7239439   -3.7239439   -2.5902872  0.067661771   -3.7239439    1.1336567   520538 
  817000    1.0411653   -3.7241547   -3.7241547   -2.5903214  0.092168166   -3.7241547    1.1338333   520538 
  818000    1.0429907   -3.7265516   -3.7265516   -2.5907305  0.072344646   -3.7265516    1.1358211   520538 
  819000    1.0409777   -3.7241821   -3.7241821   -2.5905531  0.074781559   -3.7241821     1.133629   520538 
  820000    1.0398427   -3.7225322   -3.7225322   -2.5901392  0.090587182   -3.7225322     1.132393   520538 
  821000    1.0418916   -3.7242668   -3.7242668   -2.5896426  0.069794312   -3.7242668    1.1346242   520538 
  822000    1.0398531   -3.7232131   -3.7232131   -2.5908088  0.082781312   -3.7232131    1.1324043   520538 
  823000    1.0414122   -3.7244768   -3.7244768   -2.5903747  0.068716152   -3.7244768    1.1341021   520538 
  824000    1.0427264   -3.7261094   -3.7261094   -2.5905761   0.09908967   -3.7261094    1.1355333   520538 
  825000    1.0425169   -3.7262901   -3.7262901   -2.5909849  0.075027584   -3.7262901    1.1353052   520538 
  826000    1.0387274   -3.7230099   -3.7230099   -2.5918315  0.064330673   -3.7230099    1.1311784   520538 
  827000    1.0409013   -3.7246192   -3.7246192   -2.5910734  0.076367673   -3.7246192    1.1335457   520538 
  828000    1.0413943   -3.7255593   -3.7255593   -2.5914766   0.07157296   -3.7255593    1.1340827   520538 
  829000    1.0405667   -3.7256734   -3.7256734    -2.592492  0.075395313   -3.7256734    1.1331814   520538 
  830000    1.0410502   -3.7260624   -3.7260624   -2.5923545  0.074578178   -3.7260624    1.1337079   520538 
  831000     1.041543   -3.7273784   -3.7273784   -2.5931338  0.076056758   -3.7273784    1.1342445   520538 
  832000    1.0399584   -3.7274382   -3.7274382   -2.5949193  0.086288114   -3.7274382     1.132519   520538 
  833000      1.04374   -3.7311352   -3.7311352    -2.594498  0.079645593   -3.7311352    1.1366371   520538 
  834000     1.040656   -3.7273616   -3.7273616    -2.594083  0.090223837   -3.7273616    1.1332787   520538 
  835000    1.0393444   -3.7259056   -3.7259056   -2.5940554  0.087506188   -3.7259056    1.1318503   520538 
  836000    1.0421303   -3.7293655   -3.7293655   -2.5944813  0.063301971   -3.7293655    1.1348842   520538 
  837000    1.0434141   -3.7303631   -3.7303631   -2.5940809  0.064524528   -3.7303631    1.1362822   520538 
  838000    1.0426548   -3.7299633   -3.7299633    -2.594508  0.075358435   -3.7299633    1.1354553   520538 
  839000      1.04115   -3.7285621   -3.7285621   -2.5947456   0.05794343   -3.7285621    1.1338166   520538 
  840000    1.0418634   -3.7298894   -3.7298894   -2.5952959  0.085364441   -3.7298894    1.1345935   520538 
  841000    1.0398653   -3.7277035   -3.7277035    -2.595286  0.077267773   -3.7277035    1.1324175   520538 
  842000    1.0401952    -3.729857    -3.729857   -2.5970802  0.067363226    -3.729857    1.1327768   520538 
  843000    1.0416827   -3.7306931   -3.7306931   -2.5962964  0.082302908   -3.7306931    1.1343967   520538 
  844000     1.040832   -3.7297147   -3.7297147   -2.5962444  0.082783979   -3.7297147    1.1334703   520538 
  845000    1.0414599   -3.7303441   -3.7303441     -2.59619  0.075214691   -3.7303441    1.1341541   520538 
  846000    1.0413523   -3.7315178   -3.7315178   -2.5974809  0.058399988   -3.7315178    1.1340369   520538 
  847000     1.042018   -3.7330752   -3.7330752   -2.5983133   0.06958729   -3.7330752    1.1347618   520538 
  848000    1.0429744   -3.7335575   -3.7335575   -2.5977542   0.07514668   -3.7335575    1.1358033   520538 
  849000    1.0419294    -3.731966    -3.731966   -2.5973006  0.080828284    -3.731966    1.1346653   520538 
  850000    1.0417779   -3.7333457   -3.7333457   -2.5988453  0.081492737   -3.7333457    1.1345003   520538 
  851000    1.0415339   -3.7332982   -3.7332982   -2.5990635  0.088439144   -3.7332982    1.1342347   520538 
  852000    1.0406852   -3.7324543   -3.7324543   -2.5991439    0.1001206   -3.7324543    1.1333104   520538 
  853000    1.0403053   -3.7320682   -3.7320682   -2.5991715  0.081887963   -3.7320682    1.1328967   520538 
  854000    1.0385836   -3.7301598   -3.7301598   -2.5991381  0.079229314   -3.7301598    1.1310217   520538 
  855000    1.0405209   -3.7322344   -3.7322344   -2.5991028  0.074379513   -3.7322344    1.1331315   520538 
  856000    1.0381652   -3.7303508   -3.7303508   -2.5997847  0.064079779   -3.7303508    1.1305661   520538 
  857000    1.0383172   -3.7308841   -3.7308841   -2.6001525  0.081165991   -3.7308841    1.1307317   520538 
  858000    1.0405259   -3.7324991   -3.7324991   -2.5993621  0.093050936   -3.7324991    1.1331369   520538 
  859000    1.0392235   -3.7310593   -3.7310593   -2.5993407  0.075273703   -3.7310593    1.1317186   520538 
  860000    1.0398187   -3.7317125   -3.7317125   -2.5993456  0.078053886   -3.7317125    1.1323668   520538 
  861000    1.0396974   -3.7330668   -3.7330668   -2.6008321  0.095670444   -3.7330668    1.1322347   520538 
  862000    1.0376636   -3.7307009   -3.7307009    -2.600681   0.08189787   -3.7307009    1.1300199   520538 
  863000    1.0404505   -3.7336555   -3.7336555   -2.6006007  0.084093864   -3.7336555    1.1330548   520538 
  864000     1.040335   -3.7337903   -3.7337903   -2.6008613  0.079446906   -3.7337903    1.1329291   520538 
  865000     1.041147   -3.7345382   -3.7345382   -2.6007249  0.076570978   -3.7345382    1.1338133   520538 
  866000    1.0426973   -3.7354353   -3.7354353   -2.5999336   0.08272393   -3.7354353    1.1355016   520538 
  867000    1.0411356    -3.734966    -3.734966   -2.6011651   0.08305142    -3.734966    1.1338009   520538 
  868000    1.0393306   -3.7328319   -3.7328319   -2.6009967  0.070048896   -3.7328319    1.1318352   520538 
  869000     1.038006   -3.7309816   -3.7309816   -2.6005889  0.087417092   -3.7309816    1.1303927   520538 
  870000    1.0396056   -3.7327989   -3.7327989   -2.6006642    0.0681546   -3.7327989    1.1321347   520538 
  871000     1.040647   -3.7331791   -3.7331791   -2.5999102   0.06478996   -3.7331791    1.1332689   520538 
  872000    1.0398323   -3.7326043   -3.7326043   -2.6002228  0.081330893   -3.7326043    1.1323816   520538 
  873000    1.0419106   -3.7357847   -3.7357847   -2.6011398  0.071274924   -3.7357847    1.1346449   520538 
  874000    1.0408841   -3.7348588   -3.7348588   -2.6013318  0.078260762   -3.7348588     1.133527   520538 
  875000    1.0387996   -3.7330557   -3.7330557   -2.6017988  0.062874924   -3.7330557     1.131257   520538 
  876000    1.0377657   -3.7324301   -3.7324301    -2.602299  0.082908799   -3.7324301    1.1301311   520538 
  877000    1.0393275   -3.7338763   -3.7338763   -2.6020445  0.082052442   -3.7338763    1.1318318   520538 
  878000    1.0400162   -3.7334796   -3.7334796   -2.6008977  0.080432501   -3.7334796    1.1325819   520538 
  879000    1.0390652   -3.7328089   -3.7328089   -2.6012627  0.069104225   -3.7328089    1.1315462   520538 
  880000    1.0386937   -3.7325987   -3.7325987    -2.601457  0.082011067   -3.7325987    1.1311417   520538 
  881000     1.038837   -3.7333923   -3.7333923   -2.6020946  0.070761681   -3.7333923    1.1312977   520538 
  882000    1.0400094   -3.7351432   -3.7351432   -2.6025688  0.060716255   -3.7351432    1.1325744   520538 
  883000    1.0427557   -3.7379628   -3.7379628   -2.6023977  0.066747456   -3.7379628    1.1355652   520538 
  884000    1.0401784   -3.7362448   -3.7362448   -2.6034863  0.092759927   -3.7362448    1.1327585   520538 
  885000    1.0415622   -3.7374194   -3.7374194   -2.6031539  0.085625335   -3.7374194    1.1342655   520538 
  886000    1.0391716   -3.7358488   -3.7358488   -2.6041867   0.07559032   -3.7358488    1.1316621   520538 
  887000    1.0384261   -3.7351413   -3.7351413    -2.604291  0.083172149   -3.7351413    1.1308503   520538 
  888000    1.0400709   -3.7366693   -3.7366693   -2.6040279  0.075663287   -3.7366693    1.1326414   520538 
  889000    1.0389474   -3.7361643   -3.7361643   -2.6047464  0.081240609   -3.7361643    1.1314179   520538 
  890000    1.0410099   -3.7385999   -3.7385999   -2.6049359  0.078160046   -3.7385999     1.133664   520538 
  891000    1.0381451    -3.734941    -3.734941   -2.6043968  0.080767482    -3.734941    1.1305442   520538 
  892000    1.0394631   -3.7375092   -3.7375092   -2.6055296  0.071675693   -3.7375092    1.1319796   520538 
  893000     1.039462   -3.7361603   -3.7361603   -2.6041819   0.07169769   -3.7361603    1.1319784   520538 
  894000    1.0391002   -3.7359539   -3.7359539   -2.6043695  0.081812249   -3.7359539    1.1315843   520538 
  895000    1.0409363   -3.7383896   -3.7383896   -2.6048057   0.07712528   -3.7383896    1.1335838   520538 
  896000    1.0404796   -3.7381982   -3.7381982   -2.6051118  0.085396135   -3.7381982    1.1330865   520538 
  897000    1.0391428   -3.7362643   -3.7362643   -2.6046337  0.088523696   -3.7362643    1.1316307   520538 
  898000    1.0387537   -3.7363538   -3.7363538   -2.6051468  0.075814862   -3.7363538     1.131207   520538 
  899000    1.0382699   -3.7368533   -3.7368533   -2.6061732  0.074496737   -3.7368533    1.1306801   520538 
  900000     1.040436   -3.7389752   -3.7389752   -2.6059362  0.075086824   -3.7389752     1.133039   520538 
  901000    1.0390126    -3.737282    -3.737282    -2.605793  0.086580985    -3.737282     1.131489   520538 
  902000     1.039382   -3.7381221   -3.7381221   -2.6062309  0.071584765   -3.7381221    1.1318912   520538 
  903000    1.0388611   -3.7383266   -3.7383266   -2.6070027  0.069025381   -3.7383266    1.1313239   520538 
  904000    1.0365755   -3.7373418   -3.7373418   -2.6085069  0.068653615   -3.7373418    1.1288349   520538 
  905000    1.0385788    -3.739522    -3.739522   -2.6085055  0.075425086    -3.739522    1.1310165   520538 
  906000    1.0394795   -3.7400412   -3.7400412   -2.6080438  0.085904337   -3.7400412    1.1319974   520538 
  907000    1.0393813   -3.7402067   -3.7402067   -2.6083162  0.085437055   -3.7402067    1.1318905   520538 
  908000    1.0393362   -3.7408861   -3.7408861   -2.6090447  0.075404954   -3.7408861    1.1318414   520538 
  909000    1.0389734   -3.7399307   -3.7399307   -2.6084845  0.077292491   -3.7399307    1.1314462   520538 
  910000     1.040515   -3.7416476   -3.7416476   -2.6085225  0.076763075   -3.7416476     1.133125   520538 
  911000    1.0380635   -3.7393379   -3.7393379   -2.6088825  0.073726309   -3.7393379    1.1304554   520538 
  912000    1.0400302   -3.7402485   -3.7402485   -2.6076514  0.088293632   -3.7402485    1.1325971   520538 
  913000    1.0376662   -3.7378169   -3.7378169   -2.6077942  0.080755714   -3.7378169    1.1300227   520538 
  914000    1.0391836   -3.7398449   -3.7398449   -2.6081697  0.065789734   -3.7398449    1.1316752   520538 
  915000     1.037804   -3.7389596   -3.7389596   -2.6087868  0.080324444   -3.7389596    1.1301728   520538 
  916000    1.0400284   -3.7420499   -3.7420499   -2.6094548  0.073417127   -3.7420499    1.1325952   520538 
  917000    1.0395212   -3.7413233   -3.7413233   -2.6092805  0.069864608   -3.7413233    1.1320428   520538 
  918000    1.0390261   -3.7414076   -3.7414076    -2.609904  0.062907525   -3.7414076    1.1315037   520538 
  919000    1.0412924   -3.7433399   -3.7433399   -2.6093682  0.083090552   -3.7433399    1.1339717   520538 
  920000    1.0403291   -3.7427197   -3.7427197   -2.6097971  0.084503545   -3.7427197    1.1329227   520538 
  921000      1.03974   -3.7419415   -3.7419415   -2.6096604  0.080921106   -3.7419415    1.1322811   520538 
  922000    1.0392035   -3.7422094   -3.7422094   -2.6105125   0.10040666   -3.7422094    1.1316969   520538 
  923000    1.0360117   -3.7402817   -3.7402817   -2.6120607   0.06784675   -3.7402817     1.128221   520538 
  924000    1.0370918   -3.7398285   -3.7398285   -2.6104314  0.064768127   -3.7398285    1.1293972   520538 
  925000    1.0377108    -3.740657    -3.740657   -2.6105858  0.068112645    -3.740657    1.1300713   520538 
  926000    1.0368229    -3.739746    -3.739746   -2.6106417  0.069819959    -3.739746    1.1291043   520538 
  927000    1.0363144   -3.7389912   -3.7389912   -2.6104406  0.065785518   -3.7389912    1.1285506   520538 
  928000    1.0377953   -3.7412038   -3.7412038   -2.6110406  0.075765459   -3.7412038    1.1301633   520538 
  929000    1.0360249   -3.7400574   -3.7400574   -2.6118221  0.072052196   -3.7400574    1.1282353   520538 
  930000    1.0384567   -3.7426699   -3.7426699   -2.6117863  0.072901877   -3.7426699    1.1308836   520538 
  931000    1.0368698   -3.7406449   -3.7406449   -2.6114895  0.084088691   -3.7406449    1.1291554   520538 
  932000     1.038492    -3.742389    -3.742389    -2.611467  0.077828998    -3.742389     1.130922   520538 
  933000    1.0395652   -3.7424481   -3.7424481   -2.6103573  0.081595893   -3.7424481    1.1320908   520538 
  934000    1.0385282   -3.7411336   -3.7411336   -2.6101721  0.088575624   -3.7411336    1.1309614   520538 
  935000    1.0400052   -3.7422204   -3.7422204   -2.6096505  0.087843713   -3.7422204    1.1325699   520538 
  936000    1.0407274   -3.7440794   -3.7440794   -2.6107231  0.077723036   -3.7440794    1.1333564   520538 
  937000     1.037026   -3.7412253   -3.7412253   -2.6118997  0.080241676   -3.7412253    1.1293256   520538 
  938000    1.0387207   -3.7434086   -3.7434086   -2.6122375  0.071781965   -3.7434086    1.1311711   520538 
  939000    1.0383059   -3.7426693   -3.7426693     -2.61195  0.074672625   -3.7426693    1.1307193   520538 
  940000    1.0373658   -3.7414604   -3.7414604   -2.6117649  0.082047614   -3.7414604    1.1296955   520538 
  941000    1.0372032   -3.7409966   -3.7409966   -2.6114781  0.071881488   -3.7409966    1.1295185   520538 
  942000     1.037979   -3.7422261   -3.7422261   -2.6118627  0.074014232   -3.7422261    1.1303634   520538 
  943000    1.0383178   -3.7428018   -3.7428018   -2.6120696   0.08342293   -3.7428018    1.1307323   520538 
  944000    1.0381897   -3.7436927   -3.7436927   -2.6130999  0.067497041   -3.7436927    1.1305928   520538 
  945000    1.0368015   -3.7414292   -3.7414292   -2.6123481  0.088238845   -3.7414292     1.129081   520538 
  946000    1.0396778   -3.7440356   -3.7440356   -2.6118222  0.087537397   -3.7440356    1.1322134   520538 
  947000    1.0370069   -3.7418824   -3.7418824   -2.6125777   0.07962071   -3.7418824    1.1293047   520538 
  948000    1.0361987   -3.7427763   -3.7427763   -2.6143517  0.088166129   -3.7427763    1.1284246   520538 
  949000     1.037674   -3.7440102   -3.7440102    -2.613979  0.075033519   -3.7440102    1.1300313   520538 
  950000    1.0373484   -3.7441014   -3.7441014   -2.6144247  0.089518085   -3.7441014    1.1296766   520538 
  951000    1.0384002   -3.7455603   -3.7455603   -2.6147382  0.069150941   -3.7455603     1.130822   520538 
  952000     1.039006    -3.746303    -3.746303   -2.6148212  0.082920095    -3.746303    1.1314818   520538 
  953000    1.0364909   -3.7439876   -3.7439876   -2.6152448  0.069987986   -3.7439876    1.1287428   520538 
  954000    1.0349727   -3.7426895   -3.7426895      -2.6156  0.079114804   -3.7426895    1.1270895   520538 
  955000    1.0367281   -3.7439111   -3.7439111   -2.6149099  0.085363036   -3.7439111    1.1290011   520538 
  956000    1.0369981   -3.7441626   -3.7441626   -2.6148674  0.077787172   -3.7441626    1.1292951   520538 
  957000     1.037502   -3.7450584   -3.7450584   -2.6152145  0.076300358   -3.7450584    1.1298439   520538 
  958000    1.0358728   -3.7434785   -3.7434785   -2.6154087  0.078947767   -3.7434785    1.1280697   520538 
  959000    1.0371919   -3.7440877   -3.7440877   -2.6145816  0.084374558   -3.7440877    1.1295062   520538 
  960000    1.0371127   -3.7448967   -3.7448967   -2.6154767  0.077868891   -3.7448967      1.12942   520538 
  961000    1.0383217   -3.7461599   -3.7461599   -2.6154234  0.080531122   -3.7461599    1.1307365   520538 
  962000    1.0370952   -3.7455236   -3.7455236   -2.6161227  0.069895388   -3.7455236    1.1294009   520538 
  963000    1.0347146   -3.7435468   -3.7435468   -2.6167383  0.081772123   -3.7435468    1.1268085   520538 
  964000    1.0358918   -3.7446968   -3.7446968   -2.6166065  0.077173838   -3.7446968    1.1280904   520538 
  965000    1.0348971   -3.7429402   -3.7429402    -2.615933  0.092267274   -3.7429402    1.1270071   520538 
  966000     1.036194   -3.7443074   -3.7443074   -2.6158879  0.069084558   -3.7443074    1.1284195   520538 
  967000    1.0371487   -3.7450345   -3.7450345   -2.6155753   0.07897526   -3.7450345    1.1294592   520538 
  968000    1.0383689   -3.7459229   -3.7459229   -2.6151349   0.09751534   -3.7459229     1.130788   520538 
  969000    1.0364644   -3.7447375   -3.7447375   -2.6160236  0.092476732   -3.7447375    1.1287139   520538 
  970000    1.0361747   -3.7445442   -3.7445442   -2.6161458  0.071631296   -3.7445442    1.1283984   520538 
  971000    1.0351119   -3.7436561   -3.7436561    -2.616415  0.083753355   -3.7436561    1.1272411   520538 
  972000     1.035975   -3.7456683   -3.7456683   -2.6174873  0.074521731   -3.7456683     1.128181   520538 
  973000    1.0367802   -3.7466735   -3.7466735   -2.6176156  0.092471456   -3.7466735    1.1290579   520538 
  974000    1.0376508   -3.7473015   -3.7473015   -2.6172957  0.083472015   -3.7473015    1.1300059   520538 
  975000    1.0363351   -3.7460234   -3.7460234   -2.6174503  0.071784624   -3.7460234    1.1285731   520538 
  976000    1.0390361   -3.7485353   -3.7485353   -2.6170208   0.07653121   -3.7485353    1.1315146   520538 
  977000    1.0378802   -3.7483267   -3.7483267   -2.6180709  0.079455646   -3.7483267    1.1302558   520538 
  978000    1.0367096   -3.7473845   -3.7473845   -2.6184035  0.089043955   -3.7473845     1.128981   520538 
  979000    1.0349589   -3.7463014   -3.7463014    -2.619227  0.080389514   -3.7463014    1.1270744   520538 
  980000    1.0366456    -3.748965    -3.748965   -2.6200537  0.084621959    -3.748965    1.1289113   520538 
  981000    1.0350302   -3.7473478   -3.7473478   -2.6201957  0.071378677   -3.7473478    1.1271521   520538 
  982000    1.0345719   -3.7474595   -3.7474595   -2.6208065   0.06338797   -3.7474595     1.126653   520538 
  983000     1.036455   -3.7484697   -3.7484697    -2.619766  0.072302502   -3.7484697    1.1287038   520538 
  984000    1.0374022   -3.7489083   -3.7489083    -2.619173  0.085828926   -3.7489083    1.1297353   520538 
  985000    1.0356588    -3.747883    -3.747883   -2.6200463  0.076290901    -3.747883    1.1278367   520538 
  986000    1.0365933   -3.7492394   -3.7492394   -2.6203851  0.077860238   -3.7492394    1.1288543   520538 
  987000    1.0362232   -3.7481565   -3.7481565   -2.6197052  0.081356195   -3.7481565    1.1284513   520538 
  988000    1.0371265   -3.7498195   -3.7498195   -2.6203846   0.08567781   -3.7498195     1.129435   520538 
  989000    1.0357478   -3.7495301   -3.7495301   -2.6215965  0.079000643   -3.7495301    1.1279336   520538 
  990000    1.0347896    -3.749303    -3.749303    -2.622413  0.075819176    -3.749303    1.1268901   520538 
  991000    1.0357148   -3.7506295   -3.7506295   -2.6227319  0.077165896   -3.7506295    1.1278976   520538 
  992000    1.0347958   -3.7493411   -3.7493411   -2.6224443  0.069541496   -3.7493411    1.1268968   520538 
  993000    1.0345462   -3.7488857   -3.7488857   -2.6222607  0.081421338   -3.7488857     1.126625   520538 
  994000    1.0357161   -3.7496122   -3.7496122   -2.6217131  0.075270298   -3.7496122     1.127899   520538 
  995000    1.0346184   -3.7493004   -3.7493004   -2.6225968   0.08337878   -3.7493004    1.1267036   520538 
  996000    1.0344806   -3.7489322   -3.7489322   -2.6223786  0.074554058   -3.7489322    1.1265535   520538 
  997000    1.0367173   -3.7515462   -3.7515462   -2.6225568  0.090219828   -3.7515462    1.1289894   520538 
  998000    1.0361906   -3.7511158   -3.7511158      -2.6227   0.07238467   -3.7511158    1.1284158   520538 
  999000    1.0362406   -3.7519168   -3.7519168   -2.6234466  0.086198431   -3.7519168    1.1284702   520538 
 1000000    1.0353053   -3.7510789   -3.7510789   -2.6236272  0.098743573   -3.7510789    1.1274517   520538 
 1001000    1.0342738   -3.7492096   -3.7492096   -2.6228811  0.090849529   -3.7492096    1.1263284   520538 
 1002000    1.0350246   -3.7502822   -3.7502822   -2.6231362    0.0793085   -3.7502822     1.127146   520538 
 1003000    1.0359201   -3.7510628   -3.7510628   -2.6229417  0.073757941   -3.7510628    1.1281212   520538 
 1004000    1.0360785   -3.7519777   -3.7519777    -2.623684  0.068833358   -3.7519777    1.1282937   520538 
 1005000    1.0345252   -3.7496611   -3.7496611   -2.6230589  0.078396381   -3.7496611    1.1266022   520538 
 1006000    1.0349235   -3.7505536   -3.7505536   -2.6235176  0.066361978   -3.7505536    1.1270359   520538 
 1007000     1.034252   -3.7496256   -3.7496256   -2.6233209  0.075208761   -3.7496256    1.1263046   520538 
 1008000    1.0356352   -3.7517849   -3.7517849    -2.623974  0.072127938   -3.7517849    1.1278109   520538 
 1009000    1.0352047   -3.7511204   -3.7511204   -2.6237784  0.072870463   -3.7511204    1.1273421   520538 
 1010000    1.0324415   -3.7482395   -3.7482395   -2.6239066  0.077368009   -3.7482395    1.1243329   520538 
 1011000    1.0335805    -3.748943    -3.748943   -2.6233696  0.072831841    -3.748943    1.1255734   520538 
 1012000    1.0335859   -3.7487188   -3.7487188   -2.6231396  0.072547281   -3.7487188    1.1255792   520538 
 1013000    1.0363885    -3.751323    -3.751323   -2.6226918  0.082382552    -3.751323    1.1286313   520538 
 1014000    1.0363559   -3.7511302   -3.7511302   -2.6225344   0.06729745   -3.7511302    1.1285958   520538 
 1015000    1.0338862   -3.7492039   -3.7492039   -2.6232976  0.079964293   -3.7492039    1.1259062   520538 
 1016000    1.0369846   -3.7528471   -3.7528471   -2.6235666  0.091480572   -3.7528471    1.1292805   520538 
 1017000    1.0361334    -3.752606    -3.752606   -2.6242525  0.072272279    -3.752606    1.1283535   520538 
 1018000     1.036632   -3.7530657   -3.7530657   -2.6241692  0.088972652   -3.7530657    1.1288965   520538 
 1019000    1.0344999   -3.7517784   -3.7517784   -2.6252037  0.083396865   -3.7517784    1.1265746   520538 
 1020000    1.0368337   -3.7539806   -3.7539806   -2.6248645  0.088149626   -3.7539806    1.1291161   520538 
 1021000    1.0364115   -3.7540092   -3.7540092   -2.6253529  0.082715068   -3.7540092    1.1286564   520538 
 1022000    1.0359484   -3.7532438   -3.7532438   -2.6250918   0.08100734   -3.7532438     1.128152   520538 
 1023000    1.0353787   -3.7527826   -3.7527826    -2.625251  0.085326719   -3.7527826    1.1275316   520538 
 1024000     1.034814   -3.7515246   -3.7515246   -2.6246079  0.089379854   -3.7515246    1.1269167   520538 
 1025000    1.0358618   -3.7536314   -3.7536314   -2.6255737  0.075487637   -3.7536314    1.1280577   520538 
 1026000    1.0346695   -3.7512555   -3.7512555   -2.6244963  0.075263752   -3.7512555    1.1267593   520538 
 1027000     1.035324   -3.7526511   -3.7526511    -2.625179  0.075310868   -3.7526511    1.1274721   520538 
 1028000    1.0337765   -3.7517793   -3.7517793   -2.6259925  0.066758866   -3.7517793    1.1257868   520538 
 1029000    1.0356119   -3.7532274   -3.7532274   -2.6254418  0.080560372   -3.7532274    1.1277856   520538 
 1030000    1.0339889   -3.7523753   -3.7523753   -2.6263572  0.075029561   -3.7523753    1.1260181   520538 
 1031000    1.0351122   -3.7527252   -3.7527252   -2.6254837  0.070444836   -3.7527252    1.1272414   520538 
 1032000    1.0370868   -3.7543489   -3.7543489   -2.6249572  0.060897119   -3.7543489    1.1293918   520538 
 1033000    1.0356524    -3.753357    -3.753357   -2.6255273  0.074403055    -3.753357    1.1278297   520538 
 1034000    1.0338807    -3.751449    -3.751449   -2.6255487  0.080423818    -3.751449    1.1259003   520538 
 1035000    1.0338016   -3.7517866   -3.7517866   -2.6259724  0.078248819   -3.7517866    1.1258141   520538 
 1036000    1.0344483   -3.7534355   -3.7534355    -2.626917  0.066609722   -3.7534355    1.1265184   520538 
 1037000    1.0350662   -3.7536871   -3.7536871   -2.6264958  0.075881166   -3.7536871    1.1271913   520538 
 1038000    1.0331662   -3.7526236   -3.7526236   -2.6275014   0.05215236   -3.7526236    1.1251222   520538 
 1039000    1.0340035   -3.7533368   -3.7533368   -2.6273028  0.080589593   -3.7533368     1.126034   520538 
 1040000    1.0359101   -3.7556804   -3.7556804     -2.62757   0.09120738   -3.7556804    1.1281103   520538 
 1041000    1.0348079   -3.7547203   -3.7547203   -2.6278103  0.070354267   -3.7547203      1.12691   520538 
 1042000    1.0328892   -3.7525291   -3.7525291   -2.6277086  0.069084002   -3.7525291    1.1248205   520538 
 1043000    1.0328294    -3.751315    -3.751315   -2.6265596   0.08413062    -3.751315    1.1247554   520538 
 1044000    1.0326884   -3.7520459   -3.7520459    -2.627444  0.060030787   -3.7520459    1.1246019   520538 
 1045000    1.0342796    -3.753154    -3.753154   -2.6268193  0.084642281    -3.753154    1.1263347   520538 
 1046000    1.0319628   -3.7507135   -3.7507135   -2.6269018   0.07940242   -3.7507135    1.1238117   520538 
 1047000    1.0346266   -3.7530578   -3.7530578   -2.6263452  0.075550791   -3.7530578    1.1267126   520538 
 1048000    1.0350162   -3.7540033   -3.7540033   -2.6268664  0.088293807   -3.7540033    1.1271368   520538 
 1049000    1.0338131    -3.752938    -3.752938   -2.6271113  0.082021253    -3.752938    1.1258266   520538 
 1050000    1.0342462   -3.7538863   -3.7538863    -2.627588  0.075708418   -3.7538863    1.1262983   520538 
 1051000    1.0337957   -3.7533148   -3.7533148   -2.6275071  0.094652639   -3.7533148    1.1258077   520538 
 1052000     1.036679   -3.7565887   -3.7565887   -2.6276411  0.077360453   -3.7565887    1.1289477   520538 
 1053000    1.0353086   -3.7557016   -3.7557016   -2.6282463  0.082986401   -3.7557016    1.1274553   520538 
 1054000    1.0347865    -3.755032    -3.755032   -2.6281453   0.06817775    -3.755032    1.1268867   520538 
 1055000    1.0353889   -3.7570989   -3.7570989   -2.6295561  0.065116062   -3.7570989    1.1275427   520538 
 1056000    1.0334017   -3.7549123   -3.7549123   -2.6295337  0.068162263   -3.7549123    1.1253786   520538 
 1057000    1.0332617   -3.7549031   -3.7549031   -2.6296769  0.097182179   -3.7549031    1.1252262   520538 
 1058000    1.0341201    -3.756061    -3.756061   -2.6299001  0.078167004    -3.756061     1.126161   520538 
 1059000    1.0359096   -3.7590803   -3.7590803   -2.6309705  0.085339755   -3.7590803    1.1281097   520538 
 1060000    1.0351767   -3.7574024   -3.7574024   -2.6300908   0.06564823   -3.7574024    1.1273117   520538 
 1061000    1.0356323   -3.7587372   -3.7587372   -2.6309294  0.065035365   -3.7587372    1.1278078   520538 
 1062000     1.033772   -3.7568666   -3.7568666   -2.6310846  0.073417708   -3.7568666     1.125782   520538 
 1063000    1.0340044   -3.7568379   -3.7568379   -2.6308029  0.080269013   -3.7568379    1.1260349   520538 
 1064000    1.0349633   -3.7581443   -3.7581443   -2.6310651  0.069926488   -3.7581443    1.1270792   520538 
 1065000    1.0351686   -3.7585684   -3.7585684   -2.6312656  0.067802614   -3.7585684    1.1273029   520538 
 1066000    1.0344658   -3.7579725   -3.7579725    -2.631435  0.087193163   -3.7579725    1.1265375   520538 
 1067000    1.0332743   -3.7562559   -3.7562559    -2.631016  0.086559109   -3.7562559    1.1252399   520538 
 1068000    1.0319375   -3.7551866   -3.7551866   -2.6314025  0.090895523   -3.7551866    1.1237842   520538 
 1069000    1.0339995   -3.7571428   -3.7571428   -2.6311131  0.086869291   -3.7571428    1.1260297   520538 
 1070000      1.03335   -3.7569758   -3.7569758   -2.6316535   0.05820154   -3.7569758    1.1253223   520538 
 1071000    1.0337302   -3.7577767   -3.7577767   -2.6320403  0.082534385   -3.7577767    1.1257364   520538 
 1072000    1.0354125    -3.759542    -3.759542   -2.6319736  0.081015383    -3.759542    1.1275684   520538 
 1073000    1.0330614   -3.7577157   -3.7577157   -2.6327077  0.082579032   -3.7577157    1.1250081   520538 
 1074000    1.0357147   -3.7613139   -3.7613139   -2.6334164  0.063811045   -3.7613139    1.1278975   520538 
 1075000    1.0360519   -3.7607517   -3.7607517   -2.6324869  0.080546382   -3.7607517    1.1282648   520538 
 1076000    1.0352774    -3.760316    -3.760316   -2.6328947  0.081269243    -3.760316    1.1274213   520538 
 1077000     1.033712   -3.7589631   -3.7589631   -2.6332466  0.075337612   -3.7589631    1.1257165   520538 
 1078000    1.0322042   -3.7577593   -3.7577593   -2.6336847  0.080007683   -3.7577593    1.1240746   520538 
 1079000    1.0327825   -3.7577646   -3.7577646   -2.6330603  0.073720975   -3.7577646    1.1247043   520538 
 1080000    1.0350618   -3.7600878   -3.7600878   -2.6329013  0.087421755   -3.7600878    1.1271865   520538 
 1081000     1.033643   -3.7587898   -3.7587898   -2.6331484  0.084813543   -3.7587898    1.1256414   520538 
 1082000    1.0353956   -3.7611491   -3.7611491   -2.6335991  0.089837338   -3.7611491      1.12755   520538 
 1083000    1.0342639   -3.7604635   -3.7604635   -2.6341459  0.087886729   -3.7604635    1.1263176   520538 
 1084000    1.0333195   -3.7599809   -3.7599809   -2.6346918  0.086343262   -3.7599809    1.1252891   520538 
 1085000    1.0323688   -3.7592541   -3.7592541   -2.6350002  0.080565983   -3.7592541    1.1242538   520538 
 1086000    1.0328772   -3.7600552   -3.7600552   -2.6352477  0.076111611   -3.7600552    1.1248075   520538 
 1087000    1.0324193   -3.7589788   -3.7589788     -2.63467  0.089705986   -3.7589788    1.1243088   520538 
 1088000    1.0327856   -3.7593011   -3.7593011   -2.6345934   0.07732967   -3.7593011    1.1247078   520538 
 1089000    1.0329653   -3.7599919   -3.7599919   -2.6350885  0.084948909   -3.7599919    1.1249034   520538 
 1090000    1.0348846   -3.7622182   -3.7622182   -2.6352246  0.066661899   -3.7622182    1.1269936   520538 
 1091000    1.0343542   -3.7607675   -3.7607675   -2.6343516  0.088278819   -3.7607675    1.1264159   520538 
 1092000    1.0341724   -3.7618667   -3.7618667   -2.6356487  0.071304076   -3.7618667     1.126218   520538 
 1093000    1.0334107   -3.7603674   -3.7603674    -2.634979  0.083183507   -3.7603674    1.1253885   520538 
 1094000    1.0343339    -3.761062    -3.761062   -2.6346681  0.085867535    -3.761062    1.1263939   520538 
 1095000    1.0347011   -3.7617867   -3.7617867    -2.634993  0.071107513   -3.7617867    1.1267937   520538 
 1096000    1.0329942   -3.7609048   -3.7609048     -2.63597  0.085081489   -3.7609048    1.1249349   520538 
 1097000    1.0339695   -3.7620919   -3.7620919   -2.6360948  0.070831121   -3.7620919     1.125997   520538 
 1098000    1.0334182    -3.761753    -3.761753   -2.6363563  0.068649764    -3.761753    1.1253967   520538 
 1099000    1.0349649   -3.7627382   -3.7627382   -2.6356573  0.069566861   -3.7627382     1.127081   520538 
 1100000    1.0347624   -3.7618859   -3.7618859   -2.6350255  0.084035456   -3.7618859    1.1268605   520538 
 1101000    1.0352128   -3.7621318   -3.7621318   -2.6347808  0.088259778   -3.7621318     1.127351   520538 
 1102000    1.0346788   -3.7618902   -3.7618902   -2.6351208  0.066663622   -3.7618902    1.1267694   520538 
 1103000    1.0331646   -3.7604466   -3.7604466    -2.635326  0.076461857   -3.7604466    1.1251205   520538 
 1104000    1.0326615   -3.7607358   -3.7607358   -2.6361632  0.073852427   -3.7607358    1.1245726   520538 
 1105000     1.035349   -3.7635973   -3.7635973    -2.636098  0.075965705   -3.7635973    1.1274993   520538 
 1106000    1.0324889   -3.7609669   -3.7609669   -2.6365823  0.062888587   -3.7609669    1.1243846   520538 
 1107000    1.0326312     -3.76004     -3.76004   -2.6355005  0.072697034     -3.76004    1.1245395   520538 
 1108000    1.0332837   -3.7609782   -3.7609782    -2.635728  0.081176668   -3.7609782    1.1252501   520538 
 1109000    1.0335555   -3.7614012   -3.7614012   -2.6358551  0.083936915   -3.7614012    1.1255461   520538 
 1110000    1.0338801   -3.7625483   -3.7625483   -2.6366487  0.083816955   -3.7625483    1.1258996   520538 
 1111000    1.0338555   -3.7623807   -3.7623807   -2.6365079  0.084962877   -3.7623807    1.1258728   520538 
 1112000     1.034787   -3.7637134   -3.7637134   -2.6368261  0.062434043   -3.7637134    1.1268873   520538 
 1113000     1.033535   -3.7612524   -3.7612524   -2.6357285  0.074938671   -3.7612524    1.1255239   520538 
 1114000    1.0347277   -3.7632039   -3.7632039   -2.6363812  0.072064285   -3.7632039    1.1268227   520538 
 1115000    1.0328894   -3.7615082   -3.7615082   -2.6366875  0.065367273   -3.7615082    1.1248207   520538 
 1116000    1.0328375   -3.7621889   -3.7621889   -2.6374246  0.078201071   -3.7621889    1.1247643   520538 
 1117000    1.0332829   -3.7626552   -3.7626552   -2.6374059  0.090270188   -3.7626552    1.1252493   520538 
 1118000    1.0319702   -3.7620339   -3.7620339   -2.6382141  0.075657356   -3.7620339    1.1238198   520538 
 1119000    1.0315012   -3.7603308   -3.7603308   -2.6370218  0.087689992   -3.7603308     1.123309   520538 
 1120000    1.0322984   -3.7601972   -3.7601972     -2.63602   0.08577668   -3.7601972    1.1241771   520538 
 1121000    1.0326442   -3.7605159   -3.7605159   -2.6359622  0.082980529   -3.7605159    1.1245538   520538 
 1122000    1.0342885   -3.7618878   -3.7618878   -2.6355435  0.076263398   -3.7618878    1.1263444   520538 
 1123000    1.0345586   -3.7621031   -3.7621031   -2.6354646  0.089250882   -3.7621031    1.1266385   520538 
 1124000    1.0325196   -3.7604379   -3.7604379   -2.6360199  0.094099076   -3.7604379     1.124418   520538 
 1125000      1.03343   -3.7617281   -3.7617281   -2.6363186  0.062150166   -3.7617281    1.1254095   520538 
 1126000    1.0355188    -3.764699    -3.764699   -2.6370148  0.073125952    -3.764699    1.1276842   520538 
 1127000    1.0340236   -3.7622828   -3.7622828   -2.6362268  0.084028483   -3.7622828    1.1260559   520538 
 1128000    1.0335337   -3.7623178   -3.7623178   -2.6367953  0.065085107   -3.7623178    1.1255224   520538 
 1129000    1.0362285   -3.7653286   -3.7653286   -2.6368715   0.08409584   -3.7653286     1.128457   520538 
 1130000     1.032695   -3.7619377   -3.7619377   -2.6373287  0.066189559   -3.7619377    1.1246091   520538 
 1131000    1.0347387   -3.7632062   -3.7632062   -2.6363715   0.09171082   -3.7632062    1.1268346   520538 
 1132000    1.0345088   -3.7633408   -3.7633408   -2.6367565  0.090708037   -3.7633408    1.1265843   520538 
 1133000    1.0325584   -3.7610308   -3.7610308   -2.6365706  0.078626354   -3.7610308    1.1244603   520538 
 1134000    1.0328726   -3.7615109   -3.7615109   -2.6367084  0.083007369   -3.7615109    1.1248025   520538 
 1135000    1.0326946   -3.7621716   -3.7621716    -2.637563  0.072127871   -3.7621716    1.1246086   520538 
 1136000    1.0334157    -3.763026    -3.763026   -2.6376321  0.069786673    -3.763026    1.1253939   520538 
 1137000    1.0318067   -3.7624589   -3.7624589   -2.6388172  0.069196467   -3.7624589    1.1236417   520538 
 1138000    1.0313444   -3.7619614   -3.7619614   -2.6388231  0.070244472   -3.7619614    1.1231382   520538 
 1139000    1.0322747   -3.7628679   -3.7628679   -2.6387165  0.081542349   -3.7628679    1.1241513   520538 
 1140000    1.0322543   -3.7634715   -3.7634715   -2.6393424  0.086252467   -3.7634715    1.1241291   520538 
 1141000    1.0342902   -3.7659407   -3.7659407   -2.6395944  0.068118751   -3.7659407    1.1263462   520538 
 1142000    1.0317268   -3.7637142   -3.7637142   -2.6401595  0.082760522   -3.7637142    1.1235547   520538 
 1143000    1.0326268   -3.7645564   -3.7645564   -2.6400216  0.084029937   -3.7645564    1.1245348   520538 
 1144000    1.0333534   -3.7651847   -3.7651847   -2.6398587  0.086223956   -3.7651847     1.125326   520538 
 1145000    1.0342327   -3.7663584   -3.7663584   -2.6400748   0.07677295   -3.7663584    1.1262836   520538 
 1146000    1.0323278   -3.7660694   -3.7660694   -2.6418602   0.07173449   -3.7660694    1.1242092   520538 
 1147000    1.0346871   -3.7685837   -3.7685837   -2.6418052  0.081871657   -3.7685837    1.1267785   520538 
 1148000    1.0348739   -3.7673764   -3.7673764   -2.6403945  0.081946577   -3.7673764    1.1269819   520538 
 1149000    1.0334024   -3.7660194   -3.7660194   -2.6406399  0.096855309   -3.7660194    1.1253794   520538 
 1150000    1.0321135   -3.7648742   -3.7648742   -2.6408985  0.076991278   -3.7648742    1.1239758   520538 
 1151000     1.033387   -3.7665795   -3.7665795   -2.6412168  0.086703096   -3.7665795    1.1253627   520538 
 1152000    1.0336328   -3.7667935   -3.7667935   -2.6411632  0.078490388   -3.7667935    1.1256304   520538 
 1153000    1.0327912   -3.7663455   -3.7663455   -2.6416317  0.086555489   -3.7663455    1.1247138   520538 
 1154000    1.0320144   -3.7660742   -3.7660742   -2.6422063  0.064653054   -3.7660742    1.1238679   520538 
 1155000    1.0338713   -3.7678977   -3.7678977   -2.6420077  0.082520729   -3.7678977      1.12589   520538 
 1156000    1.0348777   -3.7694728   -3.7694728   -2.6424868    0.0687971   -3.7694728     1.126986   520538 
 1157000    1.0344548   -3.7682469   -3.7682469   -2.6417214  0.071087303   -3.7682469    1.1265255   520538 
 1158000    1.0371432   -3.7707966   -3.7707966   -2.6413434  0.066697849   -3.7707966    1.1294532   520538 
 1159000    1.0373464   -3.7715168   -3.7715168   -2.6418424  0.062848862   -3.7715168    1.1296744   520538 
 1160000     1.034981   -3.7686623   -3.7686623   -2.6415638  0.073977277   -3.7686623    1.1270985   520538 
 1161000    1.0346778   -3.7678077   -3.7678077   -2.6410394  0.084103712   -3.7678077    1.1267684   520538 
 1162000    1.0345437   -3.7672601   -3.7672601   -2.6406377  0.071592184   -3.7672601    1.1266224   520538 
 1163000    1.0358466   -3.7682711   -3.7682711   -2.6402299  0.081798008   -3.7682711    1.1280412   520538 
 1164000    1.0331494   -3.7649887   -3.7649887   -2.6398848  0.075889245   -3.7649887    1.1251039   520538 
 1165000    1.0337562    -3.765968    -3.765968   -2.6402033  0.085556519    -3.765968    1.1257647   520538 
 1166000    1.0344786   -3.7665055   -3.7665055   -2.6399541  0.087506516   -3.7665055    1.1265514   520538 
 1167000    1.0339175   -3.7668998   -3.7668998   -2.6409595  0.090950078   -3.7668998    1.1259403   520538 
 1168000    1.0313948   -3.7641689   -3.7641689   -2.6409758  0.085534459   -3.7641689    1.1231931   520538 
 1169000    1.0314264   -3.7637886   -3.7637886    -2.640561  0.078769183   -3.7637886    1.1232275   520538 
 1170000    1.0333246   -3.7658572   -3.7658572   -2.6405625  0.072640146   -3.7658572    1.1252947   520538 
 1171000    1.0333059   -3.7657949   -3.7657949   -2.6405206  0.068840443   -3.7657949    1.1252744   520538 
 1172000    1.0325726    -3.766004    -3.766004   -2.6415282  0.091731734    -3.766004    1.1244758   520538 
 1173000    1.0296822   -3.7627172   -3.7627172   -2.6413891  0.079629157   -3.7627172    1.1213281   520538 
 1174000    1.0313205   -3.7648219   -3.7648219   -2.6417096  0.077390807   -3.7648219    1.1231123   520538 
 1175000    1.0310877   -3.7644225   -3.7644225   -2.6415638  0.086151427   -3.7644225    1.1228587   520538 
 1176000    1.0311484   -3.7649784   -3.7649784   -2.6420536   0.07499316   -3.7649784    1.1229248   520538 
 1177000     1.032793   -3.7665618   -3.7665618   -2.6418461  0.066252063   -3.7665618    1.1247158   520538 
 1178000    1.0334228   -3.7672052   -3.7672052   -2.6418036  0.066565904   -3.7672052    1.1254016   520538 
 1179000    1.0331817   -3.7664561   -3.7664561    -2.641317  0.095998216   -3.7664561    1.1251391   520538 
 1180000    1.0340238   -3.7683958   -3.7683958   -2.6423397  0.076032265   -3.7683958    1.1260561   520538 
 1181000    1.0342809   -3.7689404   -3.7689404   -2.6426042  0.089484724   -3.7689404    1.1263362   520538 
 1182000    1.0342187    -3.768971    -3.768971   -2.6427026   0.11064046    -3.768971    1.1262684   520538 
 1183000    1.0323593   -3.7678147   -3.7678147   -2.6435713  0.079566983   -3.7678147    1.1242434   520538 
 1184000    1.0316319   -3.7662122   -3.7662122   -2.6427609  0.082611439   -3.7662122    1.1234513   520538 
 1185000    1.0307772   -3.7656635   -3.7656635   -2.6431429  0.074775817   -3.7656635    1.1225206   520538 
 1186000    1.0318416   -3.7672976   -3.7672976   -2.6436178  0.064905093   -3.7672976    1.1236797   520538 
 1187000    1.0335132    -3.769189    -3.769189   -2.6436889  0.070127937    -3.769189       1.1255   520538 
 1188000    1.0310032   -3.7666765   -3.7666765   -2.6439098  0.064263384   -3.7666765    1.1227667   520538 
 1189000    1.0319108   -3.7672268   -3.7672268   -2.6434717  0.085088418   -3.7672268    1.1237551   520538 
 1190000    1.0337128   -3.7688922   -3.7688922   -2.6431748  0.069923845   -3.7688922    1.1257174   520538 
 1191000    1.0331557   -3.7686656   -3.7686656   -2.6435549  0.091200594   -3.7686656    1.1251107   520538 
 1192000    1.0335859   -3.7697368   -3.7697368   -2.6441576  0.083251798   -3.7697368    1.1255792   520538 
 1193000    1.0325206   -3.7682358   -3.7682358   -2.6438167  0.081794356   -3.7682358    1.1244192   520538 
 1194000     1.032409   -3.7678199   -3.7678199   -2.6435223  0.071446006   -3.7678199    1.1242976   520538 
 1195000    1.0329184   -3.7687181   -3.7687181   -2.6438658  0.074817114   -3.7687181    1.1248524   520538 
 1196000    1.0330687   -3.7694467   -3.7694467   -2.6444307  0.067258363   -3.7694467     1.125016   520538 
 1197000    1.0324678   -3.7691094   -3.7691094   -2.6447477  0.083690323   -3.7691094    1.1243617   520538 
 1198000    1.0326967   -3.7702141   -3.7702141   -2.6456032   0.07052045   -3.7702141    1.1246109   520538 
 1199000    1.0335454   -3.7708037   -3.7708037   -2.6452685  0.080105088   -3.7708037    1.1255352   520538 
 1200000    1.0326029   -3.7703662   -3.7703662   -2.6458575   0.07765932   -3.7703662    1.1245088   520538 
 1201000    1.0322139   -3.7701703   -3.7701703   -2.6460851  0.075516197   -3.7701703    1.1240851   520538 
 1202000    1.0327406   -3.7697199   -3.7697199   -2.6450612  0.062046833   -3.7697199    1.1246587   520538 
 1203000    1.0337593    -3.770559    -3.770559   -2.6447909  0.073100213    -3.770559    1.1257681   520538 
 1204000    1.0330003   -3.7688866   -3.7688866    -2.643945  0.089767127   -3.7688866    1.1249416   520538 
 1205000    1.0320012   -3.7682955   -3.7682955    -2.644442  0.075999465   -3.7682955    1.1238535   520538 
 1206000     1.032003   -3.7684294   -3.7684294    -2.644574  0.082018626   -3.7684294    1.1238554   520538 
 1207000     1.031817    -3.768212    -3.768212   -2.6445591  0.084243437    -3.768212    1.1236529   520538 
 1208000    1.0312081   -3.7680301   -3.7680301   -2.6450403  0.069113536   -3.7680301    1.1229898   520538 
 1209000    1.0341738   -3.7703449   -3.7703449   -2.6441255  0.082723746   -3.7703449    1.1262195   520538 
 1210000    1.0343394   -3.7700601   -3.7700601   -2.6436602  0.087598512   -3.7700601    1.1263999   520538 
 1211000    1.0345786   -3.7701659   -3.7701659   -2.6435055  0.079130576   -3.7701659    1.1266603   520538 
 1212000    1.0323277   -3.7679013   -3.7679013   -2.6436923  0.091220822   -3.7679013     1.124209   520538 
 1213000    1.0311884    -3.766521    -3.766521   -2.6435526  0.072401854    -3.766521    1.1229684   520538 
 1214000    1.0331869    -3.768961    -3.768961   -2.6438163  0.080013382    -3.768961    1.1251447   520538 
 1215000    1.0325606    -3.768032    -3.768032   -2.6435693      0.07782    -3.768032    1.1244627   520538 
 1216000    1.0322492   -3.7686667   -3.7686667   -2.6445431  0.094826211   -3.7686667    1.1241236   520538 
 1217000    1.0343138   -3.7713092   -3.7713092   -2.6449372  0.083887258   -3.7713092    1.1263719   520538 
 1218000    1.0320868   -3.7692033   -3.7692033   -2.6452566  0.078982771   -3.7692033    1.1239467   520538 
 1219000    1.0317079   -3.7690068   -3.7690068   -2.6454727  0.079680151   -3.7690068    1.1235341   520538 
 1220000     1.032668   -3.7695069   -3.7695069   -2.6449273  0.077714747   -3.7695069    1.1245797   520538 
 1221000    1.0319632   -3.7689696   -3.7689696   -2.6451575  0.067304985   -3.7689696    1.1238121   520538 
 1222000    1.0315524   -3.7676479   -3.7676479    -2.644283  0.064391324   -3.7676479    1.1233648   520538 
 1223000    1.0306463   -3.7669208   -3.7669208   -2.6445428  0.095094045   -3.7669208     1.122378   520538 
 1224000    1.0312282   -3.7669755   -3.7669755   -2.6439638  0.083735408   -3.7669755    1.1230117   520538 
 1225000    1.0319541   -3.7681459   -3.7681459   -2.6443436  0.066039411   -3.7681459    1.1238023   520538 
 1226000    1.0330243   -3.7693769   -3.7693769   -2.6444093   0.08476371   -3.7693769    1.1249677   520538 
 1227000    1.0334254   -3.7704414   -3.7704414   -2.6450369  0.085032436   -3.7704414    1.1254045   520538 
 1228000    1.0327246   -3.7701146   -3.7701146   -2.6454733  0.085454392   -3.7701146    1.1246413   520538 
 1229000    1.0328338   -3.7707335   -3.7707335   -2.6459733  0.070006037   -3.7707335    1.1247603   520538 
 1230000     1.032163   -3.7713378   -3.7713378   -2.6473081  0.058326597   -3.7713378    1.1240297   520538 
 1231000    1.0313274   -3.7712083   -3.7712083   -2.6480885  0.063463932   -3.7712083    1.1231198   520538 
 1232000    1.0318102   -3.7713708   -3.7713708   -2.6477253  0.082174743   -3.7713708    1.1236455   520538 
 1233000     1.033657   -3.7737549   -3.7737549   -2.6480982   0.07302093   -3.7737549    1.1256566   520538 
 1234000     1.031689   -3.7719789   -3.7719789   -2.6484654  0.090893612   -3.7719789    1.1235135   520538 
 1235000    1.0323692   -3.7733523   -3.7733523    -2.649098  0.078419403   -3.7733523    1.1242542   520538 
 1236000    1.0304899   -3.7715881   -3.7715881   -2.6493804   0.08310315   -3.7715881    1.1222077   520538 
 1237000    1.0310195   -3.7715621   -3.7715621   -2.6487776   0.05944448   -3.7715621    1.1227845   520538 
 1238000    1.0305184   -3.7708858   -3.7708858    -2.648647  0.076821186   -3.7708858    1.1222388   520538 
 1239000    1.0302591    -3.769951    -3.769951   -2.6479947  0.078980176    -3.769951    1.1219563   520538 
 1240000    1.0305801    -3.770583    -3.770583   -2.6482771  0.070280171    -3.770583    1.1223059   520538 
 1241000    1.0320859   -3.7728247   -3.7728247    -2.648879  0.072221747   -3.7728247    1.1239458   520538 
 1242000      1.03152   -3.7727176   -3.7727176   -2.6493881  0.085382665   -3.7727176    1.1233295   520538 
 1243000     1.031686   -3.7733384   -3.7733384   -2.6498282   0.07176335   -3.7733384    1.1235103   520538 
 1244000    1.0322594   -3.7737574   -3.7737574   -2.6496227  0.067213126   -3.7737574    1.1241347   520538 
 1245000    1.0314008    -3.773256    -3.773256   -2.6500563  0.068753437    -3.773256    1.1231997   520538 
 1246000     1.031762   -3.7731923   -3.7731923   -2.6495993   0.07099071   -3.7731923     1.123593   520538 
 1247000    1.0302315   -3.7718285   -3.7718285   -2.6499022  0.080089576   -3.7718285    1.1219263   520538 
 1248000    1.0326608   -3.7754723   -3.7754723   -2.6509006  0.075902504   -3.7754723    1.1245718   520538 
 1249000    1.0311941   -3.7740007   -3.7740007   -2.6510261  0.065751809   -3.7740007    1.1229746   520538 
 1250000    1.0303679   -3.7724992   -3.7724992   -2.6504244  0.082175869   -3.7724992    1.1220748   520538 
 1251000    1.0320275   -3.7735305   -3.7735305   -2.6496483  0.072915259   -3.7735305    1.1238822   520538 
 1252000    1.0311862   -3.7728019   -3.7728019   -2.6498359   0.06296193   -3.7728019     1.122966   520538 
 1253000     1.031764   -3.7736058   -3.7736058   -2.6500106  0.075386373   -3.7736058    1.1235952   520538 
 1254000    1.0320977   -3.7742639   -3.7742639   -2.6503053  0.078808202   -3.7742639    1.1239586   520538 
 1255000    1.0312099   -3.7749277   -3.7749277    -2.651936  0.078857287   -3.7749277    1.1229918   520538 
 1256000    1.0318403   -3.7755526   -3.7755526   -2.6518742  0.070579319   -3.7755526    1.1236783   520538 
 1257000    1.0308221   -3.7740158   -3.7740158   -2.6514464  0.064211087   -3.7740158    1.1225694   520538 
 1258000    1.0308389   -3.7737844   -3.7737844   -2.6511967  0.073671685   -3.7737844    1.1225877   520538 
 1259000    1.0319871   -3.7746688   -3.7746688   -2.6508307  0.087374813   -3.7746688    1.1238381   520538 
 1260000    1.0296689   -3.7724233   -3.7724233   -2.6511097  0.070758208   -3.7724233    1.1213136   520538 
 1261000    1.0336192   -3.7762325   -3.7762325    -2.650617  0.097866386   -3.7762325    1.1256156   520538 
 1262000    1.0325853   -3.7747746   -3.7747746    -2.650285  0.077435842   -3.7747746    1.1244896   520538 
 1263000     1.031681   -3.7736042   -3.7736042   -2.6500994  0.073972472   -3.7736042    1.1235048   520538 
 1264000    1.0330576   -3.7746843   -3.7746843   -2.6496805   0.08728168   -3.7746843    1.1250039   520538 
 1265000    1.0327042   -3.7741705   -3.7741705   -2.6495515  0.071240663   -3.7741705     1.124619   520538 
 1266000    1.0311024   -3.7735049   -3.7735049   -2.6506302  0.074965945   -3.7735049    1.1228747   520538 
 1267000    1.0307882   -3.7735128   -3.7735128   -2.6509803  0.073324243   -3.7735128    1.1225325   520538 
 1268000     1.034087   -3.7759404   -3.7759404   -2.6498155  0.077925774   -3.7759404    1.1261249   520538 
 1269000    1.0317638   -3.7733081   -3.7733081   -2.6497131  0.086858841   -3.7733081     1.123595   520538 
 1270000    1.0313542   -3.7735444   -3.7735444   -2.6503955  0.073647567   -3.7735444    1.1231489   520538 
 1271000    1.0295828   -3.7717815   -3.7717815   -2.6505617  0.068497166   -3.7717815    1.1212199   520538 
 1272000    1.0320456   -3.7735818   -3.7735818     -2.64968  0.087737313   -3.7735818    1.1239018   520538 
 1273000    1.0329654   -3.7742007   -3.7742007   -2.6492972  0.075575801   -3.7742007    1.1249035   520538 
 1274000    1.0326323    -3.774996    -3.774996   -2.6504553  0.078450201    -3.774996    1.1245407   520538 
 1275000    1.0314092   -3.7734572   -3.7734572   -2.6502483  0.077868045   -3.7734572    1.1232088   520538 
 1276000    1.0309453   -3.7727074   -3.7727074   -2.6500038  0.071492886   -3.7727074    1.1227036   520538 
 1277000    1.0317727   -3.7740442   -3.7740442   -2.6504395  0.081410963   -3.7740442    1.1236047   520538 
 1278000    1.0308757   -3.7731271   -3.7731271   -2.6504992  0.079401839   -3.7731271    1.1226279   520538 
 1279000    1.0305651   -3.7725073   -3.7725073   -2.6502177  0.085220173   -3.7725073    1.1222896   520538 
 1280000    1.0305715   -3.7736803   -3.7736803   -2.6513838  0.069505236   -3.7736803    1.1222965   520538 
 1281000    1.0332265   -3.7768201   -3.7768201   -2.6516322  0.080965027   -3.7768201    1.1251879   520538 
 1282000    1.0305971    -3.774293    -3.774293   -2.6519686  0.074873056    -3.774293    1.1223244   520538 
 1283000    1.0310286    -3.774749    -3.774749   -2.6519546  0.068658004    -3.774749    1.1227944   520538 
 1284000    1.0293758   -3.7733192   -3.7733192   -2.6523248  0.083055025   -3.7733192    1.1209945   520538 
 1285000    1.0309708   -3.7741137   -3.7741137   -2.6513823  0.085380974   -3.7741137    1.1227314   520538 
 1286000    1.0306715   -3.7743295   -3.7743295   -2.6519241  0.072744982   -3.7743295    1.1224055   520538 
 1287000    1.0324181   -3.7757498   -3.7757498   -2.6514423  0.081695171   -3.7757498    1.1243075   520538 
 1288000    1.0315528   -3.7749451   -3.7749451   -2.6515799  0.085692666   -3.7749451    1.1233652   520538 
 1289000    1.0289654   -3.7725901   -3.7725901   -2.6520426  0.063052992   -3.7725901    1.1205475   520538 
 1290000    1.0318088   -3.7752491   -3.7752491    -2.651605  0.063784252   -3.7752491     1.123644   520538 
 1291000    1.0298463   -3.7738872   -3.7738872   -2.6523804  0.078353357   -3.7738872    1.1215068   520538 
 1292000    1.0323302   -3.7765518   -3.7765518     -2.65234  0.077415012   -3.7765518    1.1242118   520538 
 1293000    1.0318947   -3.7760003   -3.7760003   -2.6522627  0.083867875   -3.7760003    1.1237375   520538 
 1294000    1.0316792    -3.776013    -3.776013   -2.6525101   0.07596698    -3.776013    1.1235029   520538 
 1295000      1.03178   -3.7764213   -3.7764213   -2.6528086  0.068656222   -3.7764213    1.1236126   520538 
 1296000    1.0306545   -3.7750969   -3.7750969     -2.65271  0.084575205   -3.7750969    1.1223869   520538 
 1297000    1.0303992   -3.7748532   -3.7748532   -2.6527443  0.094449671   -3.7748532    1.1221089   520538 
 1298000    1.0319514   -3.7769033   -3.7769033    -2.653104  0.091832016   -3.7769033    1.1237993   520538 
 1299000    1.0321837   -3.7765122   -3.7765122     -2.65246   0.06942983   -3.7765122    1.1240523   520538 
 1300000    1.0316584   -3.7768747   -3.7768747   -2.6533945   0.07365355   -3.7768747    1.1234802   520538 
 1301000    1.0334228   -3.7792241   -3.7792241   -2.6538225  0.059749841   -3.7792241    1.1254016   520538 
 1302000    1.0319137    -3.778534    -3.778534   -2.6547758  0.070879441    -3.778534    1.1237582   520538 
 1303000     1.029698   -3.7758811   -3.7758811   -2.6545358  0.069979904   -3.7758811    1.1213453   520538 
 1304000    1.0325286   -3.7793193   -3.7793193   -2.6548915  0.072025497   -3.7793193    1.1244279   520538 
 1305000    1.0308271   -3.7773726   -3.7773726   -2.6547977  0.073278992   -3.7773726    1.1225749   520538 
 1306000    1.0295824   -3.7752835   -3.7752835   -2.6540641  0.072483662   -3.7752835    1.1212194   520538 
 1307000     1.031298   -3.7783409   -3.7783409   -2.6552531  0.067283963   -3.7783409    1.1230878   520538 
 1308000     1.032193   -3.7800705   -3.7800705   -2.6560082  0.072949278   -3.7800705    1.1240623   520538 
 1309000    1.0305847   -3.7781875   -3.7781875   -2.6558766  0.075952707   -3.7781875    1.1223109   520538 
 1310000    1.0300403   -3.7776522   -3.7776522   -2.6559341  0.076847469   -3.7776522    1.1217181   520538 
 1311000    1.0317873   -3.7785823   -3.7785823   -2.6549617   0.09275992   -3.7785823    1.1236205   520538 
 1312000    1.0310584   -3.7783805   -3.7783805   -2.6555537  0.066927013   -3.7783805    1.1228268   520538 
 1313000    1.0318586   -3.7789016   -3.7789016   -2.6552034  0.091701055   -3.7789016    1.1236982   520538 
 1314000    1.0319837   -3.7790391   -3.7790391   -2.6552046  0.074060542   -3.7790391    1.1238344   520538 
 1315000    1.0307698   -3.7785555   -3.7785555   -2.6560429  0.076543339   -3.7785555    1.1225126   520538 
 1316000    1.0317408   -3.7795172   -3.7795172   -2.6559474  0.086364217   -3.7795172    1.1235699   520538 
 1317000    1.0313357    -3.778169    -3.778169   -2.6550402  0.079237198    -3.778169    1.1231288   520538 
 1318000    1.0317207   -3.7779831   -3.7779831   -2.6544351  0.089843453   -3.7779831     1.123548   520538 
 1319000    1.0317655   -3.7790207   -3.7790207   -2.6554238  0.088649849   -3.7790207    1.1235969   520538 
 1320000    1.0303718   -3.7778141   -3.7778141   -2.6557351  0.057678248   -3.7778141     1.122079   520538 
 1321000    1.0331002   -3.7806531   -3.7806531   -2.6556027  0.072442094   -3.7806531    1.1250503   520538 
 1322000    1.0311737   -3.7784193   -3.7784193    -2.655467  0.081875866   -3.7784193    1.1229524   520538 
 1323000    1.0313185    -3.779281    -3.779281   -2.6561709  0.080813238    -3.779281    1.1231101   520538 
 1324000     1.030503   -3.7779931   -3.7779931   -2.6557711  0.081236845   -3.7779931     1.122222   520538 
 1325000    1.0295149   -3.7774645   -3.7774645   -2.6563186  0.072885417   -3.7774645     1.121146   520538 
 1326000    1.0320115   -3.7790749   -3.7790749   -2.6552101  0.093600592   -3.7790749    1.1238647   520538 
 1327000    1.0303834   -3.7780487   -3.7780487    -2.655957  0.076996875   -3.7780487    1.1220917   520538 
 1328000    1.0310528   -3.7792956   -3.7792956   -2.6564749  0.091900285   -3.7792956    1.1228207   520538 
 1329000    1.0318532   -3.7790707   -3.7790707   -2.6553783  0.075973847   -3.7790707    1.1236924   520538 
 1330000    1.0308785   -3.7786488   -3.7786488   -2.6560179  0.089624363   -3.7786488    1.1226309   520538 
 1331000    1.0315221   -3.7793234   -3.7793234   -2.6559916  0.081012387   -3.7793234    1.1233318   520538 
 1332000    1.0316729    -3.780391    -3.780391   -2.6568951  0.075804461    -3.780391    1.1234959   520538 
 1333000    1.0310885   -3.7797494   -3.7797494   -2.6568898  0.077050875   -3.7797494    1.1228596   520538 
 1334000     1.030985   -3.7794974   -3.7794974   -2.6567506  0.057351936   -3.7794974    1.1227468   520538 
 1335000    1.0318643   -3.7812164   -3.7812164    -2.657512  0.087836666   -3.7812164    1.1237044   520538 
 1336000    1.0310959   -3.7820452   -3.7820452   -2.6591775  0.059347214   -3.7820452    1.1228676   520538 
 1337000    1.0290496   -3.7804289   -3.7804289   -2.6597897  0.073918406   -3.7804289    1.1206392   520538 
 1338000     1.029694    -3.780889    -3.780889   -2.6595481  0.082272373    -3.780889    1.1213409   520538 
 1339000    1.0313925   -3.7827143   -3.7827143   -2.6595237  0.088858785   -3.7827143    1.1231906   520538 
 1340000    1.0295152   -3.7811819   -3.7811819   -2.6600356  0.088209047   -3.7811819    1.1211463   520538 
 1341000      1.02975   -3.7810715   -3.7810715   -2.6596697  0.084350168   -3.7810715    1.1214019   520538 
 1342000    1.0302775   -3.7813349   -3.7813349   -2.6593585  0.065683774   -3.7813349    1.1219764   520538 
 1343000    1.0292436   -3.7806705   -3.7806705     -2.65982  0.077486048   -3.7806705    1.1208505   520538 
 1344000    1.0300976   -3.7808799   -3.7808799   -2.6590994  0.069147049   -3.7808799    1.1217805   520538 
 1345000    1.0322827   -3.7834861   -3.7834861    -2.659326  0.089694933   -3.7834861    1.1241601   520538 
 1346000    1.0299368   -3.7815968   -3.7815968   -2.6599914  0.076885158   -3.7815968    1.1216054   520538 
 1347000    1.0278886   -3.7803019   -3.7803019    -2.660927  0.082872466   -3.7803019    1.1193749   520538 
 1348000    1.0276816   -3.7802995   -3.7802995   -2.6611501  0.074966241   -3.7802995    1.1191494   520538 
 1349000    1.0294289   -3.7818657   -3.7818657   -2.6608135  0.087895899   -3.7818657    1.1210522   520538 
 1350000    1.0307739   -3.7830368   -3.7830368   -2.6605198  0.078936611   -3.7830368     1.122517   520538 
 1351000    1.0306984   -3.7833142   -3.7833142   -2.6608794    0.0672177   -3.7833142    1.1224348   520538 
 1352000    1.0297049   -3.7830066   -3.7830066   -2.6616538  0.083777159   -3.7830066    1.1213528   520538 
 1353000    1.0320552   -3.7846208   -3.7846208   -2.6607085  0.098144228   -3.7846208    1.1239123   520538 
 1354000    1.0286157   -3.7811597   -3.7811597    -2.660993  0.075430202   -3.7811597    1.1201667   520538 
 1355000    1.0284113   -3.7813794   -3.7813794   -2.6614353  0.072724145   -3.7813794    1.1199441   520538 
 1356000    1.0311393    -3.783234    -3.783234   -2.6603191  0.077747366    -3.783234    1.1229149   520538 
 1357000    1.0295995   -3.7821091   -3.7821091    -2.660871  0.079060811   -3.7821091    1.1212381   520538 
 1358000    1.0301466   -3.7829509   -3.7829509    -2.661117  0.064671084   -3.7829509    1.1218338   520538 
 1359000    1.0290199   -3.7823185   -3.7823185   -2.6617117  0.089584919   -3.7823185    1.1206068   520538 
 1360000    1.0302065   -3.7837846   -3.7837846   -2.6618855   0.08784459   -3.7837846    1.1218991   520538 
 1361000    1.0306438       -3.785       -3.785   -2.6626247  0.062165655       -3.785    1.1223753   520538 
 1362000    1.0291032   -3.7826055   -3.7826055    -2.661908  0.068995848   -3.7826055    1.1206975   520538 
 1363000    1.0290862    -3.782598    -3.782598    -2.661919  0.074930054    -3.782598     1.120679   520538 
 1364000    1.0298432   -3.7831241   -3.7831241   -2.6616206   0.07746873   -3.7831241    1.1215035   520538 
 1365000    1.0285184   -3.7824152   -3.7824152   -2.6623545  0.086765954   -3.7824152    1.1200607   520538 
 1366000    1.0294587    -3.783491    -3.783491   -2.6624063  0.074309514    -3.783491    1.1210847   520538 
 1367000     1.031845   -3.7858859   -3.7858859   -2.6622025  0.086798453   -3.7858859    1.1236834   520538 
 1368000    1.0321973   -3.7854253   -3.7854253   -2.6613582  0.089162585   -3.7854253    1.1240671   520538 
 1369000    1.0294444   -3.7831277   -3.7831277   -2.6620585  0.072368669   -3.7831277    1.1210691   520538 
 1370000    1.0302317   -3.7846974   -3.7846974   -2.6627709  0.088961539   -3.7846974    1.1219265   520538 
 1371000    1.0302697   -3.7845944   -3.7845944   -2.6626266  0.081605522   -3.7845944    1.1219679   520538 
 1372000    1.0272555   -3.7811915   -3.7811915   -2.6625061  0.084559386   -3.7811915    1.1186854   520538 
 1373000    1.0290197   -3.7830677   -3.7830677   -2.6624611  0.070468928   -3.7830677    1.1206066   520538 
 1374000    1.0297103   -3.7836245   -3.7836245   -2.6622658  0.057149496   -3.7836245    1.1213587   520538 
 1375000    1.0280348   -3.7814668   -3.7814668   -2.6619327  0.085520345   -3.7814668    1.1195341   520538 
 1376000    1.0291264   -3.7837431   -3.7837431   -2.6630202  0.059381738   -3.7837431    1.1207229   520538 
 1377000    1.0296954   -3.7848852   -3.7848852   -2.6635427  0.053951735   -3.7848852    1.1213425   520538 
 1378000    1.0288765   -3.7839564   -3.7839564   -2.6635057  0.076443024   -3.7839564    1.1204507   520538 
 1379000    1.0284392   -3.7835534   -3.7835534   -2.6635788  0.080345777   -3.7835534    1.1199745   520538 
 1380000    1.0288415   -3.7837804   -3.7837804   -2.6633678  0.084730031   -3.7837804    1.1204126   520538 
 1381000    1.0301327    -3.785481    -3.785481   -2.6636623  0.072249682    -3.785481    1.1218187   520538 
 1382000     1.028642   -3.7829921   -3.7829921   -2.6627968  0.069735817   -3.7829921    1.1201953   520538 
 1383000    1.0306427   -3.7838712   -3.7838712   -2.6614971  0.074460227   -3.7838712    1.1223741   520538 
 1384000    1.0315113   -3.7852196   -3.7852196   -2.6618996  0.088609796   -3.7852196      1.12332   520538 
 1385000    1.0304423   -3.7837589   -3.7837589    -2.661603  0.089382914   -3.7837589    1.1221558   520538 
 1386000    1.0294446   -3.7833241   -3.7833241   -2.6622548  0.064705323   -3.7833241    1.1210693   520538 
 1387000     1.031651   -3.7863494   -3.7863494   -2.6628773  0.075705174   -3.7863494    1.1234722   520538 
 1388000    1.0301392   -3.7851479   -3.7851479   -2.6633221  0.073311701   -3.7851479    1.1218257   520538 
 1389000    1.0291813   -3.7854948   -3.7854948   -2.6647122  0.076017182   -3.7854948    1.1207826   520538 
 1390000    1.0261493   -3.7830836   -3.7830836   -2.6656029  0.087476344   -3.7830836    1.1174807   520538 
 1391000     1.029577   -3.7860636   -3.7860636     -2.66485   0.06616209   -3.7860636    1.1212136   520538 
 1392000    1.0296298   -3.7860381   -3.7860381   -2.6647671  0.072326853   -3.7860381     1.121271   520538 
 1393000    1.0290691   -3.7859725   -3.7859725   -2.6653121  0.076928691   -3.7859725    1.1206604   520538 
 1394000    1.0290706   -3.7856198   -3.7856198   -2.6649578    0.0686715   -3.7856198     1.120662   520538 
 1395000    1.0289711   -3.7857031   -3.7857031   -2.6651495  0.062933518   -3.7857031    1.1205537   520538 
 1396000    1.0306366   -3.7866168   -3.7866168   -2.6642494  0.075247507   -3.7866168    1.1223675   520538 
 1397000    1.0290177   -3.7848227   -3.7848227   -2.6642183  0.092167893   -3.7848227    1.1206044   520538 
 1398000    1.0294338   -3.7853176   -3.7853176     -2.66426  0.073230926   -3.7853176    1.1210576   520538 
 1399000    1.0294728   -3.7859001   -3.7859001      -2.6648  0.074189297   -3.7859001    1.1211001   520538 
 1400000    1.0294753   -3.7856061   -3.7856061   -2.6645033  0.068530444   -3.7856061    1.1211028   520538 
 1401000     1.028615   -3.7849352   -3.7849352   -2.6647693  0.071746387   -3.7849352     1.120166   520538 
 1402000    1.0290872   -3.7854841   -3.7854841    -2.664804  0.061244232   -3.7854841    1.1206802   520538 
 1403000    1.0283063   -3.7846164   -3.7846164   -2.6647867  0.073133455   -3.7846164    1.1198297   520538 
 1404000    1.0280463   -3.7846053   -3.7846053   -2.6650588  0.077330093   -3.7846053    1.1195466   520538 
 1405000    1.0263714   -3.7837448   -3.7837448   -2.6660222  0.073000965   -3.7837448    1.1177226   520538 
 1406000    1.0295526   -3.7863315   -3.7863315   -2.6651446  0.066546817   -3.7863315    1.1211869   520538 
 1407000    1.0285557   -3.7842515   -3.7842515   -2.6641501  0.073984921   -3.7842515    1.1201014   520538 
 1408000    1.0274851    -3.784375    -3.784375   -2.6654395  0.065101649    -3.784375    1.1189354   520538 
 1409000    1.0289332   -3.7858503   -3.7858503   -2.6653379  0.082587834   -3.7858503    1.1205124   520538 
 1410000    1.0282804    -3.784901    -3.784901   -2.6650995  0.078667449    -3.784901    1.1198015   520538 
 1411000    1.0297179    -3.786717    -3.786717     -2.66535  0.081628279    -3.786717     1.121367   520538 
 1412000    1.0304046   -3.7879835   -3.7879835   -2.6658687  0.077349823   -3.7879835    1.1221148   520538 
 1413000    1.0312034   -3.7892054   -3.7892054   -2.6662207  0.089552547   -3.7892054    1.1229847   520538 
 1414000    1.0293803   -3.7871849   -3.7871849   -2.6661856  0.069349098   -3.7871849    1.1209993   520538 
 1415000    1.0296236   -3.7865531   -3.7865531   -2.6652887  0.076061514   -3.7865531    1.1212643   520538 
 1416000    1.0289603   -3.7859385   -3.7859385   -2.6653966  0.079393195   -3.7859385    1.1205419   520538 
 1417000    1.0308453   -3.7885244   -3.7885244   -2.6659297  0.077573486   -3.7885244    1.1225947   520538 
 1418000    1.0300844   -3.7880907   -3.7880907   -2.6663245  0.097947091   -3.7880907    1.1217662   520538 
 1419000    1.0289935   -3.7872907   -3.7872907   -2.6667127  0.077846488   -3.7872907    1.1205781   520538 
 1420000    1.0305211    -3.788228    -3.788228   -2.6659863  0.094256807    -3.788228    1.1222417   520538 
 1421000    1.0310003   -3.7890938   -3.7890938   -2.6663303  0.064889126   -3.7890938    1.1227635   520538 
 1422000    1.0279818    -3.786412    -3.786412   -2.6669356  0.071366806    -3.786412    1.1194764   520538 
 1423000    1.0280063   -3.7861251   -3.7861251   -2.6666221  0.079245639   -3.7861251     1.119503   520538 
 1424000    1.0284862   -3.7862346   -3.7862346   -2.6662089  0.080485246   -3.7862346    1.1200256   520538 
 1425000    1.0313399   -3.7895647   -3.7895647   -2.6664313  0.078705275   -3.7895647    1.1231334   520538 
 1426000     1.030233   -3.7885465   -3.7885465   -2.6666186   0.08159037   -3.7885465    1.1219279   520538 
 1427000    1.0304814   -3.7894784   -3.7894784   -2.6672799  0.080034761   -3.7894784    1.1221984   520538 
 1428000    1.0287305   -3.7883729   -3.7883729   -2.6680812  0.089183062   -3.7883729    1.1202917   520538 
 1429000    1.0287096   -3.7884516   -3.7884516   -2.6681827  0.068177036   -3.7884516    1.1202689   520538 
 1430000    1.0280615   -3.7875678   -3.7875678   -2.6680047  0.072335945   -3.7875678    1.1195631   520538 
 1431000    1.0315282   -3.7906508   -3.7906508   -2.6673123  0.084052871   -3.7906508    1.1233384   520538 
 1432000    1.0284165   -3.7879659   -3.7879659   -2.6680161  0.092270226   -3.7879659    1.1199498   520538 
 1433000    1.0281242   -3.7888266   -3.7888266   -2.6691951  0.063267252   -3.7888266    1.1196315   520538 
 1434000    1.0290796   -3.7898129   -3.7898129   -2.6691411  0.074619447   -3.7898129    1.1206719   520538 
 1435000    1.0284283   -3.7890665   -3.7890665   -2.6691039  0.089980417   -3.7890665    1.1199626   520538 
 1436000     1.029057   -3.7904807   -3.7904807   -2.6698334  0.061476491   -3.7904807    1.1206473   520538 
 1437000    1.0283035   -3.7885517   -3.7885517    -2.668725  0.079788267   -3.7885517    1.1198267   520538 
 1438000    1.0289848   -3.7879687   -3.7879687   -2.6674001  0.079736389   -3.7879687    1.1205686   520538 
 1439000     1.028293   -3.7871709   -3.7871709   -2.6673556  0.085712062   -3.7871709    1.1198152   520538 
 1440000    1.0282894   -3.7866768   -3.7866768   -2.6668654  0.077998564   -3.7866768    1.1198114   520538 
 1441000    1.0291919   -3.7876326   -3.7876326   -2.6668384  0.085190995   -3.7876326    1.1207942   520538 
 1442000    1.0295073   -3.7878755   -3.7878755   -2.6667378  0.076199212   -3.7878755    1.1211377   520538 
 1443000    1.0281232   -3.7873117   -3.7873117   -2.6676813  0.071660637   -3.7873117    1.1196304   520538 
 1444000    1.0282936   -3.7882933   -3.7882933   -2.6684774  0.082235222   -3.7882933    1.1198159   520538 
 1445000    1.0299499   -3.7894483   -3.7894483   -2.6678287   0.07073023   -3.7894483    1.1216196   520538 
 1446000    1.0295763   -3.7895522   -3.7895522   -2.6683394  0.095768204   -3.7895522    1.1212128   520538 
 1447000    1.0296697   -3.7898456   -3.7898456   -2.6685311   0.07965387   -3.7898456    1.1213145   520538 
 1448000    1.0283915   -3.7894724   -3.7894724     -2.66955  0.064322203   -3.7894724    1.1199225   520538 
 1449000    1.0292659   -3.7901763   -3.7901763   -2.6693015  0.066719064   -3.7901763    1.1208747   520538 
 1450000    1.0276573   -3.7886024   -3.7886024   -2.6694794  0.073600987   -3.7886024     1.119123   520538 
 1451000    1.0287572   -3.7888379   -3.7888379   -2.6685171  0.072760057   -3.7888379    1.1203208   520538 
 1452000    1.0288491   -3.7888824   -3.7888824   -2.6684616  0.084558943   -3.7888824    1.1204208   520538 
 1453000    1.0291832   -3.7900409   -3.7900409   -2.6692562  0.060078061   -3.7900409    1.1207847   520538 
 1454000     1.029711   -3.7911901   -3.7911901   -2.6698306  0.075954325   -3.7911901    1.1213595   520538 
 1455000    1.0281455   -3.7898804   -3.7898804   -2.6702258  0.071593395   -3.7898804    1.1196546   520538 
 1456000    1.0248081   -3.7865585   -3.7865585   -2.6705383  0.071781678   -3.7865585    1.1160202   520538 
 1457000    1.0295208    -3.791353    -3.791353   -2.6702006  0.077210178    -3.791353    1.1211524   520538 
 1458000    1.0297787   -3.7923979   -3.7923979   -2.6709647  0.083760055   -3.7923979    1.1214332   520538 
 1459000    1.0296691   -3.7926605   -3.7926605   -2.6713466  0.071582446   -3.7926605    1.1213139   520538 
 1460000    1.0284922   -3.7913467   -3.7913467   -2.6713144  0.073121671   -3.7913467    1.1200322   520538 
 1461000    1.0298579   -3.7927644   -3.7927644   -2.6712449  0.071789429   -3.7927644    1.1215195   520538 
 1462000    1.0295292   -3.7922954   -3.7922954    -2.671134  0.080792962   -3.7922954    1.1211615   520538 
 1463000    1.0277549   -3.7904358   -3.7904358   -2.6712065  0.074149606   -3.7904358    1.1192293   520538 
 1464000    1.0290137   -3.7921307   -3.7921307   -2.6715306   0.07383908   -3.7921307    1.1206001   520538 
 1465000    1.0288336   -3.7918884   -3.7918884   -2.6714844  0.084011052   -3.7918884     1.120404   520538 
 1466000    1.0310902   -3.7939908   -3.7939908   -2.6711295  0.061182059   -3.7939908    1.1228614   520538 
 1467000    1.0306652   -3.7933507   -3.7933507    -2.670952  0.068320964   -3.7933507    1.1223986   520538 
 1468000    1.0300214   -3.7926881   -3.7926881   -2.6709906   0.07089413   -3.7926881    1.1216975   520538 
 1469000    1.0307101   -3.7933266   -3.7933266   -2.6708791  0.085345134   -3.7933266    1.1224475   520538 
 1470000     1.031408   -3.7941121   -3.7941121   -2.6709045   0.07504215   -3.7941121    1.1232076   520538 
 1471000    1.0284696   -3.7907554   -3.7907554   -2.6707479  0.084729154   -3.7907554    1.1200075   520538 
 1472000    1.0291242   -3.7920835   -3.7920835    -2.671363  0.058998892   -3.7920835    1.1207204   520538 
 1473000    1.0286908   -3.7921531   -3.7921531   -2.6719046  0.078059927   -3.7921531    1.1202485   520538 
 1474000    1.0297228   -3.7931984   -3.7931984    -2.671826  0.075816428   -3.7931984    1.1213724   520538 
 1475000    1.0308951   -3.7942522   -3.7942522   -2.6716033  0.082214741   -3.7942522    1.1226489   520538 
 1476000    1.0317188    -3.795126    -3.795126     -2.67158  0.074900231    -3.795126    1.1235459   520538 
 1477000    1.0286274   -3.7926755   -3.7926755   -2.6724961  0.082988115   -3.7926755    1.1201795   520538 
 1478000    1.0286969   -3.7927284   -3.7927284   -2.6724733  0.078972598   -3.7927284    1.1202551   520538 
 1479000    1.0301059   -3.7938625   -3.7938625    -2.672073  0.080089327   -3.7938625    1.1217895   520538 
 1480000    1.0291596   -3.7924329   -3.7924329   -2.6716739  0.080709893   -3.7924329     1.120759   520538 
 1481000    1.0298554   -3.7935886   -3.7935886   -2.6720718  0.077231885   -3.7935886    1.1215168   520538 
 1482000     1.028587   -3.7927109   -3.7927109   -2.6725755  0.078226816   -3.7927109    1.1201354   520538 
 1483000    1.0270604   -3.7909565   -3.7909565   -2.6724835   0.06584695   -3.7909565     1.118473   520538 
 1484000    1.0276647   -3.7911672   -3.7911672   -2.6720362  0.085454485   -3.7911672     1.119131   520538 
 1485000    1.0282063   -3.7919032   -3.7919032   -2.6721824  0.067881709   -3.7919032    1.1197208   520538 
 1486000    1.0269499    -3.790102    -3.790102   -2.6717494  0.075484021    -3.790102    1.1183526   520538 
 1487000    1.0278602   -3.7903797   -3.7903797   -2.6710358  0.065389968   -3.7903797    1.1193439   520538 
 1488000    1.0269312   -3.7895793   -3.7895793    -2.671247  0.079041147   -3.7895793    1.1183323   520538 
 1489000    1.0271382   -3.7896731   -3.7896731   -2.6711154  0.070533995   -3.7896731    1.1185577   520538 
 1490000    1.0274909    -3.790524    -3.790524   -2.6715822  0.084926073    -3.790524    1.1189418   520538 
 1491000    1.0291281   -3.7931908   -3.7931908   -2.6724661  0.069144386   -3.7931908    1.1207247   520538 
 1492000    1.0279069   -3.7924527   -3.7924527   -2.6730579  0.056322659   -3.7924527    1.1193948   520538 
 1493000    1.0292701    -3.794676    -3.794676   -2.6737966   0.09789569    -3.794676    1.1208794   520538 
 1494000    1.0284325   -3.7925008   -3.7925008   -2.6725336  0.075656076   -3.7925008    1.1199672   520538 
 1495000    1.0270853   -3.7918365   -3.7918365   -2.6733364  0.079671186   -3.7918365    1.1185001   520538 
 1496000    1.0267102   -3.7918211   -3.7918211   -2.6737295  0.077675963   -3.7918211    1.1180916   520538 
 1497000    1.0287194   -3.7929518   -3.7929518   -2.6726721  0.084784755   -3.7929518    1.1202797   520538 
 1498000    1.0291455   -3.7933482   -3.7933482   -2.6726046  0.064868707   -3.7933482    1.1207436   520538 
 1499000    1.0288323    -3.793258    -3.793258   -2.6728554  0.085147356    -3.793258    1.1204026   520538 
 1500000    1.0296511   -3.7938551   -3.7938551   -2.6725608  0.075281956   -3.7938551    1.1212943   520538 
 1501000    1.0323895   -3.7967369   -3.7967369   -2.6724605  0.074160862   -3.7967369    1.1242764   520538 
 1502000    1.0293487   -3.7937968   -3.7937968   -2.6728319  0.080468615   -3.7937968    1.1209649   520538 
 1503000    1.0295497   -3.7944792   -3.7944792   -2.6732954  0.094881364   -3.7944792    1.1211838   520538 
 1504000    1.0293633   -3.7944043   -3.7944043   -2.6734235  0.087096308   -3.7944043    1.1209808   520538 
 1505000    1.0285059    -3.794423    -3.794423   -2.6743759  0.077047875    -3.794423    1.1200471   520538 
 1506000    1.0285939   -3.7951062   -3.7951062   -2.6749632  0.070427034   -3.7951062     1.120143   520538 
 1507000    1.0261582   -3.7924514   -3.7924514    -2.674961  0.075071789   -3.7924514    1.1174905   520538 
 1508000    1.0276569   -3.7952155   -3.7952155   -2.6760929  0.070989482   -3.7952155    1.1191226   520538 
 1509000    1.0267149   -3.7930696   -3.7930696   -2.6749729   0.07229358   -3.7930696    1.1180967   520538 
 1510000    1.0285729   -3.7947369   -3.7947369   -2.6746168  0.066217658   -3.7947369      1.12012   520538 
 1511000    1.0280671   -3.7927695   -3.7927695   -2.6732003   0.07948355   -3.7927695    1.1195692   520538 
 1512000    1.0269655   -3.7922351   -3.7922351   -2.6738656  0.063537661   -3.7922351    1.1183696   520538 
 1513000    1.0265924   -3.7917178   -3.7917178   -2.6737544  0.077194134   -3.7917178    1.1179634   520538 
 1514000    1.0289723   -3.7943555   -3.7943555   -2.6738005  0.083420449   -3.7943555     1.120555   520538 
 1515000    1.0265401   -3.7925981   -3.7925981   -2.6746918  0.062652325   -3.7925981    1.1179063   520538 
 1516000    1.0288031   -3.7946661   -3.7946661   -2.6742953  0.064157138   -3.7946661    1.1203708   520538 
 1517000    1.0295411   -3.7948755   -3.7948755   -2.6737011  0.069865122   -3.7948755    1.1211745   520538 
 1518000    1.0268221   -3.7930569   -3.7930569   -2.6748434  0.070266356   -3.7930569    1.1182135   520538 
 1519000    1.0287667   -3.7947951   -3.7947951    -2.674464  0.079644272   -3.7947951    1.1203311   520538 
 1520000    1.0315366   -3.7979756   -3.7979756   -2.6746281  0.080697628   -3.7979756    1.1233476   520538 
 1521000     1.028985   -3.7951926   -3.7951926   -2.6746238  0.089919555   -3.7951926    1.1205688   520538 
 1522000    1.0310192   -3.7973633   -3.7973633   -2.6745792  0.064744277   -3.7973633    1.1227841   520538 
 1523000    1.0292328   -3.7958404   -3.7958404   -2.6750018  0.060319924   -3.7958404    1.1208387   520538 
 1524000    1.0287901   -3.7956118   -3.7956118   -2.6752553  0.071779977   -3.7956118    1.1203566   520538 
 1525000    1.0313167   -3.7963605   -3.7963605   -2.6732524  0.076395599   -3.7963605    1.1231081   520538 
 1526000    1.0303569   -3.7959825   -3.7959825   -2.6739196  0.080542118   -3.7959825    1.1220629   520538 
 1527000     1.028175   -3.7938069   -3.7938069   -2.6741202  0.074108361   -3.7938069    1.1196867   520538 
 1528000    1.0285727    -3.795113    -3.795113   -2.6749932  0.076816427    -3.795113    1.1201198   520538 
 1529000    1.0298903   -3.7969996   -3.7969996   -2.6754448  0.075899632   -3.7969996    1.1215547   520538 
 1530000    1.0268816   -3.7940593   -3.7940593   -2.6757811   0.07466861   -3.7940593    1.1182783   520538 
 1531000    1.0288192   -3.7952213   -3.7952213    -2.674833  0.074123166   -3.7952213    1.1203883   520538 
 1532000    1.0290545   -3.7959912   -3.7959912   -2.6753467  0.067824192   -3.7959912    1.1206445   520538 
 1533000     1.030589   -3.7969216   -3.7969216    -2.674606  0.077769433   -3.7969216    1.1223156   520538 
 1534000    1.0295336   -3.7970534   -3.7970534   -2.6758871  0.083130448   -3.7970534    1.1211663   520538 
 1535000    1.0308268   -3.7988708   -3.7988708   -2.6762963  0.082655949   -3.7988708    1.1225745   520538 
 1536000    1.0293841     -3.79696     -3.79696   -2.6759565   0.07795633     -3.79696    1.1210035   520538 
 1537000    1.0289819   -3.7965901   -3.7965901   -2.6760246   0.05765224   -3.7965901    1.1205655   520538 
 1538000    1.0297585   -3.7975826   -3.7975826   -2.6761715  0.081582944   -3.7975826    1.1214112   520538 
 1539000    1.0287346   -3.7965495   -3.7965495   -2.6762534  0.082572175   -3.7965495    1.1202962   520538 
 1540000    1.0286985   -3.7960273   -3.7960273   -2.6757705  0.068065246   -3.7960273    1.1202568   520538 
 1541000     1.027689   -3.7951609   -3.7951609   -2.6760034   0.07802671   -3.7951609    1.1191575   520538 
 1542000    1.0283059    -3.795542    -3.795542   -2.6757127  0.090505402    -3.795542    1.1198293   520538 
 1543000    1.0291292   -3.7961329   -3.7961329    -2.675407  0.063734502   -3.7961329    1.1207259   520538 
 1544000    1.0279854   -3.7949972   -3.7949972   -2.6755169  0.072276776   -3.7949972    1.1194803   520538 
 1545000     1.028992    -3.796853    -3.796853   -2.6762765  0.061781305    -3.796853    1.1205765   520538 
 1546000    1.0284394   -3.7954406   -3.7954406   -2.6754658  0.077687935   -3.7954406    1.1199747   520538 
 1547000    1.0283556   -3.7965494   -3.7965494    -2.676666  0.060167992   -3.7965494    1.1198834   520538 
 1548000    1.0274783    -3.795395    -3.795395   -2.6764669  0.079657699    -3.795395    1.1189281   520538 
 1549000    1.0282884   -3.7964155   -3.7964155   -2.6766052  0.088574528   -3.7964155    1.1198103   520538 
 1550000    1.0292632   -3.7979858   -3.7979858    -2.677114  0.073450716   -3.7979858    1.1208718   520538 
 1551000    1.0299181   -3.7990702   -3.7990702   -2.6774852   0.07757121   -3.7990702     1.121585   520538 
 1552000      1.02934   -3.7982029   -3.7982029   -2.6772474  0.071389378   -3.7982029    1.1209555   520538 
 1553000    1.0295556   -3.7986472   -3.7986472    -2.677457  0.077414899   -3.7986472    1.1211902   520538 
 1554000    1.0301456   -3.7989618   -3.7989618    -2.677129  0.069463268   -3.7989618    1.1218327   520538 
 1555000    1.0298319   -3.7978897   -3.7978897   -2.6763986  0.079312617   -3.7978897    1.1214911   520538 
 1556000    1.0287462   -3.7957836   -3.7957836   -2.6754748  0.085178956   -3.7957836    1.1203088   520538 
 1557000     1.030873   -3.7975193   -3.7975193   -2.6748944  0.086464624   -3.7975193    1.1226249   520538 
 1558000    1.0293449   -3.7972806   -3.7972806   -2.6763198  0.064506483   -3.7972806    1.1209608   520538 
 1559000    1.0295946   -3.7969078   -3.7969078   -2.6756751  0.075082275   -3.7969078    1.1212328   520538 
 1560000    1.0270248    -3.795182    -3.795182   -2.6767478   0.07142932    -3.795182    1.1184342   520538 
 1561000    1.0270876    -3.796679    -3.796679   -2.6781765  0.074239842    -3.796679    1.1185025   520538 
 1562000    1.0278013    -3.797762    -3.797762   -2.6784821  0.052252841    -3.797762    1.1192798   520538 
 1563000    1.0257222   -3.7960363   -3.7960363   -2.6790206  0.074737075   -3.7960363    1.1170157   520538 
 1564000    1.0265435   -3.7977696   -3.7977696   -2.6798595  0.078993895   -3.7977696    1.1179101   520538 
 1565000    1.0272251   -3.7984544   -3.7984544   -2.6798022  0.078668791   -3.7984544    1.1186523   520538 
 1566000    1.0283596   -3.7990031   -3.7990031   -2.6791154  0.061392641   -3.7990031    1.1198877   520538 
 1567000    1.0295312   -3.7995322   -3.7995322   -2.6783686  0.078781851   -3.7995322    1.1211636   520538 
 1568000    1.0292883   -3.7995314   -3.7995314   -2.6786322  0.087977738   -3.7995314    1.1208992   520538 
 1569000    1.0294018   -3.7994801   -3.7994801   -2.6784574  0.065968932   -3.7994801    1.1210227   520538 
 1570000    1.0271897   -3.7970684   -3.7970684   -2.6784547  0.076583435   -3.7970684    1.1186137   520538 
 1571000    1.0267052   -3.7975362   -3.7975362   -2.6794501  0.081494803   -3.7975362    1.1180861   520538 
 1572000    1.0278385    -3.799558    -3.799558   -2.6802377  0.053450851    -3.799558    1.1193203   520538 
 1573000      1.02712   -3.7977621   -3.7977621   -2.6792243  0.093804317   -3.7977621    1.1185379   520538 
 1574000    1.0285998   -3.7991722   -3.7991722   -2.6790228  0.077814014   -3.7991722    1.1201494   520538 
 1575000    1.0292504    -3.800327    -3.800327   -2.6794691  0.062094231    -3.800327    1.1208579   520538 
 1576000    1.0275445   -3.7993509   -3.7993509   -2.6803508  0.066315243   -3.7993509    1.1190001   520538 
 1577000    1.0273604   -3.7981721   -3.7981721   -2.6793725  0.072996089   -3.7981721    1.1187997   520538 
 1578000     1.027151   -3.7968945   -3.7968945   -2.6783229  0.072957263   -3.7968945    1.1185716   520538 
 1579000    1.0288738   -3.7994753   -3.7994753   -2.6790275  0.071351794   -3.7994753    1.1204478   520538 
 1580000    1.0278682   -3.7986605   -3.7986605   -2.6793078  0.062752635   -3.7986605    1.1193526   520538 
 1581000    1.0284264   -3.7990801   -3.7990801   -2.6791196   0.08326393   -3.7990801    1.1199605   520538 
 1582000    1.0288097   -3.7996118   -3.7996118   -2.6792339  0.062659609   -3.7996118    1.1203779   520538 
 1583000    1.0273788   -3.7986441   -3.7986441   -2.6798244   0.07674892   -3.7986441    1.1188197   520538 
 1584000    1.0275433   -3.7981813   -3.7981813   -2.6791824  0.094087636   -3.7981813    1.1189989   520538 
 1585000    1.0294057   -3.8001302   -3.8001302   -2.6791033  0.092982059   -3.8001302     1.121027   520538 
 1586000    1.0279253   -3.7984472   -3.7984472   -2.6790323  0.084834794   -3.7984472    1.1194149   520538 
 1587000    1.0294843   -3.8001353   -3.8001353   -2.6790228  0.067817542   -3.8001353    1.1211126   520538 
 1588000    1.0268817   -3.7979887   -3.7979887   -2.6797103  0.081337539   -3.7979887    1.1182784   520538 
 1589000    1.0297926   -3.8008027   -3.8008027   -2.6793544  0.070057971   -3.8008027    1.1214484   520538 
 1590000    1.0282305   -3.7989155   -3.7989155   -2.6791683   0.07605392   -3.7989155    1.1197472   520538 
 1591000    1.0280887   -3.7989141   -3.7989141   -2.6793213  0.062816403   -3.7989141    1.1195928   520538 
 1592000    1.0288271   -3.8001031   -3.8001031   -2.6797062  0.074602739   -3.8001031    1.1203969   520538 
 1593000    1.0267778   -3.7983589   -3.7983589   -2.6801937  0.072138398   -3.7983589    1.1181652   520538 
 1594000    1.0280478   -3.7993494   -3.7993494   -2.6798012  0.070796089   -3.7993494    1.1195483   520538 
 1595000    1.0272318   -3.7988489   -3.7988489   -2.6801892  0.078974006   -3.7988489    1.1186596   520538 
 1596000     1.027389   -3.7980137   -3.7980137   -2.6791829  0.088781754   -3.7980137    1.1188308   520538 
 1597000    1.0296502   -3.8013969   -3.8013969   -2.6801037  0.064123616   -3.8013969    1.1212933   520538 
 1598000    1.0287009   -3.8012877   -3.8012877   -2.6810282  0.084172069   -3.8012877    1.1202595   520538 
 1599000    1.0288788   -3.8008908   -3.8008908   -2.6804376  0.068004038   -3.8008908    1.1204532   520538 
 1600000    1.0313539   -3.8034238   -3.8034238   -2.6802752   0.06922704   -3.8034238    1.1231486   520538 
 1601000    1.0312694   -3.8028247   -3.8028247   -2.6797681  0.074195069   -3.8028247    1.1230566   520538 
 1602000    1.0299097    -3.801918    -3.801918   -2.6803421  0.072368586    -3.801918    1.1215759   520538 
 1603000    1.0299071    -3.802766    -3.802766   -2.6811929   0.07484117    -3.802766    1.1215731   520538 
 1604000    1.0285773   -3.8021987   -3.8021987   -2.6820739  0.071011886   -3.8021987    1.1201249   520538 
 1605000    1.0304413   -3.8049262   -3.8049262   -2.6827714  0.075569125   -3.8049262    1.1221548   520538 
 1606000    1.0273276   -3.8013379   -3.8013379   -2.6825739  0.060285877   -3.8013379     1.118764   520538 
 1607000     1.028196   -3.8017686   -3.8017686   -2.6820589  0.075211104   -3.8017686    1.1197097   520538 
 1608000     1.027603    -3.800471    -3.800471   -2.6814071  0.072878793    -3.800471    1.1190639   520538 
 1609000     1.027476   -3.8000078   -3.8000078   -2.6810822  0.075611221   -3.8000078    1.1189256   520538 
 1610000    1.0289976   -3.8014839   -3.8014839   -2.6809013   0.08687014   -3.8014839    1.1205826   520538 
 1611000    1.0293142   -3.8019307   -3.8019307   -2.6810033  0.078182534   -3.8019307    1.1209273   520538 
 1612000    1.0285216   -3.8023535   -3.8023535   -2.6822892  0.074262436   -3.8023535    1.1200642   520538 
 1613000    1.0287381   -3.8028253   -3.8028253   -2.6825253  0.075753013   -3.8028253    1.1202999   520538 
 1614000    1.0283734   -3.8017703   -3.8017703   -2.6818675     0.079078   -3.8017703    1.1199028   520538 
 1615000    1.0276399   -3.8019625   -3.8019625   -2.6828585  0.064863845   -3.8019625     1.119104   520538 
 1616000    1.0279743   -3.8014744   -3.8014744   -2.6820062  0.067032436   -3.8014744    1.1194682   520538 
 1617000     1.028682   -3.8029619   -3.8029619    -2.682723  0.075428748   -3.8029619    1.1202389   520538 
 1618000    1.0285642   -3.8037121   -3.8037121   -2.6836014  0.063714005   -3.8037121    1.1201106   520538 
 1619000     1.030503   -3.8054939   -3.8054939    -2.683272  0.072781394   -3.8054939    1.1222219   520538 
 1620000    1.0273521    -3.802467    -3.802467   -2.6836764  0.074426153    -3.802467    1.1187906   520538 
 1621000    1.0248978    -3.799648    -3.799648   -2.6835301  0.063009642    -3.799648    1.1161179   520538 
 1622000    1.0295997   -3.8037472   -3.8037472   -2.6825089  0.074972067   -3.8037472    1.1212383   520538 
 1623000    1.0272189   -3.8007858   -3.8007858   -2.6821403  0.057121961   -3.8007858    1.1186456   520538 
 1624000    1.0256576   -3.7999954   -3.7999954   -2.6830501  0.072911806   -3.7999954    1.1169453   520538 
 1625000    1.0277902   -3.8023133   -3.8023133   -2.6830456  0.069161067   -3.8023133    1.1192677   520538 
 1626000    1.0277092   -3.8020946   -3.8020946   -2.6829151  0.064519378   -3.8020946    1.1191795   520538 
 1627000    1.0275603   -3.8030164   -3.8030164    -2.683999  0.075011211   -3.8030164    1.1190174   520538 
 1628000    1.0258852   -3.8011268   -3.8011268   -2.6839336  0.081377786   -3.8011268    1.1171932   520538 
 1629000    1.0278098   -3.8030956   -3.8030956   -2.6838066  0.061139653   -3.8030956     1.119289   520538 
 1630000    1.0286938   -3.8040615   -3.8040615   -2.6838098  0.057500498   -3.8040615    1.1202517   520538 
 1631000    1.0285377   -3.8043833   -3.8043833   -2.6843016  0.070746108   -3.8043833    1.1200817   520538 
 1632000    1.0276318    -3.804268    -3.804268   -2.6851728  0.094712604    -3.804268    1.1190952   520538 
 1633000    1.0281579   -3.8046127   -3.8046127   -2.6849445  0.075426281   -3.8046127    1.1196682   520538 
 1634000    1.0285838   -3.8056217   -3.8056217   -2.6854898  0.070462426   -3.8056217    1.1201319   520538 
 1635000    1.0276517   -3.8043416   -3.8043416   -2.6852248  0.073498115   -3.8043416    1.1191169   520538 
 1636000    1.0277384   -3.8046456   -3.8046456   -2.6854343  0.088038817   -3.8046456    1.1192113   520538 
 1637000    1.0285362   -3.8054855   -3.8054855   -2.6854055  0.069230913   -3.8054855    1.1200801   520538 
 1638000    1.0273001   -3.8046453   -3.8046453   -2.6859114  0.077519648   -3.8046453    1.1187339   520538 
 1639000    1.0280653   -3.8049355   -3.8049355   -2.6853682  0.078749792   -3.8049355    1.1195673   520538 
 1640000    1.0279119   -3.8048585   -3.8048585   -2.6854583  0.085251955   -3.8048585    1.1194002   520538 
 1641000    1.0269631   -3.8045394   -3.8045394   -2.6861724  0.076189551   -3.8045394     1.118367   520538 
 1642000    1.0254632   -3.8033676   -3.8033676   -2.6866339   0.07987827   -3.8033676    1.1167336   520538 
 1643000     1.028107    -3.804343    -3.804343   -2.6847304  0.083383413    -3.804343    1.1196127   520538 
 1644000    1.0267071   -3.8024954   -3.8024954   -2.6844072  0.067487745   -3.8024954    1.1180882   520538 
 1645000    1.0282755   -3.8047495   -3.8047495   -2.6849533   0.06748896   -3.8047495    1.1197962   520538 
 1646000     1.030153   -3.8067111   -3.8067111   -2.6848704   0.07473959   -3.8067111    1.1218408   520538 
 1647000      1.02778   -3.8067734   -3.8067734   -2.6875169  0.070197665   -3.8067734    1.1192566   520538 
 1648000    1.0268133   -3.8049229   -3.8049229    -2.686719  0.070367055   -3.8049229    1.1182039   520538 
 1649000    1.0264676   -3.8038231   -3.8038231   -2.6859957  0.081649575   -3.8038231    1.1178274   520538 
 1650000    1.0269183   -3.8045678   -3.8045678   -2.6862495  0.068938059   -3.8045678    1.1183182   520538 
 1651000    1.0284133   -3.8068949   -3.8068949   -2.6869487  0.066939949   -3.8068949    1.1199462   520538 
 1652000    1.0289062   -3.8073818   -3.8073818   -2.6868987  0.069197754   -3.8073818    1.1204831   520538 
 1653000    1.0280044    -3.807089    -3.807089   -2.6875879  0.081356567    -3.807089     1.119501   520538 
 1654000    1.0273172   -3.8064039   -3.8064039   -2.6876513  0.069180679   -3.8064039    1.1187526   520538 
 1655000    1.0272159   -3.8063172   -3.8063172   -2.6876749  0.082041817   -3.8063172    1.1186423   520538 
 1656000    1.0275672   -3.8062315   -3.8062315   -2.6872066  0.086372253   -3.8062315    1.1190248   520538 
 1657000    1.0295148   -3.8083416   -3.8083416   -2.6871958  0.080653084   -3.8083416    1.1211459   520538 
 1658000    1.0288979   -3.8075074   -3.8075074   -2.6870335  0.067756721   -3.8075074     1.120474   520538 
 1659000    1.0289221   -3.8072728   -3.8072728   -2.6867724  0.068394162   -3.8072728    1.1205004   520538 
 1660000    1.0278253    -3.805081    -3.805081   -2.6857751  0.068798641    -3.805081    1.1193059   520538 
 1661000    1.0273564   -3.8052919   -3.8052919   -2.6864967  0.075777832   -3.8052919    1.1187952   520538 
 1662000    1.0280606   -3.8065915   -3.8065915   -2.6870294  0.081935302   -3.8065915    1.1195621   520538 
 1663000    1.0247694   -3.8026132   -3.8026132   -2.6866352  0.075839533   -3.8026132    1.1159781   520538 
 1664000    1.0259205   -3.8047284   -3.8047284   -2.6874967  0.067708286   -3.8047284    1.1172317   520538 
 1665000    1.0278047    -3.805931    -3.805931   -2.6866475   0.07439492    -3.805931    1.1192835   520538 
 1666000     1.027083   -3.8052171   -3.8052171   -2.6867195  0.080729019   -3.8052171    1.1184976   520538 
 1667000    1.0283732   -3.8078119   -3.8078119   -2.6879093  0.085747074   -3.8078119    1.1199026   520538 
 1668000    1.0278376   -3.8069625   -3.8069625   -2.6876431  0.072117306   -3.8069625    1.1193194   520538 
 1669000    1.0279414   -3.8072146   -3.8072146   -2.6877823  0.075009465   -3.8072146    1.1194324   520538 
 1670000    1.0281642   -3.8063824   -3.8063824   -2.6867074  0.076449191   -3.8063824     1.119675   520538 
 1671000    1.0298007   -3.8087587   -3.8087587   -2.6873015  0.053819446   -3.8087587    1.1214572   520538 
 1672000    1.0277563    -3.807056    -3.807056   -2.6878251  0.077488609    -3.807056    1.1192308   520538 
 1673000     1.027488   -3.8062684   -3.8062684   -2.6873297  0.090684823   -3.8062684    1.1189387   520538 
 1674000    1.0274467   -3.8058248   -3.8058248   -2.6869312  0.084190842   -3.8058248    1.1188936   520538 
 1675000    1.0292843   -3.8075124   -3.8075124   -2.6866176  0.082871617   -3.8075124    1.1208948   520538 
 1676000    1.0307988   -3.8095323   -3.8095323   -2.6869883  0.082002952   -3.8095323     1.122544   520538 
 1677000    1.0309612   -3.8099294   -3.8099294   -2.6872084  0.079362672   -3.8099294     1.122721   520538 
 1678000    1.0287405   -3.8073385   -3.8073385   -2.6870359  0.072425759   -3.8073385    1.1203026   520538 
 1679000    1.0278593   -3.8073674   -3.8073674   -2.6880244  0.076274298   -3.8073674     1.119343   520538 
 1680000    1.0267564    -3.806876    -3.806876   -2.6887341  0.085257517    -3.806876    1.1181419   520538 
 1681000    1.0264238   -3.8068883   -3.8068883   -2.6891085  0.081682707   -3.8068883    1.1177797   520538 
 1682000     1.026888   -3.8069292   -3.8069292    -2.688644  0.066070416   -3.8069292    1.1182852   520538 
 1683000    1.0275993   -3.8074529   -3.8074529   -2.6883931  0.084833167   -3.8074529    1.1190598   520538 
 1684000    1.0257755   -3.8064326   -3.8064326   -2.6893589  0.080516709   -3.8064326    1.1170737   520538 
 1685000    1.0288055   -3.8098991   -3.8098991   -2.6895257  0.065758714   -3.8098991    1.1203734   520538 
 1686000    1.0276084    -3.809044    -3.809044   -2.6899742   0.06561828    -3.809044    1.1190697   520538 
 1687000     1.027672   -3.8102142   -3.8102142   -2.6910752  0.070570172   -3.8102142     1.119139   520538 
 1688000    1.0274238   -3.8097576   -3.8097576   -2.6908889   0.06464773   -3.8097576    1.1188687   520538 
 1689000    1.0267951   -3.8090991   -3.8090991   -2.6909151  0.080343009   -3.8090991     1.118184   520538 
 1690000    1.0263788   -3.8082281   -3.8082281   -2.6904974   0.07603795   -3.8082281    1.1177307   520538 
 1691000    1.0280849   -3.8099913   -3.8099913   -2.6904026  0.072887575   -3.8099913    1.1195887   520538 
 1692000    1.0266973   -3.8079207   -3.8079207   -2.6898431  0.075596541   -3.8079207    1.1180775   520538 
 1693000    1.0278355   -3.8084387   -3.8084387   -2.6891216  0.075428573   -3.8084387     1.119317   520538 
 1694000    1.0297877   -3.8100708   -3.8100708   -2.6886278  0.077786313   -3.8100708     1.121443   520538 
 1695000    1.0291571   -3.8087879   -3.8087879   -2.6880317  0.076640039   -3.8087879    1.1207562   520538 
 1696000    1.0272391   -3.8067648   -3.8067648   -2.6880973  0.071656798   -3.8067648    1.1186675   520538 
 1697000    1.0281163   -3.8088848   -3.8088848   -2.6892619  0.082949738   -3.8088848    1.1196228   520538 
 1698000    1.0284638   -3.8088262   -3.8088262   -2.6888249  0.055787142   -3.8088262    1.1200013   520538 
 1699000    1.0292178   -3.8092976   -3.8092976   -2.6884752  0.083695302   -3.8092976    1.1208224   520538 
 1700000    1.0298519   -3.8102849   -3.8102849    -2.688772  0.082409175   -3.8102849    1.1215129   520538 
 1701000    1.0286641   -3.8101652   -3.8101652   -2.6899458  0.072338163   -3.8101652    1.1202194   520538 
 1702000    1.0288599   -3.8107195   -3.8107195   -2.6902868  0.072369493   -3.8107195    1.1204326   520538 
 1703000    1.0298049   -3.8115247   -3.8115247    -2.690063  0.088786359   -3.8115247    1.1214617   520538 
 1704000    1.0300449   -3.8116859   -3.8116859   -2.6899628   0.08420671   -3.8116859     1.121723   520538 
 1705000    1.0290057   -3.8102432   -3.8102432   -2.6896518  0.078326837   -3.8102432    1.1205914   520538 
 1706000    1.0291501    -3.810655    -3.810655   -2.6899064   0.07698083    -3.810655    1.1207487   520538 
 1707000    1.0270327   -3.8092718   -3.8092718   -2.6908291  0.081466734   -3.8092718    1.1184427   520538 
 1708000    1.0275288   -3.8093112   -3.8093112   -2.6903282  0.075941766   -3.8093112     1.118983   520538 
 1709000    1.0277421   -3.8098122   -3.8098122   -2.6905969  0.075940228   -3.8098122    1.1192153   520538 
 1710000    1.0275216   -3.8101825   -3.8101825   -2.6912072  0.076294384   -3.8101825    1.1189752   520538 
 1711000    1.0280959   -3.8109477   -3.8109477   -2.6913471  0.068016975   -3.8109477    1.1196006   520538 
 1712000    1.0260236   -3.8089334   -3.8089334   -2.6915895  0.061926157   -3.8089334    1.1173439   520538 
 1713000    1.0260147   -3.8083402   -3.8083402    -2.691006  0.083820163   -3.8083402    1.1173342   520538 
 1714000    1.0286458   -3.8111279   -3.8111279   -2.6909285  0.077663513   -3.8111279    1.1201994   520538 
 1715000    1.0280769   -3.8110052   -3.8110052   -2.6914253  0.068873052   -3.8110052    1.1195799   520538 
 1716000    1.0283214   -3.8116689   -3.8116689   -2.6918228  0.081812999   -3.8116689    1.1198461   520538 
 1717000    1.0275732   -3.8116215   -3.8116215   -2.6925901   0.06840004   -3.8116215    1.1190314   520538 
 1718000     1.026753   -3.8112508   -3.8112508   -2.6931126  0.075662059   -3.8112508    1.1181382   520538 
 1719000    1.0259349   -3.8106936   -3.8106936   -2.6934462  0.078381338   -3.8106936    1.1172473   520538 
 1720000    1.0285266   -3.8138176   -3.8138176   -2.6937479  0.074646349   -3.8138176    1.1200696   520538 
 1721000    1.0271862   -3.8120068   -3.8120068   -2.6933969  0.079635422   -3.8120068    1.1186099   520538 
 1722000    1.0268294   -3.8118727   -3.8118727   -2.6936513  0.093721017   -3.8118727    1.1182214   520538 
 1723000    1.0257636   -3.8108135   -3.8108135   -2.6937528  0.077239177   -3.8108135    1.1170607   520538 
 1724000    1.0258002   -3.8109779   -3.8109779   -2.6938772  0.071026024   -3.8109779    1.1171006   520538 
 1725000    1.0244034   -3.8099447   -3.8099447   -2.6943652   0.07548408   -3.8099447    1.1155795   520538 
 1726000    1.0251995   -3.8107346   -3.8107346   -2.6942882  0.065471773   -3.8107346    1.1164464   520538 
 1727000    1.0258273   -3.8126262   -3.8126262   -2.6954961  0.066765853   -3.8126262    1.1171301   520538 
 1728000     1.026735   -3.8130575   -3.8130575   -2.6949389  0.071652709   -3.8130575    1.1181186   520538 
 1729000    1.0249985   -3.8120569   -3.8120569   -2.6958294  0.082314388   -3.8120569    1.1162275   520538 
 1730000    1.0262958   -3.8133761   -3.8133761   -2.6957357  0.084338609   -3.8133761    1.1176403   520538 
 1731000    1.0270641   -3.8137647   -3.8137647   -2.6952877  0.073783928   -3.8137647     1.118477   520538 
 1732000    1.0260676   -3.8129405   -3.8129405   -2.6955487   0.08037743   -3.8129405    1.1173918   520538 
 1733000    1.0273706   -3.8139413   -3.8139413   -2.6951305  0.082327532   -3.8139413    1.1188108   520538 
 1734000     1.028362   -3.8144541   -3.8144541   -2.6945637  0.086703674   -3.8144541    1.1198904   520538 
 1735000     1.026882   -3.8141224   -3.8141224   -2.6958437  0.092703328   -3.8141224    1.1182787   520538 
 1736000    1.0264196   -3.8139433   -3.8139433   -2.6961681  0.081693129   -3.8139433    1.1177752   520538 
 1737000    1.0261382   -3.8145727   -3.8145727    -2.697104  0.063137473   -3.8145727    1.1174687   520538 
 1738000    1.0259456   -3.8137124   -3.8137124   -2.6964535   0.07462013   -3.8137124    1.1172589   520538 
 1739000    1.0277171   -3.8153627   -3.8153627   -2.6961746  0.071940642   -3.8153627    1.1191881   520538 
 1740000    1.0282557   -3.8157697   -3.8157697   -2.6959951  0.081488782   -3.8157697    1.1197747   520538 
 1741000    1.0270036   -3.8140117   -3.8140117   -2.6956007  0.064470173   -3.8140117    1.1184111   520538 
 1742000    1.0262715   -3.8135763   -3.8135763   -2.6959624  0.086994666   -3.8135763    1.1176139   520538 
 1743000    1.0268555   -3.8137867   -3.8137867   -2.6955369  0.091065612   -3.8137867    1.1182498   520538 
 1744000    1.0276104   -3.8150822   -3.8150822   -2.6960103  0.066033635   -3.8150822    1.1190719   520538 
 1745000    1.0272753   -3.8134875   -3.8134875   -2.6947806  0.076272454   -3.8134875    1.1187069   520538 
 1746000    1.0257821   -3.8126394   -3.8126394   -2.6955585  0.077168294   -3.8126394    1.1170809   520538 
 1747000    1.0271383   -3.8154286   -3.8154286   -2.6968709  0.074806556   -3.8154286    1.1185577   520538 
 1748000    1.0252159   -3.8139979   -3.8139979   -2.6975336  0.074493278   -3.8139979    1.1164643   520538 
 1749000    1.0270264   -3.8149235   -3.8149235   -2.6964876  0.069835258   -3.8149235    1.1184359   520538 
 1750000    1.0267135   -3.8151242   -3.8151242    -2.697029  0.071785255   -3.8151242    1.1180952   520538 
 1751000    1.0259995   -3.8138476   -3.8138476     -2.69653  0.058971805   -3.8138476    1.1173176   520538 
 1752000    1.0267733   -3.8144107   -3.8144107   -2.6962504  0.077350543   -3.8144107    1.1181603   520538 
 1753000    1.0243551   -3.8118418   -3.8118418   -2.6963149  0.076265223   -3.8118418    1.1155269   520538 
 1754000    1.0249276   -3.8113572   -3.8113572   -2.6952069  0.085726788   -3.8113572    1.1161503   520538 
 1755000    1.0252489   -3.8123385   -3.8123385   -2.6958383  0.087680615   -3.8123385    1.1165002   520538 
 1756000    1.0266155   -3.8146434   -3.8146434   -2.6966549  0.070638605   -3.8146434    1.1179884   520538 
 1757000    1.0268531   -3.8145315   -3.8145315   -2.6962843  0.076344326   -3.8145315    1.1182472   520538 
 1758000    1.0244048    -3.813031    -3.813031     -2.69745  0.065604493    -3.813031     1.115581   520538 
 1759000    1.0264058   -3.8144375   -3.8144375   -2.6966774  0.070741381   -3.8144375    1.1177601   520538 
 1760000    1.0264283   -3.8147095   -3.8147095    -2.696925  0.060636162   -3.8147095    1.1177846   520538 
 1761000    1.0253295   -3.8134872   -3.8134872   -2.6968992  0.089490971   -3.8134872     1.116588   520538 
 1762000    1.0270142   -3.8146798   -3.8146798   -2.6962571  0.092433031   -3.8146798    1.1184226   520538 
 1763000    1.0262731    -3.813767    -3.813767   -2.6961514  0.076726499    -3.813767    1.1176156   520538 
 1764000    1.0276775   -3.8163296   -3.8163296   -2.6971846  0.073691362   -3.8163296     1.119145   520538 
 1765000    1.0277526   -3.8161529   -3.8161529   -2.6969262  0.076628003   -3.8161529    1.1192267   520538 
 1766000    1.0288334   -3.8172724   -3.8172724   -2.6968686  0.078168069   -3.8172724    1.1204038   520538 
 1767000    1.0284256   -3.8169148   -3.8169148   -2.6969551  0.097502251   -3.8169148    1.1199596   520538 
 1768000     1.029183   -3.8173705   -3.8173705    -2.696586  0.062018301   -3.8173705    1.1207845   520538 
 1769000    1.0289192    -3.817551    -3.817551   -2.6970538  0.072250652    -3.817551    1.1204972   520538 
 1770000    1.0280129   -3.8166831   -3.8166831   -2.6971729  0.070546909   -3.8166831    1.1195102   520538 
 1771000     1.029955   -3.8191859   -3.8191859   -2.6975607  0.073937511   -3.8191859    1.1216252   520538 
 1772000    1.0285039   -3.8174366   -3.8174366   -2.6973917  0.084843517   -3.8174366    1.1200449   520538 
 1773000      1.02817   -3.8169593   -3.8169593    -2.697278  0.083364488   -3.8169593    1.1196813   520538 
 1774000    1.0261105   -3.8150003   -3.8150003   -2.6975618  0.079927364   -3.8150003    1.1174385   520538 
 1775000     1.027495   -3.8164261   -3.8164261     -2.69748  0.063139132   -3.8164261    1.1189462   520538 
 1776000    1.0281638   -3.8168525   -3.8168525   -2.6971779  0.060035228   -3.8168525    1.1196746   520538 
 1777000    1.0251116   -3.8133436   -3.8133436   -2.6969929  0.071096574   -3.8133436    1.1163507   520538 
 1778000    1.0255987   -3.8148534   -3.8148534   -2.6979722  0.069995276   -3.8148534    1.1168811   520538 
 1779000    1.0268042   -3.8163378   -3.8163378   -2.6981439  0.071966304   -3.8163378    1.1181939   520538 
 1780000    1.0244491   -3.8142086   -3.8142086   -2.6985793  0.062822906   -3.8142086    1.1156293   520538 
 1781000    1.0257176   -3.8161458   -3.8161458   -2.6991351  0.082197035   -3.8161458    1.1170107   520538 
 1782000    1.0246369   -3.8145588   -3.8145588   -2.6987251  0.075801666   -3.8145588    1.1158337   520538 
 1783000    1.0259253   -3.8170784   -3.8170784   -2.6998416  0.068114396   -3.8170784    1.1172368   520538 
 1784000    1.0259343   -3.8164929   -3.8164929   -2.6992463  0.070087844   -3.8164929    1.1172466   520538 
 1785000    1.0257931    -3.816712    -3.816712   -2.6996192   0.08091354    -3.816712    1.1170928   520538 
 1786000    1.0241713   -3.8153811   -3.8153811   -2.7000544  0.069884535   -3.8153811    1.1153267   520538 
 1787000    1.0269742   -3.8185008   -3.8185008   -2.7001217  0.065544232   -3.8185008    1.1183791   520538 
 1788000     1.024679   -3.8159601   -3.8159601   -2.7000805  0.087561146   -3.8159601    1.1158796   520538 
 1789000    1.0267026   -3.8183621   -3.8183621   -2.7002788  0.085649293   -3.8183621    1.1180833   520538 
 1790000    1.0241914    -3.816231    -3.816231   -2.7008823  0.086211342    -3.816231    1.1153486   520538 
 1791000    1.0246392   -3.8166574   -3.8166574   -2.7008212  0.067113058   -3.8166574    1.1158363   520538 
 1792000    1.0256444   -3.8173977   -3.8173977   -2.7004668  0.077313346   -3.8173977     1.116931   520538 
 1793000    1.0273648   -3.8186369   -3.8186369   -2.6998325  0.092194319   -3.8186369    1.1188044   520538 
 1794000    1.0271209   -3.8182081   -3.8182081   -2.6996692  0.076035803   -3.8182081    1.1185389   520538 
 1795000    1.0256767   -3.8170581   -3.8170581   -2.7000919  0.077511791   -3.8170581    1.1169661   520538 
 1796000    1.0259891   -3.8169341   -3.8169341   -2.6996278  0.077034246   -3.8169341    1.1173063   520538 
 1797000    1.0270686   -3.8181219   -3.8181219   -2.6996401  0.077790871   -3.8181219    1.1184819   520538 
 1798000    1.0289246   -3.8213007   -3.8213007   -2.7007976  0.072591291   -3.8213007    1.1205031   520538 
 1799000    1.0273666   -3.8188771   -3.8188771   -2.7000706  0.082025484   -3.8188771    1.1188065   520538 
 1800000    1.0249838   -3.8164034   -3.8164034   -2.7001919  0.063585129   -3.8164034    1.1162115   520538 
 1801000    1.0252345   -3.8181151   -3.8181151   -2.7016305  0.082412748   -3.8181151    1.1164845   520538 
 1802000    1.0263504   -3.8185135   -3.8185135   -2.7008138  0.069442712   -3.8185135    1.1176997   520538 
 1803000    1.0271584    -3.819755    -3.819755   -2.7011753  0.068273654    -3.819755    1.1185797   520538 
 1804000    1.0246861   -3.8166126   -3.8166126   -2.7007252  0.083941802   -3.8166126    1.1158874   520538 
 1805000    1.0266252   -3.8178991   -3.8178991   -2.6999001  0.090575701   -3.8178991     1.117999   520538 
 1806000    1.0302163   -3.8229236   -3.8229236   -2.7010139  0.076846753   -3.8229236    1.1219098   520538 
 1807000    1.0266771    -3.819884    -3.819884   -2.7018284  0.089275353    -3.819884    1.1180556   520538 
 1808000    1.0254429   -3.8192357   -3.8192357   -2.7025241  0.085619326   -3.8192357    1.1167115   520538 
 1809000    1.0261654   -3.8187679   -3.8187679   -2.7012696  0.060797427   -3.8187679    1.1174983   520538 
 1810000    1.0271749    -3.819693    -3.819693   -2.7010954  0.058256351    -3.819693    1.1185976   520538 
 1811000    1.0263696   -3.8192999   -3.8192999   -2.7015792  0.074480931   -3.8192999    1.1177207   520538 
 1812000    1.0267486   -3.8191892   -3.8191892   -2.7010558   0.06408732   -3.8191892    1.1181334   520538 
 1813000    1.0273679   -3.8191874   -3.8191874   -2.7003795  0.066522189   -3.8191874    1.1188079   520538 
 1814000    1.0248076   -3.8164669   -3.8164669   -2.7004472  0.075657389   -3.8164669    1.1160197   520538 
 1815000    1.0257666   -3.8177007   -3.8177007   -2.7006367  0.071017896   -3.8177007     1.117064   520538 
 1816000    1.0253079   -3.8179893   -3.8179893   -2.7014248  0.076591721   -3.8179893    1.1165645   520538 
 1817000    1.0261022   -3.8187118   -3.8187118   -2.7012823  0.065426017   -3.8187118    1.1174295   520538 
 1818000    1.0254147   -3.8187276   -3.8187276   -2.7020468  0.081129046   -3.8187276    1.1166807   520538 
 1819000    1.0289515   -3.8225107   -3.8225107   -2.7019783  0.089256886   -3.8225107    1.1205324   520538 
 1820000    1.0290709   -3.8226337   -3.8226337   -2.7019713   0.07041503   -3.8226337    1.1206624   520538 
 1821000    1.0280476   -3.8217478   -3.8217478   -2.7021998  0.079015641   -3.8217478     1.119548   520538 
 1822000    1.0265389   -3.8209309   -3.8209309   -2.7030258  0.076079769   -3.8209309    1.1179051   520538 
 1823000    1.0263099   -3.8201698   -3.8201698   -2.7025142   0.07354628   -3.8201698    1.1176556   520538 
 1824000    1.0273331   -3.8194909   -3.8194909    -2.700721  0.081876279   -3.8194909    1.1187699   520538 
 1825000    1.0285669   -3.8204349   -3.8204349   -2.7003214  0.091606865   -3.8204349    1.1201135   520538 
 1826000     1.027265   -3.8187355   -3.8187355   -2.7000397  0.072145496   -3.8187355    1.1186958   520538 
 1827000    1.0284095   -3.8193992   -3.8193992    -2.699457  0.067405288   -3.8193992    1.1199421   520538 
 1828000    1.0279805   -3.8193438   -3.8193438   -2.6998689  0.060940422   -3.8193438    1.1194749   520538 
 1829000    1.0284048   -3.8198985   -3.8198985   -2.6999614  0.076975004   -3.8198985     1.119937   520538 
 1830000    1.0276309   -3.8190241   -3.8190241   -2.6999299  0.079833202   -3.8190241    1.1190942   520538 
 1831000    1.0288727   -3.8195906   -3.8195906    -2.699144  0.077963974   -3.8195906    1.1204466   520538 
 1832000    1.0289872   -3.8203987   -3.8203987   -2.6998275   0.07384062   -3.8203987    1.1205713   520538 
 1833000    1.0269386   -3.8179239   -3.8179239   -2.6995836  0.083409234   -3.8179239    1.1183403   520538 
 1834000    1.0283513   -3.8192737   -3.8192737   -2.6993949   0.08177634   -3.8192737    1.1198788   520538 
 1835000    1.0270564   -3.8181291   -3.8181291   -2.6996605  0.072432959   -3.8181291    1.1184686   520538 
 1836000    1.0256911   -3.8163101   -3.8163101   -2.6993283   0.07269377   -3.8163101    1.1169818   520538 
 1837000    1.0261006   -3.8180663   -3.8180663   -2.7006385  0.066516217   -3.8180663    1.1174278   520538 
 1838000    1.0271014   -3.8197292   -3.8197292   -2.7012116  0.079456475   -3.8197292    1.1185176   520538 
 1839000    1.0266657   -3.8189169   -3.8189169   -2.7008737  0.079649933   -3.8189169    1.1180432   520538 
 1840000    1.0251388   -3.8185194   -3.8185194   -2.7021391  0.073504279   -3.8185194    1.1163804   520538 
 1841000    1.0278672   -3.8202396   -3.8202396    -2.700888  0.055525806   -3.8202396    1.1193516   520538 
 1842000    1.0278677   -3.8198407   -3.8198407   -2.7004886  0.071421944   -3.8198407    1.1193521   520538 
 1843000    1.0274281   -3.8190629   -3.8190629   -2.7001894  0.067772792   -3.8190629    1.1188734   520538 
 1844000     1.028376   -3.8200649   -3.8200649   -2.7001593  0.076211236   -3.8200649    1.1199056   520538 
 1845000    1.0288435   -3.8204463   -3.8204463   -2.7000315  0.068882403   -3.8204463    1.1204148   520538 
 1846000    1.0297746   -3.8219447   -3.8219447    -2.700516  0.073384835   -3.8219447    1.1214287   520538 
 1847000    1.0280938   -3.8200687   -3.8200687   -2.7004704   0.07896338   -3.8200687    1.1195983   520538 
 1848000     1.026886   -3.8188641   -3.8188641   -2.7005811  0.078079621   -3.8188641     1.118283   520538 
 1849000    1.0268566   -3.8197478   -3.8197478   -2.7014968  0.087969031   -3.8197478     1.118251   520538 
 1850000    1.0274565    -3.819127    -3.819127   -2.7002226  0.085782948    -3.819127    1.1189043   520538 
 1851000    1.0271142   -3.8204109   -3.8204109   -2.7018793  0.092246504   -3.8204109    1.1185316   520538 
 1852000    1.0263704   -3.8203035   -3.8203035    -2.702582  0.070675952   -3.8203035    1.1177216   520538 
 1853000    1.0261947    -3.820761    -3.820761   -2.7032307   0.10348578    -3.820761    1.1175302   520538 
 1854000    1.0274187   -3.8219809   -3.8219809   -2.7031177  0.064906562   -3.8219809    1.1188632   520538 
 1855000    1.0258767   -3.8192944   -3.8192944   -2.7021105  0.074795108   -3.8192944    1.1171839   520538 
 1856000    1.0258416   -3.8199782   -3.8199782   -2.7028325   0.07204972   -3.8199782    1.1171457   520538 
 1857000    1.0284294   -3.8229644   -3.8229644   -2.7030006  0.075461898   -3.8229644    1.1199638   520538 
 1858000    1.0283811   -3.8231986   -3.8231986   -2.7032874  0.078926492   -3.8231986    1.1199112   520538 
 1859000    1.0276833   -3.8227856   -3.8227856   -2.7036343  0.076681438   -3.8227856    1.1191513   520538 
 1860000    1.0281264   -3.8235112   -3.8235112   -2.7038774  0.077002402   -3.8235112    1.1196338   520538 
 1861000     1.029526    -3.824769    -3.824769   -2.7036109  0.086004709    -3.824769     1.121158   520538 
 1862000    1.0277588   -3.8238613   -3.8238613   -2.7046278  0.087798245   -3.8238613    1.1192335   520538 
 1863000    1.0258315   -3.8224179   -3.8224179   -2.7052833  0.087935619   -3.8224179    1.1171347   520538 
 1864000    1.0272017   -3.8244418   -3.8244418   -2.7058149  0.067980096   -3.8244418    1.1186269   520538 
 1865000     1.026343    -3.822197    -3.822197   -2.7045053  0.089433457    -3.822197    1.1176917   520538 
 1866000    1.0269638   -3.8236588   -3.8236588    -2.705291   0.08190098   -3.8236588    1.1183678   520538 
 1867000     1.026733   -3.8232166   -3.8232166   -2.7051002  0.092037907   -3.8232166    1.1181165   520538 
 1868000    1.0254404   -3.8212188   -3.8212188     -2.70451  0.085634962   -3.8212188    1.1167088   520538 
 1869000    1.0268215   -3.8227153   -3.8227153   -2.7045025  0.076854702   -3.8227153    1.1182128   520538 
 1870000    1.0278442   -3.8236573   -3.8236573   -2.7043308  0.066755706   -3.8236573    1.1193265   520538 
 1871000    1.0262142   -3.8222975   -3.8222975   -2.7047461  0.066784994   -3.8222975    1.1175514   520538 
 1872000    1.0277277   -3.8235143   -3.8235143   -2.7043147  0.072214478   -3.8235143    1.1191996   520538 
 1873000    1.0262525   -3.8231139   -3.8231139   -2.7055207  0.092622601   -3.8231139    1.1175932   520538 
 1874000    1.0295747   -3.8254598   -3.8254598   -2.7042488  0.085795336   -3.8254598     1.121211   520538 
 1875000    1.0273695   -3.8231994   -3.8231994   -2.7043898  0.072415905   -3.8231994    1.1188096   520538 
 1876000    1.0285598   -3.8244565   -3.8244565   -2.7043507  0.068731373   -3.8244565    1.1201058   520538 
 1877000    1.0282013   -3.8242176   -3.8242176   -2.7045022  0.066116748   -3.8242176    1.1197154   520538 
 1878000    1.0270209   -3.8237019   -3.8237019    -2.705272  0.072566954   -3.8237019    1.1184299   520538 
 1879000    1.0269103    -3.822978    -3.822978   -2.7046685  0.066382909    -3.822978    1.1183095   520538 
 1880000    1.0275308   -3.8233416   -3.8233416   -2.7043564  0.089069148   -3.8233416    1.1189852   520538 
 1881000    1.0254877   -3.8214959   -3.8214959   -2.7047356  0.078731835   -3.8214959    1.1167603   520538 
 1882000    1.0261346    -3.822522    -3.822522   -2.7050572  0.093722227    -3.822522    1.1174647   520538 
 1883000    1.0264749   -3.8238374   -3.8238374   -2.7060021  0.082825701   -3.8238374    1.1178353   520538 
 1884000    1.0264659   -3.8236832   -3.8236832   -2.7058576  0.081434941   -3.8236832    1.1178256   520538 
 1885000    1.0271389   -3.8236867   -3.8236867   -2.7051282   0.07708045   -3.8236867    1.1185585   520538 
 1886000    1.0267533   -3.8231336   -3.8231336    -2.704995  0.080223772   -3.8231336    1.1181385   520538 
 1887000    1.0265765    -3.822568    -3.822568    -2.704622    0.0707467    -3.822568     1.117946   520538 
 1888000    1.0302606   -3.8259359   -3.8259359   -2.7039779  0.081267861   -3.8259359     1.121958   520538 
 1889000     1.026159   -3.8224071   -3.8224071   -2.7049158  0.070899933   -3.8224071    1.1174913   520538 
 1890000    1.0274929   -3.8244491   -3.8244491   -2.7055051  0.076645682   -3.8244491    1.1189439   520538 
 1891000    1.0264402   -3.8231912   -3.8231912   -2.7053937  0.082213629   -3.8231912    1.1177975   520538 
 1892000    1.0265377   -3.8237152   -3.8237152   -2.7058114  0.083893252   -3.8237152    1.1179038   520538 
 1893000    1.0251912   -3.8232501   -3.8232501   -2.7068127   0.06683627   -3.8232501    1.1164373   520538 
 1894000    1.0245274   -3.8221865   -3.8221865    -2.706472  0.063107976   -3.8221865    1.1157145   520538 
 1895000    1.0255066   -3.8226265   -3.8226265   -2.7058456  0.077349899   -3.8226265    1.1167809   520538 
 1896000    1.0261297   -3.8236408   -3.8236408   -2.7061813  0.064761991   -3.8236408    1.1174595   520538 
 1897000     1.025868   -3.8229608   -3.8229608   -2.7057864  0.063740697   -3.8229608    1.1171744   520538 
 1898000    1.0263765    -3.823673    -3.823673   -2.7059447   0.06832385    -3.823673    1.1177282   520538 
 1899000    1.0269088   -3.8240064   -3.8240064   -2.7056986  0.071674688   -3.8240064    1.1183079   520538 
 1900000    1.0255961   -3.8227073   -3.8227073    -2.705829  0.070176093   -3.8227073    1.1168784   520538 
 1901000     1.027742    -3.825195    -3.825195   -2.7059798  0.072131394    -3.825195    1.1192153   520538 
 1902000     1.026539   -3.8237523   -3.8237523   -2.7058472  0.052240788   -3.8237523    1.1179051   520538 
 1903000    1.0253709   -3.8224953   -3.8224953   -2.7058622  0.060376262   -3.8224953    1.1166331   520538 
 1904000    1.0269976   -3.8242665   -3.8242665    -2.705862  0.073516471   -3.8242665    1.1184045   520538 
 1905000    1.0260994   -3.8239648   -3.8239648   -2.7065384  0.078615529   -3.8239648    1.1174264   520538 
 1906000    1.0258062   -3.8233394   -3.8233394   -2.7062322  0.060535154   -3.8233394    1.1171072   520538 
 1907000     1.026284   -3.8247399   -3.8247399   -2.7071125   0.08919488   -3.8247399    1.1176275   520538 
 1908000    1.0289191    -3.828929    -3.828929   -2.7084319  0.098051996    -3.828929    1.1204971   520538 
 1909000    1.0282297   -3.8286371   -3.8286371   -2.7088908  0.047929011   -3.8286371    1.1197463   520538 
 1910000    1.0256826   -3.8267975   -3.8267975    -2.709825  0.077906956   -3.8267975    1.1169725   520538 
 1911000     1.026588   -3.8265471   -3.8265471   -2.7085886  0.080140058   -3.8265471    1.1179585   520538 
 1912000    1.0270205   -3.8270854   -3.8270854   -2.7086559  0.065796435   -3.8270854    1.1184295   520538 
 1913000    1.0280592   -3.8275811   -3.8275811   -2.7080204  0.088697727   -3.8275811    1.1195607   520538 
 1914000    1.0280098   -3.8263935   -3.8263935   -2.7068866  0.062815883   -3.8263935    1.1195069   520538 
 1915000    1.0267366   -3.8258114   -3.8258114   -2.7076911  0.087872165   -3.8258114    1.1181203   520538 
 1916000    1.0260594   -3.8253633   -3.8253633   -2.7079805  0.081995286   -3.8253633    1.1173828   520538 
 1917000    1.0254207   -3.8248305   -3.8248305   -2.7081432  0.081710797   -3.8248305    1.1166873   520538 
 1918000    1.0255451   -3.8249637   -3.8249637   -2.7081409  0.083328314   -3.8249637    1.1168228   520538 
 1919000    1.0268591   -3.8268076   -3.8268076   -2.7085538  0.072053624   -3.8268076    1.1182537   520538 
 1920000    1.0267358   -3.8268425   -3.8268425   -2.7087231  0.092394974   -3.8268425    1.1181194   520538 
 1921000    1.0261966     -3.82603     -3.82603   -2.7084976   0.08354074     -3.82603    1.1175323   520538 
 1922000    1.0264069   -3.8266721   -3.8266721   -2.7089108  0.059546819   -3.8266721    1.1177613   520538 
 1923000    1.0257453   -3.8265949   -3.8265949   -2.7095541  0.074300204   -3.8265949    1.1170408   520538 
 1924000    1.0261884   -3.8267779   -3.8267779   -2.7092546   0.05564216   -3.8267779    1.1175233   520538 
 1925000     1.026745   -3.8268318   -3.8268318   -2.7087023  0.058684974   -3.8268318    1.1181295   520538 
 1926000    1.0256726    -3.825293    -3.825293   -2.7083314  0.082372563    -3.825293    1.1169617   520538 
 1927000    1.0267553   -3.8268909   -3.8268909   -2.7087501  0.071233921   -3.8268909    1.1181407   520538 
 1928000    1.0266055   -3.8266163   -3.8266163   -2.7086387  0.072639947   -3.8266163    1.1179776   520538 
 1929000    1.0263843   -3.8263545   -3.8263545   -2.7086179  0.066396396   -3.8263545    1.1177366   520538 
 1930000    1.0245641   -3.8238194   -3.8238194   -2.7080649  0.078968151   -3.8238194    1.1157544   520538 
 1931000    1.0258493   -3.8254686   -3.8254686   -2.7083146  0.083956978   -3.8254686    1.1171541   520538 
 1932000    1.0259878   -3.8255927   -3.8255927   -2.7082878  0.071785182   -3.8255927    1.1173049   520538 
 1933000    1.0269484   -3.8269815   -3.8269815   -2.7086304  0.078172527   -3.8269815     1.118351   520538 
 1934000    1.0259943   -3.8259143   -3.8259143   -2.7086023  0.069316667   -3.8259143     1.117312   520538 
 1935000    1.0253227   -3.8262972   -3.8262972   -2.7097166   0.06030666   -3.8262972    1.1165806   520538 
 1936000     1.026404   -3.8276158   -3.8276158   -2.7098576   0.08552127   -3.8276158    1.1177581   520538 
 1937000    1.0271778   -3.8278402   -3.8278402   -2.7092393  0.072249041   -3.8278402    1.1186008   520538 
 1938000    1.0245161   -3.8257809   -3.8257809   -2.7100787  0.088664051   -3.8257809    1.1157022   520538 
 1939000    1.0254268   -3.8265263   -3.8265263   -2.7098323  0.067689139   -3.8265263    1.1166939   520538 
 1940000    1.0256081   -3.8270332   -3.8270332   -2.7101418   0.07667216   -3.8270332    1.1168914   520538 
 1941000    1.0262386   -3.8275784   -3.8275784   -2.7100003  0.080771246   -3.8275784    1.1175781   520538 
 1942000    1.0251049   -3.8262674   -3.8262674    -2.709924  0.081793602   -3.8262674    1.1163434   520538 
 1943000     1.025979   -3.8267235   -3.8267235   -2.7094282  0.083255653   -3.8267235    1.1172953   520538 
 1944000    1.0255598   -3.8261419   -3.8261419   -2.7093031  0.085245708   -3.8261419    1.1168388   520538 
 1945000    1.0244243   -3.8256866   -3.8256866   -2.7100844  0.091571663   -3.8256866    1.1156022   520538 
 1946000     1.026042   -3.8271165   -3.8271165   -2.7097526  0.064857675   -3.8271165    1.1173639   520538 
 1947000    1.0239135   -3.8251937   -3.8251937   -2.7101477  0.072645012   -3.8251937    1.1150459   520538 
 1948000    1.0263544   -3.8282624   -3.8282624   -2.7105583  0.080962067   -3.8282624    1.1177041   520538 
 1949000    1.0281467   -3.8291636   -3.8291636   -2.7095076  0.073700521   -3.8291636     1.119656   520538 
 1950000    1.0241425   -3.8252295   -3.8252295   -2.7099342  0.075939146   -3.8252295    1.1152953   520538 
 1951000    1.0257722   -3.8275439   -3.8275439   -2.7104739  0.060591098   -3.8275439    1.1170701   520538 
 1952000    1.0253493   -3.8286772   -3.8286772   -2.7120676  0.056546134   -3.8286772    1.1166096   520538 
 1953000    1.0262175   -3.8282737   -3.8282737   -2.7107187  0.081337249   -3.8282737     1.117555   520538 
 1954000    1.0260662   -3.8293023   -3.8293023    -2.711912   0.06525643   -3.8293023    1.1173903   520538 
 1955000    1.0257178   -3.8294817   -3.8294817   -2.7124708  0.075860499   -3.8294817    1.1170109   520538 
 1956000    1.0264275   -3.8299005   -3.8299005   -2.7121167  0.078102357   -3.8299005    1.1177837   520538 
 1957000     1.026227   -3.8295413   -3.8295413    -2.711976  0.082994157   -3.8295413    1.1175653   520538 
 1958000    1.0249243    -3.828481    -3.828481   -2.7123344  0.074810067    -3.828481    1.1161467   520538 
 1959000    1.0261505   -3.8301224   -3.8301224   -2.7126403   0.08346122   -3.8301224    1.1174821   520538 
 1960000     1.025209   -3.8297364   -3.8297364   -2.7132796  0.085662359   -3.8297364    1.1164568   520538 
 1961000    1.0243904   -3.8286229   -3.8286229   -2.7130576  0.086612426   -3.8286229    1.1155653   520538 
 1962000    1.0233998   -3.8280387   -3.8280387   -2.7135521   0.06778913   -3.8280387    1.1144866   520538 
 1963000    1.0251367    -3.830835    -3.830835    -2.714457  0.063656636    -3.830835    1.1163781   520538 
 1964000    1.0247892   -3.8313536   -3.8313536    -2.715354  0.068310828   -3.8313536    1.1159996   520538 
 1965000    1.0243537   -3.8293554   -3.8293554     -2.71383  0.081255386   -3.8293554    1.1155254   520538 
 1966000    1.0249613   -3.8304841   -3.8304841   -2.7142971  0.083534035   -3.8304841     1.116187   520538 
 1967000    1.0257987   -3.8322254   -3.8322254   -2.7151264  0.067186995   -3.8322254     1.117099   520538 
 1968000    1.0271707   -3.8322935   -3.8322935   -2.7137004  0.082349848   -3.8322935    1.1185931   520538 
 1969000      1.02611   -3.8312379   -3.8312379   -2.7137999  0.086382543   -3.8312379    1.1174379   520538 
 1970000     1.027525   -3.8328828   -3.8328828   -2.7139039  0.089852524   -3.8328828    1.1189789   520538 
 1971000    1.0259886   -3.8311383   -3.8311383   -2.7138325  0.078216552   -3.8311383    1.1173058   520538 
 1972000    1.0277779   -3.8325996   -3.8325996   -2.7133453  0.081096137   -3.8325996    1.1192543   520538 
 1973000    1.0267151   -3.8321971   -3.8321971   -2.7141001  0.073665675   -3.8321971    1.1180969   520538 
 1974000    1.0260598   -3.8312681   -3.8312681   -2.7138848  0.070701908   -3.8312681    1.1173833   520538 
 1975000    1.0244108   -3.8301094   -3.8301094   -2.7145219  0.075147211   -3.8301094    1.1155875   520538 
 1976000    1.0225008   -3.8288338   -3.8288338   -2.7153263  0.061940327   -3.8288338    1.1135075   520538 
 1977000    1.0233351   -3.8297089   -3.8297089   -2.7152928  0.066476142   -3.8297089    1.1144161   520538 
 1978000    1.0257532   -3.8322449   -3.8322449   -2.7151955  0.066386361   -3.8322449    1.1170494   520538 
 1979000    1.0239109   -3.8298808   -3.8298808   -2.7148376  0.066487749   -3.8298808    1.1150431   520538 
 1980000     1.023484   -3.8291141   -3.8291141   -2.7145359  0.058768202   -3.8291141    1.1145782   520538 
 1981000    1.0242954   -3.8299611   -3.8299611   -2.7144992  0.077151088   -3.8299611    1.1154619   520538 
 1982000    1.0234616   -3.8286066   -3.8286066   -2.7140528  0.072866075   -3.8286066    1.1145539   520538 
 1983000    1.0245904   -3.8301208   -3.8301208   -2.7143377  0.064181301   -3.8301208    1.1157831   520538 
 1984000    1.0236969   -3.8282839   -3.8282839   -2.7134738  0.071730635   -3.8282839    1.1148101   520538 
 1985000    1.0233221   -3.8280554   -3.8280554   -2.7136534  0.061285768   -3.8280554    1.1144019   520538 
 1986000    1.0250836   -3.8308441   -3.8308441   -2.7145238  0.074808835   -3.8308441    1.1163202   520538 
 1987000    1.0224311    -3.828947    -3.828947   -2.7155154  0.069811786    -3.828947    1.1134316   520538 
 1988000    1.0227134   -3.8295981   -3.8295981    -2.715859  0.063867555   -3.8295981     1.113739   520538 
 1989000    1.0262287   -3.8316723   -3.8316723   -2.7141051  0.075365781   -3.8316723    1.1175673   520538 
 1990000    1.0252865   -3.8300064   -3.8300064   -2.7134652  0.082012606   -3.8300064    1.1165412   520538 
 1991000    1.0257013   -3.8310575   -3.8310575   -2.7140646  0.071852701   -3.8310575    1.1169928   520538 
 1992000    1.0278556   -3.8332242   -3.8332242   -2.7138853  0.073507069   -3.8332242    1.1193389   520538 
 1993000    1.0272028   -3.8328314   -3.8328314   -2.7142034  0.066808395   -3.8328314    1.1186281   520538 
 1994000    1.0260384   -3.8324445   -3.8324445   -2.7150845   0.06535473   -3.8324445      1.11736   520538 
 1995000    1.0268327   -3.8334866   -3.8334866   -2.7152616  0.071905612   -3.8334866     1.118225   520538 
 1996000    1.0253617   -3.8316584   -3.8316584   -2.7150354  0.073517233   -3.8316584    1.1166231   520538 
 1997000    1.0256581   -3.8313811   -3.8313811   -2.7144353  0.082111396   -3.8313811    1.1169458   520538 
 1998000    1.0261632   -3.8319532   -3.8319532   -2.7144572  0.069664164   -3.8319532    1.1174959   520538 
 1999000     1.025814   -3.8310475   -3.8310475   -2.7139318  0.077256913   -3.8310475    1.1171156   520538 
 2000000    1.0250791   -3.8309202   -3.8309202   -2.7146049  0.074682843   -3.8309202    1.1163153   520538 
 2001000    1.0236526   -3.8297605   -3.8297605   -2.7149987  0.078012041   -3.8297605    1.1147619   520538 
 2002000    1.0243102   -3.8298771   -3.8298771   -2.7143991  0.069922888   -3.8298771     1.115478   520538 
 2003000    1.0252157    -3.831571    -3.831571   -2.7151069  0.059348002    -3.831571    1.1164641   520538 
 2004000    1.0247246   -3.8307261   -3.8307261   -2.7147969  0.086432093   -3.8307261    1.1159293   520538 
 2005000      1.02558   -3.8317492   -3.8317492   -2.7148884  0.084258822   -3.8317492    1.1168608   520538 
 2006000    1.0252014   -3.8312791   -3.8312791   -2.7148306  0.085752532   -3.8312791    1.1164485   520538 
 2007000    1.0246738   -3.8311676   -3.8311676   -2.7152937  0.088377471   -3.8311676    1.1158739   520538 
 2008000    1.0250895   -3.8311929   -3.8311929   -2.7148663  0.084355486   -3.8311929    1.1163266   520538 
 2009000    1.0226592   -3.8286974   -3.8286974   -2.7150173  0.056173453   -3.8286974      1.11368   520538 
 2010000    1.0239201   -3.8304368   -3.8304368   -2.7153837  0.089210744   -3.8304368    1.1150532   520538 
 2011000    1.0232311   -3.8295508   -3.8295508    -2.715248  0.058555268   -3.8295508    1.1143028   520538 
 2012000    1.0236726   -3.8307335   -3.8307335   -2.7159499  0.070790546   -3.8307335    1.1147837   520538 
 2013000    1.0229604   -3.8297062   -3.8297062   -2.7156982   0.05622179   -3.8297062     1.114008   520538 
 2014000    1.0238757   -3.8317678   -3.8317678    -2.716763  0.053414792   -3.8317678    1.1150048   520538 
 2015000    1.0226176   -3.8292739   -3.8292739   -2.7156392  0.071718997   -3.8292739    1.1136347   520538 
 2016000    1.0233073   -3.8300747   -3.8300747   -2.7156888  0.073566717   -3.8300747    1.1143859   520538 
 2017000    1.0240782   -3.8309178   -3.8309178   -2.7156924  0.051924406   -3.8309178    1.1152254   520538 
 2018000    1.0239964   -3.8311458   -3.8311458   -2.7160096  0.084499335   -3.8311458    1.1151362   520538 
 2019000    1.0259839   -3.8331866   -3.8331866   -2.7158859  0.074779169   -3.8331866    1.1173006   520538 
 2020000    1.0272724    -3.833966    -3.833966   -2.7152622  0.076449318    -3.833966    1.1187038   520538 
 2021000    1.0268117   -3.8341077   -3.8341077   -2.7159055  0.089583903   -3.8341077    1.1182022   520538 
 2022000    1.0251449    -3.832735    -3.832735   -2.7163481  0.074165463    -3.832735    1.1163869   520538 
 2023000    1.0246214   -3.8318038   -3.8318038   -2.7159869   0.08902845   -3.8318038    1.1158169   520538 
 2024000    1.0241627   -3.8319603   -3.8319603   -2.7166429  0.079309854   -3.8319603    1.1153174   520538 
 2025000    1.0234433   -3.8314516   -3.8314516   -2.7169177  0.083783143   -3.8314516    1.1145339   520538 
 2026000    1.0254339   -3.8329169   -3.8329169   -2.7162152  0.089799016   -3.8329169    1.1167017   520538 
 2027000    1.0243661   -3.8332344   -3.8332344   -2.7176956  0.067944316   -3.8332344    1.1155388   520538 
 2028000    1.0244767   -3.8320106   -3.8320106   -2.7163513  0.068348016   -3.8320106    1.1156593   520538 
 2029000    1.0251695    -3.832827    -3.832827   -2.7164133   0.08829975    -3.832827    1.1164137   520538 
 2030000    1.0252698    -3.833642    -3.833642    -2.717119  0.067175839    -3.833642     1.116523   520538 
 2031000     1.025278   -3.8330936   -3.8330936   -2.7165616  0.071140701   -3.8330936    1.1165319   520538 
 2032000     1.025046   -3.8331151   -3.8331151   -2.7168359  0.073073307   -3.8331151    1.1162793   520538 
 2033000    1.0245232   -3.8321438   -3.8321438   -2.7164339  0.069054933   -3.8321438    1.1157099   520538 
 2034000    1.0232412   -3.8311565   -3.8311565   -2.7168427  0.074025387   -3.8311565    1.1143139   520538 
 2035000    1.0230402   -3.8310581   -3.8310581   -2.7169632  0.087441873   -3.8310581    1.1140949   520538 
 2036000     1.023129   -3.8308516   -3.8308516     -2.71666   0.06799791   -3.8308516    1.1141916   520538 
 2037000     1.023663   -3.8313538   -3.8313538   -2.7165806  0.072864179   -3.8313538    1.1147732   520538 
 2038000     1.025324   -3.8333036   -3.8333036   -2.7167215  0.069756642   -3.8333036    1.1165821   520538 
 2039000    1.0238776   -3.8322577   -3.8322577   -2.7172508  0.061172678   -3.8322577    1.1150069   520538 
 2040000    1.0236441   -3.8322954   -3.8322954   -2.7175427  0.058888478   -3.8322954    1.1147526   520538 
 2041000    1.0234809   -3.8316174   -3.8316174   -2.7170424  0.064693022   -3.8316174    1.1145749   520538 
 2042000    1.0245917   -3.8327081   -3.8327081   -2.7169236  0.085433891   -3.8327081    1.1157846   520538 
 2043000    1.0232179    -3.831097    -3.831097   -2.7168086  0.075886241    -3.831097    1.1142885   520538 
 2044000    1.0231668   -3.8314188   -3.8314188   -2.7171861  0.072150863   -3.8314188    1.1142328   520538 
 2045000    1.0231199   -3.8311106   -3.8311106   -2.7169289  0.060539083   -3.8311106    1.1141817   520538 
 2046000     1.025068    -3.833456    -3.833456   -2.7171527  0.073234657    -3.833456    1.1163032   520538 
 2047000    1.0231776   -3.8318439   -3.8318439   -2.7175994  0.076463314   -3.8318439    1.1142445   520538 
 2048000    1.0247246   -3.8332525   -3.8332525   -2.7173232  0.078405381   -3.8332525    1.1159293   520538 
 2049000    1.0250587   -3.8339394   -3.8339394   -2.7176463  0.062553519   -3.8339394    1.1162931   520538 
 2050000    1.0256827   -3.8349969   -3.8349969   -2.7180242  0.077381166   -3.8349969    1.1169726   520538 
 2051000    1.0246034   -3.8339614   -3.8339614   -2.7181641  0.080540591   -3.8339614    1.1157973   520538 
 2052000     1.023721   -3.8335301   -3.8335301   -2.7186937  0.066739826   -3.8335301    1.1148364   520538 
 2053000    1.0254894   -3.8353885   -3.8353885   -2.7186263  0.072070361   -3.8353885    1.1167621   520538 
 2054000    1.0245657   -3.8338336   -3.8338336   -2.7180774  0.071061399   -3.8338336    1.1157562   520538 
 2055000    1.0242875   -3.8332115   -3.8332115   -2.7177583  0.075173075   -3.8332115    1.1154532   520538 
 2056000    1.0255256   -3.8339523   -3.8339523   -2.7171507  0.083485421   -3.8339523    1.1168016   520538 
 2057000    1.0249109   -3.8342118   -3.8342118   -2.7180796  0.060950835   -3.8342118    1.1161322   520538 
 2058000    1.0256711   -3.8351284   -3.8351284   -2.7181684  0.067697469   -3.8351284      1.11696   520538 
 2059000    1.0249209   -3.8337915   -3.8337915   -2.7176485  0.066708055   -3.8337915     1.116143   520538 
 2060000    1.0240892   -3.8328528   -3.8328528   -2.7176155  0.075710897   -3.8328528    1.1152373   520538 
 2061000    1.0244925   -3.8327138   -3.8327138   -2.7170373  0.070403503   -3.8327138    1.1156765   520538 
 2062000    1.0237934   -3.8331967   -3.8331967   -2.7182815  0.061706935   -3.8331967    1.1149152   520538 
 2063000    1.0232354   -3.8329269   -3.8329269   -2.7186194  0.053557696   -3.8329269    1.1143076   520538 
 2064000    1.0229032   -3.8320821   -3.8320821   -2.7181364  0.055658014   -3.8320821    1.1139457   520538 
 2065000    1.0241689    -3.833539    -3.833539   -2.7182149  0.071427698    -3.833539    1.1153241   520538 
 2066000    1.0231025    -3.832667    -3.832667   -2.7185042  0.079673991    -3.832667    1.1141628   520538 
 2067000     1.025315   -3.8345682   -3.8345682   -2.7179961  0.055184292   -3.8345682    1.1165722   520538 
 2068000    1.0233008   -3.8326503   -3.8326503   -2.7182716   0.07423161   -3.8326503    1.1143787   520538 
 2069000    1.0234894   -3.8328238   -3.8328238   -2.7182397  0.078433686   -3.8328238    1.1145841   520538 
 2070000    1.0218632   -3.8314678   -3.8314678   -2.7186546  0.076562347   -3.8314678    1.1128132   520538 
 2071000     1.022281    -3.832009    -3.832009   -2.7187409  0.079256346    -3.832009    1.1132681   520538 
 2072000    1.0220629   -3.8320754   -3.8320754   -2.7190447  0.078015056   -3.8320754    1.1130307   520538 
 2073000    1.0237256   -3.8337274   -3.8337274    -2.718886  0.078059245   -3.8337274    1.1148413   520538 
 2074000    1.0242367   -3.8347906   -3.8347906   -2.7193926  0.060531221   -3.8347906    1.1153979   520538 
 2075000    1.0254398   -3.8352299   -3.8352299   -2.7185217  0.081739603   -3.8352299    1.1167081   520538 
 2076000    1.0227983   -3.8323038   -3.8323038   -2.7184723  0.075214406   -3.8323038    1.1138315   520538 
 2077000    1.0235137   -3.8331778   -3.8331778   -2.7185673  0.071565444   -3.8331778    1.1146106   520538 
 2078000    1.0235555   -3.8333416   -3.8333416   -2.7186855   0.07057972   -3.8333416    1.1146561   520538 
 2079000    1.0233016   -3.8333812   -3.8333812   -2.7190016  0.071005922   -3.8333812    1.1143796   520538 
 2080000    1.0240929   -3.8338261   -3.8338261   -2.7185848  0.071159468   -3.8338261    1.1152413   520538 
 2081000    1.0237831   -3.8338987   -3.8338987   -2.7189948  0.061314353   -3.8338987     1.114904   520538 
 2082000    1.0220407   -3.8327674   -3.8327674   -2.7197609  0.068099121   -3.8327674    1.1130065   520538 
 2083000    1.0236818   -3.8346876   -3.8346876   -2.7198939  0.079262543   -3.8346876    1.1147937   520538 
 2084000    1.0235808    -3.834084    -3.834084   -2.7194004  0.078823579    -3.834084    1.1146836   520538 
 2085000     1.024768   -3.8355417   -3.8355417   -2.7195651  0.081506077   -3.8355417    1.1159766   520538 
 2086000    1.0253068   -3.8348908   -3.8348908   -2.7183275   0.06092083   -3.8348908    1.1165633   520538 
 2087000    1.0252248   -3.8344403   -3.8344403   -2.7179663  0.082848041   -3.8344403     1.116474   520538 
 2088000     1.024409    -3.834278    -3.834278   -2.7186924  0.066163822    -3.834278    1.1155856   520538 
 2089000    1.0244033   -3.8346946   -3.8346946   -2.7191152  0.082367868   -3.8346946    1.1155794   520538 
 2090000    1.0234108   -3.8347382   -3.8347382   -2.7202397  0.078386504   -3.8347382    1.1144985   520538 
 2091000    1.0249358   -3.8364332   -3.8364332   -2.7202739  0.074498529   -3.8364332    1.1161592   520538 
 2092000    1.0237184   -3.8349851   -3.8349851   -2.7201516  0.074302561   -3.8349851    1.1148335   520538 
 2093000    1.0234767   -3.8345423   -3.8345423   -2.7199719  0.073772341   -3.8345423    1.1145703   520538 
 2094000    1.0227645   -3.8332768   -3.8332768   -2.7194821  0.074053292   -3.8332768    1.1137947   520538 
 2095000    1.0221423   -3.8325756   -3.8325756   -2.7194585  0.073490463   -3.8325756    1.1131172   520538 
 2096000    1.0211418   -3.8318891   -3.8318891   -2.7198615  0.075702405   -3.8318891    1.1120276   520538 
 2097000    1.0227658   -3.8328779   -3.8328779   -2.7190818  0.083663349   -3.8328779    1.1137961   520538 
 2098000    1.0230109   -3.8339134   -3.8339134   -2.7198504   0.06333053   -3.8339134     1.114063   520538 
 2099000     1.023232   -3.8336735   -3.8336735   -2.7193697  0.075770361   -3.8336735    1.1143038   520538 
 2100000    1.0223582   -3.8337894   -3.8337894   -2.7204371  0.065301535   -3.8337894    1.1133523   520538 
 2101000     1.024247   -3.8338899   -3.8338899   -2.7184807  0.090148619   -3.8338899    1.1154092   520538 
 2102000    1.0241612    -3.834681    -3.834681   -2.7193652  0.078373392    -3.834681    1.1153158   520538 
 2103000    1.0254197   -3.8351767   -3.8351767   -2.7184905  0.068599022   -3.8351767    1.1166862   520538 
 2104000    1.0237911   -3.8333848   -3.8333848   -2.7184721  0.080759656   -3.8333848    1.1149127   520538 
 2105000    1.0243317   -3.8345855   -3.8345855   -2.7190841  0.088107481   -3.8345855    1.1155014   520538 
 2106000    1.0239422   -3.8333767   -3.8333767   -2.7182994  0.077063604   -3.8333767    1.1150772   520538 
 2107000    1.0248241   -3.8345004   -3.8345004   -2.7184628  0.060427243   -3.8345004    1.1160377   520538 
 2108000    1.0238761   -3.8334679   -3.8334679   -2.7184627  0.088156334   -3.8334679    1.1150053   520538 
 2109000     1.023943   -3.8335214   -3.8335214   -2.7184433  0.075910589   -3.8335214    1.1150781   520538 
 2110000    1.0228017   -3.8324646   -3.8324646   -2.7186294  0.086811117   -3.8324646    1.1138352   520538 
 2111000    1.0228659   -3.8336533   -3.8336533   -2.7197482  0.073946326   -3.8336533    1.1139051   520538 
 2112000    1.0217499   -3.8322219   -3.8322219    -2.719532  0.079906734   -3.8322219    1.1126898   520538 
 2113000    1.0226184   -3.8336192   -3.8336192   -2.7199836   0.07718025   -3.8336192    1.1136356   520538 
 2114000    1.0207663   -3.8323381   -3.8323381   -2.7207195  0.070302613   -3.8323381    1.1116186   520538 
 2115000    1.0241137   -3.8351461   -3.8351461   -2.7198821  0.088255401   -3.8351461     1.115264   520538 
 2116000    1.0234619   -3.8347424   -3.8347424   -2.7201882  0.054017066   -3.8347424    1.1145542   520538 
 2117000    1.0277517   -3.8390673   -3.8390673   -2.7198415  0.068107166   -3.8390673    1.1192258   520538 
 2118000    1.0261422   -3.8374488   -3.8374488   -2.7199757  0.074841576   -3.8374488     1.117473   520538 
 2119000    1.0236097   -3.8352953   -3.8352953   -2.7205802  0.069898691   -3.8352953    1.1147151   520538 
 2120000    1.0233231   -3.8354742   -3.8354742   -2.7210712  0.071721835   -3.8354742     1.114403   520538 
 2121000    1.0237644   -3.8359479   -3.8359479   -2.7210644  0.077006096   -3.8359479    1.1148836   520538 
 2122000    1.0223988   -3.8351572   -3.8351572   -2.7217608  0.080614801   -3.8351572    1.1133964   520538 
 2123000    1.0230853    -3.836344    -3.836344      -2.7222  0.077973108    -3.836344     1.114144   520538 
 2124000    1.0234661   -3.8373006   -3.8373006   -2.7227419   0.06534563   -3.8373006    1.1145587   520538 
 2125000    1.0257847   -3.8387796   -3.8387796   -2.7216959   0.06793488   -3.8387796    1.1170837   520538 
 2126000    1.0258051    -3.837941    -3.837941   -2.7208351  0.079833843    -3.837941    1.1171059   520538 
 2127000    1.0263039   -3.8382475   -3.8382475   -2.7205984  0.076868333   -3.8382475    1.1176491   520538 
 2128000    1.0240702   -3.8365122   -3.8365122   -2.7212956  0.067482561   -3.8365122    1.1152166   520538 
 2129000    1.0242939    -3.836458    -3.836458   -2.7209978  0.083845651    -3.836458    1.1154602   520538 
 2130000    1.0239208   -3.8360623   -3.8360623   -2.7210084  0.079796482   -3.8360623    1.1150539   520538 
 2131000    1.0251408   -3.8364097   -3.8364097   -2.7200272  0.072993317   -3.8364097    1.1163825   520538 
 2132000    1.0268427   -3.8388325   -3.8388325   -2.7205967  0.082313024   -3.8388325    1.1182359   520538 
 2133000    1.0257853   -3.8380292   -3.8380292   -2.7209449  0.069997345   -3.8380292    1.1170843   520538 
 2134000    1.0268736    -3.838975    -3.838975   -2.7207055  0.079629636    -3.838975    1.1182695   520538 
 2135000    1.0250597   -3.8380999   -3.8380999   -2.7218058  0.069540771   -3.8380999    1.1162942   520538 
 2136000    1.0255912   -3.8384272   -3.8384272   -2.7215542  0.078165442   -3.8384272     1.116873   520538 
 2137000    1.0242516   -3.8376691   -3.8376691   -2.7222549  0.081492906   -3.8376691    1.1154142   520538 
 2138000    1.0248942   -3.8379912   -3.8379912   -2.7218773  0.051119868   -3.8379912    1.1161139   520538 
 2139000    1.0236394   -3.8360035   -3.8360035   -2.7212561  0.067153909   -3.8360035    1.1147474   520538 
 2140000    1.0253364   -3.8380416   -3.8380416    -2.721446  0.084756197   -3.8380416    1.1165956   520538 
 2141000    1.0242733   -3.8365511   -3.8365511   -2.7211134    0.0794886   -3.8365511    1.1154378   520538 
 2142000    1.0231959   -3.8364498   -3.8364498   -2.7221853  0.068389218   -3.8364498    1.1142645   520538 
 2143000     1.022944   -3.8369036   -3.8369036   -2.7229134   0.07570462   -3.8369036    1.1139902   520538 
 2144000    1.0228849   -3.8364559   -3.8364559   -2.7225301  0.068129591   -3.8364559    1.1139259   520538 
 2145000    1.0230076   -3.8361433   -3.8361433   -2.7220839  0.074050886   -3.8361433    1.1140594   520538 
 2146000    1.0223373   -3.8367846   -3.8367846   -2.7234551   0.08191831   -3.8367846    1.1133295   520538 
 2147000    1.0239022   -3.8380085   -3.8380085   -2.7229748  0.066042927   -3.8380085    1.1150337   520538 
 2148000    1.0243439   -3.8388215   -3.8388215   -2.7233068  0.071736568   -3.8388215    1.1155146   520538 
 2149000    1.0246531   -3.8392505   -3.8392505    -2.723399   0.06488029   -3.8392505    1.1158514   520538 
 2150000    1.0247169   -3.8398776   -3.8398776   -2.7239568  0.085564608   -3.8398776    1.1159209   520538 
 2151000    1.0229242   -3.8383624   -3.8383624   -2.7243937  0.084235309   -3.8383624    1.1139687   520538 
 2152000     1.023759   -3.8391914   -3.8391914   -2.7243138  0.087554978   -3.8391914    1.1148777   520538 
 2153000    1.0245253   -3.8398909   -3.8398909   -2.7241787  0.074572608   -3.8398909    1.1157122   520538 
 2154000    1.0231409   -3.8383558   -3.8383558   -2.7241512  0.069497816   -3.8383558    1.1142046   520538 
 2155000    1.0241619   -3.8389974   -3.8389974   -2.7236809   0.07710133   -3.8389974    1.1153164   520538 
 2156000     1.023528   -3.8399357   -3.8399357   -2.7253095   0.07965137   -3.8399357    1.1146262   520538 
 2157000    1.0224649   -3.8384665   -3.8384665    -2.724998  0.093081491   -3.8384665    1.1134684   520538 
 2158000    1.0251787    -3.841755    -3.841755   -2.7253313  0.070367663    -3.841755    1.1164237   520538 
 2159000    1.0223402   -3.8379654   -3.8379654   -2.7246328  0.071117909   -3.8379654    1.1133326   520538 
 2160000    1.0252223   -3.8404322   -3.8404322   -2.7239609  0.071659226   -3.8404322    1.1164712   520538 
 2161000    1.0227368   -3.8377082   -3.8377082   -2.7239437  0.066617335   -3.8377082    1.1137645   520538 
 2162000    1.0235605   -3.8397176   -3.8397176    -2.725056  0.072408656   -3.8397176    1.1146616   520538 
 2163000    1.0216666   -3.8379196   -3.8379196   -2.7253206  0.071924165   -3.8379196     1.112599   520538 
 2164000     1.023214   -3.8388901   -3.8388901    -2.724606  0.077296285   -3.8388901    1.1142842   520538 
 2165000    1.0217876   -3.8371684   -3.8371684   -2.7244375  0.078142228   -3.8371684    1.1127309   520538 
 2166000    1.0217372   -3.8372637   -3.8372637   -2.7245877  0.064861365   -3.8372637     1.112676   520538 
 2167000    1.0205071   -3.8355295   -3.8355295   -2.7241931  0.059517324   -3.8355295    1.1113364   520538 
 2168000    1.0223196   -3.8379721   -3.8379721   -2.7246619  0.072602902   -3.8379721    1.1133103   520538 
 2169000    1.0229691   -3.8390901   -3.8390901   -2.7250727  0.079871456   -3.8390901    1.1140175   520538 
 2170000    1.0215526   -3.8371629   -3.8371629    -2.724688  0.080261572   -3.8371629    1.1124749   520538 
 2171000    1.0214349   -3.8376559   -3.8376559   -2.7253091  0.085123432   -3.8376559    1.1123468   520538 
 2172000    1.0228155   -3.8396684   -3.8396684   -2.7258182  0.066527715   -3.8396684    1.1138503   520538 
 2173000    1.0224655   -3.8392284   -3.8392284   -2.7257593  0.065077972   -3.8392284    1.1134691   520538 
 2174000    1.0221426   -3.8390826   -3.8390826   -2.7259651    0.0835595   -3.8390826    1.1131175   520538 
 2175000    1.0226408   -3.8402361   -3.8402361   -2.7265761  0.067232918   -3.8402361      1.11366   520538 
 2176000    1.0248914   -3.8427332   -3.8427332   -2.7266223  0.073583671   -3.8427332    1.1161109   520538 
 2177000    1.0240633   -3.8415897   -3.8415897   -2.7263807  0.086674489   -3.8415897    1.1152091   520538 
 2178000     1.023875   -3.8416259   -3.8416259   -2.7266218  0.083815782   -3.8416259    1.1150041   520538 
 2179000    1.0228555    -3.839963    -3.839963   -2.7260692  0.075493239    -3.839963    1.1138938   520538 
 2180000    1.0234298   -3.8411147   -3.8411147   -2.7265955  0.072510302   -3.8411147    1.1145192   520538 
 2181000    1.0243013   -3.8420792   -3.8420792    -2.726611  0.063689415   -3.8420792    1.1154682   520538 
 2182000    1.0208327   -3.8397846   -3.8397846   -2.7280936  0.083343995   -3.8397846     1.111691   520538 
 2183000    1.0231959   -3.8415786   -3.8415786   -2.7273142  0.081087572   -3.8415786    1.1142645   520538 
 2184000    1.0242833   -3.8419433   -3.8419433   -2.7264946  0.068983394   -3.8419433    1.1154487   520538 
 2185000    1.0238378   -3.8409627   -3.8409627   -2.7259992  0.082945161   -3.8409627    1.1149635   520538 
 2186000    1.0225194   -3.8395653   -3.8395653   -2.7260376  0.081045351   -3.8395653    1.1135278   520538 
 2187000    1.0240808    -3.840629    -3.840629   -2.7254008  0.061551138    -3.840629    1.1152281   520538 
 2188000    1.0232503   -3.8401407   -3.8401407    -2.725817  0.063586712   -3.8401407    1.1143238   520538 
 2189000    1.0240444   -3.8410298   -3.8410298   -2.7258413  0.080041836   -3.8410298    1.1151885   520538 
 2190000    1.0237908   -3.8406872   -3.8406872   -2.7257749  0.080143844   -3.8406872    1.1149124   520538 
 2191000    1.0250734    -3.842172    -3.842172   -2.7258629  0.059100464    -3.842172    1.1163091   520538 
 2192000    1.0230041   -3.8395859   -3.8395859   -2.7255303  0.066632492   -3.8395859    1.1140556   520538 
 2193000    1.0255232   -3.8413616   -3.8413616   -2.7245626   0.07238622   -3.8413616    1.1167989   520538 
 2194000    1.0248818   -3.8404427   -3.8404427   -2.7243422  0.063247596   -3.8404427    1.1161004   520538 
 2195000    1.0244418   -3.8399844   -3.8399844   -2.7243631  0.068525445   -3.8399844    1.1156213   520538 
 2196000    1.0223928   -3.8381829   -3.8381829   -2.7247929  0.066020781   -3.8381829    1.1133899   520538 
 2197000    1.0233274   -3.8391101   -3.8391101   -2.7247024  0.063977592   -3.8391101    1.1144077   520538 
 2198000    1.0232076   -3.8395391   -3.8395391   -2.7252619  0.083215776   -3.8395391    1.1142772   520538 
 2199000    1.0225282   -3.8392964   -3.8392964   -2.7257591  0.076912427   -3.8392964    1.1135373   520538 
 2200000    1.0243414   -3.8411386   -3.8411386   -2.7256266  0.061726369   -3.8411386     1.115512   520538 
 2201000    1.0228454   -3.8391825   -3.8391825   -2.7252997  0.062197212   -3.8391825    1.1138828   520538 
 2202000    1.0221971   -3.8383144   -3.8383144   -2.7251376  0.067149447   -3.8383144    1.1131768   520538 
 2203000    1.0222774   -3.8383355   -3.8383355   -2.7250713  0.064459671   -3.8383355    1.1132642   520538 
 2204000    1.0232592   -3.8396843   -3.8396843   -2.7253509   0.05838784   -3.8396843    1.1143334   520538 
 2205000    1.0230694   -3.8400455   -3.8400455   -2.7259188  0.063417514   -3.8400455    1.1141268   520538 
 2206000    1.0222598   -3.8391001   -3.8391001    -2.725855  0.079048902   -3.8391001    1.1132451   520538 
 2207000    1.0220118    -3.839237    -3.839237   -2.7262619  0.074295908    -3.839237     1.112975   520538 
 2208000    1.0220302   -3.8397808   -3.8397808   -2.7267858   0.06805275   -3.8397808     1.112995   520538 
 2209000     1.023604   -3.8412189   -3.8412189   -2.7265099  0.060747862   -3.8412189    1.1147089   520538 
 2210000    1.0228245   -3.8399645   -3.8399645   -2.7261045  0.087258727   -3.8399645      1.11386   520538 
 2211000     1.024953   -3.8423964   -3.8423964   -2.7262185  0.071134237   -3.8423964     1.116178   520538 
 2212000    1.0241966   -3.8417117   -3.8417117   -2.7263574  0.077748988   -3.8417117    1.1153542   520538 
 2213000    1.0253273   -3.8436274   -3.8436274   -2.7270417  0.073809341   -3.8436274    1.1165857   520538 
 2214000    1.0253606    -3.842496    -3.842496   -2.7258741  0.079346631    -3.842496    1.1166219   520538 
 2215000    1.0233371   -3.8412004   -3.8412004   -2.7267822  0.080506661   -3.8412004    1.1144182   520538 
 2216000    1.0212905   -3.8401737   -3.8401737   -2.7279842  0.075450649   -3.8401737    1.1121895   520538 
 2217000    1.0238883   -3.8433747   -3.8433747   -2.7283562  0.080442671   -3.8433747    1.1150185   520538 
 2218000    1.0214689   -3.8415548   -3.8415548    -2.729171  0.052875089   -3.8415548    1.1123838   520538 
 2219000     1.021183   -3.8408643   -3.8408643   -2.7287919  0.066150213   -3.8408643    1.1120724   520538 
 2220000    1.0206649   -3.8402279   -3.8402279   -2.7287196   0.07525317   -3.8402279    1.1115082   520538 
 2221000    1.0232711   -3.8427004   -3.8427004   -2.7283539  0.066643093   -3.8427004    1.1143464   520538 
 2222000    1.0238347   -3.8434709   -3.8434709   -2.7285108  0.070958143   -3.8434709    1.1149601   520538 
 2223000    1.0206906     -3.83988     -3.83988   -2.7283438   0.06405839     -3.83988    1.1115362   520538 
 2224000    1.0243368   -3.8435525   -3.8435525   -2.7280456  0.058460607   -3.8435525     1.115507   520538 
 2225000    1.0235921   -3.8425753   -3.8425753   -2.7278794    0.0690843   -3.8425753     1.114696   520538 
 2226000    1.0221534   -3.8409787   -3.8409787   -2.7278494  0.067152384   -3.8409787    1.1131293   520538 
 2227000    1.0217093   -3.8414818   -3.8414818   -2.7288362  0.079660053   -3.8414818    1.1126456   520538 
 2228000    1.0229792   -3.8430891   -3.8430891   -2.7290606  0.082004256   -3.8430891    1.1140285   520538 
 2229000    1.0229928    -3.842456    -3.842456   -2.7284126  0.076437463    -3.842456    1.1140433   520538 
 2230000    1.0238559   -3.8431942   -3.8431942    -2.728211  0.082089908   -3.8431942    1.1149832   520538 
 2231000    1.0242698   -3.8447856   -3.8447856   -2.7293516  0.083519507   -3.8447856     1.115434   520538 
 2232000    1.0243801   -3.8443572   -3.8443572   -2.7288031  0.084021303   -3.8443572    1.1155541   520538 
 2233000    1.0229679   -3.8420994   -3.8420994   -2.7280832  0.065321602   -3.8420994    1.1140162   520538 
 2234000    1.0234691   -3.8427644   -3.8427644   -2.7282024  0.092823051   -3.8427644     1.114562   520538 
 2235000    1.0244458   -3.8450156   -3.8450156   -2.7293899  0.067537849   -3.8450156    1.1156257   520538 
 2236000    1.0254795   -3.8456883   -3.8456883   -2.7289369  0.073550658   -3.8456883    1.1167514   520538 
 2237000    1.0229707   -3.8427208   -3.8427208   -2.7287015  0.074651885   -3.8427208    1.1140193   520538 
 2238000    1.0231968   -3.8431805   -3.8431805    -2.728915  0.085877704   -3.8431805    1.1142655   520538 
 2239000    1.0219291   -3.8416226   -3.8416226   -2.7287377  0.084486937   -3.8416226    1.1128849   520538 
 2240000    1.0218268   -3.8418825   -3.8418825   -2.7291089   0.06921067   -3.8418825    1.1127736   520538 
 2241000    1.0220801   -3.8412762   -3.8412762   -2.7282267  0.067539694   -3.8412762    1.1130494   520538 
 2242000    1.0219497   -3.8419796   -3.8419796   -2.7290722  0.066605529   -3.8419796    1.1129074   520538 
 2243000    1.0217706   -3.8415517   -3.8415517   -2.7288393  0.076625886   -3.8415517    1.1127124   520538 
 2244000    1.0210874   -3.8413175   -3.8413175   -2.7293492  0.067626142   -3.8413175    1.1119684   520538 
 2245000    1.0206201   -3.8403437   -3.8403437   -2.7288843  0.055509799   -3.8403437    1.1114595   520538 
 2246000    1.0225448   -3.8422332   -3.8422332   -2.7286777  0.067525312   -3.8422332    1.1135555   520538 
 2247000    1.0228287   -3.8421422   -3.8421422   -2.7282776  0.084828749   -3.8421422    1.1138646   520538 
 2248000    1.0200881   -3.8396339   -3.8396339   -2.7287538  0.081250534   -3.8396339    1.1108801   520538 
 2249000    1.0234826   -3.8419349   -3.8419349   -2.7273582  0.057764336   -3.8419349    1.1145767   520538 
 2250000    1.0229276   -3.8418316   -3.8418316   -2.7278593   0.08928349   -3.8418316    1.1139723   520538 
 2251000    1.0245438   -3.8436622   -3.8436622   -2.7279298  0.068740148   -3.8436622    1.1157324   520538 
 2252000    1.0233218    -3.842886    -3.842886   -2.7284844  0.073262185    -3.842886    1.1144016   520538 
 2253000    1.0239161   -3.8435029   -3.8435029   -2.7284541  0.066255558   -3.8435029    1.1150488   520538 
 2254000    1.0222612   -3.8423553   -3.8423553   -2.7291086   0.08430432   -3.8423553    1.1132467   520538 
 2255000    1.0237969   -3.8446001   -3.8446001   -2.7296811  0.081785861   -3.8446001     1.114919   520538 
 2256000    1.0240856   -3.8443879   -3.8443879   -2.7291546  0.061952199   -3.8443879    1.1152333   520538 
 2257000    1.0246341   -3.8441406   -3.8441406   -2.7283099  0.088065651   -3.8441406    1.1158307   520538 
 2258000    1.0238511    -3.844127    -3.844127    -2.729149  0.067721126    -3.844127     1.114978   520538 
 2259000    1.0236485   -3.8437989   -3.8437989   -2.7290415  0.076783738   -3.8437989    1.1147574   520538 
 2260000    1.0223758   -3.8438325   -3.8438325   -2.7304611  0.078170146   -3.8438325    1.1133714   520538 
 2261000    1.0239221   -3.8452918   -3.8452918   -2.7302365  0.073973551   -3.8452918    1.1150553   520538 
 2262000    1.0240821   -3.8455393   -3.8455393   -2.7303098  0.081716041   -3.8455393    1.1152295   520538 
 2263000    1.0216785   -3.8443485   -3.8443485   -2.7317364  0.086020198   -3.8443485    1.1126121   520538 
 2264000    1.0229254   -3.8458832   -3.8458832   -2.7319132  0.083202942   -3.8458832    1.1139699   520538 
 2265000    1.0213166   -3.8437076   -3.8437076   -2.7314897  0.075643227   -3.8437076    1.1122179   520538 
 2266000    1.0201844   -3.8423326   -3.8423326   -2.7313476  0.077017542   -3.8423326     1.110985   520538 
 2267000    1.0206073   -3.8433807   -3.8433807   -2.7319352  0.076135377   -3.8433807    1.1114455   520538 
 2268000    1.0215219   -3.8449347   -3.8449347   -2.7324932  0.079870425   -3.8449347    1.1124415   520538 
 2269000    1.0217733   -3.8447735   -3.8447735   -2.7320581  0.074400489   -3.8447735    1.1127153   520538 
 2270000    1.0238678   -3.8467686   -3.8467686   -2.7317724  0.086659322   -3.8467686    1.1149962   520538 
 2271000    1.0230804   -3.8460213   -3.8460213   -2.7318826  0.074026086   -3.8460213    1.1141387   520538 
 2272000    1.0229132   -3.8462523   -3.8462523   -2.7322956  0.076407148   -3.8462523    1.1139567   520538 
 2273000     1.022704   -3.8453609   -3.8453609   -2.7316321  0.080757875   -3.8453609    1.1137288   520538 
 2274000    1.0240098   -3.8468658   -3.8468658   -2.7317149  0.082148338   -3.8468658    1.1151509   520538 
 2275000    1.0220988   -3.8448269   -3.8448269   -2.7317572    0.0816275   -3.8448269    1.1130698   520538 
 2276000    1.0242106   -3.8474721   -3.8474721   -2.7321025  0.079082889   -3.8474721    1.1153695   520538 
 2277000    1.0224582   -3.8460039   -3.8460039   -2.7325427  0.087616334   -3.8460039    1.1134612   520538 
 2278000     1.024018   -3.8471175   -3.8471175   -2.7319577  0.084164727   -3.8471175    1.1151598   520538 
 2279000    1.0243588   -3.8478336   -3.8478336   -2.7323027  0.072655665   -3.8478336    1.1155309   520538 
 2280000    1.0251947   -3.8490612   -3.8490612     -2.73262  0.075089558   -3.8490612    1.1164412   520538 
 2281000    1.0219005   -3.8465133   -3.8465133   -2.7336595  0.080404564   -3.8465133    1.1128538   520538 
 2282000     1.021587   -3.8451214   -3.8451214    -2.732609  0.074875148   -3.8451214    1.1125124   520538 
 2283000    1.0217038   -3.8452412   -3.8452412   -2.7326016  0.092921715   -3.8452412    1.1126396   520538 
 2284000    1.0226545   -3.8453957   -3.8453957   -2.7317208  0.061591154   -3.8453957    1.1136749   520538 
 2285000    1.0210819   -3.8440838   -3.8440838   -2.7321214  0.073042477   -3.8440838    1.1119624   520538 
 2286000    1.0229481   -3.8448029   -3.8448029   -2.7308083   0.08055052   -3.8448029    1.1139946   520538 
 2287000    1.0231645   -3.8451928   -3.8451928   -2.7309625  0.072157232   -3.8451928    1.1142303   520538 
 2288000    1.0215996   -3.8440122   -3.8440122    -2.731486  0.064534231   -3.8440122    1.1125262   520538 
 2289000      1.02177   -3.8441464   -3.8441464   -2.7314347  0.084718312   -3.8441464    1.1127117   520538 
 2290000    1.0220719   -3.8449143   -3.8449143   -2.7318738  0.079175952   -3.8449143    1.1130405   520538 
 2291000     1.022824   -3.8458812   -3.8458812   -2.7320217  0.070447627   -3.8458812    1.1138595   520538 
 2292000    1.0238428   -3.8461819   -3.8461819    -2.731213  0.073072103   -3.8461819    1.1149689   520538 
 2293000    1.0224366   -3.8454328   -3.8454328   -2.7319952  0.068289363   -3.8454328    1.1134376   520538 
 2294000    1.0225409   -3.8457112   -3.8457112     -2.73216  0.072904452   -3.8457112    1.1135512   520538 
 2295000    1.0210273   -3.8440493   -3.8440493   -2.7321464  0.075142975   -3.8440493    1.1119028   520538 
 2296000     1.024953   -3.8477581   -3.8477581   -2.7315801  0.063964826   -3.8477581     1.116178   520538 
 2297000    1.0243723   -3.8470852   -3.8470852   -2.7315396  0.062807726   -3.8470852    1.1155456   520538 
 2298000    1.0227106   -3.8454023   -3.8454023   -2.7316663  0.080939141   -3.8454023     1.113736   520538 
 2299000    1.0240023   -3.8473177   -3.8473177    -2.732175  0.078358867   -3.8473177    1.1151426   520538 
 2300000    1.0235404   -3.8476377   -3.8476377    -2.732998  0.083247785   -3.8476377    1.1146397   520538 
 2301000    1.0238781   -3.8484486   -3.8484486   -2.7334412  0.069759801   -3.8484486    1.1150075   520538 
 2302000    1.0228334   -3.8470693   -3.8470693   -2.7331996  0.069599863   -3.8470693    1.1138697   520538 
 2303000    1.0234472   -3.8477472   -3.8477472    -2.733209  0.092642101   -3.8477472    1.1145382   520538 
 2304000    1.0239068    -3.848092    -3.848092   -2.7330533  0.092860245    -3.848092    1.1150387   520538 
 2305000    1.0227832   -3.8467662   -3.8467662   -2.7329511  0.062108208   -3.8467662     1.113815   520538 
 2306000    1.0200513   -3.8438964   -3.8438964   -2.7330563  0.089716483   -3.8438964    1.1108401   520538 
 2307000    1.0221958   -3.8465663   -3.8465663   -2.7333909  0.067528139   -3.8465663    1.1131754   520538 
 2308000    1.0223739   -3.8464326   -3.8464326   -2.7330633  0.069728954   -3.8464326    1.1133693   520538 
 2309000    1.0230347   -3.8463126   -3.8463126   -2.7322237  0.091408375   -3.8463126     1.114089   520538 
 2310000    1.0214497   -3.8445131   -3.8445131   -2.7321502  0.080235871   -3.8445131    1.1123629   520538 
 2311000    1.0218362   -3.8455952   -3.8455952   -2.7328115  0.077229535   -3.8455952    1.1127838   520538 
 2312000     1.023032   -3.8467558   -3.8467558   -2.7326697   0.07515924   -3.8467558    1.1140861   520538 
 2313000    1.0226697   -3.8463728   -3.8463728   -2.7326813  0.063653538   -3.8463728    1.1136915   520538 
 2314000    1.0222887   -3.8453266   -3.8453266     -2.73205  0.088064252   -3.8453266    1.1132766   520538 
 2315000    1.0216157    -3.844996    -3.844996   -2.7324523  0.079762512    -3.844996    1.1125437   520538 
 2316000    1.0216598   -3.8458475   -3.8458475   -2.7332559   0.08922817   -3.8458475    1.1125917   520538 
 2317000    1.0224739   -3.8474253   -3.8474253   -2.7339471  0.069141917   -3.8474253    1.1134782   520538 
 2318000    1.0234021   -3.8488418   -3.8488418   -2.7343527  0.086305408   -3.8488418    1.1144891   520538 
 2319000    1.0218834   -3.8473053   -3.8473053   -2.7344701  0.070134365   -3.8473053    1.1128352   520538 
 2320000     1.022522   -3.8480029   -3.8480029   -2.7344723  0.075547885   -3.8480029    1.1135307   520538 
 2321000    1.0223544   -3.8473418   -3.8473418   -2.7339937  0.074372061   -3.8473418    1.1133481   520538 
 2322000    1.0203518   -3.8451864   -3.8451864   -2.7340191  0.081357869   -3.8451864    1.1111673   520538 
 2323000     1.022294   -3.8473125   -3.8473125   -2.7340302  0.082029247   -3.8473125    1.1132823   520538 
 2324000     1.022008   -3.8472499   -3.8472499    -2.734279  0.067107518   -3.8472499    1.1129709   520538 
 2325000    1.0213624   -3.8456751   -3.8456751   -2.7334073    0.0736028   -3.8456751    1.1122678   520538 
 2326000    1.0215099   -3.8456011   -3.8456011   -2.7331727  0.082027001   -3.8456011    1.1124284   520538 
 2327000    1.0227695   -3.8463334   -3.8463334   -2.7325332  0.079748096   -3.8463334    1.1138002   520538 
 2328000    1.0219797   -3.8462519   -3.8462519   -2.7333118  0.070826976   -3.8462519    1.1129401   520538 
 2329000    1.0224031   -3.8474225   -3.8474225   -2.7340214  0.082733615   -3.8474225    1.1134011   520538 
 2330000    1.0220386   -3.8478559   -3.8478559   -2.7348518  0.073382395   -3.8478559    1.1130042   520538 
 2331000    1.0219391   -3.8471988   -3.8471988   -2.7343029  0.070843153   -3.8471988    1.1128959   520538 
 2332000    1.0224025   -3.8482899   -3.8482899   -2.7348895  0.073161257   -3.8482899    1.1134004   520538 
 2333000    1.0205581   -3.8468127   -3.8468127   -2.7354208  0.066529301   -3.8468127    1.1113919   520538 
 2334000    1.0219329   -3.8478759   -3.8478759   -2.7349868  0.068177855   -3.8478759    1.1128891   520538 
 2335000    1.0209112   -3.8468803   -3.8468803   -2.7351039  0.080113895   -3.8468803    1.1117764   520538 
 2336000    1.0236927   -3.8494839   -3.8494839   -2.7346784  0.075077434   -3.8494839    1.1148055   520538 
 2337000    1.0219738   -3.8473285   -3.8473285    -2.734395  0.060019039   -3.8473285    1.1129336   520538 
 2338000    1.0229391   -3.8478282   -3.8478282   -2.7338434  0.060412935   -3.8478282    1.1139848   520538 
 2339000    1.0205557   -3.8457038   -3.8457038   -2.7343145  0.057287561   -3.8457038    1.1113893   520538 
 2340000    1.0215386   -3.8459164   -3.8459164   -2.7334567  0.080993945   -3.8459164    1.1124597   520538 
 2341000    1.0209371   -3.8459292   -3.8459292   -2.7341245  0.060337395   -3.8459292    1.1118047   520538 
 2342000    1.0205262   -3.8457896   -3.8457896   -2.7344324  0.088421073   -3.8457896    1.1113572   520538 
 2343000    1.0210576   -3.8458553   -3.8458553   -2.7339194  0.075157071   -3.8458553    1.1119359   520538 
 2344000    1.0217072   -3.8466559   -3.8466559   -2.7340126  0.084021106   -3.8466559    1.1126433   520538 
 2345000     1.021925    -3.847232    -3.847232   -2.7343515  0.078516566    -3.847232    1.1128805   520538 
 2346000     1.020696   -3.8461466   -3.8461466   -2.7346045   0.07410291   -3.8461466    1.1115421   520538 
 2347000    1.0215736   -3.8477928   -3.8477928    -2.735295  0.064829275   -3.8477928    1.1124978   520538 
 2348000    1.0227013   -3.8477561   -3.8477561   -2.7340302   0.06454257   -3.8477561    1.1137259   520538 
 2349000    1.0198167   -3.8453637   -3.8453637   -2.7347792  0.067903439   -3.8453637    1.1105845   520538 
 2350000    1.0215129   -3.8468211   -3.8468211   -2.7343894  0.063287811   -3.8468211    1.1124317   520538 
 2351000    1.0216486   -3.8459468   -3.8459468   -2.7333673  0.084235373   -3.8459468    1.1125795   520538 
 2352000     1.022362   -3.8463648   -3.8463648   -2.7330084  0.078986988   -3.8463648    1.1133564   520538 
 2353000    1.0230015   -3.8467012   -3.8467012   -2.7326484  0.067128507   -3.8467012    1.1140528   520538 
 2354000    1.0235845   -3.8468644   -3.8468644   -2.7321767  0.068588818   -3.8468644    1.1146877   520538 
 2355000    1.0224196   -3.8460598   -3.8460598   -2.7326406  0.084846233   -3.8460598    1.1134191   520538 
 2356000    1.0214799   -3.8442654   -3.8442654   -2.7318697  0.071648979   -3.8442654    1.1123958   520538 
 2357000    1.0223083   -3.8456182   -3.8456182   -2.7323203  0.091976904   -3.8456182    1.1132979   520538 
 2358000    1.0226322   -3.8463598   -3.8463598   -2.7327092  0.066328538   -3.8463598    1.1136507   520538 
 2359000    1.0209427   -3.8449469   -3.8449469   -2.7331361  0.074294625   -3.8449469    1.1118108   520538 
 2360000    1.0214297   -3.8465267   -3.8465267   -2.7341856  0.054418995   -3.8465267    1.1123411   520538 
 2361000    1.0222358   -3.8475089   -3.8475089     -2.73429  0.077370617   -3.8475089    1.1132189   520538 
 2362000    1.0223944   -3.8481049   -3.8481049   -2.7347132  0.071678996   -3.8481049    1.1133917   520538 
 2363000    1.0215226   -3.8466994   -3.8466994   -2.7342572  0.078616435   -3.8466994    1.1124422   520538 
 2364000    1.0202588   -3.8455976   -3.8455976   -2.7345316  0.078191513   -3.8455976     1.111066   520538 
 2365000     1.023089   -3.8481837   -3.8481837   -2.7340356  0.084122904   -3.8481837    1.1141481   520538 
 2366000    1.0217978   -3.8466895   -3.8466895   -2.7339474  0.082796782   -3.8466895     1.112742   520538 
 2367000    1.0212622   -3.8458696   -3.8458696   -2.7337109  0.080183888   -3.8458696    1.1121587   520538 
 2368000    1.0216766   -3.8466682   -3.8466682   -2.7340582  0.067608323   -3.8466682      1.11261   520538 
 2369000    1.0212372   -3.8465354   -3.8465354   -2.7344039  0.088904575   -3.8465354    1.1121315   520538 
 2370000    1.0206997   -3.8460935   -3.8460935   -2.7345474  0.080835103   -3.8460935    1.1115461   520538 
 2371000    1.0224748   -3.8477049   -3.8477049   -2.7342257  0.067591356   -3.8477049    1.1134792   520538 
 2372000    1.0218657   -3.8472429   -3.8472429    -2.734427  0.064642444   -3.8472429    1.1128159   520538 
 2373000    1.0217511   -3.8468234   -3.8468234   -2.7341323  0.081372496   -3.8468234    1.1126911   520538 
 2374000    1.0214299   -3.8466901   -3.8466901   -2.7343487  0.067492114   -3.8466901    1.1123413   520538 
 2375000    1.0207875   -3.8468413   -3.8468413   -2.7351996  0.074284644   -3.8468413    1.1116417   520538 
 2376000     1.021967   -3.8478248   -3.8478248   -2.7348985  0.059846497   -3.8478248    1.1129263   520538 
 2377000    1.0201244    -3.845482    -3.845482   -2.7345624  0.067313797    -3.845482    1.1109196   520538 
 2378000    1.0212536   -3.8458555   -3.8458555   -2.7337062  0.072641993   -3.8458555    1.1121493   520538 
 2379000    1.0229194   -3.8475351   -3.8475351   -2.7335718  0.082205488   -3.8475351    1.1139634   520538 
 2380000     1.022461   -3.8473675   -3.8473675   -2.7339033  0.062790349   -3.8473675    1.1134642   520538 
 2381000    1.0243238   -3.8486942   -3.8486942   -2.7332014  0.084148817   -3.8486942    1.1154928   520538 
 2382000    1.0214743   -3.8461772   -3.8461772   -2.7337875  0.076628349   -3.8461772    1.1123897   520538 
 2383000    1.0226085   -3.8475208   -3.8475208   -2.7338959   0.07268747   -3.8475208    1.1136249   520538 
 2384000    1.0202246   -3.8456233   -3.8456233   -2.7345947  0.079667641   -3.8456233    1.1110287   520538 
 2385000    1.0200314   -3.8451768   -3.8451768   -2.7343584  0.070475274   -3.8451768    1.1108184   520538 
 2386000    1.0203017   -3.8459119   -3.8459119   -2.7347992  0.067157833   -3.8459119    1.1111127   520538 
 2387000    1.0197279   -3.8455079   -3.8455079   -2.7350201  0.071255293   -3.8455079    1.1104878   520538 
 2388000    1.0219075   -3.8485014   -3.8485014     -2.73564  0.083445895   -3.8485014    1.1128614   520538 
 2389000     1.021742   -3.8476093   -3.8476093   -2.7349282  0.074730066   -3.8476093    1.1126812   520538 
 2390000    1.0227849   -3.8490661   -3.8490661   -2.7352492  0.078293441   -3.8490661    1.1138169   520538 
 2391000    1.0221011   -3.8474554   -3.8474554   -2.7343831  0.087952016   -3.8474554    1.1130722   520538 
 2392000    1.0221533   -3.8477722   -3.8477722   -2.7346431   0.06804088   -3.8477722    1.1131291   520538 
 2393000    1.0230524   -3.8487614   -3.8487614   -2.7346531   0.07872338   -3.8487614    1.1141083   520538 
 2394000    1.0227066   -3.8497006   -3.8497006    -2.735969  0.066141381   -3.8497006    1.1137316   520538 
 2395000    1.0232285   -3.8497543   -3.8497543   -2.7354543  0.071103137   -3.8497543       1.1143   520538 
 2396000     1.022411   -3.8483401   -3.8483401   -2.7349304  0.077824932   -3.8483401    1.1134097   520538 
 2397000    1.0209988    -3.846676    -3.846676   -2.7348042  0.074012584    -3.846676    1.1118718   520538 
 2398000    1.0219806   -3.8484149   -3.8484149   -2.7354738  0.065276705   -3.8484149    1.1129411   520538 
 2399000    1.0221115   -3.8485884   -3.8485884   -2.7355049  0.079719518   -3.8485884    1.1130835   520538 
 2400000    1.0219529   -3.8484193   -3.8484193   -2.7355084  0.073349254   -3.8484193    1.1129108   520538 
 2401000    1.0217893   -3.8471434   -3.8471434   -2.7344107  0.067350684   -3.8471434    1.1127327   520538 
 2402000    1.0223314   -3.8481383   -3.8481383   -2.7348153  0.078687389   -3.8481383     1.113323   520538 
 2403000    1.0208466   -3.8466081   -3.8466081   -2.7349019  0.065181311   -3.8466081    1.1117062   520538 
 2404000    1.0238853   -3.8496032   -3.8496032    -2.734588  0.061679783   -3.8496032    1.1150153   520538 
 2405000    1.0225419   -3.8480507   -3.8480507   -2.7344983  0.085482041   -3.8480507    1.1135523   520538 
 2406000    1.0213585   -3.8465939   -3.8465939   -2.7343303  0.062527927   -3.8465939    1.1122636   520538 
 2407000    1.0220766   -3.8483207   -3.8483207   -2.7352752  0.085088132   -3.8483207    1.1130455   520538 
 2408000    1.0239536   -3.8499173   -3.8499173   -2.7348276  0.072783942   -3.8499173    1.1150897   520538 
 2409000    1.0236561   -3.8486018   -3.8486018   -2.7338361   0.08707722   -3.8486018    1.1147657   520538 
 2410000    1.0227072   -3.8477946   -3.8477946   -2.7340622    0.0667046   -3.8477946    1.1137323   520538 
 2411000    1.0213349   -3.8465747   -3.8465747   -2.7343369  0.079461386   -3.8465747    1.1122378   520538 
 2412000     1.020658   -3.8461624   -3.8461624   -2.7346617  0.071405947   -3.8461624    1.1115007   520538 
 2413000    1.0235259   -3.8489264   -3.8489264   -2.7343026    0.0736118   -3.8489264    1.1146239   520538 
 2414000    1.0244759   -3.8504772   -3.8504772   -2.7348188  0.069255436   -3.8504772    1.1156584   520538 
 2415000    1.0212178   -3.8468621   -3.8468621   -2.7347517  0.068667062   -3.8468621    1.1121104   520538 
 2416000    1.0225454   -3.8493918   -3.8493918   -2.7358358  0.068499459   -3.8493918    1.1135561   520538 
 2417000    1.0204589   -3.8479283   -3.8479283   -2.7366444  0.078732757   -3.8479283    1.1112839   520538 
 2418000    1.0209184   -3.8487982   -3.8487982   -2.7370139  0.080138417   -3.8487982    1.1117843   520538 
 2419000    1.0217864   -3.8495552   -3.8495552   -2.7368257  0.071946668   -3.8495552    1.1127295   520538 
 2420000     1.022268   -3.8505243   -3.8505243   -2.7372703  0.077243397   -3.8505243     1.113254   520538 
 2421000    1.0221722   -3.8494603   -3.8494603   -2.7363106  0.064975844   -3.8494603    1.1131497   520538 
 2422000    1.0220632   -3.8496497   -3.8496497   -2.7366187  0.085908584   -3.8496497     1.113031   520538 
 2423000    1.0226842    -3.851043    -3.851043   -2.7373358  0.063279868    -3.851043    1.1137072   520538 
 2424000    1.0235562   -3.8519118   -3.8519118   -2.7372549  0.083713459   -3.8519118    1.1146569   520538 
 2425000    1.0232918   -3.8517064   -3.8517064   -2.7373374  0.079210976   -3.8517064     1.114369   520538 
 2426000    1.0224217   -3.8502831   -3.8502831   -2.7368617   0.07552997   -3.8502831    1.1134214   520538 
 2427000    1.0215458   -3.8493597   -3.8493597   -2.7368922  0.067774088   -3.8493597    1.1124676   520538 
 2428000    1.0228971   -3.8505522   -3.8505522   -2.7366131  0.085867152   -3.8505522    1.1139391   520538 
 2429000    1.0203174    -3.847947    -3.847947   -2.7368173  0.091229777    -3.847947    1.1111298   520538 
 2430000    1.0223735    -3.850197    -3.850197   -2.7368281  0.071881064    -3.850197    1.1133689   520538 
 2431000     1.022111   -3.8502564   -3.8502564   -2.7371734  0.084689795   -3.8502564    1.1130831   520538 
 2432000    1.0227529   -3.8520951   -3.8520951    -2.738313  0.072185669   -3.8520951     1.113782   520538 
 2433000    1.0203581   -3.8497436   -3.8497436   -2.7385695  0.066342124   -3.8497436    1.1111741   520538 
 2434000    1.0212514   -3.8505605   -3.8505605   -2.7384136  0.050856842   -3.8505605    1.1121469   520538 
 2435000    1.0197322   -3.8500312   -3.8500312   -2.7395386  0.075165012   -3.8500312    1.1104926   520538 
 2436000    1.0183575   -3.8480293   -3.8480293   -2.7390339  0.082124567   -3.8480293    1.1089955   520538 
 2437000    1.0190981   -3.8485666   -3.8485666   -2.7387646  0.073786385   -3.8485666     1.109802   520538 
 2438000     1.021587   -3.8505383   -3.8505383   -2.7380259   0.07425811   -3.8505383    1.1125124   520538 
 2439000    1.0199041   -3.8484599   -3.8484599   -2.7377801  0.060162901   -3.8484599    1.1106797   520538 
 2440000    1.0209592   -3.8494344   -3.8494344   -2.7376057  0.081991827   -3.8494344    1.1118287   520538 
 2441000    1.0230155   -3.8520149   -3.8520149   -2.7379469   0.06871563   -3.8520149     1.114068   520538 
 2442000    1.0202868   -3.8493443   -3.8493443   -2.7382478  0.086347242   -3.8493443    1.1110965   520538 
 2443000    1.0215307   -3.8505491   -3.8505491   -2.7380979  0.068279008   -3.8505491    1.1124511   520538 
 2444000    1.0212249   -3.8495518   -3.8495518   -2.7374337  0.073983363   -3.8495518     1.112118   520538 
 2445000    1.0212081    -3.850358    -3.850358   -2.7382582  0.066224573    -3.850358    1.1120998   520538 
 2446000    1.0230684     -3.85249     -3.85249   -2.7383643   0.08956085     -3.85249    1.1141257   520538 
 2447000    1.0209497   -3.8505758   -3.8505758   -2.7387574  0.077988903   -3.8505758    1.1118184   520538 
 2448000    1.0219835   -3.8512232   -3.8512232    -2.738279  0.080586948   -3.8512232    1.1129442   520538 
 2449000    1.0211207   -3.8486968   -3.8486968   -2.7366922  0.071853254   -3.8486968    1.1120046   520538 
 2450000    1.0219953   -3.8499091   -3.8499091   -2.7369521  0.067988445   -3.8499091    1.1129571   520538 
 2451000     1.021834   -3.8496532   -3.8496532   -2.7368718  0.073041932   -3.8496532    1.1127814   520538 
 2452000    1.0202265   -3.8490967   -3.8490967   -2.7380659  0.077755197   -3.8490967    1.1110309   520538 
 2453000    1.0205143   -3.8491149   -3.8491149   -2.7377707  0.081132864   -3.8491149    1.1113443   520538 
 2454000    1.0208262   -3.8494655   -3.8494655   -2.7377816  0.075723901   -3.8494655    1.1116839   520538 
 2455000    1.0216448   -3.8505201   -3.8505201   -2.7379447  0.073063189   -3.8505201    1.1125753   520538 
 2456000      1.02085   -3.8496428   -3.8496428    -2.737933  0.066257112   -3.8496428    1.1117098   520538 
 2457000    1.0213784   -3.8514158   -3.8514158   -2.7391305   0.08003771   -3.8514158    1.1122853   520538 
 2458000    1.0213287   -3.8518091   -3.8518091    -2.739578  0.067721767   -3.8518091    1.1122311   520538 
 2459000    1.0208858    -3.850563    -3.850563   -2.7388142  0.061822647    -3.850563    1.1117488   520538 
 2460000    1.0209435   -3.8509931   -3.8509931   -2.7391814  0.062419597   -3.8509931    1.1118117   520538 
 2461000    1.0218216   -3.8512734   -3.8512734   -2.7385055  0.089834655   -3.8512734    1.1127679   520538 
 2462000     1.021012   -3.8496668   -3.8496668   -2.7377805  0.074013089   -3.8496668    1.1118863   520538 
 2463000    1.0233058   -3.8516892   -3.8516892    -2.737305  0.077284776   -3.8516892    1.1143842   520538 
 2464000     1.023527   -3.8516414   -3.8516414   -2.7370163  0.081653389   -3.8516414    1.1146251   520538 
 2465000    1.0197517   -3.8483662   -3.8483662   -2.7378524  0.074535962   -3.8483662    1.1105138   520538 
 2466000    1.0224434   -3.8514698   -3.8514698   -2.7380247  0.082148135   -3.8514698     1.113445   520538 
 2467000     1.021075   -3.8510926   -3.8510926   -2.7391377  0.064914351   -3.8510926    1.1119549   520538 
 2468000    1.0211534   -3.8502428   -3.8502428   -2.7382026  0.084558792   -3.8502428    1.1120402   520538 
 2469000    1.0223085   -3.8511849   -3.8511849   -2.7378868  0.084402298   -3.8511849    1.1132981   520538 
 2470000    1.0193823   -3.8482698   -3.8482698   -2.7381583   0.07085308   -3.8482698    1.1101115   520538 
 2471000    1.0223294   -3.8520797   -3.8520797   -2.7387588  0.063025099   -3.8520797    1.1133209   520538 
 2472000     1.020567   -3.8503215   -3.8503215   -2.7389199  0.075113336   -3.8503215    1.1114017   520538 
 2473000    1.0205334   -3.8504762   -3.8504762   -2.7391111  0.067601126   -3.8504762    1.1113651   520538 
 2474000    1.0197864   -3.8485998   -3.8485998   -2.7380482  0.082067314   -3.8485998    1.1105515   520538 
 2475000    1.0219405   -3.8514358   -3.8514358   -2.7385385  0.073245814   -3.8514358    1.1128973   520538 
 2476000    1.0215034   -3.8515615   -3.8515615   -2.7391401  0.070326139   -3.8515615    1.1124214   520538 
 2477000    1.0187026   -3.8479234   -3.8479234   -2.7385521  0.067947161   -3.8479234    1.1093712   520538 
 2478000    1.0214391   -3.8518811   -3.8518811   -2.7395297   0.08709651   -3.8518811    1.1123513   520538 
 2479000    1.0218462   -3.8524599   -3.8524599   -2.7396652  0.075378018   -3.8524599    1.1127947   520538 
 2480000    1.0210245   -3.8512083   -3.8512083   -2.7393084  0.056327733   -3.8512083    1.1118998   520538 
 2481000    1.0198076    -3.849952    -3.849952   -2.7393774  0.074228839    -3.849952    1.1105746   520538 
 2482000    1.0207148   -3.8509746   -3.8509746    -2.739412  0.063375855   -3.8509746    1.1115626   520538 
 2483000    1.0216815    -3.852183    -3.852183   -2.7395676  0.060181524    -3.852183    1.1126153   520538 
 2484000    1.0226061   -3.8528379   -3.8528379   -2.7392158  0.092018443   -3.8528379    1.1136222   520538 
 2485000    1.0231886   -3.8533168   -3.8533168   -2.7390602  0.065920545   -3.8533168    1.1142566   520538 
 2486000    1.0219533   -3.8510295   -3.8510295   -2.7381182  0.073462055   -3.8510295    1.1129113   520538 
 2487000    1.0243988   -3.8536805   -3.8536805    -2.738106  0.070007078   -3.8536805    1.1155744   520538 
 2488000    1.0226535   -3.8512794   -3.8512794   -2.7376056   0.06716967   -3.8512794    1.1136738   520538 
 2489000    1.0226113   -3.8518809   -3.8518809    -2.738253  0.076348009   -3.8518809    1.1136279   520538 
 2490000    1.0224887   -3.8518956   -3.8518956   -2.7384012  0.072878818   -3.8518956    1.1134944   520538 
 2491000    1.0223758    -3.851298    -3.851298   -2.7379267  0.073255255    -3.851298    1.1133714   520538 
 2492000    1.0221683   -3.8521997   -3.8521997   -2.7390543  0.081481499   -3.8521997    1.1131454   520538 
 2493000     1.022383   -3.8522533   -3.8522533   -2.7388741  0.062228199   -3.8522533    1.1133792   520538 
 2494000    1.0212375   -3.8508932   -3.8508932   -2.7387614  0.074976392   -3.8508932    1.1121318   520538 
 2495000    1.0207371   -3.8512414   -3.8512414   -2.7396546  0.076987731   -3.8512414    1.1115868   520538 
 2496000     1.021217   -3.8518726   -3.8518726   -2.7397631  0.087253619   -3.8518726    1.1121095   520538 
 2497000    1.0210602   -3.8515744   -3.8515744   -2.7396357  0.064720713   -3.8515744    1.1119387   520538 
 2498000    1.0198769    -3.850289    -3.850289   -2.7396389  0.066344256    -3.850289    1.1106501   520538 
 2499000    1.0200755   -3.8513285   -3.8513285   -2.7404621  0.072750492   -3.8513285    1.1108664   520538 
 2500000    1.0200075   -3.8501782   -3.8501782   -2.7393858  0.083084585   -3.8501782    1.1107924   520538 
 2501000      1.02168   -3.8524245   -3.8524245   -2.7398108  0.065369608   -3.8524245    1.1126136   520538 
 2502000    1.0221129   -3.8522732   -3.8522732    -2.739188  0.072303355   -3.8522732    1.1130851   520538 
 2503000    1.0216228    -3.851997    -3.851997   -2.7394456  0.074436179    -3.851997    1.1125514   520538 
 2504000    1.0214025   -3.8524046   -3.8524046    -2.740093   0.06711119   -3.8524046    1.1123115   520538 
 2505000    1.0201644   -3.8509132   -3.8509132     -2.73995  0.068001701   -3.8509132    1.1109632   520538 
 2506000    1.0213678   -3.8525934   -3.8525934   -2.7403197  0.075040692   -3.8525934    1.1122737   520538 
 2507000    1.0214943   -3.8538209   -3.8538209   -2.7414094  0.086054228   -3.8538209    1.1124115   520538 
 2508000    1.0214237   -3.8535074   -3.8535074   -2.7411729  0.078804378   -3.8535074    1.1123345   520538 
 2509000    1.0235755   -3.8551921   -3.8551921   -2.7405141  0.061851322   -3.8551921    1.1146779   520538 
 2510000    1.0231224    -3.855217    -3.855217   -2.7410325  0.081611018    -3.855217    1.1141845   520538 
 2511000      1.02156   -3.8543854   -3.8543854   -2.7419024  0.090645939   -3.8543854     1.112483   520538 
 2512000    1.0219471   -3.8543481   -3.8543481   -2.7414436  0.066674997   -3.8543481    1.1129045   520538 
 2513000    1.0224363    -3.854731    -3.854731   -2.7412937   0.06910816    -3.854731    1.1134373   520538 
 2514000    1.0233942   -3.8555394   -3.8555394   -2.7410589  0.075522262   -3.8555394    1.1144805   520538 
 2515000    1.0216405   -3.8531947   -3.8531947   -2.7406241  0.083132399   -3.8531947    1.1125707   520538 
 2516000    1.0208888   -3.8529124   -3.8529124   -2.7411603  0.070846724   -3.8529124    1.1117521   520538 
 2517000    1.0216638   -3.8534253   -3.8534253   -2.7408292  0.077764168   -3.8534253    1.1125961   520538 
 2518000    1.0215101   -3.8530423   -3.8530423   -2.7406137  0.079035693   -3.8530423    1.1124286   520538 
 2519000    1.0209022   -3.8530857   -3.8530857   -2.7413191  0.070316717   -3.8530857    1.1117666   520538 
 2520000    1.0201373   -3.8527185   -3.8527185   -2.7417848    0.0710051   -3.8527185    1.1109337   520538 
 2521000    1.0194702   -3.8527044   -3.8527044   -2.7424972  0.063700246   -3.8527044    1.1102072   520538 
 2522000    1.0182132   -3.8522581   -3.8522581   -2.7434198  0.064063501   -3.8522581    1.1088383   520538 
 2523000    1.0173836   -3.8507017   -3.8507017   -2.7427668  0.078278967   -3.8507017    1.1079348   520538 
 2524000    1.0194862   -3.8528957   -3.8528957    -2.742671  0.062154368   -3.8528957    1.1102247   520538 
 2525000    1.0210609   -3.8545826   -3.8545826   -2.7426431  0.076376464   -3.8545826    1.1119395   520538 
 2526000    1.0204308   -3.8533417   -3.8533417   -2.7420884  0.077110216   -3.8533417    1.1112533   520538 
 2527000    1.0206411   -3.8538648   -3.8538648   -2.7423825  0.079528616   -3.8538648    1.1114823   520538 
 2528000    1.0205268   -3.8541715   -3.8541715   -2.7428136  0.076055553   -3.8541715    1.1113578   520538 
 2529000    1.0206323   -3.8543809   -3.8543809   -2.7429082  0.074658523   -3.8543809    1.1114727   520538 
 2530000     1.021389   -3.8549134   -3.8549134   -2.7426166   0.06680347   -3.8549134    1.1122968   520538 
 2531000    1.0227491    -3.857177    -3.857177    -2.743399  0.080000497    -3.857177     1.113778   520538 
 2532000    1.0211951   -3.8553153   -3.8553153   -2.7432297  0.079746267   -3.8553153    1.1120856   520538 
 2533000    1.0215801   -3.8542552   -3.8542552   -2.7417503  0.088971126   -3.8542552    1.1125049   520538 
 2534000    1.0244996   -3.8572589   -3.8572589   -2.7415747  0.082021392   -3.8572589    1.1156842   520538 
 2535000    1.0210074   -3.8541393   -3.8541393   -2.7422581  0.087691155   -3.8541393    1.1118812   520538 
 2536000    1.0224904   -3.8557155   -3.8557155   -2.7422193  0.073760549   -3.8557155    1.1134962   520538 
 2537000    1.0214339   -3.8545136   -3.8545136   -2.7421679  0.072180508   -3.8545136    1.1123457   520538 
 2538000    1.0244607   -3.8571688   -3.8571688   -2.7415269  0.078557751   -3.8571688    1.1156419   520538 
 2539000    1.0222374   -3.8551339   -3.8551339   -2.7419133  0.064476119   -3.8551339    1.1132206   520538 
 2540000    1.0232566    -3.856468    -3.856468   -2.7421373  0.082294328    -3.856468    1.1143306   520538 
 2541000    1.0229609   -3.8558724   -3.8558724   -2.7418638  0.058112194   -3.8558724    1.1140086   520538 
 2542000    1.0223734   -3.8555829   -3.8555829   -2.7422141  0.074543028   -3.8555829    1.1133688   520538 
 2543000    1.0222941   -3.8554012   -3.8554012   -2.7421188  0.074473809   -3.8554012    1.1132824   520538 
 2544000    1.0221625   -3.8554329   -3.8554329   -2.7422938  0.075452059   -3.8554329    1.1131391   520538 
 2545000    1.0227792   -3.8548147   -3.8548147    -2.741004  0.083701566   -3.8548147    1.1138107   520538 
 2546000    1.0217581     -3.85409     -3.85409   -2.7413913  0.077779343     -3.85409    1.1126987   520538 
 2547000    1.0227647   -3.8552442   -3.8552442   -2.7414493  0.060025587   -3.8552442    1.1137949   520538 
 2548000    1.0212018   -3.8539245   -3.8539245   -2.7418315  0.065839086   -3.8539245    1.1120929   520538 
 2549000    1.0208738   -3.8538453   -3.8538453   -2.7421095  0.070998279   -3.8538453    1.1117358   520538 
 2550000    1.0202718   -3.8533053   -3.8533053   -2.7422251  0.053281118   -3.8533053    1.1110802   520538 
 2551000    1.0201014   -3.8527286   -3.8527286   -2.7418341   0.07334438   -3.8527286    1.1108945   520538 
 2552000     1.019582   -3.8520353   -3.8520353   -2.7417064  0.071067563   -3.8520353     1.110329   520538 
 2553000    1.0215537   -3.8538332   -3.8538332   -2.7413571  0.073982231   -3.8538332    1.1124761   520538 
 2554000    1.0229867     -3.85517     -3.85517   -2.7411333  0.077144037     -3.85517    1.1140367   520538 
 2555000    1.0214912   -3.8541372   -3.8541372    -2.741729  0.078387742   -3.8541372    1.1124081   520538 
 2556000    1.0218799   -3.8545078   -3.8545078   -2.7416764  0.071435873   -3.8545078    1.1128314   520538 
 2557000    1.0214821   -3.8547604   -3.8547604   -2.7423623  0.078565569   -3.8547604    1.1123981   520538 
 2558000    1.0211296   -3.8544203   -3.8544203   -2.7424059  0.083588124   -3.8544203    1.1120143   520538 
 2559000    1.0216234    -3.855512    -3.855512   -2.7429599  0.077358844    -3.855512    1.1125521   520538 
 2560000    1.0232305   -3.8562008   -3.8562008   -2.7418986  0.071426381   -3.8562008    1.1143022   520538 
 2561000    1.0218995   -3.8553058   -3.8553058   -2.7424532  0.072392063   -3.8553058    1.1128527   520538 
 2562000    1.0214166   -3.8553662   -3.8553662   -2.7430394  0.074258233   -3.8553662    1.1123268   520538 
 2563000    1.0199751   -3.8541009   -3.8541009   -2.7433438  0.080191085   -3.8541009    1.1107571   520538 
 2564000    1.0211056   -3.8553323   -3.8553323   -2.7433441  0.082803228   -3.8553323    1.1119882   520538 
 2565000    1.0233176   -3.8580969   -3.8580969   -2.7436999  0.088721818   -3.8580969     1.114397   520538 
 2566000    1.0213517   -3.8561471   -3.8561471   -2.7438909  0.084159552   -3.8561471    1.1122562   520538 
 2567000    1.0218793   -3.8562397   -3.8562397   -2.7434089  0.071759076   -3.8562397    1.1128308   520538 
 2568000     1.021522    -3.854765    -3.854765   -2.7423234  0.075130189    -3.854765    1.1124417   520538 
 2569000    1.0197945   -3.8523962   -3.8523962   -2.7418359  0.079593892   -3.8523962    1.1105604   520538 
 2570000    1.0202289    -3.853826    -3.853826   -2.7427926  0.079403326    -3.853826    1.1110334   520538 
 2571000    1.0205842   -3.8538494   -3.8538494   -2.7424291  0.068674198   -3.8538494    1.1114203   520538 
 2572000    1.0205354   -3.8548733   -3.8548733   -2.7435062  0.070827904   -3.8548733    1.1113672   520538 
 2573000    1.0202578     -3.85456     -3.85456   -2.7434951  0.086562923     -3.85456    1.1110649   520538 
 2574000    1.0216796    -3.856398    -3.856398   -2.7437847  0.069280478    -3.856398    1.1126133   520538 
 2575000    1.0216746   -3.8565799   -3.8565799   -2.7439721  0.073262723   -3.8565799    1.1126078   520538 
 2576000    1.0214499   -3.8557625   -3.8557625   -2.7433994  0.067933485   -3.8557625    1.1123631   520538 
 2577000    1.0205653   -3.8542514   -3.8542514   -2.7428517  0.080043369   -3.8542514    1.1113998   520538 
 2578000    1.0213693   -3.8558653   -3.8558653     -2.74359  0.059402977   -3.8558653    1.1122754   520538 
 2579000    1.0231507   -3.8575381   -3.8575381   -2.7433228  0.072448229   -3.8575381    1.1142153   520538 
 2580000    1.0185989   -3.8538752   -3.8538752   -2.7446169  0.064467533   -3.8538752    1.1092583   520538 
 2581000    1.0204367    -3.855805    -3.855805   -2.7445452  0.067052819    -3.855805    1.1112598   520538 
 2582000    1.0206931   -3.8563796   -3.8563796   -2.7448407  0.076884416   -3.8563796    1.1115389   520538 
 2583000     1.021916   -3.8560568   -3.8560568   -2.7431861  0.072756801   -3.8560568    1.1128707   520538 
 2584000    1.0232454   -3.8572266   -3.8572266   -2.7429083  0.092981069   -3.8572266    1.1143184   520538 
 2585000    1.0218619   -3.8562638   -3.8562638   -2.7434521  0.088783554   -3.8562638    1.1128117   520538 
 2586000     1.022618   -3.8570083   -3.8570083   -2.7433731  0.083821281   -3.8570083    1.1136352   520538 
 2587000    1.0225007   -3.8587212   -3.8587212   -2.7452138  0.087022003   -3.8587212    1.1135074   520538 
 2588000    1.0203986   -3.8560808   -3.8560808   -2.7448626  0.070898724   -3.8560808    1.1112183   520538 
 2589000    1.0205874   -3.8566433   -3.8566433   -2.7452195  0.071507875   -3.8566433    1.1114238   520538 
 2590000    1.0215851   -3.8570183   -3.8570183   -2.7445081  0.079078026   -3.8570183    1.1125103   520538 
 2591000    1.0216834   -3.8572444   -3.8572444   -2.7446271   0.06773811   -3.8572444    1.1126174   520538 
 2592000    1.0207421   -3.8571865   -3.8571865   -2.7455942   0.07335488   -3.8571865    1.1115923   520538 
 2593000    1.0201693   -3.8563202   -3.8563202   -2.7453517  0.074796187   -3.8563202    1.1109685   520538 
 2594000    1.0211224   -3.8573538   -3.8573538   -2.7453474  0.073023431   -3.8573538    1.1120064   520538 
 2595000    1.0214447    -3.856782    -3.856782   -2.7444245  0.073309155    -3.856782    1.1123574   520538 
 2596000    1.0199804   -3.8552681   -3.8552681   -2.7445053  0.068098152   -3.8552681    1.1107628   520538 
 2597000    1.0224699   -3.8580705   -3.8580705   -2.7445966  0.071381424   -3.8580705    1.1134739   520538 
 2598000     1.020218   -3.8560017   -3.8560017   -2.7449802  0.076462867   -3.8560017    1.1110216   520538 
 2599000    1.0230836   -3.8596323   -3.8596323   -2.7454901  0.066764954   -3.8596323    1.1141422   520538 
 2600000    1.0200738   -3.8563437   -3.8563437   -2.7454792   0.07988312   -3.8563437    1.1108645   520538 
 2601000    1.0219941   -3.8588665   -3.8588665   -2.7459108  0.065349967   -3.8588665    1.1129557   520538 
 2602000    1.0223221   -3.8599662   -3.8599662   -2.7466533  0.080676981   -3.8599662    1.1133129   520538 
 2603000    1.0203746   -3.8572474   -3.8572474   -2.7460554  0.069174677   -3.8572474     1.111192   520538 
 2604000    1.0219968   -3.8595522   -3.8595522   -2.7465935  0.077380444   -3.8595522    1.1129587   520538 
 2605000    1.0233582   -3.8616989   -3.8616989   -2.7472577  0.073470854   -3.8616989    1.1144412   520538 
 2606000    1.0223458   -3.8597214   -3.8597214   -2.7463827  0.074957419   -3.8597214    1.1133387   520538 
 2607000    1.0218784   -3.8587989   -3.8587989   -2.7459692  0.080351813   -3.8587989    1.1128297   520538 
 2608000    1.0226105   -3.8593567   -3.8593567   -2.7457298  0.084421599   -3.8593567    1.1136269   520538 
 2609000    1.0209694   -3.8578629   -3.8578629   -2.7460231  0.090543044   -3.8578629    1.1118398   520538 
 2610000    1.0229651   -3.8600198   -3.8600198   -2.7460066  0.072615126   -3.8600198    1.1140132   520538 
 2611000    1.0215376   -3.8591732   -3.8591732   -2.7467147  0.069116084   -3.8591732    1.1124585   520538 
 2612000    1.0220893   -3.8602238   -3.8602238   -2.7471643  0.083890821   -3.8602238    1.1130595   520538 
 2613000    1.0200785   -3.8583967   -3.8583967   -2.7475271  0.083642777   -3.8583967    1.1108696   520538 
 2614000    1.0206213   -3.8586636   -3.8586636   -2.7472029  0.071213768   -3.8586636    1.1114608   520538 
 2615000    1.0218798   -3.8605278   -3.8605278   -2.7476965  0.078926185   -3.8605278    1.1128313   520538 
 2616000    1.0220097   -3.8596403   -3.8596403   -2.7466676   0.08624149   -3.8596403    1.1129727   520538 
 2617000     1.020478   -3.8585151   -3.8585151   -2.7472105  0.078662934   -3.8585151    1.1113047   520538 
 2618000    1.0219874   -3.8601991   -3.8601991   -2.7472506  0.075810102   -3.8601991    1.1129484   520538 
 2619000    1.0224276   -3.8604858   -3.8604858    -2.747058  0.078862753   -3.8604858    1.1134279   520538 
 2620000    1.0216892   -3.8591217   -3.8591217    -2.746498     0.087563   -3.8591217    1.1126237   520538 
 2621000    1.0222123   -3.8595914   -3.8595914    -2.746398  0.087872009   -3.8595914    1.1131933   520538 
 2622000    1.0212374   -3.8587729   -3.8587729   -2.7466412  0.077491626   -3.8587729    1.1121317   520538 
 2623000    1.0204684   -3.8586189   -3.8586189   -2.7473247    0.0702593   -3.8586189    1.1112942   520538 
 2624000     1.021179   -3.8599723   -3.8599723   -2.7479042  0.072591295   -3.8599723    1.1120681   520538 
 2625000    1.0194896    -3.858746    -3.858746   -2.7485176  0.080099383    -3.858746    1.1102284   520538 
 2626000    1.0221253    -3.861251    -3.861251   -2.7481523  0.079714588    -3.861251    1.1130987   520538 
 2627000    1.0203631   -3.8592044   -3.8592044   -2.7480249  0.078232034   -3.8592044    1.1111795   520538 
 2628000    1.0216848    -3.861441    -3.861441   -2.7488221  0.070351665    -3.861441    1.1126189   520538 
 2629000    1.0199538   -3.8601081   -3.8601081   -2.7493743  0.072774848   -3.8601081    1.1107338   520538 
 2630000    1.0218584     -3.86139     -3.86139    -2.748582  0.070639917     -3.86139     1.112808   520538 
 2631000     1.021257   -3.8601496   -3.8601496   -2.7479966  0.078102709   -3.8601496     1.112153   520538 
 2632000    1.0220703   -3.8606182   -3.8606182   -2.7475795  0.078048541   -3.8606182    1.1130388   520538 
 2633000    1.0218708   -3.8604804   -3.8604804    -2.747659  0.076555445   -3.8604804    1.1128214   520538 
 2634000    1.0229918    -3.862046    -3.862046   -2.7480038  0.069432495    -3.862046    1.1140422   520538 
 2635000    1.0212179   -3.8602685   -3.8602685   -2.7481581  0.080677434   -3.8602685    1.1121104   520538 
 2636000    1.0218571     -3.86154     -3.86154   -2.7487334  0.073567845     -3.86154    1.1128066   520538 
 2637000    1.0209709   -3.8603261   -3.8603261   -2.7484847  0.070726504   -3.8603261    1.1118415   520538 
 2638000    1.0217217   -3.8609055   -3.8609055   -2.7482465  0.072336861   -3.8609055     1.112659   520538 
 2639000    1.0215512   -3.8612649   -3.8612649   -2.7487915  0.078734355   -3.8612649    1.1124734   520538 
 2640000     1.021711     -3.86098     -3.86098   -2.7483326  0.068541428     -3.86098    1.1126474   520538 
 2641000    1.0206925   -3.8597868   -3.8597868   -2.7482485  0.084499389   -3.8597868    1.1115383   520538 
 2642000    1.0213284   -3.8605535   -3.8605535   -2.7483227  0.077262899   -3.8605535    1.1122308   520538 
 2643000    1.0208714   -3.8598104   -3.8598104   -2.7480773  0.075604248   -3.8598104    1.1117331   520538 
 2644000    1.0217979   -3.8613794   -3.8613794   -2.7486373  0.065557688   -3.8613794    1.1127421   520538 
 2645000    1.0214003   -3.8606827   -3.8606827   -2.7483736   0.08494875   -3.8606827    1.1123091   520538 
 2646000    1.0218296   -3.8615908   -3.8615908   -2.7488142  0.086083792   -3.8615908    1.1127766   520538 
 2647000      1.02094   -3.8607893   -3.8607893   -2.7489815  0.074125092   -3.8607893    1.1118079   520538 
 2648000    1.0217279   -3.8619781   -3.8619781   -2.7493122  0.076248482   -3.8619781    1.1126659   520538 
 2649000    1.0227858   -3.8623432   -3.8623432   -2.7485253  0.090086589   -3.8623432    1.1138179   520538 
 2650000     1.022631   -3.8624348   -3.8624348   -2.7487855  0.073856238   -3.8624348    1.1136493   520538 
 2651000    1.0206519     -3.86042     -3.86042   -2.7489259  0.080642078     -3.86042    1.1114941   520538 
 2652000    1.0232048    -3.862072    -3.862072   -2.7477978  0.083638842    -3.862072    1.1142742   520538 
 2653000    1.0212018   -3.8602838   -3.8602838   -2.7481909   0.07190145   -3.8602838    1.1120929   520538 
 2654000    1.0215148    -3.860827    -3.860827   -2.7483932  0.083096298    -3.860827    1.1124338   520538 
 2655000     1.019263   -3.8583337   -3.8583337   -2.7483522  0.079531405   -3.8583337    1.1099815   520538 
 2656000    1.0206816   -3.8595393   -3.8595393   -2.7480129  0.071046422   -3.8595393    1.1115264   520538 
 2657000     1.020486   -3.8589905   -3.8589905   -2.7476771  0.068486339   -3.8589905    1.1113134   520538 
 2658000    1.0199565   -3.8589065   -3.8589065   -2.7481696  0.085135886   -3.8589065    1.1107368   520538 
 2659000    1.0213312   -3.8605039   -3.8605039   -2.7482701  0.062097189   -3.8605039    1.1122338   520538 
 2660000    1.0195458   -3.8590996   -3.8590996   -2.7488101  0.069449275   -3.8590996    1.1102895   520538 
 2661000    1.0208432   -3.8606585   -3.8606585   -2.7489561  0.075362521   -3.8606585    1.1117024   520538 
 2662000    1.0219086   -3.8621635   -3.8621635   -2.7493009  0.071459729   -3.8621635    1.1128626   520538 
 2663000    1.0215932   -3.8616123   -3.8616123   -2.7490931  0.082166108   -3.8616123    1.1125191   520538 
 2664000    1.0189207   -3.8595792   -3.8595792   -2.7499704  0.060005509   -3.8595792    1.1096088   520538 
 2665000     1.021451   -3.8625971   -3.8625971   -2.7502328  0.081352235   -3.8625971    1.1123643   520538 
 2666000    1.0205547   -3.8621459   -3.8621459   -2.7507577  0.090645823   -3.8621459    1.1113882   520538 
 2667000    1.0195109   -3.8610377   -3.8610377   -2.7507862  0.064589221   -3.8610377    1.1102515   520538 
 2668000    1.0208852   -3.8622495   -3.8622495   -2.7505013  0.086208173   -3.8622495    1.1117482   520538 
 2669000    1.0203392   -3.8620106   -3.8620106    -2.750857  0.072465924   -3.8620106    1.1111536   520538 
 2670000    1.0209356   -3.8619074   -3.8619074   -2.7501043  0.068209486   -3.8619074    1.1118031   520538 
 2671000     1.018678   -3.8597497   -3.8597497   -2.7504052  0.066361056   -3.8597497    1.1093445   520538 
 2672000    1.0204195   -3.8611874   -3.8611874   -2.7499465  0.064285641   -3.8611874    1.1112409   520538 
 2673000    1.0219253   -3.8630756   -3.8630756   -2.7501947  0.078423454   -3.8630756    1.1128809   520538 
 2674000    1.0217932   -3.8631714   -3.8631714   -2.7504345  0.067898973   -3.8631714     1.112737   520538 
 2675000    1.0199886   -3.8614695   -3.8614695   -2.7506977  0.068142098   -3.8614695    1.1107717   520538 
 2676000    1.0204514   -3.8615224   -3.8615224   -2.7502467  0.068968233   -3.8615224    1.1112757   520538 
 2677000    1.0203126   -3.8615914   -3.8615914   -2.7504668  0.075658282   -3.8615914    1.1111246   520538 
 2678000    1.0187027   -3.8597755   -3.8597755   -2.7504041  0.074704376   -3.8597755    1.1093714   520538 
 2679000    1.0187903   -3.8588229   -3.8588229   -2.7493562   0.05552532   -3.8588229    1.1094667   520538 
 2680000    1.0194581    -3.859889    -3.859889    -2.749695  0.061071256    -3.859889    1.1101941   520538 
 2681000    1.0200075   -3.8613222   -3.8613222   -2.7505299  0.063747849   -3.8613222    1.1107923   520538 
 2682000     1.019416   -3.8603219   -3.8603219   -2.7501737  0.087718066   -3.8603219    1.1101481   520538 
 2683000    1.0209405   -3.8620997   -3.8620997   -2.7502913  0.082346538   -3.8620997    1.1118084   520538 
 2684000    1.0199638   -3.8610825   -3.8610825   -2.7503377  0.075581422   -3.8610825    1.1107447   520538 
 2685000    1.0208231   -3.8618293   -3.8618293   -2.7501488  0.071918761   -3.8618293    1.1116805   520538 
 2686000    1.0199667   -3.8597799   -3.8597799   -2.7490321  0.074903679   -3.8597799    1.1107478   520538 
 2687000    1.0201431   -3.8607772   -3.8607772   -2.7498373   0.07683218   -3.8607772    1.1109399   520538 
 2688000    1.0188256   -3.8602282   -3.8602282    -2.750723  0.056330553   -3.8602282    1.1095053   520538 
 2689000    1.0215022   -3.8625545   -3.8625545   -2.7501345  0.073080678   -3.8625545      1.11242   520538 
 2690000    1.0209185   -3.8619253   -3.8619253   -2.7501409  0.076135065   -3.8619253    1.1117844   520538 
 2691000    1.0223343   -3.8639022   -3.8639022    -2.750576  0.081747868   -3.8639022    1.1133262   520538 
 2692000    1.0198507   -3.8617084   -3.8617084   -2.7510868  0.086415865   -3.8617084    1.1106216   520538 
 2693000    1.0211614   -3.8619517   -3.8619517   -2.7499028  0.066446261   -3.8619517    1.1120489   520538 
 2694000    1.0220981   -3.8637641   -3.8637641   -2.7506952  0.072495293   -3.8637641     1.113069   520538 
 2695000    1.0220009    -3.863935    -3.863935   -2.7509718  0.079520054    -3.863935    1.1129632   520538 
 2696000    1.0217729   -3.8633805   -3.8633805   -2.7506657  0.073890315   -3.8633805    1.1127149   520538 
 2697000    1.0220605   -3.8636892   -3.8636892   -2.7506612  0.074768435   -3.8636892     1.113028   520538 
 2698000    1.0213069   -3.8636316   -3.8636316   -2.7514243  0.075778719   -3.8636316    1.1122074   520538 
 2699000    1.0212518   -3.8635932   -3.8635932   -2.7514459  0.066242067   -3.8635932    1.1121473   520538 
 2700000     1.018837   -3.8613195   -3.8613195   -2.7518018  0.078465301   -3.8613195    1.1095177   520538 
 2701000    1.0190116   -3.8613385   -3.8613385   -2.7516307  0.072540147   -3.8613385    1.1097078   520538 
 2702000    1.0193764   -3.8614724   -3.8614724   -2.7513674  0.077047778   -3.8614724     1.110105   520538 
 2703000    1.0201386   -3.8631256   -3.8631256   -2.7521905   0.08038345   -3.8631256    1.1109351   520538 
 2704000     1.019586   -3.8637227   -3.8637227   -2.7533893    0.0757638   -3.8637227    1.1103333   520538 
 2705000    1.0203028   -3.8642047   -3.8642047   -2.7530908  0.076388444   -3.8642047    1.1111139   520538 
 2706000     1.018145   -3.8632467   -3.8632467   -2.7544826  0.055451484   -3.8632467    1.1087641   520538 
 2707000    1.0189414   -3.8633214   -3.8633214   -2.7536901  0.072384992   -3.8633214    1.1096313   520538 
 2708000    1.0176466   -3.8615001   -3.8615001   -2.7532788  0.066404652   -3.8615001    1.1082213   520538 
 2709000    1.0189123   -3.8630891   -3.8630891   -2.7534895  0.067536892   -3.8630891    1.1095996   520538 
 2710000    1.0179456   -3.8614453   -3.8614453   -2.7528984  0.073504882   -3.8614453    1.1085469   520538 
 2711000    1.0183693   -3.8608679   -3.8608679   -2.7518596  0.076410275   -3.8608679    1.1090083   520538 
 2712000    1.0187629   -3.8623092   -3.8623092   -2.7528722  0.068663247   -3.8623092     1.109437   520538 
 2713000    1.0193288   -3.8620318   -3.8620318   -2.7519786  0.075531774   -3.8620318    1.1100533   520538 
 2714000    1.0213258    -3.864946    -3.864946   -2.7527181  0.075028933    -3.864946    1.1122279   520538 
 2715000    1.0198261   -3.8627334   -3.8627334   -2.7521387  0.068937579   -3.8627334    1.1105948   520538 
 2716000    1.0194331   -3.8630116   -3.8630116   -2.7528448  0.065866734   -3.8630116    1.1101668   520538 
 2717000    1.0225407   -3.8658325   -3.8658325   -2.7522815  0.053384893   -3.8658325    1.1135509   520538 
 2718000    1.0194413   -3.8631924   -3.8631924   -2.7530167   0.07223773   -3.8631924    1.1101757   520538 
 2719000    1.0190264   -3.8623713   -3.8623713   -2.7526473  0.085751386   -3.8623713    1.1097239   520538 
 2720000    1.0173251   -3.8606232   -3.8606232    -2.752752  0.084140171   -3.8606232    1.1078712   520538 
 2721000    1.0173914   -3.8609645   -3.8609645   -2.7530212  0.062469648   -3.8609645    1.1079434   520538 
 2722000    1.0178997   -3.8612084   -3.8612084   -2.7527115  0.080749668   -3.8612084    1.1084969   520538 
 2723000    1.0178682   -3.8611933   -3.8611933   -2.7527307  0.065779185   -3.8611933    1.1084626   520538 
 2724000    1.0165703   -3.8607309   -3.8607309   -2.7536817  0.072834306   -3.8607309    1.1070492   520538 
 2725000     1.018681   -3.8623485   -3.8623485   -2.7530007  0.072579836   -3.8623485    1.1093477   520538 
 2726000    1.0173391   -3.8614471   -3.8614471   -2.7535607  0.070066976   -3.8614471    1.1078864   520538 
 2727000    1.0187499   -3.8632038   -3.8632038   -2.7537811  0.057444994   -3.8632038    1.1094228   520538 
 2728000    1.0184325   -3.8619454   -3.8619454   -2.7528683  0.065016267   -3.8619454    1.1090771   520538 
 2729000    1.0193587   -3.8628611   -3.8628611   -2.7527753  0.067416771   -3.8628611    1.1100858   520538 
 2730000    1.0203452   -3.8635364   -3.8635364   -2.7523763  0.058710564   -3.8635364      1.11116   520538 
 2731000    1.0187153   -3.8632146   -3.8632146   -2.7538295  0.082690283   -3.8632146    1.1093851   520538 
 2732000    1.0196013   -3.8654053   -3.8654053   -2.7550554  0.067058573   -3.8654053      1.11035   520538 
 2733000    1.0193043    -3.863831    -3.863831   -2.7538044  0.081294587    -3.863831    1.1100266   520538 
 2734000    1.0191716   -3.8646919   -3.8646919   -2.7548099  0.087376881   -3.8646919     1.109882   520538 
 2735000    1.0192994   -3.8655594   -3.8655594   -2.7555381  0.079823617   -3.8655594    1.1100212   520538 
 2736000     1.017119    -3.862515    -3.862515   -2.7548683  0.077663941    -3.862515    1.1076467   520538 
 2737000    1.0198547   -3.8655285   -3.8655285   -2.7549025  0.086549835   -3.8655285    1.1106259   520538 
 2738000     1.020594   -3.8661014   -3.8661014   -2.7546704  0.076983276   -3.8661014     1.111431   520538 
 2739000    1.0175007   -3.8636264   -3.8636264   -2.7555639  0.067053602   -3.8636264    1.1080624   520538 
 2740000    1.0185708   -3.8652633   -3.8652633   -2.7560356  0.065365938   -3.8652633    1.1092277   520538 
 2741000    1.0180883   -3.8643082   -3.8643082   -2.7556059  0.064701376   -3.8643082    1.1087023   520538 
 2742000     1.019558   -3.8651319   -3.8651319   -2.7548291  0.066607101   -3.8651319    1.1103028   520538 
 2743000    1.0177348   -3.8636105   -3.8636105   -2.7552931   0.06896074   -3.8636105    1.1083174   520538 
 2744000    1.0175823   -3.8636326   -3.8636326   -2.7554812  0.056174378   -3.8636326    1.1081513   520538 
 2745000     1.018713   -3.8649668   -3.8649668   -2.7555842  0.059906008   -3.8649668    1.1093826   520538 
 2746000    1.0175811   -3.8630648   -3.8630648   -2.7549149  0.068657374   -3.8630648    1.1081499   520538 
 2747000    1.0185585   -3.8630654   -3.8630654    -2.753851  0.045867188   -3.8630654    1.1092143   520538 
 2748000    1.0194782   -3.8635767   -3.8635767   -2.7533608  0.072834836   -3.8635767    1.1102159   520538 
 2749000    1.0202501   -3.8639704   -3.8639704   -2.7529139  0.075491089   -3.8639704    1.1110565   520538 
 2750000    1.0213339   -3.8644322   -3.8644322   -2.7521955  0.082640496   -3.8644322    1.1122368   520538 
 2751000    1.0195343   -3.8637814   -3.8637814   -2.7535043  0.075928785   -3.8637814     1.110277   520538 
 2752000    1.0202319   -3.8649878   -3.8649878   -2.7539511  0.071119358   -3.8649878    1.1110366   520538 
 2753000     1.020674   -3.8655941   -3.8655941    -2.754076  0.080478174   -3.8655941    1.1115181   520538 
 2754000     1.018034   -3.8635265   -3.8635265   -2.7548833  0.072561066   -3.8635265    1.1086432   520538 
 2755000    1.0205352   -3.8665268   -3.8665268   -2.7551597  0.075684905   -3.8665268     1.111367   520538 
 2756000    1.0179712   -3.8635262   -3.8635262   -2.7549514  0.080976735   -3.8635262    1.1085748   520538 
 2757000    1.0181626   -3.8634394   -3.8634394   -2.7546561  0.070367156   -3.8634394    1.1087833   520538 
 2758000    1.0205717   -3.8647787   -3.8647787   -2.7533719   0.07891522   -3.8647787    1.1114067   520538 
 2759000    1.0208754    -3.865081    -3.865081   -2.7533436  0.093484927    -3.865081    1.1117375   520538 
 2760000    1.0194272   -3.8635919   -3.8635919   -2.7534315  0.073166946   -3.8635919    1.1101604   520538 
 2761000    1.0213866   -3.8659247   -3.8659247   -2.7536306  0.081666828   -3.8659247    1.1122941   520538 
 2762000     1.020131   -3.8652652   -3.8652652   -2.7543384  0.050922974   -3.8652652    1.1109268   520538 
 2763000    1.0196606   -3.8644105   -3.8644105    -2.753996  0.049654991   -3.8644105    1.1104145   520538 
 2764000    1.0191339   -3.8641854   -3.8641854   -2.7543444  0.091420286   -3.8641854     1.109841   520538 
 2765000    1.0178023   -3.8628807   -3.8628807   -2.7544898  0.073560472   -3.8628807    1.1083908   520538 
 2766000    1.0185467   -3.8635966   -3.8635966   -2.7543951  0.066695924   -3.8635966    1.1092015   520538 
 2767000    1.0197277   -3.8642351   -3.8642351   -2.7537474  0.099977217   -3.8642351    1.1104876   520538 
 2768000    1.0187331   -3.8631181   -3.8631181   -2.7537136  0.069795522   -3.8631181    1.1094045   520538 
 2769000    1.0185641   -3.8634936   -3.8634936   -2.7542732  0.073777721   -3.8634936    1.1092204   520538 
 2770000    1.0192321   -3.8638562   -3.8638562   -2.7539083  0.063762212   -3.8638562    1.1099479   520538 
 2771000     1.018979   -3.8646563   -3.8646563    -2.754984  0.079386236   -3.8646563    1.1096723   520538 
 2772000    1.0176398   -3.8633399   -3.8633399   -2.7551259  0.068155739   -3.8633399    1.1082139   520538 
 2773000    1.0186913   -3.8639584   -3.8639584   -2.7545995  0.087281371   -3.8639584     1.109359   520538 
 2774000    1.0201414   -3.8653993   -3.8653993   -2.7544612  0.082283879   -3.8653993    1.1109381   520538 
 2775000    1.0195933   -3.8654979   -3.8654979   -2.7551567  0.079562197   -3.8654979    1.1103412   520538 
 2776000    1.0203893   -3.8655891   -3.8655891    -2.754381  0.065174022   -3.8655891    1.1112081   520538 
 2777000    1.0203271   -3.8664374   -3.8664374    -2.755297  0.081494953   -3.8664374    1.1111403   520538 
 2778000    1.0211117   -3.8669308   -3.8669308    -2.754936  0.072303122   -3.8669308    1.1119948   520538 
 2779000    1.0210266   -3.8668603   -3.8668603   -2.7549582   0.08717631   -3.8668603    1.1119021   520538 
 2780000    1.0193597   -3.8660761   -3.8660761   -2.7559893  0.078671006   -3.8660761    1.1100869   520538 
 2781000    1.0176702    -3.864317    -3.864317     -2.75607   0.07331697    -3.864317     1.108247   520538 
 2782000    1.0178971   -3.8651635   -3.8651635   -2.7566694  0.075828534   -3.8651635    1.1084941   520538 
 2783000    1.0179577   -3.8656366   -3.8656366   -2.7570766  0.079292319   -3.8656366      1.10856   520538 
 2784000    1.0187959   -3.8664588   -3.8664588   -2.7569858  0.071969573   -3.8664588    1.1094729   520538 
 2785000    1.0193996   -3.8674372   -3.8674372   -2.7573069  0.067132112   -3.8674372    1.1101303   520538 
 2786000    1.0186661   -3.8672236   -3.8672236    -2.757892  0.072684322   -3.8672236    1.1093316   520538 
 2787000    1.0179739   -3.8661417   -3.8661417    -2.757564  0.069134933   -3.8661417    1.1085777   520538 
 2788000    1.0152922   -3.8633713   -3.8633713    -2.757714   0.07151465   -3.8633713    1.1056573   520538 
 2789000    1.0171152   -3.8657047   -3.8657047   -2.7580621   0.07147683   -3.8657047    1.1076426   520538 
 2790000    1.0199098   -3.8693608   -3.8693608   -2.7586749   0.06659423   -3.8693608    1.1106859   520538 
 2791000    1.0190062   -3.8678807   -3.8678807   -2.7581789  0.065173736   -3.8678807    1.1097019   520538 
 2792000    1.0184832   -3.8674298   -3.8674298   -2.7582974  0.078118637   -3.8674298    1.1091324   520538 
 2793000    1.0187705   -3.8671396   -3.8671396   -2.7576944   0.07734069   -3.8671396    1.1094452   520538 
 2794000    1.0189152   -3.8668056   -3.8668056   -2.7572028  0.068115236   -3.8668056    1.1096028   520538 
 2795000    1.0198455   -3.8676052   -3.8676052   -2.7569893  0.075524722   -3.8676052    1.1106159   520538 
 2796000    1.0181927   -3.8664361   -3.8664361   -2.7576201  0.073862046   -3.8664361     1.108816   520538 
 2797000    1.0208011   -3.8692503   -3.8692503   -2.7575937  0.077573382   -3.8692503    1.1116566   520538 
 2798000    1.0186641   -3.8669704   -3.8669704   -2.7576411   0.07535488   -3.8669704    1.1093293   520538 
 2799000    1.0188895   -3.8670047   -3.8670047   -2.7574299  0.073450526   -3.8670047    1.1095748   520538 
 2800000    1.0184043   -3.8662351   -3.8662351   -2.7571887  0.059194043   -3.8662351    1.1090464   520538 
 2801000    1.0167191   -3.8632036   -3.8632036   -2.7559923  0.076277042   -3.8632036    1.1072112   520538 
 2802000    1.0191531   -3.8652177   -3.8652177   -2.7553559  0.076327228   -3.8652177    1.1098619   520538 
 2803000    1.0176283   -3.8640382   -3.8640382   -2.7558369  0.077301039   -3.8640382    1.1082013   520538 
 2804000    1.0159466   -3.8633426   -3.8633426   -2.7569726  0.070570523   -3.8633426      1.10637   520538 
 2805000    1.0172533   -3.8641564   -3.8641564   -2.7563635  0.065042185   -3.8641564    1.1077929   520538 
 2806000    1.0166619    -3.862937    -3.862937    -2.755788  0.075377625    -3.862937     1.107149   520538 
 2807000    1.0173129   -3.8632653   -3.8632653   -2.7554075  0.058055924   -3.8632653    1.1078578   520538 
 2808000    1.0179617   -3.8646641   -3.8646641   -2.7560997  0.071352321   -3.8646641    1.1085645   520538 
 2809000    1.0173808    -3.865354    -3.865354   -2.7574221  0.075692829    -3.865354    1.1079318   520538 
 2810000    1.0161639   -3.8648672   -3.8648672   -2.7582605  0.071155999   -3.8648672    1.1066066   520538 
 2811000    1.0178606   -3.8663109   -3.8663109   -2.7578566  0.087933369   -3.8663109    1.1084543   520538 
 2812000    1.0190458   -3.8677976   -3.8677976   -2.7580525  0.064960163   -3.8677976     1.109745   520538 
 2813000    1.0184302   -3.8672098   -3.8672098   -2.7581352  0.074771207   -3.8672098    1.1090746   520538 
 2814000    1.0188484   -3.8673577   -3.8673577   -2.7578276  0.071038447   -3.8673577    1.1095301   520538 
 2815000    1.0211953    -3.869233    -3.869233   -2.7571471  0.073365519    -3.869233    1.1120859   520538 
 2816000     1.020558   -3.8696183   -3.8696183   -2.7582265  0.081147585   -3.8696183    1.1113918   520538 
 2817000    1.0221329   -3.8718141   -3.8718141   -2.7587072  0.072743604   -3.8718141    1.1131069   520538 
 2818000    1.0192135   -3.8692445   -3.8692445   -2.7593168  0.069188966   -3.8692445    1.1099277   520538 
 2819000    1.0199847    -3.870348    -3.870348   -2.7595805  0.076561355    -3.870348    1.1107675   520538 
 2820000     1.020374   -3.8706017   -3.8706017   -2.7594103  0.085142703   -3.8706017    1.1111915   520538 
 2821000    1.0192111   -3.8694995   -3.8694995   -2.7595744  0.082801234   -3.8694995    1.1099251   520538 
 2822000    1.0205838   -3.8706417   -3.8706417   -2.7592217  0.090158801   -3.8706417    1.1114199   520538 
 2823000    1.0193454   -3.8698584   -3.8698584   -2.7597871  0.087136946   -3.8698584    1.1100713   520538 
 2824000    1.0200839   -3.8707839   -3.8707839   -2.7599084  0.072098535   -3.8707839    1.1108755   520538 
 2825000    1.0193564   -3.8699893   -3.8699893    -2.759906  0.069203089   -3.8699893    1.1100833   520538 
 2826000    1.0196139    -3.871022    -3.871022   -2.7606583  0.073595776    -3.871022    1.1103637   520538 
 2827000    1.0181411   -3.8691958   -3.8691958   -2.7604359   0.05939678   -3.8691958    1.1087599   520538 
 2828000    1.0173224   -3.8676088   -3.8676088   -2.7597405  0.062790104   -3.8676088    1.1078683   520538 
 2829000    1.0175357   -3.8672813   -3.8672813   -2.7591809  0.069967652   -3.8672813    1.1081005   520538 
 2830000    1.0188212   -3.8684261   -3.8684261   -2.7589256  0.075080904   -3.8684261    1.1095005   520538 
 2831000    1.0173132    -3.867483    -3.867483   -2.7596248  0.075469984    -3.867483    1.1078582   520538 
 2832000    1.0176093   -3.8682815   -3.8682815   -2.7601007  0.075171142   -3.8682815    1.1081807   520538 
 2833000    1.0158115   -3.8659256   -3.8659256   -2.7597028  0.066378451   -3.8659256    1.1062228   520538 
 2834000    1.0176793   -3.8674464   -3.8674464   -2.7591895   0.07210223   -3.8674464    1.1082569   520538 
 2835000     1.018787   -3.8685843   -3.8685843   -2.7591212  0.065693475   -3.8685843    1.1094632   520538 
 2836000     1.018348   -3.8683439   -3.8683439   -2.7593588  0.064347632   -3.8683439    1.1089851   520538 
 2837000    1.0171659   -3.8668434   -3.8668434   -2.7591456  0.071446175   -3.8668434    1.1076978   520538 
 2838000    1.0187695   -3.8692831   -3.8692831   -2.7598389  0.064791765   -3.8692831    1.1094442   520538 
 2839000    1.0192107   -3.8697497   -3.8697497   -2.7598251   0.07008682   -3.8697497    1.1099246   520538 
 2840000    1.0192954   -3.8692489   -3.8692489   -2.7592321  0.079057125   -3.8692489    1.1100168   520538 
 2841000    1.0192725   -3.8694556   -3.8694556   -2.7594637  0.076208799   -3.8694556    1.1099919   520538 
 2842000    1.0181661   -3.8683013   -3.8683013   -2.7595143  0.081202642   -3.8683013     1.108787   520538 
 2843000    1.0183045   -3.8692787   -3.8692787    -2.760341  0.077048045   -3.8692787    1.1089377   520538 
 2844000    1.0187782   -3.8691856   -3.8691856    -2.759732  0.081647743   -3.8691856    1.1094536   520538 
 2845000    1.0182825   -3.8678749   -3.8678749    -2.758961  0.089929362   -3.8678749    1.1089138   520538 
 2846000    1.0187251   -3.8674668   -3.8674668    -2.758071  0.091448167   -3.8674668    1.1093958   520538 
 2847000    1.0183521   -3.8678207   -3.8678207   -2.7588311  0.066805972   -3.8678207    1.1089896   520538 
 2848000    1.0182246   -3.8675023   -3.8675023   -2.7586515  0.068396778   -3.8675023    1.1088508   520538 
 2849000    1.0176588   -3.8660212   -3.8660212   -2.7577866  0.071545475   -3.8660212    1.1082346   520538 
 2850000    1.0176153   -3.8658786   -3.8658786   -2.7576914  0.071066848   -3.8658786    1.1081872   520538 
 2851000    1.0179715   -3.8667889   -3.8667889   -2.7582138  0.076914521   -3.8667889    1.1085751   520538 
 2852000    1.0167314   -3.8656172   -3.8656172   -2.7583925  0.065494179   -3.8656172    1.1072247   520538 
 2853000    1.0187558   -3.8679416   -3.8679416   -2.7585123  0.070907087   -3.8679416    1.1094292   520538 
 2854000    1.0169104   -3.8661005   -3.8661005   -2.7586809  0.077507696   -3.8661005    1.1074196   520538 
 2855000    1.0189989   -3.8683248   -3.8683248   -2.7586309  0.077695735   -3.8683248    1.1096939   520538 
 2856000    1.0178841   -3.8668879   -3.8668879   -2.7584079  0.066550906   -3.8668879    1.1084799   520538 
 2857000    1.0175019   -3.8666242   -3.8666242   -2.7585605  0.073648866   -3.8666242    1.1080637   520538 
 2858000    1.0187144    -3.868799    -3.868799   -2.7594149  0.083118798    -3.868799    1.1093841   520538 
 2859000    1.0209828   -3.8702746   -3.8702746   -2.7584203  0.082951265   -3.8702746    1.1118544   520538 
 2860000     1.019052   -3.8681702   -3.8681702   -2.7584183  0.083682275   -3.8681702    1.1097518   520538 
 2861000     1.018474   -3.8673218   -3.8673218   -2.7581995  0.076788702   -3.8673218    1.1091223   520538 
 2862000     1.020422   -3.8693181   -3.8693181   -2.7580744   0.07497981   -3.8693181    1.1112437   520538 
 2863000    1.0199866   -3.8688501   -3.8688501   -2.7580806  0.090147166   -3.8688501    1.1107695   520538 
 2864000    1.0208963   -3.8697196   -3.8697196   -2.7579594  0.079289268   -3.8697196    1.1117602   520538 
 2865000    1.0182767   -3.8681577   -3.8681577   -2.7592502  0.063742051   -3.8681577    1.1089075   520538 
 2866000    1.0180645   -3.8687026   -3.8687026   -2.7600262  0.066229532   -3.8687026    1.1086764   520538 
 2867000    1.0184908   -3.8690218   -3.8690218   -2.7598813  0.076307761   -3.8690218    1.1091406   520538 
 2868000    1.0176165   -3.8681956   -3.8681956   -2.7600071  0.070540723   -3.8681956    1.1081885   520538 
 2869000    1.0181242   -3.8679647   -3.8679647   -2.7592232  0.063901597   -3.8679647    1.1087414   520538 
 2870000    1.0161792   -3.8663302   -3.8663302    -2.759707  0.067870947   -3.8663302    1.1066232   520538 
 2871000    1.0149419   -3.8650141   -3.8650141   -2.7597383  0.060765707   -3.8650141    1.1052758   520538 
 2872000     1.016712   -3.8678283   -3.8678283   -2.7606248   0.06765113   -3.8678283    1.1072036   520538 
 2873000    1.0186291   -3.8690643   -3.8690643   -2.7597731  0.062198885   -3.8690643    1.1092912   520538 
 2874000    1.0171138   -3.8685819   -3.8685819   -2.7609409  0.055846171   -3.8685819     1.107641   520538 
 2875000    1.0167024   -3.8671836   -3.8671836   -2.7599906  0.077789744   -3.8671836     1.107193   520538 
 2876000    1.0193561   -3.8701446   -3.8701446   -2.7600616  0.071730816   -3.8701446     1.110083   520538 
 2877000    1.0183588   -3.8693925   -3.8693925   -2.7603957  0.058035316   -3.8693925    1.1089968   520538 
 2878000     1.018984   -3.8706669   -3.8706669   -2.7609892  0.066047138   -3.8706669    1.1096777   520538 
 2879000    1.0168866   -3.8688144   -3.8688144   -2.7614207   0.07471058   -3.8688144    1.1073937   520538 
 2880000    1.0185908    -3.870051    -3.870051   -2.7608014  0.065371465    -3.870051    1.1092496   520538 
 2881000    1.0197266   -3.8707494   -3.8707494    -2.760263   0.07545553   -3.8707494    1.1104864   520538 
 2882000    1.0193411   -3.8693354   -3.8693354   -2.7592688   0.08869764   -3.8693354    1.1100666   520538 
 2883000    1.0193903   -3.8697214   -3.8697214   -2.7596012  0.088108335   -3.8697214    1.1101202   520538 
 2884000    1.0193803   -3.8694796   -3.8694796   -2.7593703  0.091432452   -3.8694796    1.1101093   520538 
 2885000    1.0181983   -3.8679934   -3.8679934   -2.7591713   0.07117309   -3.8679934    1.1088221   520538 
 2886000    1.0182867   -3.8685588   -3.8685588   -2.7596404  0.068125076   -3.8685588    1.1089184   520538 
 2887000    1.0191103   -3.8693905   -3.8693905   -2.7595752  0.062326866   -3.8693905    1.1098153   520538 
 2888000     1.017089   -3.8673663   -3.8673663   -2.7597522   0.07474621   -3.8673663    1.1076141   520538 
 2889000    1.0181599   -3.8692688   -3.8692688   -2.7604886  0.032501228   -3.8692688    1.1087802   520538 
 2890000    1.0160828   -3.8673327   -3.8673327   -2.7608143  0.064894517   -3.8673327    1.1065183   520538 
 2891000    1.0161411   -3.8676082   -3.8676082   -2.7610264  0.060855848   -3.8676082    1.1065818   520538 
 2892000    1.0162415   -3.8676059   -3.8676059   -2.7609147  0.072211751   -3.8676059    1.1066912   520538 
 2893000    1.0176771   -3.8695091   -3.8695091   -2.7612546  0.062955533   -3.8695091    1.1082545   520538 
 2894000    1.0164682   -3.8681243   -3.8681243   -2.7611863  0.079403339   -3.8681243     1.106938   520538 
 2895000    1.0165663   -3.8679287   -3.8679287   -2.7608839   0.10010059   -3.8679287    1.1070448   520538 
 2896000    1.0169127   -3.8678268   -3.8678268   -2.7604048  0.089830953   -3.8678268    1.1074221   520538 
 2897000    1.0180368    -3.869926    -3.869926   -2.7612798  0.070269768    -3.869926    1.1086462   520538 
 2898000    1.0183412   -3.8706622   -3.8706622   -2.7616845  0.069928514   -3.8706622    1.1089777   520538 
 2899000    1.0183184   -3.8710871   -3.8710871   -2.7621343  0.066207132   -3.8710871    1.1089528   520538 
 2900000    1.0181372   -3.8704782   -3.8704782   -2.7617227   0.07958495   -3.8704782    1.1087555   520538 
 2901000    1.0193118   -3.8703551   -3.8703551   -2.7603205  0.073950469   -3.8703551    1.1100347   520538 
 2902000    1.0179974   -3.8704554   -3.8704554   -2.7618521  0.080438155   -3.8704554    1.1086033   520538 
 2903000    1.0179133   -3.8697388   -3.8697388    -2.761227  0.060600791   -3.8697388    1.1085118   520538 
 2904000    1.0159182   -3.8679938   -3.8679938   -2.7616547  0.078551769   -3.8679938    1.1063391   520538 
 2905000     1.018365   -3.8699075   -3.8699075   -2.7609039  0.066814544   -3.8699075    1.1090036   520538 
 2906000    1.0174274   -3.8698589   -3.8698589   -2.7618763  0.052175972   -3.8698589    1.1079825   520538 
 2907000    1.0167941    -3.869031    -3.869031   -2.7617381  0.067290489    -3.869031    1.1072929   520538 
 2908000    1.0153886    -3.867655    -3.867655   -2.7618927  0.066652387    -3.867655    1.1057623   520538 
 2909000    1.0165373   -3.8695728   -3.8695728   -2.7625595  0.067267194   -3.8695728    1.1070133   520538 
 2910000    1.0163368   -3.8705054   -3.8705054   -2.7637106  0.068152453   -3.8705054    1.1067949   520538 
 2911000    1.0174682   -3.8709039   -3.8709039   -2.7628768  0.052220673   -3.8709039    1.1080271   520538 
 2912000    1.0172267   -3.8696392   -3.8696392   -2.7618752  0.074226308   -3.8696392     1.107764   520538 
 2913000    1.0173858   -3.8698119   -3.8698119   -2.7618747   0.06831723   -3.8698119    1.1079373   520538 
 2914000    1.0192474   -3.8714386   -3.8714386   -2.7614741  0.076510346   -3.8714386    1.1099645   520538 
 2915000    1.0185812   -3.8703876   -3.8703876   -2.7611486  0.078013012   -3.8703876     1.109239   520538 
 2916000    1.0174463   -3.8688241   -3.8688241    -2.760821  0.079110931   -3.8688241    1.1080031   520538 
 2917000     1.017348   -3.8697869   -3.8697869   -2.7618907  0.067809338   -3.8697869    1.1078961   520538 
 2918000    1.0185027   -3.8711198   -3.8711198   -2.7619662  0.057645205   -3.8711198    1.1091535   520538 
 2919000    1.0192227   -3.8722935   -3.8722935   -2.7623559  0.070128769   -3.8722935    1.1099376   520538 
 2920000    1.0185361   -3.8717239   -3.8717239   -2.7625339  0.055832992   -3.8717239      1.10919   520538 
 2921000    1.0217079   -3.8743143   -3.8743143   -2.7616702  0.070732044   -3.8743143    1.1126441   520538 
 2922000    1.0190009   -3.8724253   -3.8724253   -2.7627292  0.088084327   -3.8724253    1.1096961   520538 
 2923000    1.0185712   -3.8722684   -3.8722684   -2.7630402  0.071204562   -3.8722684    1.1092282   520538 
 2924000    1.0192262    -3.873532    -3.873532   -2.7635904  0.072435362    -3.873532    1.1099415   520538 
 2925000    1.0186232   -3.8722053   -3.8722053   -2.7629205  0.077283319   -3.8722053    1.1092848   520538 
 2926000    1.0190539    -3.873544    -3.873544   -2.7637901  0.071436255    -3.873544    1.1097539   520538 
 2927000    1.0170448   -3.8715366   -3.8715366   -2.7639706  0.068691862   -3.8715366    1.1075659   520538 
 2928000    1.0182502   -3.8724597   -3.8724597   -2.7635811  0.061934723   -3.8724597    1.1088786   520538 
 2929000    1.0164447   -3.8708046   -3.8708046   -2.7638921  0.049260453   -3.8708046    1.1069124   520538 
 2930000    1.0164327   -3.8703804   -3.8703804    -2.763481  0.073927616   -3.8703804    1.1068994   520538 
 2931000    1.0180657   -3.8722595   -3.8722595   -2.7635818  0.077933223   -3.8722595    1.1086777   520538 
 2932000    1.0160338    -3.870206    -3.870206   -2.7637411  0.068956876    -3.870206    1.1064649   520538 
 2933000    1.0183415   -3.8718335   -3.8718335   -2.7628554  0.062258986   -3.8718335    1.1089781   520538 
 2934000    1.0155977   -3.8696673   -3.8696673   -2.7636773  0.068926955   -3.8696673      1.10599   520538 
 2935000    1.0176638   -3.8716049   -3.8716049   -2.7633648  0.072484345   -3.8716049      1.10824   520538 
 2936000    1.0167774   -3.8704161   -3.8704161   -2.7631414  0.082730493   -3.8704161    1.1072747   520538 
 2937000    1.0174127   -3.8715795   -3.8715795    -2.763613  0.079370559   -3.8715795    1.1079665   520538 
 2938000    1.0180983   -3.8729357   -3.8729357   -2.7642225  0.074523829   -3.8729357    1.1087132   520538 
 2939000    1.0166889   -3.8713684   -3.8713684   -2.7641901  0.074739025   -3.8713684    1.1071783   520538 
 2940000    1.0166043   -3.8709579   -3.8709579   -2.7638717  0.069960397   -3.8709579    1.1070862   520538 
 2941000    1.0175591   -3.8718289   -3.8718289    -2.763703  0.082699305   -3.8718289     1.108126   520538 
 2942000    1.0173039   -3.8713537   -3.8713537   -2.7635056  0.080322564   -3.8713537    1.1078481   520538 
 2943000    1.0173872   -3.8719897   -3.8719897   -2.7640509   0.07620255   -3.8719897    1.1079388   520538 
 2944000    1.0181521   -3.8733396   -3.8733396   -2.7645678  0.072586592   -3.8733396    1.1087718   520538 
 2945000    1.0195843   -3.8740206   -3.8740206   -2.7636891  0.071127035   -3.8740206    1.1103315   520538 
 2946000    1.0191496   -3.8740548   -3.8740548   -2.7641967  0.078569065   -3.8740548    1.1098581   520538 
 2947000     1.018023   -3.8733449   -3.8733449   -2.7647136  0.089704797   -3.8733449    1.1086312   520538 
 2948000    1.0158775   -3.8710217   -3.8710217    -2.764727  0.067299118   -3.8710217    1.1062947   520538 
 2949000    1.0164084   -3.8714475   -3.8714475   -2.7645747  0.064374418   -3.8714475    1.1068729   520538 
 2950000    1.0177698    -3.872834    -3.872834   -2.7644785  0.070280058    -3.872834    1.1083555   520538 
 2951000    1.0180149   -3.8730912   -3.8730912   -2.7644689  0.060391489   -3.8730912    1.1086223   520538 
 2952000    1.0156275   -3.8700894   -3.8700894   -2.7640668  0.077184574   -3.8700894    1.1060225   520538 
 2953000    1.0156411   -3.8704986   -3.8704986   -2.7644613  0.066663056   -3.8704986    1.1060373   520538 
 2954000      1.01791   -3.8728331   -3.8728331   -2.7643249  0.072306736   -3.8728331    1.1085082   520538 
 2955000    1.0165807   -3.8711695   -3.8711695    -2.764109  0.063901718   -3.8711695    1.1070605   520538 
 2956000    1.0150893   -3.8698249   -3.8698249   -2.7643885  0.064238418   -3.8698249    1.1054363   520538 
 2957000    1.0174878    -3.871906    -3.871906   -2.7638577  0.055730628    -3.871906    1.1080483   520538 
 2958000    1.0162551   -3.8704933   -3.8704933   -2.7637874  0.065828102   -3.8704933    1.1067059   520538 
 2959000    1.0143763   -3.8687588   -3.8687588    -2.764099   0.07660495   -3.8687588    1.1046599   520538 
 2960000    1.0150502   -3.8692674   -3.8692674   -2.7638737  0.073506108   -3.8692674    1.1053938   520538 
 2961000    1.0162047   -3.8703316   -3.8703316   -2.7636806  0.079943451   -3.8703316     1.106651   520538 
 2962000     1.017109   -3.8716049   -3.8716049   -2.7639691  0.067507762   -3.8716049    1.1076358   520538 
 2963000    1.0179736   -3.8725675   -3.8725675   -2.7639901  0.071356394   -3.8725675    1.1085774   520538 
 2964000     1.016666    -3.871303    -3.871303   -2.7641496  0.088663003    -3.871303    1.1071534   520538 
 2965000    1.0196376   -3.8748475   -3.8748475    -2.764458  0.077197688   -3.8748475    1.1103895   520538 
 2966000    1.0173482   -3.8730764   -3.8730764   -2.7651802   0.05731264   -3.8730764    1.1078963   520538 
 2967000    1.0168503   -3.8720927   -3.8720927   -2.7647386  0.079736508   -3.8720927    1.1073541   520538 
 2968000    1.0165625   -3.8722906   -3.8722906   -2.7652498  0.084861863   -3.8722906    1.1070407   520538 
 2969000     1.015009    -3.869418    -3.869418   -2.7640691  0.067600686    -3.869418    1.1053489   520538 
 2970000    1.0179046    -3.872356    -3.872356   -2.7638538  0.064538945    -3.872356    1.1085022   520538 
 2971000     1.016477   -3.8702382   -3.8702382   -2.7632907   0.07637624   -3.8702382    1.1069476   520538 
 2972000    1.0168071   -3.8705434   -3.8705434   -2.7632364  0.072151893   -3.8705434     1.107307   520538 
 2973000    1.0160616   -3.8701501   -3.8701501   -2.7636549  0.074893762   -3.8701501    1.1064952   520538 
 2974000    1.0163841   -3.8709074   -3.8709074   -2.7640611  0.074710928   -3.8709074    1.1068464   520538 
 2975000    1.0163388   -3.8705908   -3.8705908   -2.7637937  0.069493466   -3.8705908    1.1067971   520538 
 2976000    1.0170463   -3.8713469   -3.8713469   -2.7637793  0.073648898   -3.8713469    1.1075676   520538 
 2977000    1.0156866   -3.8692481   -3.8692481   -2.7631612  0.075632361   -3.8692481    1.1060869   520538 
 2978000    1.0185213   -3.8724255   -3.8724255   -2.7632516  0.057639907   -3.8724255    1.1091739   520538 
 2979000    1.0161631   -3.8695168   -3.8695168   -2.7629111  0.068732248   -3.8695168    1.1066057   520538 
 2980000    1.0186995   -3.8725468   -3.8725468   -2.7631789  0.067752742   -3.8725468    1.1093679   520538 
 2981000    1.0178422   -3.8709273   -3.8709273    -2.762493  0.063709285   -3.8709273    1.1084343   520538 
 2982000    1.0180836    -3.871363    -3.871363   -2.7626658  0.075288339    -3.871363    1.1086972   520538 
 2983000    1.0181072   -3.8722152   -3.8722152   -2.7634924  0.064486496   -3.8722152    1.1087228   520538 
 2984000    1.0166399   -3.8706319   -3.8706319    -2.763507  0.058790396   -3.8706319    1.1071249   520538 
 2985000    1.0184698   -3.8726033   -3.8726033   -2.7634856  0.061784603   -3.8726033    1.1091177   520538 
 2986000    1.0159654   -3.8704037   -3.8704037   -2.7640132  0.071977922   -3.8704037    1.1063905   520538 
 2987000    1.0170523   -3.8698997   -3.8698997   -2.7623256  0.067077639   -3.8698997    1.1075741   520538 
 2988000    1.0165076    -3.870804    -3.870804   -2.7638231  0.078232207    -3.870804    1.1069809   520538 
 2989000    1.0167519   -3.8713675   -3.8713675   -2.7641205  0.067468077   -3.8713675     1.107247   520538 
 2990000    1.0162508   -3.8705472   -3.8705472   -2.7638459  0.058181558   -3.8705472    1.1067013   520538 
 2991000    1.0182761   -3.8732158   -3.8732158   -2.7643089  0.069124982   -3.8732158    1.1089069   520538 
 2992000    1.0168446   -3.8718708   -3.8718708   -2.7645229  0.072688809   -3.8718708    1.1073479   520538 
 2993000    1.0152422   -3.8710512   -3.8710512   -2.7654483  0.071601191   -3.8710512    1.1056029   520538 
 2994000    1.0166209   -3.8723845   -3.8723845   -2.7652803  0.076618009   -3.8723845    1.1071043   520538 
 2995000    1.0160329   -3.8724974   -3.8724974   -2.7660334  0.070358248   -3.8724974     1.106464   520538 
 2996000    1.0164322    -3.872467    -3.872467   -2.7655683  0.079786073    -3.872467    1.1068988   520538 
 2997000    1.0173533   -3.8738002   -3.8738002   -2.7658983  0.066148971   -3.8738002    1.1079019   520538 
 2998000    1.0168716   -3.8736723   -3.8736723   -2.7662951  0.078962825   -3.8736723    1.1073773   520538 
 2999000    1.0176932   -3.8746735   -3.8746735   -2.7664015   0.06036202   -3.8746735     1.108272   520538 
 3000000    1.0172062   -3.8729631   -3.8729631   -2.7652213  0.066316943   -3.8729631    1.1077417   520538 
 3001000    1.0185067   -3.8740729   -3.8740729   -2.7649149  0.067648951   -3.8740729    1.1091579   520538 
 3002000    1.0168906   -3.8727608   -3.8727608   -2.7653628  0.082065889   -3.8727608     1.107398   520538 
 3003000    1.0190378   -3.8748064   -3.8748064   -2.7650701  0.074987707   -3.8748064    1.1097363   520538 
 3004000    1.0177623   -3.8739511   -3.8739511   -2.7656039  0.091100228   -3.8739511    1.1083473   520538 
 3005000    1.0171054   -3.8732189   -3.8732189    -2.765587  0.080832082   -3.8732189    1.1076319   520538 
 3006000    1.0187869   -3.8749835   -3.8749835   -2.7655204  0.067343388   -3.8749835    1.1094631   520538 
 3007000    1.0177952   -3.8733187   -3.8733187   -2.7649356  0.059986987   -3.8733187    1.1083832   520538 
 3008000    1.0190747   -3.8750392   -3.8750392   -2.7652627  0.083544809   -3.8750392    1.1097765   520538 
 3009000    1.0152022   -3.8710031   -3.8710031   -2.7654439   0.07417857   -3.8710031    1.1055593   520538 
 3010000     1.014921   -3.8714139   -3.8714139   -2.7661609  0.073888379   -3.8714139    1.1052531   520538 
 3011000    1.0143321   -3.8710755   -3.8710755   -2.7664638  0.066408418   -3.8710755    1.1046118   520538 
 3012000    1.0161993   -3.8723103   -3.8723103   -2.7656651  0.066532198   -3.8723103    1.1066452   520538 
 3013000    1.0164161    -3.871831    -3.871831   -2.7649498  0.066159405    -3.871831    1.1068812   520538 
 3014000    1.0154475    -3.870565    -3.870565   -2.7647386  0.089676572    -3.870565    1.1058265   520538 
 3015000    1.0151639    -3.871258    -3.871258   -2.7657403  0.066012732    -3.871258    1.1055177   520538 
 3016000    1.0152713   -3.8705866   -3.8705866    -2.764952  0.051853423   -3.8705866    1.1056346   520538 
 3017000    1.0146706   -3.8698821   -3.8698821   -2.7649017  0.079537827   -3.8698821    1.1049804   520538 
 3018000    1.0175207    -3.872666    -3.872666   -2.7645818  0.073289134    -3.872666    1.1080842   520538 
 3019000    1.0157161   -3.8706886   -3.8706886   -2.7645696  0.077195908   -3.8706886     1.106119   520538 
 3020000    1.0175754   -3.8720166   -3.8720166   -2.7638729  0.081290661   -3.8720166    1.1081437   520538 
 3021000    1.0176343   -3.8727287   -3.8727287   -2.7645208  0.076818203   -3.8727287    1.1082079   520538 
 3022000     1.017299   -3.8716242   -3.8716242   -2.7637815  0.081294255   -3.8716242    1.1078427   520538 
 3023000    1.0185446   -3.8725027   -3.8725027   -2.7633035  0.076686319   -3.8725027    1.1091992   520538 
 3024000    1.0172843   -3.8715961   -3.8715961   -2.7637694   0.06875384   -3.8715961    1.1078267   520538 
 3025000    1.0181033   -3.8731587   -3.8731587   -2.7644401  0.066602322   -3.8731587    1.1087186   520538 
 3026000    1.0182498   -3.8735985   -3.8735985   -2.7647203  0.063040662   -3.8735985    1.1088782   520538 
 3027000    1.0168563   -3.8707703   -3.8707703   -2.7634096  0.070277381   -3.8707703    1.1073607   520538 
 3028000    1.0177786   -3.8718027   -3.8718027   -2.7634377  0.066595552   -3.8718027     1.108365   520538 
 3029000    1.0178751   -3.8715351   -3.8715351    -2.763065  0.064241697   -3.8715351    1.1084701   520538 
 3030000    1.0179312   -3.8725103   -3.8725103    -2.763979  0.062220764   -3.8725103    1.1085313   520538 
 3031000     1.016135    -3.871167    -3.871167   -2.7645918  0.071851342    -3.871167    1.1065752   520538 
 3032000    1.0184437   -3.8736132   -3.8736132   -2.7645239  0.071431717   -3.8736132    1.1090893   520538 
 3033000    1.0180555   -3.8735516   -3.8735516    -2.764885  0.080902728   -3.8735516    1.1086666   520538 
 3034000    1.0163889   -3.8715254   -3.8715254   -2.7646737  0.069035547   -3.8715254    1.1068517   520538 
 3035000    1.0165697   -3.8714758   -3.8714758   -2.7644273  0.072953909   -3.8714758    1.1070485   520538 
 3036000     1.016146   -3.8717963   -3.8717963   -2.7652091  0.082103721   -3.8717963    1.1065871   520538 
 3037000    1.0155879   -3.8715564   -3.8715564   -2.7655771  0.072764995   -3.8715564    1.1059793   520538 
 3038000    1.0179072   -3.8739291   -3.8739291   -2.7654241  0.059937111   -3.8739291     1.108505   520538 
 3039000    1.0171682   -3.8735596   -3.8735596   -2.7658593   0.06440634   -3.8735596    1.1077003   520538 
 3040000    1.0174669   -3.8741881   -3.8741881   -2.7661625  0.083673568   -3.8741881    1.1080256   520538 
 3041000    1.0160215   -3.8722618   -3.8722618   -2.7658102  0.073984923   -3.8722618    1.1064516   520538 
 3042000    1.0177659   -3.8732282   -3.8732282    -2.764877  0.071827067   -3.8732282    1.1083513   520538 
 3043000    1.0188322    -3.874356    -3.874356   -2.7648436  0.068844784    -3.874356    1.1095124   520538 
 3044000    1.0190862   -3.8750219   -3.8750219   -2.7652328  0.079859617   -3.8750219     1.109789   520538 
 3045000     1.020059   -3.8772422   -3.8772422   -2.7663939  0.079118173   -3.8772422    1.1108484   520538 
 3046000      1.01857   -3.8752102   -3.8752102   -2.7659833  0.063489318   -3.8752102    1.1092269   520538 
 3047000    1.0178215   -3.8741975   -3.8741975   -2.7657857  0.062301066   -3.8741975    1.1084118   520538 
 3048000    1.0176243   -3.8743883   -3.8743883   -2.7661913  0.060590556   -3.8743883     1.108197   520538 
 3049000    1.0164095    -3.872881    -3.872881   -2.7660069  0.075198221    -3.872881    1.1068741   520538 
 3050000    1.0155514   -3.8727926   -3.8727926   -2.7668531  0.060158204   -3.8727926    1.1059396   520538 
 3051000    1.0182195   -3.8753607   -3.8753607   -2.7665155  0.060959888   -3.8753607    1.1088451   520538 
 3052000    1.0186625   -3.8757971   -3.8757971   -2.7664694  0.075516788   -3.8757971    1.1093277   520538 
 3053000     1.017345   -3.8743527   -3.8743527   -2.7664598   0.06514394   -3.8743527    1.1078928   520538 
 3054000    1.0153422   -3.8722371   -3.8722371   -2.7665254   0.07235812   -3.8722371    1.1057117   520538 
 3055000    1.0176785     -3.87385     -3.87385    -2.765594  0.069128972     -3.87385     1.108256   520538 
 3056000    1.0173177   -3.8737198   -3.8737198   -2.7658568  0.081268834   -3.8737198    1.1078631   520538 
 3057000    1.0160873   -3.8728886   -3.8728886   -2.7663654   0.08064614   -3.8728886    1.1065232   520538 
 3058000    1.0169186   -3.8734849   -3.8734849   -2.7660564  0.069820508   -3.8734849    1.1074285   520538 
 3059000    1.0189591   -3.8761231   -3.8761231   -2.7664725   0.06637308   -3.8761231    1.1096506   520538 
 3060000    1.0177685   -3.8748737   -3.8748737   -2.7665197  0.069439154   -3.8748737     1.108354   520538 
 3061000    1.0177844   -3.8757864   -3.8757864   -2.7674151  0.087462834   -3.8757864    1.1083713   520538 
 3062000    1.0167102    -3.873919    -3.873919   -2.7667174  0.075786161    -3.873919    1.1072016   520538 
 3063000    1.0166379   -3.8739706   -3.8739706   -2.7668478  0.068143019   -3.8739706    1.1071228   520538 
 3064000    1.0167272   -3.8740655   -3.8740655   -2.7668455  0.062558767   -3.8740655      1.10722   520538 
 3065000    1.0179704   -3.8745266   -3.8745266   -2.7659527  0.071130075   -3.8745266    1.1085739   520538 
 3066000    1.0183466   -3.8751818   -3.8751818   -2.7661983  0.074265244   -3.8751818    1.1089835   520538 
 3067000    1.0176634   -3.8750016   -3.8750016    -2.766762   0.07399268   -3.8750016    1.1082396   520538 
 3068000    1.0178237   -3.8749465   -3.8749465   -2.7665323  0.075147199   -3.8749465    1.1084142   520538 
 3069000    1.0171064    -3.874796    -3.874796   -2.7671631  0.059014348    -3.874796     1.107633   520538 
 3070000    1.0169789   -3.8745373   -3.8745373   -2.7670431  0.086839319   -3.8745373    1.1074942   520538 
 3071000    1.0179669   -3.8752836   -3.8752836   -2.7667135  0.073584475   -3.8752836    1.1085701   520538 
 3072000    1.0172596    -3.874188    -3.874188   -2.7663881  0.070738063    -3.874188    1.1077999   520538 
 3073000    1.0176204   -3.8740282   -3.8740282   -2.7658354  0.080528707   -3.8740282    1.1081928   520538 
 3074000    1.0170644   -3.8733125   -3.8733125   -2.7657252  0.067776103   -3.8733125    1.1075873   520538 
 3075000    1.0181593   -3.8740077   -3.8740077   -2.7652281  0.082686488   -3.8740077    1.1087796   520538 
 3076000    1.0190092   -3.8740051   -3.8740051      -2.7643  0.074324521   -3.8740051    1.1097051   520538 
 3077000    1.0181816   -3.8731328   -3.8731328    -2.764329   0.07530148   -3.8731328    1.1088039   520538 
 3078000    1.0165614   -3.8725144   -3.8725144    -2.765475  0.065664866   -3.8725144    1.1070394   520538 
 3079000    1.0174752   -3.8734058   -3.8734058   -2.7653711  0.069932049   -3.8734058    1.1080347   520538 
 3080000    1.0155132   -3.8722902   -3.8722902   -2.7663922  0.079255573   -3.8722902     1.105898   520538 
 3081000    1.0169851    -3.873253    -3.873253   -2.7657521  0.063614153    -3.873253    1.1075009   520538 
 3082000    1.0133149   -3.8698022   -3.8698022   -2.7662981  0.074041737   -3.8698022    1.1035041   520538 
 3083000    1.0157387   -3.8723291   -3.8723291   -2.7661855  0.066461346   -3.8723291    1.1061436   520538 
 3084000    1.0189852   -3.8763136   -3.8763136   -2.7666346  0.068358449   -3.8763136     1.109679   520538 
 3085000    1.0165841   -3.8733985   -3.8733985   -2.7663343  0.060026546   -3.8733985    1.1070642   520538 
 3086000    1.0198569   -3.8764381   -3.8764381   -2.7658098   0.06437047   -3.8764381    1.1106283   520538 
 3087000    1.0178932    -3.875594    -3.875594   -2.7671041  0.076512175    -3.875594    1.1084899   520538 
 3088000    1.0189099   -3.8772447   -3.8772447   -2.7676476   0.08173565   -3.8772447     1.109597   520538 
 3089000    1.0182071   -3.8755785   -3.8755785   -2.7667469   0.06995035   -3.8755785    1.1088316   520538 
 3090000    1.0191516   -3.8769274   -3.8769274   -2.7670672  0.083791632   -3.8769274    1.1098603   520538 
 3091000    1.0191215   -3.8760602   -3.8760602   -2.7662327  0.071721465   -3.8760602    1.1098275   520538 
 3092000    1.0191738   -3.8767825   -3.8767825    -2.766898   0.08917735   -3.8767825    1.1098845   520538 
 3093000    1.0176668   -3.8753707   -3.8753707   -2.7671274   0.07497836   -3.8753707    1.1082432   520538 
 3094000     1.017935   -3.8757104   -3.8757104   -2.7671751  0.071906012   -3.8757104    1.1085353   520538 
 3095000    1.0180235   -3.8767395   -3.8767395   -2.7681077  0.078033354   -3.8767395    1.1086318   520538 
 3096000    1.0173025   -3.8756214   -3.8756214   -2.7677749  0.071986791   -3.8756214    1.1078465   520538 
 3097000    1.0170248    -3.875846    -3.875846   -2.7683019  0.069108344    -3.875846    1.1075442   520538 
 3098000    1.0153276   -3.8740298   -3.8740298   -2.7683339  0.079913953   -3.8740298    1.1056959   520538 
 3099000    1.0160362   -3.8741292   -3.8741292   -2.7676617  0.069869389   -3.8741292    1.1064675   520538 
 3100000    1.0150302   -3.8719265   -3.8719265   -2.7665544  0.085892343   -3.8719265    1.1053721   520538 
 3101000    1.0169543   -3.8739422   -3.8739422   -2.7664748  0.055524466   -3.8739422    1.1074674   520538 
 3102000    1.0177967   -3.8747586   -3.8747586   -2.7663739  0.072131834   -3.8747586    1.1083847   520538 
 3103000    1.0179863   -3.8749921   -3.8749921   -2.7664009  0.071261017   -3.8749921    1.1085912   520538 
 3104000    1.0165709   -3.8742056   -3.8742056   -2.7671558  0.067955819   -3.8742056    1.1070498   520538 
 3105000    1.0169532   -3.8751079   -3.8751079   -2.7676417  0.059742233   -3.8751079    1.1074662   520538 
 3106000    1.0159185   -3.8740923   -3.8740923   -2.7677529  0.056748888   -3.8740923    1.1063394   520538 
 3107000    1.0176994    -3.876412    -3.876412   -2.7681332  0.051153598    -3.876412    1.1082788   520538 
 3108000    1.0169018   -3.8747278   -3.8747278   -2.7673176  0.079298668   -3.8747278    1.1074102   520538 
 3109000    1.0187251   -3.8757379   -3.8757379   -2.7663421  0.084061895   -3.8757379    1.1093958   520538 
 3110000    1.0181761   -3.8760517   -3.8760517   -2.7672538  0.080038065   -3.8760517    1.1087979   520538 
 3111000    1.0193149   -3.8772552   -3.8772552   -2.7672171   0.07664662   -3.8772552    1.1100381   520538 
 3112000    1.0182787   -3.8769287   -3.8769287    -2.768019  0.062479751   -3.8769287    1.1089097   520538 
 3113000    1.0185718   -3.8784746   -3.8784746   -2.7692459  0.080757481   -3.8784746    1.1092288   520538 
 3114000    1.0171197   -3.8774554   -3.8774554    -2.769808  0.081985438   -3.8774554    1.1076475   520538 
 3115000    1.0190727   -3.8799139   -3.8799139   -2.7701396  0.085699986   -3.8799139    1.1097743   520538 
 3116000    1.0178335   -3.8773947   -3.8773947     -2.76897  0.071743316   -3.8773947    1.1084248   520538 
 3117000    1.0192322   -3.8780878   -3.8780878   -2.7681398  0.070614236   -3.8780878     1.109948   520538 
 3118000    1.0178286   -3.8761403   -3.8761403   -2.7677208  0.062058187   -3.8761403    1.1084195   520538 
 3119000    1.0198338   -3.8783303   -3.8783303   -2.7677272  0.075328141   -3.8783303    1.1106031   520538 
 3120000    1.0169815   -3.8757927   -3.8757927   -2.7682957  0.068939725   -3.8757927     1.107497   520538 
 3121000    1.0163773   -3.8750836   -3.8750836   -2.7682446  0.067273442   -3.8750836     1.106839   520538 
 3122000    1.0186297   -3.8776076   -3.8776076   -2.7683157  0.091283712   -3.8776076    1.1092919   520538 
 3123000    1.0166874   -3.8762364   -3.8762364   -2.7690597  0.072982473   -3.8762364    1.1071767   520538 
 3124000    1.0181176   -3.8782371   -3.8782371   -2.7695029  0.067939402   -3.8782371    1.1087342   520538 
 3125000       1.0183   -3.8784489   -3.8784489   -2.7695161  0.065808512   -3.8784489    1.1089329   520538 
 3126000    1.0182995   -3.8783306   -3.8783306   -2.7693984  0.060487459   -3.8783306    1.1089322   520538 
 3127000    1.0183326   -3.8775973   -3.8775973    -2.768629  0.081906243   -3.8775973    1.1089684   520538 
 3128000    1.0189552   -3.8779323   -3.8779323   -2.7682859  0.076471471   -3.8779323    1.1096464   520538 
 3129000    1.0173496    -3.875753    -3.875753   -2.7678551  0.072814008    -3.875753    1.1078979   520538 
 3130000    1.0168086   -3.8745611   -3.8745611   -2.7672524  0.071594575   -3.8745611    1.1073087   520538 
 3131000    1.0177422   -3.8761976   -3.8761976   -2.7678722  0.069338988   -3.8761976    1.1083254   520538 
 3132000     1.016709   -3.8757961   -3.8757961   -2.7685959  0.060067738   -3.8757961    1.1072002   520538 
 3133000    1.0164984    -3.874812    -3.874812   -2.7678412  0.074367591    -3.874812    1.1069709   520538 
 3134000    1.0172552   -3.8758488   -3.8758488   -2.7680537  0.081933888   -3.8758488     1.107795   520538 
 3135000    1.0178926   -3.8764205   -3.8764205   -2.7679314  0.070036181   -3.8764205    1.1084891   520538 
 3136000    1.0181994   -3.8761951   -3.8761951   -2.7673718  0.077328406   -3.8761951    1.1088233   520538 
 3137000    1.0164968   -3.8739472   -3.8739472    -2.766978  0.075096463   -3.8739472    1.1069692   520538 
 3138000    1.0168968   -3.8746132   -3.8746132   -2.7672084   0.06430719   -3.8746132    1.1074048   520538 
 3139000    1.0182147   -3.8761156   -3.8761156   -2.7672756  0.083804863   -3.8761156      1.10884   520538 
 3140000    1.0164278   -3.8751524   -3.8751524   -2.7682584  0.079992775   -3.8751524     1.106894   520538 
 3141000    1.0189897   -3.8772172   -3.8772172   -2.7675333  0.070673731   -3.8772172     1.109684   520538 
 3142000    1.0184395   -3.8770635   -3.8770635   -2.7679788  0.082028855   -3.8770635    1.1090848   520538 
 3143000    1.0181118   -3.8769875   -3.8769875   -2.7682596  0.070041834   -3.8769875    1.1087279   520538 
 3144000    1.0177342   -3.8760963   -3.8760963   -2.7677797  0.076860289   -3.8760963    1.1083167   520538 
 3145000    1.0178599   -3.8763083   -3.8763083   -2.7678547  0.077997325   -3.8763083    1.1084536   520538 
 3146000    1.0190962   -3.8765473   -3.8765473   -2.7667474  0.076500802   -3.8765473    1.1097999   520538 
 3147000    1.0198365    -3.877026    -3.877026   -2.7664199  0.072857818    -3.877026    1.1106061   520538 
 3148000    1.0171918   -3.8743925   -3.8743925   -2.7666665  0.089740153   -3.8743925     1.107726   520538 
 3149000    1.0191509   -3.8760649   -3.8760649   -2.7662054  0.074038973   -3.8760649    1.1098595   520538 
 3150000    1.0181177    -3.875547    -3.875547   -2.7668127  0.060857417    -3.875547    1.1087344   520538 
 3151000    1.0178144   -3.8750009   -3.8750009   -2.7665969  0.077443036   -3.8750009     1.108404   520538 
 3152000    1.0173999   -3.8747964   -3.8747964   -2.7668438  0.066967589   -3.8747964    1.1079526   520538 
 3153000    1.0182715    -3.875862    -3.875862   -2.7669602  0.069418327    -3.875862    1.1089019   520538 
 3154000    1.0172361   -3.8752337   -3.8752337   -2.7674594   0.08279815   -3.8752337    1.1077743   520538 
 3155000    1.0167889   -3.8751631   -3.8751631   -2.7678758  0.062814539   -3.8751631    1.1072873   520538 
 3156000    1.0158984   -3.8744221   -3.8744221   -2.7681046  0.069883563   -3.8744221    1.1063175   520538 
 3157000    1.0174177   -3.8758068   -3.8758068   -2.7678348  0.076313529   -3.8758068     1.107972   520538 
 3158000    1.0170334    -3.875594    -3.875594   -2.7680405  0.067993726    -3.875594    1.1075535   520538 
 3159000    1.0168923   -3.8755431   -3.8755431   -2.7681432  0.078134908   -3.8755431    1.1073999   520538 
 3160000    1.0163405   -3.8747279   -3.8747279    -2.767929   0.09236485   -3.8747279     1.106799   520538 
 3161000    1.0178208   -3.8760369   -3.8760369   -2.7676258  0.058794059   -3.8760369     1.108411   520538 
 3162000    1.0171558   -3.8756277   -3.8756277   -2.7679409  0.071571802   -3.8756277    1.1076869   520538 
 3163000    1.0170307   -3.8758296   -3.8758296   -2.7682791  0.073322776   -3.8758296    1.1075506   520538 
 3164000     1.016888    -3.876892    -3.876892   -2.7694968  0.079162889    -3.876892    1.1073952   520538 
 3165000    1.0175757   -3.8784186   -3.8784186   -2.7702746  0.070785398   -3.8784186     1.108144   520538 
 3166000    1.0166078   -3.8771703   -3.8771703   -2.7700802   0.06043149   -3.8771703    1.1070901   520538 
 3167000    1.0176476   -3.8782209   -3.8782209   -2.7699985  0.080482365   -3.8782209    1.1082224   520538 
 3168000    1.0185894   -3.8795857   -3.8795857   -2.7703377  0.068139984   -3.8795857     1.109248   520538 
 3169000    1.0182682   -3.8780894   -3.8780894   -2.7691911  0.069535722   -3.8780894    1.1088982   520538 
 3170000    1.0172696   -3.8777284   -3.8777284   -2.7699176  0.072992294   -3.8777284    1.1078108   520538 
 3171000    1.0185788   -3.8788134   -3.8788134   -2.7695769  0.057542808   -3.8788134    1.1092365   520538 
 3172000    1.0181625   -3.8783925   -3.8783925   -2.7696094  0.066683373   -3.8783925    1.1087831   520538 
 3173000    1.0177826    -3.877669    -3.877669   -2.7692996  0.085427716    -3.877669    1.1083694   520538 
 3174000    1.0163509    -3.877241    -3.877241   -2.7704307  0.064369782    -3.877241    1.1068103   520538 
 3175000    1.0177391   -3.8789707   -3.8789707   -2.7706486  0.089455859   -3.8789707     1.108322   520538 
 3176000    1.0141711   -3.8754944   -3.8754944   -2.7710579  0.066719604   -3.8754944    1.1044365   520538 
 3177000    1.0152923   -3.8776954   -3.8776954   -2.7720379  0.073915945   -3.8776954    1.1056575   520538 
 3178000    1.0124897   -3.8749642   -3.8749642   -2.7723588  0.078235296   -3.8749642    1.1026054   520538 
 3179000    1.0156361   -3.8778876   -3.8778876   -2.7718558  0.067444291   -3.8778876    1.1060318   520538 
 3180000    1.0143749   -3.8761672   -3.8761672   -2.7715088  0.066944355   -3.8761672    1.1046584   520538 
 3181000    1.0155954   -3.8780134   -3.8780134   -2.7720259  0.061376441   -3.8780134    1.1059875   520538 
 3182000    1.0145094   -3.8773194   -3.8773194   -2.7725145  0.070464229   -3.8773194    1.1048049   520538 
 3183000     1.014951   -3.8780741   -3.8780741   -2.7727883  0.065817855   -3.8780741    1.1052858   520538 
 3184000    1.0137858   -3.8771735   -3.8771735   -2.7731567  0.057832004   -3.8771735    1.1040169   520538 
 3185000    1.0138945   -3.8769041   -3.8769041   -2.7727689  0.071220233   -3.8769041    1.1041352   520538 
 3186000    1.0131376   -3.8758269   -3.8758269   -2.7725159  0.075034717   -3.8758269     1.103311   520538 
 3187000     1.015769   -3.8789487   -3.8789487   -2.7727721  0.060107702   -3.8789487    1.1061766   520538 
 3188000    1.0152887   -3.8786719   -3.8786719   -2.7730184  0.081112779   -3.8786719    1.1056535   520538 
 3189000    1.0147872   -3.8782091   -3.8782091   -2.7731017  0.083058377   -3.8782091    1.1051074   520538 
 3190000    1.0165375   -3.8796809   -3.8796809   -2.7726674  0.069865667   -3.8796809    1.1070134   520538 
 3191000    1.0168269   -3.8802005   -3.8802005   -2.7728719   0.06621543   -3.8802005    1.1073286   520538 
 3192000    1.0170933   -3.8794919   -3.8794919   -2.7718732  0.078981061   -3.8794919    1.1076187   520538 
 3193000    1.0160422   -3.8797843   -3.8797843   -2.7733101  0.063513714   -3.8797843    1.1064741   520538 
 3194000    1.0155796   -3.8791607   -3.8791607   -2.7731904  0.077783873   -3.8791607    1.1059703   520538 
 3195000     1.017243   -3.8800303   -3.8800303   -2.7722486  0.067670815   -3.8800303    1.1077817   520538 
 3196000    1.0181897   -3.8811916   -3.8811916   -2.7723788  0.084488158   -3.8811916    1.1088128   520538 
 3197000    1.0171344   -3.8800094   -3.8800094    -2.772346  0.087611518   -3.8800094    1.1076635   520538 
 3198000    1.0162447   -3.8790332   -3.8790332   -2.7723385  0.088323973   -3.8790332    1.1066947   520538 
 3199000    1.0162808    -3.878635    -3.878635    -2.771901  0.088057212    -3.878635    1.1067339   520538 
 3200000    1.0165614   -3.8788702   -3.8788702   -2.7718308  0.066642285   -3.8788702    1.1070395   520538 
 3201000    1.0162572   -3.8780489   -3.8780489   -2.7713406  0.079768695   -3.8780489    1.1067083   520538 
 3202000    1.0162195   -3.8780445   -3.8780445   -2.7713773  0.074277695   -3.8780445    1.1066672   520538 
 3203000    1.0161766   -3.8778867   -3.8778867   -2.7712662  0.063478628   -3.8778867    1.1066205   520538 
 3204000    1.0173847   -3.8791495   -3.8791495   -2.7712134  0.069120645   -3.8791495    1.1079361   520538 
 3205000    1.0172379   -3.8796021   -3.8796021   -2.7718259  0.080315268   -3.8796021    1.1077762   520538 
 3206000    1.0146654   -3.8772804   -3.8772804   -2.7723056  0.072986174   -3.8772804    1.1049748   520538 
 3207000    1.0166788   -3.8789694   -3.8789694    -2.771802   0.06569515   -3.8789694    1.1071674   520538 
 3208000     1.016083   -3.8790569   -3.8790569   -2.7725384  0.068377823   -3.8790569    1.1065185   520538 
 3209000     1.016814   -3.8791991   -3.8791991   -2.7718845  0.063215864   -3.8791991    1.1073146   520538 
 3210000    1.0168934   -3.8795073   -3.8795073   -2.7721062  0.068842389   -3.8795073    1.1074011   520538 
 3211000       1.0167   -3.8795115   -3.8795115   -2.7723211  0.072387447   -3.8795115    1.1071905   520538 
 3212000     1.017424   -3.8798893   -3.8798893   -2.7719104  0.085081876   -3.8798893    1.1079789   520538 
 3213000    1.0171257   -3.8801607   -3.8801607   -2.7725067  0.062713445   -3.8801607     1.107654   520538 
 3214000    1.0149871   -3.8780111   -3.8780111    -2.772686  0.074922487   -3.8780111     1.105325   520538 
 3215000    1.0155933   -3.8783101   -3.8783101   -2.7723249  0.074505117   -3.8783101    1.1059853   520538 
 3216000    1.0175133   -3.8797794   -3.8797794   -2.7717033  0.058402158   -3.8797794    1.1080761   520538 
 3217000    1.0168995   -3.8799097   -3.8799097    -2.772502  0.083893416   -3.8799097    1.1074077   520538 
 3218000    1.0184487   -3.8810441   -3.8810441   -2.7719494  0.097515083   -3.8810441    1.1090948   520538 
 3219000    1.0165456   -3.8798981   -3.8798981   -2.7728758   0.07672652   -3.8798981    1.1070223   520538 
 3220000    1.0162299   -3.8792722   -3.8792722   -2.7725937  0.064672208   -3.8792722    1.1066785   520538 
 3221000    1.0162749   -3.8803389   -3.8803389   -2.7736114  0.067719432   -3.8803389    1.1067275   520538 
 3222000    1.0158276    -3.880187    -3.880187   -2.7739466  0.082154192    -3.880187    1.1062404   520538 
 3223000    1.0162098   -3.8803789   -3.8803789   -2.7737223   0.07179661   -3.8803789    1.1066566   520538 
 3224000    1.0150547   -3.8796295   -3.8796295   -2.7742309  0.054630957   -3.8796295    1.1053987   520538 
 3225000    1.0171943    -3.881614    -3.881614   -2.7738853  0.075927857    -3.881614    1.1077288   520538 
 3226000    1.0158019   -3.8802022   -3.8802022   -2.7739898  0.071200431   -3.8802022    1.1062124   520538 
 3227000    1.0182982   -3.8825457   -3.8825457   -2.7736148  0.066909913   -3.8825457    1.1089309   520538 
 3228000    1.0175523   -3.8811042   -3.8811042   -2.7729856  0.066408306   -3.8811042    1.1081186   520538 
 3229000    1.0186993   -3.8824534   -3.8824534   -2.7730856  0.069212455   -3.8824534    1.1093677   520538 
 3230000    1.0170057   -3.8809604   -3.8809604   -2.7734371  0.076989175   -3.8809604    1.1075233   520538 
 3231000    1.0191468   -3.8833822   -3.8833822   -2.7735271  0.082292191   -3.8833822    1.1098551   520538 
 3232000    1.0156471   -3.8796187   -3.8796187   -2.7735749  0.079631409   -3.8796187    1.1060438   520538 
 3233000    1.0185709   -3.8825654   -3.8825654   -2.7733376   0.06483825   -3.8825654    1.1092279   520538 
 3234000    1.0188348   -3.8830961   -3.8830961   -2.7735809  0.065354059   -3.8830961    1.1095152   520538 
 3235000    1.0163525   -3.8811085   -3.8811085   -2.7742966  0.073168779   -3.8811085     1.106812   520538 
 3236000    1.0154349   -3.8801828   -3.8801828   -2.7743701  0.069437563   -3.8801828    1.1058127   520538 
 3237000    1.0136488   -3.8777911   -3.8777911   -2.7739235  0.064147772   -3.8777911    1.1038676   520538 
 3238000    1.0155221   -3.8800291   -3.8800291   -2.7741214  0.063744271   -3.8800291    1.1059077   520538 
 3239000    1.0156184   -3.8805511   -3.8805511   -2.7745386  0.083731843   -3.8805511    1.1060125   520538 
 3240000    1.0176672   -3.8826756   -3.8826756   -2.7744319  0.064926337   -3.8826756    1.1082437   520538 
 3241000    1.0165093   -3.8814342   -3.8814342   -2.7744515  0.083567819   -3.8814342    1.1069827   520538 
 3242000    1.0159046   -3.8806509   -3.8806509   -2.7743266  0.084465763   -3.8806509    1.1063242   520538 
 3243000    1.0157816    -3.880639    -3.880639   -2.7744487  0.073069857    -3.880639    1.1061903   520538 
 3244000    1.0162185   -3.8808264   -3.8808264   -2.7741604  0.073436393   -3.8808264    1.1066661   520538 
 3245000    1.0168862   -3.8825577   -3.8825577   -2.7751645  0.066281938   -3.8825577    1.1073932   520538 
 3246000    1.0141289   -3.8800428   -3.8800428   -2.7756523  0.071868071   -3.8800428    1.1043905   520538 
 3247000    1.0150854   -3.8811457   -3.8811457   -2.7757135  0.080447368   -3.8811457    1.1054322   520538 
 3248000    1.0170181    -3.883045    -3.883045   -2.7755081   0.05183044    -3.883045    1.1075369   520538 
 3249000    1.0154727   -3.8816213   -3.8816213   -2.7757674  0.072516985   -3.8816213    1.1058539   520538 
 3250000    1.0169976    -3.883409    -3.883409   -2.7758944  0.091009704    -3.883409    1.1075146   520538 
 3251000    1.0163568   -3.8822607   -3.8822607    -2.775444   0.08372703   -3.8822607    1.1068167   520538 
 3252000    1.0169848   -3.8835483   -3.8835483   -2.7760478   0.07963709   -3.8835483    1.1075006   520538 
 3253000    1.0152381   -3.8820182   -3.8820182   -2.7764197  0.083568127   -3.8820182    1.1055985   520538 
 3254000    1.0147185   -3.8820173   -3.8820173   -2.7769847  0.072959447   -3.8820173    1.1050325   520538 
 3255000    1.0165866   -3.8836685   -3.8836685   -2.7766016  0.078197197   -3.8836685    1.1070669   520538 
 3256000    1.0160679   -3.8819895   -3.8819895   -2.7754874  0.063990862   -3.8819895    1.1065021   520538 
 3257000    1.0176247   -3.8832843   -3.8832843   -2.7750869  0.071986571   -3.8832843    1.1081974   520538 
 3258000    1.0162898   -3.8823543   -3.8823543   -2.7756106  0.076412867   -3.8823543    1.1067438   520538 
 3259000    1.0141305   -3.8804176   -3.8804176   -2.7760253  0.075869415   -3.8804176    1.1043922   520538 
 3260000    1.0149027   -3.8820279   -3.8820279   -2.7767948  0.069633153   -3.8820279    1.1052332   520538 
 3261000    1.0139671   -3.8813982   -3.8813982   -2.7771839  0.078130685   -3.8813982    1.1042142   520538 
 3262000    1.0132542   -3.8796777   -3.8796777   -2.7762397  0.066766567   -3.8796777     1.103438   520538 
 3263000     1.013317   -3.8786837   -3.8786837   -2.7751774  0.065930518   -3.8786837    1.1035063   520538 
 3264000    1.0158602   -3.8810085   -3.8810085   -2.7747326  0.072676234   -3.8810085    1.1062759   520538 
 3265000    1.0138865   -3.8782261   -3.8782261   -2.7740995  0.073912607   -3.8782261    1.1041266   520538 
 3266000    1.0166273    -3.882224    -3.882224   -2.7751127  0.076261388    -3.882224    1.1071113   520538 
 3267000    1.0167111   -3.8825064   -3.8825064   -2.7753039  0.074303392   -3.8825064    1.1072025   520538 
 3268000    1.0165966   -3.8815499   -3.8815499   -2.7744721  0.065561945   -3.8815499    1.1070779   520538 
 3269000    1.0177999   -3.8832241   -3.8832241   -2.7748359   0.05494391   -3.8832241    1.1083882   520538 
 3270000    1.0177916   -3.8833916   -3.8833916   -2.7750124  0.073258826   -3.8833916    1.1083792   520538 
 3271000    1.0171156    -3.883427    -3.883427    -2.775784  0.082092188    -3.883427    1.1076431   520538 
 3272000    1.0159928   -3.8832679   -3.8832679   -2.7768476  0.055971637   -3.8832679    1.1064203   520538 
 3273000    1.0157285   -3.8819984   -3.8819984   -2.7758659  0.077668505   -3.8819984    1.1061325   520538 
 3274000    1.0161937   -3.8827698   -3.8827698   -2.7761307  0.075017802   -3.8827698    1.1066391   520538 
 3275000    1.0168303    -3.883196    -3.883196   -2.7758637  0.074420665    -3.883196    1.1073323   520538 
 3276000     1.015589   -3.8821978   -3.8821978   -2.7762172  0.071832909   -3.8821978    1.1059806   520538 
 3277000     1.015495    -3.883008    -3.883008   -2.7771298   0.06515619    -3.883008    1.1058782   520538 
 3278000    1.0159058   -3.8827744   -3.8827744   -2.7764489  0.052877517   -3.8827744    1.1063255   520538 
 3279000    1.0159578   -3.8829462   -3.8829462   -2.7765641  0.065700539   -3.8829462    1.1063822   520538 
 3280000    1.0160076   -3.8834941   -3.8834941   -2.7770577  0.071720612   -3.8834941    1.1064364   520538 
 3281000    1.0139482   -3.8815639   -3.8815639   -2.7773701  0.084478904   -3.8815639    1.1041937   520538 
 3282000    1.0146363    -3.882521    -3.882521   -2.7775779  0.065782025    -3.882521    1.1049431   520538 
 3283000    1.0150462   -3.8835402   -3.8835402   -2.7781507  0.073327395   -3.8835402    1.1053895   520538 
 3284000    1.0141836   -3.8826322   -3.8826322   -2.7781822  0.071114821   -3.8826322    1.1044501   520538 
 3285000    1.0140416   -3.8825171   -3.8825171   -2.7782217  0.072524987   -3.8825171    1.1042954   520538 
 3286000    1.0161066   -3.8838534   -3.8838534   -2.7773091  0.065311112   -3.8838534    1.1065442   520538 
 3287000    1.0177847   -3.8850621   -3.8850621   -2.7766904  0.069677308   -3.8850621    1.1083717   520538 
 3288000    1.0149192   -3.8824618   -3.8824618   -2.7772106   0.06797351   -3.8824618    1.1052512   520538 
 3289000    1.0154409    -3.883008    -3.883008   -2.7771887  0.072287141    -3.883008    1.1058193   520538 
 3290000    1.0144465   -3.8818051   -3.8818051   -2.7770688  0.068982254   -3.8818051    1.1047363   520538 
 3291000     1.015999   -3.8834557   -3.8834557   -2.7770287  0.077167832   -3.8834557    1.1064271   520538 
 3292000    1.0147883   -3.8831907   -3.8831907   -2.7780822  0.080658789   -3.8831907    1.1051086   520538 
 3293000    1.0124497    -3.880691    -3.880691   -2.7781291  0.065016552    -3.880691    1.1025619   520538 
 3294000    1.0136542   -3.8816545   -3.8816545    -2.777781    0.0821278   -3.8816545    1.1038735   520538 
 3295000    1.0162074   -3.8830192   -3.8830192   -2.7763652  0.057343093   -3.8830192     1.106654   520538 
 3296000    1.0147867   -3.8820843   -3.8820843   -2.7769775  0.075482166   -3.8820843    1.1051068   520538 
 3297000    1.0151681   -3.8828657   -3.8828657   -2.7773435  0.061462213   -3.8828657    1.1055222   520538 
 3298000    1.0176832   -3.8856997   -3.8856997   -2.7774386  0.070076942   -3.8856997    1.1082611   520538 
 3299000     1.015998   -3.8846316   -3.8846316   -2.7782057  0.071856603   -3.8846316    1.1064259   520538 
 3300000    1.0146599   -3.8829084   -3.8829084   -2.7779396  0.079768368   -3.8829084    1.1049688   520538 
 3301000    1.0151407   -3.8824019   -3.8824019   -2.7769096  0.087421294   -3.8824019    1.1054923   520538 
 3302000    1.0151516   -3.8819835   -3.8819835   -2.7764793  0.067799966   -3.8819835    1.1055042   520538 
 3303000    1.0147293   -3.8815026   -3.8815026   -2.7764583   0.07550076   -3.8815026    1.1050443   520538 
 3304000    1.0144539   -3.8817869   -3.8817869   -2.7770425  0.062980907   -3.8817869    1.1047444   520538 
 3305000    1.0161276   -3.8829275   -3.8829275   -2.7763604  0.076799483   -3.8829275    1.1065671   520538 
 3306000    1.0166411   -3.8836677   -3.8836677   -2.7765414  0.078246722   -3.8836677    1.1071263   520538 
 3307000     1.015659   -3.8829875   -3.8829875   -2.7769308  0.066751412   -3.8829875    1.1060568   520538 
 3308000    1.0169698   -3.8850677   -3.8850677   -2.7775834  0.061504124   -3.8850677    1.1074843   520538 
 3309000     1.014801   -3.8824631   -3.8824631   -2.7773407  0.069636391   -3.8824631    1.1051224   520538 
 3310000     1.015936   -3.8842316   -3.8842316   -2.7778731  0.062185025   -3.8842316    1.1063584   520538 
 3311000    1.0178474   -3.8861503   -3.8861503   -2.7777103  0.075910513   -3.8861503      1.10844   520538 
 3312000    1.0158314   -3.8840214   -3.8840214   -2.7777769  0.074934883   -3.8840214    1.1062445   520538 
 3313000    1.0158093   -3.8838423   -3.8838423   -2.7776219  0.082861827   -3.8838423    1.1062204   520538 
 3314000    1.0155603   -3.8836738   -3.8836738   -2.7777245  0.079445151   -3.8836738    1.1059493   520538 
 3315000    1.0159873   -3.8844873   -3.8844873    -2.778073  0.088764178   -3.8844873    1.1064143   520538 
 3316000    1.0159002    -3.883779    -3.883779   -2.7774595  0.076202414    -3.883779    1.1063195   520538 
 3317000    1.0162491   -3.8833193   -3.8833193   -2.7766199  0.066423531   -3.8833193    1.1066994   520538 
 3318000    1.0176031   -3.8854245   -3.8854245   -2.7772506  0.079353818   -3.8854245    1.1081739   520538 
 3319000     1.015585   -3.8827284   -3.8827284   -2.7767522   0.07030881   -3.8827284    1.1059762   520538 
 3320000    1.0151241   -3.8826035   -3.8826035   -2.7771291  0.080744565   -3.8826035    1.1054743   520538 
 3321000    1.0164534   -3.8836216   -3.8836216   -2.7766997  0.064050942   -3.8836216    1.1069218   520538 
 3322000    1.0137245   -3.8815046   -3.8815046   -2.7775545  0.069989769   -3.8815046    1.1039501   520538 
 3323000    1.0148131   -3.8822915   -3.8822915   -2.7771559  0.056013744   -3.8822915    1.1051356   520538 
 3324000    1.0136438   -3.8807036   -3.8807036   -2.7768414   0.06788603   -3.8807036    1.1038622   520538 
 3325000    1.0160804   -3.8833998   -3.8833998   -2.7768841  0.056980339   -3.8833998    1.1065157   520538 
 3326000    1.0154874   -3.8831666   -3.8831666   -2.7772966  0.059672076   -3.8831666    1.1058699   520538 
 3327000    1.0139268   -3.8819661   -3.8819661   -2.7777958  0.073091355   -3.8819661    1.1041704   520538 
 3328000    1.0148367   -3.8825576   -3.8825576   -2.7773963  0.069099293   -3.8825576    1.1051613   520538 
 3329000    1.0147777    -3.881927    -3.881927   -2.7768299  0.069094596    -3.881927    1.1050971   520538 
 3330000    1.0146702   -3.8824677   -3.8824677   -2.7774876  0.064385818   -3.8824677      1.10498   520538 
 3331000    1.0156582   -3.8837677   -3.8837677   -2.7777118  0.067760081   -3.8837677    1.1060559   520538 
 3332000     1.014644    -3.882539    -3.882539   -2.7775876  0.073818739    -3.882539    1.1049514   520538 
 3333000    1.0165002   -3.8842065   -3.8842065   -2.7772337   0.06960677   -3.8842065    1.1069729   520538 
 3334000    1.0164495   -3.8850473   -3.8850473   -2.7781296  0.055435005   -3.8850473    1.1069177   520538 
 3335000    1.0156537   -3.8839249   -3.8839249   -2.7778739  0.072140185   -3.8839249     1.106051   520538 
 3336000    1.0144695    -3.883209    -3.883209   -2.7784476  0.075017984    -3.883209    1.1047614   520538 
 3337000    1.0133661   -3.8826721   -3.8826721   -2.7791124  0.065538776   -3.8826721    1.1035598   520538 
 3338000    1.0153788   -3.8842242   -3.8842242   -2.7784725  0.068461936   -3.8842242    1.1057517   520538 
 3339000    1.0163748   -3.8842091   -3.8842091   -2.7773728  0.059879925   -3.8842091    1.1068363   520538 
 3340000    1.0159482   -3.8841271   -3.8841271   -2.7777553  0.067339649   -3.8841271    1.1063717   520538 
 3341000    1.0166324   -3.8847215   -3.8847215   -2.7776046  0.077784538   -3.8847215    1.1071169   520538 
 3342000    1.0181434   -3.8859627   -3.8859627   -2.7772004    0.0763401   -3.8859627    1.1087623   520538 
 3343000    1.0179724   -3.8849632   -3.8849632   -2.7763871    0.0707006   -3.8849632    1.1085761   520538 
 3344000    1.0178591    -3.885572    -3.885572   -2.7771193  0.082841663    -3.885572    1.1084527   520538 
 3345000    1.0203669   -3.8871215   -3.8871215   -2.7759378  0.067499032   -3.8871215    1.1111837   520538 
 3346000     1.015959   -3.8835289   -3.8835289   -2.7771454  0.067776263   -3.8835289    1.1063835   520538 
 3347000    1.0170324   -3.8854461   -3.8854461   -2.7778937  0.075357161   -3.8854461    1.1075524   520538 
 3348000     1.015316   -3.8842737   -3.8842737   -2.7785905  0.079417612   -3.8842737    1.1056833   520538 
 3349000    1.0166802   -3.8859815   -3.8859815   -2.7788126  0.081111502   -3.8859815    1.1071689   520538 
 3350000     1.016475   -3.8861015   -3.8861015   -2.7791561  0.068261173   -3.8861015    1.1069454   520538 
 3351000     1.015667   -3.8859736   -3.8859736   -2.7799082  0.073955406   -3.8859736    1.1060655   520538 
 3352000     1.015667   -3.8861198   -3.8861198   -2.7800543  0.057703762   -3.8861198    1.1060655   520538 
 3353000    1.0132756   -3.8840915   -3.8840915   -2.7806302  0.073884975   -3.8840915    1.1034612   520538 
 3354000    1.0141629   -3.8845682   -3.8845682   -2.7801407  0.061021486   -3.8845682    1.1044275   520538 
 3355000    1.0121655    -3.881908    -3.881908   -2.7796557  0.070623193    -3.881908    1.1022524   520538 
 3356000    1.0125938   -3.8825074   -3.8825074   -2.7797887  0.062159681   -3.8825074    1.1027187   520538 
 3357000    1.0146572    -3.884498    -3.884498   -2.7795322  0.069935826    -3.884498    1.1049658   520538 
 3358000    1.0156257    -3.884666    -3.884666   -2.7786455  0.053056657    -3.884666    1.1060205   520538 
 3359000    1.0150167    -3.883755    -3.883755   -2.7783977  0.069756526    -3.883755    1.1053573   520538 
 3360000     1.014163   -3.8843532   -3.8843532   -2.7799256  0.084299645   -3.8843532    1.1044276   520538 
 3361000     1.014609   -3.8835079   -3.8835079   -2.7785946  0.078119945   -3.8835079    1.1049133   520538 
 3362000    1.0144473   -3.8839004   -3.8839004   -2.7791631  0.058942063   -3.8839004    1.1047373   520538 
 3363000    1.0150727   -3.8839845   -3.8839845   -2.7785662  0.057045453   -3.8839845    1.1054183   520538 
 3364000    1.0158359   -3.8843834   -3.8843834   -2.7781341  0.060083861   -3.8843834    1.1062494   520538 
 3365000    1.0156746   -3.8844358   -3.8844358   -2.7783621  0.065313589   -3.8844358    1.1060737   520538 
 3366000    1.0169127   -3.8858556   -3.8858556   -2.7784335  0.078576722   -3.8858556    1.1074221   520538 
 3367000    1.0167816   -3.8862605   -3.8862605   -2.7789813  0.072462019   -3.8862605    1.1072792   520538 
 3368000    1.0165669   -3.8865929   -3.8865929   -2.7795475  0.077069983   -3.8865929    1.1070455   520538 
 3369000     1.014965   -3.8837571   -3.8837571    -2.778456  0.077640402   -3.8837571    1.1053011   520538 
 3370000     1.013592   -3.8829002   -3.8829002   -2.7790944  0.084707724   -3.8829002    1.1038058   520538 
 3371000    1.0156171   -3.8847927   -3.8847927   -2.7787816  0.065351481   -3.8847927    1.1060111   520538 
 3372000    1.0153909   -3.8848485   -3.8848485   -2.7790837  0.067339159   -3.8848485    1.1057648   520538 
 3373000    1.0151711   -3.8852124   -3.8852124   -2.7796869  0.068575213   -3.8852124    1.1055255   520538 
 3374000    1.0144982    -3.883692    -3.883692   -2.7788993  0.070727116    -3.883692    1.1047927   520538 
 3375000    1.0156654   -3.8849387   -3.8849387   -2.7788749  0.074259554   -3.8849387    1.1060638   520538 
 3376000    1.0153411    -3.885107    -3.885107   -2.7793965  0.081533288    -3.885107    1.1057105   520538 
 3377000    1.0145722   -3.8847056   -3.8847056   -2.7798323  0.065326087   -3.8847056    1.1048733   520538 
 3378000    1.0151859   -3.8847882   -3.8847882   -2.7792466  0.064344568   -3.8847882    1.1055416   520538 
 3379000    1.0158822   -3.8857425   -3.8857425   -2.7794426  0.071520769   -3.8857425    1.1062998   520538 
 3380000    1.0151292   -3.8856572   -3.8856572   -2.7801773  0.074373292   -3.8856572    1.1054799   520538 
 3381000    1.0154687   -3.8865414   -3.8865414   -2.7806919  0.070441312   -3.8865414    1.1058495   520538 
 3382000    1.0158007   -3.8862179   -3.8862179   -2.7800069  0.075651603   -3.8862179     1.106211   520538 
 3383000    1.0153962   -3.8852558   -3.8852558   -2.7794853  0.071709418   -3.8852558    1.1057706   520538 
 3384000    1.0145805   -3.8842675   -3.8842675   -2.7793852  0.063116176   -3.8842675    1.1048823   520538 
 3385000      1.01579   -3.8855939   -3.8855939   -2.7793945  0.074360017   -3.8855939    1.1061994   520538 
 3386000    1.0160881   -3.8863447   -3.8863447   -2.7798206  0.074868831   -3.8863447    1.1065241   520538 
 3387000    1.0156993   -3.8852705   -3.8852705   -2.7791698  0.070663296   -3.8852705    1.1061007   520538 
 3388000    1.0158654   -3.8850404   -3.8850404   -2.7787588  0.077046188   -3.8850404    1.1062815   520538 
 3389000    1.0170805   -3.8867113   -3.8867113   -2.7791066  0.087288438   -3.8867113    1.1076048   520538 
 3390000    1.0173505   -3.8870479   -3.8870479    -2.779149  0.061534085   -3.8870479    1.1078989   520538 
 3391000    1.0159806    -3.885572    -3.885572    -2.779165  0.067166511    -3.885572     1.106407   520538 
 3392000    1.0184221    -3.888213    -3.888213   -2.7791472  0.063022287    -3.888213    1.1090658   520538 
 3393000    1.0170581   -3.8874237   -3.8874237   -2.7798433   0.08090695   -3.8874237    1.1075804   520538 
 3394000    1.0148146   -3.8850448   -3.8850448   -2.7799075  0.078868281   -3.8850448    1.1051372   520538 
 3395000    1.0153531   -3.8859859   -3.8859859   -2.7802622  0.072389547   -3.8859859    1.1057237   520538 
 3396000    1.0158116   -3.8866192   -3.8866192   -2.7803963   0.08419569   -3.8866192    1.1062229   520538 
 3397000    1.0152927   -3.8865066   -3.8865066   -2.7808487  0.063518134   -3.8865066    1.1056578   520538 
 3398000    1.0144572    -3.886074    -3.886074    -2.781326  0.059495406    -3.886074    1.1047481   520538 
 3399000    1.0150033   -3.8860583   -3.8860583   -2.7807156  0.072801747   -3.8860583    1.1053428   520538 
 3400000    1.0130397   -3.8848889   -3.8848889   -2.7816845   0.09350821   -3.8848889    1.1032044   520538 
 3401000    1.0139194   -3.8852354   -3.8852354   -2.7810731  0.085550221   -3.8852354    1.1041623   520538 
 3402000    1.0145238   -3.8850193   -3.8850193   -2.7801988  0.067698148   -3.8850193    1.1048205   520538 
 3403000    1.0147583   -3.8848905   -3.8848905   -2.7798146  0.060138778   -3.8848905    1.1050759   520538 
 3404000    1.0150518   -3.8852801   -3.8852801   -2.7798846  0.065795263   -3.8852801    1.1053956   520538 
 3405000    1.0153913   -3.8854595   -3.8854595   -2.7796943  0.073965139   -3.8854595    1.1057652   520538 
 3406000    1.0148543   -3.8850827   -3.8850827   -2.7799023  0.086147888   -3.8850827    1.1051805   520538 
 3407000    1.0153713   -3.8857918   -3.8857918   -2.7800483  0.069488843   -3.8857918    1.1057435   520538 
 3408000    1.0157168   -3.8857275   -3.8857275   -2.7796078   0.08632705   -3.8857275    1.1061198   520538 
 3409000    1.0172787   -3.8876005   -3.8876005   -2.7797799  0.072474156   -3.8876005    1.1078206   520538 
 3410000    1.0157458   -3.8859461   -3.8859461   -2.7797948  0.070825576   -3.8859461    1.1061513   520538 
 3411000    1.0163059   -3.8860872   -3.8860872   -2.7793259  0.057871577   -3.8860872    1.1067613   520538 
 3412000     1.015416   -3.8854103   -3.8854103   -2.7796181  0.066140399   -3.8854103    1.1057922   520538 
 3413000    1.0173276   -3.8871716   -3.8871716   -2.7792978  0.068508571   -3.8871716    1.1078739   520538 
 3414000    1.0154543   -3.8864451   -3.8864451   -2.7806113  0.074583718   -3.8864451    1.1058338   520538 
 3415000    1.0154372   -3.8870696   -3.8870696   -2.7812544  0.071740376   -3.8870696    1.1058152   520538 
 3416000    1.0142896    -3.886164    -3.886164   -2.7815984  0.065956054    -3.886164    1.1045655   520538 
 3417000    1.0163096   -3.8880855   -3.8880855   -2.7813202  0.067242164   -3.8880855    1.1067653   520538 
 3418000    1.0151849   -3.8872915   -3.8872915    -2.781751  0.064492829   -3.8872915    1.1055405   520538 
 3419000      1.01454   -3.8878413   -3.8878413   -2.7830032  0.068811475   -3.8878413    1.1048382   520538 
 3420000    1.0143755   -3.8868815   -3.8868815   -2.7822224  0.073837153   -3.8868815     1.104659   520538 
 3421000    1.0135217   -3.8854511   -3.8854511   -2.7817219  0.066506701   -3.8854511    1.1037292   520538 
 3422000    1.0132054   -3.8846358   -3.8846358    -2.781251  0.087280238   -3.8846358    1.1033848   520538 
 3423000    1.0153791   -3.8864971   -3.8864971   -2.7807451  0.072172787   -3.8864971     1.105752   520538 
 3424000    1.0146341   -3.8854008   -3.8854008   -2.7804601  0.083972691   -3.8854008    1.1049406   520538 
 3425000    1.0155523   -3.8871213   -3.8871213   -2.7811807  0.047291114   -3.8871213    1.1059406   520538 
 3426000    1.0163679   -3.8872051   -3.8872051   -2.7803763   0.06451148   -3.8872051    1.1068288   520538 
 3427000    1.0148613   -3.8855449   -3.8855449   -2.7803568  0.069968436   -3.8855449    1.1051881   520538 
 3428000    1.0153733   -3.8860787   -3.8860787   -2.7803331  0.072120766   -3.8860787    1.1057456   520538 
 3429000     1.015193    -3.886939    -3.886939   -2.7813898  0.066622068    -3.886939    1.1055493   520538 
 3430000    1.0143746    -3.885445    -3.885445    -2.780787  0.059873107    -3.885445    1.1046581   520538 
 3431000    1.0162819   -3.8875298   -3.8875298   -2.7807947  0.066326669   -3.8875298    1.1067352   520538 
 3432000    1.0168861   -3.8885572   -3.8885572   -2.7811641  0.078703347   -3.8885572    1.1073931   520538 
 3433000    1.0157931   -3.8869168   -3.8869168    -2.780714  0.072658049   -3.8869168    1.1062028   520538 
 3434000    1.0180624   -3.8891187   -3.8891187   -2.7804446  0.068122244   -3.8891187    1.1086741   520538 
 3435000    1.0163559   -3.8875315   -3.8875315   -2.7807157  0.068590539   -3.8875315    1.1068158   520538 
 3436000    1.0162391   -3.8876144   -3.8876144   -2.7809258  0.069247667   -3.8876144    1.1066885   520538 
 3437000     1.016482   -3.8870777   -3.8870777   -2.7801247  0.071792371   -3.8870777    1.1069531   520538 
 3438000    1.0173511   -3.8885411   -3.8885411   -2.7806416  0.080252894   -3.8885411    1.1078994   520538 
 3439000    1.0160146    -3.886757    -3.886757    -2.780313  0.093081462    -3.886757     1.106444   520538 
 3440000    1.0169096   -3.8890359   -3.8890359   -2.7816172   0.07162881   -3.8890359    1.1074187   520538 
 3441000    1.0149898   -3.8871175   -3.8871175   -2.7817895  0.079422213   -3.8871175     1.105328   520538 
 3442000    1.0161128   -3.8879515   -3.8879515   -2.7814006  0.081034943   -3.8879515     1.106551   520538 
 3443000    1.0147813   -3.8864758   -3.8864758   -2.7813749  0.075600321   -3.8864758     1.105101   520538 
 3444000    1.0147248   -3.8864242   -3.8864242   -2.7813847  0.053951466   -3.8864242    1.1050395   520538 
 3445000    1.0138131   -3.8852169   -3.8852169   -2.7811704  0.055266519   -3.8852169    1.1040466   520538 
 3446000    1.0120909   -3.8838066   -3.8838066   -2.7816354  0.062793782   -3.8838066    1.1021712   520538 
 3447000    1.0144028   -3.8870473   -3.8870473   -2.7823585  0.049642768   -3.8870473    1.1046888   520538 
 3448000    1.0126473   -3.8848424   -3.8848424   -2.7820654  0.077490951   -3.8848424     1.102777   520538 
 3449000    1.0140474   -3.8858905   -3.8858905   -2.7815887  0.061265103   -3.8858905    1.1043018   520538 
 3450000    1.0143424   -3.8856567   -3.8856567   -2.7810337  0.068504609   -3.8856567     1.104623   520538 
 3451000    1.0150474   -3.8865776   -3.8865776   -2.7811869  0.071672003   -3.8865776    1.1053907   520538 
 3452000    1.0137991   -3.8855418   -3.8855418   -2.7815104  0.077958266   -3.8855418    1.1040314   520538 
 3453000    1.0151525   -3.8868777   -3.8868777   -2.7813725  0.066095649   -3.8868777    1.1055052   520538 
 3454000    1.0150691   -3.8874026   -3.8874026   -2.7819882  0.078881453   -3.8874026    1.1054144   520538 
 3455000    1.0156927   -3.8880383   -3.8880383   -2.7819448  0.078068414   -3.8880383    1.1060935   520538 
 3456000    1.0154779   -3.8877817   -3.8877817   -2.7819221  0.062960994   -3.8877817    1.1058596   520538 
 3457000    1.0142089   -3.8869377   -3.8869377   -2.7824601  0.068917492   -3.8869377    1.1044776   520538 
 3458000    1.0143804   -3.8869572   -3.8869572   -2.7822927  0.083266786   -3.8869572    1.1046644   520538 
 3459000    1.0165005   -3.8894072   -3.8894072    -2.782434  0.061520956   -3.8894072    1.1069731   520538 
 3460000    1.0161464   -3.8888552   -3.8888552   -2.7822677  0.073964768   -3.8888552    1.1065875   520538 
 3461000     1.012807   -3.8855521   -3.8855521   -2.7826011  0.064585304   -3.8855521     1.102951   520538 
 3462000    1.0146284    -3.887921    -3.887921   -2.7829865  0.058764949    -3.887921    1.1049345   520538 
 3463000    1.0150801   -3.8877803   -3.8877803    -2.782354  0.076076084   -3.8877803    1.1054263   520538 
 3464000    1.0159569   -3.8877754   -3.8877754   -2.7813942  0.078146291   -3.8877754    1.1063812   520538 
 3465000    1.0159804   -3.8885245   -3.8885245   -2.7821177  0.071629306   -3.8885245    1.1064068   520538 
 3466000    1.0159315   -3.8885982   -3.8885982   -2.7822446  0.080879389   -3.8885982    1.1063536   520538 
 3467000    1.0142518   -3.8870044   -3.8870044     -2.78248  0.085642138   -3.8870044    1.1045244   520538 
 3468000    1.0154353   -3.8887256   -3.8887256   -2.7829124  0.059337095   -3.8887256    1.1058131   520538 
 3469000    1.0147228   -3.8872648   -3.8872648   -2.7822275  0.071039166   -3.8872648    1.1050373   520538 
 3470000    1.0132068   -3.8859838   -3.8859838   -2.7825975  0.078813092   -3.8859838    1.1033863   520538 
 3471000    1.0147811   -3.8877986   -3.8877986   -2.7826979  0.073874278   -3.8877986    1.1051007   520538 
 3472000    1.0132832   -3.8863337   -3.8863337   -2.7828642  0.063148686   -3.8863337    1.1034695   520538 
 3473000    1.0128637    -3.886815    -3.886815   -2.7838023   0.07600078    -3.886815    1.1030127   520538 
 3474000     1.012098   -3.8861831   -3.8861831   -2.7840043  0.064950288   -3.8861831    1.1021788   520538 
 3475000    1.0112108   -3.8858903   -3.8858903   -2.7846776  0.054583634   -3.8858903    1.1012126   520538 
 3476000    1.0116391   -3.8864303   -3.8864303   -2.7847512  0.072688088   -3.8864303    1.1016791   520538 
 3477000    1.0121585   -3.8860183   -3.8860183   -2.7837736  0.049721842   -3.8860183    1.1022447   520538 
 3478000    1.0135877   -3.8879047   -3.8879047   -2.7841036  0.068085797   -3.8879047    1.1038011   520538 
 3479000    1.0129438    -3.887728    -3.887728   -2.7846281   0.07477712    -3.887728    1.1030999   520538 
 3480000    1.0141609   -3.8885831   -3.8885831   -2.7841577  0.058351947   -3.8885831    1.1044254   520538 
 3481000     1.016037   -3.8906499   -3.8906499   -2.7841815  0.067653307   -3.8906499    1.1064684   520538 
 3482000    1.0139253   -3.8884258   -3.8884258    -2.784257  0.076217145   -3.8884258    1.1041688   520538 
 3483000    1.0163059   -3.8905501   -3.8905501   -2.7837888  0.074611987   -3.8905501    1.1067612   520538 
 3484000     1.012763   -3.8878415   -3.8878415   -2.7849385   0.08526307   -3.8878415    1.1029031   520538 
 3485000     1.012153   -3.8871602   -3.8871602   -2.7849214  0.075822175   -3.8871602    1.1022387   520538 
 3486000    1.0153648   -3.8897931   -3.8897931   -2.7840567  0.077224158   -3.8897931    1.1057364   520538 
 3487000    1.0147832    -3.890235    -3.890235   -2.7851319  0.075459446    -3.890235    1.1051031   520538 
 3488000    1.0134187   -3.8888125   -3.8888125   -2.7851954  0.072785527   -3.8888125    1.1036171   520538 
 3489000    1.0158423   -3.8915543   -3.8915543   -2.7852979  0.057014297   -3.8915543    1.1062564   520538 
 3490000    1.0143836   -3.8898058   -3.8898058    -2.785138  0.056216228   -3.8898058    1.1046679   520538 
 3491000    1.0137491   -3.8884217   -3.8884217   -2.7844448  0.056662036   -3.8884217    1.1039769   520538 
 3492000    1.0126964   -3.8880333   -3.8880333   -2.7852028  0.083862687   -3.8880333    1.1028305   520538 
 3493000    1.0119669    -3.887064    -3.887064    -2.785028  0.073465965    -3.887064     1.102036   520538 
 3494000     1.013022   -3.8886177   -3.8886177   -2.7854327  0.069802017   -3.8886177     1.103185   520538 
 3495000     1.012744   -3.8877569   -3.8877569   -2.7848745  0.078093239   -3.8877569    1.1028824   520538 
 3496000    1.0141209   -3.8895627   -3.8895627   -2.7851809  0.068097426   -3.8895627    1.1043818   520538 
 3497000    1.0146183   -3.8900072   -3.8900072   -2.7850838  0.056784376   -3.8900072    1.1049234   520538 
 3498000    1.0147876    -3.889786    -3.889786   -2.7846782  0.064211127    -3.889786    1.1051078   520538 
 3499000    1.0134039   -3.8884181   -3.8884181   -2.7848172  0.078493562   -3.8884181    1.1036009   520538 
 3500000    1.0125789   -3.8878585   -3.8878585    -2.785156  0.077822349   -3.8878585    1.1027025   520538 
 3501000    1.0151642   -3.8902699   -3.8902699   -2.7847519  0.060291851   -3.8902699     1.105518   520538 
 3502000    1.0144847   -3.8894918   -3.8894918   -2.7847138  0.066980647   -3.8894918     1.104778   520538 
 3503000    1.0153817    -3.890589    -3.890589   -2.7848342  0.072612717    -3.890589    1.1057548   520538 
 3504000    1.0139244   -3.8883985   -3.8883985   -2.7842307  0.069975924   -3.8883985    1.1041678   520538 
 3505000    1.0129016   -3.8893151   -3.8893151   -2.7862611  0.061550586   -3.8893151     1.103054   520538 
 3506000    1.0148597   -3.8907866   -3.8907866   -2.7856002  0.054209044   -3.8907866    1.1051864   520538 
 3507000    1.0134531   -3.8891277   -3.8891277   -2.7854732   0.07649562   -3.8891277    1.1036545   520538 
 3508000    1.0145295   -3.8902803   -3.8902803   -2.7854535  0.050695892   -3.8902803    1.1048267   520538 
 3509000    1.0131135    -3.889297    -3.889297   -2.7860122  0.070165289    -3.889297    1.1032848   520538 
 3510000    1.0144089   -3.8900971   -3.8900971   -2.7854017   0.07627191   -3.8900971    1.1046954   520538 
 3511000    1.0129935   -3.8891343   -3.8891343   -2.7859803  0.076601804   -3.8891343     1.103154   520538 
 3512000    1.0114606   -3.8878837   -3.8878837   -2.7863989   0.06794803   -3.8878837    1.1014848   520538 
 3513000    1.0142224   -3.8903806   -3.8903806   -2.7858882  0.060981468   -3.8903806    1.1044923   520538 
 3514000    1.0162345   -3.8916275   -3.8916275    -2.784944  0.068386297   -3.8916275    1.1066835   520538 
 3515000     1.015201   -3.8907578   -3.8907578   -2.7851998  0.070479665   -3.8907578     1.105558   520538 
 3516000     1.014901    -3.890844    -3.890844   -2.7856126  0.066969148    -3.890844    1.1052314   520538 
 3517000    1.0147717    -3.890018    -3.890018   -2.7849274  0.086753515    -3.890018    1.1050905   520538 
 3518000    1.0148282   -3.8905368   -3.8905368   -2.7853848  0.078821572   -3.8905368     1.105152   520538 
 3519000    1.0152258   -3.8911012   -3.8911012   -2.7855162  0.072827083   -3.8911012    1.1055851   520538 
 3520000    1.0150406   -3.8910456   -3.8910456   -2.7856623  0.087527164   -3.8910456    1.1053834   520538 
 3521000    1.0149161    -3.890926    -3.890926   -2.7856782  0.084459357    -3.890926    1.1052478   520538 
 3522000    1.0147675   -3.8912433   -3.8912433   -2.7861575  0.066038593   -3.8912433    1.1050859   520538 
 3523000    1.0154096   -3.8916315   -3.8916315   -2.7858464  0.058436415   -3.8916315    1.1057852   520538 
 3524000    1.0134455   -3.8897479   -3.8897479   -2.7861016  0.085540987   -3.8897479    1.1036462   520538 
 3525000    1.0145114   -3.8905877   -3.8905877   -2.7857807  0.068666924   -3.8905877     1.104807   520538 
 3526000    1.0137771   -3.8896462   -3.8896462   -2.7856387  0.064050943   -3.8896462    1.1040074   520538 
 3527000    1.0148437    -3.890735    -3.890735   -2.7855661  0.072812175    -3.890735     1.105169   520538 
 3528000     1.014496   -3.8905358   -3.8905358   -2.7857456  0.068690571   -3.8905358    1.1047902   520538 
 3529000    1.0135256   -3.8898065   -3.8898065   -2.7860729  0.082764997   -3.8898065    1.1037336   520538 
 3530000    1.0139306   -3.8895681   -3.8895681   -2.7853936  0.068902048   -3.8895681    1.1041745   520538 
 3531000      1.01375   -3.8897613   -3.8897613   -2.7857835  0.062541924   -3.8897613    1.1039778   520538 
 3532000    1.0147791   -3.8900954   -3.8900954   -2.7849968  0.056555023   -3.8900954    1.1050986   520538 
 3533000    1.0133296   -3.8887657   -3.8887657   -2.7852456  0.063593943   -3.8887657    1.1035201   520538 
 3534000    1.0140387   -3.8902499   -3.8902499   -2.7859576  0.077356006   -3.8902499    1.1042923   520538 
 3535000    1.0136837   -3.8886765   -3.8886765   -2.7847709  0.070223633   -3.8886765    1.1039056   520538 
 3536000    1.0161254   -3.8916902   -3.8916902   -2.7851254  0.071092143   -3.8916902    1.1065647   520538 
 3537000    1.0147961   -3.8905798   -3.8905798   -2.7854627   0.06062421   -3.8905798    1.1051171   520538 
 3538000    1.0141359   -3.8898896   -3.8898896   -2.7854914  0.075952005   -3.8898896    1.1043982   520538 
 3539000    1.0156672   -3.8914084   -3.8914084   -2.7853427  0.081176519   -3.8914084    1.1060657   520538 
 3540000    1.0150807   -3.8905648   -3.8905648   -2.7851377  0.070914894   -3.8905648    1.1054271   520538 
 3541000    1.0158769   -3.8920165   -3.8920165   -2.7857224  0.060432229   -3.8920165    1.1062941   520538 
 3542000    1.0152973   -3.8915719   -3.8915719   -2.7859091  0.065555019   -3.8915719    1.1056628   520538 
 3543000    1.0146706   -3.8906116   -3.8906116   -2.7856311  0.082389406   -3.8906116    1.1049804   520538 
 3544000     1.014938   -3.8905116   -3.8905116     -2.78524  0.074701181   -3.8905116    1.1052716   520538 
 3545000    1.0134098   -3.8895661   -3.8895661   -2.7859588   0.06549986   -3.8895661    1.1036074   520538 
 3546000    1.0140454   -3.8900722   -3.8900722   -2.7857727   0.06726446   -3.8900722    1.1042995   520538 
 3547000    1.0136133   -3.8903191   -3.8903191   -2.7864901  0.062609372   -3.8903191     1.103829   520538 
 3548000    1.0123322    -3.889077    -3.889077   -2.7866431  0.077073179    -3.889077    1.1024339   520538 
 3549000    1.0137864   -3.8901077   -3.8901077   -2.7860901  0.066808336   -3.8901077    1.1040175   520538 
 3550000    1.0124828   -3.8893338   -3.8893338   -2.7867359  0.069363383   -3.8893338    1.1025979   520538 
 3551000    1.0132247   -3.8907347   -3.8907347   -2.7873288  0.081800319   -3.8907347    1.1034058   520538 
 3552000    1.0120253   -3.8901705   -3.8901705   -2.7880707  0.067653366   -3.8901705    1.1020997   520538 
 3553000    1.0131378   -3.8910408   -3.8910408   -2.7877297  0.080985678   -3.8910408    1.1033112   520538 
 3554000    1.0149393   -3.8923663   -3.8923663   -2.7870933  0.067511837   -3.8923663     1.105273   520538 
 3555000    1.0130509   -3.8901247   -3.8901247   -2.7869082  0.067957938   -3.8901247    1.1032165   520538 
 3556000    1.0150644   -3.8924497   -3.8924497   -2.7870405  0.060060205   -3.8924497    1.1054092   520538 
 3557000    1.0152632   -3.8926369   -3.8926369   -2.7870112  0.064382333   -3.8926369    1.1056257   520538 
 3558000    1.0122731   -3.8896452   -3.8896452   -2.7872757  0.084665117   -3.8896452    1.1023695   520538 
 3559000    1.0141715   -3.8917909   -3.8917909    -2.787354  0.065722679   -3.8917909    1.1044369   520538 
 3560000    1.0129662    -3.890125    -3.890125   -2.7870007  0.081132288    -3.890125    1.1031243   520538 
 3561000    1.0134832   -3.8901388   -3.8901388   -2.7864515  0.073790621   -3.8901388    1.1036873   520538 
 3562000    1.0129576   -3.8894381   -3.8894381   -2.7863232  0.078881257   -3.8894381    1.1031149   520538 
 3563000    1.0126833   -3.8902595   -3.8902595   -2.7874433   0.07288847   -3.8902595    1.1028162   520538 
 3564000    1.0157461   -3.8933241   -3.8933241   -2.7871724  0.062974829   -3.8933241    1.1061517   520538 
 3565000    1.0140896    -3.891806    -3.891806   -2.7874583  0.067920625    -3.891806    1.1043477   520538 
 3566000    1.0160069   -3.8935423   -3.8935423   -2.7871067   0.07780337   -3.8935423    1.1064356   520538 
 3567000    1.0133141   -3.8899825   -3.8899825   -2.7864793  0.069935127   -3.8899825    1.1035032   520538 
 3568000    1.0162166   -3.8935505   -3.8935505   -2.7868866  0.067621174   -3.8935505     1.106664   520538 
 3569000    1.0160664    -3.893954    -3.893954   -2.7874536  0.079461645    -3.893954    1.1065005   520538 
 3570000    1.0144246   -3.8916161   -3.8916161   -2.7869036  0.074041075   -3.8916161    1.1047125   520538 
 3571000    1.0139782   -3.8907462   -3.8907462   -2.7865199  0.064364845   -3.8907462    1.1042263   520538 
 3572000    1.0139787   -3.8912356   -3.8912356   -2.7870086  0.075698149   -3.8912356     1.104227   520538 
 3573000    1.0161035   -3.8931162   -3.8931162   -2.7865753  0.061524805   -3.8931162    1.1065409   520538 
 3574000    1.0141247   -3.8908224   -3.8908224   -2.7864364  0.056274047   -3.8908224    1.1043859   520538 
 3575000    1.0130933   -3.8898036   -3.8898036   -2.7865408  0.068119808   -3.8898036    1.1032628   520538 
 3576000    1.0127453   -3.8906236   -3.8906236   -2.7877399  0.068447387   -3.8906236    1.1028837   520538 
 3577000    1.0111851   -3.8896319   -3.8896319   -2.7884473  0.072262823   -3.8896319    1.1011847   520538 
 3578000    1.0133739   -3.8924164   -3.8924164   -2.7888481  0.071454054   -3.8924164    1.1035683   520538 
 3579000     1.014287   -3.8939255   -3.8939255   -2.7893629  0.070810001   -3.8939255    1.1045626   520538 
 3580000    1.0125427   -3.8925781   -3.8925781   -2.7899149  0.086881807   -3.8925781    1.1026631   520538 
 3581000    1.0141395   -3.8939959   -3.8939959   -2.7895939  0.065322044   -3.8939959     1.104402   520538 
 3582000    1.0145301   -3.8936792   -3.8936792   -2.7888518  0.069887302   -3.8936792    1.1048274   520538 
 3583000    1.0136184   -3.8918042   -3.8918042   -2.7879696  0.083460941   -3.8918042    1.1038346   520538 
 3584000    1.0149283   -3.8930938   -3.8930938   -2.7878328  0.070412695   -3.8930938     1.105261   520538 
 3585000    1.0140625   -3.8916487   -3.8916487   -2.7873305  0.080509723   -3.8916487    1.1043182   520538 
 3586000     1.014375   -3.8924631   -3.8924631   -2.7878046  0.063971278   -3.8924631    1.1046585   520538 
 3587000    1.0141044   -3.8922857   -3.8922857   -2.7879219  0.081914665   -3.8922857    1.1043638   520538 
 3588000    1.0149486   -3.8931345   -3.8931345   -2.7878514  0.066659474   -3.8931345    1.1052831   520538 
 3589000    1.0142836   -3.8919088   -3.8919088   -2.7873498  0.067915276   -3.8919088     1.104559   520538 
 3590000    1.0136221   -3.8913994   -3.8913994   -2.7875607     0.071934   -3.8913994    1.1038386   520538 
 3591000    1.0148429   -3.8919186   -3.8919186   -2.7867505  0.061607731   -3.8919186    1.1051681   520538 
 3592000    1.0145522    -3.891276    -3.891276   -2.7864246  0.082692445    -3.891276    1.1048515   520538 
 3593000    1.0153601   -3.8916101   -3.8916101   -2.7858788  0.062705359   -3.8916101    1.1057312   520538 
 3594000    1.0161554   -3.8931877   -3.8931877   -2.7865903  0.068261547   -3.8931877    1.1065974   520538 
 3595000    1.0152504   -3.8922839   -3.8922839    -2.786672  0.081082566   -3.8922839    1.1056119   520538 
 3596000     1.014521   -3.8915965   -3.8915965   -2.7867791  0.065249091   -3.8915965    1.1048175   520538 
 3597000     1.015151   -3.8922506   -3.8922506    -2.786747   0.07565439   -3.8922506    1.1055036   520538 
 3598000    1.0139199   -3.8912742   -3.8912742   -2.7871113  0.072187746   -3.8912742    1.1041629   520538 
 3599000    1.0121296   -3.8899583   -3.8899583    -2.787745  0.075863068   -3.8899583    1.1022132   520538 
 3600000     1.015698   -3.8931752   -3.8931752   -2.7870759  0.067991075   -3.8931752    1.1060993   520538 
 3601000    1.0144079   -3.8924982   -3.8924982   -2.7878039  0.068812146   -3.8924982    1.1046943   520538 
 3602000    1.0141173   -3.8912746   -3.8912746   -2.7868967  0.064557202   -3.8912746    1.1043779   520538 
 3603000    1.0143167   -3.8917102   -3.8917102   -2.7871152  0.076289946   -3.8917102     1.104595   520538 
 3604000    1.0147116   -3.8915687   -3.8915687   -2.7865437  0.066450995   -3.8915687     1.105025   520538 
 3605000     1.013933   -3.8903059   -3.8903059   -2.7861287  0.074944401   -3.8903059    1.1041771   520538 
 3606000    1.0124412   -3.8889184   -3.8889184   -2.7863658  0.077311372   -3.8889184    1.1025526   520538 
 3607000    1.0142918   -3.8907596   -3.8907596   -2.7861917  0.070231684   -3.8907596    1.1045679   520538 
 3608000    1.0141704   -3.8900628   -3.8900628   -2.7856271  0.068662998   -3.8900628    1.1044357   520538 
 3609000    1.0135059   -3.8899794   -3.8899794   -2.7862674  0.087403364   -3.8899794     1.103712   520538 
 3610000    1.0149295   -3.8915274   -3.8915274   -2.7862651  0.067288952   -3.8915274    1.1052623   520538 
 3611000    1.0144135    -3.890718    -3.890718   -2.7860176  0.070563788    -3.890718    1.1047004   520538 
 3612000     1.016254   -3.8930047   -3.8930047   -2.7862999  0.058271392   -3.8930047    1.1067047   520538 
 3613000    1.0143746   -3.8916987   -3.8916987   -2.7870406  0.077782413   -3.8916987    1.1046581   520538 
 3614000     1.014385   -3.8906113   -3.8906113   -2.7859419  0.076339379   -3.8906113    1.1046694   520538 
 3615000    1.0165854   -3.8932037   -3.8932037   -2.7861381   0.06893689   -3.8932037    1.1070656   520538 
 3616000    1.0164851   -3.8931331   -3.8931331   -2.7861767  0.058276202   -3.8931331    1.1069564   520538 
 3617000    1.0151571   -3.8917186   -3.8917186   -2.7862084   0.07104365   -3.8917186    1.1055102   520538 
 3618000    1.0137588   -3.8906916   -3.8906916    -2.786704  0.070356576   -3.8906916    1.1039875   520538 
 3619000    1.0132121   -3.8908504   -3.8908504   -2.7874583  0.083806593   -3.8908504    1.1033921   520538 
 3620000    1.0132721   -3.8902627   -3.8902627   -2.7868053  0.052389621   -3.8902627    1.1034574   520538 
 3621000    1.0129444   -3.8902487   -3.8902487   -2.7871481   0.07429992   -3.8902487    1.1031006   520538 
 3622000    1.0143137   -3.8926962   -3.8926962   -2.7881044  0.085771785   -3.8926962    1.1045918   520538 
 3623000     1.014199   -3.8921892   -3.8921892   -2.7877224  0.076070818   -3.8921892    1.1044668   520538 
 3624000    1.0153008   -3.8921466   -3.8921466   -2.7864798  0.072421393   -3.8921466    1.1056667   520538 
 3625000    1.0144358   -3.8923934   -3.8923934   -2.7876687  0.069751857   -3.8923934    1.1047247   520538 
 3626000    1.0148614   -3.8923758   -3.8923758   -2.7871876  0.063244658   -3.8923758    1.1051882   520538 
 3627000    1.0137385   -3.8908892   -3.8908892   -2.7869238  0.063126581   -3.8908892    1.1039654   520538 
 3628000    1.0140639    -3.891112    -3.891112   -2.7867923  0.064376967    -3.891112    1.1043197   520538 
 3629000    1.0140853   -3.8909045   -3.8909045   -2.7865615  0.087497097   -3.8909045     1.104343   520538 
 3630000     1.013251    -3.890451    -3.890451   -2.7870166  0.062642659    -3.890451    1.1034344   520538 
 3631000    1.0151137   -3.8918217   -3.8918217   -2.7863588  0.069031982   -3.8918217    1.1054629   520538 
 3632000    1.0161489    -3.893178    -3.893178   -2.7865877    0.0844603    -3.893178    1.1065903   520538 
 3633000    1.0143318   -3.8913299   -3.8913299   -2.7867184  0.071196759   -3.8913299    1.1046115   520538 
 3634000    1.0155762   -3.8924995   -3.8924995   -2.7865329  0.077124844   -3.8924995    1.1059666   520538 
 3635000    1.0148554   -3.8922561   -3.8922561   -2.7870744  0.064960557   -3.8922561    1.1051817   520538 
 3636000    1.0146818   -3.8917129   -3.8917129   -2.7867203  0.071864754   -3.8917129    1.1049926   520538 
 3637000    1.0152007   -3.8923555   -3.8923555   -2.7867978  0.055630346   -3.8923555    1.1055577   520538 
 3638000    1.0141964   -3.8924843   -3.8924843   -2.7880203  0.063948416   -3.8924843     1.104464   520538 
 3639000    1.0137848   -3.8925239   -3.8925239   -2.7885081  0.051146466   -3.8925239    1.1040158   520538 
 3640000    1.0119062   -3.8905845   -3.8905845   -2.7886146  0.072158427   -3.8905845    1.1019699   520538 
 3641000     1.013392   -3.8914085   -3.8914085   -2.7878205  0.068166867   -3.8914085     1.103588   520538 
 3642000    1.0142935   -3.8929608   -3.8929608   -2.7883911  0.078592015   -3.8929608    1.1045697   520538 
 3643000      1.01409   -3.8922685   -3.8922685   -2.7879204  0.059143947   -3.8922685    1.1043481   520538 
 3644000    1.0127621   -3.8905405   -3.8905405   -2.7876385  0.078533262   -3.8905405     1.102902   520538 
 3645000    1.0126925   -3.8904585   -3.8904585   -2.7876323  0.074879542   -3.8904585    1.1028263   520538 
 3646000    1.0137483   -3.8918568   -3.8918568   -2.7878807  0.076605361   -3.8918568    1.1039761   520538 
 3647000     1.014407   -3.8929705   -3.8929705   -2.7882772  0.073270362   -3.8929705    1.1046933   520538 
 3648000    1.0139118    -3.892143    -3.892143    -2.787989    0.0645313    -3.892143     1.104154   520538 
 3649000    1.0162906   -3.8949184   -3.8949184   -2.7881737  0.064250595   -3.8949184    1.1067446   520538 
 3650000    1.0143029   -3.8929959   -3.8929959   -2.7884159  0.067540896   -3.8929959      1.10458   520538 
 3651000    1.0126375   -3.8918988   -3.8918988   -2.7891324  0.065081927   -3.8918988    1.1027664   520538 
 3652000     1.013844   -3.8930887   -3.8930887   -2.7890085   0.06741113   -3.8930887    1.1040802   520538 
 3653000    1.0130141   -3.8925737   -3.8925737   -2.7893972  0.073627343   -3.8925737    1.1031765   520538 
 3654000    1.0130078   -3.8920321   -3.8920321   -2.7888626  0.077781509   -3.8920321    1.1031696   520538 
 3655000    1.0129356   -3.8915279   -3.8915279    -2.788437  0.060945073   -3.8915279     1.103091   520538 
 3656000      1.01288   -3.8907258   -3.8907258   -2.7876953   0.07422083   -3.8907258    1.1030304   520538 
 3657000    1.0116383   -3.8895469   -3.8895469   -2.7878686  0.083302828   -3.8895469    1.1016783   520538 
 3658000    1.0140398   -3.8921588   -3.8921588   -2.7878654  0.052552108   -3.8921588    1.1042934   520538 
 3659000    1.0132258   -3.8915346   -3.8915346   -2.7881276  0.085611606   -3.8915346     1.103407   520538 
 3660000    1.0149095   -3.8928606   -3.8928606     -2.78762  0.074770593   -3.8928606    1.1052406   520538 
 3661000     1.012337   -3.8909248   -3.8909248   -2.7884857  0.082962219   -3.8909248    1.1024391   520538 
 3662000    1.0133943   -3.8911307   -3.8911307   -2.7875402  0.065733497   -3.8911307    1.1035905   520538 
 3663000    1.0143611    -3.891446    -3.891446   -2.7868027  0.070933847    -3.891446    1.1046434   520538 
 3664000    1.0125176   -3.8900409   -3.8900409   -2.7874051  0.072480702   -3.8900409    1.1026358   520538 
 3665000    1.0138016   -3.8909496   -3.8909496   -2.7869156  0.076262771   -3.8909496    1.1040341   520538 
 3666000     1.014985   -3.8927778   -3.8927778    -2.787455  0.067424957   -3.8927778    1.1053228   520538 
 3667000    1.0157695   -3.8932533   -3.8932533   -2.7870762  0.080906078   -3.8932533    1.1061771   520538 
 3668000    1.0120024   -3.8898406   -3.8898406   -2.7877658  0.053404376   -3.8898406    1.1020748   520538 
 3669000    1.0142759   -3.8928372   -3.8928372   -2.7882866  0.065445044   -3.8928372    1.1045506   520538 
 3670000    1.0131174   -3.8912243   -3.8912243   -2.7879352   0.07177463   -3.8912243     1.103289   520538 
 3671000    1.0126121    -3.891319    -3.891319   -2.7885803  0.065578959    -3.891319    1.1027387   520538 
 3672000    1.0147368   -3.8930042   -3.8930042   -2.7879517  0.080219929   -3.8930042    1.1050525   520538 
 3673000    1.0126377   -3.8910102   -3.8910102   -2.7882437  0.067894155   -3.8910102    1.1027665   520538 
 3674000    1.0129567   -3.8911723   -3.8911723   -2.7880583  0.066054594   -3.8911723    1.1031139   520538 
 3675000    1.0133965   -3.8914777   -3.8914777   -2.7878847  0.058666233   -3.8914777    1.1035929   520538 
 3676000    1.0117666   -3.8899316   -3.8899316   -2.7881136  0.066690965   -3.8899316     1.101818   520538 
 3677000    1.0141483   -3.8927047   -3.8927047   -2.7882932  0.061251987   -3.8927047    1.1044116   520538 
 3678000    1.0144324   -3.8920348   -3.8920348   -2.7873139  0.066058744   -3.8920348     1.104721   520538 
 3679000     1.012761   -3.8903493   -3.8903493   -2.7874484  0.074765513   -3.8903493    1.1029008   520538 
 3680000    1.0118954   -3.8895283   -3.8895283   -2.7875701  0.069256905   -3.8895283    1.1019582   520538 
 3681000    1.0119324   -3.8888707   -3.8888707   -2.7868722  0.073861595   -3.8888707    1.1019985   520538 
 3682000    1.0142967   -3.8921827   -3.8921827   -2.7876095  0.065922857   -3.8921827    1.1045732   520538 
 3683000    1.0124378   -3.8901128   -3.8901128   -2.7875639  0.061290935   -3.8901128    1.1025489   520538 
 3684000    1.0115774   -3.8895065   -3.8895065   -2.7878946  0.056656013   -3.8895065    1.1016119   520538 
 3685000     1.012885   -3.8901843   -3.8901843   -2.7871484  0.084042761   -3.8901843    1.1030359   520538 
 3686000    1.0157149   -3.8941442   -3.8941442   -2.7880266  0.057744893   -3.8941442    1.1061177   520538 
 3687000    1.0137686   -3.8913717   -3.8913717   -2.7873735   0.06014106   -3.8913717    1.1039982   520538 
 3688000    1.0167673   -3.8944866   -3.8944866   -2.7872229  0.065379356   -3.8944866    1.1072637   520538 
 3689000    1.0149415   -3.8936256   -3.8936256   -2.7883502  0.064541963   -3.8936256    1.1052754   520538 
 3690000    1.0145744   -3.8933207   -3.8933207    -2.788445   0.06317926   -3.8933207    1.1048757   520538 
 3691000    1.0139328   -3.8920528   -3.8920528   -2.7878758  0.067767943   -3.8920528    1.1041769   520538 
 3692000    1.0148233   -3.8926757   -3.8926757    -2.787529  0.073587347   -3.8926757    1.1051467   520538 
 3693000    1.0156563   -3.8931556   -3.8931556   -2.7871018  0.065642209   -3.8931556    1.1060538   520538 
 3694000    1.0149993   -3.8927905   -3.8927905   -2.7874522  0.059091762   -3.8927905    1.1053383   520538 
 3695000    1.0145586   -3.8928326   -3.8928326   -2.7879742   0.07776923   -3.8928326    1.1048584   520538 
 3696000    1.0148144   -3.8923287   -3.8923287   -2.7871916  0.061906766   -3.8923287     1.105137   520538 
 3697000    1.0145935      -3.8924      -3.8924   -2.7875036  0.078577371      -3.8924    1.1048964   520538 
 3698000    1.0138482   -3.8910342   -3.8910342   -2.7869494  0.078177741   -3.8910342    1.1040849   520538 
 3699000     1.013596   -3.8911704   -3.8911704   -2.7873603  0.077524911   -3.8911704    1.1038102   520538 
 3700000    1.0157694   -3.8932313   -3.8932313   -2.7870543  0.056351953   -3.8932313     1.106177   520538 
 3701000    1.0142653   -3.8920246   -3.8920246   -2.7874856  0.068890015   -3.8920246     1.104539   520538 
 3702000     1.014138   -3.8919201   -3.8919201   -2.7875197  0.063938767   -3.8919201    1.1044004   520538 
 3703000    1.0123078   -3.8899904   -3.8899904   -2.7875831  0.077573121   -3.8899904    1.1024073   520538 
 3704000    1.0123789   -3.8905082   -3.8905082   -2.7880235  0.065545631   -3.8905082    1.1024847   520538 
 3705000     1.012138   -3.8898999   -3.8898999   -2.7876775   0.06151697   -3.8898999    1.1022224   520538 
 3706000    1.0119414   -3.8897376   -3.8897376   -2.7877293  0.057857124   -3.8897376    1.1020083   520538 
 3707000    1.0133157   -3.8907248   -3.8907248   -2.7872199  0.070106766   -3.8907248    1.1035049   520538 
 3708000    1.0122298   -3.8904681   -3.8904681   -2.7881458   0.06763502   -3.8904681    1.1023223   520538 
 3709000    1.0128468   -3.8908816   -3.8908816   -2.7878873  0.070003458   -3.8908816    1.1029943   520538 
 3710000    1.0119491   -3.8895854   -3.8895854   -2.7875688  0.081087462   -3.8895854    1.1020167   520538 
 3711000    1.0135341   -3.8904234   -3.8904234   -2.7866807  0.073854456   -3.8904234    1.1037427   520538 
 3712000    1.0141001    -3.891424    -3.891424   -2.7870649  0.067387248    -3.891424    1.1043591   520538 
 3713000    1.0149538   -3.8920145   -3.8920145   -2.7867256  0.058170036   -3.8920145    1.1052889   520538 
 3714000    1.0150945   -3.8927441   -3.8927441    -2.787302  0.066958041   -3.8927441    1.1054421   520538 
 3715000    1.0146202   -3.8928932   -3.8928932   -2.7879677  0.074279929   -3.8928932    1.1049255   520538 
 3716000    1.0162136   -3.8944699   -3.8944699   -2.7878092  0.070186221   -3.8944699    1.1066607   520538 
 3717000    1.0136581   -3.8924772   -3.8924772   -2.7885994  0.071503575   -3.8924772    1.1038778   520538 
 3718000    1.0143738   -3.8930851   -3.8930851   -2.7884279  0.069783577   -3.8930851    1.1046572   520538 
 3719000    1.0121577   -3.8913426   -3.8913426   -2.7890988  0.082555163   -3.8913426    1.1022439   520538 
 3720000     1.013459   -3.8936157   -3.8936157   -2.7899547  0.074682389   -3.8936157     1.103661   520538 
 3721000    1.0128944   -3.8934513   -3.8934513   -2.7904052  0.060735233   -3.8934513    1.1030461   520538 
 3722000    1.0148872   -3.8951943   -3.8951943   -2.7899781  0.071571315   -3.8951943    1.1052162   520538 
 3723000    1.0138443   -3.8947376   -3.8947376    -2.790657  0.087017898   -3.8947376    1.1040806   520538 
 3724000    1.0160908   -3.8961546   -3.8961546   -2.7896276  0.070702308   -3.8961546     1.106527   520538 
 3725000    1.0144776   -3.8945387   -3.8945387   -2.7897685  0.080492886   -3.8945387    1.1047702   520538 
 3726000    1.0149699   -3.8950575   -3.8950575   -2.7897512  0.064516331   -3.8950575    1.1053063   520538 
 3727000    1.0146859   -3.8951117   -3.8951117   -2.7901146  0.074627103   -3.8951117    1.1049971   520538 
 3728000    1.0144816   -3.8960969   -3.8960969   -2.7913224  0.062597817   -3.8960969    1.1047745   520538 
 3729000     1.013058   -3.8944917   -3.8944917   -2.7912674  0.066612597   -3.8944917    1.1032243   520538 
 3730000    1.0139056   -3.8950952   -3.8950952   -2.7909479  0.077242527   -3.8950952    1.1041473   520538 
 3731000    1.0132529   -3.8930766   -3.8930766     -2.78964  0.072944337   -3.8930766    1.1034366   520538 
 3732000    1.0139451    -3.894014    -3.894014   -2.7898237  0.072913452    -3.894014    1.1041903   520538 
 3733000    1.0139487   -3.8930819   -3.8930819   -2.7888876  0.077313922   -3.8930819    1.1041943   520538 
 3734000    1.0152978   -3.8942814   -3.8942814   -2.7886179  0.078416599   -3.8942814    1.1056634   520538 
 3735000    1.0149602   -3.8943807   -3.8943807   -2.7890849  0.070148031   -3.8943807    1.1052957   520538 
 3736000    1.0145341   -3.8941496   -3.8941496   -2.7893178  0.075425308   -3.8941496    1.1048318   520538 
 3737000    1.0134563   -3.8937524   -3.8937524   -2.7900944  0.067637093   -3.8937524     1.103658   520538 
 3738000    1.0146509   -3.8950839   -3.8950839   -2.7901249  0.064474718   -3.8950839    1.1049589   520538 
 3739000    1.0125311   -3.8928451   -3.8928451   -2.7901945  0.065322741   -3.8928451    1.1026505   520538 
 3740000    1.0124324   -3.8926235   -3.8926235   -2.7900805  0.066443538   -3.8926235     1.102543   520538 
 3741000     1.012578   -3.8935096   -3.8935096    -2.790808  0.060277175   -3.8935096    1.1027016   520538 
 3742000    1.0126034   -3.8935437   -3.8935437   -2.7908145  0.067428536   -3.8935437    1.1027292   520538 
 3743000    1.0139745   -3.8948041   -3.8948041   -2.7905817  0.050307676   -3.8948041    1.1042224   520538 
 3744000    1.0126154   -3.8930205   -3.8930205   -2.7902782  0.063751924   -3.8930205    1.1027423   520538 
 3745000    1.0135374   -3.8944716   -3.8944716   -2.7907252  0.060815974   -3.8944716    1.1037464   520538 
 3746000    1.0132663   -3.8951582   -3.8951582   -2.7917071  0.061011248   -3.8951582    1.1034511   520538 
 3747000    1.0143743   -3.8959225   -3.8959225   -2.7912647  0.077790499   -3.8959225    1.1046577   520538 
 3748000    1.0133224   -3.8944307   -3.8944307   -2.7909185  0.070614535   -3.8944307    1.1035122   520538 
 3749000    1.0133063   -3.8945811   -3.8945811   -2.7910863  0.071639622   -3.8945811    1.1034947   520538 
 3750000    1.0129033   -3.8941427   -3.8941427   -2.7910869  0.071607589   -3.8941427    1.1030558   520538 
 3751000    1.0142447   -3.8955651   -3.8955651   -2.7910485  0.057599714   -3.8955651    1.1045166   520538 
 3752000    1.0118341   -3.8929739   -3.8929739   -2.7910825  0.077256884   -3.8929739    1.1018914   520538 
 3753000    1.0116851   -3.8919583   -3.8919583    -2.790229  0.073897061   -3.8919583    1.1017292   520538 
 3754000    1.0124565   -3.8932725   -3.8932725   -2.7907033  0.046920112   -3.8932725    1.1025692   520538 
 3755000     1.015179   -3.8950082   -3.8950082   -2.7894742  0.061623599   -3.8950082     1.105534   520538 
 3756000    1.0159387   -3.8962148   -3.8962148   -2.7898534  0.062739438   -3.8962148    1.1063614   520538 
 3757000    1.0150022   -3.8950685   -3.8950685   -2.7897269  0.062473596   -3.8950685    1.1053415   520538 
 3758000    1.0144523   -3.8944749   -3.8944749   -2.7897323  0.082958557   -3.8944749    1.1047426   520538 
 3759000    1.0142435   -3.8939806   -3.8939806   -2.7894653  0.069325541   -3.8939806    1.1045153   520538 
 3760000    1.0139959   -3.8945083   -3.8945083   -2.7902626   0.06032345   -3.8945083    1.1042457   520538 
 3761000    1.0158581   -3.8968685   -3.8968685   -2.7905949   0.06739153   -3.8968685    1.1062736   520538 
 3762000    1.0129163   -3.8940866   -3.8940866   -2.7910166   0.07435701   -3.8940866      1.10307   520538 
 3763000    1.0139073   -3.8957155   -3.8957155   -2.7915664  0.079387669   -3.8957155    1.1041491   520538 
 3764000     1.013514   -3.8943773   -3.8943773   -2.7906564  0.084013864   -3.8943773    1.1037208   520538 
 3765000    1.0147801   -3.8959416   -3.8959416   -2.7908419  0.079548469   -3.8959416    1.1050997   520538 
 3766000     1.013785   -3.8942075   -3.8942075   -2.7901915  0.071925547   -3.8942075     1.104016   520538 
 3767000    1.0117134   -3.8925691   -3.8925691    -2.790809  0.077982992   -3.8925691    1.1017601   520538 
 3768000     1.013868   -3.8947835   -3.8947835   -2.7906771  0.056367417   -3.8947835    1.1041063   520538 
 3769000    1.0141792   -3.8961709   -3.8961709   -2.7917256  0.072892284   -3.8961709    1.1044453   520538 
 3770000    1.0142203   -3.8958661   -3.8958661   -2.7913761  0.075335076   -3.8958661      1.10449   520538 
 3771000    1.0138873   -3.8960724   -3.8960724    -2.791945  0.069314052   -3.8960724    1.1041274   520538 
 3772000    1.0130994   -3.8957742   -3.8957742   -2.7925049   0.05621844   -3.8957742    1.1032693   520538 
 3773000    1.0120146   -3.8943706   -3.8943706   -2.7922826  0.074798532   -3.8943706     1.102088   520538 
 3774000    1.0131005   -3.8964783   -3.8964783   -2.7932076  0.063414467   -3.8964783    1.1032706   520538 
 3775000    1.0133181   -3.8971025   -3.8971025   -2.7935949  0.076135988   -3.8971025    1.1035076   520538 
 3776000    1.0127866   -3.8963423   -3.8963423   -2.7934136  0.060358883   -3.8963423    1.1029287   520538 
 3777000    1.0139572   -3.8979734   -3.8979734   -2.7937699  0.068105253   -3.8979734    1.1042035   520538 
 3778000    1.0133444   -3.8973024   -3.8973024   -2.7937663  0.071471699   -3.8973024    1.1035361   520538 
 3779000    1.0124075   -3.8962455   -3.8962455   -2.7937296  0.074064518   -3.8962455    1.1025159   520538 
 3780000    1.0133108   -3.8968293   -3.8968293   -2.7933297  0.076294638   -3.8968293    1.1034996   520538 
 3781000    1.0146798   -3.8981957   -3.8981957   -2.7932052  0.066949666   -3.8981957    1.1049905   520538 
 3782000    1.0142158   -3.8981326   -3.8981326   -2.7936475  0.080456733   -3.8981326    1.1044851   520538 
 3783000    1.0139832   -3.8974363   -3.8974363   -2.7932046   0.07274401   -3.8974363    1.1042318   520538 
 3784000    1.0138955   -3.8980723   -3.8980723   -2.7939359  0.064508446   -3.8980723    1.1041363   520538 
 3785000    1.0144552   -3.8989505   -3.8989505   -2.7942047  0.081762454   -3.8989505    1.1047459   520538 
 3786000    1.0142815   -3.8981797   -3.8981797    -2.793623  0.070216646   -3.8981797    1.1045567   520538 
 3787000    1.0130601   -3.8979575   -3.8979575    -2.794731  0.073187175   -3.8979575    1.1032266   520538 
 3788000    1.0136306   -3.8982501   -3.8982501   -2.7944022   0.08475188   -3.8982501    1.1038478   520538 
 3789000    1.0142077   -3.8978263   -3.8978263     -2.79335   0.06740431   -3.8978263    1.1044763   520538 
 3790000    1.0133644   -3.8971786   -3.8971786   -2.7936206  0.067127756   -3.8971786     1.103558   520538 
 3791000    1.0138027   -3.8977211   -3.8977211   -2.7936859  0.072924871   -3.8977211    1.1040352   520538 
 3792000    1.0132973   -3.8974991   -3.8974991   -2.7940142  0.087045728   -3.8974991    1.1034849   520538 
 3793000    1.0126125   -3.8960866   -3.8960866   -2.7933475  0.085782584   -3.8960866    1.1027391   520538 
 3794000    1.0137698   -3.8980504   -3.8980504   -2.7940509  0.077821287   -3.8980504    1.1039995   520538 
 3795000     1.012737   -3.8966074   -3.8966074   -2.7937327  0.070638315   -3.8966074    1.1028747   520538 
 3796000    1.0135598   -3.8972136   -3.8972136   -2.7934428  0.053854193   -3.8972136    1.1037707   520538 
 3797000    1.0143927    -3.898446    -3.898446   -2.7937682  0.072572518    -3.898446    1.1046777   520538 
 3798000    1.0111662   -3.8949194   -3.8949194   -2.7937553  0.062914575   -3.8949194    1.1011641   520538 
 3799000     1.013179   -3.8984197   -3.8984197   -2.7950637  0.054667235   -3.8984197     1.103356   520538 
 3800000    1.0117999   -3.8968355   -3.8968355   -2.7949813  0.066271501   -3.8968355    1.1018542   520538 
 3801000    1.0138677   -3.8985477   -3.8985477   -2.7944417  0.069588432   -3.8985477     1.104106   520538 
 3802000     1.012138   -3.8958364   -3.8958364   -2.7936139  0.064253541   -3.8958364    1.1022225   520538 
 3803000    1.0145996   -3.8989197   -3.8989197   -2.7940166  0.060513481   -3.8989197    1.1049031   520538 
 3804000    1.0141035   -3.8991103   -3.8991103   -2.7947475  0.077433951   -3.8991103    1.1043628   520538 
 3805000     1.013453    -3.898239    -3.898239   -2.7945846  0.079247533    -3.898239    1.1036544   520538 
 3806000    1.0130811     -3.89887     -3.89887   -2.7956205  0.075241904     -3.89887    1.1032494   520538 
 3807000    1.0139705   -3.8998624   -3.8998624   -2.7956443    0.0700976   -3.8998624     1.104218   520538 
 3808000    1.0126756   -3.8987531   -3.8987531   -2.7959453  0.067035064   -3.8987531    1.1028078   520538 
 3809000    1.0118344   -3.8978075   -3.8978075   -2.7959158  0.065181892   -3.8978075    1.1018917   520538 
 3810000     1.012401   -3.8976359   -3.8976359   -2.7951271  0.076375592   -3.8976359    1.1025088   520538 
 3811000    1.0130926   -3.8987996   -3.8987996   -2.7955376  0.060928049   -3.8987996     1.103262   520538 
 3812000    1.0151499   -3.9005704   -3.9005704    -2.795068   0.05837386   -3.9005704    1.1055024   520538 
 3813000    1.0124992   -3.8966922   -3.8966922   -2.7940765  0.076577211   -3.8966922    1.1026157   520538 
 3814000     1.012322   -3.8965877   -3.8965877   -2.7941649  0.068101254   -3.8965877    1.1024228   520538 
 3815000    1.0111506   -3.8961728   -3.8961728   -2.7950257  0.066372433   -3.8961728    1.1011471   520538 
 3816000    1.0140677   -3.8989308   -3.8989308    -2.794607  0.068506819   -3.8989308    1.1043238   520538 
 3817000    1.0145388   -3.8984597   -3.8984597   -2.7936228  0.075514566   -3.8984597    1.1048369   520538 
 3818000    1.0139489   -3.8977772   -3.8977772   -2.7935828  0.059063712   -3.8977772    1.1041944   520538 
 3819000    1.0126674   -3.8969503   -3.8969503   -2.7941514   0.07725315   -3.8969503     1.102799   520538 
 3820000    1.0131015   -3.8972019   -3.8972019   -2.7939302  0.068599792   -3.8972019    1.1032717   520538 
 3821000    1.0115305    -3.894765    -3.894765   -2.7932041  0.055751655    -3.894765    1.1015608   520538 
 3822000    1.0129574    -3.896736    -3.896736   -2.7936213  0.068562062    -3.896736    1.1031147   520538 
 3823000    1.0143962   -3.8987617   -3.8987617   -2.7940801  0.073631341   -3.8987617    1.1046816   520538 
 3824000    1.0138914   -3.8981527   -3.8981527   -2.7940209  0.064710879   -3.8981527    1.1041318   520538 
 3825000    1.0125179   -3.8959648   -3.8959648   -2.7933287   0.05409307   -3.8959648    1.1026361   520538 
 3826000    1.0139896   -3.8975591   -3.8975591   -2.7933203   0.06199719   -3.8975591    1.1042388   520538 
 3827000    1.0136784   -3.8972548   -3.8972548   -2.7933549  0.072106232   -3.8972548    1.1038999   520538 
 3828000    1.0120906   -3.8956206   -3.8956206   -2.7934498  0.068665843   -3.8956206    1.1021708   520538 
 3829000    1.0109959   -3.8944469   -3.8944469   -2.7934682  0.067673799   -3.8944469    1.1009787   520538 
 3830000    1.0115098   -3.8947751   -3.8947751   -2.7932368  0.059915496   -3.8947751    1.1015383   520538 
 3831000    1.0119117   -3.8950881   -3.8950881   -2.7931121  0.070286143   -3.8950881     1.101976   520538 
 3832000    1.0122418   -3.8952952   -3.8952952   -2.7929598  0.064654549   -3.8952952    1.1023354   520538 
 3833000    1.0110701   -3.8942145   -3.8942145    -2.793155  0.072008022   -3.8942145    1.1010595   520538 
 3834000    1.0149419   -3.8981248   -3.8981248   -2.7928489   0.06665511   -3.8981248    1.1052759   520538 
 3835000    1.0129214   -3.8959731   -3.8959731   -2.7928976  0.063715458   -3.8959731    1.1030755   520538 
 3836000    1.0134779    -3.897347    -3.897347   -2.7936654  0.068266652    -3.897347    1.1036816   520538 
 3837000    1.0129177   -3.8974259   -3.8974259   -2.7943545  0.067840307   -3.8974259    1.1030715   520538 
 3838000    1.0131444   -3.8973573   -3.8973573   -2.7940389  0.074414559   -3.8973573    1.1033184   520538 
 3839000    1.0120476   -3.8969329   -3.8969329    -2.794809  0.079296028   -3.8969329     1.102124   520538 
 3840000    1.0126367   -3.8973043   -3.8973043   -2.7945389  0.061773828   -3.8973043    1.1027655   520538 
 3841000    1.0131409   -3.8983783   -3.8983783   -2.7950637  0.066240375   -3.8983783    1.1033146   520538 
 3842000    1.0112629   -3.8957879   -3.8957879   -2.7945185  0.068322948   -3.8957879    1.1012694   520538 
 3843000    1.0143032   -3.8987314   -3.8987314   -2.7941511  0.062403882   -3.8987314    1.1045803   520538 
 3844000    1.0143212   -3.8981422   -3.8981422   -2.7935423  0.072329018   -3.8981422    1.1045999   520538 
 3845000    1.0135346   -3.8975483   -3.8975483    -2.793805  0.056709426   -3.8975483    1.1037433   520538 
 3846000    1.0139305   -3.8984216   -3.8984216   -2.7942472  0.066086553   -3.8984216    1.1041744   520538 
 3847000     1.014245   -3.8991706   -3.8991706   -2.7946536   0.07511927   -3.8991706     1.104517   520538 
 3848000    1.0128727   -3.8977264   -3.8977264    -2.794704  0.081781395   -3.8977264    1.1030224   520538 
 3849000     1.014418   -3.8991483   -3.8991483   -2.7944429  0.067046854   -3.8991483    1.1047054   520538 
 3850000    1.0125836     -3.89811     -3.89811   -2.7954023   0.06819573     -3.89811    1.1027077   520538 
 3851000    1.0109225   -3.8952168   -3.8952168   -2.7943181  0.069376925   -3.8952168    1.1008987   520538 
 3852000    1.0121266   -3.8960598   -3.8960598   -2.7938498    0.0780731   -3.8960598      1.10221   520538 
 3853000    1.0133146   -3.8978238   -3.8978238   -2.7943201  0.069467438   -3.8978238    1.1035037   520538 
 3854000    1.0134591   -3.8986377   -3.8986377   -2.7949766  0.060328528   -3.8986377    1.1036611   520538 
 3855000    1.0130356   -3.8980878   -3.8980878   -2.7948879  0.062336786   -3.8980878    1.1031999   520538 
 3856000    1.0131781   -3.8980329   -3.8980329   -2.7946778  0.078636569   -3.8980329    1.1033551   520538 
 3857000    1.0136148   -3.8974378   -3.8974378   -2.7936072  0.062902679   -3.8974378    1.1038306   520538 
 3858000    1.0137855   -3.8978543   -3.8978543   -2.7938378  0.077243793   -3.8978543    1.1040165   520538 
 3859000    1.0139788   -3.8984951   -3.8984951    -2.794268  0.060387878   -3.8984951    1.1042271   520538 
 3860000    1.0126062   -3.8973327   -3.8973327   -2.7946004  0.074414079   -3.8973327    1.1027323   520538 
 3861000    1.0140453   -3.8986226   -3.8986226   -2.7943232  0.080821561   -3.8986226    1.1042994   520538 
 3862000    1.0146954   -3.8994674   -3.8994674     -2.79446   0.06136973   -3.8994674    1.1050074   520538 
 3863000    1.0144411   -3.8989368   -3.8989368   -2.7942063  0.061890643   -3.8989368    1.1047305   520538 
 3864000    1.0141195   -3.8979822   -3.8979822    -2.793602  0.078628697   -3.8979822    1.1043802   520538 
 3865000    1.0131175   -3.8978138   -3.8978138   -2.7945247  0.065674733   -3.8978138    1.1032891   520538 
 3866000    1.0134621   -3.8982867   -3.8982867   -2.7946224  0.077326238   -3.8982867    1.1036643   520538 
 3867000    1.0146556    -3.900819    -3.900819    -2.795855   0.06827727    -3.900819     1.104964   520538 
 3868000     1.012269   -3.8987801   -3.8987801    -2.796415  0.084172214   -3.8987801    1.1023651   520538 
 3869000    1.0133127   -3.8996798   -3.8996798   -2.7961782  0.071165527   -3.8996798    1.1035016   520538 
 3870000    1.0148682    -3.901063    -3.901063   -2.7958674  0.068472181    -3.901063    1.1051956   520538 
 3871000     1.011996   -3.8980808   -3.8980808    -2.796013  0.061083462   -3.8980808    1.1020678   520538 
 3872000    1.0124135   -3.8977589   -3.8977589   -2.7952365  0.060464852   -3.8977589    1.1025224   520538 
 3873000    1.0121306   -3.8981688   -3.8981688   -2.7959544  0.062472148   -3.8981688    1.1022144   520538 
 3874000      1.01377   -3.8994809   -3.8994809   -2.7954812  0.071688301   -3.8994809    1.1039997   520538 
 3875000    1.0126268     -3.89868     -3.89868   -2.7959253  0.071291162     -3.89868    1.1027547   520538 
 3876000    1.0127497    -3.898429    -3.898429   -2.7955405  0.077272293    -3.898429    1.1028885   520538 
 3877000    1.0127369    -3.898667    -3.898667   -2.7957923   0.07383981    -3.898667    1.1028746   520538 
 3878000    1.0122917   -3.8984244   -3.8984244   -2.7960346  0.078470606   -3.8984244    1.1023898   520538 
 3879000    1.0139945   -3.9000036   -3.9000036   -2.7957595  0.051934012   -3.9000036    1.1042442   520538 
 3880000    1.0136345   -3.8994617   -3.8994617   -2.7956096  0.071889267   -3.8994617    1.1038521   520538 
 3881000    1.0132172   -3.8991995   -3.8991995   -2.7958018  0.076970738   -3.8991995    1.1033977   520538 
 3882000    1.0128597   -3.8989839   -3.8989839   -2.7959756  0.062984647   -3.8989839    1.1030083   520538 
 3883000    1.0114855   -3.8982093   -3.8982093   -2.7966975  0.078553536   -3.8982093    1.1015118   520538 
 3884000    1.0125513   -3.8989013   -3.8989013   -2.7962288  0.064598467   -3.8989013    1.1026725   520538 
 3885000    1.0126647   -3.8988148   -3.8988148   -2.7960188  0.076035205   -3.8988148     1.102796   520538 
 3886000    1.0124037   -3.8980646   -3.8980646   -2.7955528  0.086662476   -3.8980646    1.1025118   520538 
 3887000    1.0120516   -3.8977381   -3.8977381   -2.7956098  0.067192039   -3.8977381    1.1021283   520538 
 3888000    1.0126909   -3.8980835   -3.8980835    -2.795259  0.061468807   -3.8980835    1.1028245   520538 
 3889000    1.0132553   -3.8982129   -3.8982129   -2.7947738  0.070525327   -3.8982129    1.1034391   520538 
 3890000    1.0130277   -3.8978236   -3.8978236   -2.7946324  0.066986832   -3.8978236    1.1031912   520538 
 3891000    1.0134763   -3.8993107   -3.8993107   -2.7956309  0.069616423   -3.8993107    1.1036798   520538 
 3892000    1.0136176   -3.8996164   -3.8996164   -2.7957827   0.06432492   -3.8996164    1.1038337   520538 
 3893000    1.0120668   -3.8981532   -3.8981532   -2.7960084  0.067951866   -3.8981532    1.1021448   520538 
 3894000    1.0115248   -3.8978869   -3.8978869   -2.7963323  0.078260377   -3.8978869    1.1015546   520538 
 3895000    1.0123561   -3.8988645   -3.8988645   -2.7964047  0.075552538   -3.8988645    1.1024599   520538 
 3896000      1.01349   -3.8990304   -3.8990304   -2.7953357  0.070543636   -3.8990304    1.1036947   520538 
 3897000    1.0124588   -3.8977141   -3.8977141   -2.7951424  0.064036724   -3.8977141    1.1025718   520538 
 3898000    1.0136069   -3.8979045   -3.8979045   -2.7940824  0.086405405   -3.8979045    1.1038221   520538 
 3899000    1.0134676   -3.8984176   -3.8984176   -2.7947472  0.052931977   -3.8984176    1.1036704   520538 
 3900000    1.0156721   -3.9006175   -3.9006175   -2.7945464  0.068977706   -3.9006175    1.1060711   520538 
 3901000    1.0136814   -3.8990519   -3.8990519   -2.7951487  0.066052422   -3.8990519    1.1039032   520538 
 3902000    1.0129875   -3.8977315   -3.8977315    -2.794584  0.075663047   -3.8977315    1.1031476   520538 
 3903000    1.0142272   -3.8994233   -3.8994233   -2.7949258  0.080741015   -3.8994233    1.1044976   520538 
 3904000    1.0124268   -3.8981699   -3.8981699   -2.7956329  0.063305363   -3.8981699    1.1025369   520538 
 3905000    1.0137124   -3.8995144   -3.8995144   -2.7955775  0.061223703   -3.8995144    1.1039369   520538 
 3906000    1.0119346   -3.8982531   -3.8982531   -2.7962522  0.073230956   -3.8982531    1.1020009   520538 
 3907000     1.014328    -3.899423    -3.899423   -2.7948157  0.067253071    -3.899423    1.1046073   520538 
 3908000    1.0140319   -3.8994605   -3.8994605   -2.7951757  0.063010911   -3.8994605    1.1042848   520538 
 3909000    1.0151498   -3.9013159   -3.9013159   -2.7958137  0.068046264   -3.9013159    1.1055023   520538 
 3910000     1.013852   -3.8992149   -3.8992149    -2.795126  0.070641671   -3.8992149    1.1040889   520538 
 3911000    1.0135038   -3.8991022   -3.8991022   -2.7953924  0.054424034   -3.8991022    1.1037098   520538 
 3912000    1.0130255   -3.8989749   -3.8989749   -2.7957861  0.058786434   -3.8989749    1.1031889   520538 
 3913000    1.0139096   -3.8987951   -3.8987951   -2.7946434  0.077800177   -3.8987951    1.1041516   520538 
 3914000    1.0153048   -3.9001634   -3.9001634   -2.7944923  0.054336081   -3.9001634    1.1056711   520538 
 3915000    1.0112184   -3.8963782   -3.8963782   -2.7951572  0.077539761   -3.8963782     1.101221   520538 
 3916000     1.012658   -3.8974352   -3.8974352   -2.7946465  0.079061053   -3.8974352    1.1027887   520538 
 3917000    1.0124372   -3.8970821   -3.8970821   -2.7945338  0.071018249   -3.8970821    1.1025483   520538 
 3918000    1.0138499   -3.8986474   -3.8986474   -2.7945607  0.062947156   -3.8986474    1.1040867   520538 
 3919000    1.0112674   -3.8966929   -3.8966929   -2.7954186  0.064676547   -3.8966929    1.1012743   520538 
 3920000     1.012629    -3.897333    -3.897333   -2.7945759  0.063084087    -3.897333    1.1027571   520538 
 3921000    1.0117607   -3.8970305   -3.8970305    -2.795219  0.071684077   -3.8970305    1.1018115   520538 
 3922000    1.0115594   -3.8967432   -3.8967432   -2.7951509  0.077703251   -3.8967432    1.1015923   520538 
 3923000    1.0133377   -3.8985577   -3.8985577   -2.7950289  0.064212476   -3.8985577    1.1035288   520538 
 3924000    1.0134536   -3.8986511   -3.8986511    -2.794996  0.079410695   -3.8986511     1.103655   520538 
 3925000    1.0133211   -3.8989001   -3.8989001   -2.7953893  0.083743304   -3.8989001    1.1035108   520538 
 3926000    1.0144378    -3.899754    -3.899754   -2.7950271  0.078110396    -3.899754    1.1047269   520538 
 3927000    1.0130352   -3.8984383   -3.8984383   -2.7952388  0.082387368   -3.8984383    1.1031995   520538 
 3928000    1.0125094   -3.8981103   -3.8981103   -2.7954834  0.073108517   -3.8981103    1.1026268   520538 
 3929000    1.0132628   -3.8985888   -3.8985888   -2.7951415  0.062323824   -3.8985888    1.1034473   520538 
 3930000    1.0161781   -3.9013529   -3.9013529   -2.7947308  0.060049919   -3.9013529    1.1066221   520538 
 3931000    1.0132022    -3.899307    -3.899307   -2.7959257  0.062097088    -3.899307    1.1033813   520538 
 3932000    1.0142377   -3.9001192   -3.9001192   -2.7956101   0.06484193   -3.9001192     1.104509   520538 
 3933000     1.013018   -3.8991275   -3.8991275   -2.7959468  0.066328943   -3.8991275    1.1031807   520538 
 3934000    1.0117382   -3.8971074   -3.8971074   -2.7953203  0.059890585   -3.8971074    1.1017871   520538 
 3935000     1.010901   -3.8964388   -3.8964388   -2.7955635  0.057700748   -3.8964388    1.1008753   520538 
 3936000    1.0120487   -3.8985718   -3.8985718   -2.7964466  0.055948349   -3.8985718    1.1021251   520538 
 3937000    1.0121897   -3.8985226   -3.8985226   -2.7962439  0.064732442   -3.8985226    1.1022787   520538 
 3938000    1.0137843    -3.900525    -3.900525   -2.7965097    0.0708553    -3.900525    1.1040152   520538 
 3939000    1.0134328   -3.9002725   -3.9002725   -2.7966401  0.067316376   -3.9002725    1.1036324   520538 
 3940000    1.0131178   -3.8997012   -3.8997012   -2.7964118  0.073754249   -3.8997012    1.1032894   520538 
 3941000    1.0119986   -3.8986832   -3.8986832   -2.7966126  0.077162925   -3.8986832    1.1020706   520538 
 3942000    1.0111738   -3.8972178   -3.8972178   -2.7960454   0.06639254   -3.8972178    1.1011724   520538 
 3943000    1.0116969   -3.8981945   -3.8981945   -2.7964525  0.078838617   -3.8981945     1.101742   520538 
 3944000    1.0140245   -3.8997432   -3.8997432   -2.7954663  0.061618765   -3.8997432    1.1042768   520538 
 3945000    1.0135507   -3.9001945   -3.9001945   -2.7964337  0.068430064   -3.9001945    1.1037608   520538 
 3946000    1.0135187    -3.900199    -3.900199   -2.7964729  0.064258561    -3.900199     1.103726   520538 
 3947000    1.0117241   -3.8979346   -3.8979346   -2.7961629  0.066101524   -3.8979346    1.1017717   520538 
 3948000    1.0111562   -3.8970374   -3.8970374   -2.7958842  0.073856534   -3.8970374    1.1011532   520538 
 3949000    1.0114522   -3.8968988   -3.8968988   -2.7954232  0.083354331   -3.8968988    1.1014756   520538 
 3950000     1.011773   -3.8972387   -3.8972387   -2.7954138  0.054584479   -3.8972387    1.1018249   520538 
 3951000    1.0121777   -3.8971773   -3.8971773   -2.7949117  0.057729931   -3.8971773    1.1022656   520538 
 3952000    1.0129387   -3.8977547   -3.8977547   -2.7946603  0.069984724   -3.8977547    1.1030944   520538 
 3953000    1.0143483   -3.8996928   -3.8996928   -2.7950634  0.057057916   -3.8996928    1.1046294   520538 
 3954000    1.0116425   -3.8968889   -3.8968889   -2.7952062  0.085831872   -3.8968889    1.1016827   520538 
 3955000    1.0131339   -3.8983345   -3.8983345   -2.7950275  0.069313174   -3.8983345     1.103307   520538 
 3956000    1.0118772   -3.8977948   -3.8977948   -2.7958564   0.06742632   -3.8977948    1.1019384   520538 
 3957000    1.0113681   -3.8970694   -3.8970694   -2.7956854  0.057534479   -3.8970694    1.1013839   520538 
 3958000    1.0128433   -3.8983406   -3.8983406   -2.7953502  0.066481564   -3.8983406    1.1029905   520538 
 3959000    1.0115863   -3.8969036   -3.8969036    -2.795282  0.070985339   -3.8969036    1.1016216   520538 
 3960000    1.0124181   -3.8977716   -3.8977716   -2.7952441  0.070880133   -3.8977716    1.1025275   520538 
 3961000    1.0108779   -3.8945121   -3.8945121    -2.793662  0.069153887   -3.8945121    1.1008501   520538 
 3962000    1.0134206   -3.8990003   -3.8990003   -2.7953811  0.064733654   -3.8990003    1.1036192   520538 
 3963000    1.0131508   -3.8989917   -3.8989917   -2.7956664  0.064942143   -3.8989917    1.1033254   520538 
 3964000    1.0134987   -3.8985848   -3.8985848   -2.7948805  0.074034229   -3.8985848    1.1037042   520538 
 3965000    1.0131397   -3.8977375   -3.8977375   -2.7944243  0.070335774   -3.8977375    1.1033132   520538 
 3966000    1.0133076   -3.8979811   -3.8979811    -2.794485  0.075200372   -3.8979811    1.1034961   520538 
 3967000    1.0151074   -3.8994213   -3.8994213   -2.7939652   0.06299631   -3.8994213    1.1054561   520538 
 3968000    1.0150228   -3.9004674   -3.9004674   -2.7951034   0.07436085   -3.9004674     1.105364   520538 
 3969000    1.0131876   -3.8990163   -3.8990163   -2.7956509  0.077837867   -3.8990163    1.1033654   520538 
 3970000    1.0141738   -3.8998038   -3.8998038   -2.7953644  0.074986076   -3.8998038    1.1044394   520538 
 3971000    1.0133178   -3.8980342   -3.8980342    -2.794527  0.072190976   -3.8980342    1.1035072   520538 
 3972000    1.0140496   -3.8999784   -3.8999784   -2.7956742  0.091803583   -3.8999784    1.1043042   520538 
 3973000    1.0151639   -3.9007114   -3.9007114   -2.7951938   0.07260084   -3.9007114    1.1055176   520538 
 3974000    1.0162149   -3.9015635   -3.9015635   -2.7949013   0.07353841   -3.9015635    1.1066621   520538 
 3975000     1.015154   -3.9010843   -3.9010843   -2.7955774  0.075942148   -3.9010843    1.1055068   520538 
 3976000    1.0139432   -3.8998068   -3.8998068   -2.7956186  0.076166622   -3.8998068    1.1041882   520538 
 3977000    1.0116253   -3.8972671   -3.8972671   -2.7956031  0.067721598   -3.8972671    1.1016641   520538 
 3978000    1.0118704   -3.8979679   -3.8979679   -2.7960369  0.079212646   -3.8979679     1.101931   520538 
 3979000    1.0109658   -3.8970721   -3.8970721   -2.7961262  0.072622858   -3.8970721    1.1009459   520538 
 3980000    1.0101942   -3.8966483   -3.8966483   -2.7965426  0.070352098   -3.8966483    1.1001056   520538 
 3981000    1.0130067   -3.8997918   -3.8997918   -2.7966233  0.072100527   -3.8997918    1.1031685   520538 
 3982000    1.0110438   -3.8971282   -3.8971282   -2.7960973  0.075382396   -3.8971282    1.1010308   520538 
 3983000    1.0125498   -3.8980596   -3.8980596   -2.7953888  0.064086949   -3.8980596    1.1026708   520538 
 3984000    1.0136238   -3.8998196   -3.8998196   -2.7959792  0.066003538   -3.8998196    1.1038405   520538 
 3985000    1.0119736   -3.8977497   -3.8977497   -2.7957063  0.072158683   -3.8977497    1.1020434   520538 
 3986000    1.0134536   -3.9006891   -3.9006891    -2.797034  0.067348232   -3.9006891    1.1036551   520538 
 3987000    1.0121332   -3.8989549   -3.8989549   -2.7967377    0.0581361   -3.8989549    1.1022172   520538 
 3988000    1.0119678   -3.8985434   -3.8985434   -2.7965064  0.058588688   -3.8985434     1.102037   520538 
 3989000    1.0137023   -3.9002481   -3.9002481   -2.7963221  0.072035599   -3.9002481     1.103926   520538 
 3990000    1.0134917   -3.8999624   -3.8999624   -2.7962657  0.063026529   -3.8999624    1.1036966   520538 
 3991000    1.0137315   -3.9008504   -3.9008504   -2.7968927  0.060867339   -3.9008504    1.1039577   520538 
 3992000    1.0157611    -3.902154    -3.902154   -2.7959861  0.083277832    -3.902154    1.1061679   520538 
 3993000    1.0158049   -3.9033526   -3.9033526    -2.797137   0.06249706   -3.9033526    1.1062156   520538 
 3994000    1.0135736   -3.8998146   -3.8998146   -2.7960288  0.068315846   -3.8998146    1.1037858   520538 
 3995000    1.0142285   -3.9009902   -3.9009902   -2.7964912    0.0800091   -3.9009902    1.1044989   520538 
 3996000    1.0135505   -3.9008219   -3.9008219   -2.7970613  0.065178798   -3.9008219    1.1037606   520538 
 3997000    1.0127987   -3.9002122   -3.9002122   -2.7972702  0.084825796   -3.9002122    1.1029419   520538 
 3998000    1.0130412   -3.9001658   -3.9001658   -2.7969598   0.06190098   -3.9001658     1.103206   520538 
 3999000    1.0128178   -3.9000218   -3.9000218   -2.7970591  0.072852384   -3.9000218    1.1029627   520538 
 4000000     1.013287   -3.9001328   -3.9001328   -2.7966591  0.059988074   -3.9001328    1.1034737   520538 
Loop time of 11697.7 on 288 procs for 4000000 steps with 520538 atoms

Performance: 147721.967 tau/day, 341.949 timesteps/s
98.5% CPU use with 288 MPI tasks x 1 OpenMP threads

MPI task timing breakdown:
Section |  min time  |  avg time  |  max time  |%varavg|  %CPU | %total
-----------------------------------------------------------------------
Pair    | 909.52     | 2112.9     | 2964.7     | 869.3 |  98.7 | 18.06
Bond    | 2.6626     | 2.819      | 3.0101     |   4.2 | 100.0 |  0.02
Neigh   | 1407.8     | 3285.1     | 5022.7     |1199.3 |  99.6 | 28.08
Comm    | 2220.7     | 3976.1     | 6040.7     |1313.7 |  98.3 | 33.99
Output  | 159.63     | 166.34     | 173.75     |  43.0 |  96.9 |  1.42
Modify  | 851.44     | 2050.5     | 4616.5     |1690.6 |  98.3 | 17.53
Other   |            | 103.8      |            |       |       |  0.89

Nlocal:        1807.42 ave        3368 max        1215 min
Histogram: 7 24 166 81 6 3 0 0 0 1
Nghost:        6792.71 ave        9220 max        2786 min
Histogram: 4 11 8 24 29 35 42 71 61 3
Neighs:        53430.1 ave       69104 max        7338 min
Histogram: 7 7 4 2 2 3 49 78 102 34

Total # of neighbors = 15387875
Ave neighs/atom = 29.561483
Ave special neighs/atom = 0.0000000
Neighbor list builds = 400000
Dangerous builds = 396000

Total wall time: 3:15:02
