LAMMPS (29 Oct 2020)
  using 1 OpenMP thread(s) per MPI task
# Simple rigid body system

units		lj
atom_style	full
dimension 	3
boundary	p p f
pair_style	lj/cut/opt 2.5


variable 	sigma		equal 1.0
variable 	epsilon 	equal 1.0


region		box block 0 80 0 80 0 80
create_box 	3 box
Created orthogonal box = (0.0000000 0.0000000 0.0000000) to (80.000000 80.000000 80.000000)
  2 by 4 by 4 MPI processor grid
lattice 	sc 1.0
Lattice spacing in x,y,z = 1.0000000 1.0000000 1.0000000

create_atoms 	1 region box
Created 512000 atoms
  create_atoms CPU = 0.040 seconds

mass		1 1.0
mass		2 1.0
mass		3 1.0


group		solvent type 1
512000 atoms in group solvent


velocity 	solvent create ${startTemp} 563435 loop geom
velocity 	solvent create 0.5 563435 loop geom

read_data	data.vac add append
Reading data file ...
  orthogonal box = (0.0000000 0.0000000 0.0000000) to (80.000000 80.000000 160.00000)
  2 by 2 by 8 MPI processor grid
Finding 1-2 1-3 1-4 neighbors ...
  special bond factors lj:    0.0      0.0      0.0     
  special bond factors coul:  0.0      0.0      0.0     
     0 = max # of 1-2 neighbors
     0 = max # of 1-3 neighbors
     0 = max # of 1-4 neighbors
     1 = max # of special neighbors
  special bonds CPU = 0.315 seconds
  read_data CPU = 0.344 seconds

neighbor 	0.4 bin

pair_coeff	1 1 1.0 1.0
pair_coeff	2 2 0.0 0.0
pair_coeff	3 3 0.0 0.0
pair_coeff	2 3 0.0 0.0
pair_coeff	1 2*3 0.0 0.0

pair_modify 	shift yes


balance 	1.05 shift z 10 1.05
Balancing ...
Neighbor list info ...
  update every 1 steps, delay 10 steps, check yes
  max neighbors/atom: 2000, page size: 100000
  master list distance cutoff = 2.9
  ghost atom cutoff = 2.9
  binsize = 1.45, bins = 56 56 111
  1 neighbor lists, perpetual/occasional/extra = 1 0 0
  (1) pair lj/cut/opt, perpetual
      attributes: half, newton on
      pair build: half/bin/newton
      stencil: half/bin/3d/newton
      bin: standard
 rebalancing time: 0.042 seconds
  iteration count = 5
  initial/final maximal load/proc = 32000.000 19200.000
  initial/final imbalance factor  = 2.0000000 1.2000000
  x cuts: 0.0000000 0.5 1.0000000
  y cuts: 0.0000000 0.5 1.0000000
  z cuts: 0.0000000 0.0625 0.12890625 0.1875 0.2578125 0.30859375 0.38671875 0.4375 1.0000000


####################### WALLS ###########################


region	       low block  EDGE EDGE EDGE EDGE 0 2

region 	       top block  EDGE EDGE EDGE EDGE 159 160


delete_atoms   region low
WARNING: Ignoring 'compress yes' for molecular system (src/delete_atoms.cpp:125)
Deleted 19200 atoms, new total = 492800

delete_atoms   region top
WARNING: Ignoring 'compress yes' for molecular system (src/delete_atoms.cpp:125)
Deleted 0 atoms, new total = 492800


variable       epsilonWall equal 2*${epsilon}
variable       epsilonWall equal 2*1

variable       cutoffTop   equal   0.7147*${sigma}
variable       cutoffTop   equal   0.7147*1

variable       cutoffLow   equal   3*${sigma}
variable       cutoffLow   equal   3*1


fix            topWall all wall/lj93 zhi EDGE                ${epsilonWall} ${sigma} ${cutoffTop} units box
fix            topWall all wall/lj93 zhi EDGE                2 ${sigma} ${cutoffTop} units box
fix            topWall all wall/lj93 zhi EDGE                2 1 ${cutoffTop} units box
fix            topWall all wall/lj93 zhi EDGE                2 1 0.7147 units box

fix            lowWall all wall/lj93 zlo EDGE                ${epsilonWall} ${sigma} ${cutoffLow} units box
fix            lowWall all wall/lj93 zlo EDGE                2 ${sigma} ${cutoffLow} units box
fix            lowWall all wall/lj93 zlo EDGE                2 1 ${cutoffLow} units box
fix            lowWall all wall/lj93 zlo EDGE                2 1 3 units box


###################### COMPUTES ##########################

compute        bin1 solvent chunk/atom bin/1d z upper 1.0



######################	FIXES ############################


fix 		peclet solvent ave/chunk 1000 1 1000 bin1 density/number norm 		 none ave one file density.profile

fix 		2 solvent nve

## Thermostat


region		regthermo block EDGE EDGE EDGE EDGE 0 20

group 		thermo dynamic solvent region regthermo every 1000
dynamic group thermo defined

fix 		3 thermo langevin ${startTemp} ${temp} 10 156453
fix 		3 thermo langevin 0.5 ${temp} 10 156453
fix 		3 thermo langevin 0.5 .9 10 156453



#### Load balancing


fix 		bal all balance 1000 1.05 shift z 10 1.05


############### Diagnostics and computes ###################
#compute 	com cube	  rigid/local	1 mol x y z
#compute 	quat cube	  rigid/local	1 mol quatw quati quatj quatk

thermo 		1000
thermo_style 	custom step temp epair evdwl etotal press pe ke vol

dump		1 all custom 100000 dump.lammpstrj id mol type x y z
dump 		2 all image 10000 image.*.png type type
dump 		3 all movie 1000 movie.avi type type
#dump 		com cube local 1000 dump.*.xyz c_com[*]
#dump		quat cube      local 1000 dump.*.quat c_quat[*]


restart 	500000 restart.dat
timestep 	0.0025
timer 		full
New timer settings: style=full  mode=nosync  timeout=off


run		1000000
Per MPI rank memory allocation (min/avg/max) = 21.45 | 22.19 | 22.73 Mbytes
Step Temp E_pair E_vdwl TotEng Press PotEng KinEng Volume 
       0   0.49998514   -3.2974116   -3.2974116   -2.5474355    8.3319627   -3.2974116   0.74997619      1024000 
    1000    1.4272324   -4.8129367   -4.8129367   -2.6720924    3.6890353   -4.8129367    2.1408442      1024000 
    2000    1.3676062   -4.8636794   -4.8636794   -2.8122742    2.4674451   -4.8636794    2.0514052      1024000 
    3000    1.2642421   -4.8382415   -4.8382415   -2.9418821    1.6268588   -4.8382415    1.8963594      1024000 
    4000     1.212204   -4.8492108   -4.8492108   -3.0309085   0.71639404   -4.8492108    1.8183023      1024000 
    5000    1.1406118   -4.7858447   -4.7858447   -3.0749305   0.08058501   -4.7858447    1.7109143      1024000 
    6000    1.0623466   -4.6836301   -4.6836301   -3.0901134  -0.25112765   -4.6836301    1.5935167      1024000 
    7000    1.0026063    -4.596185    -4.596185   -3.0922786  -0.35752212    -4.596185    1.5039063      1024000 
    8000   0.98769815   -4.5740368   -4.5740368   -3.0924926  -0.24460119   -4.5740368    1.4815442      1024000 
    9000     1.000066   -4.5976786   -4.5976786   -3.0975826  -0.10039422   -4.5976786     1.500096      1024000 
   10000    1.0062024   -4.6177647   -4.6177647   -3.1084642 -0.019278849   -4.6177647    1.5093005      1024000 
   11000    1.0056816    -4.629425    -4.629425   -3.1209057  0.010952511    -4.629425    1.5085193      1024000 
   12000    1.0043176   -4.6376917   -4.6376917   -3.1312184  0.025691575   -4.6376917    1.5064733      1024000 
   13000    1.0070738   -4.6499401   -4.6499401   -3.1393325  0.062285913   -4.6499401    1.5106076      1024000 
   14000    1.0081425   -4.6593379   -4.6593379   -3.1471272  0.088947875   -4.6593379    1.5122107      1024000 
   15000    1.0046208   -4.6615652   -4.6615652   -3.1546371  0.086241421   -4.6615652    1.5069281      1024000 
   16000    1.0014764   -4.6631259   -4.6631259   -3.1609144  0.076351169   -4.6631259    1.5022115      1024000 
   17000   0.99793803   -4.6636122   -4.6636122   -3.1667082  0.086940621   -4.6636122     1.496904      1024000 
   18000    0.9996187    -4.670464    -4.670464    -3.171039  0.099821718    -4.670464     1.499425      1024000 
   19000   0.99873717   -4.6732642   -4.6732642   -3.1751615   0.10308761   -4.6732642    1.4981027      1024000 
   20000   0.99839028   -4.6767084   -4.6767084    -3.179126   0.10694276   -4.6767084    1.4975824      1024000 
   21000   0.99705238   -4.6781395   -4.6781395    -3.182564   0.10336835   -4.6781395    1.4955755      1024000 
   22000   0.99573852   -4.6792112   -4.6792112   -3.1856065   0.10341104   -4.6792112    1.4936047      1024000 
   23000   0.99535249   -4.6810788   -4.6810788   -3.1880531   0.11317247   -4.6810788    1.4930257      1024000 
   24000    1.0012418    -4.694039    -4.694039   -3.1921793   0.24372468    -4.694039    1.5018597      1024000 
   25000    1.0155084   -4.7185825   -4.7185825   -3.1953229   0.70287662   -4.7185825    1.5232596      1024000 
   26000    1.0292457   -4.7411348   -4.7411348   -3.1972694   0.99606576   -4.7411348    1.5438654      1024000 
   27000    1.0362005    -4.752528    -4.752528   -3.1982304    1.3901363    -4.752528    1.5542976      1024000 
   28000     1.042715   -4.7639062   -4.7639062   -3.1998369     1.636312   -4.7639062    1.5640694      1024000 
   29000    1.0193553   -4.7316849   -4.7316849   -3.2026551    1.2704619   -4.7316849    1.5290299      1024000 
   30000   0.99721035   -4.6997393   -4.6997393   -3.2039268   0.92137684   -4.6997393    1.4958125      1024000 
   31000   0.98040894   -4.6755661   -4.6755661   -3.2049557   0.58610113   -4.6755661    1.4706104      1024000 
   32000   0.95442522   -4.6372816   -4.6372816   -3.2056467   0.36764592   -4.6372816    1.4316349      1024000 
   33000   0.92024611   -4.5873253   -4.5873253   -3.2069589   0.21079698   -4.5873253    1.3803664      1024000 
   34000   0.88475032   -4.5354198   -4.5354198    -3.208297  0.057717852   -4.5354198    1.3271228      1024000 
   35000   0.85631711   -4.4940798   -4.4940798   -3.2096067 -0.029491499   -4.4940798    1.2844731      1024000 
   36000   0.83748734   -4.4674484   -4.4674484     -3.21122 -0.071224409   -4.4674484    1.2562285      1024000 
   37000   0.82663881   -4.4525338   -4.4525338   -3.2125781 -0.088505143   -4.4525338    1.2399557      1024000 
   38000   0.82417643   -4.4501397   -4.4501397   -3.2138776 -0.089291541   -4.4501397    1.2362621      1024000 
   39000   0.82854221   -4.4578106   -4.4578106   -3.2149998  -0.06068851   -4.4578106    1.2428108      1024000 
   40000   0.83762259   -4.4733057   -4.4733057   -3.2168744 -0.021057414   -4.4733057    1.2564313      1024000 
   41000   0.85027222   -4.4936043   -4.4936043   -3.2181986   0.03355093   -4.4936043    1.2754057      1024000 
   42000    0.8638944   -4.5151425   -4.5151425   -3.2193035  0.095722957   -4.5151425     1.295839      1024000 
   43000   0.87412012   -4.5315404   -4.5315404   -3.2203629   0.14061687   -4.5315404    1.3111775      1024000 
   44000   0.88043921   -4.5425441   -4.5425441    -3.221888   0.16865532   -4.5425441    1.3206561      1024000 
   45000   0.88039027    -4.543617    -4.543617   -3.2230343    0.1745895    -4.543617    1.3205827      1024000 
   46000   0.87421619   -4.5359359   -4.5359359   -3.2246143   0.14759002   -4.5359359    1.3113216      1024000 
   47000   0.86267116   -4.5202395   -4.5202395   -3.2262354  0.094772191   -4.5202395    1.2940041      1024000 
   48000    0.8497792   -4.5020726   -4.5020726   -3.2274063  0.037002218   -4.5020726    1.2746662      1024000 
   49000   0.83721573    -4.483999    -4.483999    -3.228178 -0.00079704425    -4.483999     1.255821      1024000 
   50000   0.82909668    -4.473026    -4.473026   -3.2293835 -0.026007987    -4.473026    1.2436425      1024000 
   51000   0.82323401   -4.4661712   -4.4661712   -3.2313227 -0.036619751   -4.4661712    1.2348485      1024000 
   52000   0.82425495   -4.4693927   -4.4693927   -3.2330128 -0.037107887   -4.4693927    1.2363799      1024000 
   53000   0.83036853   -4.4803852   -4.4803852   -3.2348349 -0.018033615   -4.4803852    1.2455503      1024000 
   54000   0.83965697   -4.4960844   -4.4960844   -3.2366015  0.016518031   -4.4960844    1.2594829      1024000 
   55000   0.84977037   -4.5131456   -4.5131456   -3.2384927  0.053136451   -4.5131456     1.274653      1024000 
   56000   0.85824084   -4.5281286   -4.5281286     -3.24077   0.10093298   -4.5281286    1.2873586      1024000 
   57000    0.8679436   -4.5449756   -4.5449756   -3.2430629   0.13994471   -4.5449756    1.3019128      1024000 
   58000   0.86963465   -4.5498915   -4.5498915   -3.2454422   0.15856336   -4.5498915    1.3044493      1024000 
   59000   0.86936692   -4.5513363   -4.5513363   -3.2472886   0.15046395   -4.5513363    1.3040477      1024000 
   60000    0.8643979   -4.5472069   -4.5472069   -3.2506126   0.13123413   -4.5472069    1.2965942      1024000 
   61000   0.85952598   -4.5423176   -4.5423176   -3.2530313   0.10517686   -4.5423176    1.2892864      1024000 
   62000   0.85342681   -4.5364835   -4.5364835   -3.2563459  0.084558606   -4.5364835    1.2801376      1024000 
   63000   0.85102894   -4.5365581   -4.5365581   -3.2600173  0.082124186   -4.5365581    1.2765408      1024000 
   64000   0.85242849   -4.5432612   -4.5432612   -3.2646211   0.10776326   -4.5432612    1.2786401      1024000 
   65000   0.85943242   -4.5598122   -4.5598122   -3.2706662   0.14981656   -4.5598122     1.289146      1024000 
   66000   0.86782409   -4.5792078   -4.5792078   -3.2774743     0.198877   -4.5792078    1.3017335      1024000 
   67000   0.87574638   -4.5988924   -4.5988924   -3.2852755   0.26736165   -4.5988924    1.3136169      1024000 
   68000   0.88411009   -4.6202985   -4.6202985   -3.2941361   0.32681334   -4.6202985    1.3261624      1024000 
   69000     0.887343   -4.6358172   -4.6358172   -3.3048054   0.37222232   -4.6358172    1.3310118      1024000 
   70000   0.88380726   -4.6412535   -4.6412535   -3.3155453   0.37874577   -4.6412535    1.3257082      1024000 
   71000   0.87359698   -4.6368886   -4.6368886   -3.3264958   0.33082878   -4.6368886    1.3103928      1024000 
   72000   0.85718889   -4.6216392   -4.6216392   -3.3358585     0.295903   -4.6216392    1.2857807      1024000 
   73000   0.84464164   -4.6174556   -4.6174556   -3.3504957   0.30709502   -4.6174556    1.2669599      1024000 
   74000   0.83379473   -4.6247782   -4.6247782   -3.3740887   0.38958644   -4.6247782    1.2506896      1024000 
   75000   0.82696862   -4.6416408   -4.6416408   -3.4011903   0.43100097   -4.6416408    1.2404504      1024000 
   76000   0.82557297   -4.6642759   -4.6642759    -3.425919   0.41762271   -4.6642759    1.2383569      1024000 
   77000   0.82496678   -4.6828637   -4.6828637    -3.445416   0.40505404   -4.6828637    1.2374477      1024000 
   78000   0.82853996   -4.7016246   -4.7016246   -3.4588172   0.39589067   -4.7016246    1.2428074      1024000 
   79000   0.83284852   -4.7168366   -4.7168366   -3.4675663    0.4141234   -4.7168366    1.2492702      1024000 
   80000   0.83707373   -4.7300211   -4.7300211   -3.4744131   0.43297691   -4.7300211     1.255608      1024000 
   81000   0.82742223   -4.7210943   -4.7210943   -3.4799634   0.37885993   -4.7210943    1.2411308      1024000 
   82000   0.81016327   -4.7004136   -4.7004136   -3.4851711   0.27197246   -4.7004136    1.2152424      1024000 
   83000   0.79101169   -4.6761087   -4.6761087   -3.4895936   0.19020404   -4.6761087    1.1865151      1024000 
   84000    0.7728208   -4.6542347   -4.6542347   -3.4950058   0.12371947   -4.6542347    1.1592288      1024000 
   85000   0.75595819   -4.6354439   -4.6354439    -3.501509  0.076249586   -4.6354439     1.133935      1024000 
   86000   0.74293279   -4.6219083   -4.6219083   -3.5075114  0.030040272   -4.6219083    1.1143969      1024000 
   87000   0.73305137   -4.6125495   -4.6125495   -3.5129747  -0.03075164   -4.6125495    1.0995748      1024000 
   88000   0.72283309   -4.6007912   -4.6007912   -3.5165438 -0.088517868   -4.6007912    1.0842474      1024000 
   89000   0.71594799   -4.5905674   -4.5905674   -3.5166476  -0.13731119   -4.5905674    1.0739198      1024000 
   90000    0.7108802   -4.5806396   -4.5806396   -3.5143215  -0.17349573   -4.5806396    1.0663181      1024000 
   91000   0.70478103   -4.5673997   -4.5673997   -3.5102303  -0.19560775   -4.5673997    1.0571694      1024000 
   92000    0.7013818   -4.5578586   -4.5578586   -3.5057881  -0.21966179   -4.5578586    1.0520706      1024000 
   93000   0.69645613   -4.5466954   -4.5466954   -3.5020133  -0.22687024   -4.5466954    1.0446821      1024000 
   94000   0.69401421   -4.5394123   -4.5394123   -3.4983931  -0.23417764   -4.5394123    1.0410192      1024000 
   95000   0.69314108   -4.5353303   -4.5353303   -3.4956208  -0.23045884   -4.5353303    1.0397095      1024000 
   96000   0.69372852   -4.5348673   -4.5348673   -3.4942767  -0.21094913   -4.5348673    1.0405907      1024000 
   97000   0.69933366   -4.5431166   -4.5431166   -3.4941183  -0.19311686   -4.5431166    1.0489984      1024000 
   98000    0.7035683   -4.5505673   -4.5505673    -3.495217  -0.15458245   -4.5505673    1.0553503      1024000 
   99000   0.71155636   -4.5659291   -4.5659291   -3.4985967  -0.11883729   -4.5659291    1.0673324      1024000 
  100000   0.71820704    -4.580612    -4.580612   -3.5033036 -0.079968863    -4.580612    1.0773084      1024000 
  101000   0.72600945   -4.5970864   -4.5970864   -3.5080745  -0.04039225   -4.5970864     1.089012      1024000 
  102000   0.73434027   -4.6146945   -4.6146945   -3.5131864 -0.0081349372   -4.6146945    1.1015082      1024000 
  103000   0.74004247    -4.627324    -4.627324   -3.5172625  0.016755992    -4.627324    1.1100615      1024000 
  104000   0.74299818   -4.6356503   -4.6356503   -3.5211553  0.030800295   -4.6356503     1.114495      1024000 
  105000   0.74413377    -4.641291    -4.641291   -3.5250927   0.02960513    -4.641291    1.1161984      1024000 
  106000   0.74047378   -4.6390442   -4.6390442   -3.5283358  0.022815546   -4.6390442    1.1107084      1024000 
  107000   0.73639251   -4.6360414   -4.6360414   -3.5314549 0.0052380527   -4.6360414    1.1045865      1024000 
  108000   0.73377546   -4.6340399   -4.6340399   -3.5333789 -0.013962827   -4.6340399     1.100661      1024000 
  109000   0.72972823   -4.6314097   -4.6314097   -3.5368195 -0.019695844   -4.6314097    1.0945901      1024000 
  110000      0.72777   -4.6318089   -4.6318089   -3.5401561 -0.022460104   -4.6318089    1.0916528      1024000 
  111000   0.72534684   -4.6314657   -4.6314657   -3.5434477 -0.018631779   -4.6314657     1.088018      1024000 
  112000   0.72708351   -4.6375215   -4.6375215   -3.5468985 -0.012980864   -4.6375215    1.0906231      1024000 
  113000   0.72853708   -4.6429052   -4.6429052   -3.5501018 -0.010639022   -4.6429052    1.0928034      1024000 
  114000   0.73107769   -4.6491433   -4.6491433    -3.552529 -0.0024393306   -4.6491433    1.0966143      1024000 
  115000    0.7325217   -4.6530469   -4.6530469   -3.5542666 0.0031869371   -4.6530469    1.0987803      1024000 
  116000   0.73512948   -4.6591737   -4.6591737   -3.5564817 0.0022557992   -4.6591737     1.102692      1024000 
  117000   0.73460155   -4.6606075   -4.6606075   -3.5587074  0.010263943   -4.6606075    1.1019001      1024000 
  118000   0.73598818   -4.6647244   -4.6647244   -3.5607444 0.0099844272   -4.6647244      1.10398      1024000 
  119000   0.73584206   -4.6664538   -4.6664538   -3.5626929  0.013518578   -4.6664538    1.1037609      1024000 
  120000   0.73544848   -4.6675206   -4.6675206   -3.5643501  0.015238267   -4.6675206    1.1031705      1024000 
  121000   0.73454696   -4.6691905   -4.6691905   -3.5673723  0.021265393   -4.6691905    1.1018182      1024000 
  122000   0.73480718   -4.6714157   -4.6714157   -3.5692071  0.025527478   -4.6714157    1.1022085      1024000 
  123000   0.73474704   -4.6742023   -4.6742023    -3.572084   0.02968766   -4.6742023    1.1021183      1024000 
  124000   0.73514932   -4.6778585   -4.6778585   -3.5751367  0.032096107   -4.6778585    1.1027217      1024000 
  125000   0.73586942   -4.6814919   -4.6814919     -3.57769   0.03357419   -4.6814919    1.1038019      1024000 
  126000   0.73593867   -4.6840983   -4.6840983   -3.5801925  0.044798164   -4.6840983    1.1039058      1024000 
  127000   0.73846519    -4.690889    -4.690889   -3.5831935  0.047222244    -4.690889    1.1076955      1024000 
  128000   0.73994858   -4.6948141   -4.6948141   -3.5848934  0.055370963   -4.6948141    1.1099206      1024000 
  129000   0.74082195   -4.6981712   -4.6981712   -3.5869406  0.061504646   -4.6981712    1.1112307      1024000 
  130000   0.74236567   -4.7024984   -4.7024984   -3.5889522  0.068050989   -4.7024984    1.1135463      1024000 
  131000     0.740892   -4.7037308   -4.7037308    -3.592395   0.07755731   -4.7037308    1.1113357      1024000 
  132000   0.74048946   -4.7057366   -4.7057366   -3.5950047  0.078253441   -4.7057366    1.1107319      1024000 
  133000    0.7396526   -4.7070391   -4.7070391   -3.5975625  0.082961566   -4.7070391    1.1094766      1024000 
  134000    0.7392549   -4.7092016   -4.7092016   -3.6003215  0.077293358   -4.7092016    1.1088801      1024000 
  135000   0.73722656   -4.7087623   -4.7087623   -3.6029247  0.073975414   -4.7087623    1.1058376      1024000 
  136000    0.7353475   -4.7090258   -4.7090258   -3.6060068  0.069298522   -4.7090258     1.103019      1024000 
  137000   0.73451518   -4.7102642   -4.7102642   -3.6084937  0.055597814   -4.7102642    1.1017705      1024000 
  138000   0.73324723    -4.709013    -4.709013   -3.6091444  0.051132615    -4.709013    1.0998686      1024000 
  139000   0.73132806    -4.708257    -4.708257   -3.6112671  0.038502963    -4.708257    1.0969899      1024000 
  140000   0.72899644   -4.7061037   -4.7061037   -3.6126112  0.027120581   -4.7061037    1.0934924      1024000 
  141000   0.72668553   -4.7036171   -4.7036171   -3.6135911  0.021037457   -4.7036171    1.0900261      1024000 
  142000   0.72547059   -4.7023539   -4.7023539   -3.6141502 0.0044453314   -4.7023539    1.0882037      1024000 
  143000   0.72272912   -4.6990037   -4.6990037   -3.6149122 -0.0036145442   -4.6990037    1.0840915      1024000 
  144000    0.7199154   -4.6950747   -4.6950747   -3.6152038 -0.012458852   -4.6950747    1.0798709      1024000 
  145000    0.7186728   -4.6939425   -4.6939425   -3.6159355 -0.021996231   -4.6939425     1.078007      1024000 
  146000     0.718019   -4.6931518   -4.6931518   -3.6161255 -0.031986177   -4.6931518    1.0770263      1024000 
  147000   0.71582906   -4.6906208   -4.6906208   -3.6168794 -0.034504493   -4.6906208    1.0737414      1024000 
  148000   0.71502531   -4.6892625   -4.6892625   -3.6167267 -0.035657371   -4.6892625    1.0725358      1024000 
  149000   0.71524958   -4.6900621   -4.6900621   -3.6171899  -0.04410622   -4.6900621    1.0728722      1024000 
  150000   0.71438547   -4.6891333   -4.6891333   -3.6175573 -0.040448891   -4.6891333     1.071576      1024000 
  151000   0.71678009   -4.6921221   -4.6921221   -3.6169542 -0.041610338   -4.6921221     1.075168      1024000 
  152000    0.7160068   -4.6917343   -4.6917343   -3.6177263 -0.031090342   -4.6917343     1.074008      1024000 
  153000   0.71691135   -4.6940256   -4.6940256   -3.6186607 -0.031240978   -4.6940256    1.0753648      1024000 
  154000   0.71792207   -4.6961945   -4.6961945   -3.6193135 -0.023167534   -4.6961945    1.0768809      1024000 
  155000   0.71870224   -4.6976994   -4.6976994   -3.6196482 -0.016026144   -4.6976994    1.0780512      1024000 
  156000   0.71894072   -4.6995826   -4.6995826   -3.6211737 -0.011358422   -4.6995826    1.0784089      1024000 
  157000   0.71986943    -4.701961    -4.701961   -3.6221591 -0.0010489371    -4.701961     1.079802      1024000 
  158000   0.72195576   -4.7066425   -4.7066425   -3.6237111 0.0062372376   -4.7066425    1.0829314      1024000 
  159000   0.72338856   -4.7110817   -4.7110817   -3.6260011  0.009937149   -4.7110817    1.0850806      1024000 
  160000   0.72485582   -4.7155973   -4.7155973   -3.6283157  0.014808913   -4.7155973    1.0872815      1024000 
  161000   0.72507021   -4.7177185   -4.7177185   -3.6301154  0.028636045   -4.7177185    1.0876031      1024000 
  162000   0.72727828   -4.7229133   -4.7229133   -3.6319981  0.027961347   -4.7229133    1.0909152      1024000 
  163000   0.72743476   -4.7258365   -4.7258365   -3.6346866  0.035709195   -4.7258365    1.0911499      1024000 
  164000   0.72658176   -4.7261675   -4.7261675   -3.6362971  0.044535552   -4.7261675    1.0898704      1024000 
  165000   0.72675245   -4.7285165   -4.7285165     -3.63839  0.049550978   -4.7285165    1.0901265      1024000 
  166000   0.72645652   -4.7296133   -4.7296133   -3.6399307  0.052253251   -4.7296133    1.0896826      1024000 
  167000   0.72733497   -4.7325574   -4.7325574   -3.6415572  0.050951399   -4.7325574    1.0910002      1024000 
  168000   0.72550767   -4.7314626   -4.7314626   -3.6432033  0.049077363   -4.7314626    1.0882593      1024000 
  169000   0.72589411   -4.7341406   -4.7341406   -3.6453016  0.047710841   -4.7341406     1.088839      1024000 
  170000   0.72570675   -4.7353426   -4.7353426   -3.6467847  0.037749076   -4.7353426    1.0885579      1024000 
  171000   0.72201861   -4.7320657   -4.7320657     -3.64904  0.039777256   -4.7320657    1.0830257      1024000 
  172000   0.72186016   -4.7335178   -4.7335178   -3.6507297   0.02735718   -4.7335178     1.082788      1024000 
  173000   0.71980839   -4.7306782   -4.7306782   -3.6509678  0.029667726   -4.7306782    1.0797104      1024000 
  174000   0.71987735   -4.7317417   -4.7317417   -3.6519278  0.023614817   -4.7317417    1.0798138      1024000 
  175000   0.71871816   -4.7310704   -4.7310704   -3.6529953  0.017484006   -4.7310704     1.078075      1024000 
  176000   0.71710336   -4.7294156   -4.7294156   -3.6537628  0.008211723   -4.7294156    1.0756529      1024000 
  177000    0.7162986   -4.7290631   -4.7290631   -3.6546174 0.0018579914   -4.7290631    1.0744457      1024000 
  178000   0.71492535    -4.727784    -4.727784   -3.6553982 0.00028983258    -4.727784    1.0723859      1024000 
  179000   0.71436112   -4.7274725   -4.7274725    -3.655933 -0.0073148543   -4.7274725    1.0715395      1024000 
  180000   0.71267819   -4.7258498   -4.7258498   -3.6568346 -0.014802512   -4.7258498    1.0690151      1024000 
  181000   0.71202974   -4.7256194   -4.7256194    -3.657577 -0.018016998   -4.7256194    1.0680424      1024000 
  182000   0.71195588   -4.7250505   -4.7250505   -3.6571188 -0.018286444   -4.7250505    1.0679317      1024000 
  183000   0.71244171   -4.7259741   -4.7259741   -3.6573137 -0.018840065   -4.7259741    1.0686604      1024000 
  184000   0.71135864   -4.7243061   -4.7243061   -3.6572703 -0.012272862   -4.7243061    1.0670358      1024000 
  185000   0.71271999    -4.727283    -4.727283   -3.6582051  -0.01971393    -4.727283    1.0690778      1024000 
  186000   0.71141322   -4.7261132   -4.7261132   -3.6589956  -0.01109342   -4.7261132    1.0671177      1024000 
  187000   0.71255493   -4.7279478   -4.7279478   -3.6591176 -0.0046517315   -4.7279478    1.0688302      1024000 
  188000   0.71303232    -4.729138    -4.729138   -3.6595917 -0.0027303708    -4.729138    1.0695463      1024000 
  189000   0.71425855   -4.7312624   -4.7312624   -3.6598768 0.0022352878   -4.7312624    1.0713856      1024000 
  190000   0.71542329   -4.7338117   -4.7338117   -3.6606789 0.0038243883   -4.7338117    1.0731328      1024000 
  191000   0.71514725   -4.7338769   -4.7338769   -3.6611582  0.011991371   -4.7338769    1.0727187      1024000 
  192000   0.71616532   -4.7363525   -4.7363525   -3.6621067   0.01311412   -4.7363525    1.0742458      1024000 
  193000   0.71716293   -4.7391062   -4.7391062    -3.663364   0.01938903   -4.7391062    1.0757422      1024000 
  194000   0.71629567   -4.7394676   -4.7394676   -3.6650263   0.02737916   -4.7394676    1.0744413      1024000 
  195000   0.71695579   -4.7416319   -4.7416319   -3.6662004  0.026904391   -4.7416319    1.0754315      1024000 
  196000   0.71781514   -4.7442087   -4.7442087   -3.6674881  0.029692241   -4.7442087    1.0767205      1024000 
  197000   0.71833326   -4.7459778   -4.7459778   -3.6684801  0.030035691   -4.7459778    1.0774977      1024000 
  198000   0.71753313   -4.7465099   -4.7465099   -3.6702124  0.032741825   -4.7465099    1.0762975      1024000 
  199000   0.71707888   -4.7470011   -4.7470011   -3.6713849  0.036321599   -4.7470011    1.0756161      1024000 
  200000   0.71750209   -4.7489247   -4.7489247   -3.6726738  0.031018001   -4.7489247     1.076251      1024000 
  201000   0.71682869   -4.7491493   -4.7491493   -3.6739084  0.031704921   -4.7491493    1.0752409      1024000 
  202000   0.71717989   -4.7514489   -4.7514489   -3.6756813  0.027032793   -4.7514489    1.0757677      1024000 
  203000   0.71696418   -4.7511844   -4.7511844   -3.6757404  0.026234763   -4.7511844    1.0754441      1024000 
  204000   0.71548519   -4.7503544   -4.7503544   -3.6771288  0.024946037   -4.7503544    1.0732256      1024000 
  205000   0.71464822   -4.7496705   -4.7496705   -3.6777003   0.02550061   -4.7496705    1.0719701      1024000 
  206000   0.71389386   -4.7498594   -4.7498594   -3.6790207  0.020356901   -4.7498594    1.0708386      1024000 
  207000   0.71290694    -4.748889    -4.748889   -3.6795308  0.013159182    -4.748889    1.0693582      1024000 
  208000   0.71265341   -4.7486773   -4.7486773   -3.6796994  0.015456621   -4.7486773    1.0689779      1024000 
  209000   0.71212645   -4.7491118   -4.7491118   -3.6809243 0.0076776735   -4.7491118    1.0681875      1024000 
  210000   0.71162263   -4.7487106   -4.7487106   -3.6812788 0.0014611271   -4.7487106    1.0674318      1024000 
  211000     0.710415   -4.7473236   -4.7473236   -3.6817033 0.0051658677   -4.7473236    1.0656203      1024000 
  212000   0.71138942   -4.7489161   -4.7489161   -3.6818341 -0.0026250622   -4.7489161     1.067082      1024000 
  213000   0.71009866   -4.7473649   -4.7473649   -3.6822191 0.0030735926   -4.7473649    1.0651458      1024000 
  214000   0.71012445   -4.7475706   -4.7475706   -3.6823861 -0.0025457561   -4.7475706    1.0651845      1024000 
  215000   0.70890115   -4.7458647   -4.7458647   -3.6825151 -0.0023787286   -4.7458647    1.0633496      1024000 
  216000   0.70884686    -4.746092    -4.746092   -3.6828238 -0.00031330004    -4.746092    1.0632681      1024000 
  217000   0.70903358   -4.7463373   -4.7463373   -3.6827891 -0.0040277613   -4.7463373    1.0635482      1024000 
  218000   0.70864605   -4.7461226   -4.7461226   -3.6831557 -0.0014335132   -4.7461226    1.0629669      1024000 
  219000   0.71064917     -4.74903     -4.74903   -3.6830584 -0.001393521     -4.74903    1.0659716      1024000 
  220000   0.70957197   -4.7485976   -4.7485976   -3.6842418 0.0031732309   -4.7485976    1.0643558      1024000 
  221000   0.71147123   -4.7519549   -4.7519549   -3.6847502 0.00020850044   -4.7519549    1.0672047      1024000 
  222000    0.7102864   -4.7511202   -4.7511202   -3.6856928 0.0023187569   -4.7511202    1.0654274      1024000 
  223000   0.71151123   -4.7529453   -4.7529453   -3.6856806 0.0077003105   -4.7529453    1.0672647      1024000 
  224000   0.71191712   -4.7541164   -4.7541164   -3.6862429  0.014357313   -4.7541164    1.0678735      1024000 
  225000    0.7131199   -4.7558353   -4.7558353   -3.6861576  0.015909229   -4.7558353    1.0696777      1024000 
  226000   0.71294445   -4.7567483   -4.7567483   -3.6873338  0.016728961   -4.7567483    1.0694145      1024000 
  227000   0.71238197   -4.7570903   -4.7570903   -3.6885195  0.019304073   -4.7570903    1.0685708      1024000 
  228000   0.71199244    -4.756903    -4.756903   -3.6889166   0.02353378    -4.756903    1.0679865      1024000 
  229000   0.71266412   -4.7582694   -4.7582694   -3.6892754  0.019300936   -4.7582694     1.068994      1024000 
  230000    0.7127993   -4.7593873   -4.7593873   -3.6901905  0.020635148   -4.7593873    1.0691968      1024000 
  231000   0.71248493   -4.7600468   -4.7600468   -3.6913216   0.02121942   -4.7600468    1.0687252      1024000 
  232000   0.71257689   -4.7611761   -4.7611761   -3.6923129  0.021466306   -4.7611761    1.0688632      1024000 
  233000   0.71184203   -4.7615197   -4.7615197   -3.6937588  0.022117893   -4.7615197    1.0677609      1024000 
  234000   0.71114885   -4.7615675   -4.7615675   -3.6948464  0.019325205   -4.7615675    1.0667211      1024000 
  235000   0.71015032   -4.7603069   -4.7603069   -3.6950836  0.019835159   -4.7603069    1.0652233      1024000 
  236000   0.71180188   -4.7622052   -4.7622052   -3.6945045  0.017516499   -4.7622052    1.0677007      1024000 
  237000   0.71079025   -4.7612601   -4.7612601   -3.6950769  0.021649459   -4.7612601    1.0661832      1024000 
  238000   0.71094916   -4.7621509   -4.7621509   -3.6957294  0.015580742   -4.7621509    1.0664216      1024000 
  239000   0.70951864   -4.7615867   -4.7615867   -3.6973109  0.011787179   -4.7615867    1.0642758      1024000 
  240000   0.70905063   -4.7613695   -4.7613695   -3.6977957  0.011447621   -4.7613695    1.0635738      1024000 
  241000   0.70872739    -4.761205    -4.761205   -3.6981161 0.0096227819    -4.761205    1.0630889      1024000 
  242000   0.70752437   -4.7607242   -4.7607242   -3.6994398  0.010511475   -4.7607242    1.0612844      1024000 
  243000   0.70870247   -4.7629482   -4.7629482   -3.6998966 0.0033529555   -4.7629482    1.0630515      1024000 
  244000   0.70758693   -4.7620747   -4.7620747   -3.7006965 0.0042026719   -4.7620747    1.0613782      1024000 
  245000   0.70784695    -4.761505    -4.761505   -3.6997367 0.0066015206    -4.761505    1.0617683      1024000 
  246000   0.70783251   -4.7623581   -4.7623581   -3.7006115 0.0029131778   -4.7623581    1.0617466      1024000 
  247000   0.70799415   -4.7631586   -4.7631586   -3.7011695 0.0072903852   -4.7631586    1.0619891      1024000 
  248000   0.70792823   -4.7636748   -4.7636748   -3.7017846  0.010107528   -4.7636748    1.0618902      1024000 
  249000   0.70817503   -4.7644327   -4.7644327   -3.7021723 0.0053152951   -4.7644327    1.0622604      1024000 
  250000   0.70923428   -4.7658644   -4.7658644   -3.7020152 0.0076408242   -4.7658644    1.0638493      1024000 
  251000   0.70887313   -4.7655333   -4.7655333   -3.7022258  0.010935086   -4.7655333    1.0633075      1024000 
  252000   0.70861341   -4.7653684   -4.7653684   -3.7024504  0.014528907   -4.7653684     1.062918      1024000 
  253000   0.70864685   -4.7661358   -4.7661358   -3.7031676  0.011963255   -4.7661358    1.0629681      1024000 
  254000   0.70873349   -4.7659912   -4.7659912   -3.7028932  0.014573605   -4.7659912    1.0630981      1024000 
  255000   0.70802986   -4.7646124   -4.7646124   -3.7025697  0.018342671   -4.7646124    1.0620426      1024000 
  256000   0.70991873   -4.7679873   -4.7679873   -3.7031114  0.014417156   -4.7679873    1.0648759      1024000 
  257000    0.7090106   -4.7669489   -4.7669489   -3.7034351  0.022919477   -4.7669489    1.0635137      1024000 
  258000   0.70946269   -4.7678821   -4.7678821   -3.7036902  0.021049019   -4.7678821    1.0641919      1024000 
  259000   0.70996294   -4.7687491   -4.7687491   -3.7038068  0.016032796   -4.7687491    1.0649422      1024000 
  260000   0.70832133   -4.7667649   -4.7667649   -3.7042851  0.021612002   -4.7667649    1.0624798      1024000 
  261000   0.70895877   -4.7677176   -4.7677176   -3.7042816  0.015120423   -4.7677176     1.063436      1024000 
  262000   0.70872241   -4.7686171   -4.7686171   -3.7055356  0.016974783   -4.7686171    1.0630815      1024000 
  263000   0.70850269     -4.76845     -4.76845   -3.7056981  0.015586154     -4.76845    1.0627519      1024000 
  264000   0.70832943   -4.7679906   -4.7679906   -3.7054986  0.016938001   -4.7679906     1.062492      1024000 
  265000   0.70949031   -4.7704669   -4.7704669   -3.7062336 0.0084907367   -4.7704669    1.0642333      1024000 
  266000   0.70837351   -4.7686628   -4.7686628   -3.7061047  0.012910549   -4.7686628    1.0625581      1024000 
  267000   0.70779249   -4.7678611   -4.7678611   -3.7061746  0.011081193   -4.7678611    1.0616866      1024000 
  268000   0.70781876   -4.7686237   -4.7686237   -3.7068977 0.0083830567   -4.7686237     1.061726      1024000 
  269000   0.70651079   -4.7674849   -4.7674849   -3.7077209  0.010395973   -4.7674849     1.059764      1024000 
  270000    0.7064097   -4.7679642   -4.7679642   -3.7083518 0.0068727581   -4.7679642    1.0596124      1024000 
  271000   0.70661414   -4.7682961   -4.7682961   -3.7083771 0.0092877851   -4.7682961    1.0599191      1024000 
  272000   0.70664331    -4.767771    -4.767771   -3.7078082 0.0057518089    -4.767771    1.0599628      1024000 
  273000   0.70654787   -4.7673332   -4.7673332   -3.7075135 0.0082884592   -4.7673332    1.0598197      1024000 
  274000   0.70638598   -4.7677272   -4.7677272   -3.7081504 0.0077529897   -4.7677272    1.0595768      1024000 
  275000   0.70665689   -4.7686553   -4.7686553   -3.7086721 0.0061753256   -4.7686553    1.0599832      1024000 
  276000   0.70741049   -4.7692833   -4.7692833   -3.7081697  0.006444213   -4.7692833    1.0611136      1024000 
  277000   0.70792906   -4.7704735   -4.7704735   -3.7085821 0.0090547688   -4.7704735    1.0618914      1024000 
  278000   0.70727214   -4.7694795   -4.7694795   -3.7085735  0.012893639   -4.7694795    1.0609061      1024000 
  279000   0.70761909   -4.7705114   -4.7705114   -3.7090849 0.0085366657   -4.7705114    1.0614265      1024000 
  280000   0.70752161   -4.7707241   -4.7707241   -3.7094439  0.010207551   -4.7707241    1.0612803      1024000 
  281000   0.70785369   -4.7716495   -4.7716495   -3.7098711  0.011242946   -4.7716495    1.0617784      1024000 
  282000   0.70666297   -4.7698783   -4.7698783    -3.709886  0.014650583   -4.7698783    1.0599923      1024000 
  283000   0.70769304   -4.7719506   -4.7719506   -3.7104132  0.013553222   -4.7719506    1.0615374      1024000 
  284000   0.70697983   -4.7710205   -4.7710205   -3.7105529  0.013905905   -4.7710205    1.0604676      1024000 
  285000   0.70815799   -4.7731455   -4.7731455   -3.7109107 0.0095381712   -4.7731455    1.0622348      1024000 
  286000   0.70730007   -4.7729275   -4.7729275   -3.7119795  0.012361359   -4.7729275     1.060948      1024000 
  287000   0.70690942    -4.772195    -4.772195   -3.7118331  0.012338091    -4.772195     1.060362      1024000 
  288000   0.70634187   -4.7726475   -4.7726475   -3.7131368  0.012643637   -4.7726475    1.0595107      1024000 
  289000   0.70633335   -4.7732021   -4.7732021   -3.7137042  0.013017633   -4.7732021    1.0594979      1024000 
  290000    0.7060412   -4.7719436   -4.7719436   -3.7128839  0.018520053   -4.7719436    1.0590597      1024000 
  291000    0.7070601   -4.7737969   -4.7737969   -3.7132089  0.012769248   -4.7737969     1.060588      1024000 
  292000   0.70663144   -4.7735447   -4.7735447   -3.7135997  0.016215291   -4.7735447     1.059945      1024000 
  293000   0.70702178    -4.774233    -4.774233   -3.7137025  0.013898936    -4.774233    1.0605305      1024000 
  294000   0.70641198   -4.7739427   -4.7739427   -3.7143269  0.016229566   -4.7739427    1.0596158      1024000 
  295000   0.70629155   -4.7738821   -4.7738821   -3.7144469  0.015447126   -4.7738821    1.0594352      1024000 
  296000    0.7071101   -4.7747188   -4.7747188   -3.7140558  0.017714286   -4.7747188     1.060663      1024000 
  297000   0.70815992   -4.7756005   -4.7756005   -3.7133628   0.01428743   -4.7756005    1.0622377      1024000 
  298000     0.707934   -4.7755242   -4.7755242   -3.7136253  0.014236631   -4.7755242    1.0618988      1024000 
  299000   0.70715706   -4.7743256   -4.7743256   -3.7135922  0.015398708   -4.7743256    1.0607334      1024000 
  300000   0.70751181   -4.7753546   -4.7753546    -3.714089  0.016680591   -4.7753546    1.0612656      1024000 
  301000   0.70767902   -4.7749089   -4.7749089   -3.7133925  0.015831737   -4.7749089    1.0615164      1024000 
  302000    0.7069368   -4.7738598   -4.7738598   -3.7134568  0.016241028   -4.7738598     1.060403      1024000 
  303000   0.70780111   -4.7761355   -4.7761355    -3.714436 0.0098806727   -4.7761355    1.0616995      1024000 
  304000   0.70710564   -4.7747312   -4.7747312   -3.7140749 0.0098330717   -4.7747312    1.0606563      1024000 
  305000   0.70685092   -4.7746912   -4.7746912   -3.7144169 0.0099970938   -4.7746912    1.0602742      1024000 
  306000   0.70722739    -4.774968    -4.774968   -3.7141291 0.0078854343    -4.774968    1.0608389      1024000 
  307000   0.70607946   -4.7725795   -4.7725795   -3.7134625  0.013675751   -4.7725795     1.059117      1024000 
  308000   0.70610422    -4.772693    -4.772693   -3.7135388  0.012397535    -4.772693    1.0591542      1024000 
  309000    0.7063999   -4.7730793   -4.7730793   -3.7134816  0.012808887   -4.7730793    1.0595977      1024000 
  310000   0.70687949    -4.774493    -4.774493   -3.7141759 0.0059922854    -4.774493    1.0603171      1024000 
  311000   0.70591633   -4.7730157   -4.7730157   -3.7141434 0.0074574371   -4.7730157    1.0588723      1024000 
  312000   0.70618653   -4.7735822   -4.7735822   -3.7143046 0.0042290725   -4.7735822    1.0592776      1024000 
  313000   0.70527111    -4.773149    -4.773149   -3.7152445  0.006608367    -4.773149    1.0579045      1024000 
  314000   0.70639114    -4.774342    -4.774342   -3.7147574 0.0047350948    -4.774342    1.0595846      1024000 
  315000   0.70632873   -4.7738289   -4.7738289   -3.7143379 0.0065683387   -4.7738289    1.0594909      1024000 
  316000     0.705806   -4.7724965   -4.7724965   -3.7137897  0.010624502   -4.7724965    1.0587069      1024000 
  317000   0.70658052   -4.7727061   -4.7727061   -3.7128374  0.014652091   -4.7727061    1.0598686      1024000 
  318000   0.70698501   -4.7742545   -4.7742545   -3.7137791   0.01041748   -4.7742545    1.0604754      1024000 
  319000    0.7059787   -4.7724634   -4.7724634   -3.7134975  0.018177554   -4.7724634    1.0589659      1024000 
  320000   0.70665414   -4.7731458   -4.7731458   -3.7131668  0.015432346   -4.7731458    1.0599791      1024000 
  321000   0.70665759   -4.7733311   -4.7733311   -3.7133469   0.01366852   -4.7733311    1.0599842      1024000 
  322000   0.70711823   -4.7740544   -4.7740544   -3.7133792  0.013304179   -4.7740544    1.0606752      1024000 
  323000    0.7077136    -4.774651    -4.774651   -3.7130828  0.010942467    -4.774651    1.0615682      1024000 
  324000   0.70682588    -4.773654    -4.773654   -3.7134173  0.015906428    -4.773654    1.0602367      1024000 
  325000   0.70656222   -4.7735574   -4.7735574   -3.7137162  0.019385493   -4.7735574    1.0598412      1024000 
  326000   0.70718973   -4.7743155   -4.7743155   -3.7135331  0.013217721   -4.7743155    1.0607824      1024000 
  327000   0.70744932   -4.7752115   -4.7752115   -3.7140397  0.014061481   -4.7752115    1.0611718      1024000 
  328000   0.70731762   -4.7750401   -4.7750401   -3.7140658  0.016121964   -4.7750401    1.0609743      1024000 
  329000   0.70636415   -4.7736899   -4.7736899   -3.7141458  0.014520654   -4.7736899    1.0595441      1024000 
  330000   0.70567323   -4.7730832   -4.7730832   -3.7145755  0.013541127   -4.7730832    1.0585077      1024000 
  331000   0.70622765   -4.7731577   -4.7731577   -3.7138184   0.01767199   -4.7731577    1.0593393      1024000 
  332000   0.70631743   -4.7737072   -4.7737072   -3.7142332  0.014765356   -4.7737072     1.059474      1024000 
  333000   0.70670809   -4.7747808   -4.7747808   -3.7147208  0.014761703   -4.7747808      1.06006      1024000 
  334000   0.70650993   -4.7738017   -4.7738017    -3.714039  0.017622598   -4.7738017    1.0597627      1024000 
  335000   0.70635263   -4.7739976   -4.7739976   -3.7144708  0.011217816   -4.7739976    1.0595268      1024000 
  336000   0.70710515   -4.7753699   -4.7753699   -3.7147143  0.012017331   -4.7753699    1.0606556      1024000 
  337000   0.70576083   -4.7734626   -4.7734626   -3.7148235  0.012918177   -4.7734626    1.0586391      1024000 
  338000   0.70709594   -4.7748933   -4.7748933   -3.7142515  0.010136261   -4.7748933    1.0606418      1024000 
  339000   0.70684316   -4.7745419   -4.7745419   -3.7142793 0.0085667712   -4.7745419    1.0602626      1024000 
  340000   0.70699419   -4.7738124   -4.7738124   -3.7133233  0.009724416   -4.7738124    1.0604891      1024000 
  341000   0.70663989   -4.7740899   -4.7740899   -3.7141322  0.013286482   -4.7740899    1.0599577      1024000 
  342000   0.70722744   -4.7753311   -4.7753311   -3.7144921 0.0077216586   -4.7753311     1.060839      1024000 
  343000   0.70609974    -4.772968    -4.772968   -3.7138206  0.010363501    -4.772968    1.0591475      1024000 
  344000   0.70649164   -4.7735935   -4.7735935   -3.7138582 0.0090309149   -4.7735935    1.0597353      1024000 
  345000   0.70713255   -4.7743565   -4.7743565   -3.7136599 0.0092769434   -4.7743565    1.0606967      1024000 
  346000    0.7070118   -4.7736937   -4.7736937   -3.7131782  0.012672049   -4.7736937    1.0605156      1024000 
  347000   0.70803915   -4.7745825   -4.7745825   -3.7125259  0.010764422   -4.7745825    1.0620566      1024000 
  348000   0.70791368   -4.7751827   -4.7751827   -3.7133143  0.010127352   -4.7751827    1.0618684      1024000 
  349000   0.70722429   -4.7738793   -4.7738793   -3.7130451  0.013381465   -4.7738793    1.0608343      1024000 
  350000   0.70780185   -4.7752667   -4.7752667   -3.7135661 0.0046246866   -4.7752667    1.0617006      1024000 
  351000   0.70660528   -4.7734279   -4.7734279   -3.7135222  0.013941078   -4.7734279    1.0599058      1024000 
  352000    0.7072933   -4.7737152   -4.7737152   -3.7127774  0.015055561   -4.7737152    1.0609378      1024000 
  353000   0.70628883   -4.7722556   -4.7722556   -3.7128245  0.017082895   -4.7722556    1.0594311      1024000 
  354000    0.7066539   -4.7723881   -4.7723881   -3.7124094  0.016137785   -4.7723881    1.0599787      1024000 
  355000   0.70690638   -4.7725545   -4.7725545    -3.712197  0.011485774   -4.7725545    1.0603574      1024000 
  356000   0.70764858   -4.7738007   -4.7738007     -3.71233  0.011128208   -4.7738007    1.0614707      1024000 
  357000   0.70737687   -4.7739549   -4.7739549   -3.7128918   0.01373144   -4.7739549    1.0610632      1024000 
  358000   0.70665421   -4.7715341   -4.7715341   -3.7115549  0.013511791   -4.7715341    1.0599792      1024000 
  359000   0.70854927   -4.7741046   -4.7741046   -3.7112829 0.0082445713   -4.7741046    1.0628217      1024000 
  360000   0.70741562    -4.772431    -4.772431   -3.7113097  0.012760337    -4.772431    1.0611213      1024000 
  361000   0.70714649   -4.7723549   -4.7723549   -3.7116373  0.011515892   -4.7723549    1.0607176      1024000 
  362000   0.70702701   -4.7714548   -4.7714548   -3.7109164  0.013648217   -4.7714548    1.0605384      1024000 
  363000   0.70797808   -4.7718312   -4.7718312   -3.7098663 0.0089544356   -4.7718312     1.061965      1024000 
  364000   0.70725915   -4.7707246   -4.7707246    -3.709838  0.011635513   -4.7707246    1.0608866      1024000 
  365000   0.70820728   -4.7718108   -4.7718108    -3.709502  0.011523559   -4.7718108    1.0623088      1024000 
  366000   0.70771865   -4.7707841   -4.7707841   -3.7092083  0.010335664   -4.7707841    1.0615758      1024000 
  367000   0.70774199   -4.7705799   -4.7705799   -3.7089691  0.012054615   -4.7705799    1.0616108      1024000 
  368000   0.70707874    -4.769552    -4.769552   -3.7089361  0.015137195    -4.769552     1.060616      1024000 
  369000   0.70704277   -4.7698371   -4.7698371   -3.7092751  0.011809456   -4.7698371     1.060562      1024000 
  370000   0.70756331   -4.7703382   -4.7703382   -3.7089954 0.0088654076   -4.7703382    1.0613428      1024000 
  371000   0.70643395   -4.7691296   -4.7691296   -3.7094809 0.0094516652   -4.7691296    1.0596488      1024000 
  372000   0.70710121   -4.7697875   -4.7697875   -3.7091378 0.0082538001   -4.7697875    1.0606497      1024000 
  373000   0.70597899   -4.7682921   -4.7682921   -3.7093257 0.0089142378   -4.7682921    1.0589663      1024000 
  374000   0.70673184    -4.769103    -4.769103   -3.7090074 0.0085158017    -4.769103    1.0600956      1024000 
  375000   0.70740839   -4.7695236   -4.7695236   -3.7084132 0.0057590183   -4.7695236    1.0611104      1024000 
  376000    0.7071532   -4.7687407   -4.7687407    -3.708013  0.011975941   -4.7687407    1.0607277      1024000 
  377000   0.70800999   -4.7692809   -4.7692809    -3.707268  0.010844798   -4.7692809    1.0620128      1024000 
  378000   0.70767934   -4.7685652   -4.7685652   -3.7070483  0.011521752   -4.7685652    1.0615168      1024000 
  379000   0.70825666   -4.7691309   -4.7691309   -3.7067481 0.0093498056   -4.7691309    1.0623828      1024000 
  380000   0.70753758   -4.7684288   -4.7684288   -3.7071246  0.015658238   -4.7684288    1.0613042      1024000 
  381000   0.70780321   -4.7676009   -4.7676009   -3.7058982  0.015236924   -4.7676009    1.0617027      1024000 
  382000   0.70862714   -4.7690118   -4.7690118   -3.7060733  0.012302621   -4.7690118    1.0629386      1024000 
  383000   0.70874275   -4.7695296   -4.7695296   -3.7064176  0.013431143   -4.7695296     1.063112      1024000 
  384000   0.70951342    -4.770241    -4.770241    -3.705973  0.015879257    -4.770241     1.064268      1024000 
  385000   0.70972298   -4.7701627   -4.7701627   -3.7055804  0.011219386   -4.7701627    1.0645823      1024000 
  386000   0.70913555   -4.7695194   -4.7695194   -3.7058182  0.013996086   -4.7695194    1.0637012      1024000 
  387000   0.70928907   -4.7696186   -4.7696186   -3.7056872  0.013300988   -4.7696186    1.0639314      1024000 
  388000   0.70874383   -4.7691161   -4.7691161   -3.7060025   0.01288346   -4.7691161    1.0631136      1024000 
  389000   0.70931935   -4.7695427   -4.7695427   -3.7055659  0.011816121   -4.7695427    1.0639769      1024000 
  390000   0.70903456   -4.7688999   -4.7688999   -3.7053502 0.0085016272   -4.7688999    1.0635497      1024000 
  391000   0.70810413   -4.7671066   -4.7671066   -3.7049525  0.011894676   -4.7671066     1.062154      1024000 
  392000   0.70796413   -4.7667891   -4.7667891   -3.7048451  0.011120073   -4.7667891     1.061944      1024000 
  393000    0.7078191   -4.7669886   -4.7669886   -3.7052621  0.012903651   -4.7669886    1.0617265      1024000 
  394000   0.70959741   -4.7688776   -4.7688776   -3.7044836 0.0069876024   -4.7688776     1.064394      1024000 
  395000   0.70947479   -4.7681882   -4.7681882   -3.7039781 0.0067714181   -4.7681882      1.06421      1024000 
  396000   0.70881391   -4.7672752   -4.7672752   -3.7040565  0.011803704   -4.7672752    1.0632187      1024000 
  397000   0.70974529   -4.7681115   -4.7681115   -3.7034957 0.0090284265   -4.7681115    1.0646158      1024000 
  398000   0.70974683   -4.7676445   -4.7676445   -3.7030264  0.010622612   -4.7676445    1.0646181      1024000 
  399000   0.70951865    -4.767294    -4.767294   -3.7030182  0.015348611    -4.767294    1.0642758      1024000 
  400000   0.71011253   -4.7670775   -4.7670775   -3.7019109  0.016505377   -4.7670775    1.0651666      1024000 
  401000   0.71017321   -4.7663989   -4.7663989   -3.7011412    0.0198706   -4.7663989    1.0652577      1024000 
  402000   0.70955079   -4.7648117   -4.7648117   -3.7004876  0.018298092   -4.7648117     1.064324      1024000 
  403000    0.7095172   -4.7652103   -4.7652103   -3.7009367  0.015060297   -4.7652103    1.0642736      1024000 
  404000   0.71004599   -4.7666633   -4.7666633   -3.7015965  0.011847529   -4.7666633    1.0650668      1024000 
  405000   0.70832062    -4.764447    -4.764447   -3.7019682  0.016315123    -4.764447    1.0624788      1024000 
  406000   0.70910717   -4.7642025   -4.7642025   -3.7005439  0.014329765   -4.7642025    1.0636586      1024000 
  407000   0.70911316   -4.7647825   -4.7647825    -3.701115  0.012357089   -4.7647825    1.0636676      1024000 
  408000    0.7088384    -4.764739    -4.764739   -3.7014836  0.012378352    -4.764739    1.0632554      1024000 
  409000   0.70897789   -4.7648781   -4.7648781   -3.7014134 0.0083694741   -4.7648781    1.0634647      1024000 
  410000   0.70937336   -4.7649707   -4.7649707   -3.7009128 0.0090356727   -4.7649707    1.0640579      1024000 
  411000   0.70933252   -4.7646316   -4.7646316    -3.700635  0.010237872   -4.7646316    1.0639966      1024000 
  412000   0.70923527   -4.7645484   -4.7645484   -3.7006977 0.0075162321   -4.7645484    1.0638507      1024000 
  413000   0.70908343   -4.7634903   -4.7634903   -3.6998673 0.0088905818   -4.7634903     1.063623      1024000 
  414000   0.70849091   -4.7624321   -4.7624321   -3.6996979  0.010096786   -4.7624321    1.0627342      1024000 
  415000   0.70849632   -4.7612881   -4.7612881   -3.6985458  0.013347164   -4.7612881    1.0627423      1024000 
  416000   0.71020172   -4.7635059   -4.7635059   -3.6982055 0.0091295756   -4.7635059    1.0653004      1024000 
  417000   0.70888748   -4.7617004   -4.7617004   -3.6983714   0.01272491   -4.7617004    1.0633291      1024000 
  418000    0.7098721   -4.7628137   -4.7628137   -3.6980077 0.0081158469   -4.7628137     1.064806      1024000 
  419000   0.70967393   -4.7624635   -4.7624635   -3.6979548  0.010901627   -4.7624635    1.0645087      1024000 
  420000   0.71007354   -4.7620885   -4.7620885   -3.6969803 0.0092322974   -4.7620885    1.0651082      1024000 
  421000   0.71054089   -4.7618282   -4.7618282    -3.696019  0.015026224   -4.7618282    1.0658092      1024000 
  422000   0.70984207   -4.7605396   -4.7605396   -3.6957786  0.013931424   -4.7605396    1.0647609      1024000 
  423000   0.71124715   -4.7623304   -4.7623304   -3.6954618  0.013023274   -4.7623304    1.0668686      1024000 
  424000   0.71088738   -4.7614226   -4.7614226   -3.6950937  0.012828241   -4.7614226    1.0663289      1024000 
  425000   0.71065363   -4.7601602   -4.7601602   -3.6941819  0.017220279   -4.7601602    1.0659783      1024000 
  426000   0.71081334   -4.7600724   -4.7600724   -3.6938545  0.016937005   -4.7600724    1.0662179      1024000 
  427000   0.71090527   -4.7599876   -4.7599876   -3.6936318  0.017047709   -4.7599876    1.0663557      1024000 
  428000   0.71180443    -4.761312    -4.761312   -3.6936075  0.012455931    -4.761312    1.0677045      1024000 
  429000   0.71031664   -4.7584546   -4.7584546   -3.6929818  0.016476617   -4.7584546    1.0654728      1024000 
  430000   0.71132599   -4.7598425   -4.7598425   -3.6928556 0.0097581518   -4.7598425    1.0669868      1024000 
  431000   0.71233211   -4.7601726   -4.7601726   -3.6916766  0.013967565   -4.7601726     1.068496      1024000 
  432000   0.71202703   -4.7588785   -4.7588785   -3.6908401  0.012092025   -4.7588785    1.0680384      1024000 
  433000   0.71173434   -4.7581898   -4.7581898   -3.6905905 0.0088969291   -4.7581898    1.0675994      1024000 
  434000   0.71084267   -4.7564764   -4.7564764   -3.6902145 0.0091317099   -4.7564764    1.0662618      1024000 
  435000   0.71135423   -4.7567884   -4.7567884   -3.6897592  0.010599386   -4.7567884    1.0670292      1024000 
  436000   0.71119684   -4.7573781   -4.7573781    -3.690585 0.0082958827   -4.7573781    1.0667931      1024000 
  437000   0.71067738   -4.7567718   -4.7567718   -3.6907579  0.011432018   -4.7567718    1.0660139      1024000 
  438000    0.7110727   -4.7563788   -4.7563788   -3.6897719 0.0085324849   -4.7563788    1.0666069      1024000 
  439000   0.71133628   -4.7556723   -4.7556723   -3.6886701  0.011648921   -4.7556723    1.0670023      1024000 
  440000   0.71214522   -4.7561301   -4.7561301   -3.6879144 0.0074221616   -4.7561301    1.0682157      1024000 
  441000   0.71106279   -4.7543751   -4.7543751   -3.6877831  0.010274597   -4.7543751     1.066592      1024000 
  442000   0.71225114   -4.7556576   -4.7556576    -3.687283 0.0075339088   -4.7556576    1.0683745      1024000 
  443000   0.71161124   -4.7548109   -4.7548109   -3.6873962 0.0085400061   -4.7548109    1.0674147      1024000 
  444000   0.71201223   -4.7553415   -4.7553415   -3.6873253 0.0086951838   -4.7553415    1.0680162      1024000 
  445000   0.71205043   -4.7550428   -4.7550428   -3.6869693 0.0071795939   -4.7550428    1.0680735      1024000 
  446000   0.71151349   -4.7540363   -4.7540363   -3.6867683 0.0074653404   -4.7540363    1.0672681      1024000 
  447000   0.71139794     -4.75312     -4.75312   -3.6860252  0.012084253     -4.75312    1.0670947      1024000 
  448000   0.71216198   -4.7532132   -4.7532132   -3.6849724  0.011605631   -4.7532132    1.0682408      1024000 
  449000   0.71240545   -4.7538173   -4.7538173   -3.6852113 0.0089224287   -4.7538173     1.068606      1024000 
  450000   0.71301925   -4.7541151   -4.7541151   -3.6845884  0.010521662   -4.7541151    1.0695267      1024000 
  451000   0.71283566   -4.7534918   -4.7534918   -3.6842405  0.012750293   -4.7534918    1.0692513      1024000 
  452000    0.7125512   -4.7527745   -4.7527745   -3.6839499  0.015324779   -4.7527745    1.0688246      1024000 
  453000   0.71325008   -4.7542784   -4.7542784   -3.6844055  0.010908952   -4.7542784     1.069873      1024000 
  454000   0.71386401   -4.7541532   -4.7541532   -3.6833593  0.012362024   -4.7541532    1.0707938      1024000 
  455000   0.71379376   -4.7534572   -4.7534572   -3.6827688  0.011640853   -4.7534572    1.0706885      1024000 
  456000   0.71211675   -4.7513177   -4.7513177   -3.6831448    0.0142186   -4.7513177     1.068173      1024000 
  457000   0.71285019    -4.751689    -4.751689   -3.6824159  0.013689609    -4.751689    1.0692731      1024000 
  458000   0.71412354   -4.7533004   -4.7533004   -3.6821172  0.014960496   -4.7533004    1.0711831      1024000 
  459000   0.71367533   -4.7524374   -4.7524374   -3.6819266  0.013064948   -4.7524374    1.0705108      1024000 
  460000   0.71388358    -4.751935    -4.751935   -3.6811118  0.013977898    -4.751935    1.0708232      1024000 
  461000   0.71510329   -4.7531781   -4.7531781   -3.6805254  0.014223429   -4.7531781    1.0726528      1024000 
  462000   0.71528483   -4.7527314   -4.7527314   -3.6798063 0.0082632957   -4.7527314    1.0729251      1024000 
  463000   0.71461189   -4.7513182   -4.7513182   -3.6794026  0.012609703   -4.7513182    1.0719157      1024000 
  464000   0.71373007   -4.7496828   -4.7496828   -3.6790899  0.010014287   -4.7496828    1.0705929      1024000 
  465000    0.7139978    -4.749654    -4.749654   -3.6786595  0.010150895    -4.749654    1.0709945      1024000 
  466000   0.71488194   -4.7497045   -4.7497045   -3.6773838  0.012392862   -4.7497045    1.0723207      1024000 
  467000   0.71454418   -4.7481811   -4.7481811    -3.676367  0.020662036   -4.7481811    1.0718141      1024000 
  468000   0.71526749   -4.7485101   -4.7485101    -3.675611  0.013021641   -4.7485101    1.0728991      1024000 
  469000   0.71400441   -4.7463438   -4.7463438   -3.6753394   0.01565638   -4.7463438    1.0710044      1024000 
  470000   0.71427003   -4.7468744   -4.7468744   -3.6754715  0.010381048   -4.7468744    1.0714029      1024000 
  471000   0.71367368   -4.7456285   -4.7456285   -3.6751202  0.013782356   -4.7456285    1.0705084      1024000 
  472000   0.71392013   -4.7456264   -4.7456264   -3.6747484 0.0091316221   -4.7456264     1.070878      1024000 
  473000   0.71454546   -4.7460902   -4.7460902   -3.6742742  0.012197756   -4.7460902     1.071816      1024000 
  474000   0.71574361   -4.7468158   -4.7468158   -3.6732026 0.0064968387   -4.7468158    1.0736132      1024000 
  475000   0.71493478   -4.7447028   -4.7447028   -3.6723028 0.0059611715   -4.7447028       1.0724      1024000 
  476000   0.71416579   -4.7435781   -4.7435781   -3.6723316  0.004190578   -4.7435781    1.0712465      1024000 
  477000   0.71312269   -4.7419096   -4.7419096   -3.6722278 0.0091913113   -4.7419096    1.0696819      1024000 
  478000    0.7154514   -4.7444609   -4.7444609    -3.671286 0.0031702466   -4.7444609    1.0731749      1024000 
  479000    0.7149103   -4.7430114   -4.7430114   -3.6706481 0.0063464465   -4.7430114    1.0723633      1024000 
  480000    0.7141884   -4.7426106   -4.7426106   -3.6713302 0.0097887055   -4.7426106    1.0712804      1024000 
  481000   0.71560513   -4.7436829   -4.7436829   -3.6702774 0.0061749348   -4.7436829    1.0734055      1024000 
  482000   0.71558255   -4.7430249   -4.7430249   -3.6696532 0.0089205799   -4.7430249    1.0733717      1024000 
  483000   0.71492273   -4.7410462   -4.7410462   -3.6686643  0.011968549   -4.7410462    1.0723819      1024000 
  484000   0.71578366   -4.7412914   -4.7412914   -3.6676181  0.014236593   -4.7412914    1.0736733      1024000 
  485000    0.7162297   -4.7423045   -4.7423045   -3.6679621 0.0095560436   -4.7423045    1.0743424      1024000 
  486000   0.71664447   -4.7425629   -4.7425629   -3.6675984  0.012899699   -4.7425629    1.0749645      1024000 
  487000   0.71613787     -4.74168     -4.74168   -3.6674754  0.016508292     -4.74168    1.0742046      1024000 
  488000   0.71680611   -4.7419626   -4.7419626   -3.6667556  0.012666209   -4.7419626     1.075207      1024000 
  489000   0.71748706   -4.7421224   -4.7421224    -3.665894  0.010508283   -4.7421224    1.0762284      1024000 
  490000    0.7179183   -4.7420871   -4.7420871   -3.6652118  0.013334515   -4.7420871    1.0768753      1024000 
  491000   0.71663649   -4.7400279   -4.7400279   -3.6650753  0.013688137   -4.7400279    1.0749526      1024000 
  492000   0.71659175   -4.7402644   -4.7402644    -3.665379  0.011766555   -4.7402644    1.0748854      1024000 
  493000   0.71648604   -4.7395299   -4.7395299   -3.6648031  0.014378943   -4.7395299    1.0747269      1024000 
  494000   0.71773689   -4.7410442   -4.7410442    -3.664441  0.010230178   -4.7410442    1.0766032      1024000 
  495000   0.71809212   -4.7407524   -4.7407524   -3.6636164  0.012296478   -4.7407524     1.077136      1024000 
  496000   0.71753903   -4.7397441   -4.7397441   -3.6634377 0.0085243698   -4.7397441    1.0763064      1024000 
  497000   0.71788491   -4.7401539   -4.7401539   -3.6633287 0.0067747774   -4.7401539    1.0768252      1024000 
  498000   0.71713934   -4.7375678   -4.7375678   -3.6618609   0.01345896   -4.7375678    1.0757068      1024000 
  499000   0.71918225   -4.7397903   -4.7397903   -3.6610191  0.011915328   -4.7397903    1.0787712      1024000 
  500000   0.71815577   -4.7374177   -4.7374177   -3.6601863   0.01668293   -4.7374177    1.0772315      1024000 
  501000   0.71790161   -4.7365809   -4.7365809   -3.6597307  0.012646451   -4.7365809    1.0768502      1024000 
  502000   0.71824849   -4.7360734   -4.7360734   -3.6587028  0.015581284   -4.7360734    1.0773705      1024000 
  503000    0.7180308   -4.7363632   -4.7363632   -3.6593191   0.00935933   -4.7363632     1.077044      1024000 
  504000   0.71803378   -4.7352498   -4.7352498   -3.6582013 0.0094878474   -4.7352498    1.0770485      1024000 
  505000   0.71886185   -4.7358626   -4.7358626    -3.657572  0.010584283   -4.7358626    1.0782906      1024000 
  506000   0.71835325   -4.7346932   -4.7346932   -3.6571655  0.010945028   -4.7346932    1.0775277      1024000 
  507000   0.71781688   -4.7339539   -4.7339539   -3.6572307  0.014388778   -4.7339539    1.0767231      1024000 
  508000   0.71806447   -4.7335817   -4.7335817   -3.6564872  0.014399611   -4.7335817    1.0770945      1024000 
  509000   0.71889984   -4.7350808   -4.7350808   -3.6567332  0.011364347   -4.7350808    1.0783476      1024000 
  510000   0.71830255   -4.7334744   -4.7334744   -3.6560227  0.011066447   -4.7334744    1.0774516      1024000 
  511000   0.71938662   -4.7342923   -4.7342923   -3.6552145  0.005124174   -4.7342923    1.0790777      1024000 
  512000   0.71857257   -4.7329061   -4.7329061   -3.6550495 0.0097730334   -4.7329061    1.0778567      1024000 
  513000   0.71790119    -4.731288    -4.731288   -3.6544384 0.0078249651    -4.731288    1.0768496      1024000 
  514000   0.71819318   -4.7311827   -4.7311827   -3.6538952  0.010693969   -4.7311827    1.0772876      1024000 
  515000   0.71879984   -4.7310251   -4.7310251   -3.6528276 0.0067102508   -4.7310251    1.0781976      1024000 
  516000   0.71906773   -4.7313243   -4.7313243   -3.6527248 0.0065915165   -4.7313243    1.0785994      1024000 
  517000   0.71894629   -4.7301576   -4.7301576   -3.6517403 0.0081418985   -4.7301576    1.0784172      1024000 
  518000   0.71946112   -4.7307416   -4.7307416   -3.6515521 0.0068728319   -4.7307416    1.0791895      1024000 
  519000   0.71981345    -4.730348    -4.730348     -3.65063 0.0082155136    -4.730348     1.079718      1024000 
  520000   0.71908544   -4.7295587   -4.7295587   -3.6509327 0.0076368944   -4.7295587     1.078626      1024000 
  521000   0.71929746   -4.7290849   -4.7290849   -3.6501409  0.009658302   -4.7290849     1.078944      1024000 
  522000   0.71965578   -4.7292584   -4.7292584   -3.6497769 0.0096555151   -4.7292584    1.0794815      1024000 
  523000   0.71922363   -4.7287958   -4.7287958   -3.6499625 0.0098979031   -4.7287958    1.0788332      1024000 
  524000   0.71920946   -4.7273428   -4.7273428   -3.6485308  0.013137811   -4.7273428     1.078812      1024000 
  525000   0.71987118    -4.727377    -4.727377   -3.6475725  0.013383621    -4.727377    1.0798046      1024000 
  526000   0.71962967   -4.7269584   -4.7269584   -3.6475161  0.012607848   -4.7269584    1.0794423      1024000 
  527000   0.72067702   -4.7278395   -4.7278395   -3.6468261 0.0075375638   -4.7278395    1.0810133      1024000 
  528000   0.72056465   -4.7279292   -4.7279292   -3.6470844 0.0097162913   -4.7279292    1.0808448      1024000 
  529000    0.7211609   -4.7279615   -4.7279615   -3.6462224 0.0059175976   -4.7279615    1.0817392      1024000 
  530000   0.72082969   -4.7259467   -4.7259467   -3.6447043  0.011334441   -4.7259467    1.0812423      1024000 
  531000   0.72088427   -4.7256602   -4.7256602    -3.644336  0.015262584   -4.7256602    1.0813242      1024000 
  532000   0.72101953   -4.7246449   -4.7246449   -3.6431178   0.01407851   -4.7246449    1.0815271      1024000 
  533000   0.72203065    -4.725036    -4.725036   -3.6419922  0.013439548    -4.725036    1.0830438      1024000 
  534000   0.72102051   -4.7227393   -4.7227393   -3.6412108  0.016512382   -4.7227393    1.0815286      1024000 
  535000   0.72134172   -4.7219637   -4.7219637   -3.6399533  0.017827701   -4.7219637    1.0820104      1024000 
  536000   0.72206283   -4.7218697   -4.7218697   -3.6387777  0.018480635   -4.7218697     1.083092      1024000 
  537000   0.72301347   -4.7229364   -4.7229364   -3.6384184  0.012952044   -4.7229364     1.084518      1024000 
  538000    0.7218367   -4.7207619   -4.7207619   -3.6380091   0.02025905   -4.7207619    1.0827529      1024000 
  539000   0.72250615   -4.7212336   -4.7212336   -3.6374766   0.01323134   -4.7212336     1.083757      1024000 
  540000   0.72151589   -4.7196716   -4.7196716      -3.6374  0.010359732   -4.7196716    1.0822716      1024000 
  541000   0.72245375   -4.7203382   -4.7203382   -3.6366598  0.010676683   -4.7203382    1.0836784      1024000 
  542000   0.72249114   -4.7200891   -4.7200891   -3.6363546 0.0075907965   -4.7200891    1.0837345      1024000 
  543000   0.72190292   -4.7183907   -4.7183907   -3.6355385 0.0091699957   -4.7183907    1.0828522      1024000 
  544000   0.72208471   -4.7177781   -4.7177781   -3.6346532 0.0086744749   -4.7177781    1.0831249      1024000 
  545000   0.72237447   -4.7177108   -4.7177108   -3.6341513 0.0043404665   -4.7177108    1.0835595      1024000 
  546000   0.72136699   -4.7157451   -4.7157451   -3.6336969 0.0088946765   -4.7157451    1.0820483      1024000 
  547000   0.72270248   -4.7171567   -4.7171567   -3.6331052 0.0023615042   -4.7171567    1.0840515      1024000 
  548000   0.72234356   -4.7155613   -4.7155613   -3.6320482  0.006843183   -4.7155613    1.0835131      1024000 
  549000   0.72302429   -4.7157427   -4.7157427   -3.6312084 0.0056533142   -4.7157427    1.0845342      1024000 
  550000    0.7215944   -4.7127957   -4.7127957   -3.6304063   0.01319093   -4.7127957    1.0823894      1024000 
  551000   0.72341815   -4.7147824   -4.7147824   -3.6296574 0.0064893574   -4.7147824     1.085125      1024000 
  552000    0.7223159   -4.7123298   -4.7123298   -3.6288581  0.011628745   -4.7123298    1.0834716      1024000 
  553000   0.72305394   -4.7136352   -4.7136352   -3.6290565  0.005762277   -4.7136352    1.0845787      1024000 
  554000   0.72328524   -4.7134964   -4.7134964   -3.6285707  0.005691396   -4.7134964    1.0849257      1024000 
  555000   0.72433998   -4.7140787   -4.7140787   -3.6275709 0.0076962478   -4.7140787    1.0865078      1024000 
  556000   0.72340056   -4.7116547   -4.7116547   -3.6265561  0.011163298   -4.7116547    1.0850986      1024000 
  557000   0.72309575   -4.7098927   -4.7098927   -3.6252513  0.011547661   -4.7098927    1.0846414      1024000 
  558000     0.724939   -4.7110788   -4.7110788   -3.6236725  0.011849354   -4.7110788    1.0874063      1024000 
  559000   0.72467621   -4.7101804   -4.7101804   -3.6231683  0.014757602   -4.7101804    1.0870121      1024000 
  560000   0.72480363   -4.7101302   -4.7101302    -3.622927  0.010817778   -4.7101302    1.0872032      1024000 
  561000   0.72542727   -4.7097848   -4.7097848   -3.6216461  0.015232932   -4.7097848    1.0881387      1024000 
  562000   0.72603302    -4.710317    -4.710317   -3.6212697  0.013630457    -4.710317    1.0890473      1024000 
  563000   0.72466636   -4.7079203   -4.7079203   -3.6209229   0.01735683   -4.7079203    1.0869973      1024000 
  564000   0.72587834   -4.7099456   -4.7099456   -3.6211303  0.012297679   -4.7099456    1.0888153      1024000 
  565000   0.72496569    -4.708639    -4.708639   -3.6211927  0.010585833    -4.708639    1.0874463      1024000 
  566000   0.72443289   -4.7072761   -4.7072761    -3.620629  0.008504292   -4.7072761    1.0866471      1024000 
  567000   0.72507642   -4.7070425   -4.7070425   -3.6194301 0.0079910681   -4.7070425    1.0876124      1024000 
  568000   0.72608587   -4.7080126   -4.7080126    -3.618886 0.0065309865   -4.7080126    1.0891266      1024000 
  569000   0.72487596   -4.7052076   -4.7052076   -3.6178959  0.010211388   -4.7052076    1.0873117      1024000 
  570000   0.72496539   -4.7049981   -4.7049981   -3.6175522 0.0063712526   -4.7049981    1.0874459      1024000 
  571000   0.72505481    -4.703569    -4.703569    -3.615989  0.011238718    -4.703569      1.08758      1024000 
  572000   0.72499034   -4.7032785   -4.7032785   -3.6157952  0.013120019   -4.7032785    1.0874833      1024000 
  573000   0.72597994   -4.7042731   -4.7042731   -3.6153054  0.011387184   -4.7042731    1.0889677      1024000 
  574000   0.72601806   -4.7037531   -4.7037531   -3.6147282  0.012247633   -4.7037531    1.0890249      1024000 
  575000   0.72599556   -4.7035962   -4.7035962    -3.614605  0.010546802   -4.7035962    1.0889911      1024000 
  576000   0.72643384   -4.7029411   -4.7029411   -3.6132926  0.011818829   -4.7029411    1.0896486      1024000 
  577000   0.72727376   -4.7031296   -4.7031296   -3.6122211  0.012918275   -4.7031296    1.0909084      1024000 
  578000    0.7278987   -4.7035042   -4.7035042   -3.6116584 0.0087330557   -4.7035042    1.0918458      1024000 
  579000    0.7272919   -4.7018942   -4.7018942   -3.6109585 0.0079376044   -4.7018942    1.0909356      1024000 
  580000   0.72662023   -4.7006352   -4.7006352   -3.6107071 0.0096908709   -4.7006352    1.0899281      1024000 
  581000    0.7262482   -4.6993199   -4.6993199   -3.6099498 0.0091908015   -4.6993199    1.0893701      1024000 
  582000   0.72665023   -4.6994319   -4.6994319   -3.6094588  0.011411499   -4.6994319    1.0899731      1024000 
  583000   0.72734828   -4.6997734   -4.6997734   -3.6087532 0.0086187553   -4.6997734    1.0910202      1024000 
  584000   0.72781945   -4.7000639   -4.7000639    -3.608337 0.0070288261   -4.7000639     1.091727      1024000 
  585000   0.72720054   -4.6978041   -4.6978041   -3.6070055  0.012924926   -4.6978041    1.0907986      1024000 
  586000   0.72725415   -4.6975166   -4.6975166   -3.6066376  0.012100515   -4.6975166     1.090879      1024000 
  587000   0.72805577   -4.6975049   -4.6975049   -3.6054235  0.013970483   -4.6975049    1.0920814      1024000 
  588000    0.7270072   -4.6956687   -4.6956687   -3.6051601  0.012544049   -4.6956687    1.0905086      1024000 
  589000   0.72797504   -4.6964165   -4.6964165   -3.6044561 0.0048409192   -4.6964165    1.0919603      1024000 
  590000   0.72776616   -4.6950284   -4.6950284   -3.6033814 0.0083077689   -4.6950284     1.091647      1024000 
  591000   0.72773233   -4.6954288   -4.6954288   -3.6038325 0.0090188319   -4.6954288    1.0915963      1024000 
  592000   0.72872192   -4.6959093   -4.6959093   -3.6028286 0.0082749935   -4.6959093    1.0930807      1024000 
  593000   0.72810388   -4.6947216   -4.6947216    -3.602568  0.009856416   -4.6947216    1.0921536      1024000 
  594000   0.72872792   -4.6941136   -4.6941136   -3.6010239  0.009362976   -4.6941136    1.0930897      1024000 
  595000   0.72828202   -4.6932296   -4.6932296   -3.6008088 0.0092902172   -4.6932296    1.0924208      1024000 
  596000   0.72843997   -4.6924824   -4.6924824   -3.5998246  0.012211112   -4.6924824    1.0926577      1024000 
  597000   0.72967452   -4.6935152   -4.6935152   -3.5990056  0.010719449   -4.6935152    1.0945096      1024000 
  598000   0.73035308   -4.6934316   -4.6934316   -3.5979042  0.011626231   -4.6934316    1.0955274      1024000 
  599000   0.73053929   -4.6931939   -4.6931939   -3.5973872 0.0096370927   -4.6931939    1.0958067      1024000 
  600000   0.72932431    -4.690851    -4.690851   -3.5968667  0.014455804    -4.690851    1.0939842      1024000 
  601000   0.73138782   -4.6929806   -4.6929806   -3.5959011 0.0085186371   -4.6929806    1.0970795      1024000 
  602000   0.73065279   -4.6902103   -4.6902103   -3.5942334  0.012890496   -4.6902103     1.095977      1024000 
  603000   0.73034747   -4.6896184   -4.6896184   -3.5940994  0.010731316   -4.6896184     1.095519      1024000 
  604000   0.73110922   -4.6897705   -4.6897705   -3.5931089 0.0056191958   -4.6897705    1.0966616      1024000 
  605000   0.72962046     -4.68788     -4.68788   -3.5934515  0.010551269     -4.68788    1.0944285      1024000 
  606000   0.73002524   -4.6875234   -4.6875234   -3.5924878   0.01262198   -4.6875234    1.0950356      1024000 
  607000    0.7301771   -4.6866257   -4.6866257   -3.5913623  0.012520288   -4.6866257    1.0952634      1024000 
  608000   0.73074117   -4.6864149   -4.6864149   -3.5903053 0.0082548898   -4.6864149    1.0961095      1024000 
  609000   0.73020125   -4.6852608   -4.6852608   -3.5899612 0.0099209519   -4.6852608    1.0952996      1024000 
  610000   0.73132134   -4.6856638   -4.6856638    -3.588684 0.0077477462   -4.6856638    1.0969798      1024000 
  611000   0.73222272   -4.6862976   -4.6862976   -3.5879657 0.0088104292   -4.6862976    1.0983319      1024000 
  612000   0.73142117   -4.6846132   -4.6846132   -3.5874836  0.010645109   -4.6846132    1.0971295      1024000 
  613000   0.73187342   -4.6845669   -4.6845669   -3.5867591 0.0090469434   -4.6845669    1.0978079      1024000 
  614000   0.72963777   -4.6805116   -4.6805116   -3.5860572  0.010823789   -4.6805116    1.0944544      1024000 
  615000   0.73082854   -4.6815393   -4.6815393   -3.5852987 0.0081007348   -4.6815393    1.0962406      1024000 
  616000   0.73076637   -4.6804776   -4.6804776   -3.5843302 0.0056024099   -4.6804776    1.0961473      1024000 
  617000    0.7304238   -4.6797028   -4.6797028   -3.5840693 0.0093996978   -4.6797028    1.0956335      1024000 
  618000   0.73053146   -4.6801184   -4.6801184   -3.5843235 0.0087627456   -4.6801184     1.095795      1024000 
  619000   0.73093153   -4.6802917   -4.6802917   -3.5838966 0.0051827612   -4.6802917    1.0963951      1024000 
  620000   0.73248412   -4.6804319   -4.6804319    -3.581708 0.0067449517   -4.6804319    1.0987239      1024000 
  621000   0.73288181    -4.679806    -4.679806   -3.5804856 0.0053131931    -4.679806    1.0993205      1024000 
  622000   0.73268334   -4.6779234   -4.6779234   -3.5789006 0.0095188696   -4.6779234    1.0990228      1024000 
  623000   0.73365886    -4.679374    -4.679374    -3.578888 0.0099440494    -4.679374    1.1004861      1024000 
  624000   0.73325638   -4.6784649   -4.6784649   -3.5785826 0.0085543695   -4.6784649    1.0998823      1024000 
  625000   0.73227818   -4.6766003   -4.6766003   -3.5781853  0.011409291   -4.6766003     1.098415      1024000 
  626000    0.7332779   -4.6762917   -4.6762917   -3.5763771 0.0069214418   -4.6762917    1.0999146      1024000 
  627000   0.73280522   -4.6755756   -4.6755756     -3.57637 0.0070830249   -4.6755756    1.0992056      1024000 
  628000   0.73284943   -4.6744307   -4.6744307   -3.5751588 0.0088809928   -4.6744307    1.0992719      1024000 
  629000    0.7319106   -4.6726887   -4.6726887    -3.574825 0.0094530609   -4.6726887    1.0978637      1024000 
  630000   0.73327093   -4.6738446   -4.6738446   -3.5739404 0.0090588069   -4.6738446    1.0999042      1024000 
  631000   0.73230138   -4.6726064   -4.6726064   -3.5741565  0.013628478   -4.6726064    1.0984498      1024000 
  632000   0.73416202   -4.6740035   -4.6740035   -3.5727627 0.0065974118   -4.6740035    1.1012408      1024000 
  633000   0.73553582   -4.6758855   -4.6758855    -3.572584 0.0054389769   -4.6758855    1.1033015      1024000 
  634000    0.7350923   -4.6746849   -4.6746849   -3.5720486  0.012477611   -4.6746849    1.1026362      1024000 
  635000   0.73366733   -4.6720129   -4.6720129   -3.5715142  0.013711729   -4.6720129    1.1004988      1024000 
  636000   0.73520042   -4.6735246   -4.6735246   -3.5707262 0.0064270169   -4.6735246    1.1027984      1024000 
  637000    0.7352202   -4.6728782   -4.6728782   -3.5700502 0.0068980996   -4.6728782    1.1028281      1024000 
  638000   0.73493768   -4.6713192   -4.6713192   -3.5689149  0.008000383   -4.6713192    1.1024043      1024000 
  639000   0.73407776   -4.6702362   -4.6702362   -3.5691218  0.010113228   -4.6702362    1.1011144      1024000 
  640000   0.73426179   -4.6701831   -4.6701831   -3.5687927 0.0042196745   -4.6701831    1.1013905      1024000 
  641000   0.73396129   -4.6700854   -4.6700854   -3.5691457 0.0043339966   -4.6700854    1.1009397      1024000 
  642000   0.73463617     -4.66888     -4.66888    -3.566928 0.0076642963     -4.66888     1.101952      1024000 
  643000    0.7345356   -4.6690628   -4.6690628   -3.5672616 0.0065586484   -4.6690628    1.1018012      1024000 
  644000   0.73328819   -4.6660895   -4.6660895   -3.5661595  0.013571148   -4.6660895    1.0999301      1024000 
  645000   0.73568621   -4.6680267   -4.6680267   -3.5644997  0.010526055   -4.6680267    1.1035271      1024000 
  646000    0.7363676   -4.6688141   -4.6688141    -3.564265  0.015842593   -4.6688141    1.1045492      1024000 
  647000   0.73655351   -4.6672012   -4.6672012   -3.5623732  0.014567294   -4.6672012     1.104828      1024000 
  648000   0.73723548   -4.6667269   -4.6667269   -3.5608759  0.015264606   -4.6667269     1.105851      1024000 
  649000   0.73790562   -4.6664579   -4.6664579   -3.5596017  0.010945185   -4.6664579    1.1068562      1024000 
  650000   0.73806821   -4.6657294   -4.6657294   -3.5586293  0.011477607   -4.6657294    1.1071001      1024000 
  651000   0.73718378   -4.6642081   -4.6642081   -3.5584346  0.013899446   -4.6642081    1.1057734      1024000 
  652000   0.73851634    -4.665035    -4.665035   -3.5572627  0.013113861    -4.665035    1.1077723      1024000 
  653000   0.73657671   -4.6619947   -4.6619947   -3.5571318  0.017764135   -4.6619947    1.1048628      1024000 
  654000   0.73687971   -4.6619533   -4.6619533    -3.556636  0.012873003   -4.6619533    1.1053173      1024000 
  655000   0.73638193   -4.6616916   -4.6616916   -3.5571209  0.011384177   -4.6616916    1.1045707      1024000 
  656000   0.73643131   -4.6609508   -4.6609508    -3.556306 0.0074250083   -4.6609508    1.1046447      1024000 
  657000   0.73686131   -4.6610763   -4.6610763   -3.5557866  0.005888294   -4.6610763    1.1052897      1024000 
  658000   0.73677928    -4.660265    -4.660265   -3.5550984 0.0089179444    -4.660265    1.1051667      1024000 
  659000   0.73592723   -4.6577224   -4.6577224   -3.5538338 0.0094149922   -4.6577224    1.1038886      1024000 
  660000   0.73608995   -4.6575535   -4.6575535   -3.5534209 0.0085735227   -4.6575535    1.1041327      1024000 
  661000   0.73729448   -4.6580921   -4.6580921   -3.5521526 0.0086287494   -4.6580921    1.1059395      1024000 
  662000    0.7373252   -4.6568807   -4.6568807   -3.5508952  0.010932971   -4.6568807    1.1059855      1024000 
  663000   0.73837295   -4.6573824   -4.6573824   -3.5498252 0.0073029608   -4.6573824    1.1075572      1024000 
  664000   0.73849606   -4.6573906   -4.6573906   -3.5496488 0.0019870594   -4.6573906    1.1077418      1024000 
  665000   0.73879459   -4.6572301   -4.6572301   -3.5490405 0.00062931937   -4.6572301    1.1081896      1024000 
  666000   0.73769537   -4.6540305   -4.6540305   -3.5474896  0.010426731   -4.6540305    1.1065408      1024000 
  667000    0.7384955   -4.6534336   -4.6534336   -3.5456926  0.011559386   -4.6534336     1.107741      1024000 
  668000   0.73956646   -4.6536106   -4.6536106   -3.5442631 0.0095190025   -4.6536106    1.1093474      1024000 
  669000   0.73984829   -4.6528438   -4.6528438   -3.5430736 0.0086554778   -4.6528438    1.1097702      1024000 
  670000   0.73984426   -4.6520132   -4.6520132   -3.5422491 0.0093021235   -4.6520132    1.1097641      1024000 
  671000   0.73960705   -4.6507375   -4.6507375   -3.5413292  0.014383793   -4.6507375    1.1094083      1024000 
  672000   0.74022388   -4.6516151   -4.6516151   -3.5412816  0.012309494   -4.6516151    1.1103336      1024000 
  673000   0.73980114   -4.6504171   -4.6504171   -3.5407176  0.015477972   -4.6504171    1.1096995      1024000 
  674000   0.74033952   -4.6501286   -4.6501286   -3.5396215  0.013886393   -4.6501286     1.110507      1024000 
  675000   0.73995793   -4.6489525   -4.6489525   -3.5390178  0.015295361   -4.6489525    1.1099346      1024000 
  676000   0.73989338   -4.6477447   -4.6477447   -3.5379069  0.013291836   -4.6477447    1.1098378      1024000 
  677000   0.74050184   -4.6482089   -4.6482089   -3.5374584 0.0077026291   -4.6482089    1.1107505      1024000 
  678000   0.74044652   -4.6475052   -4.6475052   -3.5368377 0.0084288219   -4.6475052    1.1106675      1024000 
  679000   0.73965272   -4.6454507   -4.6454507   -3.5359738 0.0087739659   -4.6454507    1.1094768      1024000 
  680000   0.73954998   -4.6446623   -4.6446623   -3.5353395  0.011188832   -4.6446623    1.1093227      1024000 
  681000   0.74088019    -4.645427    -4.645427    -3.534109 0.0064382022    -4.645427     1.111318      1024000 
  682000   0.74185311   -4.6463112   -4.6463112   -3.5335338 0.0046742981   -4.6463112    1.1127774      1024000 
  683000   0.74136827   -4.6447473   -4.6447473   -3.5326971 0.0044929815   -4.6447473    1.1120502      1024000 
  684000   0.74142149   -4.6444941   -4.6444941   -3.5323641 0.0062304444   -4.6444941      1.11213      1024000 
  685000   0.74073231   -4.6425302   -4.6425302    -3.531434  0.012312061   -4.6425302    1.1110962      1024000 
  686000   0.74066583   -4.6422692   -4.6422692   -3.5312728  0.010382248   -4.6422692    1.1109965      1024000 
  687000   0.74177192   -4.6425282   -4.6425282   -3.5298726 0.0087400638   -4.6425282    1.1126556      1024000 
  688000   0.74107603   -4.6407607   -4.6407607   -3.5291489  0.013665794   -4.6407607    1.1116118      1024000 
  689000   0.74069189    -4.639566    -4.639566   -3.5285304 0.0080962216    -4.639566    1.1110356      1024000 
  690000   0.74221663   -4.6407308   -4.6407308   -3.5274081 0.0083795449   -4.6407308    1.1133227      1024000 
  691000   0.74222856   -4.6406555   -4.6406555   -3.5273149 0.0071953789   -4.6406555    1.1133406      1024000 
  692000   0.74143867   -4.6398999   -4.6398999   -3.5277442 0.0052083334   -4.6398999    1.1121558      1024000 
  693000    0.7408386   -4.6381838   -4.6381838   -3.5269281 0.0038038937   -4.6381838    1.1112556      1024000 
  694000   0.74242149   -4.6399643   -4.6399643   -3.5263344 0.0048351619   -4.6399643      1.11363      1024000 
  695000   0.74296914   -4.6392173   -4.6392173   -3.5247659 0.0025894478   -4.6392173    1.1144514      1024000 
  696000   0.74257751   -4.6371413   -4.6371413   -3.5232773  0.011623407   -4.6371413     1.113864      1024000 
  697000   0.74307729   -4.6367809   -4.6367809   -3.5221672 0.0051616434   -4.6367809    1.1146137      1024000 
  698000   0.74313087   -4.6355979   -4.6355979   -3.5209039  0.011719106   -4.6355979     1.114694      1024000 
  699000   0.74349651   -4.6351092   -4.6351092   -3.5198667  0.015932187   -4.6351092    1.1152425      1024000 
  700000   0.74516232    -4.636405    -4.636405   -3.5186638  0.010336473    -4.636405    1.1177412      1024000 
  701000   0.74468909   -4.6348694   -4.6348694    -3.517838  0.012130685   -4.6348694    1.1170314      1024000 
  702000   0.74485453   -4.6346719   -4.6346719   -3.5173924  0.009695215   -4.6346719    1.1172795      1024000 
  703000   0.74637139   -4.6363435   -4.6363435   -3.5167887 0.0054238405   -4.6363435    1.1195548      1024000 
  704000   0.74495298   -4.6337555   -4.6337555   -3.5163283   0.01337092   -4.6337555    1.1174272      1024000 
  705000   0.74489149   -4.6316449   -4.6316449   -3.5143099  0.011972959   -4.6316449     1.117335      1024000 
  706000   0.74530709   -4.6313734   -4.6313734   -3.5134151  0.014250827   -4.6313734    1.1179584      1024000 
  707000   0.74543155   -4.6307089   -4.6307089   -3.5125639  0.011278792   -4.6307089    1.1181451      1024000 
  708000   0.74519658   -4.6298529   -4.6298529   -3.5120603  0.011422811   -4.6298529    1.1177926      1024000 
  709000   0.74530395   -4.6295943   -4.6295943   -3.5116406  0.006131217   -4.6295943    1.1179537      1024000 
  710000   0.74544501    -4.628488    -4.628488   -3.5103228 0.0069235428    -4.628488    1.1181652      1024000 
  711000   0.74479066   -4.6271077   -4.6271077   -3.5099239 0.0055956875   -4.6271077    1.1171837      1024000 
  712000     0.745245   -4.6279752   -4.6279752     -3.51011 0.0048380333   -4.6279752    1.1178652      1024000 
  713000   0.74517651   -4.6266841   -4.6266841   -3.5089216 0.0037706943   -4.6266841    1.1177625      1024000 
  714000   0.74509697   -4.6261744   -4.6261744   -3.5085312 0.0097990065   -4.6261744    1.1176432      1024000 
  715000   0.74568575   -4.6251813   -4.6251813   -3.5066549 0.0080012389   -4.6251813    1.1185264      1024000 
  716000    0.7460117   -4.6244041   -4.6244041   -3.5053888 0.0073311952   -4.6244041    1.1190153      1024000 
  717000   0.74488778   -4.6227496   -4.6227496   -3.5054202  0.011425087   -4.6227496    1.1173294      1024000 
  718000   0.74510219   -4.6221546   -4.6221546   -3.5045035 0.0074900883   -4.6221546     1.117651      1024000 
  719000   0.74590759   -4.6222455   -4.6222455   -3.5033863  0.011467857   -4.6222455    1.1188591      1024000 
  720000   0.74705954   -4.6232213   -4.6232213   -3.5026343  0.003749398   -4.6232213     1.120587      1024000 
  721000   0.74621198   -4.6221632   -4.6221632   -3.5028475 0.0061272303   -4.6221632    1.1193157      1024000 
  722000   0.74595639   -4.6205425   -4.6205425   -3.5016102  0.010805591   -4.6205425    1.1189323      1024000 
  723000   0.74648656   -4.6203036   -4.6203036    -3.500576 0.0045092788   -4.6203036    1.1197276      1024000 
  724000   0.74623631   -4.6188497   -4.6188497   -3.4994975 0.0095535719   -4.6188497    1.1193522      1024000 
  725000   0.74790088   -4.6199843   -4.6199843   -3.4981353 0.0058758734   -4.6199843     1.121849      1024000 
  726000    0.7472875   -4.6181553   -4.6181553   -3.4972263 0.0072841197   -4.6181553     1.120929      1024000 
  727000    0.7474112   -4.6176802   -4.6176802   -3.4965657  0.010269094   -4.6176802    1.1211145      1024000 
  728000    0.7488915   -4.6193462   -4.6193462   -3.4960112  0.011769466   -4.6193462     1.123335      1024000 
  729000   0.74817136   -4.6181059   -4.6181059   -3.4958512  0.009173197   -4.6181059    1.1222548      1024000 
  730000   0.74769708   -4.6156627   -4.6156627   -3.4941193  0.018034218   -4.6156627    1.1215434      1024000 
  731000   0.74930031   -4.6173599   -4.6173599   -3.4934117  0.011611103   -4.6173599    1.1239482      1024000 
  732000    0.7479597    -4.615535    -4.615535   -3.4935978  0.015245325    -4.615535    1.1219373      1024000 
  733000   0.75004277   -4.6163794   -4.6163794   -3.4913176  0.013397523   -4.6163794    1.1250619      1024000 
  734000    0.7502737   -4.6142538   -4.6142538   -3.4888455  0.016328903   -4.6142538    1.1254083      1024000 
  735000   0.75071515   -4.6146386   -4.6146386   -3.4885682  0.012384938   -4.6146386    1.1260704      1024000 
  736000   0.75047202    -4.613566    -4.613566   -3.4878602  0.010485374    -4.613566    1.1257057      1024000 
  737000   0.74970003   -4.6119604   -4.6119604   -3.4874126  0.014468068   -4.6119604    1.1245478      1024000 
  738000   0.75007535   -4.6122116   -4.6122116   -3.4871008  0.012080967   -4.6122116    1.1251107      1024000 
  739000   0.75038509   -4.6112474   -4.6112474   -3.4856721  0.011167853   -4.6112474    1.1255754      1024000 
  740000   0.75012231   -4.6103905   -4.6103905   -3.4852093 0.0098306876   -4.6103905    1.1251812      1024000 
  741000   0.75129588   -4.6102485   -4.6102485   -3.4833069  0.013512452   -4.6102485    1.1269415      1024000 
  742000   0.75057523   -4.6086507   -4.6086507   -3.4827901  0.010147054   -4.6086507    1.1258606      1024000 
  743000   0.75073478   -4.6083737   -4.6083737   -3.4822738  0.008978609   -4.6083737    1.1260999      1024000 
  744000     0.749404   -4.6066963   -4.6066963   -3.4825926 0.0034411316   -4.6066963    1.1241037      1024000 
  745000   0.74919302   -4.6048614   -4.6048614   -3.4810741  0.008854393   -4.6048614    1.1237872      1024000 
  746000    0.7507088   -4.6061804   -4.6061804   -3.4801195 0.0050724612   -4.6061804    1.1260609      1024000 
  747000   0.75031461   -4.6037935   -4.6037935   -3.4783239 0.0080860258   -4.6037935    1.1254696      1024000 
  748000   0.74990526   -4.6022161   -4.6022161   -3.4773605 0.0059152337   -4.6022161    1.1248556      1024000 
  749000   0.75043243   -4.6025661   -4.6025661   -3.4769197 0.0039315188   -4.6025661    1.1256464      1024000 
  750000   0.75082937   -4.6025903   -4.6025903   -3.4763486 0.0041595637   -4.6025903    1.1262418      1024000 
  751000   0.75098418   -4.6013162   -4.6013162   -3.4748422 0.0018989522   -4.6013162     1.126474      1024000 
  752000   0.75072766   -4.5996321   -4.5996321   -3.4735429 0.0070681961   -4.5996321    1.1260892      1024000 
  753000   0.75078185   -4.5988517   -4.5988517   -3.4726812 0.0088797047   -4.5988517    1.1261705      1024000 
  754000   0.75049633   -4.5979923   -4.5979923   -3.4722501    0.0118056   -4.5979923    1.1257422      1024000 
  755000   0.75178433   -4.5987494   -4.5987494   -3.4710752 0.0065686876   -4.5987494    1.1276742      1024000 
  756000   0.75209752   -4.5978874   -4.5978874   -3.4697434 0.0069095754   -4.5978874     1.128144      1024000 
  757000   0.75193529   -4.5963871   -4.5963871   -3.4684865  0.010988783   -4.5963871    1.1279007      1024000 
  758000   0.75190907   -4.5964489   -4.5964489   -3.4685876 0.0097207323   -4.5964489    1.1278613      1024000 
  759000   0.75306162   -4.5977672   -4.5977672   -3.4681771 0.0050195099   -4.5977672    1.1295901      1024000 
  760000   0.75272087   -4.5964131   -4.5964131   -3.4673341 0.0061204716   -4.5964131     1.129079      1024000 
  761000   0.75233699   -4.5951286   -4.5951286   -3.4666254 0.0074028903   -4.5951286    1.1285032      1024000 
  762000   0.75276983   -4.5948192   -4.5948192   -3.4656668 0.0055195908   -4.5948192    1.1291525      1024000 
  763000   0.75293139    -4.593246    -4.593246   -3.4638512   0.01319138    -4.593246    1.1293948      1024000 
  764000   0.75437633   -4.5945181   -4.5945181   -3.4629559 0.0083544819   -4.5945181    1.1315622      1024000 
  765000   0.75365867   -4.5926231   -4.5926231   -3.4621374  0.012997427   -4.5926231    1.1304857      1024000 
  766000   0.75381806    -4.593088    -4.593088   -3.4623632  0.011959246    -4.593088    1.1307248      1024000 
  767000   0.75512254   -4.5939561   -4.5939561   -3.4612745  0.013207102   -4.5939561    1.1326815      1024000 
  768000   0.75638205   -4.5935163   -4.5935163   -3.4589455   0.01319458   -4.5935163    1.1345708      1024000 
  769000   0.75639078    -4.593464    -4.593464   -3.4588802  0.015038442    -4.593464    1.1345839      1024000 
  770000   0.75502853   -4.5911621   -4.5911621   -3.4586216  0.016092985   -4.5911621    1.1325405      1024000 
  771000   0.75564422   -4.5914633   -4.5914633   -3.4579993   0.01431687   -4.5914633     1.133464      1024000 
  772000    0.7553234    -4.589418    -4.589418   -3.4564352  0.012652141    -4.589418    1.1329828      1024000 
  773000   0.75529672   -4.5897234   -4.5897234   -3.4567806   0.01315591   -4.5897234    1.1329428      1024000 
  774000   0.75504974     -4.58769     -4.58769   -3.4551177  0.013304199     -4.58769    1.1325723      1024000 
  775000   0.75623966   -4.5888885   -4.5888885   -3.4545313 0.0086014124   -4.5888885    1.1343572      1024000 
  776000   0.75556017   -4.5873816   -4.5873816   -3.4540437 0.0064334933   -4.5873816    1.1333379      1024000 
  777000   0.75533003   -4.5857365   -4.5857365   -3.4527437  0.011119364   -4.5857365    1.1329927      1024000 
  778000   0.75475499   -4.5847057   -4.5847057   -3.4525755  0.012131585   -4.5847057    1.1321302      1024000 
  779000   0.75601452   -4.5855353   -4.5855353   -3.4515158 0.0055250666   -4.5855353    1.1340195      1024000 
  780000   0.75584595    -4.584329    -4.584329   -3.4505624  0.010566172    -4.584329    1.1337666      1024000 
  781000    0.7567896   -4.5842185   -4.5842185   -3.4490364  0.010452383   -4.5842185    1.1351821      1024000 
  782000    0.7560342   -4.5816209   -4.5816209   -3.4475719  0.013151468   -4.5816209     1.134049      1024000 
  783000   0.75489327   -4.5788318   -4.5788318   -3.4464942  0.017796424   -4.5788318    1.1323376      1024000 
  784000   0.75668107   -4.5803001   -4.5803001   -3.4452808  0.014436523   -4.5803001    1.1350193      1024000 
  785000   0.75723642   -4.5802155   -4.5802155   -3.4443632   0.01108909   -4.5802155    1.1358523      1024000 
  786000   0.75686838   -4.5791387   -4.5791387   -3.4438384 0.0082645862   -4.5791387    1.1353003      1024000 
  787000   0.75745986   -4.5790698   -4.5790698   -3.4428823 0.0031198938   -4.5790698    1.1361875      1024000 
  788000   0.75686999   -4.5770583   -4.5770583   -3.4417557 0.0041458819   -4.5770583    1.1353027      1024000 
  789000   0.75615171   -4.5755438   -4.5755438   -3.4413185 0.0079127629   -4.5755438    1.1342253      1024000 
  790000   0.75763988    -4.576629    -4.576629   -3.4401715 0.0049683453    -4.576629    1.1364575      1024000 
  791000   0.75651885   -4.5738249   -4.5738249   -3.4390489 0.0093592436   -4.5738249     1.134776      1024000 
  792000   0.75704316    -4.573706    -4.573706   -3.4381436  0.008225782    -4.573706    1.1355624      1024000 
  793000   0.75710774   -4.5732036   -4.5732036   -3.4375443 0.0091287881   -4.5732036    1.1356593      1024000 
  794000   0.75758476   -4.5718525   -4.5718525   -3.4354777  0.011488305   -4.5718525    1.1363748      1024000 
  795000    0.7578246    -4.571074    -4.571074   -3.4343394  0.013131812    -4.571074    1.1367346      1024000 
  796000   0.75897799   -4.5717886   -4.5717886    -3.433324 0.0070460043   -4.5717886    1.1384647      1024000 
  797000   0.76031769   -4.5727247   -4.5727247   -3.4322505 0.0061352159   -4.5727247    1.1404742      1024000 
  798000   0.75995361   -4.5715754   -4.5715754   -3.4316473 0.0080756856   -4.5715754    1.1399281      1024000 
  799000   0.76025433   -4.5704364   -4.5704364   -3.4300573  0.010101969   -4.5704364    1.1403792      1024000 
  800000   0.75998664   -4.5698703   -4.5698703   -3.4298926 0.0044371545   -4.5698703    1.1399776      1024000 
  801000   0.75970637   -4.5688531   -4.5688531   -3.4292958 0.0086120674   -4.5688531    1.1395572      1024000 
  802000   0.75936163   -4.5679243   -4.5679243   -3.4288842  0.010297428   -4.5679243    1.1390401      1024000 
  803000   0.76056944   -4.5693169   -4.5693169    -3.428465 0.0049306044   -4.5693169    1.1408518      1024000 
  804000   0.76038564   -4.5678221   -4.5678221   -3.4272459 0.0086344121   -4.5678221    1.1405761      1024000 
  805000   0.76003853   -4.5658721   -4.5658721   -3.4258166  0.011740992   -4.5658721    1.1400555      1024000 
  806000   0.75955101   -4.5646042   -4.5646042     -3.42528  0.011016863   -4.5646042    1.1393242      1024000 
  807000   0.76070958   -4.5648475   -4.5648475   -3.4237855 0.0036321537   -4.5648475     1.141062      1024000 
  808000   0.76049418   -4.5632659   -4.5632659   -3.4225269   0.01090008   -4.5632659     1.140739      1024000 
  809000   0.76054627   -4.5629218   -4.5629218   -3.4221047 0.0094443214   -4.5629218    1.1408171      1024000 
  810000   0.76017177   -4.5603252   -4.5603252   -3.4200698  0.014243667   -4.5603252    1.1402553      1024000 
  811000   0.76185087   -4.5629147   -4.5629147   -3.4201407 0.0070128946   -4.5629147     1.142774      1024000 
  812000   0.76091666   -4.5604338   -4.5604338   -3.4190611  0.011301975   -4.5604338    1.1413727      1024000 
  813000   0.76310722   -4.5627411   -4.5627411   -3.4180826 0.0088271747   -4.5627411    1.1446585      1024000 
  814000   0.76109922    -4.559438    -4.559438   -3.4177915  0.012147079    -4.559438    1.1416465      1024000 
  815000   0.76126045   -4.5588127   -4.5588127   -3.4169244  0.015320815   -4.5588127    1.1418884      1024000 
  816000   0.76245252   -4.5591061   -4.5591061   -3.4154296 0.0095933693   -4.5591061    1.1436765      1024000 
  817000   0.76196704    -4.556872    -4.556872   -3.4139238 0.0088339496    -4.556872    1.1429482      1024000 
  818000   0.76217197    -4.556363    -4.556363   -3.4131074 0.0085290751    -4.556363    1.1432556      1024000 
  819000   0.76241464   -4.5565046   -4.5565046   -3.4128849 0.0092908534   -4.5565046    1.1436196      1024000 
  820000   0.76271373   -4.5561835   -4.5561835   -3.4121152 0.0059669514   -4.5561835    1.1440683      1024000 
  821000   0.76271678   -4.5545846   -4.5545846   -3.4105117 0.0084588709   -4.5545846    1.1440728      1024000 
  822000   0.76414994   -4.5547367   -4.5547367   -3.4085141 0.0084488432   -4.5547367    1.1462226      1024000 
  823000   0.76378192   -4.5538009   -4.5538009   -3.4081303 0.0092104539   -4.5538009    1.1456706      1024000 
  824000   0.76402875   -4.5532045   -4.5532045   -3.4071637  0.013898167   -4.5532045    1.1460408      1024000 
  825000    0.7634345    -4.551547    -4.551547   -3.4063975   0.01105843    -4.551547    1.1451494      1024000 
  826000   0.76368757   -4.5503602   -4.5503602   -3.4048312  0.014702023   -4.5503602     1.145529      1024000 
  827000   0.76613462   -4.5525706   -4.5525706    -3.403371  0.010408047   -4.5525706    1.1491996      1024000 
  828000   0.76589076   -4.5504163   -4.5504163   -3.4015825  0.015339425   -4.5504163    1.1488338      1024000 
  829000    0.7651735   -4.5488053   -4.5488053   -3.4010474  0.013524369   -4.5488053    1.1477579      1024000 
  830000   0.76624538   -4.5500732   -4.5500732   -3.4007074 0.0054859726   -4.5500732    1.1493657      1024000 
  831000   0.76449432   -4.5470503   -4.5470503   -3.4003112 0.0069052362   -4.5470503    1.1467392      1024000 
  832000   0.76444483   -4.5467863   -4.5467863   -3.4001214 0.0046453415   -4.5467863    1.1466649      1024000 
  833000    0.7642002   -4.5448657   -4.5448657   -3.3985677  0.011221517   -4.5448657     1.146298      1024000 
  834000   0.76436345   -4.5441685   -4.5441685   -3.3976256 0.0083920592   -4.5441685    1.1465428      1024000 
  835000   0.76569085   -4.5449011   -4.5449011   -3.3963672 0.0063951122   -4.5449011    1.1485339      1024000 
  836000   0.76456259   -4.5438565   -4.5438565    -3.397015  0.005261379   -4.5438565    1.1468416      1024000 
  837000   0.76497268   -4.5428712   -4.5428712   -3.3954145 0.0068645076   -4.5428712    1.1474567      1024000 
  838000   0.76465398   -4.5411158   -4.5411158   -3.3941371 0.0039640833   -4.5411158    1.1469786      1024000 
  839000   0.76399335   -4.5396518   -4.5396518   -3.3936641 0.0099727209   -4.5396518    1.1459877      1024000 
  840000   0.76606293   -4.5405326   -4.5405326   -3.3914405 0.0064872659   -4.5405326    1.1490921      1024000 
  841000   0.76608047   -4.5396533   -4.5396533   -3.3905349  0.010967198   -4.5396533    1.1491184      1024000 
  842000   0.76664201   -4.5395127   -4.5395127   -3.3895521 0.0078942113   -4.5395127    1.1499607      1024000 
  843000   0.76810034   -4.5407703   -4.5407703   -3.3886221 0.0032170773   -4.5407703    1.1521482      1024000 
  844000   0.76634533   -4.5364469   -4.5364469   -3.3869313  0.010466825   -4.5364469    1.1495157      1024000 
  845000   0.76667413   -4.5365974   -4.5365974   -3.3865885 0.0086315379   -4.5365974    1.1500089      1024000 
  846000   0.76841084   -4.5377579   -4.5377579   -3.3851439 0.0051377141   -4.5377579    1.1526139      1024000 
  847000   0.76721425   -4.5347114   -4.5347114   -3.3838924  0.011993199   -4.5347114     1.150819      1024000 
  848000   0.76703805   -4.5333681   -4.5333681   -3.3828134 0.0099963285   -4.5333681    1.1505547      1024000 
  849000   0.76769719   -4.5330332   -4.5330332   -3.3814898 0.0076572954   -4.5330332    1.1515435      1024000 
  850000   0.76876041   -4.5326348   -4.5326348   -3.3794965 0.0081311328   -4.5326348    1.1531383      1024000 
  851000   0.76829621   -4.5316988   -4.5316988   -3.3792569 0.0090811784   -4.5316988     1.152442      1024000 
  852000    0.7676972   -4.5308878   -4.5308878   -3.3793444  0.011279791   -4.5308878    1.1515435      1024000 
  853000   0.76842198   -4.5305381   -4.5305381   -3.3779075 0.0092831618   -4.5305381    1.1526306      1024000 
  854000    0.7682773    -4.529261    -4.529261   -3.3768474  0.010174917    -4.529261    1.1524136      1024000 
  855000    0.7695262   -4.5289899   -4.5289899    -3.374703  0.012203123   -4.5289899     1.154287      1024000 
  856000   0.76926246   -4.5279046   -4.5279046   -3.3740132  0.011674468   -4.5279046    1.1538913      1024000 
  857000   0.76990078   -4.5281489   -4.5281489   -3.3733001  0.011707386   -4.5281489    1.1548488      1024000 
  858000   0.76988655   -4.5272302   -4.5272302   -3.3724027  0.015649777   -4.5272302    1.1548275      1024000 
  859000   0.77123753   -4.5286166   -4.5286166   -3.3717627 0.0076310271   -4.5286166    1.1568539      1024000 
  860000   0.76999339    -4.525499    -4.525499   -3.3705112  0.012414098    -4.525499    1.1549877      1024000 
  861000    0.7699327    -4.524256    -4.524256   -3.3693593  0.012154119    -4.524256    1.1548967      1024000 
  862000    0.7704069   -4.5242086   -4.5242086   -3.3686006 0.0055473235   -4.5242086     1.155608      1024000 
  863000   0.77097777   -4.5235586   -4.5235586   -3.3670943 0.0079770521   -4.5235586    1.1564643      1024000 
  864000   0.77121285    -4.523451    -4.523451   -3.3666341  0.010035792    -4.523451    1.1568169      1024000 
  865000   0.76990312   -4.5209235   -4.5209235   -3.3660712  0.013254692   -4.5209235    1.1548523      1024000 
  866000   0.77121009   -4.5218646   -4.5218646   -3.3650518 0.0047965449   -4.5218646    1.1568128      1024000 
  867000   0.77007919   -4.5189417   -4.5189417   -3.3638252  0.012151801   -4.5189417    1.1551164      1024000 
  868000   0.77097815   -4.5199402   -4.5199402   -3.3634753 0.0090789177   -4.5199402    1.1564649      1024000 
  869000   0.77087326   -4.5181516   -4.5181516   -3.3618441 0.0053499474   -4.5181516    1.1563075      1024000 
  870000   0.77042905   -4.5166495   -4.5166495   -3.3610082 0.0053472523   -4.5166495    1.1556412      1024000 
  871000   0.77183049   -4.5174573   -4.5174573   -3.3597139 0.0043665277   -4.5174573    1.1577434      1024000 
  872000   0.77112994   -4.5153714   -4.5153714   -3.3586788 0.0070208875   -4.5153714    1.1566926      1024000 
  873000   0.77133083   -4.5149543   -4.5149543   -3.3579604 0.0081141242   -4.5149543    1.1569939      1024000 
  874000   0.77135906   -4.5138865   -4.5138865   -3.3568503 0.0028675858   -4.5138865    1.1570362      1024000 
  875000   0.77246287     -4.51338     -4.51338    -3.354688 0.0063047346     -4.51338     1.158692      1024000 
  876000   0.77276094   -4.5132455   -4.5132455   -3.3541064 0.0081462685   -4.5132455    1.1591391      1024000 
  877000   0.77318068   -4.5119816   -4.5119816   -3.3522129  0.012636987   -4.5119816    1.1597687      1024000 
  878000   0.77284443   -4.5110484   -4.5110484   -3.3517841  0.010902149   -4.5110484    1.1592643      1024000 
  879000   0.77394096   -4.5115149   -4.5115149   -3.3506058   0.01237725   -4.5115149    1.1609091      1024000 
  880000    0.7739308   -4.5103692   -4.5103692   -3.3494753  0.011843951   -4.5103692    1.1608938      1024000 
  881000   0.77505934   -4.5114463   -4.5114463   -3.3488596  0.011937583   -4.5114463    1.1625867      1024000 
  882000   0.77368513    -4.508378    -4.508378   -3.3478527  0.011376951    -4.508378    1.1605253      1024000 
  883000   0.77380534   -4.5072872   -4.5072872   -3.3465816  0.012529326   -4.5072872    1.1607057      1024000 
  884000   0.77455532   -4.5065658   -4.5065658   -3.3447352  0.013003058   -4.5065658    1.1618306      1024000 
  885000   0.77488456   -4.5062163   -4.5062163   -3.3438918 0.0069039958   -4.5062163    1.1623245      1024000 
  886000   0.77405842   -4.5041947   -4.5041947   -3.3431094 0.0081276241   -4.5041947    1.1610853      1024000 
  887000   0.77416361   -4.5033281   -4.5033281    -3.342085 0.0072309231   -4.5033281    1.1612431      1024000 
  888000   0.77519946   -4.5039416   -4.5039416   -3.3411448 0.0056294224   -4.5039416    1.1627968      1024000 
  889000   0.77374072   -4.5011591   -4.5011591   -3.3405503  0.011569635   -4.5011591    1.1606087      1024000 
  890000   0.77517027   -4.5023531   -4.5023531   -3.3396001 0.0065843246   -4.5023531     1.162753      1024000 
  891000   0.77542432   -4.5012204   -4.5012204   -3.3380863 0.0047187939   -4.5012204    1.1631341      1024000 
  892000   0.77462307   -4.4993521   -4.4993521   -3.3374198 0.0094203587   -4.4993521    1.1619322      1024000 
  893000    0.7767898   -4.5015147   -4.5015147   -3.3363324 0.0069761333   -4.5015147    1.1651823      1024000 
  894000   0.77616853   -4.4984917   -4.4984917   -3.3342413  0.013032904   -4.4984917    1.1642504      1024000 
  895000   0.77605816   -4.4971907   -4.4971907   -3.3331059  0.013658325   -4.4971907    1.1640849      1024000 
  896000   0.77712293   -4.4968506   -4.4968506   -3.3311685   0.01262294   -4.4968506     1.165682      1024000 
  897000   0.77745562   -4.4965405   -4.4965405   -3.3303595  0.015002523   -4.4965405    1.1661811      1024000 
  898000   0.77740709   -4.4962737   -4.4962737   -3.3301654  0.011379845   -4.4962737    1.1661083      1024000 
  899000   0.77801206   -4.4957919   -4.4957919   -3.3287761 0.0079030348   -4.4957919    1.1670157      1024000 
  900000   0.77821019   -4.4945857   -4.4945857   -3.3272728 0.0075354584   -4.4945857    1.1673129      1024000 
  901000   0.77740285   -4.4924642   -4.4924642   -3.3263623 0.0087624311   -4.4924642    1.1661019      1024000 
  902000    0.7776946   -4.4931308   -4.4931308   -3.3265913 0.0081721851   -4.4931308    1.1665395      1024000 
  903000   0.77733831   -4.4912038   -4.4912038   -3.3251987 0.0089427811   -4.4912038    1.1660051      1024000 
  904000   0.77781121   -4.4913505   -4.4913505   -3.3246361 0.00049791156   -4.4913505    1.1667144      1024000 
  905000   0.77788976   -4.4896621   -4.4896621   -3.3228299 0.0049622613   -4.4896621    1.1668323      1024000 
  906000    0.7770879    -4.487045    -4.487045   -3.3214156  0.007063228    -4.487045    1.1656295      1024000 
  907000   0.77764807   -4.4868724   -4.4868724   -3.3204026 0.0053884209   -4.4868724    1.1664697      1024000 
  908000   0.77904119    -4.487725    -4.487725   -3.3191656 0.0080084727    -4.487725    1.1685594      1024000 
  909000   0.77922589   -4.4857654   -4.4857654   -3.3169289  0.013815608   -4.4857654    1.1688365      1024000 
  910000   0.77986143   -4.4857987   -4.4857987   -3.3160089  0.013958044   -4.4857987    1.1697898      1024000 
  911000   0.78001586   -4.4846188   -4.4846188   -3.3145974  0.012208266   -4.4846188    1.1700214      1024000 
  912000   0.77911378   -4.4825329   -4.4825329   -3.3138646  0.014192535   -4.4825329    1.1686683      1024000 
  913000   0.77941491   -4.4825934   -4.4825934   -3.3134734  0.012306764   -4.4825934      1.16912      1024000 
  914000   0.78038734   -4.4828383   -4.4828383   -3.3122596 0.0060043846   -4.4828383    1.1705786      1024000 
  915000   0.78063715   -4.4823821   -4.4823821   -3.3114287 0.0081900225   -4.4823821    1.1709533      1024000 
  916000   0.77980023   -4.4800706   -4.4800706   -3.3103726 0.0074465028   -4.4800706     1.169698      1024000 
  917000   0.77917559   -4.4775676   -4.4775676   -3.3088066 0.0095287502   -4.4775676     1.168761      1024000 
  918000   0.77964977   -4.4783876   -4.4783876   -3.3089153 0.0046988991   -4.4783876    1.1694723      1024000 
  919000   0.78010771   -4.4781841   -4.4781841   -3.3080249  0.005259719   -4.4781841    1.1701592      1024000 
  920000   0.77923445   -4.4754734   -4.4754734   -3.3066241 0.0070906809   -4.4754734    1.1688493      1024000 
  921000   0.77936511   -4.4742447   -4.4742447   -3.3051994  0.011995817   -4.4742447    1.1690453      1024000 
  922000     0.780176   -4.4737334   -4.4737334   -3.3034717  0.011557857   -4.4737334    1.1702616      1024000 
  923000   0.78051824   -4.4741105   -4.4741105   -3.3033355 0.0057876113   -4.4741105     1.170775      1024000 
  924000   0.78143478   -4.4749225   -4.4749225   -3.3027727 0.0073102237   -4.4749225    1.1721498      1024000 
  925000    0.7800855   -4.4718597   -4.4718597   -3.3017338  0.010516711   -4.4718597    1.1701259      1024000 
  926000   0.78042429   -4.4714197   -4.4714197   -3.3007856 0.0051993534   -4.4714197    1.1706341      1024000 
  927000    0.7811486   -4.4708831   -4.4708831   -3.2991626 0.0068715818   -4.4708831    1.1717205      1024000 
  928000   0.78055272   -4.4680972   -4.4680972   -3.2972705  0.010880357   -4.4680972    1.1708267      1024000 
  929000   0.78172774   -4.4700422   -4.4700422   -3.2974529 0.0087729314   -4.4700422    1.1725892      1024000 
  930000   0.78273499   -4.4693243   -4.4693243   -3.2952242 0.0089188633   -4.4693243    1.1741001      1024000 
  931000   0.78308271   -4.4683143   -4.4683143   -3.2936926  0.012395093   -4.4683143    1.1746217      1024000 
  932000   0.78341343   -4.4686271   -4.4686271   -3.2935094  0.011751519   -4.4686271    1.1751178      1024000 
  933000   0.78340987   -4.4669873   -4.4669873   -3.2918749  0.012613288   -4.4669873    1.1751124      1024000 
  934000   0.78441446   -4.4674951   -4.4674951   -3.2908758  0.013537387   -4.4674951    1.1766193      1024000 
  935000   0.78368683    -4.465312    -4.465312   -3.2897842  0.016057091    -4.465312    1.1755279      1024000 
  936000   0.78480217   -4.4650355   -4.4650355   -3.2878347  0.016531486   -4.4650355    1.1772009      1024000 
  937000   0.78459703   -4.4634473   -4.4634473   -3.2865542  0.016154586   -4.4634473    1.1768932      1024000 
  938000   0.78520839   -4.4638802   -4.4638802     -3.28607  0.014202055   -4.4638802    1.1778102      1024000 
  939000   0.78468105   -4.4636246   -4.4636246   -3.2866054  0.011871739   -4.4636246    1.1770192      1024000 
  940000    0.7836446   -4.4608769   -4.4608769   -3.2854124  0.013414133   -4.4608769    1.1754645      1024000 
  941000   0.78545693   -4.4624428   -4.4624428   -3.2842598 0.0089681277   -4.4624428     1.178183      1024000 
  942000   0.78505621   -4.4609668   -4.4609668   -3.2833848   0.01116345   -4.4609668    1.1775819      1024000 
  943000   0.78437676   -4.4592183   -4.4592183   -3.2826556 0.0076074791   -4.4592183    1.1765628      1024000 
  944000   0.78385853   -4.4577368   -4.4577368   -3.2819514  0.010460069   -4.4577368    1.1757854      1024000 
  945000   0.78483154   -4.4577648   -4.4577648   -3.2805199 0.0047468381   -4.4577648    1.1772449      1024000 
  946000   0.78439571   -4.4566876   -4.4566876   -3.2800964 0.0057532782   -4.4566876    1.1765912      1024000 
  947000   0.78476453   -4.4559612   -4.4559612   -3.2788168 0.0077968787   -4.4559612    1.1771444      1024000 
  948000   0.78504747   -4.4557044   -4.4557044   -3.2781356 0.0070183988   -4.4557044    1.1775688      1024000 
  949000   0.78468942   -4.4549005   -4.4549005   -3.2778687 0.0053971244   -4.4549005    1.1770317      1024000 
  950000   0.78443296    -4.452694    -4.452694   -3.2760469 0.0070446287    -4.452694    1.1766471      1024000 
  951000   0.78520969   -4.4522145   -4.4522145   -3.2744024 0.0075491026   -4.4522145    1.1778121      1024000 
  952000   0.78606627   -4.4513377   -4.4513377   -3.2722407  0.010737804   -4.4513377     1.179097      1024000 
  953000   0.78729655   -4.4523308   -4.4523308   -3.2713883 0.0072628497   -4.4523308    1.1809424      1024000 
  954000   0.78587343   -4.4494879   -4.4494879   -3.2706801  0.011125897   -4.4494879    1.1788078      1024000 
  955000   0.78729003   -4.4510014   -4.4510014   -3.2700688 0.0080528055   -4.4510014    1.1809327      1024000 
  956000   0.78713241    -4.448624    -4.448624   -3.2679278  0.008804001    -4.448624    1.1806962      1024000 
  957000   0.78676858   -4.4472958   -4.4472958   -3.2671453  0.011122092   -4.4472958    1.1801505      1024000 
  958000   0.78676326   -4.4455313   -4.4455313   -3.2653888  0.010425103   -4.4455313    1.1801425      1024000 
  959000   0.78791158   -4.4459643   -4.4459643   -3.2640993  0.012166217   -4.4459643     1.181865      1024000 
  960000    0.7873761   -4.4440519   -4.4440519   -3.2629902   0.01015291   -4.4440519    1.1810618      1024000 
  961000   0.78768084   -4.4436404   -4.4436404   -3.2621215 0.0077761288   -4.4436404    1.1815189      1024000 
  962000   0.78743819   -4.4425496   -4.4425496   -3.2613947  0.013624722   -4.4425496    1.1811549      1024000 
  963000   0.78864027   -4.4420673   -4.4420673   -3.2591093  0.010625655   -4.4420673     1.182958      1024000 
  964000   0.78948868   -4.4428033   -4.4428033   -3.2585727 0.0098933971   -4.4428033    1.1842306      1024000 
  965000   0.78848711   -4.4403195   -4.4403195   -3.2575912   0.01485654   -4.4403195    1.1827283      1024000 
  966000   0.78828888   -4.4394615   -4.4394615   -3.2570306  0.012907594   -4.4394615    1.1824309      1024000 
  967000   0.78813557    -4.437882    -4.437882    -3.255681  0.011172017    -4.437882     1.182201      1024000 
  968000   0.78867694   -4.4380135   -4.4380135   -3.2550004  0.012819534   -4.4380135     1.183013      1024000 
  969000   0.78982265   -4.4364013   -4.4364013   -3.2516697  0.014326486   -4.4364013    1.1847316      1024000 
  970000   0.78964039    -4.434891    -4.434891   -3.2504328  0.012308282    -4.434891    1.1844582      1024000 
  971000   0.79128873   -4.4352235   -4.4352235   -3.2482929  0.008895547   -4.4352235    1.1869307      1024000 
  972000   0.79126542   -4.4347951   -4.4347951   -3.2478994 0.0097726489   -4.4347951    1.1868957      1024000 
  973000   0.79113102   -4.4338056   -4.4338056   -3.2471115  0.002352327   -4.4338056    1.1866941      1024000 
  974000   0.79051481   -4.4318364   -4.4318364   -3.2460666 0.0092656808   -4.4318364    1.1857698      1024000 
  975000   0.78970213   -4.4300047   -4.4300047   -3.2454539  0.013105775   -4.4300047    1.1845508      1024000 
  976000    0.7897916   -4.4292686   -4.4292686   -3.2445836 0.0098964612   -4.4292686     1.184685      1024000 
  977000   0.79166595   -4.4307338   -4.4307338   -3.2432373 0.0068946376   -4.4307338    1.1874965      1024000 
  978000   0.79133385   -4.4281623   -4.4281623   -3.2411639  0.011827198   -4.4281623    1.1869984      1024000 
  979000   0.79108176   -4.4268651   -4.4268651   -3.2402449  0.014901183   -4.4268651    1.1866202      1024000 
  980000   0.79204384    -4.427329    -4.427329   -3.2392657  0.010891564    -4.427329    1.1880633      1024000 
  981000     0.792553   -4.4264965   -4.4264965   -3.2376694 0.0084212985   -4.4264965    1.1888271      1024000 
  982000   0.79152889   -4.4244293   -4.4244293   -3.2371384  0.011268842   -4.4244293    1.1872909      1024000 
  983000   0.79171345   -4.4242282   -4.4242282   -3.2366604 0.0065890446   -4.4242282    1.1875678      1024000 
  984000   0.79106244   -4.4224829   -4.4224829   -3.2358917 0.0095010486   -4.4224829    1.1865913      1024000 
  985000   0.79167174   -4.4218189   -4.4218189   -3.2343137 0.0063039919   -4.4218189    1.1875052      1024000 
  986000   0.79168096   -4.4206731   -4.4206731    -3.233154  0.010519884   -4.4206731     1.187519      1024000 
  987000   0.79245515   -4.4202502   -4.4202502   -3.2315699 0.0093620699   -4.4202502    1.1886803      1024000 
  988000   0.79259601   -4.4197698   -4.4197698   -3.2308782  0.010214778   -4.4197698    1.1888916      1024000 
  989000    0.7939597    -4.419959    -4.419959   -3.2290218 0.0073196791    -4.419959    1.1909371      1024000 
  990000   0.79190714   -4.4157585   -4.4157585   -3.2279002  0.011192346   -4.4157585    1.1878583      1024000 
  991000   0.79234527   -4.4160142   -4.4160142   -3.2274988  0.010092344   -4.4160142    1.1885155      1024000 
  992000   0.79318918   -4.4166609   -4.4166609   -3.2268795 0.0074623808   -4.4166609    1.1897814      1024000 
  993000   0.79400114   -4.4155952   -4.4155952   -3.2245959  0.013369714   -4.4155952    1.1909993      1024000 
  994000   0.79388036    -4.414212    -4.414212   -3.2233938  0.011577083    -4.414212    1.1908181      1024000 
  995000   0.79453539   -4.4141441   -4.4141441   -3.2223434  0.011575791   -4.4141441    1.1918007      1024000 
  996000   0.79499776   -4.4135821   -4.4135821   -3.2210879  0.012625524   -4.4135821    1.1924942      1024000 
  997000   0.79535822   -4.4127439   -4.4127439    -3.219709    0.0138853   -4.4127439    1.1930349      1024000 
  998000   0.79555641   -4.4127205   -4.4127205   -3.2193883   0.00681614   -4.4127205    1.1933322      1024000 
  999000   0.79458795   -4.4103969   -4.4103969   -3.2185174  0.012981064   -4.4103969    1.1918795      1024000 
 1000000   0.79448471   -4.4095552   -4.4095552   -3.2178306  0.010879552   -4.4095552    1.1917247      1024000 
Loop time of 15795.9 on 32 procs for 1000000 steps with 492800 atoms

Performance: 13674.392 tau/day, 63.307 timesteps/s
98.5% CPU use with 32 MPI tasks x 1 OpenMP threads

MPI task timing breakdown:
Section |  min time  |  avg time  |  max time  |%varavg|  %CPU | %total
-----------------------------------------------------------------------
Pair    | 6572.7     | 8930.3     | 9572.5     | 770.9 |  98.9 | 56.54
Bond    | 0.84292    | 1.3504     | 2.5156     |  58.0 | 100.0 |  0.01
Neigh   | 1366.5     | 1853.9     | 2000.7     | 379.0 |  99.8 | 11.74
Comm    | 2779.6     | 3780.2     | 6653.3     |1501.2 |  96.8 | 23.93
Output  | 40.93      | 41.157     | 41.174     |   0.6 |  97.5 |  0.26
Modify  | 221.26     | 536.41     | 1355       |1505.8 |  97.9 |  3.40
Other   |            | 652.6      |            |       |       |  4.13

Nlocal:        15400.0 ave       16086 max       14810 min
Histogram: 1 1 0 1 24 3 1 0 0 1
Nghost:        12609.6 ave       14164 max        8838 min
Histogram: 4 4 0 0 0 0 0 0 8 16
Neighs:       550919.0 ave      588047 max      474284 min
Histogram: 2 0 3 2 1 4 1 3 5 11

Total # of neighbors = 17629419
Ave neighs/atom = 35.773983
Ave special neighs/atom = 0.0000000
Neighbor list builds = 58517
Dangerous builds = 89
Total wall time: 4:23:16
