LAMMPS (24 Dec 2020)
OMP_NUM_THREADS environment is not set. Defaulting to 1 thread. (src/comm.cpp:94)
  using 1 OpenMP thread(s) per MPI task
# Simple rigid body system
# needed variables: startTemp, temp

units		lj
atom_style	full
dimension 	3
boundary	p p f
pair_style	lj/cut/opt 2.5

variable 	gcmcdisplace	equal 0
variable 	sigma		equal 1.0
variable 	epsilon 	equal 1.0


read_restart	restart.dat.3000000
Reading restart file ...
  restart file = 24 Dec 2020, LAMMPS = 24 Dec 2020
WARNING: Restart file used different # of processors: 144 vs. 192 (src/read_restart.cpp:697)
  restoring atom style full from restart
  orthogonal box = (0.0000000 0.0000000 0.0000000) to (100.00000 100.00000 200.00000)
  4 by 4 by 12 MPI processor grid
  restoring pair style lj/cut/opt from restart
  878832 atoms
Finding 1-2 1-3 1-4 neighbors ...
  special bond factors lj:    0        0        0       
  special bond factors coul:  0        0        0       
     0 = max # of 1-2 neighbors
     0 = max # of 1-3 neighbors
     0 = max # of 1-4 neighbors
     1 = max # of special neighbors
  special bonds CPU = 1.408 seconds
  read_restart CPU = 1.883 seconds

mass		1 1.0
mass		2 1.0
mass		3 1.0


group		solvent type 1
878832 atoms in group solvent


neighbor 	0.4 bin

pair_coeff	1 1 1.0 1.0
pair_coeff	2 2 0.0 0.0
pair_coeff	3 3 0.0 0.0
pair_coeff	2 3 0.0 0.0
pair_coeff	1 2*3 0.0 0.0

pair_modify 	shift yes


balance 	1.05 shift z 10 1.05
Balancing ...
Neighbor list info ...
  update every 1 steps, delay 10 steps, check yes
  max neighbors/atom: 2000, page size: 100000
  master list distance cutoff = 2.9
  ghost atom cutoff = 2.9
  binsize = 1.45, bins = 69 69 138
  1 neighbor lists, perpetual/occasional/extra = 1 0 0
  (1) pair lj/cut/opt, perpetual
      attributes: half, newton on
      pair build: half/bin/newton
      stencil: half/bin/3d/newton
      bin: standard
 rebalancing time: 0.031 seconds
  iteration count = 4
  initial/final maximal load/proc = 6332.0000 5548.0000
  initial/final imbalance factor  = 1.3833634 1.2120815
  x cuts: 0.0000000 0.25000000 0.50000000 0.75000000 1.0000000
  y cuts: 0.0000000 0.25000000 0.50000000 0.75000000 1.0000000
  z cuts: 0.0000000 0.067708333 0.13020833 0.19270833 0.25520833 0.32291667 0.38541667 0.44791667 0.51041667 0.57812500 0.63020833 0.68229167 1.0000000


####################### WALLS ###########################


variable       epsilonWall equal 2*${epsilon}
variable       epsilonWall equal 2*1

variable       cutoffTop   equal   0.7147*${sigma}
variable       cutoffTop   equal   0.7147*1

variable       cutoffLow   equal   3*${sigma}
variable       cutoffLow   equal   3*1


fix            topWall all wall/lj93 zhi EDGE                ${epsilonWall} ${sigma} ${cutoffTop} units box
fix            topWall all wall/lj93 zhi EDGE                2 ${sigma} ${cutoffTop} units box
fix            topWall all wall/lj93 zhi EDGE                2 1 ${cutoffTop} units box
fix            topWall all wall/lj93 zhi EDGE                2 1 0.7147 units box

fix            lowWall all wall/lj93 zlo EDGE                ${epsilonWall} ${sigma} ${cutoffLow} units box
fix            lowWall all wall/lj93 zlo EDGE                2 ${sigma} ${cutoffLow} units box
fix            lowWall all wall/lj93 zlo EDGE                2 1 ${cutoffLow} units box
fix            lowWall all wall/lj93 zlo EDGE                2 1 3 units box


###################### COMPUTES ##########################

compute        bin1 solvent chunk/atom bin/1d z upper 1.0



######################	FIXES ############################


fix 		peclet solvent ave/chunk 1000 1 1000 bin1 density/number norm 		 none ave one file density.profile

fix 		 temp solvent ave/chunk 1000 1 1000 bin1 temp norm none ave one file temp.profile

fix 		2 solvent nve

## Thermostat


region		regthermo block EDGE EDGE EDGE EDGE 0 20

group 		thermo dynamic solvent region regthermo every 1000
dynamic group thermo defined

fix 		3 thermo langevin ${startTemp} ${temp} 10 156453
fix 		3 thermo langevin 1.0 ${temp} 10 156453
fix 		3 thermo langevin 1.0 1.0 10 156453


## Evaporation

region		regevap block EDGE EDGE EDGE EDGE 180 198
fix 		gcmc solvent gcmc 100 100 0 1 780493 ${temp} ${mu} ${gcmcdisplace} region regevap
fix 		gcmc solvent gcmc 100 100 0 1 780493 1.0 ${mu} ${gcmcdisplace} region regevap
fix 		gcmc solvent gcmc 100 100 0 1 780493 1.0 -.25 ${gcmcdisplace} region regevap
fix 		gcmc solvent gcmc 100 100 0 1 780493 1.0 -.25 0 region regevap


#### Load balancing

fix 		bal all balance 1000 1.05 shift z 10 1.05

############### Diagnostics and computes ###################
#compute 	com cube	  rigid/local	1 mol x y z
#compute 	quat cube	  rigid/local	1 mol quatw quati quatj quatk

thermo 		1000
thermo_style 	custom step temp epair etotal press pe ke atoms

dump		1 all custom 100000 dump.lammpstrj id mol type x y z
dump 		2 all image 10000 image.*.png type type
dump 		3 all movie 1000 movie.avi type type
#dump 		com cube local 1000 dump.*.xyz c_com[*]
#dump		quat cube      local 1000 dump.*.quat c_quat[*]


restart 	1000000 restart.dat
timestep 	0.005
timer 		full
New timer settings: style=full  mode=nosync  timeout=off


run		5000000
Per MPI rank memory allocation (min/avg/max) = 12.26 | 12.63 | 13.06 Mbytes
Step Temp E_pair TotEng Press PotEng KinEng Atoms 
 3000000   0.98378862   -3.3591705   -1.8834892  0.056035388   -3.3591705    1.4756812   878832 
 3001000   0.98575441   -3.3596122   -1.8815962  0.056619366   -3.3596122    1.4780161   879197 
 3002000    0.9863228   -3.3584514   -1.8802086  0.057081622   -3.3584514    1.4782428   879569 
 3003000   0.98611664   -3.3568017   -1.8794641  0.057879571   -3.3568017    1.4773376   879924 
 3004000    0.9870348   -3.3557688   -1.8777259  0.056983207   -3.3557688    1.4780429   880323 
 3005000   0.98806685   -3.3565971   -1.8776236  0.054424572   -3.3565971    1.4789735   880689 
 3006000   0.98806013   -3.3554465   -1.8770505  0.053704297   -3.3554465     1.478396   881027 
 3007000   0.98870876    -3.354647   -1.8758327  0.057303806    -3.354647    1.4788143   881356 
 3008000   0.98899757    -3.353685   -1.8750159  0.052610813    -3.353685    1.4786691   881700 
 3009000   0.98829763   -3.3509761   -1.8739548  0.057975556   -3.3509761    1.4770213   882059 
 3010000   0.98985127   -3.3506927   -1.8719212  0.054161365   -3.3506927    1.4787715   882400 
 3011000   0.98921877    -3.348156   -1.8709622  0.055050519    -3.348156    1.4771938   882778 
 3012000   0.99022755    -3.347602   -1.8694812  0.056688045    -3.347602    1.4781209   883124 
 3013000   0.99104881   -3.3469972   -1.8682616  0.055960224   -3.3469972    1.4787356   883489 
 3014000   0.99115616   -3.3455268   -1.8672267  0.056789871   -3.3455268    1.4783001   883845 
 3015000   0.99247664   -3.3456458    -1.866019   0.05659878   -3.3456458    1.4796267   884229 
 3016000   0.99250579   -3.3449236   -1.8658422  0.054187276   -3.3449236    1.4790814   884581 
 3017000   0.99373155   -3.3455653   -1.8652429   0.05427769   -3.3455653    1.4803224   884931 
 3018000   0.99430252   -3.3450494   -1.8644721  0.056178059   -3.3450494    1.4805773   885287 
 3019000   0.99635515   -3.3455641   -1.8625853  0.056262249   -3.3455641    1.4829788   885678 
 3020000   0.99675096   -3.3441039   -1.8611371   0.05788574   -3.3441039    1.4829668   886037 
 3021000   0.99633549   -3.3414306   -1.8596555  0.059579353   -3.3414306    1.4817751   886380 
 3022000   0.99795588   -3.3417834   -1.8581592  0.062819275   -3.3417834    1.4836242   886715 
 3023000   0.99782984   -3.3407117   -1.8578518  0.063451741   -3.3407117    1.4828599   887060 
 3024000   0.99933469   -3.3417021   -1.8571715  0.061510025   -3.3417021    1.4845306   887398 
 3025000   0.99914655   -3.3401282   -1.8565107  0.062036472   -3.3401282    1.4836174   887777 
 3026000    1.0012551   -3.3416508   -1.8554449  0.061480742   -3.3416508     1.486206   888101 
 3027000    1.0012605   -3.3406648   -1.8550346  0.064689063   -3.3406648    1.4856302   888450 
 3028000    1.0025378   -3.3403879   -1.8534516  0.062169717   -3.3403879    1.4869363   888802 
 3029000    1.0027396   -3.3389975   -1.8523539  0.061274125   -3.3389975    1.4866435   889156 
 3030000    1.0040666   -3.3395391   -1.8515341  0.067079935   -3.3395391     1.488005   889518 
 3031000    1.0036005    -3.337763   -1.8510169  0.066078577    -3.337763     1.486746   889858 
 3032000    1.0048072   -3.3384783   -1.8505081  0.066465117   -3.3384783    1.4879702   890195 
 3033000    1.0059681   -3.3386485   -1.8494913   0.06715013   -3.3386485    1.4891572   890513 
 3034000    1.0058539   -3.3374543   -1.8490426  0.065340582   -3.3374543    1.4884117   890858 
 3035000    1.0073176   -3.3386197   -1.8485792   0.06771499   -3.3386197    1.4900406   891179 
 3036000    1.0077009   -3.3383788   -1.8483614   0.06626413   -3.3383788    1.4900174   891532 
 3037000    1.0080861   -3.3376686   -1.8476148  0.068278946   -3.3376686    1.4900537   891851 
 3038000    1.0091433   -3.3377537    -1.846704  0.064359109   -3.3377537    1.4910497   892190 
 3039000    1.0089698    -3.336284   -1.8460401    0.0674959    -3.336284    1.4902439   892519 
 3040000    1.0100416   -3.3354753   -1.8442132  0.068456337   -3.3354753     1.491262   892857 
 3041000     1.008862   -3.3327763   -1.8438412  0.071479375   -3.3327763    1.4889352   893208 
 3042000    1.0114854   -3.3339505   -1.8417734  0.072403849   -3.3339505     1.492177   893585 
 3043000    1.0106868   -3.3324056   -1.8420054  0.069252028   -3.3324056    1.4904002   893944 
 3044000    1.0124415   -3.3348503   -1.8424284  0.065228865   -3.3348503    1.4924218   894283 
 3045000    1.0126669   -3.3330454   -1.8408069  0.068625327   -3.3330454    1.4922384   894592 
 3046000    1.0131366   -3.3320894   -1.8396793   0.06809515   -3.3320894    1.4924101   894904 
 3047000    1.0143464   -3.3313103   -1.8376523  0.069751135   -3.3313103    1.4936581   895224 
 3048000    1.0146298   -3.3310585   -1.8375353  0.072830883   -3.3310585    1.4935232   895555 
 3049000    1.0149199   -3.3305596   -1.8371713  0.069186922   -3.3305596    1.4933883   895892 
 3050000    1.0156115   -3.3294209   -1.8355668  0.070173147   -3.3294209     1.493854   896223 
 3051000    1.0161937   -3.3290171   -1.8348602  0.069831419   -3.3290171    1.4941569   896555 
 3052000    1.0158379   -3.3267875   -1.8336868  0.072358103   -3.3267875    1.4931007   896875 
 3053000    1.0162558   -3.3262856   -1.8330701  0.071791379   -3.3262856    1.4932155   897175 
 3054000    1.0165432   -3.3255749   -1.8324912  0.073954748   -3.3255749    1.4930837   897508 
 3055000    1.0166106   -3.3248525   -1.8322103  0.070986334   -3.3248525    1.4926422   897833 
 3056000    1.0162657   -3.3231915   -1.8316006  0.075699383   -3.3231915    1.4915909   898161 
 3057000    1.0176904    -3.322956   -1.8298012  0.069495043    -3.322956    1.4931548   898478 
 3058000    1.0183543   -3.3216324    -1.828042  0.069811027   -3.3216324    1.4935904   898802 
 3059000    1.0193969    -3.322039   -1.8274666  0.068205375    -3.322039    1.4945724   899131 
 3060000    1.0176883   -3.3184769   -1.8269486  0.072598435   -3.3184769    1.4915283   899456 
 3061000    1.0189347   -3.3185423   -1.8257084  0.071445875   -3.3185423    1.4928339   899770 
 3062000    1.0202598   -3.3195412   -1.8253073  0.070452799   -3.3195412    1.4942338   900096 
 3063000    1.0202385   -3.3181577   -1.8245177  0.071697734   -3.3181577    1.4936401   900435 
 3064000    1.0214106    -3.318581   -1.8237279  0.073535502    -3.318581    1.4948531   900738 
 3065000    1.0222104    -3.317645   -1.8221445  0.072117383    -3.317645    1.4955006   901053 
 3066000    1.0220598   -3.3164415   -1.8216639  0.072050825   -3.3164415    1.4947776   901356 
 3067000    1.0232858   -3.3164869   -1.8204757   0.07323664   -3.3164869    1.4960113   901693 
 3068000    1.0242696   -3.3168282   -1.8199065  0.072932253   -3.3168282    1.4969217   902011 
 3069000    1.0246466   -3.3158275   -1.8188577  0.073143151   -3.3158275    1.4969698   902314 
 3070000    1.0255996   -3.3152622   -1.8173899  0.075328939   -3.3152622    1.4978723   902609 
 3071000     1.025285   -3.3136469   -1.8167829  0.073018484   -3.3136469     1.496864   902940 
 3072000    1.0258477   -3.3137729   -1.8166064   0.07498446   -3.3137729    1.4971665   903253 
 3073000    1.0256195   -3.3115653   -1.8152487   0.07340189   -3.3115653    1.4963166   903565 
 3074000     1.026134   -3.3103423   -1.8137969  0.079284948   -3.3103423    1.4965454   903880 
 3075000    1.0267044   -3.3110561   -1.8142135  0.075161818   -3.3110561    1.4968426   904203 
 3076000    1.0281887   -3.3125231    -1.814075  0.072110408   -3.3125231    1.4984481   904540 
 3077000    1.0287363   -3.3121706    -1.813458  0.070797676   -3.3121706    1.4987126   904862 
 3078000    1.0287516   -3.3106601   -1.8124551  0.073993549   -3.3106601     1.498205   905182 
 3079000    1.0285778   -3.3093881   -1.8119755  0.078216289   -3.3093881    1.4974125   905508 
 3080000    1.0290816    -3.308946   -1.8113177  0.073463323    -3.308946    1.4976283   905821 
 3081000    1.0302254   -3.3093752   -1.8105506  0.078367768   -3.3093752    1.4988246   906104 
 3082000    1.0331211   -3.3115201   -1.8089734  0.072729815   -3.3115201    1.5025466   906400 
 3083000     1.032998   -3.3100369   -1.8081548   0.07630126   -3.3100369    1.5018821   906693 
 3084000    1.0328536   -3.3088282   -1.8076578  0.077576682   -3.3088282    1.5011704   906996 
 3085000    1.0337518   -3.3080339    -1.806068  0.079068729   -3.3080339    1.5019659   907304 
 3086000     1.033087   -3.3082616   -1.8077578  0.078152656   -3.3082616    1.5005039   907604 
 3087000     1.034831   -3.3092601   -1.8066768   0.07538238   -3.3092601    1.5025833   907878 
 3088000    1.0351406   -3.3081249    -1.805605  0.077502501   -3.3081249    1.5025198   908188 
 3089000    1.0352677   -3.3071596   -1.8049432  0.075637594   -3.3071596    1.5022164   908483 
 3090000    1.0348247   -3.3062329   -1.8051302  0.078644058   -3.3062329    1.5011026   908768 
 3091000    1.0357888   -3.3057295   -1.8037506  0.074000952   -3.3057295    1.5019789   909084 
 3092000    1.0356904   -3.3047811   -1.8034618  0.076778387   -3.3047811    1.5013193   909397 
 3093000    1.0370039   -3.3047911   -1.8020849  0.075116552   -3.3047911    1.5027062   909710 
 3094000    1.0368334   -3.3037516   -1.8017879  0.077862495   -3.3037516    1.5019637   910010 
 3095000    1.0373531   -3.3039542   -1.8016586  0.077544218   -3.3039542    1.5022956   910265 
 3096000    1.0382562   -3.3045759   -1.8014514  0.074731561   -3.3045759    1.5031245   910555 
 3097000    1.0377383   -3.3019721   -1.8000888  0.080631712   -3.3019721    1.5018832   910853 
 3098000    1.0381887   -3.3019134   -1.7998993    0.0776747   -3.3019134     1.502014   911169 
 3099000    1.0390909   -3.3014362   -1.7986233  0.082131621   -3.3014362     1.502813   911476 
 3100000    1.0397985   -3.3008414   -1.7975098    0.0776354   -3.3008414    1.5033317   911782 
 3101000    1.0400533   -3.2994098   -1.7961862  0.080570406   -3.2994098    1.5032236   912071 
 3102000    1.0411442   -3.2998224   -1.7954856  0.081274152   -3.2998224    1.5043367   912352 
 3103000    1.0414819   -3.2992543   -1.7948945  0.080224339   -3.2992543    1.5043597   912634 
 3104000    1.0412969   -3.2978622   -1.7942442  0.077827152   -3.2978622     1.503618   912922 
 3105000    1.0419778   -3.2972451   -1.7931052  0.079596558   -3.2972451    1.5041399   913202 
 3106000    1.0415149   -3.2970923     -1.79406   0.08222769   -3.2970923    1.5030323   913469 
 3107000    1.0429222   -3.2974703   -1.7929194  0.078283341   -3.2974703    1.5045509   913780 
 3108000    1.0422257   -3.2957684   -1.7926812  0.078745891   -3.2957684    1.5030872   914059 
 3109000    1.0440098   -3.2963125    -1.791161  0.080930579   -3.2963125    1.5051515   914368 
 3110000    1.0441171   -3.2958428   -1.7910371  0.082824717   -3.2958428    1.5048058   914672 
 3111000    1.0443648   -3.2947051   -1.7900244  0.079737165   -3.2947051    1.5046807   914965 
 3112000    1.0458994   -3.2953769   -1.7890021  0.078317644   -3.2953769    1.5063748   915279 
 3113000    1.0464343   -3.2944236   -1.7877755  0.081240402   -3.2944236    1.5066481   915581 
 3114000    1.0470086   -3.2947428   -1.7877138  0.079975631   -3.2947428     1.507029   915852 
 3115000    1.0464132   -3.2928735   -1.7871882  0.082338997   -3.2928735    1.5056853   916148 
 3116000    1.0469869   -3.2922723   -1.7862136  0.081253626   -3.2922723    1.5060586   916423 
 3117000    1.0472508   -3.2916683   -1.7856671  0.079467993   -3.2916683    1.5060012   916689 
 3118000    1.0484941   -3.2929106   -1.7855688  0.076566557   -3.2929106    1.5073418   916961 
 3119000    1.0477864   -3.2918717   -1.7860236  0.081421275   -3.2918717    1.5058481   917251 
 3120000    1.0486373   -3.2915432   -1.7849731  0.078345235   -3.2915432    1.5065701   917556 
 3121000    1.0490119   -3.2912258   -1.7846166  0.081270236   -3.2912258    1.5066092   917860 
 3122000    1.0497269   -3.2909817   -1.7837908  0.083150571   -3.2909817     1.507191   918131 
 3123000    1.0506086   -3.2912136   -1.7832116  0.080495083   -3.2912136     1.508002   918408 
 3124000    1.0517438   -3.2916649   -1.7824607  0.079851094   -3.2916649    1.5092042   918668 
 3125000    1.0510955   -3.2899438   -1.7821279  0.086588653   -3.2899438    1.5078159   918947 
 3126000    1.0526431    -3.291151   -1.7815782  0.086585278    -3.291151    1.5095728   919229 
 3127000    1.0537129   -3.2916669   -1.7809806  0.084318671   -3.2916669    1.5106863   919485 
 3128000    1.0525977   -3.2886182   -1.7799901  0.087185291   -3.2886182    1.5086281   919765 
 3129000    1.0530573   -3.2894715   -1.7806836  0.085031673   -3.2894715     1.508788   920069 
 3130000    1.0536432   -3.2884534     -1.77929  0.088788491   -3.2884534    1.5091634   920352 
 3131000    1.0533456   -3.2877735   -1.7795347  0.085572766   -3.2877735    1.5082388   920656 
 3132000     1.054247   -3.2884456   -1.7793471  0.083731242   -3.2884456    1.5090984   920919 
 3133000    1.0552935   -3.2883416   -1.7782043  0.085031076   -3.2883416    1.5101373   921199 
 3134000    1.0559183   -3.2886473   -1.7780685   0.08419549   -3.2886473    1.5105788   921475 
 3135000     1.055916   -3.2873254   -1.7772546  0.084809142   -3.2873254    1.5100708   921783 
 3136000     1.055882   -3.2874711   -1.7779664  0.085091801   -3.2874711    1.5095047   922099 
 3137000    1.0563451   -3.2866594    -1.776997  0.083937947   -3.2866594    1.5096624   922407 
 3138000    1.0567472    -3.286549   -1.7767784  0.085148238    -3.286549    1.5097706   922692 
 3139000    1.0587109   -3.2875707   -1.7754452  0.082213477   -3.2875707    1.5121255   922967 
 3140000    1.0584024   -3.2863371   -1.7750665  0.086278829   -3.2863371    1.5112706   923220 
 3141000    1.0586053   -3.2860281   -1.7749441  0.085309568   -3.2860281     1.511084   923511 
 3142000    1.0609967   -3.2870042   -1.7729575  0.085369617   -3.2870042    1.5140467   923786 
 3143000    1.0600028   -3.2848321   -1.7726505  0.089577308   -3.2848321    1.5121816   924059 
 3144000    1.0607855     -3.28521   -1.7723867  0.086216046     -3.28521    1.5128234   924349 
 3145000    1.0618633   -3.2847305   -1.7708139  0.092436613   -3.2847305    1.5139166   924620 
 3146000    1.0628711   -3.2846112   -1.7697116  0.090906365   -3.2846112    1.5148996   924897 
 3147000    1.0634921   -3.2846865   -1.7693867  0.089271644   -3.2846865    1.5152998   925193 
 3148000    1.0624548   -3.2825621   -1.7691771  0.092116197   -3.2825621     1.513385   925460 
 3149000    1.0632141   -3.2826996   -1.7686894  0.088507182   -3.2826996    1.5140102   925739 
 3150000    1.0627171   -3.2812985   -1.7684716  0.084247778   -3.2812985     1.512827   926030 
 3151000    1.0628532   -3.2811913   -1.7686426  0.087540581   -3.2811913    1.5125487   926319 
 3152000    1.0628501   -3.2804039   -1.7683315  0.088089339   -3.2804039    1.5120724   926608 
 3153000    1.0637616    -3.279693   -1.7667581   0.08777414    -3.279693    1.5129349   926874 
 3154000     1.064349   -3.2796928   -1.7663828  0.087384036   -3.2796928    1.5133099   927156 
 3155000    1.0630124   -3.2776276    -1.766663  0.086513901   -3.2776276    1.5109646   927429 
 3156000    1.0645973   -3.2798475   -1.7670885  0.085815899   -3.2798475     1.512759   927710 
 3157000    1.0652582   -3.2788223   -1.7655775  0.081270999   -3.2788223    1.5132447   927988 
 3158000    1.0654296   -3.2775062   -1.7644402  0.086394235   -3.2775062    1.5130659   928247 
 3159000    1.0655192   -3.2755063   -1.7627255  0.086063508   -3.2755063    1.5127808   928500 
 3160000    1.0670987   -3.2764253   -1.7618571  0.088603807   -3.2764253    1.5145682   928779 
 3161000    1.0682065   -3.2760499   -1.7603418  0.087818083   -3.2760499    1.5157081   929044 
 3162000    1.0677684   -3.2742831   -1.7596516  0.088861337   -3.2742831    1.5146315   929323 
 3163000    1.0701828   -3.2761587   -1.7585317  0.088248695   -3.2761587    1.5176269   929586 
 3164000    1.0702272   -3.2749011   -1.7576584  0.092434111   -3.2749011    1.5172427   929860 
 3165000    1.0706038   -3.2746848   -1.7572983  0.093503652   -3.2746848    1.5173865   930099 
 3166000    1.0700709   -3.2745319   -1.7583229  0.089053341   -3.2745319     1.516209   930358 
 3167000    1.0702833    -3.272866   -1.7568008  0.089169696    -3.272866    1.5160652   930631 
 3168000    1.0697615    -3.271723   -1.7568496  0.086493146    -3.271723    1.5148734   930909 
 3169000    1.0705066   -3.2716848   -1.7561746  0.091633064   -3.2716848    1.5155102   931166 
 3170000    1.0711853   -3.2704121   -1.7543612  0.090737668   -3.2704121    1.5160509   931424 
 3171000    1.0709376   -3.2698503   -1.7545778   0.08834535   -3.2698503    1.5152725   931687 
 3172000    1.0709129   -3.2696493   -1.7548539  0.091192917   -3.2696493    1.5147954   931959 
 3173000    1.0719627   -3.2702572   -1.7544258  0.089348542   -3.2702572    1.5158314   932235 
 3174000    1.0721526    -3.268647    -1.753012  0.088136548    -3.268647     1.515635   932521 
 3175000    1.0734329   -3.2694197   -1.7523881  0.088592627   -3.2694197    1.5170316   932775 
 3176000    1.0740157   -3.2689312   -1.7515282  0.088795641   -3.2689312     1.517403   933053 
 3177000    1.0751263   -3.2698411   -1.7513311  0.089123188   -3.2698411    1.5185099   933337 
 3178000    1.0749022   -3.2685566   -1.7508006  0.091459463   -3.2685566     1.517756   933606 
 3179000    1.0751103   -3.2678444    -1.750235  0.093037171   -3.2678444    1.5176093   933877 
 3180000    1.0757332   -3.2677478   -1.7497029   0.09164187   -3.2677478    1.5180448   934150 
 3181000    1.0766819   -3.2692232   -1.7502363  0.090833336   -3.2692232    1.5189868   934394 
 3182000    1.0763532   -3.2685357   -1.7504561  0.093252514   -3.2685357    1.5180796   934667 
 3183000    1.0777084   -3.2690856   -1.7495109   0.09239728   -3.2690856    1.5195747   934923 
 3184000    1.0769514   -3.2664386   -1.7484135  0.094103619   -3.2664386    1.5180251   935220 
 3185000    1.0784706   -3.2682586    -1.748526   0.08834669   -3.2682586    1.5197325   935487 
 3186000    1.0787394   -3.2674105   -1.7477426  0.091679481   -3.2674105    1.5196679   935760 
 3187000    1.0781627   -3.2660948    -1.747726  0.093526741   -3.2660948    1.5183688   936060 
 3188000    1.0801724   -3.2683159    -1.747515  0.091392834   -3.2683159     1.520801   936305 
 3189000    1.0799953    -3.266667    -1.746497  0.092448923    -3.266667      1.52017   936540 
 3190000     1.080489   -3.2672324   -1.7467977  0.093632549   -3.2672324    1.5204348   936805 
 3191000    1.0809602   -3.2672611   -1.7465789  0.089626435   -3.2672611    1.5206822   937061 
 3192000    1.0817709   -3.2671691   -1.7457458  0.093538736   -3.2671691    1.5214233   937307 
 3193000    1.0829225   -3.2677262   -1.7450682  0.089560358   -3.2677262    1.5226579   937544 
 3194000    1.0827674   -3.2668459     -1.74482  0.093868951   -3.2668459    1.5220259   937799 
 3195000    1.0831302   -3.2663033   -1.7442008  0.096399523   -3.2663033    1.5221025   938066 
 3196000    1.0836589   -3.2665083   -1.7440945  0.097651532   -3.2665083    1.5224138   938332 
 3197000    1.0837532   -3.2655744   -1.7434661   0.10054367   -3.2655744    1.5221082   938602 
 3198000    1.0851452   -3.2663388   -1.7426894  0.097527132   -3.2663388    1.5236494   938857 
 3199000    1.0848979   -3.2654154   -1.7425138  0.094316325   -3.2654154    1.5229015   939104 
 3200000    1.0856091   -3.2648558   -1.7413875  0.096574576   -3.2648558    1.5234682   939370 
 3201000    1.0859484   -3.2646915   -1.7411622  0.095819378   -3.2646915    1.5235293   939626 
 3202000    1.0852769   -3.2649113    -1.742768  0.097970857   -3.2649113    1.5221434   939900 
 3203000    1.0855538   -3.2642314   -1.7421192  0.097441013   -3.2642314    1.5221122   940159 
 3204000    1.0868763    -3.264729   -1.7412032  0.094091548    -3.264729    1.5235258   940431 
 3205000    1.0872417   -3.2651721   -1.7415101  0.094017207   -3.2651721     1.523662   940663 
 3206000    1.0876997   -3.2647244   -1.7408449  0.093664613   -3.2647244    1.5238795   940925 
 3207000    1.0874155   -3.2638576    -1.740776  0.095800035   -3.2638576    1.5230815   941172 
 3208000    1.0892629   -3.2651974   -1.7399092  0.093727022   -3.2651974    1.5252882   941407 
 3209000    1.0893622   -3.2641836   -1.7391888   0.10088198   -3.2641836    1.5249948   941674 
 3210000    1.0890071   -3.2629423   -1.7388298  0.093145421   -3.2629423    1.5241125   941912 
 3211000    1.0896804   -3.2629875   -1.7383811  0.098826398   -3.2629875    1.5246064   942189 
 3212000    1.0902498   -3.2632445   -1.7382154  0.092070488   -3.2632445    1.5250292   942420 
 3213000    1.0891287   -3.2616455   -1.7386144  0.098860488   -3.2616455    1.5230311   942686 
 3214000    1.0903553   -3.2617285   -1.7373767  0.096870004   -3.2617285    1.5243518   942930 
 3215000     1.091765   -3.2616431   -1.7357655   0.10066746   -3.2616431    1.5258776   943205 
 3216000    1.0920353   -3.2610248   -1.7351738  0.097376996   -3.2610248     1.525851   943455 
 3217000    1.0936771    -3.261866   -1.7341031   0.09878388    -3.261866    1.5277628   943691 
 3218000    1.0936289   -3.2607112   -1.7334301  0.099032165   -3.2607112    1.5272811   943947 
 3219000    1.0933011   -3.2599151   -1.7335008   0.10148087   -3.2599151    1.5264143   944200 
 3220000    1.0940124   -3.2597633    -1.732715  0.099364296   -3.2597633    1.5270483   944422 
 3221000    1.0945911   -3.2591344   -1.7316875   0.10260403   -3.2591344    1.5274469   944675 
 3222000     1.093725    -3.257222   -1.7313988   0.10064663    -3.257222    1.5258232   944932 
 3223000    1.0957038   -3.2581027   -1.7299508  0.099742805   -3.2581027    1.5281519   945199 
 3224000     1.096612   -3.2592622   -1.7302351  0.097677925   -3.2592622    1.5290271   945441 
 3225000    1.0960306   -3.2575745   -1.7297652   0.10071248   -3.2575745    1.5278093   945693 
 3226000    1.0961509   -3.2573722   -1.7297845  0.096192085   -3.2573722    1.5275877   945934 
 3227000    1.0977244   -3.2578377   -1.7284453  0.099734035   -3.2578377    1.5293925   946174 
 3228000    1.0980275   -3.2569627   -1.7275585   0.10072229   -3.2569627    1.5294042   946428 
 3229000    1.0983787   -3.2560444   -1.7265308  0.099553014   -3.2560444    1.5295136   946663 
 3230000    1.0983614    -3.254996   -1.7258959  0.099428443    -3.254996    1.5291001   946904 
 3231000    1.0979259    -3.254049    -1.725986  0.099746532    -3.254049     1.528063   947171 
 3232000    1.0987225   -3.2548991   -1.7261276   0.10126175   -3.2548991    1.5287714   947419 
 3233000    1.0994078   -3.2552138    -1.725894   0.10075808   -3.2552138    1.5293198   947670 
 3234000    1.0996337     -3.25502    -1.725762  0.099828091     -3.25502     1.529258   947903 
 3235000    1.0995883   -3.2537179   -1.7249197   0.10099394   -3.2537179    1.5287982   948149 
 3236000     1.099536   -3.2527278    -1.724378    0.1024587   -3.2527278    1.5283498   948382 
 3237000    1.0997098   -3.2523565   -1.7242146  0.096578968   -3.2523565    1.5281419   948661 
 3238000    1.1003568   -3.2518655   -1.7232612  0.097939518   -3.2518655    1.5286042   948932 
 3239000    1.1008704   -3.2513752   -1.7224795  0.097785996   -3.2513752    1.5288957   949194 
 3240000    1.1013019   -3.2509587   -1.7218697  0.097307268   -3.2509587    1.5290889   949446 
 3241000    1.1011222   -3.2500262   -1.7216054   0.10214991   -3.2500262    1.5284209   949706 
 3242000    1.1021103   -3.2513627   -1.7219921  0.099473993   -3.2513627    1.5293705   949968 
 3243000    1.1021612   -3.2500819   -1.7210222   0.10259824   -3.2500819    1.5290597   950205 
 3244000    1.1036509   -3.2516766   -1.7209562  0.098889986   -3.2516766    1.5307204   950457 
 3245000     1.103184   -3.2495795   -1.7199364   0.10465234   -3.2495795    1.5296431   950724 
 3246000    1.1050826   -3.2509777   -1.7190662   0.10071947   -3.2509777    1.5319115   950950 
 3247000    1.1036916   -3.2490025   -1.7194021   0.10313741   -3.2490025    1.5296004   951188 
 3248000    1.1059397   -3.2508247   -1.7185097   0.10299592   -3.2508247     1.532315   951437 
 3249000    1.1062748   -3.2507545   -1.7183505   0.10267056   -3.2507545     1.532404   951670 
 3250000    1.1066728   -3.2505369   -1.7179778  0.098891517   -3.2505369    1.5325591   951916 
 3251000    1.1075234   -3.2498862   -1.7165503   0.10236707   -3.2498862    1.5333359   952165 
 3252000    1.1077547   -3.2484025   -1.7151779   0.10462442   -3.2484025    1.5332246   952433 
 3253000    1.1069942   -3.2473294   -1.7155529   0.10580064   -3.2473294    1.5317764   952679 
 3254000    1.1085016   -3.2490561    -1.715564   0.10001128   -3.2490561    1.5334921   952909 
 3255000    1.1088307   -3.2491798   -1.7155962   0.10398314   -3.2491798    1.5335836   953135 
 3256000    1.1082646    -3.248132   -1.7157414   0.10419161    -3.248132    1.5323906   953390 
 3257000    1.1089763   -3.2478603   -1.7148603   0.10655788   -3.2478603        1.533   953623 
 3258000    1.1107025   -3.2505784   -1.7155559  0.099716062   -3.2505784    1.5350225   953849 
 3259000    1.1111838   -3.2508771   -1.7155661  0.099495281   -3.2508771     1.535311   954083 
 3260000    1.1107654   -3.2493284   -1.7149702   0.10380153   -3.2493284    1.5343582   954316 
 3261000    1.1125336    -3.249926   -1.7135729   0.10580446    -3.249926    1.5363531   954594 
 3262000    1.1117572   -3.2483119   -1.7133927   0.10351102   -3.2483119    1.5349192   954819 
 3263000    1.1121712   -3.2479189   -1.7128397   0.10536988   -3.2479189    1.5350792   955075 
 3264000    1.1122112   -3.2483383   -1.7135462   0.10434794   -3.2483383    1.5347922   955288 
 3265000    1.1126552   -3.2478843   -1.7128667   0.10175577   -3.2478843    1.5350177   955529 
 3266000    1.1133612   -3.2476909   -1.7120626   0.10781889   -3.2476909    1.5356284   955755 
 3267000    1.1131798   -3.2476574   -1.7126519   0.10127394   -3.2476574    1.5350056   955987 
 3268000     1.113112   -3.2469583   -1.7123898   0.10462524   -3.2469583    1.5345685   956201 
 3269000    1.1138758   -3.2469955   -1.7117255   0.10578965   -3.2469955      1.53527   956420 
 3270000    1.1141928   -3.2469357   -1.7116142   0.10045784   -3.2469357    1.5353216   956660 
 3271000    1.1138897   -3.2462886   -1.7117872   0.10499242   -3.2462886    1.5345014   956911 
 3272000    1.1135468   -3.2448666   -1.7112255   0.10791409   -3.2448666    1.5336411   957153 
 3273000    1.1139014   -3.2453466   -1.7115744   0.10709323   -3.2453466    1.5337722   957376 
 3274000    1.1141671    -3.244004   -1.7102281   0.10470658    -3.244004    1.5337759   957602 
 3275000    1.1162841   -3.2458329   -1.7095326   0.10586171   -3.2458329    1.5363003   957845 
 3276000    1.1166587   -3.2456615   -1.7092177   0.10180793   -3.2456615    1.5364438   958077 
 3277000    1.1166303    -3.244684   -1.7086753    0.1043876    -3.244684    1.5360087   958324 
 3278000    1.1176803   -3.2445951   -1.7075463   0.10688848   -3.2445951    1.5370488   958576 
 3279000    1.1183902   -3.2455255    -1.707887   0.10641377   -3.2455255    1.5376385   958817 
 3280000    1.1190133   -3.2447339   -1.7066189   0.10737789   -3.2447339     1.538115   959054 
 3281000    1.1184818    -3.243666   -1.7066549   0.10893123    -3.243666    1.5370111   959287 
 3282000    1.1193996   -3.2440028   -1.7061201    0.1070526   -3.2440028    1.5378827   959530 
 3283000     1.119947   -3.2437465    -1.705458   0.10770792   -3.2437465    1.5382884   959746 
 3284000    1.1209022   -3.2439055   -1.7046402   0.11125501   -3.2439055    1.5392653   959955 
 3285000    1.1207719   -3.2425779   -1.7038715    0.1113052   -3.2425779    1.5387065   960192 
 3286000    1.1219641   -3.2439463   -1.7039768   0.10856517   -3.2439463    1.5399695   960425 
 3287000    1.1222766   -3.2437239   -1.7036893   0.10845373   -3.2437239    1.5400345   960652 
 3288000    1.1223609   -3.2428617   -1.7030657   0.11141133   -3.2428617    1.5397959   960873 
 3289000    1.1227312   -3.2430835   -1.7031369   0.11104255   -3.2430835    1.5399466   961096 
 3290000     1.122568   -3.2422054   -1.7028879   0.10756601   -3.2422054    1.5393175   961349 
 3291000    1.1229115   -3.2419281   -1.7024807   0.10950593   -3.2419281    1.5394475   961562 
 3292000    1.1230279   -3.2422069   -1.7029393   0.10674762   -3.2422069    1.5392676   961774 
 3293000    1.1218101   -3.2403439   -1.7031066   0.10742728   -3.2403439    1.5372372   962000 
 3294000    1.1241017   -3.2420032   -1.7019523   0.10741235   -3.2420032    1.5400509   962204 
 3295000    1.1242718   -3.2420683   -1.7021269   0.10963725   -3.2420683    1.5399414   962418 
 3296000    1.1240435   -3.2417413   -1.7024724     0.110719   -3.2417413    1.5392689   962643 
 3297000    1.1245264   -3.2406933   -1.7011262   0.10570326   -3.2406933    1.5395671   962870 
 3298000    1.1244183   -3.2394654   -1.7004219   0.11073687   -3.2394654    1.5390435   963105 
 3299000    1.1257267   -3.2404414   -1.6999558   0.10596716   -3.2404414    1.5404857   963323 
 3300000    1.1259076   -3.2399357   -1.6995558   0.10738076   -3.2399357    1.5403799   963544 
 3301000    1.1248169   -3.2379902   -1.6994953   0.10780734   -3.2379902    1.5384949   963790 
 3302000    1.1265342   -3.2399597   -1.6994869    0.1070751   -3.2399597    1.5404729   964022 
 3303000     1.126569    -3.239441   -1.6992737   0.10958452    -3.239441    1.5401674   964243 
 3304000    1.1274187   -3.2398054   -1.6988822   0.10580932   -3.2398054    1.5409232   964497 
 3305000    1.1283646   -3.2398884   -1.6980864   0.10822423   -3.2398884    1.5418019   964756 
 3306000    1.1295607   -3.2403121    -1.697266   0.10785789   -3.2403121    1.5430461   965000 
 3307000     1.127935      -3.2377   -1.6972164   0.11133478      -3.2377    1.5404836   965214 
 3308000    1.1294754   -3.2383968   -1.6961513   0.10581483   -3.2383968    1.5422455   965428 
 3309000     1.130525   -3.2384145   -1.6950986   0.11274564   -3.2384145    1.5433158   965655 
 3310000    1.1308224   -3.2378535   -1.6944993   0.10913609   -3.2378535    1.5433542   965885 
 3311000    1.1318229   -3.2384085    -1.694007   0.11067158   -3.2384085    1.5444015   966084 
 3312000    1.1316418   -3.2371473   -1.6933381   0.11342303   -3.2371473    1.5438092   966300 
 3313000     1.133073   -3.2385042   -1.6931167    0.1116851   -3.2385042    1.5453875   966534 
 3314000    1.1335255   -3.2383562   -1.6927146   0.11188996   -3.2383562    1.5456416   966761 
 3315000    1.1329894   -3.2362091   -1.6916309   0.11554094   -3.2362091    1.5445783   966969 
 3316000     1.133374   -3.2367522   -1.6920026   0.10988737   -3.2367522    1.5447496   967190 
 3317000    1.1343678   -3.2375247   -1.6917626   0.11200774   -3.2375247    1.5457621   967404 
 3318000    1.1335742   -3.2358234   -1.6915083   0.10996983   -3.2358234    1.5443151   967633 
 3319000    1.1340344   -3.2360737   -1.6914685   0.11221971   -3.2360737    1.5446052   967844 
 3320000      1.13499   -3.2364255   -1.6908606    0.1104169   -3.2364255     1.545565   968058 
 3321000    1.1358314   -3.2371347   -1.6908215   0.11025754   -3.2371347    1.5463131   968307 
 3322000    1.1342371    -3.234671   -1.6908919   0.11124378    -3.234671    1.5437791   968535 
 3323000    1.1346839   -3.2344053   -1.6902939   0.11157297   -3.2344053    1.5441114   968708 
 3324000    1.1353041    -3.234393    -1.689841   0.11050364    -3.234393     1.544552   968961 
 3325000    1.1356436   -3.2346133   -1.6899549   0.11174906   -3.2346133    1.5446584   969184 
 3326000     1.136768   -3.2357853   -1.6899452    0.1086996   -3.2357853    1.5458401   969402 
 3327000    1.1361403   -3.2334649   -1.6888354   0.11171979   -3.2334649    1.5446295   969626 
 3328000    1.1367649   -3.2337668   -1.6886307   0.11100154   -3.2337668    1.5451361   969841 
 3329000    1.1375526   -3.2336807   -1.6878454   0.11229525   -3.2336807    1.5458354   970074 
 3330000    1.1373557   -3.2332295   -1.6879723   0.11466312   -3.2332295    1.5452572   970269 
 3331000    1.1368335   -3.2320956    -1.687863   0.11544078   -3.2320956    1.5442326   970467 
 3332000    1.1380607   -3.2336388   -1.6880481     0.110926   -3.2336388    1.5455907   970661 
 3333000      1.13733   -3.2324071   -1.6881477   0.11120939   -3.2324071    1.5442594   970874 
 3334000    1.1389887   -3.2331223   -1.6869515   0.11004059   -3.2331223    1.5461708   971088 
 3335000    1.1391985   -3.2328676   -1.6867431   0.11279452   -3.2328676    1.5461244   971296 
 3336000    1.1387897   -3.2320666   -1.6868868   0.11464603   -3.2320666    1.5451798   971541 
 3337000     1.139758   -3.2324426   -1.6862959   0.11128896   -3.2324426    1.5461467   971759 
 3338000    1.1407512   -3.2333206   -1.6861689   0.11274611   -3.2333206    1.5471517   971974 
 3339000    1.1408862   -3.2325362   -1.6855531   0.11783161   -3.2325362    1.5469832   972195 
 3340000    1.1415914   -3.2329496   -1.6853604   0.11452388   -3.2329496    1.5475892   972415 
 3341000    1.1412809    -3.232756   -1.6859616   0.11459157    -3.232756    1.5467943   972650 
 3342000    1.1415861   -3.2329137   -1.6860651   0.11063167   -3.2329137    1.5468487   972876 
 3343000    1.1422838   -3.2320209   -1.6845435   0.11348391   -3.2320209    1.5474774   973075 
 3344000    1.1426765   -3.2320083   -1.6843297   0.11312184   -3.2320083    1.5476786   973283 
 3345000    1.1435835   -3.2327144   -1.6841366   0.11211607   -3.2327144    1.5485777   973490 
 3346000    1.1432156   -3.2317166   -1.6839678   0.11583834   -3.2317166    1.5477488   973698 
 3347000    1.1433713   -3.2316838   -1.6840546    0.1122144   -3.2316838    1.5476291   973906 
 3348000    1.1447524    -3.233162   -1.6840437   0.11199459    -3.233162    1.5491183   974145 
 3349000    1.1444961   -3.2325909   -1.6841914   0.11485243   -3.2325909    1.5483996   974379 
 3350000     1.145249   -3.2328576   -1.6837891   0.11893292   -3.2328576    1.5490684   974599 
 3351000    1.1448725   -3.2316841   -1.6835093   0.11811436   -3.2316841    1.5481748   974841 
 3352000    1.1457689   -3.2322107   -1.6831575   0.11573848   -3.2322107    1.5490532   975051 
 3353000    1.1456422   -3.2309578   -1.6823587    0.1152194   -3.2309578    1.5485991   975229 
 3354000    1.1461431   -3.2305295   -1.6815677   0.11566661   -3.2305295    1.5489618   975427 
 3355000    1.1457905   -3.2302815   -1.6821359   0.11638383   -3.2302815    1.5481456   975641 
 3356000      1.14754   -3.2321214   -1.6819631   0.11170194   -3.2321214    1.5501583   975862 
 3357000    1.1472037   -3.2296136   -1.6802113   0.11631616   -3.2296136    1.5494023   976052 
 3358000    1.1481058    -3.229934   -1.6796612    0.1139702    -3.229934    1.5502728   976271 
 3359000    1.1477904   -3.2298726   -1.6803747   0.11376629   -3.2298726    1.5494979   976491 
 3360000     1.149018   -3.2310196   -1.6802125   0.11434868   -3.2310196    1.5508072   976710 
 3361000     1.147832   -3.2285574   -1.6796886   0.11929648   -3.2285574    1.5488688   976923 
 3362000    1.1489758   -3.2290199   -1.6789711   0.11863565   -3.2290199    1.5500488   977152 
 3363000    1.1500221   -3.2297461   -1.6785858   0.11607427   -3.2297461    1.5511603   977341 
 3364000    1.1508482   -3.2301309    -1.678204   0.11797243   -3.2301309    1.5519269   977560 
 3365000    1.1514887   -3.2290901    -1.676606   0.11631178   -3.2290901    1.5524841   977753 
 3366000    1.1505802   -3.2278909   -1.6769886   0.11634677   -3.2278909    1.5509023   977978 
 3367000     1.151744   -3.2293709   -1.6772444   0.11316829   -3.2293709    1.5521266   978195 
 3368000    1.1510849   -3.2272407   -1.6763781   0.11954273   -3.2272407    1.5508626   978432 
 3369000    1.1515796   -3.2274776   -1.6762829   0.11568127   -3.2274776    1.5511946   978643 
 3370000    1.1520541   -3.2272718   -1.6757567   0.11655542   -3.2272718    1.5515151   978844 
 3371000    1.1524814   -3.2276657   -1.6759032   0.11347623   -3.2276657    1.5517625   979051 
 3372000    1.1521732   -3.2266922   -1.6756615    0.1166453   -3.2266922    1.5510307   979251 
 3373000    1.1532072   -3.2280238   -1.6759531   0.11230569   -3.2280238    1.5520708   979473 
 3374000    1.1528107   -3.2268355   -1.6756658   0.11412849   -3.2268355    1.5511697   979705 
 3375000    1.1533539   -3.2270055   -1.6754422   0.11883004   -3.2270055    1.5515633   979918 
 3376000    1.1529425   -3.2265877    -1.675858   0.11375919   -3.2265877    1.5507296   980095 
 3377000    1.1540236   -3.2270072    -1.675167   0.11600171   -3.2270072    1.5518402   980312 
 3378000     1.154053   -3.2259881   -1.6744297   0.11312469   -3.2259881    1.5515585   980515 
 3379000    1.1541495   -3.2246672   -1.6733002   0.11667611   -3.2246672     1.551367   980718 
 3380000    1.1554253   -3.2261841   -1.6734632   0.11270536   -3.2261841    1.5527209   980946 
 3381000    1.1550222    -3.225771   -1.6738687   0.11768448    -3.225771    1.5519023   981121 
 3382000     1.156397   -3.2273435   -1.6738837   0.11795578   -3.2273435    1.5534598   981304 
 3383000    1.1569828    -3.227342   -1.6734484    0.1167642    -3.227342    1.5538935   981527 
 3384000    1.1563796   -3.2259905   -1.6732297   0.11885206   -3.2259905    1.5527608   981731 
 3385000    1.1565957   -3.2253974   -1.6726881   0.11727487   -3.2253974    1.5527093   981947 
 3386000    1.1578601   -3.2264018   -1.6722625   0.11657485   -3.2264018    1.5541393   982116 
 3387000    1.1575044   -3.2247287   -1.6714117   0.12050489   -3.2247287     1.553317   982334 
 3388000    1.1582519   -3.2254703   -1.6714634   0.11811871   -3.2254703    1.5540069   982532 
 3389000    1.1586609   -3.2258453   -1.6715838   0.11778453   -3.2258453    1.5542615   982718 
 3390000    1.1584622   -3.2251022   -1.6714314   0.12105792   -3.2251022    1.5536708   982923 
 3391000    1.1597649   -3.2264581   -1.6713297   0.11980151   -3.2264581    1.5551283   983106 
 3392000    1.1601437   -3.2262975   -1.6709523   0.12097197   -3.2262975    1.5553452   983290 
 3393000    1.1603338    -3.226391   -1.6711168   0.11870957    -3.226391    1.5552742   983496 
 3394000    1.1611828   -3.2268029    -1.670712   0.11977535   -3.2268029     1.556091   983699 
 3395000    1.1605299   -3.2263804   -1.6714853   0.12220732   -3.2263804    1.5548951   983902 
 3396000    1.1607831   -3.2257612   -1.6708475   0.12221804   -3.2257612    1.5549136   984105 
 3397000    1.1614475   -3.2256858   -1.6702047   0.11933671   -3.2256858    1.5554811   984309 
 3398000    1.1623473   -3.2258002   -1.6694365   0.11966015   -3.2258002    1.5563637   984513 
 3399000    1.1631655   -3.2262945   -1.6691706   0.12237556   -3.2262945    1.5571239   984725 
 3400000    1.1628952   -3.2264065   -1.6699796   0.12280438   -3.2264065    1.5564269   984937 
 3401000    1.1615472   -3.2250067    -1.670698   0.11881137   -3.2250067    1.5543087   985136 
 3402000    1.1641248    -3.227174   -1.6697275   0.12080383    -3.227174    1.5574465   985333 
 3403000    1.1639146    -3.226561   -1.6697323    0.1195477    -3.226561    1.5568287   985546 
 3404000    1.1637895   -3.2259689   -1.6696138   0.12025052   -3.2259689    1.5563551   985740 
 3405000    1.1630481   -3.2240983   -1.6690613    0.1236438   -3.2240983     1.555037   985947 
 3406000    1.1633473   -3.2244839   -1.6693355   0.11611496   -3.2244839    1.5551485   986130 
 3407000    1.1638995    -3.225197   -1.6696164   0.12184341    -3.225197    1.5555806   986324 
 3408000    1.1640096   -3.2258932   -1.6704698   0.11609311   -3.2258932    1.5554233   986517 
 3409000    1.1640751   -3.2247441   -1.6695359   0.11814779   -3.2247441    1.5552082   986709 
 3410000    1.1648947   -3.2248128    -1.668792    0.1210784   -3.2248128    1.5560208   986888 
 3411000    1.1649483   -3.2233186   -1.6675539   0.12070182   -3.2233186    1.5557647   987096 
 3412000    1.1655332   -3.2238167   -1.6675437   0.12344378   -3.2238167     1.556273   987269 
 3413000    1.1661245   -3.2238924   -1.6671594    0.1203216   -3.2238924    1.5567329   987478 
 3414000    1.1666801   -3.2246443   -1.6674913   0.11957107   -3.2246443     1.557153   987682 
 3415000    1.1669961   -3.2239355   -1.6666808   0.12020965   -3.2239355    1.5572547   987885 
 3416000    1.1678474   -3.2236401   -1.6655854   0.12211774   -3.2236401    1.5580547   988098 
 3417000    1.1687929   -3.2245226   -1.6655267   0.12478506   -3.2245226    1.5589959   988301 
 3418000    1.1690366   -3.2240795   -1.6650742   0.12007042   -3.2240795    1.5590054   988501 
 3419000    1.1691217   -3.2241415   -1.6653144   0.12022437   -3.2241415    1.5588272   988686 
 3420000    1.1695725   -3.2237744   -1.6646394    0.1226588   -3.2237744    1.5591349   988872 
 3421000    1.1697858   -3.2238525   -1.6647313   0.12020139   -3.2238525    1.5591212   989061 
 3422000    1.1699685   -3.2234232   -1.6644161    0.1204567   -3.2234232     1.559007   989288 
 3423000    1.1702336   -3.2231619   -1.6640917   0.12265882   -3.2231619    1.5590702   989472 
 3424000    1.1698424   -3.2230017   -1.6647881   0.12318653   -3.2230017    1.5582136   989685 
 3425000    1.1699334   -3.2221312   -1.6640844   0.12398683   -3.2221312    1.5580468   989868 
 3426000     1.171386   -3.2230305   -1.6633864   0.11940493   -3.2230305     1.559644   990082 
 3427000    1.1705245   -3.2225345   -1.6643114   0.12363379   -3.2225345    1.5582231   990256 
 3428000     1.172495   -3.2238708   -1.6633396   0.11726973   -3.2238708    1.5605312   990456 
 3429000     1.171637   -3.2217344    -1.662619   0.12381664   -3.2217344    1.5591153   990630 
 3430000    1.1727364   -3.2230394   -1.6627226   0.12501089   -3.2230394    1.5603169   990796 
 3431000    1.1736198   -3.2233899   -1.6621829   0.12413934   -3.2233899     1.561207   990977 
 3432000    1.1738329   -3.2238089   -1.6626241   0.12610479   -3.2238089    1.5611848   991171 
 3433000    1.1738248   -3.2225823   -1.6616917   0.12483158   -3.2225823    1.5608906   991351 
 3434000    1.1748912   -3.2238036    -1.661807   0.12350968   -3.2238036    1.5619966   991549 
 3435000    1.1740786   -3.2217705   -1.6611108   0.12391431   -3.2217705    1.5606597   991712 
 3436000    1.1744222   -3.2215657   -1.6607278   0.12647079   -3.2215657    1.5608379   991889 
 3437000    1.1740622   -3.2213263   -1.6612877    0.1255141   -3.2213263    1.5600386   992093 
 3438000    1.1759088   -3.2234644   -1.6612351   0.12503175   -3.2234644    1.5622293   992260 
 3439000    1.1768183   -3.2234796   -1.6603523   0.12660537   -3.2234796    1.5631272   992457 
 3440000    1.1763326   -3.2226776   -1.6604882   0.12380287   -3.2226776    1.5621894   992643 
 3441000    1.1765676   -3.2222231   -1.6600223   0.12380687   -3.2222231    1.5622008   992834 
 3442000    1.1765198   -3.2221455   -1.6602692   0.12567066   -3.2221455    1.5618763   993000 
 3443000    1.1763913   -3.2214283   -1.6600497   0.12557242   -3.2214283    1.5613785   993208 
 3444000    1.1762424   -3.2222621   -1.6613719   0.12585928   -3.2222621    1.5608902   993393 
 3445000    1.1745612   -3.2194461   -1.6610645   0.12486222   -3.2194461    1.5583816   993570 
 3446000    1.1755062   -3.2199568   -1.6605913   0.12613305   -3.2199568    1.5593655   993742 
 3447000    1.1767731   -3.2221555   -1.6613891   0.11904945   -3.2221555    1.5607665   993920 
 3448000    1.1768564   -3.2222335   -1.6616533   0.12081275   -3.2222335    1.5605802   994109 
 3449000    1.1765848   -3.2224114    -1.662469   0.12322355   -3.2224114    1.5599424   994286 
 3450000    1.1780194   -3.2234472   -1.6619232   0.12487851   -3.2234472    1.5615239   994490 
 3451000    1.1776205   -3.2217364     -1.66103   0.12585893   -3.2217364    1.5607064   994674 
 3452000    1.1783006     -3.22234   -1.6610383   0.12163787     -3.22234    1.5613016   994869 
 3453000    1.1790533   -3.2225987   -1.6605744    0.1206888   -3.2225987    1.5620243   995044 
 3454000    1.1784581   -3.2213541   -1.6604211    0.1286085   -3.2213541     1.560933   995237 
 3455000    1.1797404   -3.2219972   -1.6596231   0.12608457   -3.2219972     1.562374   995401 
 3456000    1.1804964    -3.222708   -1.6596107   0.12620277    -3.222708    1.5630973   995578 
 3457000    1.1811158   -3.2227037   -1.6590988   0.13120206   -3.2227037    1.5636048   995777 
 3458000     1.182346   -3.2240166   -1.6591053   0.12405189   -3.2240166    1.5649113   995982 
 3459000    1.1811113   -3.2222206   -1.6592777   0.12917665   -3.2222206    1.5629429   996195 
 3460000     1.182609   -3.2229658   -1.6583599   0.12448598   -3.2229658    1.5646059   996398 
 3461000    1.1825829   -3.2228966   -1.6585812   0.12666371   -3.2228966    1.5643154   996561 
 3462000    1.1826254    -3.222368   -1.6582631   0.12739255    -3.222368    1.5641049   996731 
 3463000    1.1836474   -3.2230056   -1.6578506   0.12538114   -3.2230056     1.565155   996923 
 3464000    1.1836177   -3.2237285   -1.6588968   0.12528996   -3.2237285    1.5648317   997104 
 3465000     1.182976   -3.2215025   -1.6577984   0.12787219   -3.2215025    1.5637041   997282 
 3466000    1.1843116   -3.2229877   -1.6577817   0.12965214   -3.2229877     1.565206   997450 
 3467000    1.1844849   -3.2228724   -1.6577011   0.12883851   -3.2228724    1.5651714   997618 
 3468000    1.1834839   -3.2216073   -1.6580565   0.13022785   -3.2216073    1.5635508   997808 
 3469000    1.1837059   -3.2220798   -1.6585068   0.13043467   -3.2220798     1.563573   997981 
 3470000    1.1836913   -3.2215801   -1.6582989   0.12717018   -3.2215801    1.5632812   998155 
 3471000    1.1851047   -3.2227346   -1.6578689   0.12990792   -3.2227346    1.5648657   998335 
 3472000    1.1854405   -3.2227859   -1.6577605   0.12692704   -3.2227859    1.5650253   998516 
 3473000    1.1858668   -3.2223194    -1.657015   0.13166935   -3.2223194    1.5653044   998697 
 3474000    1.1862754   -3.2226475   -1.6570907   0.12776708   -3.2226475    1.5655568   998880 
 3475000     1.186884   -3.2235747   -1.6574828   0.12767758   -3.2235747    1.5660919   999051 
 3476000    1.1873718   -3.2238642   -1.6574062   0.12914637   -3.2238642    1.5664581   999228 
 3477000    1.1876935    -3.222592    -1.655995   0.12899735    -3.222592    1.5665971   999410 
 3478000    1.1870182   -3.2216106   -1.6561737   0.13238016   -3.2216106     1.565437   999582 
 3479000    1.1875627   -3.2223394   -1.6564443   0.12938045   -3.2223394     1.565895   999748 
 3480000    1.1885623    -3.223144   -1.6561911   0.13137625    -3.223144    1.5669529   999914 
 3481000    1.1887406   -3.2227545   -1.6558424   0.12761516   -3.2227545    1.5669121  1000090 
 3482000    1.1885552   -3.2220207    -1.655638   0.13323745   -3.2220207    1.5663827  1000272 
 3483000    1.1896158   -3.2227885   -1.6552681   0.12895105   -3.2227885    1.5675203  1000438 
 3484000     1.189211   -3.2217872   -1.6551182    0.1326419   -3.2217872     1.566669  1000641 
 3485000    1.1900895   -3.2228347   -1.6552919   0.12946519   -3.2228347    1.5675428  1000822 
 3486000    1.1896466   -3.2220738   -1.6553569    0.1288506   -3.2220738    1.5667168  1000977 
 3487000    1.1902311   -3.2216874   -1.6544656   0.13122835   -3.2216874    1.5672219  1001146 
 3488000    1.1911483    -3.221859   -1.6536816   0.12808479    -3.221859    1.5681775  1001307 
 3489000    1.1909334   -3.2213474   -1.6537331    0.1340427   -3.2213474    1.5676143  1001486 
 3490000    1.1922324   -3.2225277   -1.6534856   0.12867769   -3.2225277    1.5690422  1001666 
 3491000    1.1919734   -3.2208495   -1.6524128   0.13013431   -3.2208495    1.5684367  1001835 
 3492000    1.1925328   -3.2211173   -1.6522468   0.13079853   -3.2211173    1.5688705  1002028 
 3493000    1.1921133     -3.22134   -1.6533109   0.13208063     -3.22134    1.5680291  1002213 
 3494000    1.1925836   -3.2205932   -1.6522178   0.12761144   -3.2205932    1.5683754  1002387 
 3495000    1.1935618   -3.2213316   -1.6519453   0.12752169   -3.2213316    1.5693864  1002563 
 3496000    1.1933026   -3.2215932   -1.6527902   0.13000335   -3.2215932     1.568803  1002718 
 3497000    1.1929022   -3.2205584   -1.6525837   0.13020325   -3.2205584    1.5679748  1002911 
 3498000    1.1933898   -3.2208879   -1.6525568   0.12931048   -3.2208879    1.5683311  1003093 
 3499000    1.1927325   -3.2196342     -1.65247   0.13249105   -3.2196342    1.5671642  1003287 
 3500000      1.19466   -3.2210644   -1.6516555     0.129322   -3.2210644    1.5694089  1003471 
 3501000     1.196129   -3.2216677   -1.6506311   0.13133083   -3.2216677    1.5710366  1003664 
 3502000     1.195393    -3.220386   -1.6506008   0.13382763    -3.220386    1.5697852  1003846 
 3503000    1.1956253   -3.2207571   -1.6509577   0.12946166   -3.2207571    1.5697994  1004032 
 3504000    1.1955876   -3.2197612   -1.6502817   0.13289025   -3.2197612    1.5694795  1004205 
 3505000    1.1969102   -3.2216483   -1.6507251    0.1307846   -3.2216483    1.5709232  1004392 
 3506000    1.1968824   -3.2206392   -1.6500309   0.12971291   -3.2206392    1.5706083  1004570 
 3507000    1.1959784   -3.2199739   -1.6508079    0.1316698   -3.2199739    1.5691659  1004734 
 3508000    1.1967729    -3.220285    -1.650369   0.12996318    -3.220285    1.5699161  1004921 
 3509000    1.1969752   -3.2201512   -1.6502447   0.13066544   -3.2201512    1.5699066  1005097 
 3510000    1.1977153   -3.2206897   -1.6500485   0.13428605   -3.2206897    1.5706412  1005248 
 3511000    1.1970268   -3.2193941   -1.6499461   0.13301328   -3.2193941     1.569448  1005434 
 3512000    1.1977472   -3.2194882    -1.649372   0.13341941   -3.2194882    1.5701162  1005611 
 3513000    1.1974404   -3.2184915   -1.6490304   0.13445476   -3.2184915    1.5694611  1005773 
 3514000    1.1990763   -3.2208505   -1.6495234   0.13144984   -3.2208505    1.5713271  1005951 
 3515000     1.199576   -3.2209631   -1.6492592   0.13480122   -3.2209631    1.5717038  1006129 
 3516000    1.1994174   -3.2207528   -1.6494863   0.13450674   -3.2207528    1.5712665  1006276 
 3517000    1.1999607   -3.2207416   -1.6490413    0.1312202   -3.2207416    1.5717003  1006454 
 3518000    1.2012812   -3.2226388   -1.6494888   0.13388704   -3.2226388      1.57315  1006633 
 3519000    1.2006988   -3.2208517     -1.64873   0.13438112   -3.2208517    1.5721218  1006803 
 3520000     1.201301   -3.2213024   -1.6486483   0.13543856   -3.2213024    1.5726541  1006967 
 3521000    1.2019068   -3.2206132   -1.6474457   0.13502212   -3.2206132    1.5731675  1007146 
 3522000     1.201348   -3.2195016   -1.6473074   0.13475209   -3.2195016    1.5721942  1007301 
 3523000     1.203076   -3.2214903   -1.6472815   0.13213035   -3.2214903    1.5742087  1007459 
 3524000    1.2020428   -3.2204974   -1.6478934   0.13847434   -3.2204974    1.5726039  1007621 
 3525000    1.2032887   -3.2208755   -1.6468712    0.1344607   -3.2208755    1.5740042  1007768 
 3526000    1.2033775   -3.2209562   -1.6471232   0.13290276   -3.2209562    1.5738331  1007952 
 3527000    1.2026403   -3.2192412   -1.6466438   0.13564509   -3.2192412    1.5725974  1008126 
 3528000    1.2040684    -3.220841   -1.6466666   0.13314397    -3.220841    1.5741744  1008312 
 3529000    1.2038868   -3.2197206   -1.6460536   0.13572895   -3.2197206     1.573667  1008485 
 3530000    1.2040672   -3.2189678   -1.6453084   0.13659928   -3.2189678    1.5736594  1008641 
 3531000    1.2038793   -3.2189999   -1.6458387   0.13448347   -3.2189999    1.5731612  1008803 
 3532000     1.205292   -3.2200665   -1.6452998   0.13638634   -3.2200665    1.5747668  1008957 
 3533000    1.2052128   -3.2189215    -1.644539   0.13398707   -3.2189215    1.5743825  1009137 
 3534000    1.2061287   -3.2196968   -1.6443521   0.13369929   -3.2196968    1.5753447  1009287 
 3535000    1.2057558   -3.2192765   -1.6446512   0.13424364   -3.2192765    1.5746253  1009436 
 3536000    1.2050952   -3.2188462   -1.6453284   0.13439856   -3.2188462    1.5735178  1009593 
 3537000     1.205785    -3.218855    -1.644672   0.13612185    -3.218855     1.574183  1009744 
 3538000    1.2060372   -3.2187069   -1.6444238   0.13849296   -3.2187069    1.5742831  1009891 
 3539000    1.2057099   -3.2175939   -1.6439672   0.13208036   -3.2175939    1.5736267  1010038 
 3540000    1.2065398   -3.2188388   -1.6444094   0.13437509   -3.2188388    1.5744294  1010218 
 3541000    1.2067988    -3.218758   -1.6442354   0.13819574    -3.218758    1.5745226  1010375 
 3542000    1.2063796   -3.2187692   -1.6450272   0.13236065   -3.2187692     1.573742  1010525 
 3543000    1.2069372   -3.2186023   -1.6443883   0.13628934   -3.2186023    1.5742139  1010689 
 3544000    1.2073991    -3.219189    -1.644639   0.13441912    -3.219189      1.57455  1010860 
 3545000    1.2074456   -3.2190221   -1.6446996    0.1382011   -3.2190221    1.5743225  1011045 
 3546000    1.2084268   -3.2190955   -1.6437616   0.14012283   -3.2190955    1.5753339  1011217 
 3547000    1.2091165   -3.2196793   -1.6437128   0.13899445   -3.2196793    1.5759665  1011388 
 3548000    1.2089533   -3.2199944   -1.6445149   0.13541191   -3.2199944    1.5754796  1011564 
 3549000    1.2083026   -3.2193893   -1.6450456    0.1371443   -3.2193893    1.5743437  1011749 
 3550000    1.2089743   -3.2194398   -1.6444699   0.13342135   -3.2194398    1.5749699  1011909 
 3551000    1.2088356   -3.2195814   -1.6450568   0.13309719   -3.2195814    1.5745246  1012079 
 3552000    1.2097236   -3.2201317   -1.6447586   0.13586223   -3.2201317    1.5753731  1012277 
 3553000    1.2093618    -3.219407   -1.6447805   0.13628047    -3.219407    1.5746265  1012454 
 3554000    1.2091186   -3.2191253   -1.6451046   0.14320745   -3.2191253    1.5740207  1012640 
 3555000    1.2090899   -3.2194271   -1.6457094   0.13684411   -3.2194271    1.5737177  1012811 
 3556000    1.2090441   -3.2187007   -1.6452556   0.13700099   -3.2187007    1.5734452  1012948 
 3557000    1.2117257   -3.2218003   -1.6450801   0.13622713   -3.2218003    1.5767201  1013086 
 3558000    1.2116151   -3.2207732   -1.6444629   0.14013569   -3.2207732    1.5763103  1013257 
 3559000    1.2123308    -3.220757   -1.6437522    0.1377841    -3.220757    1.5770048  1013409 
 3560000    1.2142452   -3.2230383     -1.64383   0.13386129   -3.2230383    1.5792083  1013593 
 3561000    1.2137453   -3.2225363   -1.6442101   0.14302409   -3.2225363    1.5783262  1013742 
 3562000    1.2130984   -3.2215447   -1.6442933   0.14164697   -3.2215447    1.5772515  1013892 
 3563000    1.2140788   -3.2228141    -1.644554   0.14296344   -3.2228141    1.5782601  1014063 
 3564000    1.2147691    -3.223013   -1.6440767   0.13641838    -3.223013    1.5789363  1014205 
 3565000    1.2141823   -3.2216769   -1.6437989   0.13969792   -3.2216769    1.5778781  1014395 
 3566000    1.2150173   -3.2227612   -1.6440829   0.14379767   -3.2227612    1.5786783  1014578 
 3567000    1.2164958   -3.2236063   -1.6432966   0.14265545   -3.2236063    1.5803097  1014764 
 3568000    1.2155089   -3.2226384   -1.6438644   0.14403242   -3.2226384     1.578774  1014927 
 3569000     1.215926    -3.222266   -1.6431915   0.13883576    -3.222266    1.5790746  1015082 
 3570000    1.2164264   -3.2228785   -1.6434357    0.1461873   -3.2228785    1.5794428  1015263 
 3571000    1.2166672   -3.2239199    -1.644418   0.13984364   -3.2239199    1.5795019  1015426 
 3572000    1.2151415   -3.2218357   -1.6445831   0.14074598   -3.2218357    1.5772525  1015599 
 3573000    1.2156079   -3.2225569   -1.6449492   0.13590017   -3.2225569    1.5776077  1015760 
 3574000    1.2159079   -3.2233942    -1.645641   0.13919416   -3.2233942    1.5777532  1015917 
 3575000    1.2159056   -3.2226734   -1.6451684   0.13959948   -3.2226734    1.5775049  1016075 
 3576000    1.2163261   -3.2229762   -1.6451788   0.13664581   -3.2229762    1.5777974  1016238 
 3577000    1.2164936   -3.2219921   -1.6442616   0.14116862   -3.2219921    1.5777305  1016421 
 3578000    1.2178952   -3.2237314   -1.6444099   0.13896175   -3.2237314    1.5793215  1016567 
 3579000    1.2173852   -3.2221159   -1.6437259   0.14081224   -3.2221159      1.57839  1016741 
 3580000    1.2171005   -3.2217838   -1.6440174   0.14108964   -3.2217838    1.5777664  1016905 
 3581000    1.2177323   -3.2212176   -1.6428729   0.14441284   -3.2212176    1.5783448  1017060 
 3582000     1.218701     -3.22233   -1.6430123   0.14404529     -3.22233    1.5793177  1017242 
 3583000    1.2200985   -3.2238706   -1.6429936    0.1397799   -3.2238706     1.580877  1017404 
 3584000    1.2207863   -3.2236129   -1.6420795   0.14090053   -3.2236129    1.5815334  1017555 
 3585000    1.2200802   -3.2221494   -1.6417528   0.13982436   -3.2221494    1.5803966  1017698 
 3586000    1.2208571   -3.2220786   -1.6409289   0.14150566   -3.2220786    1.5811497  1017861 
 3587000    1.2215644   -3.2222057   -1.6403623   0.14383162   -3.2222057    1.5818434  1018004 
 3588000    1.2213611   -3.2220356   -1.6406885   0.14300539   -3.2220356    1.5813472  1018154 
 3589000    1.2207972   -3.2216045   -1.6412404   0.14235021   -3.2216045    1.5803641  1018317 
 3590000    1.2222196   -3.2223312   -1.6403836   0.13890159   -3.2223312    1.5819476  1018483 
 3591000    1.2217458   -3.2217191   -1.6406191   0.14470293   -3.2217191       1.5811  1018634 
 3592000    1.2225778   -3.2223426   -1.6404238   0.14154883   -3.2223426    1.5819188  1018800 
 3593000    1.2224561     -3.22281   -1.6412798   0.13955497     -3.22281    1.5815301  1018949 
 3594000     1.222829   -3.2227477   -1.6409448   0.14290024   -3.2227477    1.5818029  1019084 
 3595000    1.2230338   -3.2226814   -1.6408728   0.14038118   -3.2226814    1.5818086  1019251 
 3596000    1.2235328   -3.2232248   -1.6409804   0.14115831   -3.2232248    1.5822444  1019386 
 3597000    1.2228238   -3.2222609   -1.6411846   0.14225256   -3.2222609    1.5810763  1019548 
 3598000    1.2232965    -3.221783   -1.6403313   0.14145437    -3.221783    1.5814517  1019700 
 3599000    1.2240191   -3.2225245     -1.64039   0.14382105   -3.2225245    1.5821345  1019862 
 3600000    1.2249851    -3.223503   -1.6403854   0.14274344    -3.223503    1.5831177  1020033 
 3601000    1.2247963     -3.22236   -1.6397469   0.14147678     -3.22236    1.5826131  1020201 
 3602000    1.2244356   -3.2219327   -1.6400323   0.13992205   -3.2219327    1.5819004  1020360 
 3603000    1.2256286   -3.2219014   -1.6387188   0.14438838   -3.2219014    1.5831827  1020527 
 3604000     1.227243   -3.2231168   -1.6380833   0.14433506   -3.2231168    1.5850335  1020678 
 3605000    1.2269163   -3.2223571   -1.6379892   0.14175085   -3.2223571    1.5843678  1020835 
 3606000    1.2271852   -3.2225726   -1.6380997   0.14688455   -3.2225726    1.5844729  1020991 
 3607000    1.2266786   -3.2224981   -1.6389025   0.14582087   -3.2224981    1.5835955  1021135 
 3608000     1.227836   -3.2232807   -1.6384472   0.14594502   -3.2232807    1.5848335  1021300 
 3609000    1.2272556   -3.2223569    -1.638516   0.14819628   -3.2223569    1.5838409  1021457 
 3610000    1.2288889   -3.2245051   -1.6388156   0.14086243   -3.2245051    1.5856895  1021624 
 3611000    1.2293145   -3.2240611   -1.6380521   0.14521075   -3.2240611     1.586009  1021772 
 3612000    1.2292473   -3.2238823   -1.6381975   0.14368117   -3.2238823    1.5856849  1021925 
 3613000    1.2294152   -3.2245419   -1.6388671   0.14355141   -3.2245419    1.5856748  1022071 
 3614000    1.2283625   -3.2231424   -1.6390268   0.14762198   -3.2231424    1.5841156  1022201 
 3615000    1.2294715   -3.2245474   -1.6392808   0.14165373   -3.2245474    1.5852666  1022381 
 3616000    1.2289301    -3.223631   -1.6393522   0.14302897    -3.223631    1.5842788  1022568 
 3617000    1.2293991   -3.2238662   -1.6392231   0.14233126   -3.2238662    1.5846432  1022723 
 3618000    1.2295474   -3.2238544    -1.639254   0.14209117   -3.2238544    1.5846004  1022874 
 3619000    1.2286666   -3.2233983   -1.6401792   0.14743699   -3.2233983    1.5832191  1023033 
 3620000    1.2293061   -3.2230636   -1.6392387   0.14503365   -3.2230636    1.5838249  1023174 
 3621000    1.2303441     -3.22369   -1.6387508     0.144417     -3.22369    1.5849392  1023318 
 3622000    1.2312244    -3.223907   -1.6380972   0.14498372    -3.223907    1.5858097  1023488 
 3623000    1.2297393   -3.2218894   -1.6382261   0.14715083   -3.2218894    1.5836633  1023639 
 3624000    1.2317145   -3.2238111   -1.6378536   0.14451689   -3.2238111    1.5859575  1023800 
 3625000    1.2325612   -3.2242069   -1.6374289   0.14579748   -3.2242069     1.586778  1023974 
 3626000    1.2313475    -3.222864   -1.6378682   0.14812233    -3.222864    1.5849958  1024116 
 3627000    1.2322187   -3.2244118   -1.6385036   0.14473729   -3.2244118    1.5859081  1024251 
 3628000    1.2342244   -3.2258573   -1.6375849   0.14821452   -3.2258573    1.5882724  1024391 
 3629000    1.2333216   -3.2248228   -1.6379475   0.15021996   -3.2248228    1.5868752  1024543 
 3630000    1.2337462   -3.2242555   -1.6370911   0.14971173   -3.2242555    1.5871644  1024709 
 3631000    1.2341919   -3.2243881   -1.6368827   0.14902909   -3.2243881    1.5875054  1024859 
 3632000    1.2342554   -3.2242064   -1.6368547   0.14843581   -3.2242064    1.5873517  1025011 
 3633000    1.2352019   -3.2241892   -1.6358745   0.14961109   -3.2241892    1.5883148  1025175 
 3634000    1.2350912   -3.2241942   -1.6362572   0.14823996   -3.2241942     1.587937  1025327 
 3635000    1.2360474   -3.2243935    -1.635472   0.15187714   -3.2243935    1.5889215  1025485 
 3636000    1.2359846   -3.2245313   -1.6359199   0.14838291   -3.2245313    1.5886114  1025633 
 3637000    1.2353736   -3.2236156   -1.6359984   0.14772862   -3.2236156    1.5876172  1025768 
 3638000    1.2362009   -3.2242315   -1.6357602   0.15524731   -3.2242315    1.5884713  1025903 
 3639000    1.2349934   -3.2235922   -1.6368967   0.14797784   -3.2235922    1.5866955  1026048 
 3640000    1.2365337   -3.2255449   -1.6371274   0.14925218   -3.2255449    1.5884175  1026214 
 3641000    1.2361292   -3.2248491   -1.6371447   0.14806558   -3.2248491    1.5877044  1026339 
 3642000    1.2366365   -3.2250448   -1.6369147   0.14810015   -3.2250448    1.5881301  1026485 
 3643000    1.2360105   -3.2238856   -1.6367542   0.14884521   -3.2238856    1.5871314  1026611 
 3644000    1.2368166   -3.2245214   -1.6365947   0.14792231   -3.2245214    1.5879268  1026766 
 3645000    1.2378063   -3.2251439   -1.6361818   0.15244789   -3.2251439    1.5889622  1026918 
 3646000    1.2395753   -3.2264505   -1.6353987   0.15003055   -3.2264505    1.5910518  1027035 
 3647000    1.2376654   -3.2242834   -1.6358935   0.15058589   -3.2242834      1.58839  1027171 
 3648000    1.2379678   -3.2248437   -1.6363039   0.14695842   -3.2248437    1.5885398  1027325 
 3649000    1.2371516   -3.2240565   -1.6367602   0.15008892   -3.2240565    1.5872963  1027452 
 3650000    1.2387637   -3.2251844   -1.6360363     0.152165   -3.2251844    1.5891481  1027592 
 3651000    1.2391056   -3.2248357   -1.6354825   0.15212786   -3.2248357    1.5893532  1027743 
 3652000     1.238756   -3.2249195   -1.6362095   0.14796109   -3.2249195    1.5887099  1027869 
 3653000    1.2394935   -3.2250141   -1.6355561   0.14771105   -3.2250141     1.589458  1027997 
 3654000    1.2395167    -3.223918   -1.6346438   0.15041556    -3.223918    1.5892743  1028135 
 3655000     1.239449   -3.2242289   -1.6352871   0.15082718   -3.2242289    1.5889418  1028294 
 3656000    1.2391396   -3.2240598   -1.6357015   0.15039161   -3.2240598    1.5883583  1028415 
 3657000    1.2394501    -3.224468   -1.6359311   0.14662859    -3.224468    1.5885369  1028557 
 3658000    1.2400478   -3.2244627   -1.6353821    0.1522216   -3.2244627    1.5890805  1028701 
 3659000    1.2406746   -3.2257882   -1.6361239   0.15080065   -3.2257882    1.5896643  1028843 
 3660000    1.2394713   -3.2240299   -1.6361235   0.15137145   -3.2240299    1.5879064  1028983 
 3661000    1.2410754   -3.2254314   -1.6356893   0.14984437   -3.2254314    1.5897421  1029125 
 3662000    1.2404794   -3.2251672   -1.6363924   0.14860187   -3.2251672    1.5887748  1029257 
 3663000    1.2403916   -3.2245771   -1.6361493   0.15453595   -3.2245771    1.5884278  1029409 
 3664000    1.2411953   -3.2254333   -1.6361801   0.14865035   -3.2254333    1.5892532  1029541 
 3665000    1.2412827   -3.2257047   -1.6365633   0.15068481   -3.2257047    1.5891414  1029686 
 3666000    1.2415504   -3.2261875   -1.6369333   0.15083157   -3.2261875    1.5892541  1029835 
 3667000    1.2420909   -3.2259152   -1.6361993   0.15234999   -3.2259152    1.5897159  1029984 
 3668000    1.2426378   -3.2262353   -1.6360479   0.15035084   -3.2262353    1.5901874  1030132 
 3669000    1.2429125   -3.2258224   -1.6355119   0.14556287   -3.2258224    1.5903105  1030280 
 3670000      1.24312   -3.2258112   -1.6354406   0.15459877   -3.2258112    1.5903706  1030413 
 3671000    1.2439376   -3.2269984   -1.6357979   0.15178054   -3.2269984    1.5912005  1030553 
 3672000    1.2432981   -3.2264094   -1.6362524   0.14957885   -3.2264094    1.5901571  1030699 
 3673000    1.2446505   -3.2268573   -1.6351836    0.1528757   -3.2268573    1.5916737  1030837 
 3674000    1.2443511   -3.2260795   -1.6350016   0.15418521   -3.2260795    1.5910779  1030975 
 3675000    1.2441894   -3.2257155   -1.6350557   0.15620024   -3.2257155    1.5906598  1031112 
 3676000    1.2445152   -3.2275486   -1.6367131    0.1525526   -3.2275486    1.5908356  1031268 
 3677000     1.244685   -3.2273383   -1.6365078   0.15110792   -3.2273383    1.5908305  1031412 
 3678000     1.245094   -3.2269894   -1.6358352   0.15219277   -3.2269894    1.5911542  1031541 
 3679000    1.2466503   -3.2286866   -1.6357952   0.14969774   -3.2286866    1.5928914  1031704 
 3680000    1.2456942   -3.2275748   -1.6361319   0.15158122   -3.2275748     1.591443  1031851 
 3681000    1.2458357    -3.227573   -1.6361512   0.15264098    -3.227573    1.5914218  1031982 
 3682000    1.2449898    -3.226946   -1.6368453   0.15103259    -3.226946    1.5901007  1032138 
 3683000    1.2459204   -3.2290812    -1.638003   0.15088525   -3.2290812    1.5910782  1032275 
 3684000    1.2453823   -3.2269613   -1.6367968   0.15254592   -3.2269613    1.5901645  1032422 
 3685000    1.2472823   -3.2282074   -1.6358389   0.15375753   -3.2282074    1.5923685  1032566 
 3686000    1.2478659   -3.2288498   -1.6359538   0.15311724   -3.2288498    1.5928959  1032707 
 3687000    1.2478014   -3.2281064   -1.6355302   0.15298434   -3.2281064    1.5925762  1032861 
 3688000    1.2467762      -3.2272    -1.636151   0.15348671      -3.2272    1.5910489  1033003 
 3689000    1.2463695   -3.2266321   -1.6363361   0.15651197   -3.2266321     1.590296  1033155 
 3690000    1.2479775    -3.227546    -1.635414   0.15428816    -3.227546     1.592132  1033295 
 3691000    1.2482289   -3.2287391   -1.6365161    0.1538367   -3.2287391    1.5922231  1033444 
 3692000    1.2483944   -3.2291168   -1.6368767   0.15272743   -3.2291168    1.5922401  1033570 
 3693000     1.248263   -3.2282381    -1.636392    0.1529093   -3.2282381    1.5918461  1033717 
 3694000    1.2480832   -3.2278308   -1.6364311   0.15984631   -3.2278308    1.5913997  1033858 
 3695000    1.2485625   -3.2286744   -1.6368715    0.1546802   -3.2286744    1.5918029  1033993 
 3696000    1.2490542   -3.2291086   -1.6368481   0.15411776   -3.2291086    1.5922604  1034103 
 3697000    1.2491129   -3.2286444   -1.6364846   0.15363473   -3.2286444    1.5921598  1034217 
 3698000    1.2495935   -3.2296169   -1.6370678   0.15190095   -3.2296169    1.5925491  1034362 
 3699000    1.2497228   -3.2295355   -1.6370202   0.15221246   -3.2295355    1.5925152  1034491 
 3700000    1.2497348   -3.2293842   -1.6370584   0.15285756   -3.2293842    1.5923258  1034624 
 3701000    1.2494579   -3.2290666   -1.6373013   0.15271682   -3.2290666    1.5917653  1034759 
 3702000    1.2511282   -3.2304026   -1.6367142   0.15062382   -3.2304026    1.5936883  1034892 
 3703000    1.2509868   -3.2302112   -1.6369046   0.15654658   -3.2302112    1.5933065  1035023 
 3704000    1.2505774   -3.2293008   -1.6366987   0.15621517   -3.2293008    1.5926021  1035142 
 3705000    1.2515748   -3.2304369   -1.6367587   0.15717717   -3.2304369    1.5936782  1035268 
 3706000     1.251301   -3.2299282   -1.6368218   0.15609626   -3.2299282    1.5931064  1035413 
 3707000    1.2517908    -3.230665   -1.6371243   0.15457528    -3.230665    1.5935407  1035536 
 3708000     1.251533   -3.2294505   -1.6364379   0.15563057   -3.2294505    1.5930125  1035666 
 3709000    1.2524526   -3.2301775   -1.6361621   0.15868744   -3.2301775    1.5940154  1035775 
 3710000    1.2531351    -3.230392   -1.6357221   0.15790141    -3.230392    1.5946699  1035914 
 3711000    1.2524684   -3.2294059   -1.6358043   0.16097396   -3.2294059    1.5936016  1036057 
 3712000    1.2548108   -3.2319815   -1.6356014   0.15538995   -3.2319815    1.5963801  1036188 
 3713000    1.2545367   -3.2313236   -1.6354816   0.15776593   -3.2313236     1.595842  1036311 
 3714000    1.2544175   -3.2316976   -1.6362044   0.15488634   -3.2316976    1.5954932  1036439 
 3715000    1.2536525   -3.2300449   -1.6357431   0.16025332   -3.2300449    1.5943019  1036581 
 3716000    1.2543286   -3.2303988    -1.635448   0.15624101   -3.2303988    1.5949508  1036718 
 3717000    1.2541073   -3.2301572   -1.6357062    0.1583861   -3.2301572    1.5944511  1036860 
 3718000    1.2538231   -3.2301049   -1.6362211   0.15801018   -3.2301049    1.5938838  1036994 
 3719000    1.2543507   -3.2304507   -1.6361022   0.15960554   -3.2304507    1.5943485  1037128 
 3720000     1.254415   -3.2302443   -1.6360339   0.15998951   -3.2302443    1.5942104  1037271 
 3721000    1.2549153   -3.2304107   -1.6357428   0.15325646   -3.2304107    1.5946679  1037387 
 3722000    1.2549383    -3.230797    -1.636289   0.16069631    -3.230797     1.594508  1037510 
 3723000     1.255445   -3.2313676   -1.6364218    0.1573774   -3.2313676    1.5949458  1037644 
 3724000    1.2559711   -3.2318055   -1.6363651   0.15298537   -3.2318055    1.5954404  1037757 
 3725000    1.2552389   -3.2307622   -1.6364469    0.1519039   -3.2307622    1.5943153  1037884 
 3726000    1.2556186   -3.2301131   -1.6354892   0.15969926   -3.2301131    1.5946239  1037997 
 3727000    1.2553564   -3.2297897   -1.6357077   0.15598918   -3.2297897     1.594082  1038133 
 3728000    1.2558762   -3.2299923   -1.6354453   0.15720133   -3.2299923     1.594547  1038260 
 3729000    1.2572895   -3.2312693   -1.6351292   0.15284928   -3.2312693    1.5961401  1038391 
 3730000    1.2574006    -3.230973   -1.6348871   0.16087585    -3.230973     1.596086  1038518 
 3731000     1.256727   -3.2300465   -1.6350168   0.15586419   -3.2300465    1.5950297  1038649 
 3732000    1.2579729   -3.2310469   -1.6346464   0.15772079   -3.2310469    1.5964004  1038786 
 3733000    1.2584797   -3.2308762   -1.6340202   0.15643288   -3.2308762     1.596856  1038908 
 3734000    1.2579776   -3.2307924    -1.634767   0.15934049   -3.2307924    1.5960253  1039034 
 3735000    1.2576166   -3.2303597   -1.6350411   0.15729658   -3.2303597    1.5953186  1039196 
 3736000    1.2586669   -3.2318556   -1.6353983   0.15987382   -3.2318556    1.5964573  1039322 
 3737000    1.2588963   -3.2323951   -1.6357912   0.15899465   -3.2323951    1.5966039  1039416 
 3738000    1.2586229   -3.2307794   -1.6347126   0.15829555   -3.2307794    1.5960667  1039540 
 3739000    1.2603391   -3.2323121    -1.634229   0.15551335   -3.2323121    1.5980832  1039644 
 3740000    1.2596413     -3.23203   -1.6350144   0.15703166     -3.23203    1.5970156  1039763 
 3741000    1.2585644   -3.2309125   -1.6354357   0.15939994   -3.2309125    1.5954769  1039876 
 3742000    1.2597489   -3.2323361   -1.6355604   0.15761548   -3.2323361    1.5967757  1040008 
 3743000    1.2596417   -3.2328547   -1.6364036   0.15839647   -3.2328547    1.5964511  1040131 
 3744000    1.2607433   -3.2336525   -1.6359834   0.15721468   -3.2336525    1.5976691  1040247 
 3745000    1.2597883    -3.232785   -1.6365042   0.15692402    -3.232785    1.5962808  1040363 
 3746000    1.2607403   -3.2331541   -1.6358589   0.15694276   -3.2331541    1.5972951  1040488 
 3747000     1.261295   -3.2342798   -1.6364769   0.15739157   -3.2342798    1.5978029  1040615 
 3748000    1.2608837   -3.2329749   -1.6358955   0.16191407   -3.2329749    1.5970794  1040747 
 3749000    1.2603735   -3.2319742   -1.6357343   0.16298545   -3.2319742    1.5962399  1040873 
 3750000    1.2622041   -3.2340835   -1.6357294   0.15789374   -3.2340835    1.5983541  1041006 
 3751000    1.2620481   -3.2335789   -1.6356097   0.15883876   -3.2335789    1.5979692  1041128 
 3752000    1.2620746   -3.2335538   -1.6357644   0.16393357   -3.2335538    1.5977894  1041267 
 3753000    1.2632714    -3.233886   -1.6347718   0.16057434    -3.233886    1.5991142  1041391 
 3754000    1.2641152   -3.2344897   -1.6344949   0.15871012   -3.2344897    1.5999948  1041513 
 3755000    1.2629006   -3.2329762   -1.6347029   0.16198502   -3.2329762    1.5982733  1041633 
 3756000    1.2631619   -3.2328042   -1.6343995   0.16147836   -3.2328042    1.5984046  1041763 
 3757000    1.2637107   -3.2331257   -1.6342308   0.15849352   -3.2331257    1.5988949  1041896 
 3758000    1.2640785   -3.2328874   -1.6337482   0.16189272   -3.2328874    1.5991392  1042040 
 3759000    1.2643488     -3.23312   -1.6338122    0.1633115     -3.23312    1.5993078  1042153 
 3760000    1.2641928   -3.2334171   -1.6345184   0.16016762   -3.2334171    1.5988988  1042291 
 3761000    1.2651525   -3.2341618    -1.634255   0.15657892   -3.2341618    1.5999068  1042425 
 3762000    1.2642663   -3.2337267   -1.6351246   0.15877612   -3.2337267    1.5986021  1042545 
 3763000    1.2656843     -3.23536   -1.6351445   0.15491773     -3.23536    1.6002155  1042662 
 3764000    1.2652161    -3.234583   -1.6351573   0.15987821    -3.234583    1.5994257  1042791 
 3765000    1.2657623   -3.2344128   -1.6344777   0.15887083   -3.2344128    1.5999351  1042909 
 3766000    1.2655827   -3.2345344   -1.6350226    0.1584582   -3.2345344    1.5995118  1043037 
 3767000    1.2652869   -3.2341641   -1.6352407   0.16222226   -3.2341641    1.5989233  1043177 
 3768000    1.2646195   -3.2333241   -1.6354341   0.16375675   -3.2333241      1.59789  1043301 
 3769000    1.2663939   -3.2352299   -1.6352758    0.1571041   -3.2352299    1.5999541  1043417 
 3770000    1.2673376   -3.2360786   -1.6350888   0.16204572   -3.2360786    1.6009899  1043519 
 3771000    1.2669582   -3.2349099   -1.6346048   0.16022955   -3.2349099    1.6003051  1043653 
 3772000    1.2679164   -3.2363461   -1.6350225    0.1608414   -3.2363461    1.6013236  1043778 
 3773000    1.2668048   -3.2342444   -1.6345193   0.16105562   -3.2342444    1.5997251  1043905 
 3774000    1.2682946   -3.2359342   -1.6345196    0.1603844   -3.2359342    1.6014146  1044030 
 3775000    1.2668952   -3.2344004   -1.6349304   0.16463142   -3.2344004      1.59947  1044146 
 3776000    1.2679695   -3.2358498   -1.6352243   0.16278797   -3.2358498    1.6006255  1044277 
 3777000    1.2681411   -3.2366342   -1.6359929   0.15968644   -3.2366342    1.6006413  1044408 
 3778000    1.2685744   -3.2366562   -1.6356337   0.16006786   -3.2366562    1.6010226  1044516 
 3779000    1.2685915    -3.237086   -1.6362579   0.16454273    -3.237086    1.6008281  1044657 
 3780000    1.2695623   -3.2370868   -1.6352666   0.15877975   -3.2370868    1.6018201  1044809 
 3781000    1.2687521   -3.2367802   -1.6361553   0.16229634   -3.2367802    1.6006248  1044922 
 3782000     1.268533   -3.2366037   -1.6364177   0.16150105   -3.2366037     1.600186  1045028 
 3783000    1.2681154   -3.2363034    -1.636837    0.1630612   -3.2363034    1.5994664  1045154 
 3784000    1.2688972   -3.2372056   -1.6369415   0.16207015   -3.2372056    1.6002641  1045277 
 3785000    1.2697448   -3.2378385   -1.6366878   0.16178055   -3.2378385    1.6011508  1045396 
 3786000    1.2705812    -3.239039   -1.6370036   0.15969805    -3.239039    1.6020354  1045507 
 3787000    1.2696275   -3.2378867   -1.6372436   0.15738454   -3.2378867    1.6006431  1045631 
 3788000    1.2697391   -3.2371629   -1.6365751   0.16713942   -3.2371629    1.6005878  1045759 
 3789000    1.2694053   -3.2375255   -1.6375175   0.16468215   -3.2375255     1.600008  1045863 
 3790000    1.2694826   -3.2368441   -1.6369024   0.16433497   -3.2368441    1.5999417  1045970 
 3791000    1.2706479   -3.2375472   -1.6363206   0.16617891   -3.2375472    1.6012266  1046090 
 3792000    1.2714978   -3.2386823   -1.6365746   0.16692463   -3.2386823    1.6021077  1046214 
 3793000    1.2710435   -3.2388753   -1.6375435   0.16241336   -3.2388753    1.6013318  1046347 
 3794000    1.2708666   -3.2375573    -1.636652   0.16794436   -3.2375573    1.6009053  1046480 
 3795000    1.2717175   -3.2384644   -1.6366601   0.16250745   -3.2384644    1.6018043  1046593 
 3796000    1.2728949   -3.2391948   -1.6361035   0.16186257   -3.2391948    1.6030912  1046721 
 3797000    1.2720827   -3.2380753   -1.6361922   0.16450639   -3.2380753    1.6018831  1046842 
 3798000    1.2717738   -3.2382464    -1.636919   0.16315052   -3.2382464    1.6013275  1046951 
 3799000    1.2722361   -3.2385032   -1.6367636   0.16801044   -3.2385032    1.6017396  1047062 
 3800000      1.27306   -3.2399055   -1.6373321   0.16271063   -3.2399055    1.6025734  1047195 
 3801000    1.2724755   -3.2384159   -1.6367449   0.16869387   -3.2384159     1.601671  1047304 
 3802000    1.2734418   -3.2392601   -1.6365413   0.16595814   -3.2392601    1.6027188  1047414 
 3803000    1.2738079   -3.2393121   -1.6363207   0.16599551   -3.2393121    1.6029914  1047537 
 3804000    1.2721297    -3.237662    -1.636946   0.16192127    -3.237662     1.600716  1047644 
 3805000    1.2720569   -3.2374704   -1.6370095   0.16301568   -3.2374704    1.6004609  1047751 
 3806000    1.2737536   -3.2385123   -1.6361169   0.16530461   -3.2385123    1.6023953  1047882 
 3807000    1.2737286   -3.2384861   -1.6362919   0.16179632   -3.2384861    1.6021942  1047993 
 3808000    1.2732827   -3.2383168   -1.6368699   0.16221863   -3.2383168    1.6014469  1048115 
 3809000    1.2741538   -3.2387787   -1.6364471   0.16352349   -3.2387787    1.6023315  1048253 
 3810000    1.2742234   -3.2386524   -1.6364214   0.16169846   -3.2386524    1.6022311  1048376 
 3811000    1.2738189   -3.2385649    -1.637006   0.16360388   -3.2385649    1.6015589  1048483 
 3812000    1.2758177   -3.2402436   -1.6363582   0.15971759   -3.2402436    1.6038854  1048605 
 3813000    1.2739224    -3.237323   -1.6359837   0.16672355    -3.237323    1.6013393  1048712 
 3814000    1.2753982   -3.2390658   -1.6360349   0.16064173   -3.2390658    1.6030309  1048819 
 3815000    1.2756807   -3.2391775   -1.6359628   0.16418026   -3.2391775    1.6032147  1048931 
 3816000    1.2752624   -3.2382968   -1.6357803   0.16588084   -3.2382968    1.6025164  1049044 
 3817000    1.2762544   -3.2394759   -1.6358689   0.16684379   -3.2394759     1.603607  1049146 
 3818000    1.2765091   -3.2394585   -1.6357072   0.16497008   -3.2394585    1.6037513  1049261 
 3819000    1.2770718   -3.2394065    -1.635095   0.16725585   -3.2394065    1.6043115  1049357 
 3820000    1.2755277   -3.2387112    -1.636509   0.16989005   -3.2387112    1.6022022  1049468 
 3821000    1.2768026   -3.2411064   -1.6374663   0.16535056   -3.2411064    1.6036401  1049575 
 3822000    1.2767025   -3.2404836    -1.637151   0.16371202   -3.2404836    1.6033326  1049694 
 3823000    1.2770651    -3.240792   -1.6371706   0.16848536    -3.240792    1.6036214  1049803 
 3824000    1.2766396   -3.2402061     -1.63729   0.16607478   -3.2402061    1.6029161  1049915 
 3825000    1.2771959   -3.2411607   -1.6377248   0.16399707   -3.2411607    1.6034359  1050032 
 3826000    1.2779381   -3.2421694   -1.6379728   0.16721238   -3.2421694    1.6041966  1050144 
 3827000    1.2772262   -3.2410073   -1.6378982   0.16809266   -3.2410073    1.6031091  1050271 
 3828000    1.2774242   -3.2407281   -1.6375248    0.1675793   -3.2407281    1.6032034  1050372 
 3829000    1.2791852   -3.2431984   -1.6379729   0.16592512   -3.2431984    1.6052255  1050495 
 3830000    1.2782842   -3.2425488   -1.6386127   0.16609259   -3.2425488    1.6039361  1050599 
 3831000    1.2773054   -3.2416719   -1.6391287   0.17088396   -3.2416719    1.6025433  1050707 
 3832000    1.2785142   -3.2424366   -1.6385111   0.16925596   -3.2424366    1.6039255  1050795 
 3833000    1.2797845   -3.2439722   -1.6386121   0.16556768   -3.2439722    1.6053602  1050899 
 3834000    1.2782557    -3.242084    -1.638817   0.16819671    -3.242084    1.6032671  1051014 
 3835000    1.2792409   -3.2430552   -1.6387112   0.16933363   -3.2430552     1.604344  1051118 
 3836000    1.2785008    -3.242074   -1.6388397   0.16920817    -3.242074    1.6032343  1051237 
 3837000    1.2788116   -3.2421475   -1.6387202   0.16743126   -3.2421475    1.6034273  1051366 
 3838000    1.2796582    -3.242882   -1.6385855   0.16687733    -3.242882    1.6042966  1051492 
 3839000    1.2796615   -3.2425788   -1.6384231   0.16433101   -3.2425788    1.6041557  1051587 
 3840000    1.2802193   -3.2427499    -1.638075   0.16457443   -3.2427499    1.6046749  1051705 
 3841000    1.2806041   -3.2426991   -1.6376975   0.16809914   -3.2426991    1.6050016  1051807 
 3842000    1.2808114   -3.2425496   -1.6374728   0.17066984   -3.2425496    1.6050768  1051928 
 3843000    1.2800032   -3.2413893   -1.6374748   0.17017249   -3.2413893    1.6039145  1052026 
 3844000    1.2803045   -3.2423623   -1.6382273   0.17054433   -3.2423623     1.604135  1052129 
 3845000    1.2801967   -3.2419913   -1.6381561   0.16907824   -3.2419913    1.6038352  1052237 
 3846000     1.279913   -3.2417665   -1.6384665   0.17114117   -3.2417665       1.6033  1052355 
 3847000    1.2808152   -3.2427327   -1.6384671   0.16748931   -3.2427327    1.6042656  1052463 
 3848000    1.2807388   -3.2425842   -1.6385835   0.16868104   -3.2425842    1.6040007  1052574 
 3849000    1.2816218   -3.2437571   -1.6388121   0.16990883   -3.2437571     1.604945  1052680 
 3850000    1.2812206   -3.2440415   -1.6398001   0.16498053   -3.2440415    1.6042414  1052812 
 3851000     1.281799   -3.2445083   -1.6397103   0.16295614   -3.2445083     1.604798  1052922 
 3852000    1.2817821   -3.2440705   -1.6394812   0.16602884   -3.2440705    1.6045893  1053045 
 3853000    1.2817425   -3.2435672   -1.6391813   0.17251453   -3.2435672    1.6043859  1053146 
 3854000    1.2819025   -3.2435988   -1.6391696   0.16862762   -3.2435988    1.6044292  1053249 
 3855000    1.2829029   -3.2441509   -1.6386647   0.16878191   -3.2441509    1.6054862  1053377 
 3856000    1.2828529   -3.2436007   -1.6383158    0.1677687   -3.2436007    1.6052849  1053468 
 3857000    1.2827938   -3.2437175   -1.6386649   0.17081392   -3.2437175    1.6050526  1053572 
 3858000    1.2833641   -3.2444398   -1.6388443   0.17330315   -3.2444398    1.6055955  1053684 
 3859000     1.283629   -3.2441988   -1.6384608    0.1721915   -3.2441988    1.6057379  1053808 
 3860000    1.2842995   -3.2448271   -1.6384348   0.17365198   -3.2448271    1.6063922  1053929 
 3861000    1.2836806   -3.2442326   -1.6387866   0.16697077   -3.2442326     1.605446  1054042 
 3862000    1.2833331   -3.2440038   -1.6391477   0.17378138   -3.2440038    1.6048561  1054144 
 3863000    1.2838374   -3.2448098   -1.6394754   0.16954503   -3.2448098    1.6053344  1054244 
 3864000    1.2838619    -3.244527   -1.6393263   0.17089255    -3.244527    1.6052007  1054352 
 3865000    1.2857842   -3.2468614   -1.6394571   0.16785445   -3.2468614    1.6074044  1054483 
 3866000    1.2860516   -3.2467465   -1.6391741   0.16917602   -3.2467465    1.6075724  1054592 
 3867000    1.2845588   -3.2450546   -1.6395187   0.16942647   -3.2450546     1.605536  1054704 
 3868000    1.2847088   -3.2457894    -1.640238   0.17077067   -3.2457894    1.6055514  1054817 
 3869000    1.2862205   -3.2467287   -1.6394573    0.1690812   -3.2467287    1.6072714  1054928 
 3870000    1.2851821   -3.2458773   -1.6400572   0.17103381   -3.2458773    1.6058201  1055029 
 3871000    1.2851707   -3.2460221   -1.6403821   0.16643038   -3.2460221    1.6056399  1055138 
 3872000    1.2852794   -3.2452199   -1.6395826   0.17306633   -3.2452199    1.6056374  1055229 
 3873000    1.2867217   -3.2464751   -1.6391853   0.17069795   -3.2464751    1.6072898  1055327 
 3874000    1.2842472   -3.2444561   -1.6404032   0.17106233   -3.2444561    1.6040529  1055423 
 3875000    1.2846295   -3.2463088   -1.6419577   0.17021576   -3.2463088    1.6043511  1055541 
 3876000    1.2854585   -3.2469824   -1.6417587   0.16949441   -3.2469824    1.6052237  1055648 
 3877000     1.286422   -3.2466129   -1.6403823   0.16871351   -3.2466129    1.6062306  1055777 
 3878000    1.2857003   -3.2461685   -1.6409683   0.17191426   -3.2461685    1.6052002  1055862 
 3879000    1.2865705   -3.2472724   -1.6411849   0.16915527   -3.2472724    1.6060875  1055993 
 3880000    1.2863472   -3.2463526    -1.640696   0.17043998   -3.2463526    1.6056566  1056093 
 3881000    1.2863301   -3.2462888   -1.6407979   0.17286834   -3.2462888    1.6054909  1056188 
 3882000    1.2873077   -3.2475254   -1.6409939   0.16702805   -3.2475254    1.6065315  1056306 
 3883000    1.2886543   -3.2483217   -1.6402817    0.1720742   -3.2483217      1.60804  1056419 
 3884000    1.2882155   -3.2476929    -1.640374   0.16803483   -3.2476929     1.607319  1056533 
 3885000    1.2886815   -3.2477681   -1.6400168   0.16792997   -3.2477681    1.6077513  1056631 
 3886000    1.2882473   -3.2474132   -1.6403617   0.16893235   -3.2474132    1.6070515  1056735 
 3887000    1.2877443   -3.2468053   -1.6405561   0.17125682   -3.2468053    1.6062492  1056850 
 3888000    1.2888846   -3.2478027   -1.6403198   0.17563202   -3.2478027    1.6074829  1056974 
 3889000    1.2885976   -3.2474864   -1.6404694   0.17214456   -3.2474864     1.607017  1057045 
 3890000    1.2888538   -3.2479986   -1.6408461   0.17095448   -3.2479986    1.6071525  1057166 
 3891000    1.2899628   -3.2483839   -1.6400279   0.17449272   -3.2483839    1.6083559  1057284 
 3892000    1.2895213    -3.248063   -1.6404005   0.16977645    -3.248063    1.6076624  1057378 
 3893000    1.2902696   -3.2487974   -1.6403526   0.17282097   -3.2487974    1.6084448  1057477 
 3894000    1.2894759   -3.2483436   -1.6410555   0.16959698   -3.2483436    1.6072882  1057587 
 3895000    1.2895451   -3.2480627   -1.6408371   0.16850844   -3.2480627    1.6072255  1057685 
 3896000    1.2892449   -3.2478318     -1.64114   0.17064976   -3.2478318    1.6066918  1057790 
 3897000    1.2890627   -3.2473221   -1.6410107   0.17138689   -3.2473221    1.6063115  1057891 
 3898000    1.2904012   -3.2489252   -1.6411071    0.1708984   -3.2489252    1.6078182  1057997 
 3899000    1.2903305   -3.2484042   -1.6408245   0.17166131   -3.2484042    1.6075797  1058096 
 3900000    1.2909374   -3.2484093   -1.6402117   0.17081781   -3.2484093    1.6081975  1058187 
 3901000    1.2918118   -3.2495278   -1.6404326   0.17046313   -3.2495278    1.6090952  1058313 
 3902000    1.2918918   -3.2497545    -1.640698   0.17442981   -3.2497545    1.6090565  1058404 
 3903000    1.2922393   -3.2496052   -1.6402907   0.17316736   -3.2496052    1.6093145  1058519 
 3904000    1.2920307   -3.2492415   -1.6403418   0.17525626   -3.2492415    1.6088997  1058621 
 3905000    1.2910956   -3.2482985   -1.6407259   0.17957373   -3.2482985    1.6075727  1058728 
 3906000    1.2933251   -3.2506376   -1.6404318   0.17404459   -3.2506376    1.6102057  1058822 
 3907000    1.2932376   -3.2503949   -1.6404881    0.1742647   -3.2503949    1.6099068  1058947 
 3908000    1.2918677   -3.2497974   -1.6417418   0.17473524   -3.2497974    1.6080557  1059043 
 3909000    1.2923074   -3.2506034   -1.6421676   0.17274426   -3.2506034    1.6084359  1059153 
 3910000    1.2917617   -3.2505214   -1.6429347   0.17447588   -3.2505214    1.6075867  1059265 
 3911000    1.2921268   -3.2497098   -1.6418205   0.17415756   -3.2497098    1.6078892  1059365 
 3912000    1.2927155   -3.2512621   -1.6427815    0.1728216   -3.2512621    1.6084806  1059458 
 3913000    1.2931183   -3.2513241   -1.6425276   0.17003981   -3.2513241    1.6087966  1059580 
 3914000    1.2918598   -3.2496709   -1.6426204   0.17156983   -3.2496709    1.6070504  1059699 
 3915000    1.2919124    -3.249911   -1.6429226    0.1752328    -3.249911    1.6069884  1059783 
 3916000    1.2932005   -3.2515072   -1.6431048   0.17349672   -3.2515072    1.6084024  1059907 
 3917000    1.2934784   -3.2509406   -1.6423458   0.17725154   -3.2509406    1.6085948  1060008 
 3918000    1.2944129   -3.2524779   -1.6428545   0.17569136   -3.2524779    1.6096233  1060096 
 3919000    1.2955456   -3.2533827    -1.642515   0.17273908   -3.2533827    1.6108677  1060204 
 3920000    1.2951515   -3.2520668    -1.641853   0.17575816   -3.2520668    1.6102138  1060312 
 3921000    1.2948381    -3.251717   -1.6420524   0.17486029    -3.251717    1.6096647  1060417 
 3922000    1.2946944   -3.2520146   -1.6426804   0.17558401   -3.2520146    1.6093342  1060517 
 3923000    1.2948088   -3.2521266   -1.6428003   0.17669102   -3.2521266    1.6093263  1060616 
 3924000     1.295146   -3.2533668   -1.6437701   0.17396926   -3.2533668    1.6095967  1060714 
 3925000    1.2948534   -3.2529928   -1.6438964   0.17205022   -3.2529928    1.6090964  1060804 
 3926000    1.2947242   -3.2522827   -1.6435061   0.17548384   -3.2522827    1.6087766  1060909 
 3927000    1.2950794   -3.2532135   -1.6441335   0.17258081   -3.2532135      1.60908  1061000 
 3928000    1.2936541   -3.2526563   -1.6454774   0.17374537   -3.2526563    1.6071789  1061086 
 3929000    1.2952511   -3.2549646   -1.6459337   0.17285408   -3.2549646    1.6090309  1061173 
 3930000    1.2953391   -3.2545077   -1.6455478   0.17145815   -3.2545077    1.6089599  1061292 
 3931000     1.294848   -3.2540344   -1.6458345    0.1712084   -3.2540344    1.6081999  1061391 
 3932000     1.293772   -3.2538195   -1.6470727   0.17400694   -3.2538195    1.6067468  1061468 
 3933000    1.2946799   -3.2547779   -1.6470488   0.17066639   -3.2547779    1.6077291  1061564 
 3934000    1.2947254   -3.2552224   -1.6475777   0.17243761   -3.2552224    1.6076447  1061657 
 3935000    1.2930884   -3.2529946   -1.6475111   0.17414279   -3.2529946    1.6054834  1061742 
 3936000    1.2956488   -3.2559195   -1.6473903   0.17335276   -3.2559195    1.6085291  1061830 
 3937000    1.2956261    -3.255511    -1.647157   0.17148151    -3.255511     1.608354  1061927 
 3938000    1.2959429   -3.2554502   -1.6468544   0.17570885   -3.2554502    1.6085958  1062027 
 3939000    1.2962742   -3.2559892   -1.6471427   0.17338534   -3.2559892    1.6088465  1062133 
 3940000    1.2964545   -3.2562992   -1.6473638   0.17361731   -3.2562992    1.6089354  1062222 
 3941000    1.2973767   -3.2573454   -1.6474231   0.17091819   -3.2573454    1.6099223  1062326 
 3942000     1.296476   -3.2562205   -1.6475779   0.17491035   -3.2562205    1.6086426  1062433 
 3943000    1.2960559   -3.2561552   -1.6481641   0.17535555   -3.2561552    1.6079912  1062519 
 3944000    1.2968424   -3.2558793   -1.6470653   0.17175908   -3.2558793     1.608814  1062620 
 3945000     1.297479      -3.2567   -1.6472537   0.17708835      -3.2567    1.6094463  1062724 
 3946000    1.2963176   -3.2557258   -1.6478806    0.1777713   -3.2557258    1.6078452  1062830 
 3947000    1.2976639   -3.2566072   -1.6472603   0.17640553   -3.2566072    1.6093469  1062941 
 3948000    1.2982463   -3.2559913   -1.6460811   0.17610416   -3.2559913    1.6099102  1063046 
 3949000    1.2987585   -3.2562616   -1.6458541   0.17893677   -3.2562616    1.6104075  1063137 
 3950000     1.298314   -3.2556199   -1.6459043   0.17857382   -3.2556199    1.6097155  1063230 
 3951000    1.2995945   -3.2575289    -1.646359   0.17330206   -3.2575289    1.6111699  1063318 
 3952000    1.2989732   -3.2568082   -1.6465813   0.17629865   -3.2568082    1.6102269  1063432 
 3953000     1.298832    -3.257167   -1.6472484   0.17525623    -3.257167    1.6099186  1063520 
 3954000    1.2992346   -3.2572802   -1.6470063   0.17560803   -3.2572802    1.6102739  1063615 
 3955000    1.2995067   -3.2569111   -1.6464514    0.1787415   -3.2569111    1.6104597  1063715 
 3956000    1.2998404   -3.2568982   -1.6461612   0.17305258   -3.2568982     1.610737  1063805 
 3957000    1.3004842   -3.2578746   -1.6464731   0.17879139   -3.2578746    1.6114014  1063893 
 3958000    1.2987807   -3.2559073   -1.6467286   0.17777969   -3.2559073    1.6091788  1063967 
 3959000    1.2997638   -3.2569215   -1.6466624   0.17555979   -3.2569215    1.6102591  1064058 
 3960000    1.2987615   -3.2554101   -1.6465469   0.17578392   -3.2554101    1.6088632  1064160 
 3961000    1.3002377   -3.2565731   -1.6460282   0.17942496   -3.2565731     1.610545  1064257 
 3962000    1.2997334   -3.2561989   -1.6463844   0.17493287   -3.2561989    1.6098145  1064327 
 3963000    1.2995296   -3.2563744   -1.6469832   0.17656811   -3.2563744    1.6093912  1064440 
 3964000    1.2997627   -3.2563208   -1.6467771   0.17626645   -3.2563208    1.6095438  1064530 
 3965000    1.3008361   -3.2578793   -1.6471591   0.17532164   -3.2578793    1.6107202  1064631 
 3966000    1.3004713   -3.2576845   -1.6475763   0.17386979   -3.2576845    1.6101082  1064737 
 3967000    1.3006898   -3.2576195   -1.6473633   0.17449903   -3.2576195    1.6102562  1064818 
 3968000    1.3006625    -3.257034    -1.646934   0.17633967    -3.257034       1.6101  1064899 
 3969000    1.3016317   -3.2583818   -1.6472169   0.17588348   -3.2583818     1.611165  1064988 
 3970000    1.3005985   -3.2577248   -1.6479807    0.1763113   -3.2577248    1.6097441  1065082 
 3971000    1.3016963   -3.2581782   -1.6472146   0.17581676   -3.2581782    1.6109636  1065174 
 3972000    1.3028864   -3.2592424   -1.6469345   0.17532555   -3.2592424    1.6123079  1065259 
 3973000    1.3019457   -3.2583493   -1.6473357   0.17737508   -3.2583493    1.6110136  1065345 
 3974000    1.3024369   -3.2588815   -1.6474037   0.17979236   -3.2588815    1.6114777  1065440 
 3975000    1.3032575   -3.2595784   -1.6471974   0.17740191   -3.2595784    1.6123811  1065514 
 3976000    1.3021363   -3.2577818    -1.646933   0.17844295   -3.2577818    1.6108488  1065610 
 3977000    1.3020841   -3.2582075   -1.6475609   0.17757478   -3.2582075    1.6106467  1065701 
 3978000    1.3034235   -3.2600813   -1.6479533   0.17966375   -3.2600813     1.612128  1065817 
 3979000     1.303033    -3.259011   -1.6474915   0.17702258    -3.259011    1.6115196  1065900 
 3980000    1.3023603   -3.2589732   -1.6484171   0.17515388   -3.2589732    1.6105562  1065987 
 3981000    1.3032711   -3.2601076   -1.6485582   0.17676491   -3.2601076    1.6115494  1066075 
 3982000     1.302985    -3.259288   -1.6482314    0.1797924    -3.259288    1.6110567  1066167 
 3983000    1.3035207   -3.2593327   -1.6477709   0.18115748   -3.2593327    1.6115618  1066271 
 3984000    1.3037418   -3.2603494   -1.6486442   0.17587236   -3.2603494    1.6117052  1066357 
 3985000     1.304575   -3.2605681   -1.6479735    0.1770238   -3.2605681    1.6125946  1066450 
 3986000    1.3040355   -3.2599298   -1.6481504   0.17661128   -3.2599298    1.6117795  1066548 
 3987000    1.3046401   -3.2600319   -1.6476471   0.17836653   -3.2600319    1.6123847  1066642 
 3988000    1.3035852    -3.259119    -1.648177   0.17860205    -3.259119     1.610942  1066734 
 3989000    1.3046883   -3.2604835   -1.6483022   0.17742924   -3.2604835    1.6121813  1066816 
 3990000    1.3044693   -3.2596179   -1.6478885   0.17672753   -3.2596179    1.6117294  1066936 
 3991000    1.3055245   -3.2600033   -1.6471366   0.17402462   -3.2600033    1.6128668  1067046 
 3992000    1.3041548   -3.2586405   -1.6475987   0.18200233   -3.2586405    1.6110418  1067134 
 3993000    1.3046945   -3.2597821   -1.6482035   0.17387931   -3.2597821    1.6115786  1067220 
 3994000    1.3035731   -3.2578461   -1.6477854   0.17683765   -3.2578461    1.6100607  1067308 
 3995000     1.304732    -3.259367   -1.6480319   0.18076148    -3.259367    1.6113351  1067412 
 3996000     1.304785   -3.2599407   -1.6486639   0.18026532   -3.2599407    1.6112768  1067494 
 3997000    1.3050642   -3.2610475   -1.6495649     0.175192   -3.2610475    1.6114826  1067586 
 3998000    1.3042477   -3.2594342   -1.6491242   0.17399185   -3.2594342      1.61031  1067695 
 3999000    1.3051685   -3.2609471   -1.6496225   0.17392581   -3.2609471    1.6113246  1067776 
 4000000    1.3056791   -3.2611196   -1.6492929   0.17796076   -3.2611196    1.6118267  1067861 
 4001000    1.3057718   -3.2607037   -1.6489059   0.17843298   -3.2607037    1.6117977  1067956 
 4002000    1.3052914   -3.2603393   -1.6492914   0.18195735   -3.2603393    1.6110479  1068060 
 4003000    1.3058961   -3.2603288   -1.6486749    0.1776284   -3.2603288    1.6116539  1068153 
 4004000     1.306499   -3.2613082   -1.6490399   0.17644366   -3.2613082    1.6122682  1068239 
 4005000    1.3065883   -3.2615292   -1.6492716   0.17967764   -3.2615292    1.6122576  1068319 
 4006000    1.3061757   -3.2613082   -1.6497165   0.17594593   -3.2613082    1.6115917  1068423 
 4007000    1.3061821   -3.2614267    -1.649975   0.17895184   -3.2614267    1.6114516  1068521 
 4008000    1.3063066   -3.2619918   -1.6505101   0.17712926   -3.2619918    1.6114816  1068603 
 4009000    1.3061986   -3.2616453   -1.6504521   0.17877801   -3.2616453    1.6111931  1068706 
 4010000     1.307322    -3.263256    -1.650804   0.17713594    -3.263256     1.612452  1068790 
 4011000    1.3071196   -3.2631093   -1.6510306   0.17941727   -3.2631093    1.6120787  1068872 
 4012000    1.3076958   -3.2635026   -1.6508384   0.18012346   -3.2635026    1.6126641  1068955 
 4013000    1.3084525   -3.2644505   -1.6509815   0.17757816   -3.2644505     1.613469  1069040 
 4014000    1.3090685   -3.2650316   -1.6509359   0.17812991   -3.2650316    1.6140958  1069128 
 4015000    1.3088145   -3.2639899   -1.6503688   0.18404803   -3.2639899    1.6136211  1069235 
 4016000    1.3097859   -3.2645223   -1.6498426   0.18119317   -3.2645223    1.6146797  1069327 
 4017000    1.3092439   -3.2653751   -1.6515341    0.1811886   -3.2653751     1.613841  1069440 
 4018000     1.308504   -3.2639652   -1.6511553   0.18623844   -3.2639652    1.6128099  1069519 
 4019000    1.3089626   -3.2645727   -1.6513438   0.18366943   -3.2645727    1.6132289  1069616 
 4020000    1.3097206   -3.2644301   -1.6503923   0.18219621   -3.2644301    1.6140378  1069699 
 4021000     1.308769   -3.2639141   -1.6511727   0.18610141   -3.2639141    1.6127414  1069781 
 4022000    1.3083726   -3.2642828    -1.652167   0.17755433   -3.2642828    1.6121158  1069872 
 4023000    1.3100989    -3.265727   -1.6516244   0.17995001    -3.265727    1.6141025  1069965 
 4024000     1.308958   -3.2646401   -1.6520697   0.18001211   -3.2646401    1.6125703  1070049 
 4025000     1.310253   -3.2660507   -1.6520389   0.18475936   -3.2660507    1.6140119  1070151 
 4026000    1.3091039   -3.2648479   -1.6524037   0.18444621   -3.2648479    1.6124442  1070252 
 4027000    1.3099991    -3.266011   -1.6525878   0.18050858    -3.266011    1.6134232  1070334 
 4028000    1.3097877   -3.2655187   -1.6524809   0.18074261   -3.2655187    1.6130378  1070417 
 4029000     1.309681    -3.265962   -1.6531807   0.18281683    -3.265962    1.6127814  1070500 
 4030000    1.3100804    -3.265517   -1.6523643   0.17598731    -3.265517    1.6131526  1070580 
 4031000    1.3099909   -3.2658311   -1.6529696   0.18194656   -3.2658311    1.6128615  1070700 
 4032000    1.3098769   -3.2649778   -1.6524192   0.18057427   -3.2649778    1.6125586  1070808 
 4033000    1.3103781   -3.2655256   -1.6524901   0.18051367   -3.2655256    1.6130355  1070901 
 4034000    1.3102318   -3.2656441   -1.6529136   0.18183714   -3.2656441    1.6127305  1070984 
 4035000    1.3112753   -3.2673173   -1.6534109   0.17901518   -3.2673173    1.6139063  1071056 
 4036000    1.3103129   -3.2656856   -1.6531263   0.18178624   -3.2656856    1.6125593  1071164 
 4037000    1.3107061   -3.2664968   -1.6535982   0.18291365   -3.2664968    1.6128986  1071260 
 4038000    1.3113622   -3.2665273   -1.6529388   0.18470605   -3.2665273    1.6135885  1071338 
 4039000    1.3113061   -3.2663557   -1.6529492   0.18131722   -3.2663557    1.6134065  1071413 
 4040000    1.3116046   -3.2664794   -1.6528352   0.18243756   -3.2664794    1.6136442  1071499 
 4041000    1.3114971    -3.267373   -1.6539966    0.1823384    -3.267373    1.6133764  1071589 
 4042000    1.3112002   -3.2661259   -1.6532547   0.18004301   -3.2661259    1.6128712  1071682 
 4043000    1.3116275   -3.2666431   -1.6533817   0.18115055   -3.2666431    1.6132614  1071772 
 4044000    1.3117939   -3.2666836   -1.6533469   0.18405981   -3.2666836    1.6133366  1071858 
 4045000    1.3130018   -3.2687378   -1.6540573   0.18121316   -3.2687378    1.6146805  1071952 
 4046000    1.3138572   -3.2694966   -1.6538907   0.18255316   -3.2694966    1.6156059  1072036 
 4047000    1.3125458   -3.2674438   -1.6535785   0.18302026   -3.2674438    1.6138653  1072121 
 4048000    1.3136178   -3.2690491   -1.6540208   0.18118778   -3.2690491    1.6150283  1072224 
 4049000    1.3132177   -3.2681584   -1.6537486   0.18355856   -3.2681584    1.6144098  1072308 
 4050000    1.3133063   -3.2686374   -1.6542511   0.18422418   -3.2686374    1.6143864  1072396 
 4051000    1.3132069   -3.2682167    -1.654067   0.18469902   -3.2682167    1.6141497  1072472 
 4052000    1.3137288   -3.2687578   -1.6540825   0.18519826   -3.2687578    1.6146753  1072549 
 4053000    1.3131895   -3.2685036    -1.654622   0.18490599   -3.2685036    1.6138816  1072636 
 4054000    1.3135043   -3.2690405    -1.654909    0.1833198   -3.2690405    1.6141315  1072727 
 4055000    1.3137273   -3.2689271     -1.65466   0.18518322   -3.2689271    1.6142671  1072819 
 4056000    1.3133313   -3.2688975   -1.6552569   0.18282504   -3.2688975    1.6136406  1072912 
 4057000    1.3145693   -3.2703172   -1.6552744   0.18330349   -3.2703172    1.6150428  1072991 
 4058000    1.3140142   -3.2689414    -1.654707   0.18644669   -3.2689414    1.6142344  1073075 
 4059000    1.3156007   -3.2698066   -1.6537829   0.18808896   -3.2698066    1.6160238  1073181 
 4060000    1.3160427   -3.2699852   -1.6535781   0.17978145   -3.2699852    1.6164071  1073287 
 4061000      1.31592    -3.270505   -1.6543857   0.18317276    -3.270505    1.6161193  1073378 
 4062000    1.3156765   -3.2702206   -1.6545327   0.18359195   -3.2702206    1.6156879  1073466 
 4063000    1.3150374    -3.269232   -1.6544479   0.18259247    -3.269232    1.6147841  1073545 
 4064000     1.315627   -3.2701846   -1.6547833   0.18309529   -3.2701846    1.6154013  1073616 
 4065000    1.3149876   -3.2695796   -1.6550836   0.18639349   -3.2695796    1.6144959  1073696 
 4066000    1.3160525   -3.2706663   -1.6549849    0.1816812   -3.2706663    1.6156815  1073777 
 4067000    1.3154921   -3.2697358   -1.6548536   0.18224753   -3.2697358    1.6148822  1073851 
 4068000    1.3157392    -3.270647   -1.6556043   0.18014018    -3.270647    1.6150427  1073946 
 4069000    1.3151941   -3.2701949   -1.6559401   0.18517172   -3.2701949    1.6142548  1074025 
 4070000    1.3155162   -3.2706288   -1.6561125   0.18457321   -3.2706288    1.6145164  1074114 
 4071000    1.3152908   -3.2698457   -1.6557066   0.18588318   -3.2698457     1.614139  1074181 
 4072000    1.3155969   -3.2696184   -1.6552044   0.17848694   -3.2696184     1.614414  1074248 
 4073000    1.3157114   -3.2690353   -1.6545905   0.18408632   -3.2690353    1.6144448  1074321 
 4074000    1.3164777   -3.2701133     -1.65485   0.18380874   -3.2701133    1.6152633  1074402 
 4075000    1.3164272   -3.2704275   -1.6553299    0.1859195   -3.2704275    1.6150976  1074471 
 4076000    1.3158918   -3.2702049   -1.6558873   0.18408574   -3.2702049    1.6143175  1074553 
 4077000    1.3173301   -3.2715943   -1.6556431   0.18514135   -3.2715943    1.6159512  1074640 
 4078000     1.316174   -3.2697244   -1.6553206   0.18815603   -3.2697244    1.6144038  1074726 
 4079000     1.317959      -3.2717   -1.6552556   0.18976409      -3.2717    1.6164444  1074825 
 4080000    1.3165127   -3.2694796   -1.6549413   0.18622726   -3.2694796    1.6145383  1074913 
 4081000    1.3197689   -3.2730902    -1.654661   0.18483359   -3.2730902    1.6184292  1074981 
 4082000    1.3177796   -3.2711032   -1.6552307   0.18542432   -3.2711032    1.6158725  1075059 
 4083000    1.3178657   -3.2710364   -1.6551905   0.18803842   -3.2710364    1.6158459  1075147 
 4084000    1.3189971    -3.272089   -1.6549838   0.18629267    -3.272089    1.6171052  1075232 
 4085000    1.3176846   -3.2705155   -1.6551456   0.18619165   -3.2705155    1.6153699  1075316 
 4086000    1.3183323   -3.2716001   -1.6555489    0.1866029   -3.2716001    1.6160512  1075391 
 4087000    1.3191203   -3.2721451   -1.6552347   0.18665776   -3.2721451    1.6169105  1075462 
 4088000     1.318533   -3.2720781   -1.6560002   0.18368737   -3.2720781    1.6160779  1075537 
 4089000    1.3179985   -3.2716252   -1.6563181   0.18656533   -3.2716252    1.6153071  1075614 
 4090000    1.3178958   -3.2719826    -1.656911   0.18566874   -3.2719826    1.6150716  1075687 
 4091000    1.3173616   -3.2717399    -1.657467   0.18727427   -3.2717399    1.6142729  1075783 
 4092000    1.3182191   -3.2729351   -1.6577481   0.18107792   -3.2729351     1.615187  1075874 
 4093000    1.3174551   -3.2718527   -1.6577054   0.18757296   -3.2718527    1.6141473  1075943 
 4094000    1.3176696   -3.2717734   -1.6574728   0.18251242   -3.2717734    1.6143006  1076016 
 4095000    1.3188544   -3.2722309   -1.6565973   0.18085806   -3.2722309    1.6156336  1076095 
 4096000    1.3186779   -3.2716618   -1.6563495   0.18708127   -3.2716618    1.6153122  1076165 
 4097000    1.3194905   -3.2727782   -1.6566027   0.18697457   -3.2727782    1.6161755  1076253 
 4098000    1.3196017   -3.2731842   -1.6569941   0.18559583   -3.2731842    1.6161901  1076334 
 4099000    1.3186934   -3.2726039   -1.6576328   0.18610106   -3.2726039    1.6149711  1076405 
 4100000    1.3188621   -3.2725883   -1.6575066   0.18901461   -3.2725883    1.6150817  1076469 
 4101000    1.3203889   -3.2739956   -1.6571973   0.18710913   -3.2739956    1.6167983  1076571 
 4102000     1.320235   -3.2743099   -1.6578323   0.18725142   -3.2743099    1.6164776  1076659 
 4103000    1.3206233   -3.2743386   -1.6575192   0.18701397   -3.2743386    1.6168193  1076748 
 4104000    1.3209599   -3.2742844   -1.6571565   0.18597594   -3.2742844    1.6171279  1076817 
 4105000     1.321589    -3.274486   -1.6567112   0.18782354    -3.274486    1.6177748  1076899 
 4106000    1.3208879    -3.274436    -1.657641   0.18509863    -3.274436     1.616795  1076980 
 4107000    1.3212616   -3.2740217   -1.6568849   0.18902814   -3.2740217    1.6171367  1077057 
 4108000    1.3199114   -3.2733175   -1.6579412   0.18365092   -3.2733175    1.6153762  1077129 
 4109000    1.3217565   -3.2751142   -1.6576014   0.18524356   -3.2751142    1.6175127  1077210 
 4110000    1.3204325   -3.2736145    -1.657839   0.18784243   -3.2736145    1.6157755  1077288 
 4111000    1.3195969   -3.2735224   -1.6588609   0.18634537   -3.2735224    1.6146615  1077349 
 4112000    1.3209706   -3.2755993   -1.6593603   0.18455993   -3.2755993    1.6162389  1077418 
 4113000    1.3203432   -3.2749273    -1.659573   0.18993572   -3.2749273    1.6153543  1077496 
 4114000    1.3200972   -3.2738047   -1.6588817   0.18736425   -3.2738047    1.6149229  1077583 
 4115000    1.3211079   -3.2752083   -1.6591599   0.18080066   -3.2752083    1.6160484  1077657 
 4116000    1.3206352     -3.27511   -1.6597778   0.18740447     -3.27511    1.6153322  1077749 
 4117000     1.322242   -3.2764919   -1.6592993   0.18330902   -3.2764919    1.6171926  1077819 
 4118000     1.322398   -3.2761996   -1.6589527   0.18361678   -3.2761996    1.6172469  1077910 
 4119000    1.3215231    -3.275077   -1.6590276   0.18675705    -3.275077    1.6160495  1077995 
 4120000    1.3216972   -3.2755065   -1.6593521   0.18668963   -3.2755065    1.6161544  1078067 
 4121000    1.3225658   -3.2762462   -1.6591512   0.18510232   -3.2762462     1.617095  1078148 
 4122000    1.3226416   -3.2761376   -1.6590415   0.18890302   -3.2761376    1.6170961  1078209 
 4123000    1.3222001   -3.2757626   -1.6593261   0.19011704   -3.2757626    1.6164364  1078289 
 4124000    1.3230537   -3.2761084   -1.6587603   0.18659212   -3.2761084     1.617348  1078377 
 4125000    1.3227751   -3.2764625   -1.6595795   0.18735515   -3.2764625     1.616883  1078460 
 4126000    1.3229783   -3.2769301   -1.6599082   0.18642254   -3.2769301    1.6170219  1078533 
 4127000    1.3224593   -3.2761638   -1.6598992   0.18721055   -3.2761638    1.6162647  1078615 
 4128000    1.3239683    -3.278257    -1.660259    0.1858941    -3.278257     1.617998  1078689 
 4129000    1.3225362   -3.2763618   -1.6602219   0.19264044   -3.2763618    1.6161399  1078761 
 4130000    1.3229436   -3.2762128   -1.6596829    0.1865753   -3.2762128    1.6165299  1078833 
 4131000     1.321597   -3.2755919   -1.6608271   0.18746517   -3.2755919    1.6147648  1078913 
 4132000    1.3233125   -3.2781885   -1.6614582   0.18642492   -3.2781885    1.6167304  1079000 
 4133000    1.3224526   -3.2774309     -1.66185   0.18622731   -3.2774309    1.6155809  1079066 
 4134000    1.3225748   -3.2771206   -1.6615191   0.18582517   -3.2771206    1.6156015  1079152 
 4135000    1.3231614   -3.2773394   -1.6611561    0.1855973   -3.2773394    1.6161833  1079242 
 4136000    1.3236604   -3.2780823   -1.6614184    0.1874645   -3.2780823    1.6166639  1079328 
 4137000    1.3235764   -3.2775427   -1.6611146   0.18588884   -3.2775427    1.6164281  1079417 
 4138000    1.3233455   -3.2780134   -1.6619825   0.18657523   -3.2780134    1.6160309  1079494 
 4139000    1.3232881   -3.2786495   -1.6627876   0.18815919   -3.2786495    1.6158619  1079560 
 4140000    1.3239267   -3.2785014    -1.661969   0.18640042   -3.2785014    1.6165325  1079633 
 4141000    1.3238126   -3.2779208     -1.66164   0.18609544   -3.2779208    1.6162808  1079708 
 4142000    1.3248601   -3.2792298   -1.6617974   0.18773406   -3.2792298    1.6174324  1079793 
 4143000    1.3247827   -3.2791523   -1.6618938   0.19004285   -3.2791523    1.6172585  1079846 
 4144000    1.3238036   -3.2779159   -1.6619813   0.19338871   -3.2779159    1.6159346  1079932 
 4145000    1.3238758   -3.2790637   -1.6631577   0.18542147   -3.2790637    1.6159061  1080010 
 4146000    1.3250179   -3.2794362    -1.662265   0.18959696   -3.2794362    1.6171712  1080096 
 4147000    1.3241378   -3.2779866   -1.6620197   0.18877035   -3.2779866     1.615967  1080183 
 4148000    1.3250964   -3.2794441   -1.6624419   0.19059269   -3.2794441    1.6170021  1080273 
 4149000    1.3263442   -3.2811083   -1.6626988    0.1861914   -3.2811083    1.6184095  1080350 
 4150000    1.3266741   -3.2813469   -1.6626474   0.18487854   -3.2813469    1.6186995  1080425 
 4151000    1.3250202   -3.2794843   -1.6629314   0.18931393   -3.2794843     1.616553  1080511 
 4152000    1.3260771   -3.2807859   -1.6630783    0.1898293   -3.2807859    1.6177077  1080601 
 4153000    1.3256785   -3.2803563   -1.6632397   0.18690691   -3.2803563    1.6171167  1080671 
 4154000    1.3254995   -3.2805968   -1.6638047   0.18779266   -3.2805968    1.6167921  1080742 
 4155000    1.3257007   -3.2801494   -1.6632137   0.19052921   -3.2801494    1.6169357  1080810 
 4156000    1.3257313   -3.2800488   -1.6631895   0.18878887   -3.2800488    1.6168593  1080886 
 4157000    1.3257832   -3.2800983   -1.6632893   0.18829703   -3.2800983     1.616809  1080962 
 4158000    1.3267104   -3.2811991    -1.663385   0.19081632   -3.2811991     1.617814  1081046 
 4159000    1.3259024    -3.280227   -1.6635269   0.18933761    -3.280227    1.6167001  1081132 
 4160000    1.3271662   -3.2816819   -1.6635471   0.18563307   -3.2816819    1.6181348  1081203 
 4161000    1.3260036   -3.2816535   -1.6650439   0.18864444   -3.2816535    1.6166096  1081275 
 4162000    1.3266643   -3.2819562   -1.6646517   0.18760843   -3.2819562    1.6173045  1081349 
 4163000    1.3270651   -3.2822318   -1.6645659   0.19154392   -3.2822318    1.6176659  1081434 
 4164000    1.3275284   -3.2824282   -1.6643308   0.18725479   -3.2824282    1.6180975  1081523 
 4165000     1.327456   -3.2827803   -1.6648848   0.18558589   -3.2827803    1.6178956  1081599 
 4166000    1.3259685   -3.2804648   -1.6645091   0.19033023   -3.2804648    1.6159556  1081684 
 4167000    1.3271758   -3.2825148   -1.6652119    0.1882629   -3.2825148    1.6173028  1081767 
 4168000    1.3274096   -3.2826858   -1.6652116   0.18744573   -3.2826858    1.6174742  1081843 
 4169000    1.3280362   -3.2821047   -1.6639988   0.18628275   -3.2821047     1.618106  1081931 
 4170000    1.3291802   -3.2833765   -1.6639754   0.18652395   -3.2833765    1.6194011  1081997 
 4171000    1.3271026   -3.2814922   -1.6647494   0.18956326   -3.2814922    1.6167428  1082082 
 4172000    1.3290998   -3.2844876   -1.6653984   0.18662284   -3.2844876    1.6190892  1082140 
 4173000     1.328391   -3.2831346   -1.6650495   0.19123809   -3.2831346    1.6180851  1082234 
 4174000    1.3283339   -3.2827038   -1.6647943   0.19406505   -3.2827038    1.6179095  1082305 
 4175000    1.3283028   -3.2831498   -1.6653753   0.19133708   -3.2831498    1.6177745  1082370 
 4176000    1.3288565   -3.2839156   -1.6655714   0.19093654   -3.2839156    1.6183442  1082440 
 4177000    1.3283831   -3.2837493   -1.6661146   0.19164359   -3.2837493    1.6176346  1082529 
 4178000    1.3278001   -3.2830579   -1.6662437   0.19002654   -3.2830579    1.6168141  1082603 
 4179000    1.3283576   -3.2836019   -1.6662673   0.19298193   -3.2836019    1.6173347  1082709 
 4180000    1.3284266   -3.2837601   -1.6664519   0.19581864   -3.2837601    1.6173081  1082783 
 4181000    1.3295638   -3.2852251   -1.6666357   0.18871159   -3.2852251    1.6185894  1082852 
 4182000    1.3280132   -3.2835985   -1.6670177   0.19199071   -3.2835985    1.6165808  1082933 
 4183000     1.328779   -3.2838675   -1.6664933     0.192883   -3.2838675    1.6173742  1083026 
 4184000    1.3297435   -3.2841501   -1.6657245   0.19350332   -3.2841501    1.6184256  1083108 
 4185000    1.3296147   -3.2853428   -1.6671741   0.19312162   -3.2853428    1.6181688  1083175 
 4186000    1.3291211   -3.2849801   -1.6675255   0.19169132   -3.2849801    1.6174546  1083251 
 4187000    1.3292237   -3.2850367   -1.6675677   0.19401863   -3.2850367    1.6174689  1083325 
 4188000    1.3297965   -3.2856612   -1.6676282   0.19194826   -3.2856612     1.618033  1083414 
 4189000    1.3310065   -3.2871858   -1.6677762     0.188474   -3.2871858    1.6194096  1083478 
 4190000    1.3298078   -3.2853605   -1.6675303   0.19205595   -3.2853605    1.6178302  1083559 
 4191000    1.3299719   -3.2859816   -1.6680697   0.18950705   -3.2859816    1.6179119  1083638 
 4192000    1.3311574   -3.2876223   -1.6683773    0.1833908   -3.2876223     1.619245  1083711 
 4193000    1.3293589   -3.2848956   -1.6679353   0.18962001   -3.2848956    1.6169602  1083776 
 4194000    1.3295044    -3.285554   -1.6685436   0.19125157    -3.285554    1.6170104  1083861 
 4195000    1.3311052   -3.2866623   -1.6678109   0.19111862   -3.2866623    1.6188513  1083932 
 4196000    1.3304461   -3.2864575   -1.6685197    0.1907028   -3.2864575    1.6179378  1084007 
 4197000    1.3296424   -3.2853458   -1.6684645   0.19048472   -3.2853458    1.6168814  1084060 
 4198000     1.329462    -3.285655   -1.6691034   0.19067943    -3.285655    1.6165516  1084134 
 4199000    1.3299587    -3.286633   -1.6696071   0.19077318    -3.286633    1.6170259  1084221 
 4200000    1.3303389   -3.2872058   -1.6698489   0.19110197   -3.2872058    1.6173569  1084309 
 4201000    1.3296759   -3.2859599   -1.6695179   0.19166974   -3.2859599     1.616442  1084382 
 4202000    1.3315606   -3.2895113   -1.6708916   0.18469398   -3.2895113    1.6186197  1084458 
 4203000    1.3299034    -3.287818   -1.6713141   0.18842149    -3.287818    1.6165039  1084526 
 4204000    1.3304676   -3.2874837   -1.6704089   0.19535071   -3.2874837    1.6170748  1084603 
 4205000    1.3322014   -3.2891079   -1.6700392   0.18707256   -3.2891079    1.6190687  1084679 
 4206000    1.3310271   -3.2881923   -1.6706656   0.19142214   -3.2881923    1.6175267  1084756 
 4207000    1.3302064   -3.2880616   -1.6716335    0.1901509   -3.2880616    1.6164281  1084824 
 4208000    1.3315831    -3.289026   -1.6710518   0.18791886    -3.289026    1.6179742  1084909 
 4209000     1.331377   -3.2887104   -1.6710925    0.1957703   -3.2887104    1.6176179  1084980 
 4210000    1.3324642   -3.2895833   -1.6707519    0.1910264   -3.2895833    1.6188314  1085052 
 4211000    1.3303875   -3.2879326   -1.6717403   0.18972323   -3.2879326    1.6161923  1085130 
 4212000    1.3311604   -3.2885499   -1.6715007   0.19126741   -3.2885499    1.6170492  1085185 
 4213000    1.3320983   -3.2892236   -1.6711424   0.19126818   -3.2892236    1.6180812  1085257 
 4214000    1.3318337   -3.2883873   -1.6707333   0.19510382   -3.2883873     1.617654  1085328 
 4215000    1.3327255   -3.2903999   -1.6717463   0.19222374   -3.2903999    1.6186536  1085384 
 4216000    1.3335817   -3.2910338   -1.6714389   0.19179336   -3.2910338     1.619595  1085450 
 4217000    1.3329402   -3.2898083   -1.6711191    0.1921457   -3.2898083    1.6186891  1085535 
 4218000    1.3340182   -3.2911247   -1.6712443   0.19241462   -3.2911247    1.6198804  1085614 
 4219000    1.3322383   -3.2894575   -1.6718353   0.19214167   -3.2894575    1.6176222  1085679 
 4220000    1.3332846    -3.290371   -1.6715812   0.19133736    -3.290371    1.6187898  1085748 
 4221000    1.3324293   -3.2889683   -1.6712989   0.19319886   -3.2889683    1.6176694  1085803 
 4222000    1.3329823   -3.2903081   -1.6720701   0.19065196   -3.2903081     1.618238  1085872 
 4223000    1.3329405   -3.2903705   -1.6722742   0.19204659   -3.2903705    1.6180963  1085933 
 4224000    1.3328544   -3.2903558   -1.6724638   0.18932463   -3.2903558     1.617892  1086000 
 4225000    1.3337064   -3.2909694   -1.6721551   0.19187668   -3.2909694    1.6188144  1086075 
 4226000     1.333217   -3.2896594   -1.6715567    0.1907864   -3.2896594    1.6181027  1086154 
 4227000    1.3344948   -3.2911644   -1.6716153   0.18691162   -3.2911644    1.6195491  1086224 
 4228000    1.3333327   -3.2906317   -1.6725898   0.19135599   -3.2906317     1.618042  1086289 
 4229000     1.333343   -3.2906959   -1.6727397   0.19073913   -3.2906959    1.6179562  1086355 
 4230000    1.3326145   -3.2896317   -1.6726608   0.19381467   -3.2896317    1.6169709  1086423 
 4231000    1.3326284   -3.2897666   -1.6728904   0.19268251   -3.2897666    1.6168761  1086498 
 4232000    1.3338062   -3.2911918   -1.6729953   0.18871628   -3.2911918    1.6181965  1086571 
 4233000    1.3335098   -3.2902939   -1.6725508   0.19344578   -3.2902939    1.6177431  1086634 
 4234000    1.3329117    -3.290491   -1.6735583   0.19129472    -3.290491    1.6169327  1086691 
 4235000    1.3337276   -3.2909318   -1.6731181   0.19235363   -3.2909318    1.6178137  1086764 
 4236000    1.3348918   -3.2919121   -1.6727681   0.19156442   -3.2919121     1.619144  1086819 
 4237000    1.3344304   -3.2910907   -1.6725883   0.19112959   -3.2910907    1.6185024  1086874 
 4238000    1.3338368   -3.2907373   -1.6730501   0.19492972   -3.2907373    1.6176873  1086938 
 4239000    1.3340536    -3.291518   -1.6736795   0.19671863    -3.291518    1.6178385  1087013 
 4240000    1.3349409   -3.2922158   -1.6734025   0.19258758   -3.2922158    1.6188133  1087081 
 4241000    1.3345258   -3.2906976   -1.6724815   0.19283387   -3.2906976    1.6182162  1087144 
 4242000     1.334459    -3.291134    -1.673103   0.19234089    -3.291134     1.618031  1087214 
 4243000    1.3345508   -3.2918417   -1.6737783   0.19585241   -3.2918417    1.6180634  1087267 
 4244000     1.336343   -3.2937359   -1.6735995   0.19369559   -3.2937359    1.6201365  1087334 
 4245000    1.3358818   -3.2924245   -1.6729544   0.19227626   -3.2924245    1.6194701  1087406 
 4246000    1.3357924   -3.2928446    -1.673599   0.18976526   -3.2928446    1.6192456  1087484 
 4247000    1.3353629   -3.2927161   -1.6740998   0.19167648   -3.2927161    1.6186163  1087557 
 4248000    1.3351211    -3.292824   -1.6745961   0.19386928    -3.292824    1.6182279  1087621 
 4249000    1.3353914   -3.2932393   -1.6747924   0.19342375   -3.2932393    1.6184469  1087694 
 4250000    1.3345032   -3.2927072   -1.6754379   0.19446846   -3.2927072    1.6172693  1087762 
 4251000    1.3348425   -3.2926571   -1.6750717   0.19372533   -3.2926571    1.6175854  1087826 
 4252000    1.3354309   -3.2928623   -1.6746695   0.19281575   -3.2928623    1.6181928  1087897 
 4253000     1.335825   -3.2941118   -1.6755516   0.19086873   -3.2941118    1.6185603  1087971 
 4254000    1.3347827   -3.2931079   -1.6758983   0.19148988   -3.2931079    1.6172096  1088030 
 4255000    1.3348998   -3.2929876   -1.6757372    0.1917444   -3.2929876    1.6172504  1088098 
 4256000    1.3345192    -3.293109   -1.6764356   0.19586905    -3.293109    1.6166734  1088176 
 4257000    1.3346805   -3.2940105    -1.677253   0.18720951   -3.2940105    1.6167575  1088251 
 4258000      1.33463   -3.2934279   -1.6768238   0.19027084   -3.2934279    1.6166041  1088313 
 4259000    1.3358735   -3.2948816   -1.6768827   0.19053506   -3.2948816    1.6179989  1088388 
 4260000     1.335864   -3.2946322   -1.6767415   0.19147125   -3.2946322    1.6178907  1088453 
 4261000    1.3347745   -3.2939756   -1.6774949   0.19216548   -3.2939756    1.6164807  1088514 
 4262000    1.3360542   -3.2950139    -1.677089   0.19166135   -3.2950139     1.617925  1088585 
 4263000    1.3361615   -3.2947827   -1.6768156    0.1908216   -3.2947827    1.6179671  1088644 
 4264000    1.3361852   -3.2953235   -1.6774317   0.19325651   -3.2953235    1.6178918  1088714 
 4265000    1.3370286   -3.2955902   -1.6767678   0.19133797   -3.2955902    1.6188223  1088775 
 4266000    1.3363276   -3.2948919   -1.6770416   0.19422968   -3.2948919    1.6178503  1088858 
 4267000    1.3364776   -3.2953401   -1.6774107   0.19355392   -3.2953401    1.6179294  1088927 
 4268000    1.3378442   -3.2961004   -1.6766029   0.19452098   -3.2961004    1.6194975  1088985 
 4269000    1.3375884   -3.2957284   -1.6766402   0.19232671   -3.2957284    1.6190882  1089052 
 4270000    1.3363338   -3.2945136   -1.6770317   0.19711793   -3.2945136    1.6174819  1089111 
 4271000    1.3374969   -3.2958395   -1.6770435   0.19101765   -3.2958395    1.6187961  1089174 
 4272000    1.3376324   -3.2965025   -1.6776375   0.19439335   -3.2965025     1.618865  1089238 
 4273000     1.337179    -3.295463   -1.6772403   0.19789634    -3.295463    1.6182227  1089301 
 4274000    1.3377783   -3.2970066   -1.6781687   0.19541703   -3.2970066    1.6188379  1089375 
 4275000    1.3379955   -3.2977549   -1.6787478   0.19356201   -3.2977549    1.6190071  1089438 
 4276000    1.3377312   -3.2980323   -1.6794475   0.19039369   -3.2980323    1.6185848  1089507 
 4277000    1.3363138   -3.2955345    -1.678739   0.19051847   -3.2955345    1.6167956  1089557 
 4278000    1.3375182   -3.2966849   -1.6785078   0.19485011   -3.2966849    1.6181771  1089608 
 4279000    1.3374009   -3.2970269   -1.6790912   0.19569937   -3.2970269    1.6179357  1089675 
 4280000    1.3385198   -3.2974272   -1.6782657   0.19215478   -3.2974272    1.6191615  1089761 
 4281000    1.3380321    -3.297497   -1.6790131   0.19209773    -3.297497    1.6184839  1089820 
 4282000    1.3373884   -3.2972112   -1.6796053   0.19264489   -3.2972112    1.6176059  1089887 
 4283000    1.3375739   -3.2976149   -1.6798648   0.19649067   -3.2976149    1.6177501  1089941 
 4284000    1.3381302   -3.2985234   -1.6802163   0.19079491   -3.2985234    1.6183071  1090019 
 4285000    1.3375444    -3.297857   -1.6803683   0.19124989    -3.297857    1.6174887  1090093 
 4286000    1.3379305   -3.2979165   -1.6800484    0.1913723   -3.2979165    1.6178681  1090152 
 4287000    1.3369645   -3.2971144   -1.6805315   0.19201754   -3.2971144    1.6165829  1090231 
 4288000    1.3381975   -3.2985774   -1.6805912   0.18486644   -3.2985774    1.6179861  1090290 
 4289000    1.3380469   -3.2975043   -1.6798115   0.19255765   -3.2975043    1.6176928  1090365 
 4290000    1.3369447   -3.2970711   -1.6808102   0.19358184   -3.2970711     1.616261  1090432 
 4291000    1.3384867   -3.2983932    -1.680363   0.19229565   -3.2983932    1.6180302  1090496 
 4292000    1.3385386   -3.2986863   -1.6807062   0.19210842   -3.2986863    1.6179801  1090572 
 4293000    1.3383459   -3.2987786   -1.6811337   0.19228067   -3.2987786    1.6176449  1090641 
 4294000    1.3382288    -3.298444   -1.6810385   0.19531248    -3.298444    1.6174054  1090707 
 4295000    1.3387721   -3.3003707   -1.6824066   0.19006105   -3.3003707    1.6179641  1090773 
 4296000     1.337135   -3.2979211   -1.6820451   0.19593886   -3.2979211     1.615876  1090847 
 4297000    1.3394671   -3.3004012   -1.6818183   0.19073783   -3.3004012     1.618583  1090922 
 4298000    1.3370166   -3.2978853   -1.6823775   0.19559296   -3.2978853    1.6155078  1090999 
 4299000    1.3395822   -3.3016309   -1.6831402   0.19087061   -3.3016309    1.6184907  1091078 
 4300000    1.3386922   -3.3008567   -1.6835244   0.19185096   -3.3008567    1.6173324  1091134 
 4301000    1.3388046   -3.3007633   -1.6833752   0.19269833   -3.3007633    1.6173881  1091188 
 4302000    1.3381135   -3.2990896   -1.6826371   0.19557168   -3.2990896    1.6164525  1091256 
 4303000    1.3393164   -3.3005145   -1.6826905   0.19116745   -3.3005145     1.617824  1091311 
 4304000    1.3395597   -3.3014111   -1.6833881   0.19435893   -3.3014111     1.618023  1091375 
 4305000    1.3392985   -3.3007974   -1.6831907    0.1939852   -3.3007974    1.6176067  1091443 
 4306000     1.340056    -3.301146   -1.6827193   0.19713484    -3.301146    1.6184268  1091507 
 4307000    1.3399704   -3.3013411   -1.6831111   0.19466102   -3.3013411      1.61823  1091570 
 4308000    1.3391372   -3.3005552   -1.6834367   0.19705595   -3.3005552    1.6171185  1091641 
 4309000     1.339689   -3.3018864   -1.6842023   0.19079533   -3.3018864    1.6176842  1091709 
 4310000    1.3398856   -3.3020675   -1.6842216   0.19645314   -3.3020675    1.6178459  1091760 
 4311000    1.3394757   -3.3017392   -1.6844786   0.19298322   -3.3017392    1.6172607  1091821 
 4312000    1.3395475   -3.3012518   -1.6840245   0.19940076   -3.3012518    1.6172273  1091902 
 4313000    1.3393102   -3.3017824   -1.6849526   0.19462061   -3.3017824    1.6168299  1091977 
 4314000    1.3397828   -3.3022369   -1.6849402   0.19268588   -3.3022369    1.6172966  1092047 
 4315000    1.3394742   -3.3010897   -1.6842603   0.19317976   -3.3010897    1.6168294  1092111 
 4316000    1.3393167   -3.3005453   -1.6840022   0.19904832   -3.3005453    1.6165431  1092176 
 4317000    1.3413938   -3.3029948   -1.6840337   0.19542732   -3.3029948    1.6189611  1092236 
 4318000    1.3402823   -3.3018032   -1.6842872   0.19798935   -3.3018032    1.6175161  1092306 
 4319000     1.339675   -3.3010455   -1.6843705     0.195417   -3.3010455     1.616675  1092379 
 4320000    1.3407644   -3.3028446   -1.6849424   0.19051739   -3.3028446    1.6179023  1092438 
 4321000    1.3400637   -3.3020958    -1.685119   0.19614746   -3.3020958    1.6169769  1092492 
 4322000    1.3401236   -3.3025447   -1.6855858   0.19516003   -3.3025447    1.6169589  1092553 
 4323000    1.3408958   -3.3029381   -1.6851571   0.19304988   -3.3029381     1.617781  1092627 
 4324000    1.3396311    -3.301586   -1.6854255    0.1964661    -3.301586    1.6161605  1092691 
 4325000    1.3403555   -3.3025188   -1.6855791   0.19608103   -3.3025188    1.6169397  1092755 
 4326000    1.3403771    -3.302005   -1.6851413   0.19447107    -3.302005    1.6168636  1092824 
 4327000    1.3415742   -3.3026797    -1.684492   0.19528499   -3.3026797    1.6181877  1092905 
 4328000    1.3421554   -3.3035754     -1.68478   0.19460053   -3.3035754    1.6187954  1092968 
 4329000    1.3416417   -3.3027399   -1.6846795   0.19167896   -3.3027399    1.6180604  1093046 
 4330000    1.3403222   -3.3013269   -1.6849392   0.19484718   -3.3013269    1.6163877  1093101 
 4331000    1.3423726   -3.3032163   -1.6844373   0.19325582   -3.3032163     1.618779  1093156 
 4332000    1.3417929   -3.3027325   -1.6847326   0.19454398   -3.3027325        1.618  1093210 
 4333000    1.3408858   -3.3021148   -1.6853062   0.19398778   -3.3021148    1.6168086  1093276 
 4334000    1.3413775   -3.3034711   -1.6861703   0.18925679   -3.3034711    1.6173008  1093344 
 4335000    1.3424687   -3.3051079   -1.6865802   0.19809513   -3.3051079    1.6185277  1093404 
 4336000    1.3404928   -3.3029498   -1.6869078   0.19690512   -3.3029498    1.6160421  1093474 
 4337000    1.3406796   -3.3034002   -1.6872157   0.19896718   -3.3034002    1.6161845  1093530 
 4338000    1.3414406   -3.3044589   -1.6874621   0.19200533   -3.3044589    1.6169969  1093601 
 4339000    1.3420886   -3.3044493   -1.6867379    0.1975861   -3.3044493    1.6177114  1093646 
 4340000    1.3434972   -3.3058338   -1.6865029   0.19252218   -3.3058338    1.6193308  1093699 
 4341000    1.3426345   -3.3049833   -1.6867958   0.19800338   -3.3049833    1.6181875  1093769 
 4342000    1.3439189   -3.3064329   -1.6867731   0.19481379   -3.3064329    1.6196598  1093820 
 4343000      1.34315     -3.30483   -1.6861812   0.19852176     -3.30483    1.6186488  1093877 
 4344000    1.3432106     -3.30577    -1.687128   0.19911472     -3.30577    1.6186421  1093931 
 4345000    1.3435293   -3.3061466   -1.6872464   0.19845842   -3.3061466    1.6189003  1094016 
 4346000    1.3438187    -3.305545   -1.6863951   0.19811219    -3.305545    1.6191498  1094083 
 4347000    1.3438035   -3.3061661    -1.687147   0.19754988   -3.3061661    1.6190191  1094159 
 4348000    1.3439789   -3.3064398   -1.6872909    0.1934114   -3.3064398    1.6191489  1094214 
 4349000    1.3424271   -3.3057294   -1.6885401   0.19575891   -3.3057294    1.6171893  1094275 
 4350000      1.34217   -3.3057542   -1.6889618   0.19768864   -3.3057542    1.6167924  1094334 
 4351000    1.3430129   -3.3069092   -1.6891916    0.1946998   -3.3069092    1.6177176  1094395 
 4352000    1.3430192   -3.3065582   -1.6889202   0.19949354   -3.3065582     1.617638  1094454 
 4353000    1.3438323   -3.3073864   -1.6888696   0.19267069   -3.3073864    1.6185168  1094522 
 4354000    1.3429443   -3.3063243   -1.6889701    0.1948229   -3.3063243    1.6173542  1094585 
 4355000    1.3431673   -3.3064504   -1.6889178   0.19831637   -3.3064504    1.6175326  1094646 
 4356000    1.3435936   -3.3066278   -1.6886719   0.19219578   -3.3066278    1.6179559  1094707 
 4357000    1.3432406   -3.3061922   -1.6887575   0.19570843   -3.3061922    1.6174347  1094772 
 4358000    1.3433009   -3.3061469   -1.6887356   0.19267568   -3.3061469    1.6174113  1094837 
 4359000    1.3444878   -3.3068365   -1.6880908    0.1948479   -3.3068365    1.6187457  1094901 
 4360000    1.3437966   -3.3060458   -1.6882135   0.19567213   -3.3060458    1.6178323  1094956 
 4361000    1.3446426   -3.3070161   -1.6882422    0.1961728   -3.3070161    1.6187739  1095008 
 4362000    1.3441091   -3.3057905   -1.6877431   0.19489952   -3.3057905    1.6180474  1095065 
 4363000    1.3438574   -3.3062729   -1.6886067   0.19894338   -3.3062729    1.6176662  1095118 
 4364000    1.3441553    -3.305753    -1.687845   0.19457479    -3.305753     1.617908  1095197 
 4365000     1.343317    -3.305264   -1.6884757    0.1965944    -3.305264    1.6167883  1095272 
 4366000    1.3441449   -3.3067446   -1.6890604   0.19416053   -3.3067446    1.6176842  1095340 
 4367000    1.3450504   -3.3077063   -1.6890076   0.19613707   -3.3077063    1.6186987  1095391 
 4368000    1.3447461      -3.3069   -1.6886739   0.19486536      -3.3069    1.6182261  1095463 
 4369000    1.3436029   -3.3056868   -1.6889337   0.19741012   -3.3056868     1.616753  1095529 
 4370000     1.343865   -3.3058813   -1.6889073   0.19511424   -3.3058813     1.616974  1095593 
 4371000    1.3445406    -3.307187   -1.6894799   0.19530018    -3.307187    1.6177071  1095647 
 4372000    1.3444391   -3.3072313   -1.6897408   0.19612174   -3.3072313    1.6174905  1095711 
 4373000    1.3449993   -3.3070997   -1.6890356   0.19548856   -3.3070997    1.6180641  1095779 
 4374000    1.3462949   -3.3096172   -1.6900817   0.19458081   -3.3096172    1.6195355  1095838 
 4375000    1.3459095   -3.3085788   -1.6896074   0.19548898   -3.3085788    1.6189714  1095906 
 4376000    1.3452484   -3.3084697   -1.6903954   0.19543824   -3.3084697    1.6180744  1095975 
 4377000    1.3446079   -3.3084255    -1.691222   0.19871996   -3.3084255    1.6172035  1096043 
 4378000     1.344546   -3.3078481   -1.6908031   0.19790761   -3.3078481     1.617045  1096100 
 4379000    1.3465827   -3.3100238   -1.6906268   0.19419538   -3.3100238     1.619397  1096166 
 4380000    1.3463189   -3.3100312   -1.6910356   0.19868884   -3.3100312    1.6189956  1096223 
 4381000    1.3452353   -3.3095327     -1.69192    0.1960098   -3.3095327    1.6176128  1096277 
 4382000    1.3458276   -3.3107325   -1.6924989   0.19393054   -3.3107325    1.6182336  1096339 
 4383000    1.3457393   -3.3095053   -1.6914636   0.19716455   -3.3095053    1.6180417  1096397 
 4384000    1.3461087    -3.310685   -1.6922935   0.19836284    -3.310685    1.6183914  1096461 
 4385000    1.3464858   -3.3111174   -1.6923612   0.19383199   -3.3111174    1.6187563  1096521 
 4386000    1.3467016   -3.3114321    -1.692533    0.1982615   -3.3114321    1.6188991  1096600 
 4387000    1.3461087   -3.3111461   -1.6930366   0.19212825   -3.3111461    1.6181095  1096652 
 4388000    1.3458736   -3.3107561   -1.6930191   0.19769947   -3.3107561     1.617737  1096713 
 4389000    1.3460086   -3.3108051   -1.6930003    0.1966439   -3.3108051    1.6178048  1096777 
 4390000    1.3463819   -3.3112424   -1.6930834    0.1939965   -3.3112424    1.6181591  1096841 
 4391000     1.345447   -3.3104163   -1.6935002   0.19583286   -3.3104163    1.6169161  1096922 
 4392000    1.3455734   -3.3112606   -1.6942796   0.19166613   -3.3112606     1.616981  1096981 
 4393000    1.3461577   -3.3118099   -1.6942152   0.19942998   -3.3118099    1.6175947  1097041 
 4394000    1.3450063   -3.3106426   -1.6945538   0.19847399   -3.3106426    1.6160888  1097124 
 4395000    1.3468694   -3.3123301   -1.6941147   0.19764705   -3.3123301    1.6182154  1097200 
 4396000    1.3452827   -3.3104333   -1.6942068   0.19733906   -3.3104333    1.6162265  1097256 
 4397000    1.3474261   -3.3124575   -1.6937621   0.19407045   -3.3124575    1.6186954  1097328 
 4398000    1.3467552   -3.3119267   -1.6941391   0.19804684   -3.3119267    1.6177877  1097397 
 4399000    1.3466359   -3.3121349   -1.6946069   0.19579478   -3.3121349    1.6175279  1097476 
 4400000    1.3456582   -3.3111314   -1.6948913   0.19417209   -3.3111314    1.6162402  1097553 
 4401000    1.3466199   -3.3123352   -1.6950402   0.19866871   -3.3123352     1.617295  1097621 
 4402000    1.3471919   -3.3121339   -1.6942551   0.19364702   -3.3121339    1.6178788  1097691 
 4403000    1.3468707   -3.3121103    -1.694713   0.19840055   -3.3121103    1.6173973  1097756 
 4404000    1.3472994   -3.3122873   -1.6944651   0.19767483   -3.3122873    1.6178222  1097817 
 4405000    1.3484607   -3.3138318   -1.6947125   0.19492844   -3.3138318    1.6191194  1097883 
 4406000    1.3470412   -3.3127259   -1.6954068   0.19984911   -3.3127259    1.6173191  1097948 
 4407000    1.3467543   -3.3126621    -1.695789   0.19870046   -3.3126621    1.6168732  1098017 
 4408000    1.3462201   -3.3127603   -1.6966389   0.19706453   -3.3127603    1.6161214  1098092 
 4409000    1.3475436   -3.3142133   -1.6965945   0.19582216   -3.3142133    1.6176188  1098154 
 4410000    1.3463743   -3.3125158   -1.6964007   0.19991398   -3.3125158    1.6161151  1098222 
 4411000    1.3474844   -3.3140055   -1.6966373   0.19837295   -3.3140055    1.6173681  1098276 
 4412000    1.3482487   -3.3137557   -1.6955851   0.19950666   -3.3137557    1.6181706  1098354 
 4413000    1.3478793   -3.3136579   -1.6960043   0.19979168   -3.3136579    1.6176535  1098404 
 4414000    1.3467665    -3.312386   -1.6961577   0.19719742    -3.312386    1.6162283  1098465 
 4415000    1.3480401   -3.3142897   -1.6966155    0.2011427   -3.3142897    1.6176743  1098521 
 4416000    1.3481347   -3.3142909   -1.6966209   0.20317128   -3.3142909      1.61767  1098601 
 4417000    1.3478483   -3.3137089   -1.6964739   0.19737781   -3.3137089    1.6172351  1098663 
 4418000    1.3484047   -3.3142704    -1.696462   0.20162188   -3.3142704    1.6178084  1098727 
 4419000    1.3491233   -3.3157791   -1.6971881   0.19646787   -3.3157791     1.618591  1098781 
 4420000    1.3478162   -3.3139156   -1.6969855   0.20326017   -3.3139156    1.6169301  1098844 
 4421000    1.3487404   -3.3152876   -1.6973268   0.19854861   -3.3152876    1.6179608  1098897 
 4422000    1.3497599   -3.3157791   -1.6967013   0.19843558   -3.3157791    1.6190777  1098969 
 4423000    1.3496171    -3.315776   -1.6969697   0.19767357    -3.315776    1.6188063  1099037 
 4424000    1.3483639   -3.3142623   -1.6970548   0.20212485   -3.3142623    1.6172075  1099102 
 4425000    1.3484153   -3.3139566    -1.696789   0.20531013   -3.3139566    1.6171676  1099171 
 4426000    1.3490413   -3.3150098   -1.6971827   0.20142972   -3.3150098    1.6178271  1099233 
 4427000    1.3494008   -3.3145689   -1.6963946   0.20242295   -3.3145689    1.6181743  1099290 
 4428000     1.350196   -3.3155908   -1.6965482   0.20268769   -3.3155908    1.6190425  1099348 
 4429000    1.3502059   -3.3150323   -1.6960677   0.20148908   -3.3150323    1.6189646  1099409 
 4430000    1.3498519   -3.3153304   -1.6968787   0.20165438   -3.3153304    1.6184517  1099469 
 4431000    1.3495031   -3.3147086   -1.6967442   0.20182953   -3.3147086    1.6179644  1099516 
 4432000    1.3493077    -3.314041   -1.6964109   0.20415947    -3.314041    1.6176301  1099584 
 4433000    1.3510067   -3.3154612   -1.6958679   0.20151083   -3.3154612    1.6195933  1099634 
 4434000    1.3515993   -3.3163307   -1.6961184    0.1970807   -3.3163307    1.6202124  1099696 
 4435000    1.3516708   -3.3164778   -1.6962594   0.19847876   -3.3164778    1.6202185  1099750 
 4436000    1.3517309   -3.3165997   -1.6964079   0.19566013   -3.3165997    1.6201918  1099817 
 4437000    1.3517943   -3.3171655   -1.6969846   0.19569381   -3.3171655     1.620181  1099876 
 4438000    1.3515722    -3.316098   -1.6962584   0.19741556    -3.316098    1.6198396  1099927 
 4439000    1.3519524   -3.3172536   -1.6970584   0.19628475   -3.3172536    1.6201952  1099995 
 4440000    1.3506854   -3.3156239   -1.6970457   0.19946421   -3.3156239    1.6185781  1100062 
 4441000    1.3511777   -3.3172985   -1.6981981   0.19591102   -3.3172985    1.6191004  1100108 
 4442000    1.3504936    -3.317213   -1.6990295   0.20033099    -3.317213    1.6181835  1100174 
 4443000    1.3500091   -3.3165543    -1.699041   0.19816267   -3.3165543    1.6175133  1100235 
 4444000    1.3506022   -3.3173567   -1.6992298    0.1973272   -3.3173567    1.6181269  1100301 
 4445000    1.3510187   -3.3178548   -1.6993113    0.2002633   -3.3178548    1.6185435  1100357 
 4446000    1.3507145   -3.3176055   -1.6995177   0.19486395   -3.3176055    1.6180879  1100419 
 4447000    1.3500258   -3.3170345   -1.6998613   0.19869617   -3.3170345    1.6171733  1100480 
 4448000    1.3515933   -3.3183089   -1.6993462   0.19867335   -3.3183089    1.6189627  1100540 
 4449000      1.35156   -3.3174919   -1.6986397   0.20112817   -3.3174919    1.6188522  1100588 
 4450000    1.3518903   -3.3183243    -1.699178   0.20059361   -3.3183243    1.6191463  1100657 
 4451000    1.3521176   -3.3186035   -1.6992689   0.20004083   -3.3186035    1.6193346  1100714 
 4452000    1.3511632    -3.318942   -1.7008253   0.20201213    -3.318942    1.6181167  1100765 
 4453000    1.3505296   -3.3181393   -1.7008725   0.20432912   -3.3181393    1.6172667  1100827 
 4454000    1.3519817   -3.3195008   -1.7005746   0.20193665   -3.3195008    1.6189262  1100881 
 4455000    1.3522384   -3.3199724   -1.7008286   0.19914475   -3.3199724    1.6191439  1100942 
 4456000    1.3520856   -3.3197141   -1.7008384   0.20051999   -3.3197141    1.6188756  1101000 
 4457000     1.352384   -3.3206556   -1.7015108   0.19815599   -3.3206556    1.6191447  1101060 
 4458000    1.3515793   -3.3195968   -1.7015022   0.19887481   -3.3195968    1.6180946  1101119 
 4459000     1.352008   -3.3205239   -1.7020028   0.19919929   -3.3205239    1.6185211  1101178 
 4460000    1.3511723   -3.3191311   -1.7016942   0.19993362   -3.3191311    1.6174369  1101235 
 4461000    1.3513318   -3.3193967   -1.7018702   0.19710287   -3.3193967    1.6175265  1101304 
 4462000    1.3503082   -3.3186595   -1.7024492   0.20102059   -3.3186595    1.6162103  1101366 
 4463000    1.3521199   -3.3203569   -1.7020707   0.20080271   -3.3203569    1.6182862  1101429 
 4464000    1.3512719   -3.3195774    -1.702384   0.19889183   -3.3195774    1.6171934  1101482 
 4465000    1.3527053   -3.3210954   -1.7022703    0.1952302   -3.3210954    1.6188251  1101539 
 4466000    1.3520716   -3.3194674   -1.7014844    0.2026355   -3.3194674     1.617983  1101596 
 4467000    1.3525917   -3.3201946   -1.7016701   0.19622126   -3.3201946    1.6185246  1101651 
 4468000    1.3528151   -3.3210885   -1.7024023   0.19942924   -3.3210885    1.6186862  1101723 
 4469000    1.3522697   -3.3198827   -1.7019313   0.19946824   -3.3198827    1.6179514  1101779 
 4470000    1.3538267   -3.3208063   -1.7010774   0.19894428   -3.3208063    1.6197289  1101837 
 4471000    1.3530556   -3.3202136   -1.7014924   0.20079756   -3.3202136    1.6187212  1101895 
 4472000    1.3528671   -3.3195796   -1.7011588   0.19926427   -3.3195796    1.6184208  1101946 
 4473000    1.3537287   -3.3202474   -1.7008679   0.20266813   -3.3202474    1.6193796  1101995 
 4474000    1.3544307   -3.3217731   -1.7016126   0.20128305   -3.3217731    1.6201605  1102035 
 4475000    1.3530076   -3.3208456   -1.7024829   0.20164666   -3.3208456    1.6183627  1102100 
 4476000    1.3537712   -3.3221029   -1.7029267   0.19761838   -3.3221029    1.6191762  1102168 
 4477000    1.3529698   -3.3211471   -1.7030132   0.19898814   -3.3211471    1.6181339  1102225 
 4478000    1.3532429   -3.3211632   -1.7027761   0.20063214   -3.3211632    1.6183871  1102275 
 4479000    1.3526193   -3.3208176   -1.7032716   0.19910218   -3.3208176     1.617546  1102340 
 4480000    1.3526515   -3.3212949   -1.7038088   0.20232638   -3.3212949    1.6174862  1102407 
 4481000    1.3529241   -3.3210272   -1.7033046   0.20482014   -3.3210272    1.6177227  1102468 
 4482000    1.3536931   -3.3218836   -1.7032972   0.20145741   -3.3218836    1.6185864  1102506 
 4483000    1.3536887   -3.3221989   -1.7036927   0.20139583   -3.3221989    1.6185062  1102557 
 4484000    1.3526996   -3.3203931   -1.7031618   0.20086001   -3.3203931    1.6172313  1102620 
 4485000    1.3533795   -3.3222995   -1.7043288   0.19839003   -3.3222995    1.6179707  1102670 
 4486000    1.3545882     -3.32316    -1.703831   0.20302295     -3.32316    1.6193291  1102729 
 4487000    1.3544846   -3.3231017   -1.7039714   0.19902712   -3.3231017    1.6191304  1102780 
 4488000    1.3530169    -3.321344   -1.7040678   0.20386354    -3.321344    1.6172762  1102848 
 4489000    1.3546345   -3.3231896   -1.7040768   0.20142519   -3.3231896    1.6191128  1102914 
 4490000    1.3551341   -3.3236764   -1.7040531   0.19821041   -3.3236764    1.6196233  1102973 
 4491000    1.3543352    -3.323097   -1.7045019   0.19958288    -3.323097    1.6185951  1103023 
 4492000    1.3556558   -3.3241727   -1.7040816   0.19422766   -3.3241727    1.6200912  1103079 
 4493000    1.3541393   -3.3233221    -1.705099   0.20209123   -3.3233221    1.6182231  1103117 
 4494000    1.3548104   -3.3237409   -1.7047965   0.20002324   -3.3237409    1.6189443  1103172 
 4495000    1.3555051   -3.3237796   -1.7041078   0.20144617   -3.3237796    1.6196717  1103242 
 4496000    1.3552794    -3.323328   -1.7040082   0.20105249    -3.323328    1.6193198  1103298 
 4497000    1.3542436   -3.3227283   -1.7047502   0.20346385   -3.3227283    1.6179781  1103369 
 4498000     1.353772   -3.3230556   -1.7057259   0.20178172   -3.3230556    1.6173297  1103427 
 4499000    1.3551211   -3.3242233    -1.705364   0.20196663   -3.3242233    1.6188592  1103483 
 4500000    1.3554876   -3.3245724   -1.7053737   0.19831296   -3.3245724    1.6191987  1103550 
 4501000    1.3548811   -3.3237338   -1.7053432   0.19784446   -3.3237338    1.6183906  1103607 
 4502000    1.3541874   -3.3237652   -1.7063014   0.20140318   -3.3237652    1.6174638  1103674 
 4503000    1.3550142   -3.3243539   -1.7059802   0.20203528   -3.3243539    1.6183737  1103727 
 4504000     1.354044   -3.3237924   -1.7066771   0.19949447   -3.3237924    1.6171153  1103795 
 4505000    1.3548545    -3.324428   -1.7064181   0.19877963    -3.324428    1.6180099  1103845 
 4506000    1.3548971    -3.324506   -1.7065332   0.20108715    -3.324506    1.6179728  1103905 
 4507000     1.355507    -3.325413   -1.7067865   0.19747655    -3.325413    1.6186265  1103956 
 4508000    1.3560641   -3.3257785   -1.7065778   0.19743114   -3.3257785    1.6192008  1104018 
 4509000    1.3558222   -3.3258838   -1.7070628   0.19949807   -3.3258838     1.618821  1104080 
 4510000    1.3556264   -3.3255851   -1.7070961   0.19886763   -3.3255851     1.618489  1104147 
 4511000    1.3542401   -3.3240945   -1.7073441   0.20228028   -3.3240945    1.6167504  1104204 
 4512000    1.3549895   -3.3253635   -1.7077916   0.20159536   -3.3253635    1.6175718  1104254 
 4513000    1.3565801   -3.3266802   -1.7073034   0.19944517   -3.3266802    1.6193768  1104318 
 4514000    1.3560673   -3.3268033   -1.7081046   0.20075723   -3.3268033    1.6186987  1104363 
 4515000    1.3555027   -3.3267396   -1.7088028   0.19894985   -3.3267396    1.6179368  1104423 
 4516000    1.3560078   -3.3275888   -1.7091179   0.19655325   -3.3275888    1.6184709  1104470 
 4517000    1.3548052   -3.3259175   -1.7089654   0.20475812   -3.3259175    1.6169521  1104527 
 4518000    1.3555771   -3.3263419   -1.7085285   0.20267176   -3.3263419    1.6178133  1104568 
 4519000    1.3560213   -3.3271485     -1.70889   0.20306084   -3.3271485    1.6182585  1104626 
 4520000    1.3562893    -3.327869   -1.7093406   0.20307755    -3.327869    1.6185284  1104660 
 4521000    1.3556179   -3.3271573   -1.7095136   0.20242779   -3.3271573    1.6176437  1104717 
 4522000    1.3554678   -3.3270403   -1.7096562   0.20321486   -3.3270403    1.6173841  1104772 
 4523000     1.355115   -3.3272145   -1.7103289   0.20651258   -3.3272145    1.6168856  1104825 
 4524000    1.3566282   -3.3287574    -1.710144   0.19993456   -3.3287574    1.6186134  1104878 
 4525000    1.3563488   -3.3283572   -1.7101577   0.19781075   -3.3283572    1.6181995  1104933 
 4526000     1.356707    -3.328598   -1.7100385   0.19854136    -3.328598    1.6185595  1104979 
 4527000    1.3564646   -3.3284538   -1.7102743   0.20184238   -3.3284538    1.6181795  1105041 
 4528000     1.356238   -3.3277671    -1.709931    0.2005475   -3.3277671    1.6178361  1105091 
 4529000    1.3564672   -3.3282231   -1.7102161    0.2033987   -3.3282231    1.6180069  1105161 
 4530000    1.3562134   -3.3281129    -1.710498   0.20327802   -3.3281129    1.6176149  1105222 
 4531000    1.3561828   -3.3276098   -1.7101149   0.20109283   -3.3276098    1.6174949  1105279 
 4532000    1.3560211   -3.3276479   -1.7104175   0.20251605   -3.3276479    1.6172305  1105328 
 4533000    1.3569795   -3.3286595   -1.7103636   0.20003134   -3.3286595    1.6182958  1105381 
 4534000    1.3567601   -3.3286717   -1.7107429   0.19958883   -3.3286717    1.6179288  1105453 
 4535000    1.3558034   -3.3282038   -1.7114977   0.20023442   -3.3282038    1.6167061  1105509 
 4536000    1.3570093   -3.3295838   -1.7115275   0.20010193   -3.3295838    1.6180562  1105569 
 4537000    1.3565521   -3.3280388   -1.7106039   0.20166562   -3.3280388    1.6174349  1105621 
 4538000    1.3568179   -3.3295912   -1.7119183   0.19648584   -3.3295912    1.6176729  1105675 
 4539000     1.355743   -3.3284496   -1.7121285   0.20031018   -3.3284496    1.6163211  1105723 
 4540000    1.3563411   -3.3285612   -1.7116366   0.20286461   -3.3285612    1.6169245  1105798 
 4541000    1.3576245   -3.3300114   -1.7116432   0.19968598   -3.3300114    1.6183682  1105857 
 4542000    1.3582355   -3.3301487     -1.71114   0.19878217   -3.3301487    1.6190087  1105917 
 4543000    1.3583786   -3.3300081   -1.7109152   0.20421884   -3.3300081    1.6190929  1105976 
 4544000    1.3584375   -3.3297053   -1.7106329    0.2060135   -3.3297053    1.6190723  1106038 
 4545000    1.3571404   -3.3280923    -1.710645   0.20347405   -3.3280923    1.6174474  1106092 
 4546000    1.3582462    -3.329824   -1.7111348   0.20492848    -3.329824    1.6186892  1106144 
 4547000    1.3581911   -3.3304169   -1.7118782   0.19804891   -3.3304169    1.6185386  1106202 
 4548000    1.3577841   -3.3294294   -1.7114694   0.20759159   -3.3294294      1.61796  1106266 
 4549000    1.3582867   -3.3301537   -1.7116841   0.20355384   -3.3301537    1.6184696  1106327 
 4550000    1.3586923   -3.3312931    -1.712406   0.20129734   -3.3312931    1.6188871  1106372 
 4551000    1.3572594    -3.330384   -1.7132787   0.20241371    -3.330384    1.6171053  1106423 
 4552000    1.3578779   -3.3307472   -1.7129723   0.20407777   -3.3307472    1.6177749  1106469 
 4553000    1.3583841    -3.331024   -1.7127323   0.20532923    -3.331024    1.6182917  1106528 
 4554000    1.3591329    -3.332079   -1.7129728   0.19701807    -3.332079    1.6191063  1106581 
 4555000    1.3571899   -3.3301512   -1.7134357   0.20548581   -3.3301512    1.6167156  1106633 
 4556000    1.3581436   -3.3305647   -1.7128067   0.20482057   -3.3305647    1.6177581  1106697 
 4557000    1.3583494   -3.3305433   -1.7126322   0.20218399   -3.3305433    1.6179112  1106760 
 4558000    1.3582672   -3.3312115   -1.7134903   0.20348674   -3.3312115    1.6177212  1106823 
 4559000    1.3586562   -3.3315694   -1.7134653   0.20258192   -3.3315694    1.6181041  1106878 
 4560000    1.3590948   -3.3322403   -1.7137001   0.20208449   -3.3322403    1.6185402  1106937 
 4561000     1.358614   -3.3321326   -1.7142249   0.20249282   -3.3321326    1.6179076  1106978 
 4562000      1.35877   -3.3317141   -1.7137274   0.20789479   -3.3317141    1.6179868  1107051 
 4563000    1.3587757   -3.3320326   -1.7141195   0.20274387   -3.3320326    1.6179131  1107106 
 4564000     1.359167    -3.332365   -1.7140576   0.20147214    -3.332365    1.6183074  1107155 
 4565000    1.3589769   -3.3310429   -1.7130553   0.20387116   -3.3310429    1.6179876  1107219 
 4566000    1.3597342   -3.3318917   -1.7130727   0.20354518   -3.3318917     1.618819  1107267 
 4567000    1.3593508    -3.331652   -1.7133785   0.20247857    -3.331652    1.6182734  1107328 
 4568000    1.3588621   -3.3307976   -1.7131965   0.20543271   -3.3307976    1.6176011  1107390 
 4569000    1.3591566   -3.3317463   -1.7138517   0.20617047   -3.3317463    1.6178946  1107429 
 4570000      1.36031    -3.332601    -1.713424    0.2044537    -3.332601     1.619177  1107491 
 4571000    1.3597868    -3.332045   -1.7135799   0.20884645    -3.332045    1.6184651  1107552 
 4572000    1.3594836   -3.3317418   -1.7137107   0.20334338   -3.3317418    1.6180311  1107602 
 4573000    1.3598863   -3.3321833   -1.7137547   0.19966599   -3.3321833    1.6184286  1107658 
 4574000    1.3608353    -3.332625   -1.7131357   0.20414113    -3.332625    1.6194893  1107705 
 4575000    1.3614705   -3.3329221   -1.7127705   0.20231498   -3.3329221    1.6201516  1107769 
 4576000    1.3602185   -3.3313387   -1.7127413   0.20576153   -3.3313387    1.6185974  1107813 
 4577000    1.3622547   -3.3339286   -1.7129843   0.20067671   -3.3339286    1.6209443  1107865 
 4578000    1.3611458    -3.332681   -1.7131175   0.20160415    -3.332681    1.6195634  1107907 
 4579000    1.3594124   -3.3314578   -1.7140196   0.20200943   -3.3314578    1.6174382  1107950 
 4580000    1.3603374   -3.3335283   -1.7150816    0.2011526   -3.3335283    1.6184467  1108013 
 4581000    1.3596889   -3.3326946   -1.7150954   0.20306274   -3.3326946    1.6175993  1108065 
 4582000    1.3609593   -3.3347096   -1.7156822    0.2020311   -3.3347096    1.6190274  1108122 
 4583000     1.360166   -3.3341536   -1.7161706    0.2010176   -3.3341536    1.6179829  1108191 
 4584000    1.3595685   -3.3340224   -1.7168233   0.20029128   -3.3340224    1.6171991  1108241 
 4585000    1.3600466   -3.3347231   -1.7170487   0.19862174   -3.3347231    1.6176744  1108305 
 4586000    1.3600362   -3.3343739   -1.7167936   0.19941549   -3.3343739    1.6175803  1108361 
 4587000    1.3591469   -3.3340186   -1.7175777   0.20524671   -3.3340186    1.6164409  1108417 
 4588000     1.360182   -3.3340611   -1.7164635   0.20319984   -3.3340611    1.6175976  1108468 
 4589000    1.3616172    -3.336136   -1.7169134   0.19996086    -3.336136    1.6192226  1108524 
 4590000    1.3603419   -3.3347933    -1.717185   0.20155047   -3.3347933    1.6176082  1108591 
 4591000    1.3592976    -3.333924   -1.7176276   0.20343198    -3.333924    1.6162964  1108639 
 4592000    1.3612167   -3.3359263   -1.7174253   0.20222397   -3.3359263     1.618501  1108692 
 4593000    1.3598642    -3.335441   -1.7186254    0.1994912    -3.335441    1.6168156  1108745 
 4594000     1.360735      -3.3367   -1.7189337   0.20022137      -3.3367    1.6177664  1108803 
 4595000    1.3604353   -3.3361967    -1.718883   0.20655708   -3.3361967    1.6173137  1108869 
 4596000    1.3615373   -3.3371338   -1.7185713   0.19775346   -3.3371338    1.6185625  1108911 
 4597000    1.3602183   -3.3362972   -1.7193815   0.20078929   -3.3362972    1.6169158  1108965 
 4598000    1.3614715   -3.3372463   -1.7189225   0.19966788   -3.3372463    1.6183238  1109021 
 4599000    1.3618171   -3.3368223   -1.7181826   0.20194272   -3.3368223    1.6186397  1109086 
 4600000    1.3612559   -3.3366137   -1.7187242   0.20109633   -3.3366137    1.6178896  1109143 
 4601000    1.3614277   -3.3372292   -1.7192202   0.20240679   -3.3372292    1.6180091  1109201 
 4602000    1.3607774   -3.3366975   -1.7195589   0.20643137   -3.3366975    1.6171385  1109268 
 4603000     1.361819   -3.3380172   -1.7197501   0.20561882   -3.3380172     1.618267  1109343 
 4604000    1.3628411   -3.3396027   -1.7202145   0.20227076   -3.3396027    1.6193882  1109407 
 4605000    1.3607671   -3.3376823    -1.720849   0.20745672   -3.3376823    1.6168333  1109469 
 4606000    1.3617386   -3.3384413   -1.7205295   0.20575784   -3.3384413    1.6179118  1109521 
 4607000    1.3608886   -3.3379493   -1.7211348   0.20502001   -3.3379493    1.6168145  1109581 
 4608000    1.3609865   -3.3387185   -1.7218488   0.20324978   -3.3387185    1.6168696  1109623 
 4609000    1.3612123    -3.338834   -1.7217617   0.20054289    -3.338834    1.6170723  1109668 
 4610000    1.3611484   -3.3389725   -1.7220564   0.19981475   -3.3389725    1.6169162  1109723 
 4611000     1.360751   -3.3382958   -1.7219114   0.20046606   -3.3382958    1.6163844  1109764 
 4612000     1.362614    -3.339625    -1.721102   0.19833558    -3.339625     1.618523  1109815 
 4613000    1.3614758   -3.3378772   -1.7207891    0.2046176   -3.3378772     1.617088  1109872 
 4614000    1.3616936   -3.3380488    -1.720772   0.20149199   -3.3380488    1.6172768  1109920 
 4615000    1.3620997   -3.3385923   -1.7208871    0.2042605   -3.3385923    1.6177052  1109957 
 4616000    1.3624828   -3.3391282   -1.7210512   0.20666095   -3.3391282     1.618077  1110014 
 4617000    1.3616559   -3.3383695   -1.7213342   0.20355614   -3.3383695    1.6170353  1110055 
 4618000    1.3619762   -3.3387221   -1.7213851   0.20531145   -3.3387221     1.617337  1110109 
 4619000    1.3613351   -3.3378368   -1.7213339   0.20862095   -3.3378368    1.6165029  1110159 
 4620000    1.3620335   -3.3386646   -1.7214096   0.20394945   -3.3386646     1.617255  1110212 
 4621000    1.3617134   -3.3389738   -1.7221731   0.20348859   -3.3389738    1.6168007  1110263 
 4622000    1.3614078   -3.3383989   -1.7220222   0.20448289   -3.3383989    1.6163766  1110305 
 4623000    1.3611146   -3.3375418   -1.7215817   0.20772641   -3.3375418    1.6159601  1110352 
 4624000    1.3631671   -3.3397023   -1.7213754   0.20471683   -3.3397023     1.618327  1110400 
 4625000    1.3633152   -3.3396087    -1.721189   0.20581127   -3.3396087    1.6184197  1110457 
 4626000    1.3634769   -3.3393289   -1.7208179   0.20394446   -3.3393289    1.6185111  1110526 
 4627000    1.3633984   -3.3392128   -1.7208721   0.20902859   -3.3392128    1.6183407  1110579 
 4628000    1.3638303   -3.3404432   -1.7216613   0.20304937   -3.3404432    1.6187819  1110628 
 4629000    1.3631355   -3.3395826   -1.7216735   0.20512278   -3.3395826    1.6179092  1110661 
 4630000    1.3644148   -3.3406133   -1.7212805    0.2019965   -3.3406133    1.6193328  1110726 
 4631000    1.3638308   -3.3396418    -1.721072   0.20497201   -3.3396418    1.6185698  1110774 
 4632000    1.3632458   -3.3394941   -1.7217118   0.20451725   -3.3394941    1.6177823  1110838 
 4633000    1.3631178    -3.339488   -1.7219173    0.2033166    -3.339488    1.6175706  1110879 
 4634000    1.3631152    -3.339435   -1.7219388   0.20481559    -3.339435    1.6174962  1110928 
 4635000    1.3638365   -3.3400515   -1.7217853    0.1989661   -3.3400515    1.6182662  1110987 
 4636000    1.3631924   -3.3400136   -1.7225801   0.20321011   -3.3400136    1.6174335  1111034 
 4637000    1.3629731   -3.3397918   -1.7226985   0.20841595   -3.3397918    1.6170933  1111089 
 4638000    1.3636349   -3.3397953   -1.7219853   0.20151242   -3.3397953    1.6178101  1111136 
 4639000    1.3650261   -3.3421094   -1.7227465    0.2046203   -3.3421094    1.6193629  1111203 
 4640000    1.3635138   -3.3408031   -1.7232999   0.20439381   -3.3408031    1.6175033  1111248 
 4641000    1.3630894   -3.3400481   -1.7231297   0.20873433   -3.3400481    1.6169184  1111304 
 4642000    1.3633554    -3.340333   -1.7231762   0.20262934    -3.340333    1.6171568  1111357 
 4643000    1.3639402   -3.3413021   -1.7235347   0.20301994   -3.3413021    1.6177674  1111414 
 4644000    1.3645678   -3.3425291   -1.7240872   0.20082784   -3.3425291    1.6184419  1111462 
 4645000    1.3647754   -3.3426664   -1.7240525   0.20459683   -3.3426664    1.6186139  1111513 
 4646000    1.3641781   -3.3424481   -1.7246197   0.20173952   -3.3424481    1.6178284  1111566 
 4647000    1.3645467    -3.342356    -1.724172   0.20499428    -3.342356     1.618184  1111622 
 4648000    1.3647399   -3.3425795   -1.7242495   0.20005649   -3.3425795    1.6183301  1111679 
 4649000    1.3628331    -3.340347   -1.7243491   0.20675882    -3.340347    1.6159978  1111728 
 4650000    1.3640401   -3.3417879   -1.7244389   0.20595076   -3.3417879     1.617349  1111783 
 4651000    1.3645305   -3.3421847   -1.7243431   0.20636066   -3.3421847    1.6178417  1111844 
 4652000    1.3650597   -3.3425997   -1.7242019     0.200233   -3.3425997    1.6183978  1111893 
 4653000    1.3645864   -3.3414384   -1.7236818   0.21071248   -3.3414384    1.6177566  1111948 
 4654000    1.3663353   -3.3431386   -1.7233858   0.20482626   -3.3431386    1.6197528  1112001 
 4655000    1.3651383   -3.3424035   -1.7241614   0.20751133   -3.3424035    1.6182421  1112064 
 4656000     1.365029   -3.3424244   -1.7243599   0.21109708   -3.3424244    1.6180645  1112097 
 4657000    1.3653005   -3.3428276   -1.7245111   0.20706803   -3.3428276    1.6183165  1112145 
 4658000    1.3656711   -3.3434562   -1.7247601   0.20615929   -3.3434562    1.6186961  1112186 
 4659000     1.366044   -3.3435562   -1.7244821   0.20415667   -3.3435562    1.6190741  1112230 
 4660000    1.3666978   -3.3444511   -1.7246909   0.20374832   -3.3444511    1.6197602  1112291 
 4661000    1.3652064   -3.3429219   -1.7249918   0.20504085   -3.3429219      1.61793  1112334 
 4662000    1.3647428   -3.3424717   -1.7251783   0.21064917   -3.3424717    1.6172934  1112394 
 4663000    1.3653795   -3.3434628   -1.7254935   0.20840225   -3.3434628    1.6179693  1112448 
 4664000    1.3658725   -3.3440454   -1.7255589   0.20378673   -3.3440454    1.6184866  1112494 
 4665000    1.3651244   -3.3439765   -1.7264477    0.2071625   -3.3439765    1.6175289  1112543 
 4666000    1.3644155    -3.342686   -1.7260595   0.20602722    -3.342686    1.6166265  1112586 
 4667000     1.365157   -3.3432892   -1.7258627   0.20472442   -3.3432892    1.6174265  1112640 
 4668000    1.3650681   -3.3445069   -1.7272627   0.20278015   -3.3445069    1.6172441  1112693 
 4669000    1.3639938   -3.3433246   -1.7274099   0.20485261   -3.3433246    1.6159148  1112732 
 4670000    1.3650258   -3.3441745   -1.7271258   0.20701787   -3.3441745    1.6170488  1112793 
 4671000    1.3653912   -3.3441673   -1.7267613   0.20904021   -3.3441673     1.617406  1112845 
 4672000    1.3662774   -3.3443443   -1.7259627   0.20481677   -3.3443443    1.6183816  1112896 
 4673000    1.3659811   -3.3445023   -1.7265488   0.20817896   -3.3445023    1.6179535  1112949 
 4674000    1.3648519   -3.3433972   -1.7268712   0.20677397   -3.3433972     1.616526  1113011 
 4675000    1.3663131   -3.3453739   -1.7271899    0.2035266   -3.3453739     1.618184  1113061 
 4676000    1.3658918   -3.3450034   -1.7273708   0.20647246   -3.3450034    1.6176326  1113097 
 4677000    1.3665747   -3.3459932   -1.7276215   0.20482289   -3.3459932    1.6183717  1113145 
 4678000    1.3659019   -3.3450733   -1.7275769   0.20612757   -3.3450733    1.6174964  1113199 
 4679000    1.3649749   -3.3450789   -1.7287571    0.2063487   -3.3450789    1.6163217  1113252 
 4680000    1.3657992   -3.3458034   -1.7285783   0.20332416   -3.3458034    1.6172251  1113302 
 4681000    1.3654133   -3.3456599   -1.7289469   0.20527162   -3.3456599     1.616713  1113340 
 4682000     1.365572   -3.3457856   -1.7289587   0.20483508   -3.3457856    1.6168269  1113391 
 4683000    1.3656715   -3.3453944   -1.7285238   0.20859549   -3.3453944    1.6168706  1113442 
 4684000    1.3667546   -3.3468655   -1.7287925    0.2093084   -3.3468655     1.618073  1113497 
 4685000    1.3662844   -3.3467997   -1.7293764   0.20176237   -3.3467997    1.6174234  1113561 
 4686000    1.3654636   -3.3455568   -1.7291892   0.20699216   -3.3455568    1.6163676  1113619 
 4687000    1.3659331   -3.3463464   -1.7295014   0.20572099   -3.3463464     1.616845  1113673 
 4688000    1.3666744   -3.3469346   -1.7292878   0.20444172   -3.3469346    1.6176468  1113725 
 4689000    1.3660504   -3.3461821   -1.7293566   0.20692534   -3.3461821    1.6168255  1113782 
 4690000    1.3661228    -3.347613   -1.7307845   0.20694933    -3.347613    1.6168285  1113839 
 4691000    1.3670273   -3.3480375    -1.730217   0.20507333   -3.3480375    1.6178205  1113893 
 4692000    1.3663881   -3.3473882   -1.7303837   0.20941788   -3.3473882    1.6170045  1113934 
 4693000    1.3663755   -3.3474933   -1.7306039   0.20787649   -3.3474933    1.6168895  1114003 
 4694000    1.3657543   -3.3475258   -1.7314556   0.20789533   -3.3475258    1.6160702  1114061 
 4695000    1.3666817   -3.3482532   -1.7311596   0.20311337   -3.3482532    1.6170936  1114112 
 4696000    1.3667251   -3.3483968   -1.7313418   0.20530743   -3.3483968     1.617055  1114174 
 4697000    1.3668894   -3.3480452   -1.7308742   0.21030207   -3.3480452     1.617171  1114228 
 4698000    1.3670903   -3.3483102   -1.7309814   0.20751459   -3.3483102    1.6173289  1114283 
 4699000    1.3667995   -3.3480116   -1.7310835   0.20582793   -3.3480116    1.6169281  1114322 
 4700000    1.3655966   -3.3467551   -1.7313253   0.21348344   -3.3467551    1.6154298  1114374 
 4701000    1.3660537   -3.3478847   -1.7319896   0.20590596   -3.3478847    1.6158951  1114426 
 4702000    1.3654625   -3.3473994   -1.7322833   0.20523358   -3.3473994    1.6151161  1114481 
 4703000    1.3667976   -3.3486564   -1.7320265   0.20547536   -3.3486564    1.6166299  1114526 
 4704000    1.3667519   -3.3483727   -1.7318693   0.20475524   -3.3483727    1.6165034  1114576 
 4705000    1.3667433   -3.3487659   -1.7323524   0.20759205   -3.3487659    1.6164135  1114631 
 4706000    1.3674196   -3.3488278   -1.7316768   0.20763491   -3.3488278    1.6171509  1114674 
 4707000    1.3685013   -3.3498809   -1.7315349   0.20474076   -3.3498809    1.6183459  1114732 
 4708000    1.3684001   -3.3502566   -1.7320985   0.19985832   -3.3502566    1.6181581  1114779 
 4709000     1.368319   -3.3500104   -1.7320324   0.20491339   -3.3500104     1.617978  1114837 
 4710000    1.3678795   -3.3493227   -1.7319341   0.20739714   -3.3493227    1.6173887  1114885 
 4711000    1.3672029   -3.3488401   -1.7323355   0.20664446   -3.3488401    1.6165046  1114943 
 4712000      1.36806   -3.3507419   -1.7332978   0.20472631   -3.3507419     1.617444  1114994 
 4713000    1.3668789   -3.3493276   -1.7333423    0.2090823   -3.3493276    1.6159852  1115037 
 4714000    1.3671488   -3.3498622   -1.7336346   0.21000582   -3.3498622    1.6162275  1115090 
 4715000    1.3674888   -3.3504349   -1.7338838   0.20672375   -3.3504349    1.6165512  1115144 
 4716000    1.3670425   -3.3502178   -1.7342682   0.20690983   -3.3502178    1.6159497  1115195 
 4717000    1.3672461   -3.3505646   -1.7344352   0.20573409   -3.3505646    1.6161295  1115237 
 4718000    1.3667823   -3.3503313   -1.7348443   0.20402764   -3.3503313     1.615487  1115302 
 4719000    1.3664388   -3.3503403   -1.7353259   0.20563279   -3.3503403    1.6150145  1115348 
 4720000    1.3666761   -3.3508866   -1.7356612   0.20780209   -3.3508866    1.6152255  1115396 
 4721000      1.36664   -3.3509873   -1.7358741    0.2087311   -3.3509873    1.6151132  1115444 
 4722000    1.3668776   -3.3516518   -1.7363404   0.20521134   -3.3516518    1.6153115  1115501 
 4723000    1.3670301   -3.3516288   -1.7362196   0.20328937   -3.3516288    1.6154092  1115558 
 4724000    1.3672029   -3.3520856   -1.7365359   0.20559916   -3.3520856    1.6155497  1115602 
 4725000    1.3672236   -3.3515556   -1.7360568   0.21017071   -3.3515556    1.6154988  1115654 
 4726000    1.3666627   -3.3520351    -1.737296   0.20560829   -3.3520351     1.614739  1115721 
 4727000    1.3671356   -3.3520678   -1.7368482   0.20880927   -3.3520678    1.6152196  1115775 
 4728000    1.3678144   -3.3528086   -1.7368537   0.20719673   -3.3528086     1.615955  1115821 
 4729000    1.3688765   -3.3537858   -1.7366702   0.20406103   -3.3537858    1.6171156  1115886 
 4730000    1.3673801   -3.3519312   -1.7366774    0.2057791   -3.3519312    1.6152538  1115951 
 4731000    1.3689066   -3.3534622    -1.736511   0.20573509   -3.3534622    1.6169511  1116024 
 4732000    1.3694741    -3.354083   -1.7365223   0.20210782    -3.354083    1.6175607  1116066 
 4733000      1.36909    -3.354371   -1.7373335    0.2045769    -3.354371    1.6170374  1116114 
 4734000    1.3689289   -3.3546153   -1.7378232   0.20008347   -3.3546153    1.6167921  1116152 
 4735000    1.3681815   -3.3533773   -1.7375388   0.20880123   -3.3533773    1.6158384  1116201 
 4736000    1.3687133   -3.3541291   -1.7377336   0.20741645   -3.3541291    1.6163955  1116250 
 4737000    1.3682109    -3.353433   -1.7377045   0.20587694    -3.353433    1.6157285  1116301 
 4738000    1.3678306   -3.3523746   -1.7371807   0.20578916   -3.3523746    1.6151939  1116360 
 4739000    1.3684458   -3.3529922   -1.7371457    0.2070724   -3.3529922    1.6158466  1116411 
 4740000    1.3685605   -3.3536587   -1.7377549   0.20015202   -3.3536587    1.6159038  1116465 
 4741000    1.3690697   -3.3541028   -1.7376962   0.20261735   -3.3541028    1.6164066  1116533 
 4742000    1.3690331   -3.3535583   -1.7372832   0.20790009   -3.3535583    1.6162751  1116594 
 4743000    1.3693902   -3.3538949   -1.7372808    0.2060675   -3.3538949    1.6166141  1116651 
 4744000    1.3685074   -3.3521722   -1.7366639    0.2095928   -3.3521722    1.6155083  1116695 
 4745000    1.3702001    -3.354144   -1.7366953   0.20727676    -3.354144    1.6174486  1116735 
 4746000    1.3701857   -3.3547531   -1.7374011   0.20071313   -3.3547531     1.617352  1116790 
 4747000     1.369634   -3.3545403   -1.7379133   0.20369423   -3.3545403     1.616627  1116841 
 4748000    1.3687859    -3.352882   -1.7373313   0.20634811    -3.352882    1.6155507  1116893 
 4749000    1.3689334   -3.3531218   -1.7374564   0.20885577   -3.3531218    1.6156654  1116934 
 4750000    1.3697016   -3.3539449   -1.7374509   0.20486869   -3.3539449    1.6164939  1116988 
 4751000    1.3688391   -3.3540156   -1.7386104   0.20746801   -3.3540156    1.6154052  1117037 
 4752000    1.3687997   -3.3540303   -1.7387352   0.20806053   -3.3540303    1.6152951  1117081 
 4753000    1.3679478   -3.3531983    -1.738978   0.20755693   -3.3531983    1.6142203  1117129 
 4754000    1.3692047   -3.3541413   -1.7384927   0.20440133   -3.3541413    1.6156486  1117167 
 4755000     1.369637   -3.3546145   -1.7385123   0.20334731   -3.3546145    1.6161022  1117206 
 4756000    1.3700786    -3.354849   -1.7382965   0.20849762    -3.354849    1.6165525  1117255 
 4757000    1.3704159   -3.3547697   -1.7378931   0.20633699   -3.3547697    1.6168766  1117306 
 4758000    1.3704479   -3.3546347   -1.7378028   0.20523674   -3.3546347    1.6168319  1117363 
 4759000    1.3692497   -3.3537267   -1.7383691   0.21170085   -3.3537267    1.6153576  1117405 
 4760000    1.3706098   -3.3553088   -1.7384162   0.21045552   -3.3553088    1.6168926  1117453 
 4761000    1.3703046   -3.3554835   -1.7390333   0.21020523   -3.3554835    1.6164502  1117510 
 4762000    1.3694084   -3.3549536   -1.7396329   0.20965334   -3.3549536    1.6153207  1117560 
 4763000    1.3707244   -3.3567226   -1.7399117   0.20512265   -3.3567226    1.6168109  1117603 
 4764000    1.3717405   -3.3581466   -1.7402067   0.20609669   -3.3581466    1.6179399  1117651 
 4765000    1.3700611   -3.3564599   -1.7405746   0.21002288   -3.3564599    1.6158853  1117702 
 4766000    1.3705179   -3.3560019   -1.7396299   0.20600804   -3.3560019     1.616372  1117738 
 4767000    1.3702514   -3.3564257    -1.740446   0.20671653   -3.3564257    1.6159797  1117792 
 4768000    1.3709392   -3.3569914   -1.7402685   0.20526734   -3.3569914    1.6167229  1117839 
 4769000    1.3702782    -3.356011   -1.7401443   0.20497041    -3.356011    1.6158666  1117892 
 4770000    1.3698836   -3.3562872   -1.7409696   0.20854027   -3.3562872    1.6153176  1117950 
 4771000    1.3703827   -3.3569426   -1.7411088   0.20835293   -3.3569426    1.6158339  1118000 
 4772000    1.3700182   -3.3566743   -1.7413194   0.20739898   -3.3566743    1.6153549  1118034 
 4773000    1.3711377   -3.3587535   -1.7421552   0.20910015   -3.3587535    1.6165982  1118087 
 4774000    1.3707415   -3.3582554   -1.7421995    0.2075367   -3.3582554    1.6160559  1118139 
 4775000    1.3709948   -3.3582153   -1.7419301   0.20564936   -3.3582153    1.6162852  1118187 
 4776000    1.3708812   -3.3580051   -1.7419145   0.20071057   -3.3580051    1.6160906  1118229 
 4777000      1.37061    -3.357691    -1.742004   0.20284739    -3.357691    1.6156871  1118287 
 4778000    1.3713941   -3.3584889   -1.7419528   0.20698984   -3.3584889    1.6165362  1118339 
 4779000    1.3723117   -3.3588213   -1.7412786   0.20645943   -3.3588213    1.6175426  1118391 
 4780000    1.3710949   -3.3572602   -1.7412241   0.21132738   -3.3572602    1.6160361  1118441 
 4781000    1.3724428   -3.3587775   -1.7412178    0.2051082   -3.3587775    1.6175597  1118486 
 4782000     1.372256   -3.3583099   -1.7410542   0.20348721   -3.3583099    1.6172558  1118544 
 4783000    1.3721698   -3.3589383   -1.7418565   0.20485467   -3.3589383    1.6170818  1118594 
 4784000     1.370828   -3.3573031   -1.7418762   0.21134936   -3.3573031    1.6154269  1118645 
 4785000     1.370857   -3.3581379   -1.7427577   0.20969586   -3.3581379    1.6153802  1118701 
 4786000    1.3703617   -3.3580924   -1.7433478   0.20581323   -3.3580924    1.6147446  1118737 
 4787000    1.3709529   -3.3584193   -1.7430388   0.21152079   -3.3584193    1.6153805  1118779 
 4788000    1.3714258   -3.3591897   -1.7433198   0.20676077   -3.3591897    1.6158699  1118826 
 4789000    1.3709171   -3.3584275   -1.7432263   0.20823883   -3.3584275    1.6152013  1118874 
 4790000    1.3720306   -3.3597576   -1.7432965   0.20637125   -3.3597576    1.6164611  1118910 
 4791000    1.3712695   -3.3591825    -1.743722   0.20901138   -3.3591825    1.6154604  1118982 
 4792000    1.3723536    -3.359561   -1.7428898   0.21058128    -3.359561    1.6166712  1119028 
 4793000      1.37319   -3.3606405   -1.7430621   0.20093379   -3.3606405    1.6175784  1119082 
 4794000    1.3719138   -3.3590627   -1.7430584   0.20846809   -3.3590627    1.6160043  1119131 
 4795000    1.3713939   -3.3592779   -1.7439408    0.2090445   -3.3592779    1.6153371  1119169 
 4796000    1.3709498   -3.3591793   -1.7444404   0.20656735   -3.3591793    1.6147389  1119221 
 4797000    1.3711714   -3.3594137   -1.7444974   0.20537009   -3.3594137    1.6149163  1119279 
 4798000    1.3724114    -3.360636   -1.7443401   0.20936784    -3.360636    1.6162958  1119335 
 4799000    1.3726798   -3.3603252   -1.7437912   0.20355853   -3.3603252    1.6165339  1119389 
 4800000    1.3728084   -3.3605543   -1.7439454   0.20670427   -3.3605543    1.6166089  1119442 
 4801000    1.3733664   -3.3612212   -1.7440376   0.20863317   -3.3612212    1.6171836  1119499 
 4802000     1.373536   -3.3608844   -1.7435849    0.2124517   -3.3608844    1.6172995  1119557 
 4803000    1.3722516   -3.3596993   -1.7439756   0.21154773   -3.3596993    1.6157236  1119601 
 4804000    1.3738143   -3.3613367   -1.7438612   0.20444193   -3.3613367    1.6174755  1119662 
 4805000    1.3732778   -3.3612785   -1.7444794    0.2079268   -3.3612785    1.6167991  1119693 
 4806000    1.3719274   -3.3604844   -1.7453574   0.21075812   -3.3604844     1.615127  1119750 
 4807000    1.3739452   -3.3621777   -1.7447387   0.20571223   -3.3621777     1.617439  1119794 
 4808000     1.373186   -3.3610114   -1.7445326   0.20552761   -3.3610114    1.6164788  1119840 
 4809000    1.3726683   -3.3610928   -1.7453042   0.20898783   -3.3610928    1.6157886  1119896 
 4810000    1.3720704   -3.3610181   -1.7460011    0.2080709   -3.3610181     1.615017  1119943 
 4811000    1.3730169   -3.3618316     -1.74579   0.20603024   -3.3618316    1.6160416  1120005 
 4812000    1.3728704   -3.3620015   -1.7461928   0.20805443   -3.3620015    1.6158086  1120047 
 4813000    1.3725985   -3.3613124    -1.745893   0.21272034   -3.3613124    1.6154194  1120095 
 4814000    1.3725804   -3.3613941    -1.746048   0.20918815   -3.3613941    1.6153462  1120131 
 4815000    1.3727888   -3.3621025   -1.7465602   0.20969963   -3.3621025    1.6155423  1120165 
 4816000    1.3728162   -3.3617843   -1.7462933   0.21010225   -3.3617843     1.615491  1120223 
 4817000    1.3742199   -3.3629346   -1.7458886   0.20677921   -3.3629346    1.6170461  1120290 
 4818000    1.3723575   -3.3612143   -1.7464245    0.2100075   -3.3612143    1.6147898  1120335 
 4819000    1.3736598   -3.3624417   -1.7461845   0.20873052   -3.3624417    1.6162572  1120380 
 4820000    1.3730642     -3.36202   -1.7465444    0.2085554     -3.36202    1.6154756  1120436 
 4821000    1.3721829    -3.361685   -1.7473226    0.2066663    -3.361685    1.6143624  1120489 
 4822000    1.3731041   -3.3628074    -1.747439   0.21152286   -3.3628074    1.6153684  1120543 
 4823000    1.3733896   -3.3631492     -1.74753   0.21127344   -3.3631492    1.6156191  1120602 
 4824000    1.3732011   -3.3630707   -1.7477554   0.20932797   -3.3630707    1.6153153  1120659 
 4825000    1.3741311   -3.3638726   -1.7475081   0.21267512   -3.3638726    1.6163645  1120690 
 4826000     1.374526   -3.3635502   -1.7467774   0.20874406   -3.3635502    1.6167727  1120729 
 4827000    1.3742989   -3.3641686   -1.7477236   0.20799083   -3.3641686     1.616445  1120771 
 4828000    1.3742135   -3.3641374   -1.7478779   0.20894554   -3.3641374    1.6162595  1120830 
 4829000    1.3735181   -3.3638013   -1.7484245   0.20716205   -3.3638013    1.6153768  1120875 
 4830000    1.3725675   -3.3633958   -1.7492177   0.20809841   -3.3633958    1.6141781  1120931 
 4831000    1.3730147   -3.3643749   -1.7497573   0.21108956   -3.3643749    1.6146176  1120991 
 4832000    1.3736792   -3.3652601   -1.7499173   0.20775711   -3.3652601    1.6153428  1121030 
 4833000    1.3737138   -3.3649604   -1.7496504   0.20843797   -3.3649604      1.61531  1121081 
 4834000    1.3729922    -3.363805   -1.7494069   0.21015316    -3.363805    1.6143981  1121125 
 4835000    1.3739291    -3.364806   -1.7494013   0.20989859    -3.364806    1.6154047  1121191 
 4836000    1.3741625   -3.3648671   -1.7492572   0.20910129   -3.3648671    1.6156099  1121239 
 4837000     1.374091   -3.3647052   -1.7492528   0.20999926   -3.3647052    1.6154524  1121290 
 4838000    1.3734288   -3.3639327   -1.7493221   0.21202503   -3.3639327    1.6146105  1121334 
 4839000    1.3744271   -3.3650505   -1.7493298   0.20825389   -3.3650505    1.6157208  1121378 
 4840000    1.3746756   -3.3655111   -1.7495645   0.20793014   -3.3655111    1.6159466  1121424 
 4841000    1.3736411   -3.3643815   -1.7497244   0.20982828   -3.3643815    1.6146571  1121475 
 4842000    1.3732829   -3.3646866   -1.7505268   0.21261688   -3.3646866    1.6141598  1121528 
 4843000    1.3731435   -3.3643166   -1.7503811    0.2107596   -3.3643166    1.6139355  1121570 
 4844000    1.3737651   -3.3646943   -1.7500988   0.21247044   -3.3646943    1.6145955  1121619 
 4845000     1.375199   -3.3657623   -1.7495463   0.20884866   -3.3657623     1.616216  1121664 
 4846000    1.3743361   -3.3658733   -1.7507334    0.2117611   -3.3658733    1.6151399  1121707 
 4847000    1.3746835   -3.3661234   -1.7506299   0.20742231   -3.3661234    1.6154935  1121745 
 4848000    1.3737083   -3.3654254   -1.7511355   0.20918218   -3.3654254    1.6142899  1121785 
 4849000    1.3735541    -3.365586   -1.7515521   0.20615328    -3.365586    1.6140339  1121837 
 4850000    1.3741477   -3.3656964   -1.7510427   0.20851016   -3.3656964    1.6146536  1121891 
 4851000    1.3745919   -3.3662759   -1.7511753   0.20656707   -3.3662759    1.6151007  1121943 
 4852000    1.3732304   -3.3650309   -1.7516076   0.21073277   -3.3650309    1.6134234  1121997 
 4853000    1.3746342    -3.366515   -1.7515157   0.20679689    -3.366515    1.6149993  1122048 
 4854000    1.3734601   -3.3655482   -1.7519815   0.20648483   -3.3655482    1.6135667  1122085 
 4855000    1.3742309   -3.3660952   -1.7516863    0.2137236   -3.3660952    1.6144089  1122129 
 4856000    1.3745456   -3.3663376   -1.7516281   0.20909548   -3.3663376    1.6147096  1122177 
 4857000    1.3752929   -3.3672009   -1.7516825   0.21080483   -3.3672009    1.6155183  1122225 
 4858000    1.3747033   -3.3660728   -1.7513247   0.21395474   -3.3660728     1.614748  1122279 
 4859000    1.3746527   -3.3671463   -1.7525081   0.20801471   -3.3671463    1.6146382  1122314 
 4860000     1.375723    -3.368019   -1.7522043   0.20867691    -3.368019    1.6158148  1122370 
 4861000    1.3751733   -3.3672729   -1.7521714   0.21139447   -3.3672729    1.6151015  1122417 
 4862000    1.3751603   -3.3680347   -1.7529988   0.21151045   -3.3680347    1.6150358  1122452 
 4863000    1.3757428      -3.3684   -1.7527404   0.20856255      -3.3684    1.6156596  1122494 
 4864000    1.3750848   -3.3683462   -1.7535169   0.20952615   -3.3683462    1.6148293  1122534 
 4865000    1.3753478   -3.3690078   -1.7539488   0.20689618   -3.3690078     1.615059  1122589 
 4866000    1.3755519   -3.3684469   -1.7532115   0.20995235   -3.3684469    1.6152353  1122633 
 4867000    1.3744238   -3.3677467   -1.7539122   0.21086494   -3.3677467    1.6138345  1122686 
 4868000    1.3756986   -3.3691827   -1.7539219   0.20639718   -3.3691827    1.6152609  1122735 
 4869000     1.374797   -3.3683792   -1.7542604   0.20770804   -3.3683792    1.6141188  1122793 
 4870000     1.375389   -3.3682777     -1.75354   0.21149082   -3.3682777    1.6147377  1122846 
 4871000    1.3751933   -3.3681282   -1.7537022   0.21240475   -3.3681282     1.614426  1122903 
 4872000     1.375647   -3.3686176   -1.7537006   0.21076756   -3.3686176    1.6149169  1122932 
 4873000    1.3757751   -3.3685519   -1.7535651    0.2062465   -3.3685519    1.6149868  1122988 
 4874000    1.3757809    -3.368609   -1.7536903   0.20908056    -3.368609    1.6149187  1123040 
 4875000    1.3768551   -3.3697756   -1.7536636   0.20902868   -3.3697756    1.6161121  1123087 
 4876000     1.374908   -3.3679898   -1.7542235   0.20984332   -3.3679898    1.6137663  1123129 
 4877000    1.3774028   -3.3704435   -1.7538282   0.20588969   -3.3704435    1.6166153  1123184 
 4878000    1.3770258   -3.3696617   -1.7535738   0.20674021   -3.3696617     1.616088  1123243 
 4879000    1.3756047   -3.3679565   -1.7536212   0.21024084   -3.3679565    1.6143353  1123302 
 4880000    1.3762786   -3.3689604   -1.7539075   0.21279154   -3.3689604    1.6150529  1123353 
 4881000    1.3749509   -3.3673572   -1.7539414   0.21120725   -3.3673572    1.6134158  1123408 
 4882000    1.3775627   -3.3693542   -1.7529225   0.21111369   -3.3693542    1.6164317  1123442 
 4883000    1.3768341   -3.3691992   -1.7536958   0.21304398   -3.3691992    1.6155034  1123493 
 4884000    1.3764409    -3.369725   -1.7547577   0.20753324    -3.369725    1.6149672  1123545 
 4885000    1.3768089   -3.3697913   -1.7544527   0.21250897   -3.3697913    1.6153387  1123587 
 4886000    1.3766875    -3.370414   -1.7552911   0.21066831    -3.370414    1.6151229  1123638 
 4887000    1.3765815   -3.3701987   -1.7552678   0.21061677   -3.3701987     1.614931  1123685 
 4888000    1.3774287     -3.37079   -1.7549399   0.21023928     -3.37079    1.6158501  1123737 
 4889000    1.3775589   -3.3703647    -1.754418   0.20978948   -3.3703647    1.6159468  1123776 
 4890000    1.3768956   -3.3704639   -1.7553557    0.2098851   -3.3704639    1.6151083  1123818 
 4891000    1.3766404    -3.370558   -1.7558223   0.20827884    -3.370558    1.6147357  1123869 
 4892000    1.3762408    -3.369924   -1.7557217   0.21105784    -3.369924    1.6142023  1123914 
 4893000    1.3776505   -3.3711085   -1.7553361   0.20955004   -3.3711085    1.6157724  1123972 
 4894000    1.3772254   -3.3707382   -1.7555276   0.20872174   -3.3707382    1.6152106  1124016 
 4895000    1.3780108   -3.3719199   -1.7558572   0.21036808   -3.3719199    1.6160627  1124064 
 4896000    1.3773325   -3.3707953   -1.7556028   0.21105512   -3.3707953    1.6151925  1124116 
 4897000    1.3777442   -3.3722022   -1.7565902   0.20831203   -3.3722022    1.6156121  1124160 
 4898000    1.3755376    -3.370921   -1.7579582   0.20517633    -3.370921    1.6129629  1124203 
 4899000    1.3766758   -3.3721956   -1.7579843   0.21105308   -3.3721956    1.6142113  1124263 
 4900000    1.3765256   -3.3722342   -1.7582895   0.20887369   -3.3722342    1.6139447  1124326 
 4901000    1.3753822   -3.3704934    -1.757948   0.21144067   -3.3704934    1.6125454  1124367 
 4902000    1.3757903   -3.3714051   -1.7584416   0.20751705   -3.3714051    1.6129636  1124409 
 4903000    1.3765493   -3.3723296   -1.7585452   0.21032884   -3.3723296    1.6137845  1124457 
 4904000    1.3759846   -3.3717563   -1.7586969   0.20880921   -3.3717563    1.6130594  1124501 
 4905000    1.3753299   -3.3714073   -1.7591799   0.20902918   -3.3714073    1.6122274  1124546 
 4906000    1.3769489   -3.3725609   -1.7585088   0.20889263   -3.3725609    1.6140521  1124597 
 4907000    1.3761161   -3.3712549   -1.7582321   0.20862387   -3.3712549    1.6130228  1124634 
 4908000    1.3772793   -3.3727516     -1.75844   0.21212084   -3.3727516    1.6143116  1124686 
 4909000     1.377101   -3.3727331   -1.7586923   0.20719944   -3.3727331    1.6140408  1124729 
 4910000    1.3778992   -3.3736153   -1.7586921   0.20929169   -3.3736153    1.6149232  1124766 
 4911000    1.3764175   -3.3715774   -1.7584553   0.21332451   -3.3715774    1.6131221  1124811 
 4912000    1.3774415    -3.373101   -1.7588348   0.20714065    -3.373101    1.6142662  1124850 
 4913000    1.3785998   -3.3748917   -1.7593455   0.20081669   -3.3748917    1.6155462  1124904 
 4914000    1.3773877    -3.373851   -1.7598071   0.20561732    -3.373851    1.6140439  1124961 
 4915000    1.3778047   -3.3746191   -1.7601625   0.20855991   -3.3746191    1.6144566  1125014 
 4916000    1.3771873   -3.3740512   -1.7603999   0.21003991   -3.3740512    1.6136513  1125071 
 4917000    1.3756208   -3.3725348   -1.7608106   0.20990291   -3.3725348    1.6117242  1125135 
 4918000    1.3763925   -3.3738315   -1.7612834   0.21015571   -3.3738315    1.6125481  1125191 
 4919000    1.3763388   -3.3733906   -1.7609713   0.20971429   -3.3733906    1.6124193  1125237 
 4920000    1.3775194   -3.3744573   -1.7607181   0.21102532   -3.3744573    1.6137392  1125281 
 4921000     1.378109   -3.3755752   -1.7612141   0.20464214   -3.3755752    1.6143611  1125329 
 4922000    1.3776202   -3.3754041   -1.7616888   0.20845463   -3.3754041    1.6137153  1125380 
 4923000    1.3779013   -3.3754094   -1.7614608   0.21099848   -3.3754094    1.6139485  1125447 
 4924000    1.3781784   -3.3754715   -1.7612499   0.20829896   -3.3754715    1.6142215  1125483 
 4925000    1.3788565   -3.3766692   -1.7617051   0.20315422   -3.3766692    1.6149641  1125519 
 4926000    1.3784702   -3.3756802   -1.7612331   0.21196164   -3.3756802    1.6144471  1125564 
 4927000     1.377583   -3.3750594   -1.7617158   0.21288893   -3.3750594    1.6133435  1125609 
 4928000    1.3780337   -3.3752041    -1.761403   0.21240928   -3.3752041    1.6138011  1125658 
 4929000     1.377827   -3.3758964   -1.7624119   0.21028855   -3.3758964    1.6134845  1125710 
 4930000    1.3783896   -3.3764636   -1.7623834   0.21067763   -3.3764636    1.6140802  1125754 
 4931000    1.3790837   -3.3769375   -1.7621018    0.2102987   -3.3769375    1.6148357  1125794 
 4932000    1.3798267   -3.3773259   -1.7616891   0.21015992   -3.3773259    1.6156368  1125842 
 4933000    1.3783083   -3.3767415   -1.7629414   0.20866503   -3.3767415       1.6138  1125883 
 4934000    1.3780847   -3.3767989   -1.7633179   0.20918771   -3.3767989     1.613481  1125923 
 4935000    1.3780535   -3.3766278   -1.7632521   0.20908229   -3.3766278    1.6133757  1125971 
 4936000    1.3773292   -3.3759906   -1.7635217   0.21005338   -3.3759906    1.6124689  1126012 
 4937000    1.3779587    -3.376871   -1.7637366   0.21059087    -3.376871    1.6131343  1126062 
 4938000    1.3775898   -3.3764114   -1.7637691   0.21050664   -3.3764114    1.6126423  1126104 
 4939000     1.377539   -3.3768143   -1.7643159   0.21107853   -3.3768143    1.6124984  1126163 
 4940000    1.3780806   -3.3777579   -1.7646799   0.20731748   -3.3777579    1.6130779  1126201 
 4941000    1.3775385   -3.3768199   -1.7644481   0.21036338   -3.3768199    1.6123718  1126251 
 4942000    1.3794913    -3.378351   -1.7637594   0.20629645    -3.378351    1.6145916  1126297 
 4943000    1.3796401   -3.3788216   -1.7641305   0.20946919   -3.3788216    1.6146911  1126349 
 4944000    1.3792696   -3.3779624   -1.7637938   0.21170702   -3.3779624    1.6141686  1126411 
 4945000    1.3769677   -3.3757496    -1.764345   0.21270793   -3.3757496    1.6114047  1126460 
 4946000     1.378334   -3.3777768   -1.7648477   0.20995417   -3.3777768    1.6129291  1126512 
 4947000    1.3784412   -3.3778649   -1.7648977   0.20890551   -3.3778649    1.6129672  1126573 
 4948000    1.3781336    -3.377612   -1.7650649   0.21035155    -3.377612    1.6125471  1126615 
 4949000    1.3775545   -3.3775136   -1.7657042   0.21138017   -3.3775136    1.6118094  1126657 
 4950000    1.3773782   -3.3768753   -1.7653308   0.21198707   -3.3768753    1.6115445  1126698 
 4951000    1.3787988   -3.3787359   -1.7655951   0.20710595   -3.3787359    1.6131408  1126744 
 4952000    1.3783498   -3.3785797   -1.7660243   0.21140074   -3.3785797    1.6125554  1126786 
 4953000    1.3778988   -3.3774291   -1.7654743    0.2143231   -3.3774291    1.6119548  1126837 
 4954000    1.3792002   -3.3786839   -1.7652954   0.21286332   -3.3786839    1.6133885  1126899 
 4955000    1.3793448   -3.3793936   -1.7658976   0.21174198   -3.3793936     1.613496  1126942 
 4956000    1.3788873   -3.3789776   -1.7660955   0.20865381   -3.3789776    1.6128821  1126997 
 4957000    1.3795179   -3.3798921   -1.7663453   0.20778197   -3.3798921    1.6135468  1127048 
 4958000    1.3791178   -3.3789743   -1.7659685   0.21489232   -3.3789743    1.6130058  1127099 
 4959000    1.3793182    -3.380065   -1.7668878   0.21429357    -3.380065    1.6131772  1127143 
 4960000    1.3788348   -3.3797103   -1.7671671   0.20957661   -3.3797103    1.6125432  1127191 
 4961000    1.3789275   -3.3795388    -1.766933   0.21173723   -3.3795388    1.6126058  1127223 
 4962000    1.3783655   -3.3790907    -1.767225   0.21402303   -3.3790907    1.6118657  1127281 
 4963000     1.378469    -3.380597   -1.7686775   0.21098384    -3.380597    1.6119195  1127328 
 4964000    1.3793404   -3.3812495   -1.7683912   0.20802889   -3.3812495    1.6128583  1127384 
 4965000    1.3793947   -3.3810701   -1.7682342   0.20928987   -3.3810701    1.6128359  1127444 
 4966000    1.3780278    -3.379425    -1.768253   0.21054941    -3.379425     1.611172  1127490 
 4967000    1.3799054   -3.3816884   -1.7683869   0.21019651   -3.3816884    1.6133015  1127536 
 4968000     1.378866   -3.3802224   -1.7682005   0.21107541   -3.3802224    1.6120219  1127581 
 4969000    1.3791097   -3.3816014   -1.7693604   0.20812143   -3.3816014     1.612241  1127627 
 4970000    1.3787978   -3.3816964   -1.7698843    0.2117192   -3.3816964    1.6118121  1127672 
 4971000     1.378544   -3.3819294   -1.7705011   0.21426582   -3.3819294    1.6114283  1127733 
 4972000    1.3790956    -3.381857   -1.7698711   0.21003755    -3.381857    1.6119859  1127794 
 4973000     1.379216   -3.3826093   -1.7705584    0.2096415   -3.3826093    1.6120508  1127847 
 4974000    1.3802869   -3.3833746   -1.7701393   0.21134978   -3.3833746    1.6132352  1127894 
 4975000    1.3798134    -3.382149   -1.7695315   0.21521014    -3.382149    1.6126175  1127939 
 4976000    1.3802449   -3.3823362   -1.7692744   0.21015892   -3.3823362    1.6130618  1127981 
 4977000    1.3797892   -3.3815265   -1.7690559   0.21073434   -3.3815265    1.6124706  1128022 
 4978000    1.3805957   -3.3828881    -1.769538   0.20784774   -3.3828881    1.6133501  1128066 
 4979000    1.3799143   -3.3813546   -1.7688636   0.20991941   -3.3813546     1.612491  1128110 
 4980000    1.3799228   -3.3809214   -1.7684905   0.21170942   -3.3809214    1.6124309  1128159 
 4981000    1.3806764   -3.3825337   -1.7692737   0.21049001   -3.3825337      1.61326  1128195 
 4982000     1.379894   -3.3822686   -1.7699943   0.21228508   -3.3822686    1.6122743  1128245 
 4983000    1.3803777   -3.3825054   -1.7697475   0.20902283   -3.3825054     1.612758  1128302 
 4984000    1.3818324   -3.3838209   -1.7694263    0.2095737   -3.3838209    1.6143947  1128346 
 4985000    1.3802448   -3.3819814   -1.7695131   0.21054094   -3.3819814    1.6124683  1128396 
 4986000    1.3820237   -3.3840205   -1.7695283   0.21090014   -3.3840205    1.6144922  1128434 
 4987000    1.3806834    -3.382674   -1.7697875    0.2138967    -3.382674    1.6128865  1128462 
 4988000    1.3818286   -3.3833795   -1.7692268   0.20911111   -3.3833795    1.6141528  1128512 
 4989000    1.3800211   -3.3821043   -1.7701102    0.2079329   -3.3821043    1.6119941  1128545 
 4990000    1.3802555   -3.3824561   -1.7702638   0.21091715   -3.3824561    1.6121923  1128598 
 4991000    1.3809412   -3.3834107   -1.7704675   0.21169209   -3.3834107    1.6129432  1128633 
 4992000    1.3801714   -3.3825896   -1.7706199   0.21152834   -3.3825896    1.6119697  1128685 
 4993000    1.3798788   -3.3832873   -1.7717278   0.21122834   -3.3832873    1.6115595  1128733 
 4994000    1.3808972   -3.3831849   -1.7705146   0.21091059   -3.3831849    1.6126703  1128788 
 4995000    1.3809195    -3.383989   -1.7713783   0.20765209    -3.383989    1.6126106  1128848 
 4996000    1.3813663   -3.3848452   -1.7717828   0.20678916   -3.3848452    1.6130624  1128897 
 4997000    1.3802681   -3.3835816   -1.7718474   0.21569826   -3.3835816    1.6117342  1128929 
 4998000    1.3804066   -3.3840243   -1.7721911   0.21055264   -3.3840243    1.6118332  1128973 
 4999000    1.3796373   -3.3827453   -1.7718873   0.21071642   -3.3827453    1.6108579  1129027 
 5000000     1.380983   -3.3844532   -1.7720926   0.21053242   -3.3844532    1.6123606  1129075 
 5001000    1.3815476   -3.3854769     -1.77251   0.21385324   -3.3854769     1.612967  1129112 
 5002000    1.3819088   -3.3856933    -1.772379   0.20909426   -3.3856933    1.6133144  1129164 
 5003000    1.3819954   -3.3855436   -1.7721825   0.21041607   -3.3855436    1.6133611  1129202 
 5004000    1.3811546   -3.3850824   -1.7727714   0.21650463   -3.3850824    1.6123111  1129250 
 5005000    1.3798462   -3.3838571   -1.7731262   0.21660246   -3.3838571    1.6107309  1129287 
 5006000    1.3823126   -3.3865974   -1.7730461   0.20839132   -3.3865974    1.6135513  1129328 
 5007000    1.3810926   -3.3852352   -1.7731636   0.21383601   -3.3852352    1.6120716  1129367 
 5008000    1.3811249   -3.3855024   -1.7734659   0.20922305   -3.3855024    1.6120365  1129418 
 5009000    1.3810651   -3.3855451    -1.773644   0.21133766   -3.3855451    1.6119011  1129464 
 5010000    1.3824527   -3.3865528   -1.7730764   0.21389131   -3.3865528    1.6134763  1129495 
 5011000    1.3819812   -3.3865452   -1.7736819   0.21124805   -3.3865452    1.6128632  1129539 
 5012000    1.3812677   -3.3860985   -1.7741337   0.21253261   -3.3860985    1.6119648  1129585 
 5013000    1.3813866   -3.3858444   -1.7738022   0.21482288   -3.3858444    1.6120422  1129628 
 5014000    1.3808505   -3.3846819   -1.7733309   0.21657206   -3.3846819     1.611351  1129674 
 5015000    1.3815737   -3.3860991   -1.7739841   0.21351397   -3.3860991     1.612115  1129730 
 5016000    1.3819352   -3.3869353   -1.7744727   0.21029627   -3.3869353    1.6124626  1129782 
 5017000    1.3817364   -3.3858394   -1.7736658   0.21413129   -3.3858394    1.6121736  1129822 
 5018000    1.3825794   -3.3867497   -1.7736596   0.21173609   -3.3867497    1.6130901  1129869 
 5019000     1.382496   -3.3864302   -1.7735145   0.20566313   -3.3864302    1.6129157  1129923 
 5020000     1.383101   -3.3864991   -1.7729475   0.21236467   -3.3864991    1.6135515  1129972 
 5021000      1.38305   -3.3862565   -1.7728216   0.20939803   -3.3862565    1.6134349  1130012 
 5022000    1.3831383   -3.3860972   -1.7726236    0.2130302   -3.3860972    1.6134737  1130057 
 5023000    1.3831993   -3.3860321   -1.7725544   0.21335644   -3.3860321    1.6134777  1130104 
 5024000    1.3828005   -3.3853713   -1.7724058   0.21466768   -3.3853713    1.6129655  1130137 
 5025000    1.3829056    -3.385567   -1.7725445   0.21768501    -3.385567    1.6130224  1130183 
 5026000    1.3841529   -3.3868813   -1.7724698   0.21054834   -3.3868813    1.6144115  1130229 
 5027000    1.3829619   -3.3863899   -1.7734232   0.21260061   -3.3863899    1.6129667  1130268 
 5028000    1.3836024   -3.3871742   -1.7735218   0.21128099   -3.3871742    1.6136524  1130311 
 5029000    1.3827617   -3.3861023   -1.7734933   0.21326902   -3.3861023    1.6126091  1130355 
 5030000    1.3823811   -3.3862132   -1.7741221   0.21263259   -3.3862132    1.6120911  1130407 
 5031000    1.3829374   -3.3872757   -1.7745958   0.21160356   -3.3872757    1.6126799  1130449 
 5032000    1.3821507   -3.3868021   -1.7751052    0.2113517   -3.3868021     1.611697  1130495 
 5033000     1.381465   -3.3849606   -1.7741331   0.21696954   -3.3849606    1.6108275  1130544 
 5034000    1.3821619   -3.3862669   -1.7746966   0.21441601   -3.3862669    1.6115702  1130593 
 5035000    1.3835024   -3.3874301   -1.7743611   0.21130382   -3.3874301     1.613069  1130638 
 5036000    1.3824351    -3.386092     -1.77435   0.21442857    -3.386092     1.611742  1130696 
 5037000    1.3838021   -3.3879077   -1.7746205   0.20998851   -3.3879077    1.6132872  1130730 
 5038000    1.3821574   -3.3857215   -1.7744343   0.21542128   -3.3857215    1.6112871  1130788 
 5039000    1.3844479   -3.3887317   -1.7748328   0.21201284   -3.3887317    1.6138988  1130829 
 5040000      1.38347   -3.3875979   -1.7748918   0.21408716   -3.3875979    1.6127061  1130866 
 5041000    1.3830568   -3.3869565   -1.7748048   0.21534205   -3.3869565    1.6121517  1130917 
 5042000    1.3853221   -3.3896288   -1.7748965   0.21045951   -3.3896288    1.6147322  1130959 
 5043000    1.3845538   -3.3881454   -1.7743443   0.21330941   -3.3881454    1.6138011  1130984 
 5044000    1.3841049   -3.3881801   -1.7749807   0.21334681   -3.3881801    1.6131994  1131039 
 5045000    1.3846327   -3.3888931   -1.7751456   0.21257799   -3.3888931    1.6137475  1131086 
 5046000    1.3846395     -3.38881   -1.7751287   0.21394387     -3.38881    1.6136813  1131138 
 5047000    1.3838208   -3.3887082   -1.7760409   0.21203855   -3.3887082    1.6126673  1131180 
 5048000     1.385291   -3.3903305   -1.7760255   0.21174999   -3.3903305     1.614305  1131233 
 5049000    1.3845403   -3.3896047   -1.7762302   0.21206686   -3.3896047    1.6133745  1131272 
 5050000    1.3834058   -3.3882654   -1.7762785   0.21226849   -3.3882654     1.611987  1131318 
 5051000    1.3829202   -3.3886563    -1.777315   0.20991369   -3.3886563    1.6113413  1131374 
 5052000    1.3817441   -3.3876112   -1.7777071   0.21308877   -3.3876112    1.6099041  1131421 
 5053000    1.3829402   -3.3896839   -1.7784388   0.21120258   -3.3896839     1.611245  1131458 
 5054000     1.383517   -3.3897207   -1.7778663   0.21161996   -3.3897207    1.6118544  1131502 
 5055000    1.3829745   -3.3897339     -1.77856   0.21239077   -3.3897339    1.6111739  1131536 
 5056000    1.3840821    -3.390085   -1.7776834   0.20954395    -3.390085    1.6124015  1131580 
 5057000    1.3836521   -3.3894734   -1.7776355   0.21294735   -3.3894734    1.6118379  1131624 
 5058000    1.3845953   -3.3902688   -1.7774034   0.20685325   -3.3902688    1.6128655  1131674 
 5059000     1.383696    -3.389311   -1.7775786   0.21604665    -3.389311    1.6117324  1131734 
 5060000    1.3849333   -3.3908167   -1.7776972   0.21345001   -3.3908167    1.6131195  1131772 
 5061000    1.3836423   -3.3900139   -1.7784494   0.21217164   -3.3900139    1.6115645  1131808 
 5062000    1.3848141   -3.3904354   -1.7775745   0.20986554   -3.3904354    1.6128609  1131856 
 5063000    1.3837441   -3.3899331   -1.7784038    0.2089615   -3.3899331    1.6115293  1131916 
 5064000    1.3850949   -3.3914828   -1.7784401   0.21411157   -3.3914828    1.6130427  1131958 
 5065000    1.3844598   -3.3910645   -1.7788212   0.21752373   -3.3910645    1.6122432  1132000 
 5066000    1.3841361   -3.3903718   -1.7785853   0.21532898   -3.3903718    1.6117865  1132056 
 5067000     1.384089   -3.3908061   -1.7791385   0.21662682   -3.3908061    1.6116676  1132101 
 5068000    1.3845948   -3.3914964    -1.779284    0.2120336   -3.3914964    1.6122125  1132132 
 5069000    1.3851873   -3.3924303   -1.7795878   0.21326402   -3.3924303    1.6128425  1132174 
 5070000     1.383969    -3.391952   -1.7805907   0.21513204    -3.391952    1.6113613  1132218 
 5071000    1.3846698   -3.3921996   -1.7800964   0.21488879   -3.3921996    1.6121033  1132270 
 5072000    1.3839048   -3.3915923   -1.7804324   0.21635666   -3.3915923    1.6111599  1132307 
 5073000    1.3840185   -3.3919475   -1.7807164   0.21300275   -3.3919475    1.6112311  1132350 
 5074000    1.3846963    -3.393099   -1.7811372   0.20909864    -3.393099    1.6119619  1132391 
 5075000    1.3834838   -3.3921255   -1.7816264   0.21507951   -3.3921255    1.6104992  1132427 
 5076000     1.384729   -3.3928855    -1.781008   0.20964436   -3.3928855    1.6118775  1132477 
 5077000    1.3844336   -3.3928369   -1.7813687   0.21331261   -3.3928369    1.6114682  1132523 
 5078000    1.3840097     -3.39228   -1.7813551   0.21321353     -3.39228    1.6109249  1132558 
 5079000    1.3836173   -3.3909966   -1.7805881   0.21900309   -3.3909966    1.6104085  1132600 
 5080000    1.3845476   -3.3924934    -1.781076   0.21077495   -3.3924934    1.6114173  1132652 
 5081000    1.3843896   -3.3928937   -1.7817343   0.20941463   -3.3928937    1.6111594  1132704 
 5082000    1.3845524   -3.3932464   -1.7819744   0.21139727   -3.3932464     1.611272  1132758 
 5083000    1.3840774   -3.3920034   -1.7813495   0.21197251   -3.3920034    1.6106539  1132804 
 5084000    1.3839468   -3.3920744   -1.7816421   0.21381175   -3.3920744    1.6104323  1132853 
 5085000     1.385224   -3.3936464   -1.7817877   0.20915658   -3.3936464    1.6118587  1132895 
 5086000    1.3851894   -3.3939492   -1.7821876    0.2107139   -3.3939492    1.6117615  1132935 
 5087000    1.3847771   -3.3937798   -1.7825635   0.21183009   -3.3937798    1.6112164  1132981 
 5088000    1.3826846   -3.3919904   -1.7832597   0.21267366   -3.3919904    1.6087306  1133017 
 5089000    1.3836647    -3.392923    -1.783133   0.21305206    -3.392923      1.60979  1133074 
 5090000    1.3850042   -3.3940968   -1.7828026   0.21385129   -3.3940968    1.6112943  1133112 
 5091000    1.3841903   -3.3929993   -1.7827201   0.21186211   -3.3929993    1.6102792  1133160 
 5092000    1.3845468   -3.3935124   -1.7828766   0.21446852   -3.3935124    1.6106357  1133201 
 5093000    1.3843038   -3.3938889   -1.7835956   0.21535059   -3.3938889    1.6102933  1133243 
 5094000    1.3843836   -3.3939745   -1.7836452    0.2128957   -3.3939745    1.6103293  1133283 
 5095000    1.3842816   -3.3934076   -1.7832793   0.21248989   -3.3934076    1.6101282  1133341 
 5096000    1.3851957   -3.3950732   -1.7839385   0.21127557   -3.3950732    1.6111347  1133381 
 5097000    1.3861152   -3.3955288   -1.7833802   0.21017048   -3.3955288    1.6121486  1133420 
 5098000    1.3860288   -3.3959502   -1.7839874   0.21208403   -3.3959502    1.6119628  1133480 
 5099000    1.3855969   -3.3945853    -1.783193   0.21806202   -3.3945853    1.6113923  1133528 
 5100000    1.3853986   -3.3949251    -1.783826   0.21297433   -3.3949251    1.6110991  1133572 
 5101000    1.3856642   -3.3957344   -1.7844061   0.21517595   -3.3957344    1.6113283  1133628 
 5102000    1.3862191   -3.3960184   -1.7841214   0.21249241   -3.3960184    1.6118969  1133682 
 5103000    1.3850546   -3.3951397   -1.7846594   0.21313274   -3.3951397    1.6104803  1133726 
 5104000    1.3846383   -3.3953531   -1.7854251   0.21356556   -3.3953531     1.609928  1133774 
 5105000    1.3854407   -3.3960219   -1.7852234   0.21368722   -3.3960219    1.6107985  1133818 
 5106000    1.3854374   -3.3967587   -1.7860066   0.20693271   -3.3967587    1.6107521  1133848 
 5107000    1.3858686   -3.3964066   -1.7852342   0.21095575   -3.3964066    1.6111724  1133905 
 5108000    1.3851734   -3.3959617   -1.7856813   0.21313711   -3.3959617    1.6102804  1133964 
 5109000    1.3850539   -3.3959907   -1.7859047   0.21123726   -3.3959907     1.610086  1134003 
 5110000    1.3853445    -3.396869   -1.7865133   0.21198864    -3.396869    1.6103557  1134051 
 5111000    1.3848307   -3.3959097    -1.786208   0.21232916   -3.3959097    1.6097017  1134091 
 5112000    1.3849812   -3.3963088   -1.7864832   0.21288018   -3.3963088    1.6098256  1134127 
 5113000    1.3846726   -3.3957591   -1.7863717    0.2087651   -3.3957591    1.6093874  1134183 
 5114000    1.3845897   -3.3964485   -1.7872157   0.21088081   -3.3964485    1.6092328  1134224 
 5115000    1.3853356   -3.3971122   -1.7870778   0.20827804   -3.3971122    1.6100344  1134270 
 5116000    1.3843634   -3.3958085    -1.786955   0.21376616   -3.3958085    1.6088535  1134306 
 5117000    1.3853007   -3.3967131   -1.7868357   0.21147485   -3.3967131    1.6098775  1134352 
 5118000    1.3845607   -3.3959164   -1.7869768   0.21527375   -3.3959164    1.6089396  1134407 
 5119000    1.3852662   -3.3971662   -1.7874933   0.21266669   -3.3971662    1.6096729  1134468 
 5120000    1.3851804    -3.397158    -1.787643   0.21134139    -3.397158     1.609515  1134509 
 5121000    1.3845668   -3.3967709   -1.7880412   0.21136827   -3.3967709    1.6087297  1134560 
 5122000    1.3850507   -3.3975233   -1.7883023   0.21327003   -3.3975233     1.609221  1134610 
 5123000    1.3856046   -3.3984737   -1.7886574   0.21244954   -3.3984737    1.6098163  1134644 
 5124000    1.3857892   -3.3982538   -1.7882684   0.21000866   -3.3982538    1.6099854  1134676 
 5125000    1.3862042   -3.3989602   -1.7885594   0.21311231   -3.3989602    1.6104008  1134723 
 5126000    1.3849984   -3.3978212   -1.7888851    0.2136236   -3.3978212    1.6089361  1134768 
 5127000     1.386309   -3.3989215   -1.7885238   0.21481392   -3.3989215    1.6103976  1134811 
 5128000    1.3854104   -3.3981796   -1.7889009   0.21430657   -3.3981796    1.6092787  1134864 
 5129000    1.3870021   -3.3991478   -1.7880955   0.21479684   -3.3991478    1.6110523  1134917 
 5130000      1.38595   -3.3985827   -1.7888021   0.21660511   -3.3985827    1.6097806  1134952 
 5131000    1.3868917    -3.398969   -1.7881612   0.21231349    -3.398969    1.6108077  1134999 
 5132000    1.3863831   -3.3989478   -1.7888046   0.20946849   -3.3989478    1.6101432  1135051 
 5133000    1.3874287   -3.3999368   -1.7886545   0.20985052   -3.3999368    1.6112823  1135104 
 5134000    1.3870162   -3.3996313   -1.7888805   0.21398547   -3.3996313    1.6107508  1135141 
 5135000    1.3864844   -3.3995031   -1.7894422   0.21583937   -3.3995031    1.6100608  1135192 
 5136000    1.3868629   -3.4000396   -1.7895874   0.21253074   -3.4000396    1.6104522  1135226 
 5137000    1.3868241   -3.4001988    -1.789864   0.21466898   -3.4001988    1.6103347  1135277 
 5138000     1.386664   -3.3999727   -1.7898734   0.21241499   -3.3999727    1.6100993  1135312 
 5139000    1.3872639   -3.4004716   -1.7897482   0.20695767   -3.4004716    1.6107234  1135363 
 5140000    1.3872538   -3.4000163   -1.7893712   0.21022359   -3.4000163     1.610645  1135410 
 5141000    1.3865964   -3.3986193   -1.7887829   0.21001971   -3.3986193    1.6098363  1135442 
 5142000    1.3864464   -3.3984579   -1.7888637   0.21454074   -3.3984579    1.6095942  1135490 
 5143000    1.3868985   -3.3989367   -1.7888659   0.21029898   -3.3989367    1.6100708  1135524 
 5144000    1.3882135    -3.400388   -1.7888714   0.21152221    -3.400388    1.6115166  1135581 
 5145000    1.3874116   -3.3994021   -1.7888859   0.21674668   -3.3994021    1.6105162  1135630 
 5146000    1.3880895   -3.3995911   -1.7883575   0.21665564   -3.3995911    1.6112336  1135679 
 5147000     1.386826   -3.3986141    -1.788894   0.21299414   -3.3986141    1.6097201  1135712 
 5148000    1.3880581   -3.4004966   -1.7894172   0.20766339   -3.4004966    1.6110794  1135762 
 5149000     1.386613     -3.39844   -1.7891017   0.21602125     -3.39844    1.6093383  1135807 
 5150000    1.3880846   -3.4002016   -1.7892347   0.21555143   -3.4002016    1.6109669  1135863 
 5151000    1.3886248   -3.4002842   -1.7887386   0.21564481   -3.4002842    1.6115455  1135897 
 5152000    1.3882087   -3.4004491   -1.7894446   0.21190802   -3.4004491    1.6110045  1135938 
 5153000    1.3881931   -3.3997831   -1.7888548   0.21577971   -3.3997831    1.6109283  1135979 
 5154000    1.3892043   -3.4014611    -1.789419   0.21500341   -3.4014611    1.6120421  1136021 
 5155000     1.388714   -3.4007993   -1.7893886   0.21643366   -3.4007993    1.6114107  1136065 
 5156000     1.388566   -3.4004634   -1.7892839    0.2143872   -3.4004634    1.6111795  1136107 
 5157000    1.3889905   -3.4001881   -1.7885714   0.21720757   -3.4001881    1.6116167  1136146 
 5158000    1.3881613    -3.401486   -1.7908938   0.21520934    -3.401486    1.6105922  1136190 
 5159000    1.3875775   -3.4007328   -1.7908718   0.21676669   -3.4007328     1.609861  1136228 
 5160000    1.3891452   -3.4021965   -1.7905861   0.21448334   -3.4021965    1.6116103  1136277 
 5161000    1.3886651   -3.4017086   -1.7907133   0.21545624   -3.4017086    1.6109953  1136318 
 5162000    1.3884664   -3.4016292   -1.7909197   0.21109562   -3.4016292    1.6107095  1136357 
 5163000    1.3883651   -3.4019042   -1.7913788   0.21330971   -3.4019042    1.6105254  1136404 
 5164000    1.3862761   -3.4002861   -1.7922462   0.21319706   -3.4002861    1.6080398  1136448 
 5165000    1.3872267   -3.4011356   -1.7920752   0.21275695   -3.4011356    1.6090604  1136506 
 5166000    1.3876993   -3.4017121   -1.7921744   0.21677687   -3.4017121    1.6095377  1136556 
 5167000    1.3876787   -3.4018952   -1.7924294    0.2134497   -3.4018952    1.6094657  1136590 
 5168000    1.3876906   -3.4025591    -1.793149   0.21070545   -3.4025591    1.6094101  1136639 
 5169000    1.3875527   -3.4024919   -1.7932941   0.21454699   -3.4024919    1.6091978  1136676 
 5170000    1.3875259   -3.4023497   -1.7932439   0.21264964   -3.4023497    1.6091058  1136719 
 5171000    1.3869134   -3.4014407   -1.7931061   0.21545162   -3.4014407    1.6083347  1136762 
 5172000    1.3871753   -3.4021556   -1.7935639   0.21117228   -3.4021556    1.6085917  1136795 
 5173000    1.3874849   -3.4025889   -1.7936948   0.21232263   -3.4025889    1.6088941  1136835 
 5174000    1.3878413   -3.4029984   -1.7937349   0.21554053   -3.4029984    1.6092634  1136866 
 5175000    1.3893209   -3.4037666   -1.7928441   0.21418364   -3.4037666    1.6109224  1136906 
 5176000    1.3874173   -3.4023948   -1.7937191   0.21484079   -3.4023948    1.6086756  1136934 
 5177000    1.3887844   -3.4037901   -1.7935945     0.211815   -3.4037901    1.6101956  1136980 
 5178000    1.3885406   -3.4040633   -1.7941929   0.21135438   -3.4040633    1.6098704  1137010 
 5179000    1.3883801    -3.403662   -1.7940399   0.21137726    -3.403662     1.609622  1137054 
 5180000    1.3888831   -3.4041165   -1.7939736   0.21677659   -3.4041165    1.6101429  1137098 
 5181000    1.3898096   -3.4040448    -1.792876   0.21388474   -3.4040448    1.6111688  1137132 
 5182000    1.3889941   -3.4040602   -1.7939103   0.21261414   -3.4040602    1.6101498  1137184 
 5183000    1.3885897     -3.40338   -1.7937484   0.21555169     -3.40338    1.6096315  1137219 
 5184000    1.3872207   -3.4014199   -1.7934404   0.21778683   -3.4014199    1.6079795  1137265 
 5185000    1.3897615    -3.405014    -1.794163   0.21187526    -3.405014     1.610851  1137317 
 5186000    1.3888145   -3.4041326   -1.7944345    0.2178188   -3.4041326    1.6096981  1137356 
 5187000    1.3886301    -3.404379   -1.7949498   0.21170553    -3.404379    1.6094293  1137395 
 5188000    1.3890154   -3.4049677   -1.7951443   0.21497875   -3.4049677    1.6098235  1137432 
 5189000    1.3888077   -3.4038477   -1.7943201   0.21530336   -3.4038477    1.6095275  1137471 
 5190000    1.3895976   -3.4037871    -1.793422   0.21391969   -3.4037871    1.6103651  1137526 
 5191000     1.389311   -3.4038957   -1.7939208   0.21173747   -3.4038957     1.609975  1137567 
 5192000    1.3891937   -3.4038419   -1.7940552   0.21548289   -3.4038419    1.6097867  1137604 
 5193000    1.3889405   -3.4042355   -1.7948073   0.21259158   -3.4042355    1.6094282  1137650 
 5194000    1.3888001   -3.4048768   -1.7956707   0.21153687   -3.4048768    1.6092061  1137692 
 5195000    1.3869465   -3.4038206   -1.7968442   0.20932905   -3.4038206    1.6069764  1137750 
 5196000    1.3878424   -3.4045915   -1.7966406   0.21030611   -3.4045915    1.6079508  1137795 
 5197000    1.3870918    -3.404064   -1.7970492   0.21453105    -3.404064    1.6070148  1137842 
 5198000    1.3879311    -3.405307   -1.7973664   0.21345746    -3.405307    1.6079405  1137875 
 5199000    1.3882673   -3.4057797   -1.7975076   0.21308284   -3.4057797    1.6082721  1137916 
 5200000    1.3895261   -3.4069334   -1.7972455   0.21095346   -3.4069334    1.6096879  1137946 
 5201000    1.3888133   -3.4060424   -1.7972481    0.2128369   -3.4060424    1.6087943  1137994 
 5202000    1.3886919   -3.4062877   -1.7976905   0.21666021   -3.4062877    1.6085972  1138034 
 5203000     1.389237   -3.4073957   -1.7982406    0.2107901   -3.4073957    1.6091551  1138086 
 5204000    1.3878221   -3.4056352   -1.7981713   0.21303204   -3.4056352    1.6074639  1138123 
 5205000    1.3882323   -3.4064039   -1.7985271   0.21367319   -3.4064039    1.6078769  1138167 
 5206000    1.3897307    -3.407152   -1.7976033   0.21153781    -3.407152    1.6095487  1138212 
 5207000    1.3896087   -3.4071601   -1.7978051   0.21577503   -3.4071601     1.609355  1138249 
 5208000    1.3889764   -3.4066487   -1.7980697   0.21807166   -3.4066487     1.608579  1138280 
 5209000    1.3903296   -3.4081111   -1.7980243   0.21242849   -3.4081111    1.6100867  1138322 
 5210000    1.3902381   -3.4086339   -1.7987111   0.21649475   -3.4086339    1.6099228  1138363 
 5211000    1.3894421    -3.407574   -1.7986239   0.21678311    -3.407574    1.6089501  1138399 
 5212000    1.3900624   -3.4084733    -1.798853   0.21484181   -3.4084733    1.6096203  1138433 
 5213000    1.3886321   -3.4071509   -1.7992448   0.21441132   -3.4071509    1.6079062  1138474 
 5214000    1.3903038   -3.4090729   -1.7992946   0.21142574   -3.4090729    1.6097782  1138519 
 5215000    1.3896409   -3.4083405   -1.7994018   0.21630222   -3.4083405    1.6089387  1138570 
 5216000    1.3885448   -3.4073704   -1.7997517   0.21558811   -3.4073704    1.6076187  1138606 
 5217000    1.3904687   -3.4092572   -1.7994746    0.2168274   -3.4092572    1.6097826  1138651 
 5218000    1.3897055   -3.4082446   -1.7993923   0.21541768   -3.4082446    1.6088523  1138684 
 5219000    1.3888073    -3.407251   -1.7994993   0.21185596    -3.407251    1.6077517  1138727 
 5220000    1.3899678   -3.4085223   -1.7994836    0.2157555   -3.4085223    1.6090387  1138767 
 5221000    1.3894075   -3.4083718   -1.8000467   0.21143326   -3.4083718    1.6083251  1138813 
 5222000    1.3882128   -3.4068154   -1.7999324   0.21609328   -3.4068154     1.606883  1138855 
 5223000    1.3898379   -3.4081737   -1.7994648   0.21387608   -3.4081737    1.6087089  1138894 
 5224000    1.3892892   -3.4075579   -1.7995435   0.21510187   -3.4075579    1.6080145  1138936 
 5225000    1.3910968   -3.4100129   -1.7999698   0.21388335   -3.4100129    1.6100431  1138981 
 5226000    1.3906339   -3.4092553   -1.7997917   0.21019754   -3.4092553    1.6094636  1139012 
 5227000    1.3892579   -3.4072514   -1.7994468   0.21088125   -3.4072514    1.6078047  1139059 
 5228000    1.3891901   -3.4083497   -1.8006912   0.21515031   -3.4083497    1.6076584  1139107 
 5229000    1.3905712   -3.4094798   -1.8002894   0.21090244   -3.4094798    1.6091904  1139154 
 5230000    1.3889929   -3.4083239    -1.801015   0.21321791   -3.4083239    1.6073089  1139193 
 5231000    1.3899669    -3.409662   -1.8012895   0.20895421    -3.409662    1.6083725  1139238 
 5232000    1.3892122   -3.4089075   -1.8014677    0.2174647   -3.4089075    1.6074398  1139280 
 5233000    1.3889756   -3.4085162   -1.8014136   0.21500044   -3.4085162    1.6071026  1139325 
 5234000    1.3903166   -3.4099945   -1.8014151   0.21549719   -3.4099945    1.6085794  1139378 
 5235000    1.3906856   -3.4107855   -1.8018525   0.21363216   -3.4107855     1.608933  1139430 
 5236000    1.3891453   -3.4094375   -1.8023304   0.21503486   -3.4094375    1.6071071  1139461 
 5237000    1.3887253   -3.4103049   -1.8037329   0.21724244   -3.4103049    1.6065719  1139496 
 5238000    1.3898698   -3.4116049   -1.8037653   0.20790883   -3.4116049    1.6078396  1139536 
 5239000    1.3894221   -3.4110116   -1.8037366   0.21423601   -3.4110116     1.607275  1139569 
 5240000    1.3902059    -3.411898   -1.8037755   0.21556861    -3.411898    1.6081225  1139611 
 5241000    1.3884481   -3.4109112   -1.8048798   0.21229035   -3.4109112    1.6060314  1139652 
 5242000    1.3890932   -3.4112192   -1.8044867   0.21826251   -3.4112192    1.6067324  1139684 
 5243000    1.3905592   -3.4126699   -1.8042954   0.21383091   -3.4126699    1.6083745  1139722 
 5244000    1.3904424   -3.4123964   -1.8042149   0.21465071   -3.4123964    1.6081815  1139763 
 5245000    1.3898501   -3.4118447   -1.8044131   0.21505197   -3.4118447    1.6074316  1139809 
 5246000    1.3898096   -3.4115775   -1.8042506   0.21372276   -3.4115775    1.6073269  1139850 
 5247000    1.3898736   -3.4126727   -1.8053295   0.21373738   -3.4126727    1.6073432  1139891 
 5248000    1.3904835   -3.4130242   -1.8050209   0.21283971   -3.4130242    1.6080034  1139923 
 5249000    1.3900925   -3.4123096   -1.8048078   0.21127656   -3.4123096    1.6075018  1139958 
 5250000    1.3907948   -3.4131469   -1.8048894   0.21551008   -3.4131469    1.6082575  1139998 
 5251000    1.3897829   -3.4122995   -1.8052741   0.21226009   -3.4122995    1.6070254  1140042 
 5252000    1.3899081   -3.4117737   -1.8046699   0.21384376   -3.4117737    1.6071039  1140089 
 5253000      1.39219   -3.4137851   -1.8040992   0.21145264   -3.4137851    1.6096859  1140129 
 5254000    1.3902199   -3.4115334   -1.8041832     0.212407   -3.4115334    1.6073502  1140170 
 5255000    1.3912546   -3.4125689   -1.8040633   0.21307266   -3.4125689    1.6085056  1140199 
 5256000    1.3909667   -3.4124082   -1.8042989   0.21207101   -3.4124082    1.6081093  1140244 
 5257000    1.3910445   -3.4132327   -1.8050856    0.2120157   -3.4132327    1.6081471  1140281 
 5258000    1.3897357   -3.4113446   -1.8047684    0.2130877   -3.4113446    1.6065763  1140322 
 5259000    1.3909941   -3.4130516   -1.8050714   0.21509411   -3.4130516    1.6079802  1140358 
 5260000    1.3912227   -3.4126009   -1.8044072   0.21331347   -3.4126009    1.6081937  1140394 
 5261000    1.3907454   -3.4121063   -1.8045278   0.21460864   -3.4121063    1.6075785  1140439 
 5262000    1.3898578    -3.411739   -1.8052513   0.21311175    -3.411739    1.6064877  1140485 
 5263000    1.3917144   -3.4143437   -1.8057607   0.21039645   -3.4143437    1.6085829  1140521 
 5264000    1.3895424    -3.411422   -1.8054142    0.2202454    -3.411422    1.6060078  1140567 
 5265000    1.3907655   -3.4124707   -1.8051085   0.21637599   -3.4124707    1.6073622  1140609 
 5266000     1.391451   -3.4134038   -1.8053086   0.21228772   -3.4134038    1.6080952  1140651 
 5267000    1.3914162   -3.4127403   -1.8047375   0.21604063   -3.4127403    1.6080028  1140688 
 5268000    1.3908822   -3.4128374   -1.8055151   0.21530511   -3.4128374    1.6073223  1140733 
 5269000    1.3911123   -3.4129762   -1.8054613   0.21540956   -3.4129762    1.6075149  1140785 
 5270000    1.3910013   -3.4131065   -1.8057621   0.21246924   -3.4131065    1.6073444  1140815 
 5271000    1.3910484   -3.4130199    -1.805669   0.21492178   -3.4130199    1.6073509  1140849 
 5272000    1.3917153   -3.4141884   -1.8061204   0.21480327   -3.4141884     1.608068  1140887 
 5273000    1.3910419   -3.4134408   -1.8062073   0.21722517   -3.4134408    1.6072335  1140927 
 5274000    1.3932081   -3.4156701   -1.8059845   0.20945127   -3.4156701    1.6096856  1140963 
 5275000     1.391522   -3.4132582   -1.8056009   0.21809829   -3.4132582    1.6076572  1141020 
 5276000    1.3915244   -3.4139008   -1.8063014   0.21600999   -3.4139008    1.6075994  1141063 
 5277000    1.3916402    -3.414156   -1.8064778    0.2174786    -3.414156    1.6076782  1141102 
 5278000    1.3921752   -3.4151149    -1.806882   0.21347601   -3.4151149    1.6082329  1141147 
 5279000    1.3921044   -3.4147192   -1.8066245   0.21649259   -3.4147192    1.6080947  1141187 
 5280000    1.3915888   -3.4141859   -1.8067389   0.21644684   -3.4141859     1.607447  1141224 
 5281000     1.391537   -3.4142315   -1.8068993   0.21580376   -3.4142315    1.6073322  1141263 
 5282000    1.3922735   -3.4152682   -1.8071431   0.21214001   -3.4152682    1.6081251  1141304 
 5283000    1.3921003     -3.41539    -1.807517   0.21295711     -3.41539     1.607873  1141341 
 5284000    1.3918693   -3.4159052   -1.8083511   0.21287981   -3.4159052    1.6075541  1141378 
 5285000    1.3917567   -3.4159339   -1.8085521   0.21549076   -3.4159339    1.6073818  1141408 
 5286000    1.3924865    -3.415758   -1.8076066    0.2130432    -3.415758    1.6081514  1141460 
 5287000      1.39117   -3.4146093   -1.8080444   0.21633694   -3.4146093    1.6065648  1141507 
 5288000    1.3917444   -3.4152175   -1.8080513   0.21406662   -3.4152175    1.6071662  1141551 
 5289000    1.3931286    -3.415828   -1.8071338   0.21308607    -3.415828    1.6086942  1141601 
 5290000    1.3925704   -3.4151701   -1.8071769   0.21780474   -3.4151701    1.6079932  1141641 
 5291000    1.3922744   -3.4151122   -1.8074973   0.21907626   -3.4151122    1.6076149  1141667 
 5292000    1.3933932   -3.4163883   -1.8075408   0.21186754   -3.4163883    1.6088475  1141709 
 5293000    1.3927606    -3.415723   -1.8076594   0.21661635    -3.415723    1.6080636  1141747 
 5294000    1.3924354   -3.4153222   -1.8076933   0.22043593   -3.4153222    1.6076289  1141789 
 5295000    1.3932184   -3.4167302   -1.8082409   0.21146544   -3.4167302    1.6084893  1141820 
 5296000    1.3923594    -3.415709   -1.8082888   0.21710806    -3.415709    1.6074202  1141875 
 5297000    1.3922496    -3.416352   -1.8091331   0.21812224    -3.416352    1.6072188  1141928 
 5298000    1.3916082   -3.4161483   -1.8097178    0.2137135   -3.4161483    1.6064306  1141962 
 5299000    1.3907753   -3.4155547   -1.8101503   0.21641146   -3.4155547    1.6054044  1142008 
 5300000    1.3910486   -3.4157505   -1.8100756   0.21698719   -3.4157505    1.6056749  1142040 
 5301000     1.391926   -3.4167009   -1.8100765   0.21589041   -3.4167009    1.6066244  1142085 
 5302000    1.3923104    -3.417193   -1.8101755   0.21182965    -3.417193    1.6070174  1142121 
 5303000    1.3929866   -3.4175275   -1.8097915   0.21618279   -3.4175275     1.607736  1142165 
 5304000    1.3919491   -3.4171185   -1.8106306   0.21190571   -3.4171185    1.6064879  1142201 
 5305000    1.3927621   -3.4171371   -1.8097616   0.21413145   -3.4171371    1.6073755  1142237 
 5306000    1.3929717   -3.4178981   -1.8103455    0.2131549   -3.4178981    1.6075526  1142283 
 5307000    1.3936897   -3.4181924   -1.8098731   0.21522654   -3.4181924    1.6083193  1142327 
 5308000    1.3941964   -3.4182318     -1.80937   0.21646724   -3.4182318    1.6088618  1142357 
 5309000    1.3943847    -3.417875   -1.8088565   0.21066952    -3.417875    1.6090185  1142400 
 5310000    1.3939205   -3.4177405    -1.809314   0.21848784   -3.4177405    1.6084265  1142440 
 5311000    1.3937775   -3.4172574   -1.8090536   0.21715457   -3.4172574    1.6082038  1142481 
 5312000     1.393794   -3.4176045   -1.8094295   0.21742141   -3.4176045     1.608175  1142515 
 5313000    1.3937801   -3.4183535    -1.810258   0.21462756   -3.4183535    1.6080956  1142560 
 5314000    1.3936137   -3.4185493   -1.8106935   0.21478748   -3.4185493    1.6078558  1142594 
 5315000     1.393781   -3.4189906   -1.8109868   0.21712243   -3.4189906    1.6080038  1142626 
 5316000    1.3929385   -3.4186027   -1.8116187   0.21824311   -3.4186027     1.606984  1142660 
 5317000    1.3937795   -3.4190786   -1.8111666   0.21314296   -3.4190786    1.6079119  1142690 
 5318000    1.3922796   -3.4174586   -1.8113303   0.21892842   -3.4174586    1.6061283  1142728 
 5319000    1.3925286   -3.4180225   -1.8116477   0.21337254   -3.4180225    1.6063747  1142757 
 5320000    1.3940673   -3.4192941   -1.8112007   0.21832173   -3.4192941    1.6080934  1142797 
 5321000    1.3938937   -3.4189831   -1.8111335   0.21438476   -3.4189831    1.6078496  1142828 
 5322000    1.3936396   -3.4195464   -1.8120336   0.21075652   -3.4195464    1.6075128  1142859 
 5323000    1.3925991   -3.4179817   -1.8117364   0.21681332   -3.4179817    1.6062452  1142907 
 5324000    1.3935207   -3.4187219    -1.811477   0.21023547   -3.4187219    1.6072449  1142952 
 5325000    1.3930556   -3.4184934   -1.8118609   0.21772439   -3.4184934    1.6066326  1143006 
 5326000    1.3940704   -3.4194119   -1.8116737   0.21748076   -3.4194119    1.6077382  1143052 
 5327000     1.394093    -3.419709   -1.8119854     0.215052    -3.419709    1.6077236  1143081 
 5328000    1.3941956   -3.4198081   -1.8120211   0.21240577   -3.4198081    1.6077869  1143120 
 5329000    1.3930916   -3.4188477    -1.812404   0.21617934   -3.4188477    1.6064436  1143170 
 5330000    1.3943443   -3.4194768   -1.8116464   0.21783536   -3.4194768    1.6078304  1143211 
 5331000    1.3937216   -3.4187827   -1.8117181   0.22130627   -3.4187827    1.6070646  1143245 
 5332000    1.3938784    -3.419189   -1.8120265   0.21888603    -3.419189    1.6071625  1143304 
 5333000    1.3946057   -3.4209772   -1.8130337   0.21399349   -3.4209772    1.6079435  1143345 
 5334000     1.393494   -3.4198035   -1.8132261   0.22013946   -3.4198035    1.6065774  1143405 
 5335000    1.3938615   -3.4196421   -1.8126959   0.22110628   -3.4196421    1.6069463  1143444 
 5336000     1.394006   -3.4195124    -1.812453   0.22165446   -3.4195124    1.6070594  1143482 
 5337000    1.3949128   -3.4208977   -1.8128562   0.21775895   -3.4208977    1.6080415  1143527 
 5338000    1.3945976   -3.4204984   -1.8128863   0.21526612   -3.4204984    1.6076121  1143574 
 5339000    1.3950362   -3.4213062   -1.8132433   0.21463075   -3.4213062    1.6080628  1143613 
 5340000    1.3946494   -3.4211507    -1.813597   0.21420348   -3.4211507    1.6075537  1143658 
 5341000    1.3943806   -3.4215682   -1.8144044   0.21944231   -3.4215682    1.6071638  1143715 
 5342000    1.3946269   -3.4213778   -1.8139905   0.21700508   -3.4213778    1.6073873  1143758 
 5343000     1.394143   -3.4204284   -1.8136565   0.21749615   -3.4204284    1.6067719  1143799 
 5344000    1.3952109   -3.4216744    -1.813735   0.21821515   -3.4216744    1.6079394  1143844 
 5345000    1.3965743      -3.4224     -1.81294   0.21885671      -3.4224    1.6094601  1143880 
 5346000    1.3940982   -3.4195911   -1.8130478   0.22255386   -3.4195911    1.6065433  1143925 
 5347000    1.3957371   -3.4215993   -1.8132109   0.21486846   -3.4215993    1.6083884  1143956 
 5348000    1.3950375   -3.4209791   -1.8134405   0.21523018   -3.4209791    1.6075386  1143987 
 5349000    1.3950352   -3.4211363   -1.8136453    0.2160952   -3.4211363     1.607491  1144019 
 5350000    1.3958168   -3.4224301   -1.8140891   0.21592216   -3.4224301     1.608341  1144055 
 5351000     1.394346   -3.4201479   -1.8135633   0.21914759   -3.4201479    1.6065846  1144099 
 5352000     1.395047   -3.4213974   -1.8140585   0.21915493   -3.4213974    1.6073389  1144137 
 5353000    1.3951077   -3.4217738   -1.8144071   0.21465645   -3.4217738    1.6073667  1144167 
 5354000    1.3947812   -3.4216151   -1.8146865    0.2155784   -3.4216151    1.6069286  1144211 
 5355000    1.3948592   -3.4212747   -1.8143081    0.2198901   -3.4212747    1.6069666  1144248 
 5356000    1.3954193   -3.4225652   -1.8149984   0.21280387   -3.4225652    1.6075669  1144280 
 5357000    1.3963571   -3.4230036   -1.8143958   0.21707776   -3.4230036    1.6086078  1144308 
 5358000    1.3949929   -3.4215392   -1.8145675   0.22068794   -3.4215392    1.6069717  1144354 
 5359000    1.3958746   -3.4223755   -1.8144457   0.22015002   -3.4223755    1.6079298  1144395 
 5360000    1.3959331   -3.4229657   -1.8150192   0.21799629   -3.4229657    1.6079465  1144431 
 5361000    1.3954445   -3.4223103   -1.8149714   0.22004381   -3.4223103    1.6073389  1144463 
 5362000    1.3955943   -3.4227925   -1.8153471   0.21440394   -3.4227925    1.6074453  1144510 
 5363000    1.3958468    -3.423151   -1.8154752    0.2213018    -3.423151    1.6076758  1144553 
 5364000    1.3955014    -3.422774   -1.8155494   0.21805693    -3.422774    1.6072246  1144591 
 5365000    1.3970962   -3.4235698   -1.8145787   0.21641068   -3.4235698    1.6089911  1144641 
 5366000    1.3958435   -3.4224437   -1.8149445   0.21598599   -3.4224437    1.6074992  1144676 
 5367000    1.3964998   -3.4235913    -1.815384   0.22143646   -3.4235913    1.6082073  1144710 
 5368000    1.3969632   -3.4237571   -1.8150709   0.22003706   -3.4237571    1.6086861  1144749 
 5369000    1.3967913   -3.4238116   -1.8153824   0.21733023   -3.4238116    1.6084292  1144791 
 5370000    1.3956888   -3.4227167   -1.8156147   0.21877639   -3.4227167    1.6071021  1144832 
 5371000    1.3958042   -3.4233649   -1.8161903   0.21718764   -3.4233649    1.6071746  1144875 
 5372000    1.3965839   -3.4246128   -1.8165938   0.21674899   -3.4246128     1.608019  1144913 
 5373000    1.3962402   -3.4236889   -1.8161246   0.21345809   -3.4236889    1.6075643  1144955 
 5374000    1.3961313   -3.4238691   -1.8164793   0.21908988   -3.4238691    1.6073897  1144990 
 5375000    1.3956188   -3.4238027   -1.8170493   0.21901476   -3.4238027    1.6067534  1145023 
 5376000    1.3959236   -3.4236882   -1.8166471   0.21765957   -3.4236882    1.6070411  1145068 
 5377000    1.3946292   -3.4230824   -1.8175916   0.22101742   -3.4230824    1.6054908  1145111 
 5378000    1.3963217   -3.4246022   -1.8172277   0.21813351   -3.4246022    1.6073745  1145157 
 5379000    1.3952738   -3.4233131   -1.8171841   0.21875324   -3.4233131    1.6061289  1145185 
 5380000    1.3951618   -3.4235156    -1.817573   0.21418829   -3.4235156    1.6059426  1145226 
 5381000    1.3954764   -3.4239073   -1.8176545   0.21807162   -3.4239073    1.6062528  1145263 
 5382000    1.3953574   -3.4236398   -1.8175914    0.2192823   -3.4236398    1.6060485  1145311 
 5383000    1.3961106   -3.4250291   -1.8181754   0.21887271   -3.4250291    1.6068537  1145355 
 5384000    1.3953835   -3.4241154   -1.8181518   0.21766029   -3.4241154    1.6059635  1145393 
 5385000    1.3967429   -3.4259063   -1.8184442   0.21853705   -3.4259063    1.6074621  1145440 
 5386000    1.3955854   -3.4245026   -1.8184441   0.21800591   -3.4245026    1.6060585  1145491 
 5387000       1.3953   -3.4245078   -1.8188309     0.217166   -3.4245078    1.6056768  1145529 
 5388000    1.3959571   -3.4257022   -1.8193239   0.21714125   -3.4257022    1.6063782  1145568 
 5389000    1.3968004   -3.4263391   -1.8190605   0.21963217   -3.4263391    1.6072786  1145618 
 5390000    1.3961868   -3.4260945   -1.8195907   0.21693087   -3.4260945    1.6065038  1145667 
 5391000    1.3963266    -3.425097   -1.8184885   0.22190788    -3.425097    1.6066085  1145707 
 5392000    1.3969707   -3.4258388   -1.8185482   0.21644192   -3.4258388    1.6072907  1145749 
 5393000    1.3963368   -3.4257149   -1.8192111   0.22076038   -3.4257149    1.6065039  1145790 
 5394000    1.3965908   -3.4262757   -1.8195427   0.22070268   -3.4262757     1.606733  1145835 
 5395000    1.3960436   -3.4265649   -1.8205245   0.21827557   -3.4265649    1.6060404  1145880 
 5396000    1.3962619   -3.4264972   -1.8202758    0.2169825   -3.4264972    1.6062214  1145930 
 5397000    1.3958506   -3.4261673   -1.8204918   0.21636839   -3.4261673    1.6056755  1145982 
 5398000    1.3968667   -3.4280057   -1.8212217   0.22054963   -3.4280057    1.6067841  1146025 
 5399000    1.3948974    -3.425988   -1.8215155   0.22143559    -3.425988    1.6044725  1146058 
 5400000    1.3953872   -3.4264517   -1.8214661   0.22183623   -3.4264517    1.6049856  1146094 
 5401000    1.3958612   -3.4264788   -1.8210124   0.22100763   -3.4264788    1.6054663  1146140 
 5402000    1.3967021   -3.4271366   -1.8207634   0.21869344   -3.4271366    1.6063733  1146183 
 5403000    1.3966459   -3.4275541   -1.8212862    0.2233035   -3.4275541    1.6062679  1146212 
 5404000    1.3966705   -3.4280031   -1.8217629    0.2191916   -3.4280031    1.6062402  1146252 
 5405000    1.3974378   -3.4283452   -1.8212801   0.21938875   -3.4283452    1.6070651  1146293 
 5406000    1.3966173   -3.4280936   -1.8220114   0.21742267   -3.4280936    1.6060823  1146321 
 5407000    1.3966794   -3.4273274   -1.8212185    0.2225413   -3.4273274    1.6061089  1146353 
 5408000    1.3969932   -3.4275462   -1.8211283    0.2164307   -3.4275462    1.6064179  1146390 
 5409000    1.3966409   -3.4278179    -1.821857   0.21747391   -3.4278179     1.605961  1146427 
 5410000    1.3956243   -3.4274166   -1.8226736   0.21976775   -3.4274166     1.604743  1146462 
 5411000    1.3968603   -3.4291604   -1.8230452   0.21571369   -3.4291604    1.6061152  1146497 
 5412000    1.3978897   -3.4300102   -1.8227746   0.21510472   -3.4300102    1.6072356  1146542 
 5413000    1.3963935   -3.4288583   -1.8233849   0.21941302   -3.4288583    1.6054734  1146572 
 5414000    1.3966564   -3.4290918   -1.8233694   0.21461883   -3.4290918    1.6057224  1146610 
 5415000    1.3965929   -3.4284624   -1.8228857    0.2197716   -3.4284624    1.6055766  1146662 
 5416000    1.3978423   -3.4294747    -1.822522   0.21492097   -3.4294747    1.6069527  1146705 
 5417000    1.3981589   -3.4298988   -1.8226606   0.21419297   -3.4298988    1.6072382  1146761 
 5418000    1.3967612   -3.4279654   -1.8223871   0.22114705   -3.4279654    1.6055783  1146799 
 5419000    1.3972497   -3.4284289   -1.8223478   0.21871734   -3.4284289     1.606081  1146841 
 5420000    1.3982686   -3.4296481   -1.8224422   0.21612422   -3.4296481     1.607206  1146874 
 5421000    1.3966517   -3.4285387   -1.8232585   0.22328075   -3.4285387    1.6052802  1146922 
 5422000    1.3977146   -3.4298856   -1.8234299   0.21868401   -3.4298856    1.6064556  1146955 
 5423000    1.3972883   -3.4293861   -1.8234862   0.21873102   -3.4293861    1.6058999  1147002 
 5424000     1.397582   -3.4295101   -1.8233189    0.2162747   -3.4295101    1.6061912  1147035 
 5425000     1.397548    -3.428472   -1.8223689   0.22404124    -3.428472    1.6061032  1147070 
 5426000    1.3982732   -3.4295419   -1.8226697   0.21670496   -3.4295419    1.6068722  1147116 
 5427000    1.3976377     -3.42931   -1.8232339   0.21716348     -3.42931    1.6060761  1147163 
 5428000    1.3974742    -3.428799   -1.8229416   0.21955108    -3.428799    1.6058573  1147185 
 5429000    1.3966826   -3.4277925   -1.8228825   0.21998578   -3.4277925    1.6049099  1147212 
 5430000     1.398031   -3.4292486   -1.8228522   0.22105124   -3.4292486    1.6063964  1147257 
 5431000    1.3989033   -3.4298719   -1.8225082   0.21717524   -3.4298719    1.6073636  1147282 
 5432000      1.39906   -3.4303812   -1.8228893   0.21815235   -3.4303812    1.6074919  1147319 
 5433000     1.398795   -3.4303004   -1.8231662   0.22076173   -3.4303004    1.6071341  1147357 
 5434000    1.3978073   -3.4293858   -1.8234354   0.21621392   -3.4293858    1.6059504  1147392 
 5435000    1.3992435   -3.4316651   -1.8241263   0.21931036   -3.4316651    1.6075388  1147436 
 5436000     1.397521   -3.4298751   -1.8243781   0.22151441   -3.4298751    1.6054969  1147481 
 5437000    1.3970943   -3.4294352   -1.8244761    0.2209632   -3.4294352    1.6049591  1147515 
 5438000    1.3986795   -3.4310315   -1.8243073   0.21794051   -3.4310315    1.6067241  1147555 
 5439000    1.3984137   -3.4304477   -1.8240918    0.2187044   -3.4304477    1.6063558  1147600 
 5440000    1.3965461   -3.4292635   -1.8250949   0.22112471   -3.4292635    1.6041686  1147630 
 5441000    1.3977153   -3.4309084   -1.8254513   0.21463595   -3.4309084    1.6054571  1147669 
 5442000    1.3972944   -3.4302029   -1.8252643   0.22125038   -3.4302029    1.6049386  1147694 
 5443000    1.3985321   -3.4318599   -1.8255584   0.22276309   -3.4318599    1.6063015  1147736 
 5444000    1.3968854   -3.4306518   -1.8262822   0.21621822   -3.4306518    1.6043696  1147765 
 5445000    1.3971996   -3.4303804   -1.8257058   0.21726055   -3.4303804    1.6046746  1147805 
 5446000    1.3972532   -3.4313848   -1.8267004   0.21660086   -3.4313848    1.6046844  1147842 
 5447000    1.3963202   -3.4307246   -1.8271536   0.21850399   -3.4307246     1.603571  1147872 
 5448000    1.3970403   -3.4327749    -1.828444    0.2157396   -3.4327749    1.6043308  1147920 
 5449000    1.3969129   -3.4331872   -1.8290571   0.21448452   -3.4331872    1.6041301  1147959 
 5450000    1.3972555   -3.4323727   -1.8279009   0.22001267   -3.4323727    1.6044718  1147996 
 5451000    1.3977616   -3.4324998   -1.8274944   0.22306312   -3.4324998    1.6050054  1148030 
 5452000    1.3982574   -3.4333382   -1.8278055    0.2181949   -3.4333382    1.6055327  1148060 
 5453000    1.3978435   -3.4334581   -1.8284566   0.21600201   -3.4334581    1.6050016  1148100 
 5454000    1.3974288   -3.4328346   -1.8283651   0.21749107   -3.4328346    1.6044696  1148140 
 5455000    1.3968532   -3.4321578   -1.8283911   0.22007001   -3.4321578    1.6037667  1148170 
 5456000    1.3981879   -3.4337082   -1.8284622   0.21733802   -3.4337082     1.605246  1148208 
 5457000    1.3978939    -3.433974   -1.8291214   0.21742405    -3.433974    1.6048526  1148248 
 5458000    1.3983121   -3.4336784   -1.8283947   0.22041951   -3.4336784    1.6052837  1148283 
 5459000    1.3979012   -3.4334981   -1.8287448   0.21512894   -3.4334981    1.6047533  1148325 
 5460000    1.3999601   -3.4351825   -1.8281146   0.21665605   -3.4351825    1.6070679  1148360 
 5461000    1.3981128   -3.4334931   -1.8285905   0.21987752   -3.4334931    1.6049026  1148392 
 5462000    1.3983833    -3.433332   -1.8281734    0.2225772    -3.433332    1.6051586  1148431 
 5463000    1.3980411   -3.4336345   -1.8289455   0.22053563   -3.4336345    1.6046889  1148486 
 5464000    1.3978193   -3.4337592   -1.8293695   0.22125265   -3.4337592    1.6043897  1148518 
 5465000    1.3977006   -3.4335266   -1.8293235   0.22246439   -3.4335266    1.6042031  1148554 
 5466000    1.3989224   -3.4353328   -1.8297832     0.213548   -3.4353328    1.6055496  1148594 
 5467000    1.3976688   -3.4334507   -1.8294028   0.22200111   -3.4334507    1.6040479  1148639 
 5468000    1.3979347   -3.4337455   -1.8294594   0.21799309   -3.4337455    1.6042861  1148687 
 5469000    1.3982006   -3.4331494   -1.8286113   0.22045579   -3.4331494    1.6045381  1148725 
 5470000    1.3982013   -3.4333605    -1.828883   0.21726809   -3.4333605    1.6044774  1148769 
 5471000    1.3991169   -3.4338742   -1.8283979   0.22154184   -3.4338742    1.6054764  1148806 
 5472000    1.3988506   -3.4339989   -1.8288826   0.21600304   -3.4339989    1.6051164  1148845 
 5473000    1.3997442   -3.4346347   -1.8285503    0.2206229   -3.4346347    1.6060844  1148886 
 5474000    1.3981911   -3.4326234    -1.828381   0.21946638   -3.4326234    1.6042423  1148929 
 5475000    1.3998839   -3.4351972   -1.8290588   0.21619825   -3.4351972    1.6061384  1148962 
 5476000    1.3989012   -3.4339392   -1.8289841   0.21978324   -3.4339392    1.6049551  1149002 
 5477000    1.4001799    -3.435144    -1.828782   0.21488695    -3.435144    1.6063621  1149045 
 5478000    1.3995893   -3.4348605   -1.8292068   0.21863393   -3.4348605    1.6056537  1149067 
 5479000    1.3988459   -3.4340061    -1.829261    0.2199907   -3.4340061     1.604745  1149107 
 5480000     1.399824   -3.4345732   -1.8287621   0.21806796   -3.4345732    1.6058111  1149147 
 5481000    1.3991105   -3.4340292   -1.8290868   0.22120828   -3.4340292    1.6049424  1149183 
 5482000    1.3994085   -3.4337681   -1.8285369   0.22450638   -3.4337681    1.6052312  1149221 
 5483000    1.4008398    -3.435113   -1.8282918   0.21855804    -3.435113    1.6068212  1149258 
 5484000    1.4001405   -3.4344767   -1.8285233   0.21942817   -3.4344767    1.6059534  1149305 
 5485000    1.3997287   -3.4347965   -1.8293559   0.22297371   -3.4347965    1.6054406  1149334 
 5486000    1.3996933   -3.4346571   -1.8293004    0.2211498   -3.4346571    1.6053567  1149365 
 5487000    1.4007535   -3.4356052   -1.8290786   0.22061489   -3.4356052    1.6065266  1149398 
 5488000    1.4000706   -3.4354286   -1.8297384   0.22090344   -3.4354286    1.6056902  1149436 
 5489000    1.4005511   -3.4364028   -1.8302145    0.2166452   -3.4364028    1.6061882  1149474 
 5490000    1.4006484   -3.4373831    -1.831135   0.21752848   -3.4373831    1.6062481  1149511 
 5491000    1.4005022   -3.4370694   -1.8310364    0.2145495   -3.4370694    1.6060329  1149545 
 5492000    1.4000584   -3.4363651   -1.8308928    0.2225091   -3.4363651    1.6054723  1149582 
 5493000    1.4008214   -3.4373238   -1.8310366   0.22237801   -3.4373238    1.6062872  1149625 
 5494000    1.3998151   -3.4365783   -1.8314995   0.21936156   -3.4365783    1.6050788  1149664 
 5495000    1.3997533   -3.4364076   -1.8314429   0.22074036   -3.4364076    1.6049646  1149695 
 5496000    1.3989646   -3.4361833   -1.8321844   0.21730022   -3.4361833    1.6039989  1149739 
 5497000    1.3978008   -3.4351551    -1.832549   0.22117558   -3.4351551    1.6026061  1149781 
 5498000    1.3991019   -3.4369503   -1.8328957   0.21479135   -3.4369503    1.6040546  1149812 
 5499000     1.399527   -3.4370038   -1.8325191   0.21768095   -3.4370038    1.6044848  1149853 
 5500000    1.3995733   -3.4364712   -1.8319933   0.22109108   -3.4364712    1.6044778  1149896 
 5501000    1.4000191   -3.4372822   -1.8323603   0.21932107   -3.4372822    1.6049219  1149944 
 5502000    1.3997725   -3.4369827   -1.8324034   0.21829957   -3.4369827    1.6045792  1149987 
 5503000    1.3997103   -3.4370303   -1.8325601   0.21642044   -3.4370303    1.6044703  1150014 
 5504000    1.3991118   -3.4366766   -1.8329539   0.22219456   -3.4366766    1.6037228  1150058 
 5505000    1.4001443   -3.4373208   -1.8324675   0.21761671   -3.4373208    1.6048533  1150096 
 5506000     1.400385   -3.4378453   -1.8327832   0.22008062   -3.4378453    1.6050621  1150144 
 5507000    1.4010222   -3.4381743   -1.8324376   0.21339498   -3.4381743    1.6057367  1150184 
 5508000    1.4006447   -3.4380201    -1.832772    0.2192655   -3.4380201    1.6052481  1150224 
 5509000    1.4001217   -3.4377723   -1.8331794   0.22175853   -3.4377723     1.604593  1150264 
 5510000    1.4006833   -3.4383149   -1.8331229   0.21880587   -3.4383149     1.605192  1150296 
 5511000    1.4008766   -3.4385949   -1.8332275   0.21645829   -3.4385949    1.6053674  1150329 
 5512000    1.3995478   -3.4380839   -1.8342923   0.22140818   -3.4380839    1.6037916  1150367 
 5513000    1.4001354   -3.4385118   -1.8340984   0.21851941   -3.4385118    1.6044134  1150404 
 5514000    1.4001542   -3.4385521   -1.8341827   0.21373068   -3.4385521    1.6043694  1150451 
 5515000    1.3987473   -3.4376117   -1.8349045   0.22082092   -3.4376117    1.6027072  1150487 
 5516000    1.4003459   -3.4390873   -1.8345959   0.21759473   -3.4390873    1.6044914  1150521 
 5517000     1.400118   -3.4389384    -1.834768   0.22141904   -3.4389384    1.6041704  1150564 
 5518000    1.4004743   -3.4395446   -1.8350218    0.2192364   -3.4395446    1.6045228  1150604 
 5519000    1.4000745   -3.4394785   -1.8354501   0.21939403   -3.4394785    1.6040285  1150630 
 5520000    1.4004241   -3.4395574   -1.8351702   0.22002417   -3.4395574    1.6043872  1150660 
 5521000     1.399919    -3.438653   -1.8348946   0.21993993    -3.438653    1.6037584  1150696 
 5522000    1.4004669   -3.4400323   -1.8356993   0.21356914   -3.4400323     1.604333  1150734 
 5523000    1.3997419   -3.4395202   -1.8360679   0.21814731   -3.4395202    1.6034523  1150770 
 5524000    1.4007007   -3.4397649   -1.8352588   0.21386583   -3.4397649     1.604506  1150802 
 5525000    1.3993857   -3.4392527   -1.8363185   0.21986888   -3.4392527    1.6029342  1150849 
 5526000    1.4007227     -3.44099   -1.8365745   0.21379055     -3.44099    1.6044155  1150885 
 5527000    1.4001257   -3.4398455   -1.8361653   0.21588162   -3.4398455    1.6036802  1150922 
 5528000    1.3993325   -3.4394179   -1.8366923   0.21853036   -3.4394179    1.6027257  1150955 
 5529000    1.4007959   -3.4411153   -1.8367791   0.21247872   -3.4411153    1.6043362  1151002 
 5530000    1.3996801   -3.4395688    -1.836555   0.21909286   -3.4395688    1.6030138  1151034 
 5531000    1.4002601   -3.4405623   -1.8369303     0.218854   -3.4405623     1.603632  1151067 
 5532000    1.4006827   -3.4406533   -1.8365874   0.21661255   -3.4406533    1.6040659  1151103 
 5533000    1.4002205     -3.44046   -1.8369722   0.21877021     -3.44046    1.6034878  1151138 
 5534000    1.4002134   -3.4401325   -1.8367169   0.22053142   -3.4401325    1.6034156  1151184 
 5535000     1.401423    -3.441401   -1.8366491     0.217019    -3.441401    1.6047519  1151219 
 5536000    1.4000587   -3.4404096   -1.8372867   0.21970446   -3.4404096    1.6031229  1151267 
 5537000    1.4015868    -3.441897   -1.8370829   0.21732448    -3.441897    1.6048141  1151309 
 5538000    1.4014698   -3.4409623    -1.836338   0.21662287   -3.4409623    1.6046244  1151349 
 5539000    1.4004537   -3.4404587   -1.8370534   0.22057746   -3.4404587    1.6034052  1151389 
 5540000    1.4013596   -3.4416967   -1.8373127   0.21734698   -3.4416967     1.604384  1151431 
 5541000    1.4010024   -3.4415117    -1.837598   0.21629095   -3.4415117    1.6039137  1151475 
 5542000    1.4011563   -3.4422581   -1.8382226   0.22134112   -3.4422581    1.6040355  1151514 
 5543000    1.4013127    -3.441381   -1.8372221    0.2182798    -3.441381    1.6041589  1151554 
 5544000    1.4012693   -3.4410062   -1.8369431   0.22167788   -3.4410062    1.6040632  1151587 
 5545000    1.4011139   -3.4404186    -1.836582   0.22326028   -3.4404186    1.6038366  1151622 
 5546000    1.4016766   -3.4414392   -1.8370296   0.22304225   -3.4414392    1.6044097  1151673 
 5547000    1.4023789   -3.4424455   -1.8372975   0.22087616   -3.4424455     1.605148  1151720 
 5548000     1.401922   -3.4418073   -1.8372394   0.21996947   -3.4418073    1.6045679  1151761 
 5549000    1.4009074   -3.4422718   -1.8389236   0.22113478   -3.4422718    1.6033482  1151803 
 5550000    1.4007567   -3.4418734   -1.8387546   0.22041207   -3.4418734    1.6031187  1151844 
 5551000    1.4015086    -3.443676   -1.8397455    0.2147998    -3.443676    1.6039305  1151879 
 5552000    1.4012307   -3.4427241   -1.8391814   0.21786689   -3.4427241    1.6035428  1151929 
 5553000    1.3998907   -3.4421263   -1.8401754   0.21809322   -3.4421263    1.6019509  1151971 
 5554000    1.4007913   -3.4431287   -1.8401958   0.21606595   -3.4431287    1.6029328  1152006 
 5555000    1.4010561   -3.4440236   -1.8408295    0.2167294   -3.4440236    1.6031941  1152036 
 5556000     1.401566   -3.4444283   -1.8407008   0.21790881   -3.4444283    1.6037274  1152072 
 5557000    1.4007238   -3.4431519   -1.8404521   0.21883431   -3.4431519    1.6026998  1152118 
 5558000    1.4005502   -3.4433536    -1.840908   0.21652116   -3.4433536    1.6024455  1152158 
 5559000    1.4007264   -3.4429727   -1.8403659   0.21797414   -3.4429727    1.6026068  1152187 
 5560000    1.4025242   -3.4448216   -1.8402331   0.21863596   -3.4448216    1.6045884  1152241 
 5561000    1.4009764   -3.4434468   -1.8406959    0.2234813   -3.4434468    1.6027509  1152289 
 5562000    1.4029613   -3.4448938   -1.8399278   0.21968512   -3.4448938     1.604966  1152329 
 5563000    1.4023708   -3.4443335   -1.8400919   0.22187642   -3.4443335    1.6042417  1152364 
 5564000    1.4019461   -3.4450007   -1.8412963   0.21855439   -3.4450007    1.6037043  1152401 
 5565000    1.4012956   -3.4440448   -1.8411416   0.22122313   -3.4440448    1.6029032  1152442 
 5566000    1.4015903   -3.4452465    -1.842073    0.2208461   -3.4452465    1.6031735  1152490 
 5567000    1.4012565   -3.4444138   -1.8416679   0.22410307   -3.4444138    1.6027459  1152523 
 5568000    1.4011929   -3.4449241   -1.8423108   0.22070597   -3.4449241    1.6026133  1152566 
 5569000    1.4013372   -3.4446239   -1.8418914     0.222462   -3.4446239    1.6027324  1152599 
 5570000    1.4022027   -3.4446778   -1.8410112    0.2216777   -3.4446778    1.6036667  1152639 
 5571000     1.401753   -3.4452486   -1.8421323   0.22106313   -3.4452486    1.6031163  1152665 
 5572000    1.4026673   -3.4457252   -1.8416246   0.22213608   -3.4457252    1.6041006  1152709 
 5573000     1.401594   -3.4445042   -1.8416921   0.22289886   -3.4445042    1.6028121  1152753 
 5574000    1.4017917   -3.4446697   -1.8416914   0.22040315   -3.4446697    1.6029783  1152796 
 5575000    1.4014343   -3.4448085   -1.8422944   0.22187702   -3.4448085     1.602514  1152836 
 5576000     1.401755    -3.444308   -1.8414842   0.22083318    -3.444308    1.6028238  1152877 
 5577000    1.4024253   -3.4452891   -1.8417726   0.22071738   -3.4452891    1.6035165  1152930 
 5578000    1.4023963   -3.4449873    -1.841543   0.22076061   -3.4449873    1.6034443  1152958 
 5579000    1.4038032    -3.446898   -1.8418979   0.21343983    -3.446898        1.605  1152996 
 5580000    1.4015004   -3.4441922   -1.8418722   0.22183575   -3.4441922      1.60232  1153030 
 5581000    1.4020721   -3.4448154   -1.8418892   0.22230557   -3.4448154    1.6029263  1153064 
 5582000    1.4027074   -3.4454548   -1.8418523   0.21652226   -3.4454548    1.6036025  1153100 
 5583000    1.4015805   -3.4448269   -1.8425626    0.2217827   -3.4448269    1.6022643  1153136 
 5584000    1.4024593   -3.4460225   -1.8428051   0.22174092   -3.4460225    1.6032174  1153173 
 5585000    1.4005347   -3.4431485   -1.8421672   0.22570306   -3.4431485    1.6009813  1153199 
 5586000    1.4011755   -3.4447758   -1.8431079   0.22174011   -3.4447758    1.6016679  1153232 
 5587000    1.4026127    -3.445599   -1.8423368   0.21799539    -3.445599    1.6032621  1153267 
 5588000    1.4023509   -3.4453961   -1.8424833   0.22029656   -3.4453961    1.6029128  1153303 
 5589000    1.4019994   -3.4459119   -1.8434439   0.21918103   -3.4459119     1.602468  1153334 
 5590000    1.4021544   -3.4457251   -1.8431341   0.21988891   -3.4457251     1.602591  1153373 
 5591000    1.4020864   -3.4452172   -1.8427554   0.22180613   -3.4452172    1.6024619  1153410 
 5592000     1.403947   -3.4479887   -1.8434672   0.21726908   -3.4479887    1.6045215  1153458 
 5593000    1.4024885   -3.4462802   -1.8434756   0.22297549   -3.4462802    1.6028047  1153494 
 5594000    1.4031976   -3.4467197   -1.8431589   0.22233618   -3.4467197    1.6035608  1153533 
 5595000    1.4031136   -3.4463268   -1.8429231   0.22128029   -3.4463268    1.6034037  1153577 
 5596000     1.403959   -3.4473627   -1.8430416   0.22241982   -3.4473627    1.6043211  1153612 
 5597000    1.4034674    -3.447208   -1.8435099   0.22123396    -3.447208    1.6036981  1153656 
 5598000    1.4031339   -3.4473116   -1.8440459   0.22420521   -3.4473116    1.6032657  1153693 
 5599000    1.4030648    -3.446983   -1.8438311   0.21952039    -3.446983    1.6031519  1153718 
 5600000    1.4035613    -3.447486   -1.8438154   0.21976864    -3.447486    1.6036706  1153753 
 5601000     1.403279   -3.4477532   -1.8444454    0.2201088   -3.4477532    1.6033078  1153782 
 5602000    1.4029183   -3.4475448   -1.8447005   0.22318837   -3.4475448    1.6028442  1153819 
 5603000    1.4033931   -3.4478552   -1.8445143   0.22079506   -3.4478552    1.6033408  1153852 
 5604000    1.4031687   -3.4481094   -1.8450832   0.21657588   -3.4481094    1.6030262  1153894 
 5605000    1.4025862   -3.4472097   -1.8448934   0.22321136   -3.4472097    1.6023162  1153926 
 5606000    1.4035091   -3.4488457   -1.8455168   0.21636245   -3.4488457    1.6033289  1153956 
 5607000    1.4034027   -3.4488555   -1.8457163   0.22082915   -3.4488555    1.6031392  1154005 
 5608000    1.4031281    -3.448287   -1.8455045   0.21989002    -3.448287    1.6027825  1154036 
 5609000     1.402561   -3.4473686   -1.8452852   0.22144165   -3.4473686    1.6020834  1154073 
 5610000    1.4035593   -3.4483236   -1.8451652   0.22039613   -3.4483236    1.6031584  1154120 
 5611000    1.4042927   -3.4486558   -1.8447097   0.21839886   -3.4486558    1.6039461  1154156 
 5612000     1.402425   -3.4471971   -1.8454467   0.22192882   -3.4471971    1.6017504  1154201 
 5613000    1.4048903   -3.4499652   -1.8454576   0.21624001   -3.4499652    1.6045076  1154243 
 5614000    1.4034089   -3.4483442   -1.8455882   0.22247017   -3.4483442     1.602756  1154286 
 5615000    1.4045669   -3.4494405   -1.8454134   0.21826288   -3.4494405    1.6040271  1154323 
 5616000    1.4036334   -3.4477564   -1.8448522   0.22365819   -3.4477564    1.6029042  1154364 
 5617000    1.4053226   -3.4492268   -1.8444437   0.21981034   -3.4492268    1.6047831  1154400 
 5618000    1.4042657   -3.4479972   -1.8444725    0.2210013   -3.4479972    1.6035248  1154437 
 5619000     1.404133   -3.4474678   -1.8441362   0.22185641   -3.4474678    1.6033316  1154467 
 5620000    1.4044355   -3.4484607   -1.8448226   0.22024427   -3.4484607    1.6036381  1154495 
 5621000    1.4045278   -3.4484988   -1.8448066   0.21809114   -3.4484988    1.6036922  1154532 
 5622000    1.4053869   -3.4492045   -1.8445899   0.22189505   -3.4492045    1.6046146  1154574 
 5623000    1.4038914    -3.448074   -1.8452141   0.21858218    -3.448074    1.6028599  1154608 
 5624000    1.4038797    -3.448648   -1.8458653   0.21889001    -3.448648    1.6027827  1154654 
 5625000    1.4036953   -3.4483725   -1.8458474   0.22111944   -3.4483725     1.602525  1154688 
 5626000    1.4040113   -3.4483316   -1.8454971    0.2203981   -3.4483316    1.6028345  1154725 
 5627000    1.4032456   -3.4492227   -1.8473193   0.22408606   -3.4492227    1.6019034  1154766 
 5628000    1.4029938    -3.448731   -1.8471581   0.22061971    -3.448731    1.6015729  1154797 
 5629000    1.4029451   -3.4485002   -1.8470327    0.2298901   -3.4485002    1.6014675  1154833 
 5630000    1.4032274   -3.4489061   -1.8471621   0.22305234   -3.4489061     1.601744  1154866 
 5631000    1.4048469   -3.4507391    -1.847191   0.22121785   -3.4507391    1.6035481  1154898 
 5632000    1.4040339    -3.449751   -1.8471697   0.22489613    -3.449751    1.6025813  1154926 
 5633000    1.4040637   -3.4497115   -1.8471379   0.22353387   -3.4497115    1.6025736  1154956 
 5634000    1.4051848   -3.4514471   -1.8476536   0.22274567   -3.4514471    1.6037935  1154999 
 5635000    1.4049435   -3.4513574   -1.8478961    0.2219256   -3.4513574    1.6034613  1155040 
 5636000    1.4037499   -3.4506991   -1.8486667    0.2175337   -3.4506991    1.6020324  1155088 
 5637000    1.4038752   -3.4503696   -1.8482469   0.22029625   -3.4503696    1.6021227  1155126 
 5638000    1.4045503   -3.4511601   -1.8483169   0.22352019   -3.4511601    1.6028432  1155162 
 5639000    1.4042268   -3.4511962   -1.8487582   0.22246093   -3.4511962     1.602438  1155188 
 5640000    1.4045275   -3.4517067   -1.8489895   0.21764776   -3.4517067    1.6027172  1155234 
 5641000     1.404059   -3.4515483   -1.8494087   0.21897948   -3.4515483    1.6021396  1155265 
 5642000    1.4042498   -3.4512192    -1.848909   0.21982502   -3.4512192    1.6023102  1155299 
 5643000    1.4040893   -3.4518724   -1.8497939   0.21747507   -3.4518724    1.6020785  1155334 
 5644000    1.4030718   -3.4512574   -1.8503814   0.22130922   -3.4512574     1.600876  1155364 
 5645000     1.403502   -3.4517191   -1.8504008   0.21724555   -3.4517191    1.6013183  1155399 
 5646000    1.4030897   -3.4514919   -1.8506827    0.2177873   -3.4514919    1.6008092  1155427 
 5647000    1.4038842   -3.4519611   -1.8502996   0.22072649   -3.4519611    1.6016615  1155466 
 5648000    1.4037177   -3.4525308    -1.851105   0.21913424   -3.4525308    1.6014259  1155499 
 5649000    1.4041454     -3.45296   -1.8510892   0.21831817     -3.45296    1.6018708  1155530 
 5650000    1.4036032   -3.4516743   -1.8504817   0.22243808   -3.4516743    1.6011926  1155573 
 5651000    1.4046622   -3.4533611   -1.8510048   0.21765583   -3.4533611    1.6023563  1155605 
 5652000    1.4036098    -3.451293   -1.8501773   0.21987079    -3.451293    1.6011157  1155634 
 5653000    1.4036918    -3.450845   -1.8496939    0.2273151    -3.450845     1.601151  1155676 
 5654000    1.4043318   -3.4516982   -1.8498615   0.22171154   -3.4516982    1.6018367  1155708 
 5655000    1.4034496   -3.4506634   -1.8498829   0.21952127   -3.4506634    1.6007805  1155744 
 5656000    1.4042089   -3.4523249   -1.8507199   0.21732886   -3.4523249     1.601605  1155774 
 5657000    1.4044729   -3.4521202   -1.8502598   0.21907362   -3.4521202    1.6018604  1155807 
 5658000    1.4053618   -3.4536905   -1.8508786   0.21712575   -3.4536905    1.6028119  1155852 
 5659000     1.404641    -3.452208   -1.8502654   0.22110034    -3.452208    1.6019426  1155886 
 5660000    1.4053354   -3.4527727   -1.8500783   0.22119211   -3.4527727    1.6026944  1155915 
 5661000    1.4047747   -3.4517824    -1.849769   0.22472742   -3.4517824    1.6020134  1155945 
 5662000    1.4052242   -3.4522629   -1.8497827   0.22419993   -3.4522629    1.6024802  1155978 
 5663000    1.4065762    -3.453302   -1.8493383   0.21837382    -3.453302    1.6039637  1156020 
 5664000     1.405548   -3.4528822   -1.8501269   0.21979305   -3.4528822    1.6027552  1156046 
 5665000    1.4058606   -3.4536446   -1.8505746   0.22096537   -3.4536446      1.60307  1156076 
 5666000    1.4051135   -3.4535451   -1.8513741   0.21558882   -3.4535451     1.602171  1156110 
 5667000    1.4043492   -3.4525413   -1.8512916   0.22224946   -3.4525413    1.6012497  1156146 
 5668000    1.4030704   -3.4515091   -1.8517674   0.22351894   -3.4515091    1.5997417  1156182 
 5669000    1.4052718   -3.4537875   -1.8515898   0.21901213   -3.4537875    1.6021977  1156221 
 5670000    1.4042125   -3.4531225    -1.852174   0.22193133   -3.4531225    1.6009485  1156251 
 5671000    1.4047428   -3.4547739   -1.8532831    0.2208885   -3.4547739    1.6014907  1156296 
 5672000    1.4048011   -3.4548581   -1.8533563   0.22053291   -3.4548581    1.6015018  1156336 
 5673000    1.4036463   -3.4535554   -1.8534117   0.22125895   -3.4535554    1.6001437  1156366 
 5674000    1.4049308   -3.4549488   -1.8533988   0.22025719   -3.4549488    1.6015499  1156408 
 5675000    1.4047454   -3.4546031   -1.8533199   0.22139396   -3.4546031    1.6012832  1156448 
 5676000    1.4049802   -3.4549782   -1.8534772   0.21897663   -3.4549782    1.6015009  1156484 
 5677000     1.404208   -3.4546105   -1.8540479    0.2237297   -3.4546105    1.6005626  1156526 
 5678000    1.4044091   -3.4542388   -1.8534941   0.22064386   -3.4542388    1.6007448  1156560 
 5679000    1.4061414   -3.4564774   -1.8537983   0.21637135   -3.4564774    1.6026791  1156589 
 5680000    1.4050951    -3.455412   -1.8539808   0.22154068    -3.455412    1.6014312  1156629 
 5681000    1.4039678   -3.4541729   -1.8540847    0.2255359   -3.4541729    1.6000882  1156671 
 5682000    1.4051486   -3.4551906    -1.853812   0.22049902   -3.4551906    1.6013785  1156711 
 5683000    1.4055456   -3.4557315   -1.8539434   0.22081659   -3.4557315    1.6017881  1156742 
 5684000     1.405717   -3.4553362   -1.8533818   0.22304372   -3.4553362    1.6019543  1156763 
 5685000    1.4057016   -3.4557685   -1.8538857    0.2176114   -3.4557685    1.6018828  1156802 
 5686000    1.4046867   -3.4554526     -1.85479   0.21998997   -3.4554526    1.6006626  1156848 
 5687000    1.4045676   -3.4546902    -1.854202   0.22696349   -3.4546902    1.6004881  1156876 
 5688000    1.4042235   -3.4549095   -1.8548687   0.22360864   -3.4549095    1.6000408  1156916 
 5689000    1.4060432   -3.4574682   -1.8554011   0.21673506   -3.4574682    1.6020671  1156950 
 5690000    1.4056138   -3.4567207   -1.8551845   0.22306965   -3.4567207    1.6015363  1156980 
 5691000    1.4045593   -3.4554584    -1.855172   0.21975811   -3.4554584    1.6002864  1157015 
 5692000    1.4054464   -3.4563579   -1.8551022   0.21960147   -3.4563579    1.6012556  1157045 
 5693000    1.4047021    -3.455469   -1.8551057   0.21965746    -3.455469    1.6003634  1157077 
 5694000    1.4041224   -3.4552494   -1.8555935   0.22020316   -3.4552494    1.5996559  1157111 
 5695000    1.4042034   -3.4552913   -1.8555928   0.21816688   -3.4552913    1.5996985  1157147 
 5696000     1.405798   -3.4571663   -1.8557066   0.21854095   -3.4571663    1.6014597  1157187 
 5697000     1.405003   -3.4559948   -1.8554891   0.22336844   -3.4559948    1.6005056  1157222 
 5698000    1.4061626   -3.4569259   -1.8551464   0.21777191   -3.4569259    1.6017795  1157256 
 5699000    1.4056524   -3.4570247    -1.855861   0.22473819   -3.4570247    1.6011637  1157281 
 5700000    1.4062799   -3.4578997   -1.8560738   0.22223811   -3.4578997    1.6018259  1157319 
 5701000    1.4044017   -3.4551108   -1.8554561   0.22076279   -3.4551108    1.5996547  1157342 
 5702000    1.4044638   -3.4560771   -1.8563986    0.2236445   -3.4560771    1.5996785  1157376 
 5703000    1.4049505   -3.4563844   -1.8561916   0.22324773   -3.4563844    1.6001928  1157405 
 5704000    1.4051077   -3.4560499   -1.8557209   0.22255632   -3.4560499     1.600329  1157436 
 5705000    1.4054308    -3.456375   -1.8557293   0.22497979    -3.456375    1.6006457  1157473 
 5706000    1.4063335    -3.457669    -1.856038   0.22153879    -3.457669     1.601631  1157504 
 5707000    1.4046603   -3.4565438   -1.8568696   0.22457147   -3.4565438    1.5996742  1157541 
 5708000    1.4054071   -3.4570043   -1.8565419   0.21899762   -3.4570043    1.6004625  1157586 
 5709000    1.4056539   -3.4568976   -1.8561858   0.22126559   -3.4568976    1.6007117  1157609 
 5710000    1.4058698   -3.4575233   -1.8566128    0.2223733   -3.4575233    1.6009106  1157643 
 5711000    1.4063155   -3.4572848   -1.8559123   0.22474077   -3.4572848    1.6013725  1157676 
 5712000    1.4063742    -3.457589   -1.8561926   0.22188943    -3.457589    1.6013964  1157707 
 5713000    1.4063873   -3.4579965   -1.8566349   0.21885005   -3.4579965    1.6013616  1157743 
 5714000     1.405815   -3.4571481    -1.856481   0.22127096   -3.4571481    1.6006671  1157774 
 5715000    1.4062976   -3.4580751    -1.856907   0.22001375   -3.4580751    1.6011681  1157809 
 5716000    1.4054704   -3.4571664   -1.8569912   0.22687759   -3.4571664    1.6001752  1157846 
 5717000    1.4057794   -3.4580669   -1.8576077   0.22384066   -3.4580669    1.6004592  1157895 
 5718000    1.4058697   -3.4585082   -1.8580082   0.22711201   -3.4585082    1.6004999  1157940 
 5719000    1.4067746   -3.4590262   -1.8575446    0.2191357   -3.4590262    1.6014816  1157975 
 5720000    1.4070841   -3.4601596   -1.8583782   0.21969507   -3.4601596    1.6017814  1158013 
 5721000    1.4059975   -3.4587851   -1.8582973   0.21924059   -3.4587851    1.6004877  1158054 
 5722000    1.4057636   -3.4589487   -1.8587797   0.21975976   -3.4589487     1.600169  1158092 
 5723000    1.4055826    -3.458253   -1.8583343   0.22005303    -3.458253    1.5999187  1158124 
 5724000    1.4058347   -3.4584692   -1.8583159   0.22287681   -3.4584692    1.6001533  1158162 
 5725000    1.4069294   -3.4599855   -1.8586333   0.22199936   -3.4599855    1.6013522  1158196 
 5726000    1.4059442   -3.4594885   -1.8593074   0.22056998   -3.4594885    1.6001811  1158232 
 5727000    1.4057164   -3.4595408   -1.8596921   0.22112716   -3.4595408    1.5998487  1158285 
 5728000    1.4059019   -3.4597349   -1.8597179   0.22592378   -3.4597349     1.600017  1158316 
 5729000    1.4078269   -3.4613113   -1.8591464   0.22224908   -3.4613113    1.6021649  1158347 
 5730000    1.4070762   -3.4597112   -1.8584586   0.22424118   -3.4597112    1.6012525  1158389 
 5731000    1.4076856   -3.4599235   -1.8580134   0.22297649   -3.4599235    1.6019101  1158415 
 5732000    1.4073404   -3.4597346   -1.8582617   0.22257325   -3.4597346    1.6014729  1158447 
 5733000    1.4063299   -3.4589754   -1.8587103   0.22852666   -3.4589754    1.6002651  1158489 
 5734000    1.4070988   -3.4601327   -1.8590604   0.22272437   -3.4601327    1.6010723  1158538 
 5735000     1.406789   -3.4601365   -1.8594555   0.22156356   -3.4601365     1.600681  1158566 
 5736000    1.4062876   -3.4597015   -1.8596378    0.2217185   -3.4597015    1.6000637  1158600 
 5737000    1.4062417   -3.4597429   -1.8597868   0.22339641   -3.4597429    1.5999561  1158640 
 5738000    1.4060392    -3.459894   -1.8602276   0.22246986    -3.459894    1.5996664  1158683 
 5739000      1.40569   -3.4598625   -1.8606528   0.21894073   -3.4598625    1.5992097  1158726 
 5740000    1.4058232   -3.4598767   -1.8605789   0.22259963   -3.4598767    1.5992978  1158772 
 5741000    1.4073805   -3.4614351   -1.8604209    0.2219691   -3.4614351    1.6010142  1158812 
 5742000     1.406673   -3.4606738   -1.8605156   0.22152384   -3.4606738    1.6001582  1158849 
 5743000    1.4060343   -3.4598299   -1.8604507   0.22134577   -3.4598299    1.5993792  1158887 
 5744000    1.4076028   -3.4608671   -1.8597478   0.21923092   -3.4608671    1.6011193  1158919 
 5745000    1.4067364   -3.4599614   -1.8598636   0.22582196   -3.4599614    1.6000978  1158945 
 5746000     1.407595   -3.4608627    -1.859831   0.22097752   -3.4608627    1.6010316  1158976 
 5747000    1.4074109   -3.4613167   -1.8605373   0.21789788   -3.4613167    1.6007793  1159007 
 5748000    1.4071208   -3.4608213   -1.8604299   0.22452444   -3.4608213    1.6003914  1159049 
 5749000    1.4079765   -3.4628439    -1.861529   0.21963969   -3.4628439     1.601315  1159085 
 5750000    1.4052852   -3.4602574   -1.8620572   0.22442513   -3.4602574    1.5982003  1159124 
 5751000    1.4065261   -3.4608611   -1.8612993   0.22485509   -3.4608611    1.5995618  1159160 
 5752000    1.4067487   -3.4612643    -1.861499   0.22500148   -3.4612643    1.5997653  1159196 
 5753000    1.4070929   -3.4616821   -1.8615737   0.22327672   -3.4616821    1.6001084  1159231 
 5754000    1.4060275   -3.4604878   -1.8616254   0.22506537   -3.4604878    1.5988624  1159256 
 5755000    1.4068841   -3.4613683   -1.8615829   0.22562013   -3.4613683    1.5997854  1159293 
 5756000    1.4081685   -3.4634084    -1.862208   0.22207256   -3.4634084    1.6012003  1159326 
 5757000    1.4066489   -3.4616582   -1.8622396   0.22306172   -3.4616582    1.5994186  1159365 
 5758000    1.4070356   -3.4620354   -1.8622129   0.22155491   -3.4620354    1.5998225  1159391 
 5759000    1.4069311    -3.462535   -1.8628879   0.22258873    -3.462535    1.5996471  1159432 
 5760000    1.4082249    -3.463484   -1.8624128   0.21875227    -3.463484    1.6010712  1159466 
 5761000     1.406597    -3.461731   -1.8625576   0.22562407    -3.461731    1.5991734  1159500 
 5762000    1.4087253   -3.4642812   -1.8627406   0.21880245   -3.4642812    1.6015406  1159538 
 5763000    1.4072343   -3.4630659   -1.8632659   0.22172964   -3.4630659       1.5998  1159571 
 5764000    1.4070701   -3.4628579   -1.8632886   0.22632279   -3.4628579    1.5995692  1159603 
 5765000    1.4065044   -3.4622401   -1.8633637   0.22196357   -3.4622401    1.5988764  1159639 
 5766000    1.4067739   -3.4622998   -1.8631721   0.22186442   -3.4622998    1.5991277  1159679 
 5767000      1.40714   -3.4632323   -1.8637326   0.22301517   -3.4632323    1.5994997  1159711 
 5768000    1.4068727   -3.4622521   -1.8630962   0.22088967   -3.4622521    1.5991559  1159740 
 5769000    1.4084323     -3.46411   -1.8632241    0.2204607     -3.46411    1.6008858  1159771 
 5770000     1.406527   -3.4620139   -1.8633337    0.2259591   -3.4620139    1.5986802  1159800 
 5771000    1.4060786   -3.4616483    -1.863519   0.22349546   -3.4616483    1.5981292  1159830 
 5772000    1.4070338   -3.4626097   -1.8634266   0.22183137   -3.4626097    1.5991831  1159853 
 5773000    1.4084805   -3.4633641   -1.8626016   0.21979625   -3.4633641    1.6007625  1159900 
 5774000    1.4073163   -3.4622382   -1.8628526   0.22846642   -3.4622382    1.5993856  1159939 
 5775000    1.4076445   -3.4628573   -1.8631414   0.22226375   -3.4628573    1.5997159  1159970 
 5776000    1.4084735   -3.4635999   -1.8629861   0.22481539   -3.4635999    1.6006138  1160002 
 5777000    1.4084725   -3.4631167   -1.8625633   0.22340617   -3.4631167    1.6005534  1160045 
 5778000    1.4073823   -3.4628334   -1.8635699   0.22530342   -3.4628334    1.5992635  1160082 
 5779000    1.4087845   -3.4646915   -1.8638692   0.22061729   -3.4646915    1.6008223  1160107 
 5780000    1.4089208    -3.464915   -1.8639874    0.2210414    -3.464915    1.6009276  1160143 
 5781000    1.4075871   -3.4632609   -1.8638874   0.22251484   -3.4632609    1.5993736  1160171 
 5782000    1.4081686    -3.464325   -1.8643404   0.22035251    -3.464325    1.5999846  1160207 
 5783000    1.4080764   -3.4643241   -1.8644897   0.22235746   -3.4643241    1.5998343  1160240 
 5784000    1.4084641   -3.4644442   -1.8642189   0.22416205   -3.4644442    1.6002252  1160276 
 5785000    1.4081333    -3.464142   -1.8643203   0.22359003    -3.464142    1.5998218  1160296 
 5786000    1.4088205   -3.4653502   -1.8648056   0.22275719   -3.4653502    1.6005446  1160338 
 5787000    1.4072446   -3.4630058   -1.8642984   0.22560514   -3.4630058    1.5987074  1160372 
 5788000    1.4088139   -3.4650487   -1.8646234   0.22094684   -3.4650487    1.6004253  1160419 
 5789000    1.4093935   -3.4648436   -1.8638164   0.22114758   -3.4648436    1.6010273  1160460 
 5790000    1.4090691   -3.4651617   -1.8645582   0.22177011   -3.4651617    1.6006035  1160500 
 5791000    1.4083584   -3.4642698   -1.8645356   0.22723579   -3.4642698    1.5997342  1160545 
 5792000      1.40784    -3.463816   -1.8647243   0.22414904    -3.463816    1.5990917  1160584 
 5793000     1.408122   -3.4640978   -1.8647176    0.2258801   -3.4640978    1.5993802  1160607 
 5794000    1.4101208   -3.4658307    -1.864234   0.22650861   -3.4658307    1.6015967  1160646 
 5795000    1.4091217   -3.4644255   -1.8640201   0.22802662   -3.4644255    1.6004055  1160687 
 5796000    1.4092943   -3.4653544    -1.864815   0.21980409   -3.4653544    1.6005394  1160732 
 5797000    1.4079089   -3.4634484   -1.8645223   0.22468832   -3.4634484    1.5989261  1160761 
 5798000    1.4092486   -3.4655124   -1.8651049   0.22348568   -3.4655124    1.6004075  1160790 
 5799000    1.4096929   -3.4653069   -1.8644569   0.22305932   -3.4653069      1.60085  1160835 
 5800000    1.4103063   -3.4650543   -1.8635587    0.2262443   -3.4650543    1.6014956  1160872 
 5801000    1.4102369   -3.4656888   -1.8643204   0.22829499   -3.4656888    1.6013684  1160907 
 5802000    1.4100749   -3.4654069   -1.8642721   0.22436686   -3.4654069    1.6011348  1160943 
 5803000    1.4099677   -3.4651911   -1.8642193   0.22137147   -3.4651911    1.6009718  1160973 
 5804000    1.4104922   -3.4662241   -1.8647147   0.22568539   -3.4662241    1.6015094  1161015 
 5805000    1.4100682   -3.4664169   -1.8654317   0.21989457   -3.4664169    1.6009852  1161046 
 5806000    1.4092852   -3.4658421   -1.8657914   0.22194852   -3.4658421    1.6000507  1161079 
 5807000    1.4095139   -3.4659473   -1.8656837   0.22172289   -3.4659473    1.6002635  1161113 
 5808000    1.4099032   -3.4668274   -1.8661523   0.22489928   -3.4668274    1.6006751  1161135 
 5809000    1.4104403   -3.4672955    -1.866052   0.22120115   -3.4672955    1.6012436  1161165 
 5810000    1.4084054   -3.4663991   -1.8675138   0.22436122   -3.4663991    1.5988852  1161200 
 5811000    1.4099568    -3.467743   -1.8671462    0.2182344    -3.467743    1.6005968  1161236 
 5812000    1.4079206   -3.4655929   -1.8673613   0.22586248   -3.4655929    1.5982316  1161275 
 5813000    1.4089804   -3.4668276   -1.8674369   0.22011072   -3.4668276    1.5993906  1161307 
 5814000    1.4082802   -3.4670068   -1.8684565   0.22286804   -3.4670068    1.5985503  1161340 
 5815000    1.4097311   -3.4684402   -1.8682981   0.22206541   -3.4684402    1.6001421  1161380 
 5816000    1.4093801   -3.4677836   -1.8680744   0.22523531   -3.4677836    1.5997093  1161405 
 5817000    1.4085602   -3.4671464   -1.8684007   0.22655399   -3.4671464    1.5987457  1161429 
 5818000    1.4091011   -3.4678788   -1.8685798   0.22363948   -3.4678788     1.599299  1161473 
 5819000    1.4084804   -3.4676544   -1.8691219   0.22553633   -3.4676544    1.5985325  1161518 
 5820000    1.4087321   -3.4667592   -1.8680001   0.22828949   -3.4667592    1.5987591  1161561 
 5821000     1.410297   -3.4692286   -1.8687432   0.22225051   -3.4692286    1.6004854  1161597 
 5822000    1.4102685   -3.4693002   -1.8688995   0.22154137   -3.4693002    1.6004008  1161635 
 5823000    1.4088977   -3.4682775   -1.8694819   0.22561088   -3.4682775    1.5987956  1161671 
 5824000    1.4092141   -3.4688821   -1.8697715   0.22147691   -3.4688821    1.5991106  1161703 
 5825000    1.4092677   -3.4689188   -1.8698065   0.21951433   -3.4689188    1.5991123  1161746 
 5826000    1.4092814   -3.4690083   -1.8699315   0.22466884   -3.4690083    1.5990768  1161783 
 5827000    1.4094497   -3.4691736   -1.8699595   0.22366954   -3.4691736    1.5992141  1161822 
 5828000    1.4091566   -3.4692761     -1.87044   0.22296391   -3.4692761    1.5988361  1161855 
 5829000    1.4090866   -3.4688522   -1.8701409   0.22463544   -3.4688522    1.5987112  1161888 
 5830000    1.4102677   -3.4701044   -1.8701026   0.22218439   -3.4701044    1.6000018  1161924 
 5831000    1.4094463   -3.4688946   -1.8698673   0.21913149   -3.4688946    1.5990273  1161955 
 5832000    1.4108911   -3.4703753   -1.8697641   0.22522096   -3.4703753    1.6006112  1161995 
 5833000    1.4104012   -3.4697005   -1.8696892   0.22352113   -3.4697005    1.6000113  1162027 
 5834000    1.4103237   -3.4697813   -1.8699142   0.22544349   -3.4697813    1.5998671  1162068 
 5835000    1.4109371    -3.470699   -1.8701939   0.22044424    -3.470699     1.600505  1162110 
 5836000    1.4099524   -3.4686938   -1.8693457   0.22326717   -3.4686938    1.5993481  1162139 
 5837000    1.4098744   -3.4690332   -1.8698258   0.22342535   -3.4690332    1.5992074  1162177 
 5838000    1.4107318   -3.4697324   -1.8696076     0.225233   -3.4697324    1.6001248  1162217 
 5839000    1.4109215   -3.4690516    -1.868764   0.22713566   -3.4690516    1.6002877  1162255 
 5840000    1.4093875   -3.4677123   -1.8692003   0.22403242   -3.4677123     1.598512  1162281 
 5841000    1.4110228   -3.4693657   -1.8690485   0.22491266   -3.4693657    1.6003172  1162317 
 5842000    1.4098608   -3.4686939   -1.8697441   0.22846555   -3.4686939    1.5989498  1162353 
 5843000    1.4109151   -3.4701032    -1.870021   0.22159712   -3.4701032    1.6000822  1162399 
 5844000    1.4106538   -3.4699988   -1.8702653   0.22282535   -3.4699988    1.5997336  1162437 
 5845000    1.4101865   -3.4699663   -1.8708177   0.22260403   -3.4699663    1.5991485  1162477 
 5846000    1.4111873   -3.4708981   -1.8706724   0.21985613   -3.4708981    1.6002257  1162519 
 5847000    1.4106914   -3.4706695   -1.8710557   0.22335187   -3.4706695    1.5996138  1162555 
 5848000    1.4102259   -3.4702426   -1.8712076   0.22344887   -3.4702426    1.5990351  1162592 
 5849000    1.4107668   -3.4703733   -1.8707772   0.22069678   -3.4703733    1.5995961  1162630 
 5850000    1.4109371   -3.4700237   -1.8702703   0.22794371   -3.4700237    1.5997534  1162656 
 5851000    1.4114188   -3.4706142   -1.8703656   0.22626596   -3.4706142    1.6002486  1162693 
 5852000     1.410967   -3.4707256   -1.8710346   0.22326132   -3.4707256     1.599691  1162726 
 5853000    1.4121893   -3.4716596   -1.8706337   0.22264596   -3.4716596    1.6010259  1162763 
 5854000    1.4113049   -3.4706794   -1.8706989   0.22711888   -3.4706794    1.5999805  1162794 
 5855000    1.4116995   -3.4707283   -1.8703347   0.22375799   -3.4707283    1.6003935  1162819 
 5856000    1.4115963   -3.4708083   -1.8705814   0.22472489   -3.4708083    1.6002269  1162855 
 5857000    1.4120897   -3.4717129   -1.8709693   0.22744998   -3.4717129    1.6007436  1162886 
 5858000    1.4104606   -3.4707762   -1.8719303   0.22895983   -3.4707762     1.598846  1162923 
 5859000    1.4115345   -3.4717894   -1.8717743   0.22775798   -3.4717894    1.6000151  1162958 
 5860000    1.4114844   -3.4719387   -1.8720257   0.22334987   -3.4719387     1.599913  1162991 
 5861000    1.4113306   -3.4716064   -1.8719131   0.22617338   -3.4716064    1.5996933  1163024 
 5862000    1.4106787   -3.4714782   -1.8725775   0.22262572   -3.4714782    1.5989007  1163063 
 5863000     1.411471   -3.4712575   -1.8715028   0.22869489   -3.4712575    1.5997547  1163095 
 5864000    1.4104913   -3.4701396   -1.8715544   0.22824121   -3.4701396    1.5985852  1163138 
 5865000    1.4128834     -3.47304   -1.8718015   0.22257787     -3.47304    1.6012385  1163180 
 5866000    1.4112064   -3.4720403   -1.8727532   0.22857582   -3.4720403    1.5992871  1163217 
 5867000    1.4105918   -3.4715507   -1.8729972   0.22730346   -3.4715507    1.5985534  1163244 
 5868000    1.4113046   -3.4724624   -1.8731507   0.22243544   -3.4724624    1.5993117  1163280 
 5869000    1.4122998   -3.4730958   -1.8727017   0.22490842   -3.4730958    1.6003941  1163313 
 5870000    1.4098928   -3.4709028   -1.8732789   0.22123157   -3.4709028    1.5976239  1163344 
 5871000    1.4112021   -3.4715574   -1.8724829   0.22743718   -3.4715574    1.5990746  1163368 
 5872000    1.4123937   -3.4725193   -1.8721399   0.22364958   -3.4725193    1.6003794  1163401 
 5873000    1.4123431   -3.4727647   -1.8724962   0.22342714   -3.4727647    1.6002685  1163440 
 5874000     1.411386    -3.471729   -1.8725877   0.22362839    -3.471729    1.5991414  1163471 
 5875000    1.4111668   -3.4720459   -1.8731954   0.22159585   -3.4720459    1.5988505  1163502 
 5876000    1.4121774   -3.4730668   -1.8731181   0.22365505   -3.4730668    1.5999487  1163536 
 5877000    1.4105545   -3.4716024   -1.8735488   0.22323491   -3.4716024    1.5980537  1163577 
 5878000    1.4110118   -3.4721182   -1.8735821   0.22719984   -3.4721182    1.5985361  1163603 
 5879000    1.4117645   -3.4730489      -1.8737   0.22617571   -3.4730489    1.5993489  1163632 
 5880000    1.4110854   -3.4723843   -1.8738459   0.22376965   -3.4723843    1.5985384  1163662 
 5881000    1.4111622   -3.4732987   -1.8747103   0.22267089   -3.4732987    1.5985883  1163689 
 5882000     1.411718   -3.4729953   -1.8738035   0.22837132   -3.4729953    1.5991918  1163708 
 5883000    1.4122572   -3.4737743   -1.8740322   0.22064237   -3.4737743    1.5997421  1163752 
 5884000    1.4111114   -3.4731037   -1.8747131   0.22770367   -3.4731037    1.5983907  1163791 
 5885000    1.4127857   -3.4745046   -1.8742614   0.22183461   -3.4745046    1.6002432  1163823 
 5886000    1.4111441   -3.4732539   -1.8749223   0.22447057   -3.4732539    1.5983316  1163861 
 5887000    1.4123001   -3.4742849   -1.8746825   0.22149476   -3.4742849    1.5996024  1163889 
 5888000    1.4117342   -3.4733882   -1.8744803   0.22939106   -3.4733882    1.5989079  1163928 
 5889000    1.4120778   -3.4741594   -1.8748994   0.22729972   -3.4741594      1.59926  1163955 
 5890000    1.4113942   -3.4742588    -1.875828   0.22686982   -3.4742588    1.5984308  1163995 
 5891000    1.4110213   -3.4734707   -1.8755103   0.22986151   -3.4734707    1.5979604  1164030 
 5892000    1.4115799   -3.4744109   -1.8758632   0.22589407   -3.4744109    1.5985477  1164063 
 5893000     1.411536   -3.4745065   -1.8760511    0.2261491   -3.4745065    1.5984555  1164094 
 5894000    1.4108861   -3.4736662   -1.8759907   0.22507984   -3.4736662    1.5976755  1164126 
 5895000    1.4112329    -3.474871   -1.8768536   0.22492853    -3.474871    1.5980174  1164163 
 5896000    1.4119219   -3.4750985   -1.8763337     0.226315   -3.4750985    1.5987648  1164187 
 5897000     1.411246   -3.4749844   -1.8770372   0.22287872   -3.4749844    1.5979472  1164225 
 5898000    1.4121876   -3.4762901   -1.8773344   0.22306767   -3.4762901    1.5989557  1164267 
 5899000    1.4113851   -3.4750155   -1.8770219   0.22408665   -3.4750155    1.5979936  1164306 
 5900000    1.4114359   -3.4752019   -1.8772016    0.2279703   -3.4752019    1.5980003  1164343 
 5901000    1.4105549   -3.4741761   -1.8772062   0.22580314   -3.4741761    1.5969699  1164367 
 5902000    1.4121554   -3.4763551   -1.8776213   0.22131999   -3.4763551    1.5987338  1164402 
 5903000    1.4114297   -3.4753117   -1.8774501   0.22528686   -3.4753117    1.5978615  1164439 
 5904000    1.4117416   -3.4757158   -1.8775451   0.22609389   -3.4757158    1.5981707  1164471 
 5905000    1.4121622   -3.4756346    -1.877029   0.22320971   -3.4756346    1.5986056  1164501 
 5906000    1.4123579   -3.4756122   -1.8768371   0.22701821   -3.4756122     1.598775  1164539 
 5907000    1.4125595   -3.4759321    -1.876977   0.22651023   -3.4759321    1.5989551  1164574 
 5908000    1.4130564   -3.4765032   -1.8770267   0.22810277   -3.4765032    1.5994765  1164604 
 5909000    1.4122878   -3.4757979   -1.8772353   0.22392856   -3.4757979    1.5985625  1164636 
 5910000    1.4124506    -3.475907   -1.8772097   0.22666329    -3.475907    1.5986974  1164672 
 5911000    1.4133082   -3.4764753   -1.8768581   0.22476461   -3.4764753    1.5996172  1164709 
 5912000    1.4128667   -3.4764925   -1.8774409   0.22590987   -3.4764925    1.5990516  1164757 
 5913000    1.4126803   -3.4761974   -1.8774075   0.22648938   -3.4761974    1.5987899  1164794 
 5914000    1.4141897    -3.477911   -1.8774706   0.22154059    -3.477911    1.6004404  1164836 
 5915000    1.4138894   -3.4777419   -1.8776826     0.220854   -3.4777419    1.6000593  1164866 
 5916000    1.4121886   -3.4757395   -1.8776542   0.23120148   -3.4757395    1.5980853  1164902 
 5917000    1.4127231   -3.4767622   -1.8781298   0.22529326   -3.4767622    1.5986325  1164944 
 5918000     1.412601    -3.476237   -1.8777838   0.22517935    -3.476237    1.5984532  1164974 
 5919000    1.4131145   -3.4768355   -1.8778439   0.22638719   -3.4768355    1.5989916  1165005 
 5920000     1.413214   -3.4773357   -1.8782795   0.22257682   -3.4773357    1.5990562  1165040 
 5921000    1.4124495   -3.4761983   -1.8780634    0.2259657   -3.4761983    1.5981349  1165081 
 5922000    1.4133204   -3.4776331    -1.878554   0.22736484   -3.4776331    1.5990791  1165111 
 5923000    1.4135663   -3.4768755   -1.8775635   0.22843621   -3.4768755     1.599312  1165144 
 5924000    1.4134409   -3.4767174   -1.8775898   0.22886005   -3.4767174    1.5991276  1165175 
 5925000    1.4132871    -3.476608   -1.8777066   0.23004725    -3.476608    1.5989014  1165213 
 5926000    1.4131704   -3.4772506   -1.8785361   0.22432146   -3.4772506    1.5987145  1165253 
 5927000    1.4127264   -3.4761101   -1.8779458   0.23319219   -3.4761101    1.5981643  1165288 
 5928000    1.4129196   -3.4766237   -1.8782834   0.23158727   -3.4766237    1.5983403  1165319 
 5929000     1.413766   -3.4782564   -1.8790122   0.22394894   -3.4782564    1.5992442  1165358 
 5930000    1.4129456   -3.4777924   -1.8795255   0.22348032   -3.4777924    1.5982669  1165394 
 5931000     1.412898   -3.4775452   -1.8793748   0.22549385   -3.4775452    1.5981705  1165425 
 5932000    1.4127483   -3.4775872   -1.8796478    0.2290226   -3.4775872    1.5979395  1165470 
 5933000     1.413279   -3.4780768   -1.8795768   0.22560797   -3.4780768       1.5985  1165499 
 5934000    1.4102772   -3.4761722   -1.8811208    0.2302723   -3.4761722    1.5950514  1165538 
 5935000     1.411791   -3.4781629   -1.8814583   0.22780243   -3.4781629    1.5967046  1165581 
 5936000    1.4116953   -3.4778501   -1.8812948   0.22626452   -3.4778501    1.5965552  1165611 
 5937000    1.4125206   -3.4780794   -1.8806428   0.23129952   -3.4780794    1.5974366  1165649 
 5938000    1.4131898   -3.4795201   -1.8813693   0.22793613   -3.4795201    1.5981509  1165680 
 5939000    1.4139865   -3.4804549   -1.8814552   0.21970458   -3.4804549    1.5989997  1165718 
 5940000    1.4128357   -3.4791664   -1.8815215   0.22839582   -3.4791664    1.5976449  1165757 
 5941000    1.4122815   -3.4790754   -1.8820996   0.22885975   -3.4790754    1.5969757  1165788 
 5942000    1.4137733   -3.4803435   -1.8817302   0.22115664   -3.4803435    1.5986133  1165824 
 5943000    1.4127306   -3.4799977   -1.8826183   0.22229009   -3.4799977    1.5973794  1165864 
 5944000    1.4126815   -3.4793962   -1.8821121   0.22551505   -3.4793962    1.5972841  1165893 
 5945000    1.4127325   -3.4796931   -1.8824034   0.22615682   -3.4796931    1.5972898  1165931 
 5946000    1.4119051   -3.4789913   -1.8826917   0.22904899   -3.4789913    1.5962995  1165971 
 5947000     1.412927   -3.4808984   -1.8834915   0.22347217   -3.4808984    1.5974069  1166006 
 5948000    1.4111511    -3.478836   -1.8834724   0.22546263    -3.478836    1.5953636  1166032 
 5949000     1.412986   -3.4813697   -1.8839919   0.22383863   -3.4813697    1.5973778  1166076 
 5950000    1.4125275   -3.4803562   -1.8835461   0.22618435   -3.4803562    1.5968101  1166112 
 5951000    1.4131048   -3.4814329   -1.8840194   0.22419449   -3.4814329    1.5974135  1166148 
 5952000    1.4129908   -3.4810273   -1.8837756   0.22659723   -3.4810273    1.5972517  1166172 
 5953000    1.4130208   -3.4812883   -1.8840465   0.22283212   -3.4812883    1.5972418  1166204 
 5954000    1.4135978   -3.4816143   -1.8837573   0.22049271   -3.4816143     1.597857  1166231 
 5955000    1.4127835   -3.4801411    -1.883258   0.22514339   -3.4801411    1.5968831  1166270 
 5956000    1.4138298   -3.4810989   -1.8830797   0.22659565   -3.4810989    1.5980192  1166304 
 5957000    1.4125015   -3.4803106   -1.8838283   0.22513927   -3.4803106    1.5964823  1166330 
 5958000    1.4127059   -3.4811243   -1.8844712    0.2236964   -3.4811243    1.5966531  1166374 
 5959000    1.4122167   -3.4809459   -1.8848992   0.22528262   -3.4809459    1.5960468  1166413 
 5960000    1.4133309   -3.4820277   -1.8847696   0.22350295   -3.4820277    1.5972581  1166448 
 5961000    1.4128056   -3.4819762   -1.8853679   0.22360152   -3.4819762    1.5966083  1166489 
 5962000    1.4126745   -3.4822448   -1.8858421   0.22294993   -3.4822448    1.5964027  1166531 
 5963000    1.4119767   -3.4814914   -1.8859238   0.22499436   -3.4814914    1.5955676  1166565 
 5964000    1.4113186   -3.4809761   -1.8862014   0.22483864   -3.4809761    1.5947747  1166601 
 5965000    1.4131438   -3.4819708   -1.8851788   0.22750779   -3.4819708     1.596792  1166634 
 5966000     1.412399   -3.4812931   -1.8853877    0.2312475   -3.4812931    1.5959053  1166667 
 5967000     1.413416   -3.4827915   -1.8857768   0.22583924   -3.4827915    1.5970147  1166696 
 5968000    1.4128395   -3.4819185    -1.885603   0.22980947   -3.4819185    1.5963155  1166731 
 5969000    1.4130806   -3.4825986   -1.8860464   0.22355691   -3.4825986    1.5965523  1166757 
 5970000    1.4130155   -3.4828398   -1.8864089    0.2203737   -3.4828398    1.5964309  1166792 
 5971000    1.4126254   -3.4828211   -1.8868693   0.22132443   -3.4828211    1.5959518  1166820 
 5972000    1.4125587   -3.4822184   -1.8864022   0.22626738   -3.4822184    1.5958162  1166864 
 5973000    1.4139174   -3.4834982   -1.8861921   0.22421435   -3.4834982    1.5973061  1166897 
 5974000    1.4129607   -3.4827061   -1.8865219    0.2275754   -3.4827061    1.5961843  1166927 
 5975000    1.4129782   -3.4827432   -1.8865912   0.22651878   -3.4827432     1.596152  1166965 
 5976000    1.4130472    -3.483163   -1.8869741   0.22404281    -3.483163    1.5961889  1166995 
 5977000     1.413472   -3.4836765   -1.8870542   0.22554062   -3.4836765    1.5966222  1167029 
 5978000    1.4125364   -3.4823257   -1.8868122   0.22802029   -3.4823257    1.5955136  1167067 
 5979000    1.4132773   -3.4830968   -1.8867751   0.22918135   -3.4830968    1.5963216  1167088 
 5980000    1.4131287   -3.4829253   -1.8868111   0.22627171   -3.4829253    1.5961142  1167117 
 5981000    1.4133462   -3.4825836   -1.8862648   0.23102475   -3.4825836    1.5963188  1167147 
 5982000    1.4146017   -3.4843538   -1.8866786   0.22206821   -3.4843538    1.5976752  1167192 
 5983000     1.412764   -3.4827015    -1.887136   0.22454017   -3.4827015    1.5955655  1167217 
 5984000    1.4140086   -3.4838857   -1.8869624   0.22605527   -3.4838857    1.5969233  1167252 
 5985000     1.413154   -3.4831806   -1.8872662   0.22474025   -3.4831806    1.5959144  1167284 
 5986000    1.4128941   -3.4826556   -1.8870867   0.22096374   -3.4826556    1.5955689  1167322 
 5987000    1.4141161   -3.4837581   -1.8868612   0.22371276   -3.4837581     1.596897  1167360 
 5988000    1.4131542   -3.4839336   -1.8881763   0.22065121   -3.4839336    1.5957573  1167399 
 5989000    1.4131546   -3.4839322   -1.8882304   0.22482233   -3.4839322    1.5957018  1167440 
 5990000    1.4130986   -3.4835622   -1.8879701   0.22446517   -3.4835622    1.5955921  1167474 
 5991000    1.4143744   -3.4852885   -1.8883023   0.22435594   -3.4852885    1.5969862  1167508 
 5992000    1.4143325   -3.4851001   -1.8882091   0.22457646   -3.4851001     1.596891  1167543 
 5993000    1.4141826   -3.4847348   -1.8880541   0.22342305   -3.4847348    1.5966807  1167573 
 5994000    1.4137046   -3.4841542   -1.8880651   0.22475023   -3.4841542    1.5960891  1167611 
 5995000    1.4146338   -3.4847544   -1.8876723   0.22402503   -3.4847544    1.5970821  1167652 
 5996000    1.4141197   -3.4846599   -1.8882115   0.22734187   -3.4846599    1.5964484  1167691 
 5997000    1.4141457   -3.4848924    -1.888464   0.22600942   -3.4848924    1.5964285  1167727 
 5998000    1.4141061   -3.4845573   -1.8882186   0.22320951   -3.4845573    1.5963387  1167760 
 5999000    1.4142159   -3.4851326   -1.8887164   0.22060183   -3.4851326    1.5964161  1167794 
 6000000    1.4139169   -3.4846889   -1.8886623   0.22860078   -3.4846889    1.5960266  1167832 
 6001000    1.4136785   -3.4842003   -1.8884838   0.22516372   -3.4842003    1.5957165  1167862 
 6002000    1.4148778   -3.4864323   -1.8893988   0.22284116   -3.4864323    1.5970334  1167889 
 6003000    1.4143061   -3.4856708   -1.8893237   0.22461083   -3.4856708    1.5963471  1167919 
 6004000     1.414229   -3.4860144    -1.889794   0.23148287   -3.4860144    1.5962205  1167948 
 6005000    1.4140612    -3.485942   -1.8899561   0.22294579    -3.485942    1.5959859  1167981 
 6006000    1.4129929   -3.4845871   -1.8898575   0.22650172   -3.4845871    1.5947296  1168018 
 6007000    1.4157176   -3.4874864   -1.8897253   0.22414538   -3.4874864     1.597761  1168050 
 6008000    1.4147441   -3.4857047   -1.8890998   0.22447457   -3.4857047    1.5966049  1168092 
 6009000    1.4144289   -3.4861418   -1.8899431   0.22704081   -3.4861418    1.5961987  1168129 
 6010000    1.4133934   -3.4845951   -1.8895991   0.22710587   -3.4845951     1.594996  1168154 
 6011000     1.414013   -3.4857117   -1.8900629   0.22466771   -3.4857117    1.5956487  1168188 
 6012000    1.4146887   -3.4865615   -1.8901927   0.22512738   -3.4865615    1.5963688  1168219 
 6013000    1.4136709   -3.4854795    -1.890307   0.22359074   -3.4854795    1.5951725  1168254 
 6014000    1.4144998   -3.4858782   -1.8898196   0.22659063   -3.4858782    1.5960587  1168290 
 6015000    1.4156734   -3.4871001    -1.889776   0.22690764   -3.4871001    1.5973241  1168333 
 6016000    1.4147235   -3.4862282   -1.8900428   0.22943192   -3.4862282    1.5961854  1168382 
 6017000    1.4152867    -3.486604   -1.8898296   0.22641458    -3.486604    1.5967744  1168416 
 6018000    1.4148489   -3.4861547   -1.8899179   0.22570879   -3.4861547    1.5962367  1168448 
 6019000    1.4143526   -3.4871258   -1.8915146   0.22187573   -3.4871258    1.5956112  1168496 
 6020000    1.4138116   -3.4858168   -1.8908651   0.23114735   -3.4858168    1.5949517  1168532 
 6021000    1.4155104   -3.4878344   -1.8910194   0.22447628   -3.4878344    1.5968149  1168571 
 6022000     1.414437   -3.4872196   -1.8916634   0.22916997   -3.4872196    1.5955562  1168606 
 6023000    1.4160679   -3.4890072   -1.8916535     0.222954   -3.4890072    1.5973537  1168637 
 6024000    1.4155093   -3.4883728   -1.8917025   0.22534274   -3.4883728    1.5966703  1168676 
 6025000    1.4148686   -3.4872861   -1.8913877   0.22593759   -3.4872861    1.5958984  1168712 
 6026000    1.4157514   -3.4887865   -1.8919416   0.22331749   -3.4887865    1.5968449  1168748 
 6027000    1.4151743   -3.4885675   -1.8924308   0.22358655   -3.4885675    1.5961366  1168790 
 6028000    1.4143214   -3.4877579   -1.8926188   0.22784989   -3.4877579    1.5951392  1168816 
 6029000    1.4141452   -3.4872669   -1.8923632   0.22483247   -3.4872669    1.5949037  1168843 
 6030000    1.4145689   -3.4880884   -1.8927505   0.22767382   -3.4880884    1.5953378  1168875 
 6031000    1.4140418   -3.4882728   -1.8935662   0.22616607   -3.4882728    1.5947066  1168902 
 6032000    1.4140121   -3.4879995   -1.8933783    0.2253104   -3.4879995    1.5946212  1168940 
 6033000    1.4148797   -3.4889896   -1.8934514   0.22415128   -3.4889896    1.5955382  1168985 
 6034000    1.4150227   -3.4893101   -1.8936502    0.2272281   -3.4893101    1.5956599  1169014 
 6035000    1.4160388   -3.4896994   -1.8929552   0.22584923   -3.4896994    1.5967443  1169059 
 6036000    1.4141103   -3.4876977   -1.8931705   0.22902968   -3.4876977    1.5945273  1169090 
 6037000    1.4157446   -3.4894939   -1.8931456   0.22373056   -3.4894939    1.5963483  1169106 
 6038000    1.4154356   -3.4895428   -1.8935798    0.2238724   -3.4895428     1.595963  1169133 
 6039000     1.415405   -3.4896814   -1.8938035   0.22786472   -3.4896814     1.595878  1169170 
 6040000    1.4148798   -3.4886699   -1.8934319   0.23280506   -3.4886699     1.595238  1169205 
 6041000    1.4155148   -3.4889312   -1.8930209   0.22813394   -3.4889312    1.5959103  1169237 
 6042000    1.4157337   -3.4895359    -1.893432   0.22710561   -3.4895359    1.5961039  1169276 
 6043000    1.4155278   -3.4891133    -1.893292   0.22870405   -3.4891133    1.5958213  1169313 
 6044000    1.4158746   -3.4893962   -1.8932167   0.22766834   -3.4893962    1.5961795  1169337 
 6045000    1.4154204   -3.4890905   -1.8934531   0.22822259   -3.4890905    1.5956374  1169359 
 6046000     1.416784   -3.4903837   -1.8932555   0.22777604   -3.4903837    1.5971282  1169393 
 6047000    1.4160911   -3.4892052    -1.892895   0.22731897   -3.4892052    1.5963102  1169420 
 6048000    1.4152565   -3.4889679   -1.8936339   0.22410222   -3.4889679     1.595334  1169446 
 6049000    1.4155483   -3.4894829   -1.8938678   0.22804459   -3.4894829    1.5956151  1169481 
 6050000     1.414913   -3.4892619   -1.8944052   0.22936917   -3.4892619    1.5948568  1169512 
 6051000     1.415875   -3.4893994   -1.8935061   0.22543604   -3.4893994    1.5958933  1169547 
 6052000    1.4159018   -3.4901538   -1.8942834   0.22834101   -3.4901538    1.5958704  1169586 
 6053000    1.4156084   -3.4896394   -1.8941434   0.22939819   -3.4896394     1.595496  1169618 
 6054000    1.4165644   -3.4909768   -1.8944402   0.22527902   -3.4909768    1.5965366  1169645 
 6055000    1.4157686   -3.4905092   -1.8949118   0.22868012   -3.4905092    1.5955974  1169676 
 6056000    1.4153638   -3.4893224   -1.8942331   0.22727158   -3.4893224    1.5950893  1169714 
 6057000    1.4149843   -3.4887077   -1.8941046   0.23174515   -3.4887077    1.5946031  1169757 
 6058000     1.416512   -3.4911591   -1.8948944   0.22647965   -3.4911591    1.5962647  1169801 
 6059000    1.4168781   -3.4910559   -1.8944237   0.23395884   -3.4910559    1.5966321  1169834 
 6060000    1.4173547    -3.491364   -1.8942426   0.22739449    -3.491364    1.5971215  1169869 
 6061000     1.417199   -3.4913618    -1.894465   0.22915022   -3.4913618    1.5968968  1169905 
 6062000    1.4166764   -3.4912762   -1.8950146   0.22419294   -3.4912762    1.5962617  1169939 
 6063000    1.4175272   -3.4914506   -1.8942699   0.22938897   -3.4914506    1.5971807  1169968 
 6064000     1.416516   -3.4902767   -1.8942873   0.22714438   -3.4902767    1.5959895  1170006 
 6065000    1.4176011   -3.4917991   -1.8946335   0.22513026   -3.4917991    1.5971656  1170040 
 6066000    1.4174325   -3.4912424   -1.8943159   0.22956202   -3.4912424    1.5969266  1170076 
 6067000     1.418149   -3.4918304   -1.8941362     0.229036   -3.4918304    1.5976942  1170105 
 6068000    1.4179656   -3.4912861    -1.893838    0.2254854   -3.4912861     1.597448  1170134 
 6069000    1.4180312   -3.4913107   -1.8938217   0.22736716   -3.4913107    1.5974891  1170158 
 6070000    1.4174906   -3.4907958   -1.8939635   0.22971691   -3.4907958    1.5968323  1170193 
 6071000    1.4174367    -3.491078   -1.8943527    0.2262062    -3.491078    1.5967253  1170227 
 6072000      1.41763   -3.4921433   -1.8952563   0.22818336   -3.4921433     1.596887  1170268 
 6073000    1.4173197   -3.4915868   -1.8950916   0.22846332   -3.4915868    1.5964952  1170299 
 6074000    1.4167209   -3.4909792   -1.8951939   0.22850889   -3.4909792    1.5957852  1170325 
 6075000    1.4166851   -3.4907653   -1.8950722   0.23372398   -3.4907653    1.5956931  1170363 
 6076000    1.4171431     -3.49169   -1.8955275    0.2278456     -3.49169    1.5961626  1170397 
 6077000    1.4157356    -3.489882    -1.895351   0.23392545    -3.489882    1.5945309  1170431 
 6078000    1.4152476   -3.4898562   -1.8959212   0.23081328   -3.4898562    1.5939351  1170465 
 6079000    1.4173078    -3.492394   -1.8961849   0.22626649    -3.492394     1.596209  1170499 
 6080000    1.4175296   -3.4931289   -1.8967137   0.22516509   -3.4931289    1.5964152  1170531 
 6081000    1.4171695   -3.4919235   -1.8959521   0.22234538   -3.4919235    1.5959714  1170559 
 6082000    1.4173498   -3.4923106   -1.8961838   0.22989075   -3.4923106    1.5961268  1170594 
 6083000     1.416681   -3.4917609   -1.8964405   0.23067242   -3.4917609    1.5953205  1170633 
 6084000    1.4175936   -3.4928648   -1.8965821   0.22625067   -3.4928648    1.5962827  1170681 
 6085000    1.4162495   -3.4919202   -1.8971906   0.22922809   -3.4919202    1.5947296  1170710 
 6086000    1.4165214   -3.4928159    -1.897825   0.22537169   -3.4928159    1.5949909  1170743 
 6087000    1.4169182   -3.4929256   -1.8975412   0.22910791   -3.4929256    1.5953844  1170782 
 6088000    1.4183013   -3.4937512   -1.8968584      0.22678   -3.4937512    1.5968927  1170818 
 6089000    1.4181962   -3.4937175   -1.8969732    0.2269042   -3.4937175    1.5967443  1170840 
 6090000    1.4176699   -3.4943118   -1.8981982   0.22952168   -3.4943118    1.5961136  1170868 
 6091000    1.4174819   -3.4932668   -1.8974057      0.22761   -3.4932668    1.5958611  1170898 
 6092000    1.4160457   -3.4920011   -1.8977977   0.23063504   -3.4920011    1.5942034  1170928 
 6093000    1.4177527   -3.4941204   -1.8980349   0.22800273   -3.4941204    1.5960855  1170957 
 6094000    1.4172015   -3.4939815   -1.8985588   0.22919697   -3.4939815    1.5954227  1170988 
 6095000    1.4153711   -3.4925463   -1.8992277   0.22778523   -3.4925463    1.5933186  1171020 
 6096000    1.4170424   -3.4946414   -1.8994822   0.22476514   -3.4946414    1.5951591  1171050 
 6097000    1.4166831   -3.4941942    -1.899479   0.22839191   -3.4941942    1.5947153  1171079 
 6098000    1.4174489   -3.4943996   -1.8988673   0.22723335   -3.4943996    1.5955323  1171112 
 6099000    1.4177322   -3.4948665    -1.899059   0.22513712   -3.4948665    1.5958076  1171144 
 6100000    1.4172448   -3.4937506   -1.8985474   0.23162962   -3.4937506    1.5952032  1171185 
 6101000     1.418017   -3.4951209   -1.8991031   0.22540191   -3.4951209    1.5960178  1171225 
 6102000    1.4174709   -3.4956876   -1.9003363    0.2224357   -3.4956876    1.5953513  1171263 
 6103000    1.4176336   -3.4946211   -1.8991193   0.22472121   -3.4946211    1.5955018  1171287 
 6104000    1.4166383   -3.4938616   -1.8995127   0.22458563   -3.4938616    1.5943489  1171311 
 6105000    1.4169166   -3.4942069   -1.8995787   0.22542062   -3.4942069    1.5946282  1171336 
 6106000    1.4175311   -3.4944885   -1.8992152   0.22608127   -3.4944885    1.5952734  1171370 
 6107000    1.4169064   -3.4942108   -1.8996813   0.22601247   -3.4942108    1.5945295  1171400 
 6108000    1.4184321   -3.4961114   -1.8999098   0.22997407   -3.4961114    1.5962015  1171433 
 6109000    1.4167528   -3.4941346   -1.8998746   0.22853018   -3.4941346      1.59426  1171471 
 6110000    1.4167943   -3.4938647   -1.8996069   0.22642622   -3.4938647    1.5942578  1171507 
 6111000    1.4187917   -3.4957177   -1.8992574    0.2232187   -3.4957177    1.5964604  1171540 
 6112000     1.417768   -3.4954481   -1.9001954    0.2253097   -3.4954481    1.5952527  1171581 
 6113000    1.4179878   -3.4950492   -1.8995969   0.22670264   -3.4950492    1.5954523  1171616 
 6114000    1.4172503   -3.4945665   -1.8999876   0.23271396   -3.4945665    1.5945789  1171648 
 6115000    1.4183035   -3.4957249   -1.9000114    0.2252442   -3.4957249    1.5957136  1171685 
 6116000    1.4189089   -3.4960187   -1.8996635   0.22973076   -3.4960187    1.5963552  1171714 
 6117000    1.4181759   -3.4965416   -1.9010601   0.22700853   -3.4965416    1.5954815  1171750 
 6118000    1.4181837   -3.4949896   -1.8995511   0.22831295   -3.4949896    1.5954385  1171788 
 6119000    1.4179878   -3.4955677   -1.9003849   0.22811919   -3.4955677    1.5951828  1171814 
 6120000    1.4181822   -3.4955169   -1.9001522   0.23209056   -3.4955169    1.5953646  1171841 
 6121000    1.4168599   -3.4936719   -1.8998315   0.23266397   -3.4936719    1.5938405  1171868 
 6122000    1.4183667   -3.4955845   -1.9001144   0.23277401   -3.4955845    1.5954701  1171916 
 6123000    1.4207811   -3.4985029   -1.9003511   0.21929998   -3.4985029    1.5981519  1171941 
 6124000    1.4190709   -3.4966261   -1.9004374   0.22938484   -3.4966261    1.5961887  1171970 
 6125000    1.4188976   -3.4962519    -1.900299   0.22699011   -3.4962519    1.5959529  1172000 
 6126000    1.4177231   -3.4949384   -1.9003678   0.22710628   -3.4949384    1.5945706  1172045 
 6127000    1.4175882   -3.4951239   -1.9007458   0.22785864   -3.4951239    1.5943781  1172075 
 6128000    1.4176612    -3.495833   -1.9014191   0.22873892    -3.495833    1.5944139  1172109 
 6129000    1.4170541   -3.4956337   -1.9019366   0.23086943   -3.4956337    1.5936971  1172134 
 6130000    1.4171743   -3.4957153   -1.9019319   0.22882242   -3.4957153    1.5937834  1172170 
 6131000    1.4180947   -3.4963422   -1.9015741   0.22872276   -3.4963422    1.5947682  1172207 
 6132000    1.4191342   -3.4977879    -1.901912   0.22487714   -3.4977879    1.5958759  1172252 
 6133000    1.4188611   -3.4970655   -1.9015403   0.22745083   -3.4970655    1.5955252  1172284 
 6134000    1.4189378   -3.4979427   -1.9023802   0.22678343   -3.4979427    1.5955625  1172320 
 6135000     1.419738    -3.498841   -1.9024277   0.22506627    -3.498841    1.5964133  1172356 
 6136000    1.4178467   -3.4975684   -1.9033144     0.224169   -3.4975684     1.594254  1172380 
 6137000    1.4187666   -3.4983025   -1.9030618   0.22503843   -3.4983025    1.5952407  1172415 
 6138000    1.4184302   -3.4983642   -1.9035521   0.22835093   -3.4983642    1.5948121  1172452 
 6139000    1.4179527   -3.4979851   -1.9037534   0.22895963   -3.4979851    1.5942317  1172484 
 6140000    1.4181461   -3.4980636   -1.9036634   0.23254524   -3.4980636    1.5944002  1172520 
 6141000    1.4187933   -3.4993499   -1.9042547   0.22572287   -3.4993499    1.5950952  1172544 
 6142000    1.4178423   -3.4983043   -1.9043245   0.22863853   -3.4983043    1.5939798  1172578 
 6143000    1.4176425   -3.4985368   -1.9048251   0.22757528   -3.4985368    1.5937117  1172610 
 6144000    1.4164788   -3.4972789   -1.9049121   0.22718225   -3.4972789    1.5923668  1172637 
 6145000    1.4178013   -3.4992726    -1.905464   0.22728499   -3.4992726    1.5938086  1172670 
 6146000    1.4180567    -3.499009   -1.9049364   0.23323775    -3.499009    1.5940726  1172687 
 6147000     1.417939   -3.4984379   -1.9045425   0.22785774   -3.4984379    1.5938955  1172720 
 6148000    1.4176864   -3.4983287   -1.9047457   0.22731278   -3.4983287     1.593583  1172741 
 6149000    1.4174703   -3.4978484   -1.9045477   0.23083411   -3.4978484    1.5933007  1172770 
 6150000    1.4174554   -3.4985017   -1.9052585   0.22657842   -3.4985017    1.5932432  1172800 
 6151000    1.4177178   -3.4988467   -1.9053424    0.2291379   -3.4988467    1.5935042  1172825 
 6152000    1.4180038    -3.499666   -1.9058838   0.22728756    -3.499666    1.5937822  1172857 
 6153000    1.4170204     -3.49817    -1.905542   0.22782625     -3.49817    1.5926279  1172893 
 6154000    1.4181769   -3.4984967   -1.9046192   0.22852338   -3.4984967    1.5938775  1172930 
 6155000    1.4178971    -3.498097   -1.9045748   0.22852235    -3.498097    1.5935222  1172960 
 6156000    1.4171546   -3.4973913   -1.9047443   0.23157984   -3.4973913    1.5926471  1172990 
 6157000    1.4188371   -3.4991855   -1.9046925   0.22992788   -3.4991855     1.594493  1173023 
 6158000    1.4183087   -3.4983353   -1.9044822   0.22965248   -3.4983353    1.5938531  1173057 
 6159000    1.4187167   -3.4989935   -1.9047118   0.22573148   -3.4989935    1.5942817  1173079 
 6160000    1.4185723   -3.4991526   -1.9050645    0.2278582   -3.4991526    1.5940882  1173102 
 6161000    1.4170946   -3.4979754   -1.9055736   0.23033763   -3.4979754    1.5924018  1173121 
 6162000    1.4180906   -3.4995522   -1.9060854   0.22593118   -3.4995522    1.5934667  1173161 
 6163000    1.4171976   -3.4981141   -1.9056957    0.2276556   -3.4981141    1.5924184  1173194 
 6164000    1.4174403   -3.4990592   -1.9063992   0.22655362   -3.4990592      1.59266  1173217 
 6165000    1.4177004   -3.4995405   -1.9066317   0.22777382   -3.4995405    1.5929088  1173249 
 6166000    1.4172991   -3.4991806   -1.9067703   0.22732289   -3.4991806    1.5924103  1173284 
 6167000    1.4177989   -3.4996452   -1.9067317   0.22857891   -3.4996452    1.5929135  1173327 
 6168000    1.4181606   -3.5006069   -1.9073129   0.22708991   -3.5006069    1.5932941  1173346 
 6169000    1.4174595   -3.4992257    -1.906775   0.23176586   -3.4992257    1.5924507  1173387 
 6170000    1.4177108   -3.4999783   -1.9073009   0.23260507   -3.4999783    1.5926774  1173428 
 6171000    1.4178768   -3.5006172   -1.9078062   0.22652188   -3.5006172     1.592811  1173467 
 6172000    1.4177492   -3.5007962   -1.9081815   0.22890919   -3.5007962    1.5926147  1173506 
 6173000     1.417771   -3.5006095   -1.9080246   0.22680529   -3.5006095    1.5925849  1173546 
 6174000    1.4179355   -3.5000504   -1.9073201   0.22801877   -3.5000504    1.5927303  1173575 
 6175000    1.4177211   -3.5008693     -1.90843   0.22804475   -3.5008693    1.5924393  1173612 
 6176000    1.4179397   -3.5005322   -1.9078976   0.23222377   -3.5005322    1.5926346  1173649 
 6177000    1.4191358   -3.5011087   -1.9071713   0.22815601   -3.5011087    1.5939373  1173679 
 6178000    1.4176754   -3.4997843   -1.9075211   0.23034181   -3.4997843    1.5922632  1173704 
 6179000    1.4185376    -3.501316   -1.9081251   0.22599683    -3.501316    1.5931908  1173734 
 6180000    1.4194393   -3.5013847    -1.907226   0.22866619   -3.5013847    1.5941587  1173767 
 6181000    1.4194135   -3.5009368   -1.9068424   0.22908586   -3.5009368    1.5940944  1173793 
 6182000     1.419197   -3.5015921   -1.9077816   0.22829195   -3.5015921    1.5938106  1173823 
 6183000     1.418879   -3.5008051   -1.9074114   0.22905186   -3.5008051    1.5933937  1173867 
 6184000    1.4183855   -3.5000566   -1.9072605   0.23175251   -3.5000566    1.5927961  1173899 
 6185000    1.4187468   -3.5014161   -1.9082537   0.22627145   -3.5014161    1.5931624  1173928 
 6186000    1.4182773   -3.5007731   -1.9081786   0.22919739   -3.5007731    1.5925945  1173958 
 6187000    1.4189445   -3.5021654   -1.9088665   0.22839554   -3.5021654    1.5932989  1173991 
 6188000    1.4179685   -3.5011611   -1.9090056   0.23083768   -3.5011611    1.5921556  1174026 
 6189000    1.4190771   -3.5014047    -1.908041   0.22677189   -3.5014047    1.5933637  1174053 
 6190000    1.4176493   -3.5006596   -1.9089371     0.227693   -3.5006596    1.5917226  1174081 
 6191000    1.4192398   -3.5018047   -1.9083438   0.22720308   -3.5018047    1.5934608  1174116 
 6192000    1.4180674   -3.5007392   -1.9086258   0.22482002   -3.5007392    1.5921134  1174139 
 6193000    1.4189919   -3.5015511   -1.9084581   0.22818311   -3.5015511     1.593093  1174182 
 6194000     1.419328   -3.5020152    -1.908591    0.2322774   -3.5020152    1.5934242  1174216 
 6195000    1.4190395   -3.5021839   -1.9091257   0.22760937   -3.5021839    1.5930583  1174247 
 6196000    1.4193111   -3.5022943   -1.9089651   0.22640332   -3.5022943    1.5933292  1174272 
 6197000    1.4192588   -3.5024828   -1.9092557   0.22971381   -3.5024828    1.5932271  1174304 
 6198000    1.4195734   -3.5034403    -1.909913   0.22990311   -3.5034403    1.5935273  1174343 
 6199000    1.4186422   -3.5021952   -1.9097457   0.23436405   -3.5021952    1.5924495  1174367 
 6200000    1.4189761   -3.5031703   -1.9103949   0.22848292   -3.5031703    1.5927754  1174403 
 6201000    1.4205597   -3.5047554   -1.9102472   0.22742718   -3.5047554    1.5945082  1174436 
 6202000    1.4188431   -3.5030216   -1.9104836   0.22965278   -3.5030216     1.592538  1174468 
 6203000    1.4201466   -3.5043004     -1.91034   0.22956925   -3.5043004    1.5939604  1174498 
 6204000    1.4197357    -3.504555   -1.9110938   0.23099884    -3.504555    1.5934612  1174526 
 6205000    1.4186981   -3.5042607   -1.9119966   0.22948202   -3.5042607    1.5922642  1174550 
 6206000    1.4191065   -3.5048108    -1.912125   0.22743534   -3.5048108    1.5926858  1174577 
 6207000    1.4189195   -3.5049224   -1.9124926   0.22295376   -3.5049224    1.5924298  1174611 
 6208000    1.4186792   -3.5042902   -1.9121815   0.23219738   -3.5042902    1.5921087  1174649 
 6209000    1.4192026   -3.5048929   -1.9122403   0.22740433   -3.5048929    1.5926526  1174681 
 6210000    1.4168657   -3.5024988   -1.9125119   0.23176223   -3.5024988    1.5899869  1174713 
 6211000    1.4180679   -3.5034589   -1.9121744   0.22805582   -3.5034589    1.5912845  1174751 
 6212000    1.4187559    -3.504564   -1.9125522   0.22542519    -3.504564    1.5920118  1174784 
 6213000    1.4183223    -3.503994    -1.912504   0.22641149    -3.503994      1.59149  1174810 
 6214000    1.4188807   -3.5043877   -1.9123171   0.22717655   -3.5043877    1.5920705  1174844 
 6215000    1.4183428   -3.5029503    -1.911547   0.23033774   -3.5029503    1.5914033  1174891 
 6216000    1.4188658   -3.5040447   -1.9120884   0.22661446   -3.5040447    1.5919563  1174916 
 6217000    1.4190452   -3.5041819   -1.9120677   0.22952187   -3.5041819    1.5921142  1174948 
 6218000    1.4177368   -3.5027253   -1.9121198   0.23132781   -3.5027253    1.5906056  1174978 
 6219000    1.4197765   -3.5049718   -1.9121253   0.22517607   -3.5049718    1.5928466  1175013 
 6220000    1.4195368   -3.5045985   -1.9120642   0.22804495   -3.5045985    1.5925343  1175045 
 6221000    1.4200396   -3.5047967   -1.9117376   0.22575622   -3.5047967     1.593059  1175074 
 6222000    1.4201079   -3.5044935    -1.911404   0.22924937   -3.5044935    1.5930895  1175108 
 6223000    1.4201573   -3.5041683   -1.9110558   0.23332427   -3.5041683    1.5931124  1175132 
 6224000    1.4196776   -3.5045876   -1.9120458   0.22796712   -3.5045876    1.5925418  1175156 
 6225000    1.4198895   -3.5047678   -1.9120426   0.22975938   -3.5047678    1.5927252  1175196 
 6226000    1.4190305   -3.5037777   -1.9120499    0.2324444   -3.5037777    1.5917278  1175221 
 6227000    1.4197583    -3.505231   -1.9127343   0.22939615    -3.505231    1.5924968  1175256 
 6228000    1.4202003   -3.5058609   -1.9129144   0.22897191   -3.5058609    1.5929465  1175290 
 6229000    1.4193747   -3.5048074   -1.9128304   0.22918542   -3.5048074    1.5919771  1175322 
 6230000    1.4191316   -3.5046704   -1.9130147   0.23124814   -3.5046704    1.5916557  1175358 
 6231000    1.4202345    -3.505371   -1.9125068   0.22774554    -3.505371    1.5928642  1175379 
 6232000    1.4192836   -3.5048366   -1.9130768   0.23079102   -3.5048366    1.5917598  1175407 
 6233000    1.4201098   -3.5059812   -1.9133408   0.23054239   -3.5059812    1.5926403  1175441 
 6234000    1.4198106   -3.5049773   -1.9127171   0.23090725   -3.5049773    1.5922601  1175474 
 6235000    1.4210907   -3.5069846   -1.9133336   0.22995694   -3.5069846    1.5936509  1175507 
 6236000    1.4210085   -3.5071527     -1.91364    0.2280036   -3.5071527    1.5935126  1175541 
 6237000    1.4197627   -3.5061851   -1.9141046   0.22959284   -3.5061851    1.5920804  1175567 
 6238000    1.4199958    -3.506856   -1.9145521   0.22515107    -3.506856    1.5923039  1175595 
 6239000    1.4200886   -3.5064471   -1.9140851   0.22945057   -3.5064471    1.5923619  1175629 
 6240000    1.4200461   -3.5069192   -1.9146538   0.22882849   -3.5069192    1.5922654  1175665 
 6241000    1.4210579   -3.5081238   -1.9147632   0.22521351   -3.5081238    1.5933606  1175694 
 6242000    1.4208625   -3.5068993   -1.9138186     0.228815   -3.5068993    1.5930807  1175739 
 6243000    1.4202568   -3.5065223   -1.9141519   0.22485324   -3.5065223    1.5923704  1175762 
 6244000    1.4204918      -3.5077   -1.9151026   0.22828139      -3.5077    1.5925973  1175789 
 6245000    1.4203597   -3.5069369    -1.914527   0.22878755   -3.5069369    1.5924099  1175818 
 6246000    1.4195052   -3.5070841   -1.9156743   0.22882572   -3.5070841    1.5914099  1175849 
 6247000    1.4196296   -3.5067297   -1.9152128   0.22968807   -3.5067297    1.5915169  1175873 
 6248000    1.4204705   -3.5083191   -1.9159069   0.22886554   -3.5083191    1.5924122  1175908 
 6249000    1.4194047   -3.5069249   -1.9157427   0.22677784   -3.5069249    1.5911822  1175934 
 6250000    1.4201802   -3.5075183   -1.9155033   0.22564132   -3.5075183    1.5920151  1175961 
 6251000    1.4194308   -3.5069013   -1.9157615   0.23115903   -3.5069013    1.5911398  1175987 
 6252000    1.4198433   -3.5074117   -1.9158474   0.22754388   -3.5074117    1.5915643  1176015 
 6253000    1.4208965   -3.5086521    -1.915952   0.22626589   -3.5086521    1.5927001  1176048 
 6254000    1.4203769   -3.5081194    -1.916049   0.22540039   -3.5081194    1.5920704  1176083 
 6255000    1.4197998   -3.5078267   -1.9164438   0.22949311   -3.5078267    1.5913829  1176113 
 6256000    1.4194004   -3.5080756   -1.9171809   0.22562025   -3.5080756    1.5908947  1176143 
 6257000    1.4191337   -3.5080082   -1.9174639   0.22275966   -3.5080082    1.5905443  1176181 
 6258000    1.4199027   -3.5084756   -1.9171045   0.22604581   -3.5084756    1.5913711  1176207 
 6259000    1.4211409   -3.5101722   -1.9174473   0.22275436   -3.5101722    1.5927249  1176232 
 6260000    1.4199646   -3.5091231   -1.9177666   0.22983122   -3.5091231    1.5913566  1176269 
 6261000    1.4202971   -3.5095041   -1.9178128   0.22765742   -3.5095041    1.5916913  1176297 
 6262000    1.4208927   -3.5101788   -1.9178674   0.22777025   -3.5101788    1.5923114  1176332 
 6263000    1.4203243   -3.5095418   -1.9179147   0.22942579   -3.5095418    1.5916271  1176367 
 6264000     1.420956   -3.5094637   -1.9171707   0.22523995   -3.5094637     1.592293  1176398 
 6265000    1.4200009   -3.5089979   -1.9178198   0.23223127   -3.5089979    1.5911781  1176431 
 6266000    1.4204046   -3.5090739   -1.9174787   0.23250706   -3.5090739    1.5915952  1176457 
 6267000    1.4210516   -3.5091052   -1.9168337   0.22946413   -3.5091052    1.5922716  1176493 
 6268000    1.4201518   -3.5086776   -1.9174644   0.23187264   -3.5086776    1.5912133  1176530 
 6269000    1.4210813   -3.5097705   -1.9175591   0.22852633   -3.5097705    1.5922114  1176562 
 6270000    1.4223163   -3.5115919   -1.9180388   0.22899246   -3.5115919    1.5935531  1176593 
 6271000    1.4196371   -3.5083266   -1.9178388   0.23374943   -3.5083266    1.5904878  1176640 
 6272000    1.4208834    -3.509574   -1.9177385   0.22969317    -3.509574    1.5918355  1176676 
 6273000    1.4200095   -3.5092822   -1.9184637   0.23285824   -3.5092822    1.5908185  1176704 
 6274000    1.4216368   -3.5105866   -1.9180032   0.22818602   -3.5105866    1.5925834  1176747 
 6275000     1.419733   -3.5087664   -1.9183468   0.22592409   -3.5087664    1.5904196  1176770 
 6276000    1.4205814   -3.5092402   -1.9179284   0.22767572   -3.5092402    1.5913118  1176813 
 6277000      1.42156    -3.509659    -1.917301   0.22777128    -3.509659    1.5923579  1176850 
 6278000    1.4198501   -3.5083889    -1.917999   0.23454777   -3.5083889    1.5903899  1176889 
 6279000    1.4210558   -3.5099154    -1.918225   0.22918361   -3.5099154    1.5916904  1176926 
 6280000    1.4206473   -3.5098039   -1.9185967   0.22725185   -3.5098039    1.5912072  1176945 
 6281000    1.4213758   -3.5104607   -1.9184849     0.224054   -3.5104607    1.5919758  1176980 
 6282000    1.4202807   -3.5097798   -1.9190818   0.22343199   -3.5097798    1.5906979  1177018 
 6283000    1.4217548    -3.510422   -1.9181083   0.22476245    -3.510422    1.5923137  1177044 
 6284000    1.4210751   -3.5105669   -1.9190497   0.22760649   -3.5105669    1.5915173  1177070 
 6285000     1.420458   -3.5098174   -1.9190372   0.22894113   -3.5098174    1.5907802  1177104 
 6286000    1.4215466   -3.5106203   -1.9186697   0.22820157   -3.5106203    1.5919507  1177140 
 6287000    1.4211306   -3.5102818   -1.9188376   0.23118718   -3.5102818    1.5914442  1177170 
 6288000     1.421153   -3.5103351   -1.9189225   0.23128301   -3.5103351    1.5914125  1177212 
 6289000    1.4211477   -3.5109193   -1.9195533   0.22933166   -3.5109193     1.591366  1177242 
 6290000    1.4219613   -3.5111116   -1.9188819   0.22911417   -3.5111116    1.5922298  1177277 
 6291000    1.4209573   -3.5100524   -1.9189901   0.23516807   -3.5100524    1.5910623  1177309 
 6292000    1.4211744   -3.5109438   -1.9196803   0.23304248   -3.5109438    1.5912635  1177340 
 6293000    1.4204357    -3.510696   -1.9203082    0.2307906    -3.510696    1.5903877  1177376 
 6294000     1.421273   -3.5120631   -1.9207716   0.23056319   -3.5120631    1.5912915  1177401 
 6295000    1.4213773    -3.512093   -1.9207226   0.22789475    -3.512093    1.5913704  1177429 
 6296000    1.4206623   -3.5116988   -1.9211762   0.23319545   -3.5116988    1.5905227  1177464 
 6297000    1.4207384   -3.5111029   -1.9205302    0.2344603   -3.5111029    1.5905727  1177490 
 6298000    1.4221153   -3.5124105   -1.9203383   0.22864051   -3.5124105    1.5920722  1177521 
 6299000    1.4222193   -3.5120878   -1.9199438   0.23402634   -3.5120878     1.592144  1177554 
 6300000    1.4213969    -3.512492   -1.9213106   0.23062136    -3.512492    1.5911815  1177585 
 6301000    1.4211875   -3.5120222   -1.9211291   0.23031594   -3.5120222    1.5908931  1177625 
 6302000    1.4209325   -3.5114872   -1.9209241   0.23223937   -3.5114872    1.5905631  1177658 
 6303000    1.4210342   -3.5119713     -1.92132   0.23117928   -3.5119713    1.5906513  1177677 
 6304000    1.4217765   -3.5126328   -1.9211871   0.23067993   -3.5126328    1.5914456  1177704 
 6305000    1.4204144    -3.511136   -1.9212568   0.23310767    -3.511136    1.5898792  1177735 
 6306000    1.4217427   -3.5127806   -1.9214512   0.22973171   -3.5127806    1.5913294  1177762 
 6307000    1.4209736   -3.5118308   -1.9213987   0.23161578   -3.5118308    1.5904321  1177789 
 6308000    1.4214924   -3.5126847   -1.9217137   0.23098518   -3.5126847     1.590971  1177820 
 6309000    1.4215566   -3.5140306   -1.9230269    0.2244415   -3.5140306    1.5910037  1177849 
 6310000    1.4220654   -3.5143064   -1.9227645    0.2213677   -3.5143064    1.5915419  1177872 
 6311000    1.4208093   -3.5123875   -1.9223066   0.22920807   -3.5123875    1.5900809  1177913 
 6312000    1.4222694   -3.5136043   -1.9219367   0.22582023   -3.5136043    1.5916676  1177948 
 6313000    1.4210469    -3.512543   -1.9222867   0.23285093    -3.512543    1.5902563  1177980 
 6314000    1.4212438   -3.5122623   -1.9218234   0.23259176   -3.5122623    1.5904389  1178008 
 6315000    1.4208053   -3.5126145   -1.9227042   0.22995097   -3.5126145    1.5899103  1178036 
 6316000    1.4225261   -3.5142841   -1.9224873   0.22805734   -3.5142841    1.5917968  1178065 
 6317000    1.4223872   -3.5141316   -1.9225388   0.23287544   -3.5141316    1.5915928  1178101 
 6318000    1.4214589   -3.5135312   -1.9230353   0.23568547   -3.5135312    1.5904959  1178144 
 6319000    1.4218691   -3.5133368    -1.922421   0.23250985   -3.5133368    1.5909158  1178173 
 6320000    1.4224513   -3.5135127    -1.921982   0.22855336   -3.5135127    1.5915307  1178200 
 6321000    1.4243442   -3.5159702   -1.9223515   0.22740851   -3.5159702    1.5936188  1178222 
 6322000    1.4227209    -3.514416    -1.922654    0.2278417    -3.514416     1.591762  1178252 
 6323000    1.4233223   -3.5144351     -1.92203   0.22999723   -3.5144351    1.5924051  1178274 
 6324000    1.4227727   -3.5139674   -1.9222311   0.22755832   -3.5139674    1.5917363  1178314 
 6325000    1.4224422   -3.5134392   -1.9221133   0.23323698   -3.5134392     1.591326  1178344 
 6326000    1.4223835   -3.5135903   -1.9223704   0.22945589   -3.5135903    1.5912198  1178374 
 6327000    1.4221923   -3.5134428   -1.9224774    0.2319452   -3.5134428    1.5909654  1178404 
 6328000    1.4225106   -3.5139908    -1.922699   0.23121309   -3.5139908    1.5912918  1178426 
 6329000    1.4224895   -3.5142124   -1.9229685   0.22815565   -3.5142124    1.5912439  1178444 
 6330000    1.4218854   -3.5130192   -1.9224822    0.2292794   -3.5130192     1.590537  1178467 
 6331000    1.4219306   -3.5135594   -1.9229988   0.23276553   -3.5135594    1.5905606  1178487 
 6332000    1.4227445   -3.5145021    -1.923062   0.23159379   -3.5145021      1.59144  1178510 
 6333000    1.4221741   -3.5139493   -1.9231758   0.23038256   -3.5139493    1.5907736  1178531 
 6334000    1.4220129   -3.5133599   -1.9227991   0.23174081   -3.5133599    1.5905609  1178555 
 6335000     1.421302   -3.5135004    -1.923767   0.23156333   -3.5135004    1.5897334  1178579 
 6336000    1.4217815   -3.5148031   -1.9245766   0.22768092   -3.5148031    1.5902266  1178611 
 6337000    1.4225758   -3.5154239   -1.9243467   0.22825865   -3.5154239    1.5910772  1178639 
 6338000    1.4214251    -3.514782   -1.9250269   0.22921216    -3.514782     1.589755  1178665 
 6339000    1.4213108   -3.5150919    -1.925501   0.22865307   -3.5150919    1.5895909  1178692 
 6340000     1.421491   -3.5152316   -1.9254756   0.22853686   -3.5152316    1.5897559  1178719 
 6341000    1.4218081   -3.5151929   -1.9251268   0.23552953   -3.5151929    1.5900661  1178752 
 6342000     1.420843   -3.5149006   -1.9259665   0.23115941   -3.5149006    1.5889342  1178791 
 6343000    1.4214886   -3.5158665   -1.9262534   0.22684521   -3.5158665    1.5896131  1178823 
 6344000    1.4220243   -3.5156511   -1.9254823   0.23222162   -3.5156511    1.5901689  1178855 
 6345000    1.4222038   -3.5149604   -1.9246177   0.23316035   -3.5149604    1.5903427  1178875 
 6346000    1.4237785   -3.5173325   -1.9252641   0.22920797   -3.5173325    1.5920684  1178901 
 6347000    1.4237145   -3.5172586   -1.9253091   0.22558587   -3.5172586    1.5919495  1178936 
 6348000    1.4228651   -3.5160259   -1.9250625   0.23311925   -3.5160259    1.5909634  1178963 
 6349000    1.4231771   -3.5164211   -1.9251454   0.23389046   -3.5164211    1.5912757  1178990 
 6350000    1.4227404   -3.5170244   -1.9262733   0.22747456   -3.5170244    1.5907511  1179017 
 6351000    1.4217663   -3.5160068   -1.9263921   0.23309472   -3.5160068    1.5896147  1179052 
 6352000    1.4223409   -3.5159726   -1.9257531   0.23174219   -3.5159726    1.5902194  1179080 
 6353000    1.4248548   -3.5182987   -1.9253079   0.23088782   -3.5182987    1.5929908  1179109 
 6354000    1.4233511   -3.5166221   -1.9253515   0.23054203   -3.5166221    1.5912706  1179138 
 6355000    1.4219782   -3.5151642   -1.9254702   0.23513326   -3.5151642     1.589694  1179169 
 6356000    1.4217303   -3.5156972   -1.9263262   0.23371829   -3.5156972    1.5893709  1179203 
 6357000    1.4217685   -3.5155942    -1.926213   0.22931667   -3.5155942    1.5893813  1179227 
 6358000    1.4217903   -3.5160703   -1.9267023   0.22972579   -3.5160703     1.589368  1179255 
 6359000    1.4225459   -3.5165525   -1.9263777   0.22989601   -3.5165525    1.5901749  1179283 
 6360000    1.4229567   -3.5172818   -1.9266962   0.22880371   -3.5172818    1.5905855  1179319 
 6361000    1.4227573    -3.517203   -1.9268781   0.23119204    -3.517203    1.5903248  1179347 
 6362000    1.4234165   -3.5176337   -1.9266031   0.22673147   -3.5176337    1.5910306  1179370 
 6363000     1.423287   -3.5174794   -1.9266475   0.22961823   -3.5174794    1.5908319  1179410 
 6364000    1.4231057   -3.5164639   -1.9258819   0.23263085   -3.5164639    1.5905821  1179445 
 6365000    1.4243252   -3.5178643   -1.9259597   0.22859126   -3.5178643    1.5919046  1179475 
 6366000    1.4223619   -3.5166275   -1.9269563   0.22977498   -3.5166275    1.5896712  1179504 
 6367000    1.4237575   -3.5186722   -1.9274831   0.22909955   -3.5186722    1.5911891  1179535 
 6368000    1.4232808   -3.5179155   -1.9273036    0.2277751   -3.5179155    1.5906119  1179568 
 6369000    1.4231892   -3.5165847   -1.9261196   0.23192859   -3.5165847     1.590465  1179601 
 6370000    1.4236663   -3.5166629   -1.9256943   0.23206643   -3.5166629    1.5909686  1179623 
 6371000     1.423302   -3.5171075   -1.9265784   0.23283419   -3.5171075    1.5905291  1179647 
 6372000    1.4225416   -3.5169293   -1.9272796    0.2329511   -3.5169293    1.5896497  1179669 
 6373000    1.4222435   -3.5170361   -1.9277613   0.22816426   -3.5170361    1.5892748  1179700 
 6374000    1.4227345   -3.5177795   -1.9280059   0.23158396   -3.5177795    1.5897736  1179737 
 6375000    1.4233605   -3.5187669   -1.9283288   0.23005782   -3.5187669     1.590438  1179763 
 6376000    1.4222089   -3.5180391   -1.9289308   0.22998396   -3.5180391    1.5891082  1179795 
 6377000    1.4218397   -3.5180388   -1.9293849   0.22970495   -3.5180388    1.5886539  1179826 
 6378000    1.4216199   -3.5179149   -1.9295523   0.23214541   -3.5179149    1.5883626  1179860 
 6379000    1.4232659   -3.5193118   -1.9291533   0.22986693   -3.5193118    1.5901585  1179892 
 6380000    1.4230745   -3.5193536   -1.9294614   0.23599542   -3.5193536    1.5898921  1179931 
 6381000    1.4234938   -3.5199931   -1.9296811    0.2275626   -3.5199931     1.590312  1179967 
 6382000    1.4233655   -3.5192081   -1.9290892   0.22838743   -3.5192081    1.5901189  1180004 
 6383000     1.423032   -3.5193185     -1.92961   0.23034959   -3.5193185    1.5897086  1180032 
 6384000    1.4235391    -3.519622   -1.9293914   0.22878388    -3.519622    1.5902306  1180065 
 6385000    1.4228479   -3.5182682   -1.9288596   0.23284837   -3.5182682    1.5894085  1180102 
 6386000    1.4238228   -3.5192596   -1.9288077    0.2295152   -3.5192596    1.5904518  1180136 
 6387000    1.4242954   -3.5194388   -1.9284968    0.2337161   -3.5194388    1.5909419  1180164 
 6388000    1.4229673   -3.5190963    -1.929681   0.23397741   -3.5190963    1.5894154  1180196 
 6389000     1.422696   -3.5187791   -1.9297032   0.22880378   -3.5187791    1.5890759  1180223 
 6390000    1.4234795   -3.5202157   -1.9303091   0.23182322   -3.5202157    1.5899066  1180256 
 6391000    1.4236352   -3.5206515    -1.930614   0.22871226   -3.5206515    1.5900375  1180288 
 6392000    1.4238393    -3.520172   -1.9299416   0.23169424    -3.520172    1.5902304  1180314 
 6393000    1.4226646   -3.5191923   -1.9303264   0.23255133   -3.5191923    1.5888659  1180353 
 6394000     1.423172   -3.5197015   -1.9303093   0.22929407   -3.5197015    1.5893922  1180383 
 6395000    1.4232501   -3.5200495   -1.9306092   0.22900203   -3.5200495    1.5894403  1180412 
 6396000    1.4225647   -3.5198815   -1.9312375   0.23350279   -3.5198815     1.588644  1180435 
 6397000    1.4231496   -3.5205664    -1.931319   0.22554765   -3.5205664    1.5892474  1180472 
 6398000    1.4246517   -3.5226987   -1.9318171   0.22786774   -3.5226987    1.5908817  1180504 
 6399000    1.4226138   -3.5203603   -1.9318055    0.2326334   -3.5203603    1.5885548  1180542 
 6400000    1.4234229   -3.5211707   -1.9317609   0.22977358   -3.5211707    1.5894098  1180578 
 6401000    1.4225723   -3.5196398   -1.9312147   0.23377119   -3.5196398    1.5884251  1180604 
 6402000    1.4237327   -3.5211271   -1.9314413   0.23100122   -3.5211271    1.5896858  1180630 
 6403000    1.4224629   -3.5199218   -1.9316956   0.23412274   -3.5199218    1.5882262  1180661 
 6404000    1.4234693   -3.5213565   -1.9320537   0.23125028   -3.5213565    1.5893027  1180696 
 6405000    1.4229422   -3.5202895   -1.9316129   0.23169615   -3.5202895    1.5886765  1180724 
 6406000    1.4237795   -3.5212821   -1.9317205   0.22909743   -3.5212821    1.5895616  1180761 
 6407000    1.4242048   -3.5224215   -1.9324106   0.23232536   -3.5224215    1.5900109  1180780 
 6408000    1.4244301   -3.5225806   -1.9323627   0.23030989   -3.5225806    1.5902179  1180813 
 6409000    1.4241492   -3.5226734   -1.9328068   0.23339712   -3.5226734    1.5898667  1180841 
 6410000    1.4242873   -3.5229025   -1.9329315   0.23001022   -3.5229025     1.589971  1180878 
 6411000    1.4243574   -3.5228968   -1.9328961   0.23131153   -3.5228968    1.5900008  1180914 
 6412000    1.4237457     -3.52243   -1.9331497    0.2268016     -3.52243    1.5892803  1180942 
 6413000    1.4243745   -3.5221044   -1.9321586   0.23045304   -3.5221044    1.5899458  1180969 
 6414000    1.4241186   -3.5211309    -1.931522   0.22843274   -3.5211309     1.589609  1181007 
 6415000    1.4242409    -3.521238   -1.9315423   0.23654533    -3.521238    1.5896957  1181044 
 6416000    1.4262359   -3.5231989   -1.9313141    0.2292486   -3.5231989    1.5918848  1181072 
 6417000    1.4264619   -3.5227836   -1.9306858   0.22870221   -3.5227836    1.5920979  1181101 
 6418000    1.4247055   -3.5210244   -1.9309313   0.23366036   -3.5210244    1.5900931  1181134 
 6419000    1.4255242   -3.5219045   -1.9309475   0.23224826   -3.5219045     1.590957  1181171 
 6420000    1.4250521   -3.5220917   -1.9317006   0.23120194   -3.5220917    1.5903911  1181200 
 6421000    1.4241411   -3.5208574    -1.931522   0.23339293   -3.5208574    1.5893354  1181229 
 6422000    1.4243387   -3.5217279   -1.9322204    0.2278445   -3.5217279    1.5895074  1181265 
 6423000    1.4235634   -3.5210392    -1.932436   0.23612429   -3.5210392    1.5886032  1181294 
 6424000    1.4253934   -3.5225586    -1.931959    0.2331814   -3.5225586    1.5905996  1181328 
 6425000    1.4245512   -3.5210254   -1.9314154   0.23501438   -3.5210254      1.58961  1181365 
 6426000    1.4248248   -3.5219294   -1.9320571   0.23068582   -3.5219294    1.5898723  1181397 
 6427000    1.4256812   -3.5224709   -1.9316874   0.23404109   -3.5224709    1.5907834  1181430 
 6428000    1.4243502    -3.521213   -1.9319496   0.23406246    -3.521213    1.5892634  1181456 
 6429000    1.4257027   -3.5235815   -1.9328482   0.23092769   -3.5235815    1.5907334  1181485 
 6430000     1.425462   -3.5225823   -1.9321632   0.23230947   -3.5225823    1.5904191  1181519 
 6431000    1.4256844   -3.5228729   -1.9322543   0.23173377   -3.5228729    1.5906187  1181555 
 6432000    1.4245237   -3.5222255   -1.9329408   0.23632421   -3.5222255    1.5892847  1181584 
 6433000     1.425496   -3.5228521   -1.9325258   0.23018809   -3.5228521    1.5903264  1181616 
 6434000    1.4249602   -3.5224835   -1.9327992   0.23218423   -3.5224835    1.5896843  1181649 
 6435000    1.4247275    -3.522335    -1.932952   0.23456241    -3.522335     1.589383  1181680 
 6436000    1.4245528   -3.5226045   -1.9334649   0.23359772   -3.5226045    1.5891396  1181716 
 6437000    1.4246534   -3.5228653   -1.9336672   0.23427621   -3.5228653    1.5891981  1181756 
 6438000    1.4250999   -3.5229176   -1.9332578    0.2333697   -3.5229176    1.5896598  1181783 
 6439000    1.4259261    -3.524817   -1.9342719   0.22806883    -3.524817    1.5905451  1181810 
 6440000    1.4253973   -3.5240969   -1.9341793   0.23394382   -3.5240969    1.5899175  1181838 
 6441000    1.4256581   -3.5240289   -1.9338567   0.23412509   -3.5240289    1.5901722  1181865 
 6442000    1.4259032   -3.5240292   -1.9336214   0.23272365   -3.5240292    1.5904078  1181893 
 6443000    1.4268623   -3.5243891   -1.9329506   0.23456872   -3.5243891    1.5914385  1181922 
 6444000    1.4246789   -3.5228292   -1.9338783   0.23945826   -3.5228292    1.5889509  1181961 
 6445000    1.4258405   -3.5243046   -1.9340932   0.23079134   -3.5243046    1.5902114  1181987 
 6446000      1.42614   -3.5250969    -1.934581   0.23277203   -3.5250969    1.5905159  1182009 
 6447000    1.4255172   -3.5241459   -1.9343582   0.23185349   -3.5241459    1.5897877  1182034 
 6448000    1.4255811    -3.524391   -1.9345644   0.23126238    -3.524391    1.5898266  1182058 
 6449000    1.4245971   -3.5234032   -1.9347291   0.23186184   -3.5234032    1.5886742  1182099 
 6450000    1.4246691    -3.523764   -1.9350552   0.23480942    -3.523764    1.5887088  1182133 
 6451000     1.425478   -3.5249566   -1.9353835    0.2315502   -3.5249566    1.5895732  1182161 
 6452000    1.4258795   -3.5243282   -1.9343504   0.23402074   -3.5243282    1.5899778  1182193 
 6453000     1.424786   -3.5246352   -1.9359238   0.23205064   -3.5246352    1.5887114  1182228 
 6454000    1.4261214    -3.525442   -1.9352885   0.23102969    -3.525442    1.5901535  1182263 
 6455000    1.4252656   -3.5245501   -1.9353939   0.23264586   -3.5245501    1.5891562  1182295 
 6456000    1.4244169   -3.5238987   -1.9357238   0.23221429   -3.5238987    1.5881749  1182321 
 6457000    1.4254117   -3.5242808   -1.9350343   0.23699193   -3.5242808    1.5892465  1182349 
 6458000    1.4250031   -3.5241805   -1.9354245   0.23568275   -3.5241805     1.588756  1182375 
 6459000     1.424848   -3.5244698   -1.9359392   0.23211075   -3.5244698    1.5885306  1182414 
 6460000     1.425297   -3.5244561   -1.9354638   0.23480401   -3.5244561    1.5889923  1182443 
 6461000    1.4251838   -3.5246354   -1.9358097   0.23457362   -3.5246354    1.5888258  1182473 
 6462000    1.4268045   -3.5264157   -1.9358182   0.23331988   -3.5264157    1.5905975  1182499 
 6463000      1.42571   -3.5254114   -1.9360757   0.23040382   -3.5254114    1.5893358  1182530 
 6464000    1.4261177   -3.5258777   -1.9361318   0.23189653   -3.5258777    1.5897459  1182563 
 6465000    1.4261836   -3.5259378   -1.9361587    0.2337807   -3.5259378    1.5897791  1182593 
 6466000    1.4260792   -3.5261086   -1.9364795   0.23667436   -3.5261086    1.5896291  1182618 
 6467000    1.4254094   -3.5257747   -1.9369353    0.2320589   -3.5257747    1.5888394  1182650 
 6468000    1.4260246   -3.5258567   -1.9363705   0.23171688   -3.5258567    1.5894862  1182679 
 6469000    1.4254724   -3.5255646   -1.9367463   0.23234559   -3.5255646    1.5888183  1182718 
 6470000    1.4260995   -3.5260721   -1.9366113   0.23101766   -3.5260721    1.5894608  1182760 
 6471000    1.4257676   -3.5262406   -1.9371927   0.23600177   -3.5262406    1.5890479  1182792 
 6472000    1.4245261   -3.5251809   -1.9375462   0.23618896   -3.5251809    1.5876347  1182814 
 6473000    1.4253497   -3.5258243   -1.9372985   0.23421433   -3.5258243    1.5885258  1182834 
 6474000     1.425176   -3.5254533   -1.9371669   0.23515585   -3.5254533    1.5882865  1182868 
 6475000    1.4259519   -3.5262487   -1.9371298   0.23369038   -3.5262487    1.5891189  1182892 
 6476000    1.4246578   -3.5252835   -1.9376457   0.23021797   -3.5252835    1.5876378  1182921 
 6477000    1.4259468   -3.5263776   -1.9373463   0.23469893   -3.5263776    1.5890314  1182953 
 6478000    1.4272513   -3.5278337   -1.9373743   0.22982073   -3.5278337    1.5904594  1182972 
 6479000     1.425947   -3.5263886   -1.9374229   0.23468056   -3.5263886    1.5889657  1183002 
 6480000    1.4259371    -3.526962   -1.9380463   0.23170525    -3.526962    1.5889157  1183031 
 6481000    1.4254236   -3.5265176   -1.9382385   0.23033875   -3.5265176    1.5882791  1183079 
 6482000    1.4258657   -3.5271311   -1.9383875   0.23179058   -3.5271311    1.5887435  1183100 
 6483000     1.426965   -3.5289377   -1.9390056   0.23186259   -3.5289377    1.5899321  1183127 
 6484000    1.4260144   -3.5267332   -1.9378925   0.23269679   -3.5267332    1.5888407  1183151 
 6485000    1.4257809   -3.5263521   -1.9378132   0.23379409   -3.5263521    1.5885389  1183182 
 6486000    1.4259847   -3.5271086   -1.9383775   0.23557286   -3.5271086    1.5887311  1183208 
 6487000    1.4256998    -3.527342   -1.9389699   0.23312907    -3.527342     1.588372  1183239 
 6488000    1.4269748   -3.5287358   -1.9389875   0.23007609   -3.5287358    1.5897482  1183272 
 6489000    1.4262865   -3.5274704   -1.9385374   0.23731053   -3.5274704     1.588933  1183308 
 6490000    1.4261594    -3.528499   -1.9397384   0.22929605    -3.528499    1.5887606  1183331 
 6491000    1.4270557   -3.5288616   -1.9391375   0.23171582   -3.5288616    1.5897242  1183357 
 6492000    1.4255689   -3.5267658   -1.9387154   0.23713044   -3.5267658    1.5880504  1183370 
 6493000    1.4265538   -3.5278945   -1.9387751   0.23543551   -3.5278945    1.5891194  1183391 
 6494000     1.426223   -3.5278237   -1.9391051   0.23635433   -3.5278237    1.5887186  1183415 
 6495000    1.4275514   -3.5285677   -1.9384029   0.23378988   -3.5285677    1.5901648  1183440 
 6496000    1.4278354   -3.5290107   -1.9385806   0.23212362   -3.5290107    1.5904301  1183478 
 6497000    1.4278568   -3.5290027   -1.9385838   0.23224995   -3.5290027    1.5904189  1183504 
 6498000    1.4286409   -3.5289123   -1.9376509   0.23467535   -3.5289123    1.5912614  1183527 
 6499000    1.4273698   -3.5284012   -1.9385999   0.23148296   -3.5284012    1.5898013  1183560 
 6500000    1.4267112   -3.5281015   -1.9390793   0.23044822   -3.5281015    1.5890222  1183594 
 6501000    1.4269869   -3.5286544   -1.9393749   0.22912155   -3.5286544    1.5892795  1183631 
 6502000    1.4258195    -3.527127   -1.9391839   0.23487673    -3.527127    1.5879431  1183658 
 6503000     1.426594   -3.5290783    -1.940329   0.23035275   -3.5290783    1.5887493  1183700 
 6504000    1.4256136   -3.5274486   -1.9398314   0.23835903   -3.5274486    1.5876172  1183730 
 6505000     1.426901   -3.5281739   -1.9391633   0.23294207   -3.5281739    1.5890106  1183760 
 6506000    1.4272671   -3.5291515   -1.9397789   0.23406886   -3.5291515    1.5893726  1183794 
 6507000    1.4262144   -3.5276865   -1.9395169   0.23820722   -3.5276865    1.5881696  1183817 
 6508000    1.4263404   -3.5277182    -1.939454     0.236455   -3.5277182    1.5882642  1183851 
 6509000    1.4281139   -3.5293346   -1.9391492   0.22752634   -3.5293346    1.5901854  1183891 
 6510000    1.4273334   -3.5286098   -1.9393392   0.23196511   -3.5286098    1.5892706  1183925 
 6511000    1.4270459   -3.5284573   -1.9395403   0.23659213   -3.5284573     1.588917  1183950 
 6512000    1.4273665   -3.5286729   -1.9394245    0.2332209   -3.5286729    1.5892485  1183969 
 6513000    1.4280094   -3.5295539   -1.9396286   0.23268395   -3.5295539    1.5899253  1183998 
 6514000     1.426939   -3.5284647    -1.939758   0.23045323   -3.5284647    1.5887067  1184018 
 6515000    1.4280286   -3.5306657   -1.9407982   0.23021119   -3.5306657    1.5898674  1184057 
 6516000    1.4273095   -3.5306219   -1.9415846   0.23300956   -3.5306219    1.5890373  1184079 
 6517000    1.4263021    -3.530223   -1.9423461   0.23264107    -3.530223    1.5878769  1184108 
 6518000    1.4268396   -3.5313325   -1.9428881   0.23258251   -3.5313325    1.5884445  1184131 
 6519000      1.42625    -3.530321   -1.9425624   0.23147751    -3.530321    1.5877586  1184153 
 6520000     1.426171   -3.5298841   -1.9422457   0.23611693   -3.5298841    1.5876384  1184177 
 6521000    1.4270231   -3.5312669   -1.9427187   0.23370348   -3.5312669    1.5885481  1184206 
 6522000    1.4268625   -3.5313064   -1.9429585   0.23100888   -3.5313064    1.5883479  1184222 
 6523000    1.4256631   -3.5297606   -1.9427921   0.23819544   -3.5297606    1.5869685  1184255 
 6524000    1.4257077   -3.5303268   -1.9433542   0.23374982   -3.5303268    1.5869726  1184289 
 6525000     1.425678   -3.5303513   -1.9434614   0.23523147   -3.5303513    1.5868899  1184326 
 6526000    1.4265662   -3.5314732   -1.9436402   0.23347962   -3.5314732     1.587833  1184360 
 6527000    1.4255509   -3.5309729   -1.9443047   0.22870823   -3.5309729    1.5866682  1184386 
 6528000    1.4256454   -3.5309137   -1.9441645   0.23249122   -3.5309137    1.5867492  1184404 
 6529000    1.4251426   -3.5301909   -1.9440523   0.23430091   -3.5301909    1.5861386  1184442 
 6530000    1.4257978   -3.5311779   -1.9443636   0.23532812   -3.5311779    1.5868143  1184482 
 6531000    1.4267517   -3.5317339   -1.9438969   0.23269803   -3.5317339     1.587837  1184511 
 6532000    1.4258856   -3.5306733   -1.9438296   0.23618694   -3.5306733    1.5868437  1184533 
 6533000    1.4267837   -3.5318187    -1.944009   0.23336003   -3.5318187    1.5878097  1184558 
 6534000    1.4270639   -3.5314867   -1.9434122   0.23024752   -3.5314867    1.5880746  1184593 
 6535000    1.4276409   -3.5322529   -1.9435832    0.2358289   -3.5322529    1.5886697  1184628 
 6536000    1.4264964    -3.531084   -1.9437348   0.23241977    -3.531084    1.5873492  1184663 
 6537000    1.4275066   -3.5324602   -1.9440297   0.23294753   -3.5324602    1.5884305  1184695 
 6538000    1.4259733   -3.5311153   -1.9444339   0.23692443   -3.5311153    1.5866814  1184727 
 6539000    1.4266003   -3.5312508   -1.9439106   0.23420261   -3.5312508    1.5873402  1184756 
 6540000    1.4274773   -3.5316697   -1.9433912   0.23236313   -3.5316697    1.5882785  1184784 
 6541000    1.4263699   -3.5309228   -1.9439019   0.23403832   -3.5309228    1.5870209  1184803 
 6542000    1.4261572   -3.5308681   -1.9441174   0.23372351   -3.5308681    1.5867508  1184828 
 6543000    1.4270525   -3.5317972   -1.9440878   0.23282246   -3.5317972    1.5877094  1184856 
 6544000    1.4258314   -3.5307596   -1.9444396   0.23507875   -3.5307596      1.58632  1184879 
 6545000    1.4281642   -3.5324939    -1.943624   0.23011073   -3.5324939    1.5888698  1184913 
 6546000     1.426964   -3.5314233   -1.9439357   0.23400312   -3.5314233    1.5874876  1184948 
 6547000     1.426833   -3.5317999   -1.9445129   0.23492244   -3.5317999     1.587287  1184989 
 6548000    1.4274465   -3.5323478   -1.9444118   0.23611318   -3.5323478     1.587936  1185014 
 6549000     1.427206   -3.5324951   -1.9448495   0.23404136   -3.5324951    1.5876456  1185031 
 6550000    1.4291604    -3.534068   -1.9442871   0.22922572    -3.534068    1.5897808  1185060 
 6551000    1.4276097   -3.5323375    -1.944307   0.23406596   -3.5323375    1.5880305  1185079 
 6552000    1.4285325   -3.5335805   -1.9445691   0.23450457   -3.5335805    1.5890114  1185113 
 6553000    1.4274617   -3.5328601   -1.9450854   0.23023754   -3.5328601    1.5877746  1185147 
 6554000    1.4272188   -3.5316747   -1.9441957   0.23867941   -3.5316747     1.587479  1185166 
 6555000    1.4260413   -3.5306956   -1.9445664   0.23752238   -3.5306956    1.5861292  1185196 
 6556000    1.4265787   -3.5316934   -1.9450013   0.23758406   -3.5316934    1.5866921  1185222 
 6557000    1.4273547   -3.5326939   -1.9451749   0.23598562   -3.5326939    1.5875191  1185249 
 6558000    1.4270999   -3.5327463   -1.9455402   0.23017037   -3.5327463    1.5872061  1185271 
 6559000    1.4274497    -3.533851   -1.9462826   0.23061902    -3.533851    1.5875684  1185291 
 6560000    1.4274636   -3.5336876   -1.9461492   0.23067945   -3.5336876    1.5875384  1185325 
 6561000    1.4282409   -3.5339434   -1.9455781   0.23327849   -3.5339434    1.5883653  1185353 
 6562000    1.4275419   -3.5324006   -1.9448515   0.23703727   -3.5324006    1.5875491  1185382 
 6563000    1.4263877   -3.5316155   -1.9453889   0.23618524   -3.5316155    1.5862267  1185411 
 6564000    1.4275192   -3.5327334   -1.9452992    0.2360284   -3.5327334    1.5874342  1185449 
 6565000    1.4268038   -3.5314248   -1.9448196   0.24236318   -3.5314248    1.5866052  1185474 
 6566000    1.4273923   -3.5332482   -1.9460341   0.23301814   -3.5332482     1.587214  1185508 
 6567000    1.4286311   -3.5342622   -1.9457001   0.23628981   -3.5342622    1.5885621  1185530 
 6568000    1.4285642   -3.5344374   -1.9459752   0.23448504   -3.5344374    1.5884622  1185549 
 6569000    1.4284202   -3.5335054   -1.9452475   0.23415375   -3.5335054    1.5882579  1185582 
 6570000      1.42883   -3.5342179   -1.9455392   0.23365729   -3.5342179    1.5886787  1185608 
 6571000    1.4288079   -3.5347014   -1.9460968   0.23005222   -3.5347014    1.5886046  1185645 
 6572000    1.4290312    -3.534031   -1.9452037   0.23473868    -3.534031    1.5888274  1185664 
 6573000    1.4290467   -3.5349439   -1.9461275   0.23251309   -3.5349439    1.5888164  1185685 
 6574000    1.4276673   -3.5339098   -1.9466645   0.23661439   -3.5339098    1.5872454  1185713 
 6575000    1.4280167   -3.5347143   -1.9471086   0.23802192   -3.5347143    1.5876057  1185734 
 6576000    1.4283442    -3.534888    -1.946945   0.23286253    -3.534888     1.587943  1185754 
 6577000    1.4281606    -3.535306   -1.9475953   0.23430859    -3.535306    1.5877107  1185775 
 6578000    1.4289854   -3.5359317   -1.9473456   0.23285535   -3.5359317    1.5885861  1185806 
 6579000    1.4279309   -3.5347495   -1.9473637   0.23079058   -3.5347495    1.5873858  1185827 
 6580000    1.4280213   -3.5345116   -1.9470708   0.23833064   -3.5345116    1.5874408  1185861 
 6581000    1.4275609   -3.5338189   -1.9469234   0.23363971   -3.5338189    1.5868955  1185886 
 6582000    1.4281431   -3.5355017   -1.9479978   0.23637917   -3.5355017    1.5875039  1185915 
 6583000     1.427793   -3.5350862    -1.948017   0.23364675   -3.5350862    1.5870691  1185949 
 6584000    1.4281535   -3.5351427    -1.947709   0.23658609   -3.5351427    1.5874337  1185976 
 6585000    1.4282942   -3.5351571   -1.9476204   0.23422425   -3.5351571    1.5875366  1186016 
 6586000    1.4288781   -3.5363859   -1.9482338    0.2369087   -3.5363859    1.5881521  1186041 
 6587000    1.4288034    -3.536878   -1.9488424   0.22785209    -3.536878    1.5880356  1186066 
 6588000    1.4275746   -3.5359163   -1.9492853    0.2352091   -3.5359163    1.5866311  1186095 
 6589000      1.42856   -3.5366716   -1.9489814   0.23011283   -3.5366716    1.5876901  1186122 
 6590000     1.427601   -3.5354484   -1.9488802   0.23195849   -3.5354484    1.5865682  1186164 
 6591000    1.4270554   -3.5344572   -1.9485315   0.23640938   -3.5344572    1.5859257  1186191 
 6592000    1.4295002   -3.5374072   -1.9488061   0.22971824   -3.5374072    1.5886011  1186222 
 6593000      1.42805   -3.5362553   -1.9493005   0.23506818   -3.5362553    1.5869547  1186248 
 6594000    1.4274828   -3.5359316   -1.9496312   0.23503056   -3.5359316    1.5863004  1186266 
 6595000    1.4279069   -3.5360087   -1.9492838   0.23337519   -3.5360087    1.5867249  1186301 
 6596000    1.4281325   -3.5364486   -1.9495132   0.23689522   -3.5364486    1.5869354  1186331 
 6597000    1.4271528    -3.535277   -1.9494756   0.23847493    -3.535277    1.5858013  1186365 
 6598000    1.4277385   -3.5359444    -1.949523   0.23408942   -3.5359444    1.5864214  1186388 
 6599000    1.4282517   -3.5359876   -1.9490281    0.2373583   -3.5359876    1.5869595  1186412 
 6600000     1.428172   -3.5365051   -1.9496675   0.23377072   -3.5365051    1.5868375  1186437 
 6601000    1.4289219   -3.5375501   -1.9499208   0.23505942   -3.5375501    1.5876293  1186468 
 6602000    1.4274957    -3.536081   -1.9500751   0.23716048    -3.536081    1.5860059  1186497 
 6603000     1.429028   -3.5378429   -1.9501761   0.23043153   -3.5378429    1.5876668  1186528 
 6604000    1.4273175   -3.5361097   -1.9503672   0.23747878   -3.5361097    1.5857424  1186546 
 6605000     1.427752   -3.5366632   -1.9504755   0.23881359   -3.5366632    1.5861877  1186574 
 6606000    1.4280916   -3.5372346   -1.9507191   0.23628732   -3.5372346    1.5865155  1186611 
 6607000    1.4263755    -3.535848   -1.9512763   0.23772217    -3.535848    1.5845716  1186639 
 6608000    1.4277548   -3.5374671   -1.9513926   0.23075935   -3.5374671    1.5860745  1186661 
 6609000    1.4284553   -3.5385748   -1.9517555   0.22960142   -3.5385748    1.5868193  1186686 
 6610000    1.4277329   -3.5371561   -1.9512008   0.23448394   -3.5371561    1.5859553  1186732 
 6611000    1.4268665   -3.5366795   -1.9517241   0.23718068   -3.5366795    1.5849555  1186760 
 6612000    1.4277264   -3.5377212   -1.9518493   0.23399317   -3.5377212    1.5858719  1186789 
 6613000     1.428777   -3.5385791   -1.9515723   0.23824081   -3.5385791    1.5870068  1186813 
 6614000    1.4286545   -3.5381574   -1.9513428   0.23732188   -3.5381574    1.5868146  1186855 
 6615000    1.4287167   -3.5377183   -1.9508828   0.23697921   -3.5377183    1.5868355  1186891 
 6616000    1.4280937   -3.5372573   -1.9511432   0.23447369   -3.5372573    1.5861142  1186913 
 6617000    1.4285673   -3.5376138   -1.9510151   0.23790229   -3.5376138    1.5865987  1186944 
 6618000    1.4292863   -3.5389887   -1.9516289   0.23589382   -3.5389887    1.5873598  1186972 
 6619000    1.4283027   -3.5372739   -1.9510453   0.23688563   -3.5372739    1.5862287  1187001 
 6620000    1.4295279   -3.5392433   -1.9517061   0.23528526   -3.5392433    1.5875372  1187040 
 6621000    1.4290806   -3.5384937   -1.9514987   0.23648778   -3.5384937     1.586995  1187074 
 6622000    1.4287067   -3.5384174   -1.9518924   0.23423145   -3.5384174     1.586525  1187115 
 6623000    1.4288753   -3.5388698   -1.9521963   0.23548871   -3.5388698    1.5866735  1187144 
 6624000    1.4288864    -3.539406   -1.9527469   0.23609345    -3.539406    1.5866591  1187164 
 6625000    1.4278527   -3.5383394   -1.9528789   0.23352467   -3.5383394    1.5854605  1187202 
 6626000    1.4284756   -3.5391088   -1.9529888    0.2343386   -3.5391088      1.58612  1187226 
 6627000    1.4281303   -3.5384193    -1.952728   0.23707588   -3.5384193    1.5856912  1187260 
 6628000    1.4287579   -3.5391582   -1.9528129   0.23220097   -3.5391582    1.5863453  1187292 
 6629000     1.429198   -3.5399176   -1.9531157   0.23437494   -3.5399176    1.5868019  1187316 
 6630000    1.4284194    -3.538607    -1.952711   0.23459287    -3.538607     1.585896  1187347 
 6631000    1.4293989   -3.5400453   -1.9530993   0.23756214   -3.5400453    1.5869461  1187375 
 6632000    1.4291765   -3.5399289   -1.9532712   0.23770505   -3.5399289    1.5866577  1187406 
 6633000    1.4292597   -3.5396962   -1.9529941   0.23420825   -3.5396962     1.586702  1187442 
 6634000    1.4288038   -3.5385253   -1.9523641   0.23393434   -3.5385253    1.5861612  1187468 
 6635000    1.4287824   -3.5392761   -1.9531762   0.23631669   -3.5392761       1.5861  1187496 
 6636000     1.429231    -3.539542   -1.9529748   0.23707837    -3.539542    1.5865672  1187519 
 6637000    1.4291444   -3.5395651   -1.9531354   0.23770693   -3.5395651    1.5864297  1187550 
 6638000    1.4290148   -3.5397736   -1.9535291   0.23711189   -3.5397736    1.5862445  1187581 
 6639000    1.4298679   -3.5405756    -1.953423   0.23427368   -3.5405756    1.5871527  1187610 
 6640000    1.4288919   -3.5393104   -1.9532932    0.2365852   -3.5393104    1.5860172  1187649 
 6641000     1.428681   -3.5399981   -1.9542457   0.23555517   -3.5399981    1.5857524  1187672 
 6642000    1.4285521    -3.540197   -1.9546332   0.23348712    -3.540197    1.5855639  1187706 
 6643000    1.4291386   -3.5410544   -1.9548769   0.22873484   -3.5410544    1.5861775  1187734 
 6644000    1.4284966   -3.5396026   -1.9541736   0.23690457   -3.5396026     1.585429  1187761 
 6645000    1.4286259   -3.5405367   -1.9549963   0.23465494   -3.5405367    1.5855404  1187785 
 6646000    1.4296842    -3.541649   -1.9549782   0.22849887    -3.541649    1.5866708  1187818 
 6647000    1.4279811   -3.5397532   -1.9550112   0.23676266   -3.5397532     1.584742  1187847 
 6648000    1.4296584   -3.5417535   -1.9551955   0.23175345   -3.5417535     1.586558  1187881 
 6649000    1.4288227   -3.5410847   -1.9555021   0.22909587   -3.5410847    1.5855826  1187917 
 6650000    1.4292757   -3.5412651   -1.9552239   0.23742854   -3.5412651    1.5860412  1187950 
 6651000    1.4289086   -3.5408316   -1.9552498   0.23446834   -3.5408316    1.5855818  1187989 
 6652000    1.4287564   -3.5406356   -1.9552507   0.23515111   -3.5406356    1.5853849  1188010 
 6653000    1.4290596   -3.5410893   -1.9554174   0.23486181   -3.5410893    1.5856719  1188047 
 6654000    1.4298044   -3.5423714   -1.9559104    0.2338876   -3.5423714     1.586461  1188075 
 6655000    1.4294434   -3.5419904   -1.9559714   0.23413955   -3.5419904     1.586019  1188106 
 6656000    1.4290014   -3.5419259   -1.9564427   0.23197223   -3.5419259    1.5854833  1188140 
 6657000    1.4288797   -3.5424009   -1.9571008    0.2314896   -3.5424009    1.5853002  1188176 
 6658000    1.4292808   -3.5423212   -1.9566187   0.23342923   -3.5423212    1.5857025  1188208 
 6659000    1.4280012   -3.5411115   -1.9568646   0.23691161   -3.5411115    1.5842469  1188235 
 6660000    1.4299104   -3.5428579   -1.9565183   0.23337206   -3.5428579    1.5863396  1188254 
 6661000    1.4289048   -3.5422004   -1.9570258   0.23601037   -3.5422004    1.5851747  1188291 
 6662000    1.4299549   -3.5421382   -1.9558187   0.23550359   -3.5421382    1.5863195  1188306 
 6663000    1.4304407    -3.543365   -1.9565399   0.23730795    -3.543365    1.5868251  1188331 
 6664000      1.42945   -3.5426102   -1.9569189   0.23608671   -3.5426102    1.5856913  1188357 
 6665000    1.4294123    -3.543123   -1.9575095    0.2342845    -3.543123    1.5856136  1188384 
 6666000    1.4297229   -3.5430076   -1.9571002   0.23463224   -3.5430076    1.5859074  1188422 
 6667000    1.4291972   -3.5438442   -1.9585573   0.23329567   -3.5438442    1.5852869  1188450 
 6668000    1.4297103   -3.5435196   -1.9576862   0.23646903   -3.5435196    1.5858334  1188467 
 6669000    1.4292403   -3.5428567   -1.9575766   0.23500202   -3.5428567      1.58528  1188491 
 6670000      1.42959   -3.5429721   -1.9573442   0.23486035   -3.5429721    1.5856278  1188521 
 6671000    1.4297038   -3.5429781   -1.9572601   0.23819695   -3.5429781     1.585718  1188548 
 6672000    1.4297721   -3.5432227   -1.9574609   0.23138332   -3.5432227    1.5857618  1188572 
 6673000    1.4297959   -3.5430545   -1.9573051   0.23084488   -3.5430545    1.5857495  1188601 
 6674000    1.4284207   -3.5418961   -1.9576904   0.23723951   -3.5418961    1.5842056  1188615 
 6675000    1.4309701      -3.5444   -1.9574042   0.22887884      -3.5444    1.5869957  1188643 
 6676000    1.4294784   -3.5428849   -1.9575822   0.23436692   -3.5428849    1.5853027  1188672 
 6677000    1.4292661   -3.5427167   -1.9576828   0.23128451   -3.5427167    1.5850338  1188697 
 6678000    1.4299578   -3.5428966   -1.9571371   0.23384036   -3.5428966    1.5857596  1188728 
 6679000    1.4298943    -3.543209   -1.9575531   0.22995865    -3.543209    1.5856558  1188753 
 6680000    1.4281132   -3.5415856   -1.9579314   0.23800552   -3.5415856    1.5836541  1188773 
 6681000    1.4281251   -3.5416481   -1.9580208   0.23945263   -3.5416481    1.5836273  1188803 
 6682000    1.4293558   -3.5426681   -1.9577094   0.23696031   -3.5426681    1.5849587  1188828 
 6683000    1.4305208   -3.5438787   -1.9576536   0.23386378   -3.5438787    1.5862252  1188847 
 6684000    1.4298255   -3.5420311   -1.9566076   0.23640234   -3.5420311    1.5854235  1188870 
 6685000    1.4312664   -3.5443028   -1.9573163    0.2320573   -3.5443028    1.5869865  1188896 
 6686000     1.430393   -3.5438828    -1.957906   0.23209773   -3.5438828    1.5859768  1188927 
 6687000    1.4304625    -3.543798   -1.9577788   0.23158917    -3.543798    1.5860191  1188953 
 6688000    1.4288573   -3.5424751   -1.9582571   0.23755717   -3.5424751     1.584218  1188969 
 6689000     1.428841   -3.5431388   -1.9589748   0.23671956   -3.5431388     1.584164  1188996 
 6690000    1.4289272   -3.5436102   -1.9593973   0.23637609   -3.5436102     1.584213  1189031 
 6691000    1.4292483    -3.543823   -1.9592927   0.23512523    -3.543823    1.5845303  1189060 
 6692000    1.4301721   -3.5442069   -1.9586925   0.23777889   -3.5442069    1.5855145  1189090 
 6693000    1.4304332   -3.5448649    -1.959097   0.23749534   -3.5448649    1.5857679  1189117 
 6694000    1.4298335    -3.544069   -1.9589912   0.23391613    -3.544069    1.5850778  1189136 
 6695000    1.4298114   -3.5444343    -1.959425   0.23816552   -3.5444343    1.5850092  1189169 
 6696000    1.4307252    -3.544811   -1.9588261    0.2353941    -3.544811    1.5859849  1189197 
 6697000    1.4305502   -3.5450086   -1.9592631   0.23208798   -3.5450086    1.5857455  1189231 
 6698000    1.4307184   -3.5461147   -1.9602027   0.23413375   -3.5461147     1.585912  1189246 
 6699000    1.4312163   -3.5459337   -1.9595245   0.23286138   -3.5459337    1.5864092  1189287 
 6700000    1.4307883   -3.5446118   -1.9587236   0.23857078   -3.5446118    1.5858882  1189322 
 6701000    1.4305417    -3.544961   -1.9593982   0.23476014    -3.544961    1.5855628  1189361 
 6702000    1.4307387   -3.5452013   -1.9594561   0.23691929   -3.5452013    1.5857452  1189388 
 6703000    1.4299401   -3.5449145   -1.9600864    0.2330584   -3.5449145    1.5848281  1189412 
 6704000    1.4300453   -3.5444049   -1.9594935   0.23799332   -3.5444049    1.5849114  1189437 
 6705000    1.4313516    -3.545815      -1.9595   0.23318353    -3.545815    1.5863151  1189470 
 6706000    1.4303929   -3.5447616    -1.959549   0.23572789   -3.5447616    1.5852127  1189500 
 6707000    1.4307812   -3.5452992   -1.9596989   0.23471737   -3.5452992    1.5856003  1189532 
 6708000    1.4309586   -3.5453927   -1.9596371   0.23603875   -3.5453927    1.5857556  1189563 
 6709000    1.4312169   -3.5454711    -1.959456    0.2307857   -3.5454711    1.5860151  1189583 
 6710000    1.4305321   -3.5446405   -1.9594001   0.23591228   -3.5446405    1.5852403  1189595 
 6711000    1.4302785   -3.5446752   -1.9597373    0.2366296   -3.5446752    1.5849379  1189611 
 6712000    1.4321317   -3.5469377   -1.9599902   0.23242885   -3.5469377    1.5869475  1189644 
 6713000    1.4308748   -3.5457446   -1.9602313   0.23613453   -3.5457446    1.5855134  1189675 
 6714000    1.4309451   -3.5451727   -1.9596213   0.23472305   -3.5451727    1.5855514  1189705 
 6715000    1.4310696   -3.5456426   -1.9599839   0.23704356   -3.5456426    1.5856587  1189728 
 6716000    1.4317879   -3.5457989    -1.959387   0.23635876   -3.5457989    1.5864119  1189760 
 6717000    1.4312219   -3.5450578   -1.9593157    0.2343194   -3.5450578    1.5857421  1189792 
 6718000     1.431831   -3.5458701   -1.9594891   0.23485115   -3.5458701     1.586381  1189819 
 6719000    1.4314531   -3.5453597   -1.9594347   0.23407988   -3.5453597    1.5859249  1189847 
 6720000    1.4294774   -3.5440425   -1.9603517   0.24328491   -3.5440425    1.5836908  1189881 
 6721000    1.4309692    -3.545926   -1.9606132   0.23794102    -3.545926    1.5853128  1189904 
 6722000    1.4316368   -3.5468598   -1.9608393   0.23680609   -3.5468598    1.5860205  1189928 
 6723000    1.4313326   -3.5465718   -1.9609323   0.23788985   -3.5465718    1.5856395  1189961 
 6724000    1.4312443   -3.5466033   -1.9610882   0.23564916   -3.5466033    1.5855151  1189981 
 6725000    1.4313877   -3.5468389   -1.9611997   0.23726238   -3.5468389    1.5856392  1190007 
 6726000    1.4306948    -3.545809   -1.9609839   0.23961646    -3.545809    1.5848251  1190042 
 6727000    1.4309818   -3.5464703   -1.9613699   0.23389585   -3.5464703    1.5851003  1190074 
 6728000    1.4317222   -3.5470388   -1.9611529   0.23488846   -3.5470388    1.5858859  1190100 
 6729000     1.432165   -3.5470518   -1.9607115   0.23772595   -3.5470518    1.5863404  1190127 
 6730000    1.4314394   -3.5460512   -1.9605386   0.23884323   -3.5460512    1.5855126  1190145 
 6731000    1.4315562   -3.5458979   -1.9602906   0.24119601   -3.5458979    1.5856074  1190171 
 6732000    1.4329722   -3.5483156   -1.9611772   0.23304542   -3.5483156    1.5871384  1190199 
 6733000    1.4310272   -3.5461879   -1.9612384   0.23910844   -3.5461879    1.5849495  1190225 
 6734000    1.4320608   -3.5476018   -1.9615408   0.23531912   -3.5476018     1.586061  1190250 
 6735000    1.4321501   -3.5480369   -1.9619036   0.23447402   -3.5480369    1.5861333  1190270 
 6736000    1.4311421    -3.547048   -1.9620617    0.2356732    -3.547048    1.5849863  1190293 
 6737000    1.4306275   -3.5462304   -1.9618567   0.23473187   -3.5462304    1.5843738  1190325 
 6738000    1.4318944    -3.547827   -1.9620782   0.23768985    -3.547827    1.5857488  1190346 
 6739000    1.4309994   -3.5466438   -1.9619208   0.23715334   -3.5466438    1.5847231  1190372 
 6740000    1.4314047   -3.5473507   -1.9622214    0.2378805   -3.5473507    1.5851293  1190404 
 6741000    1.4306917   -3.5472033   -1.9628955   0.23686662   -3.5472033    1.5843077  1190428 
 6742000    1.4306005   -3.5468383   -1.9626689   0.23612852   -3.5468383    1.5841695  1190456 
 6743000    1.4314943   -3.5471043   -1.9619916   0.23728897   -3.5471043    1.5851127  1190491 
 6744000    1.4312497   -3.5473899   -1.9625947   0.23730906   -3.5473899    1.5847952  1190526 
 6745000    1.4307954   -3.5473135   -1.9630613   0.24260602   -3.5473135    1.5842523  1190556 
 6746000    1.4313956   -3.5480448   -1.9631652   0.23350968   -3.5480448    1.5848796  1190584 
 6747000    1.4313462   -3.5478397   -1.9630427   0.23785862   -3.5478397    1.5847969  1190605 
 6748000    1.4326017   -3.5491994   -1.9630524   0.23328122   -3.5491994    1.5861471  1190635 
 6749000    1.4318114   -3.5481795   -1.9629528   0.23625144   -3.5481795    1.5852268  1190669 
 6750000    1.4315306   -3.5479279   -1.9630506   0.24130032   -3.5479279    1.5848773  1190698 
 6751000    1.4318659   -3.5491491   -1.9639352   0.23771131   -3.5491491    1.5852139  1190724 
 6752000    1.4327266   -3.5494572   -1.9633251   0.23793841   -3.5494572    1.5861321  1190750 
 6753000    1.4313143   -3.5487312   -1.9642039   0.23330946   -3.5487312    1.5845274  1190781 
 6754000    1.4302403   -3.5473824   -1.9640706    0.2414058   -3.5473824    1.5833118  1190801 
 6755000    1.4307582   -3.5479791   -1.9641326   0.23583007   -3.5479791    1.5838465  1190830 
 6756000    1.4315759   -3.5489154   -1.9641943   0.23584571   -3.5489154    1.5847211  1190853 
 6757000    1.4311484    -3.549017   -1.9648077   0.23576416    -3.549017    1.5842093  1190882 
 6758000    1.4320979   -3.5496559   -1.9644181     0.235291   -3.5496559    1.5852378  1190899 
 6759000    1.4307276   -3.5481397   -1.9644427    0.2387934   -3.5481397     1.583697  1190917 
 6760000    1.4316288   -3.5489614   -1.9643028   0.23467857   -3.5489614    1.5846586  1190944 
 6761000    1.4307206   -3.5483378   -1.9647164   0.24004636   -3.5483378    1.5836214  1190968 
 6762000    1.4326355   -3.5500409   -1.9643439   0.23710643   -3.5500409     1.585697  1191001 
 6763000    1.4320058   -3.5501976   -1.9652282   0.23429426   -3.5501976    1.5849694  1191024 
 6764000    1.4320476   -3.5498401    -1.964863   0.23354065   -3.5498401    1.5849771  1191053 
 6765000    1.4322357   -3.5495857   -1.9644243   0.23641871   -3.5495857    1.5851614  1191071 
 6766000    1.4309595   -3.5489935   -1.9652859   0.23768277   -3.5489935    1.5837077  1191102 
 6767000    1.4326814   -3.5504416   -1.9648721   0.23632041   -3.5504416    1.5855694  1191135 
 6768000    1.4316733   -3.5492556   -1.9648537   0.23551119   -3.5492556    1.5844019  1191174 
 6769000    1.4322975   -3.5498231   -1.9647638    0.2360049   -3.5498231    1.5850593  1191199 
 6770000     1.432166   -3.5497824   -1.9649124     0.237587   -3.5497824      1.58487  1191232 
 6771000    1.4329104   -3.5512471   -1.9655839   0.23322118   -3.5512471    1.5856631  1191255 
 6772000    1.4319345   -3.5504688   -1.9659335    0.2366101   -3.5504688    1.5845353  1191291 
 6773000    1.4307381    -3.549146   -1.9659652   0.23759809    -3.549146    1.5831809  1191314 
 6774000    1.4312816   -3.5501007   -1.9663637   0.23397904   -3.5501007    1.5837371  1191348 
 6775000    1.4313617   -3.5497453   -1.9659542   0.23972143   -3.5497453    1.5837911  1191374 
 6776000    1.4322372   -3.5512283   -1.9665111   0.23455674   -3.5512283    1.5847172  1191406 
 6777000    1.4323439    -3.550573    -1.965783   0.23715723    -3.550573    1.5847901  1191440 
 6778000    1.4322067   -3.5512686   -1.9666741   0.23173285   -3.5512686    1.5845945  1191473 
 6779000    1.4319311   -3.5500754   -1.9658217   0.24214805   -3.5500754    1.5842536  1191500 
 6780000    1.4318577   -3.5500888   -1.9659418   0.23785437   -3.5500888    1.5841471  1191519 
 6781000    1.4326848   -3.5519974   -1.9669658    0.2351524   -3.5519974    1.5850316  1191542 
 6782000    1.4334023   -3.5522016   -1.9664162   0.23474704   -3.5522016    1.5857854  1191572 
 6783000    1.4317532   -3.5513313   -1.9674181   0.23761799   -3.5513313    1.5839132  1191608 
 6784000    1.4315336    -3.550545   -1.9669146   0.24048825    -3.550545    1.5836304  1191638 
 6785000    1.4321408   -3.5511607   -1.9669025   0.23815275   -3.5511607    1.5842582  1191671 
 6786000    1.4322237   -3.5520554   -1.9677534    0.2371239   -3.5520554     1.584302  1191707 
 6787000    1.4304146   -3.5508051   -1.9685481   0.23834949   -3.5508051     1.582257  1191740 
 6788000    1.4313422   -3.5522112     -1.96896    0.2345658   -3.5522112    1.5832513  1191764 
 6789000    1.4324456   -3.5530925    -1.968654   0.23662163   -3.5530925    1.5844385  1191789 
 6790000    1.4319932    -3.551869    -1.967984   0.23717616    -3.551869     1.583885  1191829 
 6791000    1.4325464   -3.5523047   -1.9678452    0.2375479   -3.5523047    1.5844596  1191857 
 6792000    1.4314412   -3.5514409   -1.9682409    0.2381206   -3.5514409       1.5832  1191885 
 6793000    1.4320071    -3.552569   -1.9687829   0.23476228    -3.552569    1.5837861  1191915 
 6794000     1.432405   -3.5530178   -1.9688249    0.2324916   -3.5530178    1.5841929  1191940 
 6795000    1.4325019   -3.5526579    -1.968391   0.23402082   -3.5526579    1.5842669  1191965 
 6796000    1.4321565   -3.5520776   -1.9682287   0.23700091   -3.5520776    1.5838489  1191992 
 6797000    1.4325398   -3.5521143   -1.9678707   0.23964979   -3.5521143    1.5842436  1192014 
 6798000    1.4318495   -3.5522272   -1.9687908   0.23497657   -3.5522272    1.5834364  1192047 
 6799000    1.4340098   -3.5534773   -1.9676998    0.2350687   -3.5534773    1.5857775  1192083 
 6800000    1.4333377   -3.5533994   -1.9683984    0.2374675   -3.5533994     1.585001  1192108 
 6801000    1.4318372   -3.5522759    -1.968982   0.23752729   -3.5522759    1.5832939  1192144 
 6802000    1.4324794   -3.5533626   -1.9693998   0.23769887   -3.5533626    1.5839629  1192175 
 6803000    1.4322582   -3.5532026   -1.9695188   0.24116508   -3.5532026    1.5836837  1192201 
 6804000    1.4325097   -3.5538003   -1.9698717   0.23403882   -3.5538003    1.5839286  1192226 
 6805000    1.4324376    -3.552872   -1.9690643   0.23926825    -3.552872    1.5838077  1192257 
 6806000    1.4324985   -3.5527622   -1.9689164   0.23419047   -3.5527622    1.5838458  1192279 
 6807000    1.4324694   -3.5535725   -1.9697895   0.23766394   -3.5535725    1.5837831  1192302 
 6808000    1.4324867   -3.5532646   -1.9695181   0.23692788   -3.5532646    1.5837465  1192344 
 6809000    1.4317361    -3.552618    -1.969724    0.2358569    -3.552618     1.582894  1192361 
 6810000    1.4338653    -3.555147   -1.9699256   0.23367076    -3.555147    1.5852214  1192381 
 6811000    1.4320631   -3.5530691   -1.9698692   0.24131199   -3.5530691    1.5831998  1192403 
 6812000    1.4316345   -3.5525422   -1.9698574   0.24281732   -3.5525422    1.5826848  1192434 
 6813000    1.4333179   -3.5540183   -1.9695004   0.23372766   -3.5540183    1.5845179  1192455 
 6814000    1.4333621   -3.5546509   -1.9701214   0.23301976   -3.5546509    1.5845296  1192483 
 6815000    1.4327862   -3.5536311   -1.9697674   0.23679037   -3.5536311    1.5838637  1192505 
 6816000    1.4334826   -3.5541792   -1.9695949   0.23740759   -3.5541792    1.5845844  1192542 
 6817000    1.4316666   -3.5520028    -1.969467   0.24067965   -3.5520028    1.5825358  1192573 
 6818000    1.4325008   -3.5525886   -1.9691626   0.24106869   -3.5525886     1.583426  1192597 
 6819000    1.4334619   -3.5534681   -1.9690196   0.23972973   -3.5534681    1.5844485  1192627 
 6820000      1.43399   -3.5530688   -1.9680684   0.23994582   -3.5530688    1.5850004  1192651 
 6821000    1.4340323   -3.5532277   -1.9682165   0.23773813   -3.5532277    1.5850112  1192678 
 6822000    1.4338354   -3.5538033   -1.9690615   0.23640165   -3.5538033    1.5847418  1192717 
 6823000    1.4338248   -3.5537585   -1.9690629   0.23874497   -3.5537585    1.5846955  1192743 
 6824000    1.4333944   -3.5540061   -1.9698301   0.23914824   -3.5540061     1.584176  1192776 
 6825000    1.4339417    -3.554116   -1.9693896   0.23686611    -3.554116    1.5847264  1192817 
 6826000    1.4329003   -3.5533938   -1.9698489   0.24148681   -3.5533938    1.5835449  1192840 
 6827000     1.433396   -3.5533169   -1.9692599   0.24005332   -3.5533169    1.5840569  1192867 
 6828000    1.4327695   -3.5528828   -1.9695606   0.24369538   -3.5528828    1.5833222  1192899 
 6829000    1.4333783   -3.5533012   -1.9693528   0.24032454   -3.5533012    1.5839484  1192934 
 6830000     1.434629   -3.5549821   -1.9696941   0.23743127   -3.5549821     1.585288  1192966 
 6831000     1.435007   -3.5551199   -1.9694514   0.23936818   -3.5551199    1.5856685  1192994 
 6832000    1.4338563    -3.554321   -1.9699534   0.23800073    -3.554321    1.5843677  1193016 
 6833000    1.4339661   -3.5552371   -1.9707865   0.23979426   -3.5552371    1.5844506  1193045 
 6834000    1.4346028   -3.5553428   -1.9702181   0.23710091   -3.5553428    1.5851248  1193067 
 6835000    1.4327737   -3.5540189   -1.9709522   0.24027245   -3.5540189    1.5830667  1193095 
 6836000    1.4343132   -3.5556953   -1.9709609   0.23785519   -3.5556953    1.5847344  1193120 
 6837000    1.4332373   -3.5547887   -1.9712868   0.23802827   -3.5547887    1.5835019  1193153 
 6838000    1.4343114   -3.5561192   -1.9714638   0.23960213   -3.5561192    1.5846554  1193178 
 6839000    1.4335935   -3.5552276   -1.9714025   0.23910357   -3.5552276    1.5838251  1193206 
 6840000    1.4338669   -3.5564477   -1.9723577   0.23360648   -3.5564477      1.58409  1193234 
 6841000    1.4339111   -3.5566271   -1.9725122   0.23490634   -3.5566271     1.584115  1193252 
 6842000    1.4325726   -3.5555631   -1.9729707   0.24256087   -3.5555631    1.5825924  1193285 
 6843000     1.434126   -3.5574445   -1.9731811   0.23641777   -3.5574445    1.5842634  1193319 
 6844000    1.4332138   -3.5559989    -1.972775   0.24283746   -3.5559989    1.5832239  1193343 
 6845000     1.433459   -3.5567222   -1.9732713   0.23628188   -3.5567222    1.5834509  1193376 
 6846000    1.4327534   -3.5563141   -1.9736824   0.23435574   -3.5563141    1.5826317  1193406 
 6847000    1.4336282   -3.5573787   -1.9738191    0.2370032   -3.5573787    1.5835596  1193435 
 6848000    1.4319467   -3.5553037   -1.9736268    0.2401941   -3.5553037    1.5816769  1193454 
 6849000    1.4337494   -3.5564578   -1.9728161   0.24039507   -3.5564578    1.5836416  1193474 
 6850000    1.4340538   -3.5567871   -1.9728371   0.23797411   -3.5567871      1.58395  1193495 
 6851000    1.4334699   -3.5556328   -1.9723583   0.24215789   -3.5556328    1.5832745  1193518 
 6852000    1.4342035   -3.5557713   -1.9717289   0.24054379   -3.5557713    1.5840423  1193550 
 6853000    1.4350163   -3.5570605   -1.9721616   0.23599784   -3.5570605    1.5848989  1193581 
 6854000    1.4358445   -3.5585358   -1.9727554   0.23497804   -3.5585358    1.5857804  1193606 
 6855000    1.4336313   -3.5560216   -1.9727213   0.24196911   -3.5560216    1.5833003  1193633 
 6856000     1.433954   -3.5558329   -1.9722173   0.23967114   -3.5558329    1.5836155  1193664 
 6857000    1.4343838    -3.556715    -1.972666   0.23919694    -3.556715     1.584049  1193695 
 6858000    1.4337251   -3.5557188   -1.9724343   0.24014387   -3.5557188    1.5832845  1193723 
 6859000    1.4346654   -3.5562715   -1.9719897   0.23983807   -3.5562715    1.5842818  1193754 
 6860000    1.4352279   -3.5560899   -1.9712294   0.24000383   -3.5560899    1.5848604  1193786 
 6861000    1.4356046    -3.557143   -1.9719157   0.23961974    -3.557143    1.5852272  1193823 
 6862000    1.4350811   -3.5560638   -1.9714451   0.24084096   -3.5560638    1.5846187  1193846 
 6863000    1.4346386   -3.5558354   -1.9717505   0.23929155   -3.5558354     1.584085  1193880 
 6864000    1.4361362   -3.5576237    -1.971917   0.23890906   -3.5576237    1.5857067  1193904 
 6865000    1.4354823   -3.5566288   -1.9716747   0.24163588   -3.5566288    1.5849541  1193927 
 6866000    1.4359293   -3.5583057   -1.9729006   0.23575902   -3.5583057    1.5854051  1193959 
 6867000    1.4346831   -3.5566722   -1.9726801   0.24138675   -3.5566722    1.5839921  1193987 
 6868000    1.4345391   -3.5567331   -1.9729292   0.23810952   -3.5567331    1.5838039  1194009 
 6869000    1.4341959   -3.5566723   -1.9732831   0.23898525   -3.5566723    1.5833892  1194036 
 6870000    1.4347997   -3.5565897   -1.9725829   0.24320239   -3.5565897    1.5840067  1194073 
 6871000    1.4344229   -3.5570356   -1.9734753   0.24058139   -3.5570356    1.5835603  1194096 
 6872000    1.4329679   -3.5558691   -1.9739522   0.24625204   -3.5558691    1.5819169  1194124 
 6873000     1.434726    -3.557347   -1.9735384   0.23656478    -3.557347    1.5838087  1194161 
 6874000    1.4350393   -3.5582377   -1.9741045   0.23869641   -3.5582377    1.5841332  1194177 
 6875000    1.4347741   -3.5583556   -1.9745548   0.24118822   -3.5583556    1.5838007  1194207 
 6876000    1.4346844   -3.5584001   -1.9747461   0.23547551   -3.5584001     1.583654  1194243 
 6877000    1.4344981   -3.5582374   -1.9748182   0.23842228   -3.5582374    1.5834192  1194265 
 6878000    1.4346153   -3.5582435   -1.9747215   0.23891025   -3.5582435     1.583522  1194285 
 6879000    1.4355037    -3.558607   -1.9741469   0.24241076    -3.558607    1.5844601  1194317 
 6880000    1.4353266   -3.5584106   -1.9741751   0.23800638   -3.5584106    1.5842355  1194339 
 6881000    1.4354774   -3.5585536   -1.9741954   0.24094068   -3.5585536    1.5843582  1194372 
 6882000    1.4352562   -3.5577777   -1.9736888   0.24002928   -3.5577777    1.5840888  1194391 
 6883000    1.4351175   -3.5579839   -1.9740893   0.24144335   -3.5579839    1.5838946  1194422 
 6884000    1.4349537   -3.5579642   -1.9742848   0.24410166   -3.5579642    1.5836794  1194448 
 6885000     1.435492   -3.5592573   -1.9750182   0.24272436   -3.5592573    1.5842391  1194474 
 6886000    1.4354971   -3.5585377   -1.9743262   0.24344581   -3.5585377    1.5842115  1194499 
 6887000    1.4350419   -3.5584845   -1.9748232   0.24221739   -3.5584845    1.5836614  1194535 
 6888000     1.435756   -3.5596001   -1.9751917   0.23897269   -3.5596001    1.5844084  1194566 
 6889000    1.4345411   -3.5588603   -1.9758284   0.23520901   -3.5588603    1.5830319  1194593 
 6890000    1.4366397    -3.561344   -1.9760335   0.23226886    -3.561344    1.5853105  1194621 
 6891000    1.4345228   -3.5588763   -1.9759282   0.24165555   -3.5588763    1.5829481  1194641 
 6892000    1.4352881   -3.5598046   -1.9760425   0.23753897   -3.5598046    1.5837621  1194664 
 6893000    1.4347653   -3.5594924   -1.9763456   0.23702338   -3.5594924    1.5831468  1194693 
 6894000    1.4355131   -3.5598082   -1.9758695   0.23651255   -3.5598082    1.5839388  1194718 
 6895000    1.4344511   -3.5588271   -1.9761146   0.23910992   -3.5588271    1.5827126  1194759 
 6896000    1.4343173   -3.5584234   -1.9758889   0.24290257   -3.5584234    1.5825345  1194782 
 6897000    1.4346301   -3.5590918   -1.9762584    0.2403971   -3.5590918    1.5828333  1194817 
 6898000    1.4362563   -3.5605871   -1.9759901   0.23757452   -3.5605871     1.584597  1194840 
 6899000       1.4355   -3.5589926   -1.9752672   0.24115673   -3.5589926    1.5837254  1194868 
 6900000    1.4354644   -3.5588116   -1.9751586   0.24625859   -3.5588116     1.583653  1194893 
 6901000    1.4367082   -3.5601968     -1.97521   0.24462535   -3.5601968    1.5849868  1194922 
 6902000     1.436654   -3.5599677   -1.9750619   0.24081349   -3.5599677    1.5849058  1194938 
 6903000    1.4360632    -3.559709   -1.9754882   0.24552348    -3.559709    1.5842208  1194963 
 6904000    1.4364439   -3.5597087   -1.9750957   0.24432209   -3.5597087     1.584613  1194984 
 6905000    1.4364799   -3.5604751   -1.9758529   0.24092572   -3.5604751    1.5846222  1195007 
 6906000    1.4366798   -3.5604228   -1.9756026   0.24204769   -3.5604228    1.5848201  1195024 
 6907000    1.4358202   -3.5607146   -1.9768719    0.2379908   -3.5607146    1.5838427  1195046 
 6908000    1.4345272   -3.5596176   -1.9772382   0.24198744   -3.5596176    1.5823794  1195074 
 6909000    1.4350561   -3.5605439   -1.9776116   0.23655079   -3.5605439    1.5829323  1195097 
 6910000    1.4342632   -3.5596579    -1.977632   0.24086988   -3.5596579    1.5820259  1195121 
 6911000    1.4349059   -3.5603855   -1.9776982   0.24016678   -3.5603855    1.5826872  1195157 
 6912000    1.4365119   -3.5622079   -1.9777758    0.2365348   -3.5622079    1.5844321  1195177 
 6913000    1.4344568   -3.5592847   -1.9771471   0.24088913   -3.5592847    1.5821376  1195198 
 6914000    1.4366939   -3.5618419     -1.97727   0.23735054   -3.5618419    1.5845719  1195223 
 6915000    1.4352993   -3.5612579    -1.978256   0.23750769   -3.5612579    1.5830019  1195247 
 6916000    1.4347945   -3.5602082   -1.9778015   0.24419353   -3.5602082    1.5824067  1195276 
 6917000    1.4366433   -3.5622343   -1.9778124   0.23736569   -3.5622343    1.5844219  1195294 
 6918000    1.4356639   -3.5611281   -1.9778367   0.24085312   -3.5611281    1.5832915  1195332 
 6919000    1.4354962   -3.5614157   -1.9783543   0.23929882   -3.5614157    1.5830614  1195366 
 6920000    1.4354271   -3.5615407   -1.9785846   0.23719514   -3.5615407    1.5829561  1195388 
 6921000    1.4357005   -3.5616503   -1.9784099   0.24139644   -3.5616503    1.5832403  1195401 
 6922000    1.4347468   -3.5611602   -1.9790139    0.2425032   -3.5611602    1.5821463  1195433 
 6923000    1.4351414   -3.5615902   -1.9790391   0.23852932   -3.5615902    1.5825511  1195456 
 6924000     1.435507   -3.5619851    -1.979068   0.24043559   -3.5619851    1.5829171  1195484 
 6925000    1.4352929    -3.561477   -1.9788384   0.23997001    -3.561477    1.5826386  1195516 
 6926000    1.4361825   -3.5628148   -1.9792377   0.23592571   -3.5628148    1.5835772  1195548 
 6927000    1.4354688   -3.5622417   -1.9794859   0.23877422   -3.5622417    1.5827558  1195574 
 6928000      1.43578   -3.5624885    -1.979416   0.23775021   -3.5624885    1.5830725  1195594 
 6929000    1.4358318   -3.5627994   -1.9797123   0.23918906   -3.5627994    1.5830872  1195626 
 6930000    1.4355167   -3.5622986   -1.9795812   0.24235255   -3.5622986    1.5827174  1195643 
 6931000    1.4369236   -3.5639721   -1.9797486   0.23883669   -3.5639721    1.5842235  1195677 
 6932000    1.4346709   -3.5619914   -1.9802913    0.2414913   -3.5619914    1.5817001  1195707 
 6933000    1.4363698    -3.563348    -1.979804   0.24236686    -3.563348     1.583544  1195729 
 6934000    1.4352703   -3.5623334   -1.9800505   0.23825018   -3.5623334    1.5822828  1195766 
 6935000    1.4350633   -3.5623556   -1.9803314    0.2386344   -3.5623556    1.5820242  1195789 
 6936000    1.4349466     -3.56224   -1.9803894   0.24085267     -3.56224    1.5818506  1195823 
 6937000    1.4355789   -3.5629801   -1.9804523   0.24136978   -3.5629801    1.5825278  1195838 
 6938000    1.4359729   -3.5633554   -1.9804369   0.23779562   -3.5633554    1.5829184  1195871 
 6939000    1.4364044   -3.5632249   -1.9798758   0.24005115   -3.5632249     1.583349  1195905 
 6940000    1.4348019   -3.5617517   -1.9801996   0.24225593   -3.5617517    1.5815522  1195928 
 6941000    1.4362492   -3.5631285    -1.980014   0.24163492   -3.5631285    1.5831144  1195953 
 6942000    1.4362441   -3.5633224    -1.980252   0.23937319   -3.5633224    1.5830704  1195982 
 6943000    1.4367446   -3.5646844   -1.9811244   0.23669475   -3.5646844    1.5835599  1196029 
 6944000    1.4358062   -3.5639837   -1.9814925    0.2444188   -3.5639837    1.5824912  1196055 
 6945000     1.435252   -3.5630629   -1.9812236   0.24056797   -3.5630629    1.5818394  1196086 
 6946000    1.4364362   -3.5639759   -1.9808697   0.23730139   -3.5639759    1.5831061  1196115 
 6947000    1.4355647   -3.5633105   -1.9811926   0.23832245   -3.5633105    1.5821178  1196136 
 6948000     1.436034   -3.5633886   -1.9807893   0.23979487   -3.5633886    1.5825993  1196163 
 6949000    1.4370637   -3.5641705   -1.9804748   0.23977663   -3.5641705    1.5836957  1196192 
 6950000    1.4362828   -3.5648459   -1.9820345   0.23738041   -3.5648459    1.5828114  1196210 
 6951000    1.4363216   -3.5641386   -1.9813255   0.23973526   -3.5641386    1.5828131  1196241 
 6952000    1.4361068   -3.5641432   -1.9815999   0.23903847   -3.5641432    1.5825433  1196266 
 6953000    1.4364767   -3.5643934   -1.9814822    0.2409476   -3.5643934    1.5829112  1196296 
 6954000    1.4368368   -3.5654477   -1.9821714    0.2349126   -3.5654477    1.5832763  1196320 
 6955000     1.434872    -3.563582   -1.9825051   0.24041033    -3.563582    1.5810769  1196346 
 6956000    1.4357075   -3.5642394   -1.9822816   0.24308799   -3.5642394    1.5819578  1196376 
 6957000    1.4371712   -3.5662004   -1.9826668   0.23725051   -3.5662004    1.5835336  1196404 
 6958000    1.4366236   -3.5654208   -1.9825237   0.24112202   -3.5654208    1.5828971  1196429 
 6959000    1.4367752   -3.5657764   -1.9827374   0.24166236   -3.5657764     1.583039  1196448 
 6960000    1.4353019   -3.5636992   -1.9823165    0.2453388   -3.5636992    1.5813827  1196473 
 6961000    1.4370474   -3.5653424   -1.9820604   0.23901906   -3.5653424     1.583282  1196491 
 6962000    1.4363283   -3.5643661   -1.9819068    0.2424602   -3.5643661    1.5824594  1196514 
 6963000    1.4365695   -3.5648013   -1.9821014   0.24257959   -3.5648013    1.5826999  1196533 
 6964000    1.4361761   -3.5643206   -1.9820911   0.24300976   -3.5643206    1.5822295  1196561 
 6965000    1.4365511   -3.5652119    -1.982605   0.24135328   -3.5652119    1.5826069  1196588 
 6966000    1.4360044   -3.5649534   -1.9829845   0.24242942   -3.5649534    1.5819689  1196615 
 6967000    1.4355716    -3.564656   -1.9832088   0.24163222    -3.564656    1.5814472  1196649 
 6968000    1.4348951    -3.563794   -1.9831317    0.2445114    -3.563794    1.5806623  1196679 
 6969000    1.4364331   -3.5656486   -1.9833198   0.23939662   -3.5656486    1.5823288  1196700 
 6970000    1.4362168   -3.5654267   -1.9833692   0.23920605   -3.5654267    1.5820575  1196725 
 6971000    1.4357249   -3.5647798   -1.9833104    0.2422819   -3.5647798    1.5814694  1196760 
 6972000    1.4360286   -3.5647182   -1.9829631     0.238512   -3.5647182    1.5817551  1196797 
 6973000    1.4365497   -3.5651648   -1.9828755    0.2364945   -3.5651648    1.5822893  1196827 
 6974000    1.4372853   -3.5651872   -1.9821313   0.24293388   -3.5651872    1.5830559  1196860 
 6975000    1.4373687   -3.5657508   -1.9826215   0.23867758   -3.5657508    1.5831293  1196874 
 6976000    1.4373838   -3.5653259   -1.9822051    0.2435647   -3.5653259    1.5831208  1196893 
 6977000    1.4373492   -3.5663743    -1.983326   0.23971808   -3.5663743    1.5830483  1196919 
 6978000    1.4366816   -3.5657094   -1.9834308   0.24500272   -3.5657094    1.5822786  1196945 
 6979000    1.4365024   -3.5652447   -1.9832017   0.24053542   -3.5652447     1.582043  1196974 
 6980000    1.4372607   -3.5661954   -1.9833556   0.24301343   -3.5661954    1.5828398  1197003 
 6981000    1.4366205   -3.5656144   -1.9835167   0.24290501   -3.5656144    1.5820976  1197031 
 6982000    1.4373642   -3.5660779   -1.9831904   0.24058439   -3.5660779    1.5828875  1197053 
 6983000     1.436679   -3.5658898   -1.9837938   0.23885456   -3.5658898     1.582096  1197081 
 6984000    1.4374851    -3.567129   -1.9841665   0.23873135    -3.567129    1.5829625  1197097 
 6985000     1.437844   -3.5674298   -1.9841078   0.23971437   -3.5674298    1.5833221  1197124 
 6986000    1.4377094   -3.5667269   -1.9835822   0.24081566   -3.5667269    1.5831447  1197146 
 6987000    1.4368773   -3.5664885   -1.9842984   0.24589752   -3.5664885    1.5821901  1197175 
 6988000    1.4365479   -3.5663325   -1.9845381   0.24064342   -3.5663325    1.5817943  1197200 
 6989000    1.4372158   -3.5672226   -1.9847271   0.24304154   -3.5672226    1.5824954  1197226 
 6990000    1.4360191   -3.5661928   -1.9850652   0.24334234   -3.5661928    1.5811276  1197264 
 6991000    1.4357461   -3.5665503   -1.9857563   0.24537994   -3.5665503     1.580794  1197289 
 6992000    1.4359806    -3.566396   -1.9853675    0.2437294    -3.566396    1.5810285  1197307 
 6993000    1.4363542   -3.5673455   -1.9859388   0.23846396   -3.5673455    1.5814067  1197332 
 6994000    1.4366871   -3.5679003   -1.9861693   0.23647469   -3.5679003     1.581731  1197364 
 6995000    1.4355383   -3.5667126   -1.9862768   0.23905425   -3.5667126    1.5804358  1197387 
 6996000    1.4370384   -3.5684194   -1.9863665   0.23480252   -3.5684194     1.582053  1197413 
 6997000    1.4360204   -3.5669817   -1.9860865    0.2370742   -3.5669817    1.5808953  1197441 
 6998000    1.4369786   -3.5676172    -1.985708   0.24158229   -3.5676172    1.5819093  1197472 
 6999000     1.437124   -3.5685473   -1.9865098   0.24077125   -3.5685473    1.5820375  1197496 
 7000000    1.4367202   -3.5673921   -1.9858557   0.24059726   -3.5673921    1.5815363  1197539 
 7001000    1.4369588   -3.5677538   -1.9859932   0.24142517   -3.5677538    1.5817606  1197568 
 7002000    1.4375585   -3.5684068   -1.9860125   0.23924706   -3.5684068    1.5823943  1197588 
 7003000    1.4364987   -3.5673752   -1.9861871     0.241719   -3.5673752    1.5811881  1197618 
 7004000    1.4381847   -3.5685599   -1.9855609   0.23934556   -3.5685599     1.582999  1197652 
 7005000    1.4379905   -3.5684248   -1.9856725   0.23995881   -3.5684248    1.5827522  1197677 
 7006000     1.437571   -3.5679434   -1.9856873   0.23987817   -3.5679434    1.5822561  1197703 
 7007000    1.4361751   -3.5680487   -1.9873725   0.24042298   -3.5680487    1.5806762  1197736 
 7008000     1.436872   -3.5682802   -1.9868661   0.24089911   -3.5682802    1.5814142  1197758 
 7009000     1.437314   -3.5682053    -1.986339    0.2418162   -3.5682053    1.5818663  1197784 
 7010000    1.4373555   -3.5682782   -1.9863913   0.23939209   -3.5682782    1.5818869  1197803 
 7011000    1.4377488   -3.5683636   -1.9860887    0.2454087   -3.5683636    1.5822749  1197837 
 7012000    1.4373742   -3.5678781   -1.9860512   0.24477203   -3.5678781    1.5818269  1197864 
 7013000    1.4378516   -3.5688344   -1.9865204   0.23967824   -3.5688344     1.582314  1197893 
 7014000    1.4386298   -3.5698006   -1.9866672   0.24080421   -3.5698006    1.5831334  1197921 
 7015000    1.4377196   -3.5688698   -1.9867724   0.23709873   -3.5688698    1.5820974  1197947 
 7016000    1.4386278   -3.5693908   -1.9863364   0.24035622   -3.5693908    1.5830545  1197979 
 7017000    1.4382666    -3.568807   -1.9861618   0.24129696    -3.568807    1.5826452  1197988 
 7018000    1.4393296   -3.5697516   -1.9859645     0.237776   -3.5697516    1.5837871  1198009 
 7019000    1.4378944   -3.5677263   -1.9855488   0.24640706   -3.5677263    1.5821775  1198032 
 7020000    1.4396877   -3.5695484   -1.9854241   0.24404529   -3.5695484    1.5841243  1198052 
 7021000    1.4377272   -3.5678018   -1.9858597   0.24412488   -3.5678018     1.581942  1198071 
 7022000    1.4388231    -3.568814   -1.9857072   0.24201139    -3.568814    1.5831069  1198102 
 7023000    1.4388566   -3.5688706   -1.9857915   0.24073784   -3.5688706     1.583079  1198151 
 7024000    1.4385275   -3.5686878   -1.9860039   0.24225664   -3.5686878    1.5826838  1198176 
 7025000    1.4381775   -3.5686638   -1.9864112    0.2410581   -3.5686638    1.5822526  1198211 
 7026000    1.4377204   -3.5687078   -1.9869977   0.24221317   -3.5687078    1.5817101  1198241 
 7027000    1.4373557   -3.5688197   -1.9875663   0.24411753   -3.5688197    1.5812534  1198283 
 7028000    1.4380033   -3.5697707   -1.9878471   0.23862601   -3.5697707    1.5819236  1198315 
 7029000    1.4374811   -3.5696158   -1.9882838   0.24270887   -3.5696158     1.581332  1198328 
 7030000    1.4380226   -3.5696389   -1.9877468   0.24228249   -3.5696389    1.5818921  1198355 
 7031000    1.4384342   -3.5701679   -1.9878521   0.24425908   -3.5701679    1.5823158  1198377 
 7032000    1.4379861   -3.5694039   -1.9876298   0.23907987   -3.5694039    1.5817741  1198414 
 7033000    1.4384427   -3.5698677   -1.9876217   0.24313287   -3.5698677    1.5822459  1198437 
 7034000    1.4384866    -3.570111   -1.9878564   0.24396061    -3.570111    1.5822546  1198467 
 7035000    1.4383046   -3.5703568   -1.9883301   0.24048983   -3.5703568    1.5820267  1198488 
 7036000    1.4378118   -3.5703682   -1.9889086   0.23953528   -3.5703682    1.5814596  1198507 
 7037000    1.4377307   -3.5704169   -1.9890743   0.23898984   -3.5704169    1.5813426  1198528 
 7038000    1.4381385   -3.5716448   -1.9898826   0.24131733   -3.5716448    1.5817622  1198550 
 7039000    1.4381266    -3.571407   -1.9896949   0.24262917    -3.571407    1.5817121  1198578 
 7040000    1.4380465   -3.5711067   -1.9895157   0.23864317   -3.5711067    1.5815911  1198603 
 7041000    1.4381653    -3.571236   -1.9895432   0.24232367    -3.571236    1.5816927  1198625 
 7042000    1.4368124   -3.5706748   -1.9905017   0.23839077   -3.5706748    1.5801732  1198649 
 7043000    1.4375822   -3.5710837   -1.9900956   0.23874539   -3.5710837    1.5809881  1198673 
 7044000     1.437362   -3.5713709   -1.9906685   0.24243004   -3.5713709    1.5807024  1198706 
 7045000    1.4381892   -3.5719664   -1.9903887    0.2415535   -3.5719664    1.5815778  1198732 
 7046000    1.4386282    -3.572577    -1.990556   0.23734623    -3.572577     1.582021  1198762 
 7047000    1.4376455   -3.5718792   -1.9909732   0.23771786   -3.5718792     1.580906  1198788 
 7048000    1.4378384     -3.57143   -1.9903527   0.24395967     -3.57143    1.5810772  1198819 
 7049000    1.4384227   -3.5718887   -1.9901993   0.23742059   -3.5718887    1.5816894  1198842 
 7050000    1.4371784   -3.5706858   -1.9904029   0.24520212   -3.5706858    1.5802829  1198871 
 7051000    1.4381798   -3.5717845    -1.990444   0.24124191   -3.5717845    1.5813406  1198904 
 7052000    1.4384684   -3.5720248   -1.9904079   0.24301887   -3.5720248    1.5816169  1198935 
 7053000     1.437657   -3.5711796   -1.9904904   0.24268414   -3.5711796    1.5806892  1198962 
 7054000    1.4386981   -3.5721731   -1.9903668   0.24023756   -3.5721731    1.5818062  1198983 
 7055000    1.4386075   -3.5717343   -1.9900502    0.2415581   -3.5717343    1.5816841  1199000 
 7056000    1.4377124   -3.5714502   -1.9907831   0.24480409   -3.5714502    1.5806671  1199025 
 7057000    1.4382981   -3.5712821   -1.9900107   0.24502324   -3.5712821    1.5812714  1199055 
 7058000    1.4388995   -3.5720645   -1.9901596   0.23974953   -3.5720645    1.5819049  1199076 
 7059000    1.4383751    -3.571645    -1.990347   0.24133003    -3.571645    1.5812981  1199099 
 7060000    1.4372372   -3.5704835   -1.9904615   0.24325817   -3.5704835     1.580022  1199118 
 7061000    1.4385296   -3.5717476   -1.9903338    0.2443004   -3.5717476    1.5814138  1199140 
 7062000    1.4375035   -3.5712092    -1.990955   0.24173492   -3.5712092    1.5802542  1199164 
 7063000    1.4397561   -3.5732744    -1.990569   0.23939243   -3.5732744    1.5827054  1199183 
 7064000    1.4377769   -3.5714668   -1.9909594   0.24209205   -3.5714668    1.5805073  1199200 
 7065000    1.4385549   -3.5727644   -1.9914492   0.23583248   -3.5727644    1.5813151  1199236 
 7066000    1.4383934   -3.5731197   -1.9920112   0.24204561   -3.5731197    1.5811085  1199258 
 7067000    1.4388764   -3.5726635   -1.9910583   0.23750197   -3.5726635    1.5816052  1199284 
 7068000    1.4380953   -3.5731683   -1.9924561   0.23988771   -3.5731683    1.5807123  1199310 
 7069000    1.4380132   -3.5729872   -1.9923902   0.24186609   -3.5729872     1.580597  1199329 
 7070000    1.4394955   -3.5736541   -1.9914633   0.24163205   -3.5736541    1.5821907  1199356 
 7071000     1.438407   -3.5732043   -1.9922575   0.23959564   -3.5732043    1.5809468  1199392 
 7072000    1.4382267   -3.5725221    -1.991805   0.24137723   -3.5725221     1.580717  1199416 
 7073000    1.4381315   -3.5724303   -1.9918469    0.2441698   -3.5724303    1.5805834  1199438 
 7074000    1.4390504   -3.5743681   -1.9928222   0.24080542   -3.5743681    1.5815459  1199474 
 7075000    1.4387216   -3.5732893   -1.9921391   0.24483588   -3.5732893    1.5811503  1199500 
 7076000    1.4384951   -3.5732496   -1.9923825   0.24222588   -3.5732496     1.580867  1199526 
 7077000    1.4383482   -3.5733518   -1.9926778   0.24624261   -3.5733518     1.580674  1199550 
 7078000    1.4382637   -3.5738989   -1.9933573   0.24311667   -3.5738989    1.5805416  1199580 
 7079000    1.4384783   -3.5737307   -1.9929927   0.24031639   -3.5737307    1.5807379  1199610 
 7080000    1.4386366   -3.5736026   -1.9927171   0.24121235   -3.5736026    1.5808855  1199630 
 7081000    1.4393324   -3.5741214   -1.9925109   0.24402835   -3.5741214    1.5816105  1199660 
 7082000    1.4388984   -3.5743022   -1.9932055   0.23720361   -3.5743022    1.5810967  1199688 
 7083000    1.4390603   -3.5745102   -1.9932752   0.23745025   -3.5745102     1.581235  1199718 
 7084000    1.4382942   -3.5737002   -1.9933398   0.24032324   -3.5737002    1.5803604  1199743 
 7085000       1.4379   -3.5736497   -1.9937606   0.24165212   -3.5736497     1.579889  1199772 
 7086000    1.4380615   -3.5739445   -1.9939083   0.24079864   -3.5739445    1.5800362  1199795 
 7087000    1.4380308   -3.5734954   -1.9935258   0.24431635   -3.5734954    1.5799696  1199820 
 7088000    1.4374505   -3.5732504   -1.9939567   0.24187112   -3.5732504    1.5792938  1199849 
 7089000     1.438546   -3.5737993   -1.9933375   0.24508489   -3.5737993    1.5804618  1199876 
 7090000    1.4387988   -3.5743203   -1.9936149   0.24347905   -3.5743203    1.5807053  1199902 
 7091000     1.437977   -3.5743606   -1.9945911    0.2430897   -3.5743606    1.5797695  1199927 
 7092000    1.4396948   -3.5755273   -1.9939101   0.24227925   -3.5755273    1.5816172  1199957 
 7093000    1.4389651   -3.5749462   -1.9941478    0.2408689   -3.5749462    1.5807984  1199970 
 7094000    1.4379147   -3.5736032   -1.9940021    0.2447034   -3.5736032    1.5796011  1200003 
 7095000    1.4381574    -3.573822   -1.9939978   0.24216238    -3.573822    1.5798242  1200036 
 7096000    1.4398289   -3.5749276   -1.9932975   0.24368021   -3.5749276    1.5816301  1200059 
 7097000    1.4390328   -3.5744523   -1.9937429   0.24399438   -3.5744523    1.5807094  1200094 
 7098000    1.4389106   -3.5744711   -1.9939341   0.24590408   -3.5744711     1.580537  1200123 
 7099000    1.4387981   -3.5744656    -1.994089   0.24433248   -3.5744656    1.5803766  1200151 
 7100000    1.4406376    -3.576418   -1.9940604   0.24109399    -3.576418    1.5823576  1200181 
 7101000    1.4400442   -3.5750696   -1.9934007   0.24169558   -3.5750696    1.5816689  1200209 
 7102000    1.4398255   -3.5747993   -1.9934049   0.24578896   -3.5747993    1.5813944  1200235 
 7103000    1.4393548   -3.5745153   -1.9936656   0.24798432   -3.5745153    1.5808497  1200256 
 7104000     1.438774   -3.5749934   -1.9948104   0.24216068   -3.5749934    1.5801829  1200278 
 7105000    1.4381886   -3.5745796   -1.9950791    0.2418726   -3.5745796    1.5795006  1200308 
 7106000    1.4397286   -3.5761876   -1.9950497    0.2375631   -3.5761876    1.5811378  1200349 
 7107000    1.4390898   -3.5757799   -1.9953673   0.24257711   -3.5757799    1.5804126  1200367 
 7108000    1.4391421    -3.575916   -1.9954789   0.23993281    -3.575916    1.5804371  1200392 
 7109000    1.4395086   -3.5756066      -1.9948   0.23920907   -3.5756066    1.5808066  1200417 
 7110000    1.4382042   -3.5745801   -1.9952493   0.24582399   -3.5745801    1.5793308  1200450 
 7111000    1.4392544   -3.5758072    -1.995364   0.24217932   -3.5758072    1.5804432  1200481 
 7112000    1.4398564   -3.5764909   -1.9954181   0.23967291   -3.5764909    1.5810727  1200505 
 7113000     1.439291   -3.5752433   -1.9948126   0.24131381   -3.5752433    1.5804307  1200521 
 7114000     1.439061   -3.5754658   -1.9953258   0.24488095   -3.5754658      1.58014  1200550 
 7115000    1.4391795    -3.576369   -1.9961291   0.24394602    -3.576369    1.5802399  1200573 
 7116000    1.4397565   -3.5770934   -1.9962621   0.24406932   -3.5770934    1.5808313  1200605 
 7117000    1.4399666   -3.5774624   -1.9964425   0.23990746   -3.5774624    1.5810199  1200637 
 7118000    1.4408035   -3.5781887   -1.9962829   0.23848925   -3.5781887    1.5819058  1200662 
 7119000     1.440071    -3.577837   -1.9967736   0.24039444    -3.577837    1.5810634  1200691 
 7120000    1.4400491   -3.5769854   -1.9959724   0.24283658   -3.5769854     1.581013  1200711 
 7121000    1.4394476   -3.5769341    -1.996617   0.24410131   -3.5769341    1.5803171  1200738 
 7122000    1.4400832   -3.5785649   -1.9975751   0.23897662   -3.5785649    1.5809898  1200757 
 7123000    1.4379289   -3.5762186   -1.9976188   0.24374698   -3.5762186    1.5785998  1200776 
 7124000    1.4389936   -3.5779099   -1.9981833   0.23768955   -3.5779099    1.5797266  1200808 
 7125000    1.4390127   -3.5778722   -1.9981721   0.24140455   -3.5778722    1.5797001  1200844 
 7126000    1.4385132   -3.5776878   -1.9985676   0.24240856   -3.5776878    1.5791202  1200868 
 7127000    1.4391599   -3.5777284   -1.9979377   0.24069478   -3.5777284    1.5797907  1200898 
 7128000    1.4400557   -3.5789857   -1.9982433    0.2399628   -3.5789857    1.5807424  1200922 
 7129000    1.4397071   -3.5785324   -1.9982002   0.24168637   -3.5785324    1.5803322  1200943 
 7130000    1.4400224   -3.5787986   -1.9981624   0.24427539   -3.5787986    1.5806362  1200975 
 7131000    1.4395813   -3.5783065   -1.9981875   0.24455666   -3.5783065    1.5801191  1201000 
 7132000    1.4395507   -3.5782516   -1.9981964   0.24100461   -3.5782516    1.5800552  1201023 
 7133000    1.4393885   -3.5777582   -1.9979113   0.24215571   -3.5777582    1.5798469  1201046 
 7134000    1.4389773     -3.57796   -1.9985934   0.24477722     -3.57796    1.5793667  1201068 
 7135000    1.4389578    -3.578021   -1.9987139   0.24063926    -3.578021    1.5793071  1201097 
 7136000    1.4378752   -3.5770843   -1.9990074    0.2460947   -3.5770843    1.5780769  1201129 
 7137000    1.4398696    -3.578962   -1.9987265   0.24216973    -3.578962    1.5802356  1201152 
 7138000    1.4387256     -3.57794   -1.9989902   0.24274718     -3.57794    1.5789497  1201175 
 7139000    1.4409848   -3.5796703   -1.9982807   0.24007405   -3.5796703    1.5813896  1201205 
 7140000    1.4404278   -3.5785102   -1.9977621   0.24342491   -3.5785102    1.5807481  1201228 
 7141000    1.4395014   -3.5776655   -1.9979643   0.24597669   -3.5776655    1.5797012  1201251 
 7142000    1.4399536   -3.5775355   -1.9973775   0.24335597   -3.5775355     1.580158  1201281 
 7143000    1.4394955   -3.5774762   -1.9978485   0.24531553   -3.5774762    1.5796277  1201302 
 7144000    1.4408984   -3.5788197   -1.9976709   0.24449442   -3.5788197    1.5811487  1201316 
 7145000    1.4401992   -3.5782153   -1.9978641   0.24691584   -3.5782153    1.5803512  1201339 
 7146000    1.4409683   -3.5794618   -1.9982969   0.24157708   -3.5794618    1.5811649  1201362 
 7147000    1.4403926   -3.5783632   -1.9978695   0.24224168   -3.5783632    1.5804937  1201392 
 7148000    1.4399698    -3.578213   -1.9982239   0.24229076    -3.578213    1.5799891  1201423 
 7149000    1.4411561   -3.5787981   -1.9975456   0.24470079   -3.5787981    1.5812525  1201452 
 7150000    1.4414279    -3.578938    -1.997407   0.23903947    -3.578938     1.581531  1201467 
 7151000    1.4399928   -3.5782977   -1.9983861   0.24504907   -3.5782977    1.5799117  1201501 
 7152000    1.4394667   -3.5777022   -1.9983993   0.24219276   -3.5777022    1.5793029  1201525 
 7153000    1.4416716   -3.5800512    -1.998366   0.23801485   -3.5800512    1.5816852  1201553 
 7154000    1.4389151   -3.5774772   -1.9988399   0.24822176   -3.5774772    1.5786373  1201571 
 7155000     1.441963   -3.5813481   -1.9993999   0.23824717   -3.5813481    1.5819483  1201596 
 7156000    1.4397393   -3.5781611   -1.9986932   0.24318744   -3.5781611     1.579468  1201627 
 7157000    1.4413659   -3.5796861     -1.99846   0.24316523   -3.5796861    1.5812261  1201647 
 7158000    1.4413512   -3.5802186   -1.9990469   0.24541669   -3.5802186    1.5811718  1201676 
 7159000    1.4404677   -3.5797665    -1.999602   0.24392319   -3.5797665    1.5801645  1201705 
 7160000    1.4407874   -3.5800765   -1.9995929   0.24429379   -3.5800765    1.5804836  1201729 
 7161000    1.4403813   -3.5793307   -1.9993242   0.24473033   -3.5793307    1.5800065  1201753 
 7162000    1.4403348   -3.5793575   -1.9994427   0.24390516   -3.5793575    1.5799148  1201784 
 7163000    1.4412509   -3.5794246   -1.9985378   0.24480938   -3.5794246    1.5808867  1201809 
 7164000    1.4401429   -3.5791594   -1.9995169   0.24410123   -3.5791594    1.5796425  1201831 
 7165000    1.4403875   -3.5799812   -2.0001098    0.2414313   -3.5799812    1.5798714  1201861 
 7166000    1.4403351   -3.5797378   -1.9999541   0.24090335   -3.5797378    1.5797837  1201884 
 7167000    1.4406883   -3.5802855    -2.000167   0.24300183   -3.5802855    1.5801185  1201924 
 7168000    1.4408863   -3.5800853   -1.9997826   0.24296014   -3.5800853    1.5803027  1201949 
 7169000    1.4414775   -3.5809084   -2.0000006   0.24061585   -3.5809084    1.5809078  1201982 
 7170000    1.4405066   -3.5798684   -2.0000543   0.24768688   -3.5798684    1.5798141  1202004 
 7171000     1.439836   -3.5798402   -2.0007984   0.24218846   -3.5798402    1.5790418  1202032 
 7172000    1.4406199   -3.5799029    -2.000029   0.24443675   -3.5799029    1.5798739  1202053 
 7173000    1.4407365    -3.580192   -2.0002257    0.2469583    -3.580192    1.5799662  1202080 
 7174000    1.4422273   -3.5821385   -2.0005821   0.24199614   -3.5821385    1.5815564  1202114 
 7175000    1.4419879   -3.5814483   -2.0001978   0.24368749   -3.5814483    1.5812504  1202147 
 7176000    1.4407615   -3.5811525   -2.0012771   0.24436985   -3.5811525    1.5798754  1202170 
 7177000    1.4404085   -3.5806124   -2.0011634   0.24673141   -3.5806124    1.5794489  1202200 
 7178000    1.4396924   -3.5800513   -2.0014296   0.24858805   -3.5800513    1.5786216  1202232 
 7179000    1.4407088   -3.5810599   -2.0013619   0.24751075   -3.5810599     1.579698  1202261 
 7180000     1.439693   -3.5800065   -2.0014525   0.24913676   -3.5800065     1.578554  1202284 
 7181000    1.4405727   -3.5812487   -2.0017696   0.24331269   -3.5812487    1.5794791  1202314 
 7182000    1.4415843   -3.5819271   -2.0013716   0.24444339   -3.5819271    1.5805555  1202339 
 7183000    1.4413396   -3.5822126   -2.0019583   0.24289379   -3.5822126    1.5802543  1202364 
 7184000    1.4401468   -3.5808429   -2.0019213   0.24550103   -3.5808429    1.5789216  1202383 
 7185000    1.4411689   -3.5819446   -2.0019405   0.24348195   -3.5819446    1.5800041  1202412 
 7186000    1.4405062   -3.5810722   -2.0018223   0.23931364   -3.5810722    1.5792499  1202433 
 7187000    1.4408978   -3.5815848   -2.0019384   0.24129481   -3.5815848    1.5796464  1202458 
 7188000    1.4425072   -3.5840404   -2.0026651   0.24181347   -3.5840404    1.5813753  1202485 
 7189000    1.4417807    -3.582231   -2.0016759   0.24367921    -3.582231    1.5805551  1202503 
 7190000    1.4416201    -3.582024   -2.0016883   0.24361301    -3.582024    1.5803357  1202536 
 7191000    1.4415545   -3.5821356   -2.0019046   0.24453575   -3.5821356     1.580231  1202561 
 7192000    1.4408633   -3.5817594   -2.0023176   0.24102661   -3.5817594    1.5794418  1202585 
 7193000    1.4414754   -3.5819157   -2.0018489   0.24391905   -3.5819157    1.5800668  1202620 
 7194000    1.4396453   -3.5794821    -2.001449   0.24855381   -3.5794821    1.5780331  1202641 
 7195000    1.4411504   -3.5820051   -2.0023497    0.2436625   -3.5820051    1.5796554  1202662 
 7196000    1.4406013   -3.5817704   -2.0027471   0.24528391   -3.5817704    1.5790232  1202685 
 7197000    1.4423848   -3.5825206   -2.0015675   0.24532863   -3.5825206    1.5809531  1202704 
 7198000    1.4417589   -3.5820983    -2.001856   0.24573801   -3.5820983    1.5802422  1202723 
 7199000    1.4403274   -3.5808777   -2.0022307   0.24530408   -3.5808777     1.578647  1202743 
 7200000    1.4421642   -3.5829104   -2.0022739   0.23951823   -3.5829104    1.5806365  1202761 
 7201000    1.4420989   -3.5828473   -2.0023008   0.23995588   -3.5828473    1.5805465  1202775 
 7202000    1.4414247   -3.5818076   -2.0020395    0.2444847   -3.5818076    1.5797682  1202805 
 7203000    1.4415551   -3.5824989   -2.0026285   0.24240577   -3.5824989    1.5798704  1202836 
 7204000    1.4413144   -3.5822795   -2.0027084   0.24388844   -3.5822795    1.5795711  1202863 
 7205000    1.4413631   -3.5821865   -2.0025948   0.24797074   -3.5821865    1.5795917  1202888 
 7206000    1.4408153   -3.5817915   -2.0028264   0.24253598   -3.5817915    1.5789651  1202908 
 7207000    1.4420449   -3.5829215   -2.0026458   0.24449317   -3.5829215    1.5802758  1202936 
 7208000    1.4425148   -3.5839657   -2.0032065   0.24357221   -3.5839657    1.5807592  1202960 
 7209000    1.4418251   -3.5835588   -2.0035922   0.24364071   -3.5835588    1.5799666  1202988 
 7210000    1.4416409   -3.5836246   -2.0039044   0.24223054   -3.5836246    1.5797201  1203022 
 7211000    1.4412495   -3.5822379   -2.0029742   0.24579364   -3.5822379    1.5792637  1203043 
 7212000    1.4423404   -3.5840375   -2.0036219   0.24249908   -3.5840375    1.5804156  1203076 
 7213000    1.4415749   -3.5835062   -2.0039622   0.24507632   -3.5835062     1.579544  1203101 
 7214000    1.4422543    -3.584204    -2.003947   0.24435153    -3.584204     1.580257  1203125 
 7215000    1.4414331   -3.5837814   -2.0044425   0.24442097   -3.5837814    1.5793388  1203139 
 7216000    1.4411358   -3.5835169   -2.0045261   0.24876316   -3.5835169    1.5789908  1203156 
 7217000    1.4410532    -3.583771   -2.0049114   0.24340424    -3.583771    1.5788596  1203187 
 7218000    1.4421108    -3.584499   -2.0045149   0.24725616    -3.584499    1.5799842  1203213 
 7219000    1.4410903   -3.5834205   -2.0045754   0.24711074   -3.5834205    1.5788451  1203229 
 7220000    1.4410687   -3.5840595   -2.0052656   0.24381852   -3.5840595    1.5787939  1203250 
 7221000    1.4407738   -3.5834294   -2.0050059   0.24311888   -3.5834294    1.5784236  1203286 
 7222000    1.4410223     -3.58367   -2.0050083   0.24411339     -3.58367    1.5786617  1203312 
 7223000    1.4411591   -3.5840847   -2.0052994   0.24556244   -3.5840847    1.5787853  1203332 
 7224000    1.4406231   -3.5839712   -2.0058019   0.24912113   -3.5839712    1.5781693  1203354 
 7225000     1.441074   -3.5845219   -2.0058888   0.24569577   -3.5845219    1.5786331  1203377 
 7226000    1.4408572    -3.583888   -2.0055279   0.25175138    -3.583888    1.5783601  1203404 
 7227000    1.4406611   -3.5837379   -2.0056213   0.24294096   -3.5837379    1.5781165  1203426 
 7228000    1.4415219   -3.5847783   -2.0057503   0.24435826   -3.5847783     1.579028  1203450 
 7229000    1.4418827   -3.5849662   -2.0055745   0.24306114   -3.5849662    1.5793917  1203474 
 7230000    1.4414429   -3.5841705   -2.0052855   0.24832158   -3.5841705     1.578885  1203493 
 7231000    1.4419365   -3.5842404   -2.0048475   0.24450546   -3.5842404    1.5793929  1203518 
 7232000      1.44202   -3.5842021   -2.0047558   0.24559989   -3.5842021    1.5794463  1203547 
 7233000    1.4421347   -3.5837778   -2.0042545   0.24639202   -3.5837778    1.5795233  1203584 
 7234000    1.4418774   -3.5840699   -2.0048638   0.24624136   -3.5840699    1.5792061  1203611 
 7235000    1.4414584   -3.5840494   -2.0053271   0.24363966   -3.5840494    1.5787223  1203630 
 7236000     1.442447   -3.5846029   -2.0048346   0.24540558   -3.5846029    1.5797683  1203658 
 7237000    1.4422386   -3.5840705   -2.0045738   0.24568752   -3.5840705    1.5794968  1203691 
 7238000    1.4428854   -3.5850745   -2.0049128   0.24440009   -3.5850745    1.5801618  1203724 
 7239000    1.4418519   -3.5847877   -2.0057958   0.23974875   -3.5847877    1.5789919  1203753 
 7240000    1.4408591   -3.5843422   -2.0064729   0.24742827   -3.5843422    1.5778693  1203780 
 7241000    1.4423398   -3.5858812   -2.0064127   0.24064545   -3.5858812    1.5794685  1203797 
 7242000    1.4422784   -3.5857783   -2.0064033   0.23997544   -3.5857783     1.579375  1203817 
 7243000    1.4424671   -3.5855661   -2.0060239   0.24292857   -3.5855661    1.5795423  1203847 
 7244000    1.4435254   -3.5865712   -2.0059161   0.24138139   -3.5865712    1.5806551  1203882 
 7245000     1.442141   -3.5852149   -2.0061137   0.24681456   -3.5852149    1.5791012  1203911 
 7246000    1.4418724   -3.5853471   -2.0065767   0.24634128   -3.5853471    1.5787704  1203939 
 7247000    1.4411163   -3.5849466   -2.0070342   0.24603704   -3.5849466    1.5779123  1203962 
 7248000    1.4414914   -3.5851168   -2.0068213   0.24734828   -3.5851168    1.5782955  1203983 
 7249000    1.4415392   -3.5853516   -2.0070286   0.24712958   -3.5853516     1.578323  1204002 
 7250000    1.4425797    -3.586275   -2.0068391   0.24178583    -3.586275    1.5794359  1204022 
 7251000    1.4426067      -3.5865   -2.0070567   0.24541529      -3.5865    1.5794433  1204039 
 7252000    1.4429231   -3.5865969   -2.0068427   0.24692466   -3.5865969    1.5797543  1204066 
 7253000    1.4430631   -3.5863856   -2.0065122   0.24736577   -3.5863856    1.5798734  1204092 
 7254000    1.4431013   -3.5865979   -2.0067207   0.24589679   -3.5865979    1.5798772  1204121 
 7255000    1.4428109   -3.5856808   -2.0061543   0.24666542   -3.5856808    1.5795265  1204146 
 7256000    1.4435334   -3.5868073    -2.006524   0.24778233   -3.5868073    1.5802832  1204172 
 7257000    1.4429166   -3.5861026   -2.0065287   0.24701339   -3.5861026    1.5795739  1204198 
 7258000    1.4427515   -3.5860801   -2.0067341   0.24842103   -3.5860801    1.5793459  1204234 
 7259000    1.4433216   -3.5862197   -2.0062733   0.24420724   -3.5862197    1.5799464  1204252 
 7260000    1.4427104   -3.5855372   -2.0062873   0.24677437   -3.5855372    1.5792499  1204273 
 7261000    1.4437039   -3.5868773   -2.0065807   0.24412006   -3.5868773    1.5802967  1204304 
 7262000    1.4426846   -3.5860652   -2.0069066   0.24480246   -3.5860652    1.5791586  1204321 
 7263000    1.4435017   -3.5866945   -2.0066782   0.24507434   -3.5866945    1.5800163  1204349 
 7264000    1.4435878   -3.5865384   -2.0064646   0.24487272   -3.5865384    1.5800738  1204377 
 7265000    1.4444498   -3.5870974   -2.0061195   0.24423813   -3.5870974    1.5809779  1204407 
 7266000    1.4435477   -3.5864335   -2.0064718   0.24845419   -3.5864335    1.5799617  1204429 
 7267000    1.4422498   -3.5852537   -2.0067453   0.25062601   -3.5852537    1.5785084  1204454 
 7268000    1.4435664   -3.5868809   -2.0069565   0.24438268   -3.5868809    1.5799245  1204473 
 7269000    1.4435148   -3.5873198   -2.0074768   0.24098302   -3.5873198     1.579843  1204492 
 7270000    1.4431173   -3.5858552   -2.0064774   0.24601138   -3.5858552    1.5793778  1204515 
 7271000     1.443409   -3.5860904   -2.0064221   0.24926349   -3.5860904    1.5796683  1204537 
 7272000    1.4431549   -3.5864017   -2.0070443   0.24570488   -3.5864017    1.5793574  1204562 
 7273000    1.4441355   -3.5875095   -2.0071157   0.24541624   -3.5875095    1.5803938  1204590 
 7274000     1.443437   -3.5865021   -2.0069003   0.24791203   -3.5865021    1.5796019  1204611 
 7275000    1.4436457   -3.5870666   -2.0072652   0.24759835   -3.5870666    1.5798014  1204633 
 7276000    1.4428165   -3.5862861   -2.0074183   0.24983154   -3.5862861    1.5788678  1204653 
 7277000    1.4434096   -3.5873375   -2.0078404   0.24785431   -3.5873375    1.5794971  1204668 
 7278000    1.4433448   -3.5880098   -2.0086176   0.24628466   -3.5880098    1.5793922  1204694 
 7279000    1.4438265   -3.5884016   -2.0085217   0.24572419   -3.5884016    1.5798799  1204724 
 7280000    1.4440904   -3.5884849    -2.008345   0.24727054   -3.5884849    1.5801399  1204746 
 7281000    1.4434424    -3.587812   -2.0084193    0.2473144    -3.587812    1.5793927  1204775 
 7282000    1.4437934   -3.5879295   -2.0081868    0.2477644   -3.5879295    1.5797427  1204801 
 7283000    1.4432163   -3.5872995   -2.0082171   0.25033036   -3.5872995    1.5790824  1204823 
 7284000     1.443144    -3.587176   -2.0082001   0.25246742    -3.587176    1.5789758  1204844 
 7285000    1.4436969   -3.5877389   -2.0081909   0.24894288   -3.5877389    1.5795479  1204869 
 7286000     1.443674   -3.5878941   -2.0084131    0.2434439   -3.5878941     1.579481  1204901 
 7287000    1.4439721   -3.5887364   -2.0089543   0.24651995   -3.5887364    1.5797822  1204920 
 7288000     1.443766   -3.5885282   -2.0089951   0.24381866   -3.5885282    1.5795331  1204938 
 7289000    1.4424981   -3.5876297    -2.009506   0.24926973   -3.5876297    1.5781237  1204955 
 7290000     1.442911   -3.5870586   -2.0085093   0.25322238   -3.5870586    1.5785493  1204975 
 7291000      1.44321   -3.5878362   -2.0089847    0.2474395   -3.5878362    1.5788515  1204994 
 7292000    1.4431238   -3.5879782    -2.009246   0.24573329   -3.5879782    1.5787322  1205013 
 7293000    1.4428411   -3.5875246   -2.0091383   0.24922316   -3.5875246    1.5783863  1205041 
 7294000    1.4434899   -3.5883585   -2.0092991   0.24798725   -3.5883585    1.5790594  1205069 
 7295000    1.4443516   -3.5892738   -2.0093084   0.24562131   -3.5892738    1.5799654  1205097 
 7296000     1.443756   -3.5888987   -2.0096111   0.24487246   -3.5888987    1.5792876  1205117 
 7297000    1.4429036   -3.5878903   -2.0095719   0.24692528   -3.5878903    1.5783184  1205145 
 7298000    1.4424472   -3.5874241    -2.009631   0.25275838   -3.5874241    1.5777931  1205165 
 7299000    1.4429887   -3.5879671    -2.009604    0.2466671   -3.5879671    1.5783631  1205182 
 7300000    1.4430909    -3.588188   -2.0097459    0.2499978    -3.588188    1.5784421  1205207 
 7301000    1.4428535   -3.5883858   -2.0102386    0.2496518   -3.5883858    1.5781472  1205234 
 7302000    1.4430757   -3.5889707   -2.0106172   0.24893282   -3.5889707    1.5783535  1205262 
 7303000    1.4438614   -3.5899781   -2.0107954   0.24799042   -3.5899781    1.5791827  1205285 
 7304000     1.443244   -3.5889801   -2.0105066   0.24826017   -3.5889801    1.5784734  1205311 
 7305000    1.4441176    -3.590393   -2.0110113   0.24567003    -3.590393    1.5793817  1205347 
 7306000    1.4428943   -3.5891254    -2.011117   0.24840542   -3.5891254    1.5780084  1205374 
 7307000    1.4429115   -3.5887941   -2.0107891   0.24859658   -3.5887941     1.578005  1205391 
 7308000    1.4436639   -3.5901458   -2.0113441   0.25029231   -3.5901458    1.5788017  1205411 
 7309000    1.4430709   -3.5893851   -2.0112621   0.24981756   -3.5893851     1.578123  1205434 
 7310000    1.4440268   -3.5903182   -2.0111813   0.24611157   -3.5903182     1.579137  1205458 
 7311000    1.4431272   -3.5893772   -2.0112581   0.25258796   -3.5893772    1.5781191  1205484 
 7312000     1.443408   -3.5902545   -2.0118663   0.24963459   -3.5902545    1.5783882  1205513 
 7313000    1.4435576   -3.5901577    -2.011636   0.24811139   -3.5901577    1.5785217  1205536 
 7314000    1.4441534   -3.5901801   -2.0110448   0.24787356   -3.5901801    1.5791353  1205565 
 7315000    1.4436636   -3.5898319   -2.0112623   0.24619732   -3.5898319    1.5785696  1205588 
 7316000    1.4443647   -3.5901614   -2.0108593   0.24789647   -3.5901614    1.5793021  1205614 
 7317000    1.4438653   -3.5901564   -2.0114331   0.24903323   -3.5901564    1.5787233  1205639 
 7318000    1.4446318   -3.5910901   -2.0115509   0.24402412   -3.5910901    1.5795391  1205656 
 7319000    1.4443994   -3.5913339   -2.0120883   0.24153295   -3.5913339    1.5792457  1205686 
 7320000    1.4432558   -3.5900727   -2.0121075   0.24625137   -3.5900727    1.5779652  1205709 
 7321000    1.4431589   -3.5902208   -2.0123851   0.25001215   -3.5902208    1.5778357  1205727 
 7322000    1.4435678   -3.5901916   -2.0119388   0.24372792   -3.5901916    1.5782527  1205750 
 7323000    1.4444303   -3.5907097   -2.0115402   0.24186975   -3.5907097    1.5791695  1205770 
 7324000    1.4443503   -3.5908115   -2.0117557   0.24404319   -3.5908115    1.5790558  1205790 
 7325000    1.4438562    -3.590414   -2.0119206   0.24888987    -3.590414    1.5784934  1205807 
 7326000    1.4438119   -3.5905044   -2.0120921   0.24428418   -3.5905044    1.5784122  1205832 
 7327000    1.4436613   -3.5902342    -2.012014   0.24961511   -3.5902342    1.5782202  1205853 
 7328000    1.4453049   -3.5911592   -2.0111698   0.24649957   -3.5911592    1.5799894  1205874 
 7329000    1.4433021   -3.5901728   -2.0124095   0.24737501   -3.5901728    1.5777633  1205902 
 7330000    1.4433517   -3.5900553   -2.0122705   0.24843715   -3.5900553    1.5777848  1205927 
 7331000     1.444671    -3.591192   -2.0119977   0.24693108    -3.591192    1.5791943  1205952 
 7332000    1.4446175   -3.5912387   -2.0121356   0.25051519   -3.5912387    1.5791031  1205977 
 7333000    1.4448285   -3.5915597   -2.0122679   0.24805185   -3.5915597    1.5792918  1206009 
 7334000    1.4448721   -3.5911121   -2.0118146   0.25128214   -3.5911121    1.5792975  1206041 
 7335000    1.4441722   -3.5907698   -2.0122699   0.25163729   -3.5907698    1.5784999  1206066 
 7336000    1.4445821   -3.5914978   -2.0125813   0.24784126   -3.5914978    1.5789164  1206090 
 7337000    1.4434525    -3.590754   -2.0131037   0.24719702    -3.590754    1.5776504  1206114 
 7338000    1.4449472   -3.5920111   -2.0127558   0.24853477   -3.5920111    1.5792553  1206136 
 7339000    1.4447309   -3.5923498   -2.0133584   0.24696399   -3.5923498    1.5789914  1206157 
 7340000    1.4450182   -3.5925715    -2.013295   0.24421718   -3.5925715    1.5792765  1206179 
 7341000     1.443242   -3.5906686   -2.0133673   0.25167088   -3.5906686    1.5773013  1206205 
 7342000    1.4436507   -3.5920695   -2.0143516    0.2468941   -3.5920695    1.5777179  1206228 
 7343000    1.4436805   -3.5923931   -2.0146676   0.24266379   -3.5923931    1.5777256  1206247 
 7344000    1.4436045   -3.5920343   -2.0144231   0.24650039   -3.5920343    1.5776112  1206271 
 7345000    1.4449197   -3.5925255   -2.0135046   0.24559501   -3.5925255     1.579021  1206292 
 7346000    1.4438813   -3.5921335   -2.0142709    0.2454002   -3.5921335    1.5778626  1206310 
 7347000    1.4446462   -3.5927307   -2.0140597   0.24347353   -3.5927307     1.578671  1206331 
 7348000    1.4440687   -3.5914567   -2.0134442   0.24790315   -3.5914567    1.5780125  1206352 
 7349000    1.4444486   -3.5922982   -2.0138954   0.24161151   -3.5922982    1.5784028  1206371 
 7350000    1.4454034   -3.5930664   -2.0136412   0.24940348   -3.5930664    1.5794252  1206387 
 7351000     1.444656   -3.5924171   -2.0138492   0.24526555   -3.5924171    1.5785679  1206418 
 7352000    1.4436199    -3.591485   -2.0140872   0.24724957    -3.591485    1.5773978  1206447 
 7353000     1.444281   -3.5922658   -2.0141835   0.24723199   -3.5922658    1.5780822  1206476 
 7354000    1.4449764    -3.593138   -2.0143299   0.25003196    -3.593138    1.5788081  1206502 
 7355000    1.4444082   -3.5923028   -2.0141456   0.25063635   -3.5923028    1.5781572  1206525 
 7356000    1.4442299   -3.5919193   -2.0139962   0.24876174   -3.5919193    1.5779231  1206555 
 7357000    1.4447451   -3.5928359   -2.0143644   0.24268964   -3.5928359    1.5784716  1206566 
 7358000    1.4448749   -3.5933973   -2.0148205   0.24552356   -3.5933973    1.5785768  1206594 
 7359000    1.4439334   -3.5922879    -2.014779   0.24884256   -3.5922879     1.577509  1206624 
 7360000    1.4444219    -3.593312   -2.0153086   0.24239278    -3.593312    1.5780034  1206654 
 7361000    1.4446447   -3.5933948   -2.0151781   0.24406205   -3.5933948    1.5782167  1206677 
 7362000    1.4440498   -3.5928721   -2.0153458   0.24597166   -3.5928721    1.5775262  1206708 
 7363000    1.4453627    -3.593965   -2.0150267   0.24371584    -3.593965    1.5789383  1206725 
 7364000    1.4446506   -3.5935551   -2.0154314   0.24856973   -3.5935551    1.5781237  1206753 
 7365000    1.4434535   -3.5923073   -2.0155343   0.25161331   -3.5923073     1.576773  1206786 
 7366000    1.4449282   -3.5940612   -2.0157218   0.24906285   -3.5940612    1.5783394  1206820 
 7367000    1.4444753   -3.5934441   -2.0156347   0.24682896   -3.5934441    1.5778093  1206847 
 7368000     1.444314   -3.5929494   -2.0153411   0.24847178   -3.5929494    1.5776083  1206866 
 7369000    1.4447029   -3.5934573   -2.0154503   0.24611744   -3.5934573     1.578007  1206886 
 7370000    1.4445417   -3.5935221   -2.0157199   0.24640409   -3.5935221    1.5778022  1206908 
 7371000    1.4443923   -3.5932892   -2.0156777   0.24987749   -3.5932892    1.5776116  1206929 
 7372000     1.445203   -3.5944882   -2.0160186   0.24991111   -3.5944882    1.5784695  1206950 
 7373000    1.4452684   -3.5947261   -2.0162218   0.24664866   -3.5947261    1.5785043  1206978 
 7374000    1.4446862   -3.5933983   -2.0155534   0.24684214   -3.5933983     1.577845  1206996 
 7375000    1.4457384    -3.595176   -2.0162146   0.24720571    -3.595176    1.5789614  1207021 
 7376000    1.4447855   -3.5933081   -2.0154123   0.25017969   -3.5933081    1.5778958  1207040 
 7377000    1.4449867   -3.5935652   -2.0154809   0.24955178   -3.5935652    1.5780843  1207064 
 7378000    1.4453429   -3.5942711   -2.0158371   0.24584122   -3.5942711     1.578434  1207094 
 7379000    1.4453762   -3.5942976   -2.0158652   0.25155548   -3.5942976    1.5784325  1207123 
 7380000    1.4453225   -3.5942439   -2.0159172   0.25077106   -3.5942439    1.5783267  1207159 
 7381000    1.4446718    -3.594106   -2.0165278   0.24982535    -3.594106    1.5775783  1207188 
 7382000    1.4442033   -3.5939861   -2.0169547   0.25206676   -3.5939861    1.5770314  1207215 
 7383000    1.4453147   -3.5950654   -2.0168453   0.24574253   -3.5950654    1.5782202  1207234 
 7384000     1.444531   -3.5941702   -2.0168345   0.24616923   -3.5941702    1.5773357  1207256 
 7385000    1.4445726   -3.5942289   -2.0168739    0.2461068   -3.5942289     1.577355  1207276 
 7386000    1.4458247   -3.5954283   -2.0167271   0.24546613   -3.5954283    1.5787013  1207292 
 7387000    1.4449277   -3.5944733    -2.016792   0.24609268   -3.5944733    1.5776812  1207323 
 7388000    1.4447349   -3.5942297   -2.0167903   0.24671318   -3.5942297    1.5774395  1207347 
 7389000    1.4452197    -3.595727   -2.0177922   0.24140954    -3.595727    1.5779348  1207373 
 7390000    1.4446649    -3.595405   -2.0181165   0.24426048    -3.595405    1.5772885  1207404 
 7391000    1.4456673   -3.5957889   -2.0174308   0.25382706   -3.5957889    1.5783581  1207423 
 7392000    1.4451149   -3.5947466   -2.0170203   0.24915571   -3.5947466    1.5777262  1207445 
 7393000    1.4456987   -3.5956071   -2.0172854   0.24970009   -3.5956071    1.5783217  1207477 
 7394000    1.4447986   -3.5954178   -2.0181087   0.24804808   -3.5954178    1.5773091  1207500 
 7395000    1.4450019   -3.5963881   -2.0188845   0.24291965   -3.5963881    1.5775036  1207521 
 7396000    1.4443696   -3.5961661   -2.0193788   0.24876469   -3.5961661    1.5767872  1207541 
 7397000    1.4447011   -3.5964165   -2.0192975   0.24304725   -3.5964165     1.577119  1207564 
 7398000    1.4451457   -3.5964926   -2.0189209   0.25097594   -3.5964926    1.5775717  1207589 
 7399000    1.4446509   -3.5961983   -2.0191954   0.24653798   -3.5961983    1.5770029  1207611 
 7400000     1.445196   -3.5970771   -2.0195158   0.24598758   -3.5970771    1.5775613  1207639 
 7401000    1.4459273   -3.5979512   -2.0196191   0.24637003   -3.5979512    1.5783321  1207660 
 7402000    1.4451207   -3.5969286   -2.0194952   0.24554247   -3.5969286    1.5774334  1207674 
 7403000    1.4447645    -3.596462    -2.019467    0.2476637    -3.596462     1.576995  1207712 
 7404000    1.4448617    -3.596828   -2.0197543   0.24757634    -3.596828    1.5770737  1207733 
 7405000     1.444964   -3.5964322   -2.0192782   0.24919805   -3.5964322     1.577154  1207757 
 7406000    1.4453393   -3.5969764   -2.0194441   0.24590877   -3.5969764    1.5775323  1207781 
 7407000    1.4458173   -3.5971981   -2.0191782   0.24744488   -3.5971981    1.5780199  1207807 
 7408000    1.4449804   -3.5964906   -2.0194207   0.24781445   -3.5964906      1.57707  1207835 
 7409000     1.445109   -3.5968552   -2.0196827   0.25139059   -3.5968552    1.5771725  1207864 
 7410000    1.4451979   -3.5963752   -2.0191475   0.24876747   -3.5963752    1.5772277  1207896 
 7411000     1.444376   -3.5962756    -2.019967   0.24773739   -3.5962756    1.5763086  1207913 
 7412000    1.4457764   -3.5973725   -2.0195671   0.24730333   -3.5973725    1.5778055  1207937 
 7413000    1.4448866   -3.5969104    -2.020119   0.24406007   -3.5969104    1.5767914  1207970 
 7414000    1.4442779   -3.5961821   -2.0200811   0.24847626   -3.5961821     1.576101  1207990 
 7415000    1.4439901   -3.5955658    -2.019818   0.24808686   -3.5955658    1.5757479  1208020 
 7416000    1.4440843   -3.5955793   -2.0197652   0.25047999   -3.5955793    1.5758141  1208048 
 7417000     1.444705   -3.5959489   -2.0194914   0.24796393   -3.5959489    1.5764575  1208074 
 7418000      1.44616     -3.59731   -2.0192935   0.24713393     -3.59731    1.5780165  1208096 
 7419000    1.4461312   -3.5972964   -2.0193349   0.24606426   -3.5972964    1.5779615  1208114 
 7420000    1.4460197   -3.5972607    -2.019447   0.24678584   -3.5972607    1.5778138  1208134 
 7421000    1.4463707   -3.5973257   -2.0191538   0.24557041   -3.5973257    1.5781719  1208153 
 7422000    1.4465987   -3.5971866   -2.0187986   0.24635777   -3.5971866     1.578388  1208178 
 7423000    1.4459589   -3.5966048   -2.0189423   0.25464953   -3.5966048    1.5776625  1208199 
 7424000    1.4461486   -3.5968701   -2.0190385   0.25007986   -3.5968701    1.5778316  1208228 
 7425000    1.4473175   -3.5980448   -2.0189705   0.24939592   -3.5980448    1.5790742  1208253 
 7426000    1.4456379   -3.5958617   -2.0186474   0.25530516   -3.5958617    1.5772143  1208274 
 7427000    1.4470596    -3.598118   -2.0193878   0.24924349    -3.598118    1.5787302  1208301 
 7428000    1.4465402   -3.5970481   -2.0189264   0.25067213   -3.5970481    1.5781217  1208333 
 7429000    1.4457263   -3.5971283   -2.0199219   0.25072019   -3.5971283    1.5772064  1208354 
 7430000    1.4465752   -3.5985591   -2.0204606   0.24986962   -3.5985591    1.5780985  1208380 
 7431000     1.446127   -3.5975505   -2.0199736   0.25303699   -3.5975505    1.5775769  1208405 
 7432000    1.4455639    -3.597479   -2.0205385   0.24787444    -3.597479    1.5769405  1208422 
 7433000    1.4461033   -3.5981314   -2.0206377   0.25091105   -3.5981314    1.5774937  1208449 
 7434000     1.445461   -3.5989075   -2.0221458    0.2483072   -3.5989075    1.5767617  1208473 
 7435000    1.4461329   -3.5994717   -2.0220058   0.24627123   -3.5994717    1.5774659  1208495 
 7436000    1.4455803   -3.5985856   -2.0217447   0.24759787   -3.5985856    1.5768409  1208512 
 7437000    1.4457141     -3.59847   -2.0215157    0.2501683     -3.59847    1.5769543  1208537 
 7438000    1.4458548   -3.5984189   -2.0213386   0.24926519   -3.5984189    1.5770803  1208558 
 7439000    1.4446762   -3.5979197   -2.0221705   0.24976116   -3.5979197    1.5757491  1208593 
 7440000    1.4459895   -3.5993643   -2.0222141   0.24664032   -3.5993643    1.5771502  1208617 
 7441000    1.4451125   -3.5981588   -2.0220003   0.24841386   -3.5981588    1.5761585  1208644 
 7442000     1.446131   -3.5998579   -2.0226108   0.24973359   -3.5998579    1.5772471  1208661 
 7443000    1.4451028   -3.5989785   -2.0228763   0.24555122   -3.5989785    1.5761022  1208679 
 7444000    1.4452791   -3.5990332   -2.0227686   0.25000127   -3.5990332    1.5762646  1208702 
 7445000    1.4451729    -3.598417   -2.0223009   0.24704879    -3.598417    1.5761161  1208727 
 7446000    1.4459326   -3.5991083   -2.0221963   0.24686632   -3.5991083     1.576912  1208752 
 7447000    1.4457353   -3.5990847   -2.0224152   0.24997727   -3.5990847    1.5766695  1208773 
 7448000    1.4454154   -3.5987037   -2.0224039   0.24899191   -3.5987037    1.5762998  1208789 
 7449000     1.447007   -3.6000096   -2.0220121    0.2503418   -3.6000096    1.5779976  1208818 
 7450000    1.4456638   -3.5991608   -2.0226502   0.24637627   -3.5991608    1.5765106  1208835 
 7451000    1.4467367   -3.5995436   -2.0218917   0.24783086   -3.5995436     1.577652  1208857 
 7452000    1.4472534    -3.600586   -2.0224085   0.24431668    -3.600586    1.5781776  1208886 
 7453000    1.4456288   -3.5991463   -2.0227794   0.24983798   -3.5991463    1.5763669  1208916 
 7454000    1.4462261   -3.5994534   -2.0224613   0.24711416   -3.5994534    1.5769921  1208936 
 7455000    1.4458924   -3.5991679   -2.0225632   0.24685116   -3.5991679    1.5766047  1208954 
 7456000    1.4463819   -3.5999109   -2.0227946   0.24570974   -3.5999109    1.5771163  1208971 
 7457000    1.4461249   -3.5996879   -2.0228726   0.24638915   -3.5996879    1.5768152  1208987 
 7458000    1.4465106   -3.5994122   -2.0222129   0.24964773   -3.5994122    1.5771993  1209015 
 7459000    1.4463886   -3.5993975     -2.02236   0.24556612   -3.5993975    1.5770375  1209037 
 7460000    1.4461258   -3.5997518   -2.0230386   0.24558097   -3.5997518    1.5767132  1209066 
 7461000    1.4457314   -3.5993736   -2.0231205   0.25333251   -3.5993736    1.5762531  1209089 
 7462000    1.4462543   -3.5996628   -2.0228761   0.25167354   -3.5996628    1.5767867  1209117 
 7463000    1.4456289   -3.5993607    -2.023278    0.2502166   -3.5993607    1.5760827  1209134 
 7464000    1.4463509    -3.600259   -2.0234322   0.24740522    -3.600259    1.5768268  1209167 
 7465000    1.4463275   -3.5999958   -2.0232218    0.2493724   -3.5999958     1.576774  1209188 
 7466000    1.4458057   -3.6003125   -2.0241387   0.25159678   -3.6003125    1.5761738  1209212 
 7467000    1.4461878   -3.6008347   -2.0242874   0.24838202   -3.6008347    1.5765473  1209245 
 7468000    1.4470188   -3.6015565   -2.0241372   0.24699843   -3.6015565    1.5774193  1209271 
 7469000    1.4460636   -3.5999547   -2.0236145   0.24982202   -3.5999547    1.5763402  1209300 
 7470000    1.4462508   -3.6004202   -2.0239085   0.24919224   -3.6004202    1.5765117  1209325 
 7471000    1.4465242   -3.6009479   -2.0241826   0.24816778   -3.6009479    1.5767654  1209359 
 7472000    1.4461664     -3.60039   -2.0240354   0.25067024     -3.60039    1.5763546  1209375 
 7473000    1.4466393   -3.6006599   -2.0238134   0.25036555   -3.6006599    1.5768465  1209393 
 7474000    1.4465631   -3.6003901   -2.0236631   0.24769254   -3.6003901     1.576727  1209421 
 7475000    1.4457771   -3.5989456   -2.0231053   0.25239148   -3.5989456    1.5758403  1209444 
 7476000    1.4477274    -3.601355   -2.0234242     0.247429    -3.601355    1.5779309  1209471 
 7477000    1.4471005   -3.6010369   -2.0238155   0.24971952   -3.6010369    1.5772215  1209491 
 7478000    1.4480318   -3.6019524   -2.0237458   0.24515165   -3.6019524    1.5782065  1209514 
 7479000    1.4467794    -3.600872   -2.0240526   0.24837992    -3.600872    1.5768194  1209531 
 7480000    1.4473348   -3.6013685   -2.0239856   0.25119097   -3.6013685    1.5773829  1209563 
 7481000     1.447896   -3.6021634   -2.0241897   0.24505336   -3.6021634    1.5779737  1209579 
 7482000    1.4474958   -3.6015031   -2.0240008   0.24742453   -3.6015031    1.5775023  1209606 
 7483000    1.4469916   -3.6016083   -2.0246815   0.24910676   -3.6016083    1.5769268  1209626 
 7484000    1.4467424   -3.6013474   -2.0247248   0.24651192   -3.6013474    1.5766226  1209651 
 7485000     1.445668   -3.6010826   -2.0256556   0.25236471   -3.6010826     1.575427  1209670 
 7486000    1.4461049   -3.6022629   -2.0263819   0.24467308   -3.6022629     1.575881  1209687 
 7487000     1.446811   -3.6027992   -2.0261801   0.24277327   -3.6027992    1.5766191  1209711 
 7488000    1.4457466    -3.601421   -2.0259891   0.24743728    -3.601421    1.5754319  1209732 
 7489000    1.4456112   -3.6011772   -2.0259176   0.24851413   -3.6011772    1.5752596  1209751 
 7490000    1.4466856   -3.6022986   -2.0258852   0.24813267   -3.6022986    1.5764134  1209764 
 7491000    1.4468808   -3.6022635   -2.0256608    0.2515126   -3.6022635    1.5766027  1209782 
 7492000    1.4464066   -3.6017971   -2.0257424   0.25316646   -3.6017971    1.5760547  1209806 
 7493000    1.4474222   -3.6025499   -2.0254068   0.25227171   -3.6025499    1.5771431  1209820 
 7494000     1.446309   -3.6021526   -2.0262563   0.25270348   -3.6021526    1.5758963  1209846 
 7495000    1.4460935   -3.6017655   -2.0261314   0.25011541   -3.6017655    1.5756341  1209867 
 7496000    1.4471918   -3.6035442   -2.0267447   0.24754905   -3.6035442    1.5767995  1209891 
 7497000    1.4455845   -3.6019155    -2.026901   0.25303781   -3.6019155    1.5750144  1209917 
 7498000    1.4457791   -3.6025641   -2.0273623   0.24847763   -3.6025641    1.5752017  1209936 
 7499000    1.4461259   -3.6037917   -2.0282408   0.24701289   -3.6037917    1.5755509  1209958 
 7500000    1.4455235   -3.6029171   -2.0280472   0.24581121   -3.6029171    1.5748699  1209977 
 7501000    1.4456231   -3.6033609    -2.028406   0.24192605   -3.6033609     1.574955  1209995 
 7502000    1.4456778     -3.60318   -2.0281981   0.24710432     -3.60318     1.574982  1210020 
 7503000    1.4452266   -3.6027164    -2.028252   0.24829085   -3.6027164    1.5744644  1210040 
 7504000    1.4455796   -3.6028992   -2.0280776   0.24870166   -3.6028992    1.5748216  1210061 
 7505000    1.4452024   -3.6028939   -2.0285054   0.24972614   -3.6028939    1.5743886  1210078 
 7506000    1.4465166   -3.6035577   -2.0277896   0.24515081   -3.6035577    1.5757681  1210118 
 7507000    1.4468583   -3.6038661   -2.0277609   0.25101393   -3.6038661    1.5761053  1210145 
 7508000    1.4456969   -3.6025855   -2.0277688    0.2497703   -3.6025855    1.5748167  1210163 
 7509000    1.4457688   -3.6030628   -2.0282056   0.24924865   -3.6030628    1.5748572  1210192 
 7510000    1.4472454   -3.6039466   -2.0275239   0.24734539   -3.6039466    1.5764227  1210225 
 7511000    1.4462619   -3.6026936   -2.0273721   0.24705821   -3.6026936    1.5753215  1210248 
 7512000    1.4475998   -3.6035966   -2.0268504   0.24661992   -3.6035966    1.5767462  1210273 
 7513000    1.4467753   -3.6027196   -2.0268922    0.2508235   -3.6027196    1.5758273  1210289 
 7514000    1.4469828   -3.6030064   -2.0269792   0.25242703   -3.6030064    1.5760272  1210309 
 7515000    1.4462113    -3.602064    -2.026903    0.2475023    -3.602064     1.575161  1210329 
 7516000    1.4473308   -3.6033814   -2.0270402   0.24853967   -3.6033814    1.5763412  1210359 
 7517000    1.4468269   -3.6033598   -2.0275856   0.24722617   -3.6033598    1.5757742  1210373 
 7518000    1.4470192   -3.6033059   -2.0273561   0.24984153   -3.6033059    1.5759498  1210399 
 7519000    1.4473202   -3.6041678   -2.0279215   0.24804394   -3.6041678    1.5762463  1210423 
 7520000    1.4461919   -3.6027221   -2.0277371   0.25263512   -3.6027221     1.574985  1210448 
 7521000    1.4458241   -3.6036385    -2.029097   0.24756239   -3.6036385    1.5745415  1210481 
 7522000    1.4462831   -3.6037612   -2.0287589     0.249571   -3.6037612    1.5750023  1210511 
 7523000    1.4463086   -3.6040517   -2.0290567   0.25222713   -3.6040517    1.5749949  1210538 
 7524000    1.4461458   -3.6040035   -2.0292067   0.24642223   -3.6040035    1.5747968  1210554 
 7525000     1.447264   -3.6052767   -2.0292921   0.24560126   -3.6052767    1.5759845  1210577 
 7526000    1.4469262   -3.6048278   -2.0292384   0.24554638   -3.6048278    1.5755894  1210598 
 7527000    1.4464785     -3.60397   -2.0289058   0.24788878     -3.60397    1.5750642  1210627 
 7528000    1.4462614   -3.6042234   -2.0294151   0.25115061   -3.6042234    1.5748083  1210642 
 7529000     1.447197    -3.605297   -2.0294869   0.24654958    -3.605297    1.5758101  1210655 
 7530000    1.4478402   -3.6052842    -2.028814   0.24786007   -3.6052842    1.5764701  1210686 
 7531000    1.4466027   -3.6040769   -2.0289907   0.25201293   -3.6040769    1.5750862  1210714 
 7532000    1.4485577   -3.6062341   -2.0290571   0.24602009   -3.6062341     1.577177  1210743 
 7533000    1.4473943   -3.6056044   -2.0297135   0.25097331   -3.6056044    1.5758909  1210758 
 7534000    1.4476434   -3.6063294   -2.0302012   0.24521917   -3.6063294    1.5761283  1210784 
 7535000    1.4479155   -3.6059019   -2.0295099    0.2486439   -3.6059019     1.576392  1210809 
 7536000    1.4475443   -3.6057622   -2.0298109   0.24794347   -3.6057622    1.5759514  1210837 
 7537000    1.4471131   -3.6053034   -2.0298592   0.25406725   -3.6053034    1.5754442  1210866 
 7538000    1.4469176   -3.6057362    -2.030514   0.25214439   -3.6057362    1.5752222  1210873 
 7539000    1.4474272   -3.6058686   -2.0301137    0.2465379   -3.6058686    1.5757549  1210890 
 7540000    1.4460358   -3.6046281   -2.0304334   0.24921891   -3.6046281    1.5741947  1210925 
 7541000      1.44646   -3.6048134   -2.0301882   0.25294549   -3.6048134    1.5746252  1210949 
 7542000    1.4477422   -3.6065704   -2.0305897   0.24462138   -3.6065704    1.5759807  1210980 
 7543000     1.446539    -3.605424   -2.0307778   0.24659429    -3.605424    1.5746462  1210999 
 7544000    1.4479286   -3.6063162   -2.0301912   0.25170533   -3.6063162     1.576125  1211025 
 7545000    1.4467048    -3.605561   -2.0308033   0.25066232    -3.605561    1.5747577  1211052 
 7546000    1.4476173   -3.6059949    -2.030266   0.24571907   -3.6059949    1.5757289  1211069 
 7547000    1.4476973   -3.6056816   -2.0298942   0.24960938   -3.6056816    1.5757874  1211091 
 7548000    1.4474617   -3.6048154   -2.0293078   0.25321843   -3.6048154    1.5755075  1211109 
 7549000    1.4473793   -3.6044153   -2.0290391   0.25380045   -3.6044153    1.5753762  1211141 
 7550000    1.4478865   -3.6053655   -2.0294698    0.2519433   -3.6053655    1.5758957  1211166 
 7551000    1.4485495   -3.6060545    -2.029471   0.24736789   -3.6060545    1.5765835  1211192 
 7552000     1.449769   -3.6071686   -2.0292879   0.24509161   -3.6071686    1.5778808  1211215 
 7553000     1.448206   -3.6059194   -2.0297775   0.25043637   -3.6059194    1.5761419  1211244 
 7554000    1.4475115   -3.6050549   -2.0297039   0.25414921   -3.6050549     1.575351  1211271 
 7555000    1.4484349   -3.6059238   -2.0296109   0.25042356   -3.6059238     1.576313  1211304 
 7556000    1.4469526    -3.604648   -2.0299846   0.25488161    -3.604648    1.5746635  1211332 
 7557000    1.4481371   -3.6068273   -2.0309034    0.2484045   -3.6068273    1.5759239  1211354 
 7558000    1.4484764   -3.6072086   -2.0309389   0.25074758   -3.6072086    1.5762696  1211372 
 7559000    1.4488883   -3.6072914   -2.0305956    0.2512118   -3.6072914    1.5766958  1211389 
 7560000    1.4475483   -3.6063357    -2.031128   0.25304732   -3.6063357    1.5752077  1211412 
 7561000    1.4476006    -3.607453   -2.0322223   0.25170184    -3.607453    1.5752307  1211438 
 7562000    1.4481783   -3.6078932   -2.0320547   0.24667199   -3.6078932    1.5758386  1211454 
 7563000    1.4486885   -3.6085316   -2.0321782   0.24434415   -3.6085316    1.5763534  1211485 
 7564000    1.4478739   -3.6073015   -2.0318669   0.25009668   -3.6073015    1.5754346  1211510 
 7565000    1.4477413   -3.6071136   -2.0318519   0.24840228   -3.6071136    1.5752617  1211532 
 7566000    1.4485813   -3.6074747   -2.0313447   0.25051457   -3.6074747    1.5761301  1211567 
 7567000    1.4479332   -3.6074521    -2.032057   0.25039667   -3.6074521     1.575395  1211590 
 7568000     1.447701   -3.6067848   -2.0316685   0.25564383   -3.6067848    1.5751163  1211610 
 7569000    1.4474391   -3.6071883   -2.0323802   0.24980029   -3.6071883     1.574808  1211628 
 7570000     1.448009   -3.6078261   -2.0324267   0.25023695   -3.6078261    1.5753995  1211650 
 7571000    1.4473183   -3.6069542   -2.0323348   0.25069282   -3.6069542    1.5746194  1211672 
 7572000    1.4496529   -3.6092697   -2.0321494    0.2465326   -3.6092697    1.5771204  1211702 
 7573000    1.4482192   -3.6078272   -2.0322953   0.25202168   -3.6078272    1.5755319  1211724 
 7574000    1.4488856   -3.6078357   -2.0315891   0.24979258   -3.6078357    1.5762466  1211732 
 7575000    1.4490249   -3.6079516   -2.0315887   0.24961122   -3.6079516     1.576363  1211759 
 7576000    1.4476847   -3.6064682   -2.0316074   0.25649426   -3.6064682    1.5748608  1211793 
 7577000    1.4491332    -3.608422   -2.0320167   0.24671421    -3.608422    1.5764054  1211817 
 7578000    1.4482385   -3.6079422   -2.0325401   0.25258262   -3.6079422    1.5754021  1211840 
 7579000    1.4495424   -3.6092232   -2.0324287    0.2474764   -3.6092232    1.5767945  1211860 
 7580000    1.4487479   -3.6085505   -2.0326411   0.25237871   -3.6085505    1.5759094  1211876 
 7581000    1.4481193   -3.6073575   -2.0321604   0.25180641   -3.6073575    1.5751971  1211898 
 7582000    1.4479389   -3.6070689   -2.0321019    0.2488563   -3.6070689     1.574967  1211924 
 7583000    1.4498632   -3.6081847   -2.0311726   0.24804295   -3.6081847    1.5770121  1211961 
 7584000    1.4492747   -3.6081838    -2.031847   0.24867772   -3.6081838    1.5763368  1211988 
 7585000    1.4491088   -3.6079283   -2.0317966   0.25441413   -3.6079283    1.5761316  1212007 
 7586000    1.4486958   -3.6077084    -2.032065   0.25299068   -3.6077084    1.5756434  1212037 
 7587000    1.4491846   -3.6083826   -2.0322374   0.25169299   -3.6083826    1.5761452  1212060 
 7588000    1.4494562   -3.6087548   -2.0323454   0.25363165   -3.6087548    1.5764094  1212084 
 7589000    1.4480422   -3.6077688    -2.032922   0.25543339   -3.6077688    1.5748468  1212103 
 7590000    1.4482629   -3.6081375   -2.0330818   0.25251596   -3.6081375    1.5750557  1212127 
 7591000    1.4487299   -3.6085266   -2.0329864    0.2521245   -3.6085266    1.5755402  1212145 
 7592000     1.449746   -3.6095926   -2.0329786   0.24860196   -3.6095926    1.5766139  1212169 
 7593000    1.4482267   -3.6082361   -2.0332926   0.25416816   -3.6082361    1.5749435  1212183 
 7594000    1.4482198   -3.6081651   -2.0332602    0.2524681   -3.6081651    1.5749049  1212207 
 7595000    1.4497253   -3.6093509   -2.0328401   0.25110195   -3.6093509    1.5765108  1212231 
 7596000    1.4483254   -3.6082044   -2.0332392   0.25221645   -3.6082044    1.5749652  1212249 
 7597000    1.4483729   -3.6087613   -2.0337731   0.25315214   -3.6087613    1.5749881  1212271 
 7598000    1.4486658   -3.6083533   -2.0330804   0.25021521   -3.6083533    1.5752729  1212297 
 7599000    1.4489232   -3.6084946   -2.0329625   0.25092935   -3.6084946     1.575532  1212313 
 7600000    1.4495595   -3.6091411   -2.0329497   0.25635749   -3.6091411    1.5761914  1212338 
 7601000    1.4493303   -3.6082082   -2.0322908   0.25186366   -3.6082082    1.5759175  1212357 
 7602000    1.4495139   -3.6087923   -2.0327155   0.25540451   -3.6087923    1.5760768  1212388 
 7603000    1.4494826   -3.6086855   -2.0326843   0.25268296   -3.6086855    1.5760012  1212420 
 7604000    1.4497215   -3.6092324   -2.0329884   0.25135608   -3.6092324     1.576244  1212433 
 7605000    1.4496745   -3.6089026   -2.0327331    0.2496598   -3.6089026    1.5761695  1212451 
 7606000    1.4505541   -3.6098484   -2.0327511   0.24767936   -3.6098484    1.5770973  1212473 
 7607000    1.4497524   -3.6093737   -2.0331636   0.24915362   -3.6093737    1.5762101  1212485 
 7608000    1.4500508   -3.6094081   -2.0329022   0.25229773   -3.6094081    1.5765059  1212507 
 7609000     1.449104   -3.6089175   -2.0334656   0.25134642   -3.6089175    1.5754519  1212526 
 7610000    1.4497573   -3.6094388   -2.0333131   0.25161868   -3.6094388    1.5761257  1212554 
 7611000     1.449469   -3.6092346   -2.0334652   0.25339361   -3.6092346    1.5757693  1212587 
 7612000    1.4490523   -3.6089032   -2.0336167   0.25305018   -3.6089032    1.5752865  1212610 
 7613000    1.4500601   -3.6111996   -2.0348461   0.24575497   -3.6111996    1.5763535  1212632 
 7614000    1.4480919   -3.6088206   -2.0346327   0.25564841   -3.6088206    1.5741879  1212652 
 7615000    1.4492886    -3.610196   -2.0347358   0.25268767    -3.610196    1.5754602  1212674 
 7616000    1.4486558   -3.6094645   -2.0347208   0.25480057   -3.6094645    1.5747437  1212696 
 7617000    1.4491533   -3.6106357    -2.035381    0.2503576   -3.6106357    1.5752547  1212719 
 7618000    1.4492847    -3.611274   -2.0359038   0.24933309    -3.611274    1.5753702  1212740 
 7619000    1.4484075   -3.6103994   -2.0360152    0.2510397   -3.6103994    1.5743842  1212765 
 7620000    1.4494364    -3.611134   -2.0356612   0.25257786    -3.611134    1.5754728  1212788 
 7621000    1.4492293   -3.6119867   -2.0367715   0.24526912   -3.6119867    1.5752152  1212813 
 7622000    1.4485348   -3.6111536   -2.0367193   0.25371696   -3.6111536    1.5744344  1212833 
 7623000    1.4481273    -3.610897   -2.0369289   0.25244199    -3.610897    1.5739681  1212851 
 7624000     1.447842    -3.611348   -2.0377121   0.25156942    -3.611348    1.5736359  1212868 
 7625000    1.4470205   -3.6114282   -2.0387137   0.25120196   -3.6114282    1.5727145  1212890 
 7626000    1.4476384   -3.6112748    -2.037929    0.2519729   -3.6112748    1.5733458  1212921 
 7627000    1.4491199   -3.6131327   -2.0382001    0.2447087   -3.6131327    1.5749326  1212939 
 7628000    1.4484964   -3.6127926   -2.0385661    0.2475809   -3.6127926    1.5742265  1212961 
 7629000     1.447043   -3.6114749   -2.0388669   0.25108132   -3.6114749     1.572608  1212991 
 7630000    1.4492718   -3.6138713   -2.0388787   0.24619237   -3.6138713    1.5749926  1213020 
 7631000    1.4490451    -3.612675   -2.0379638    0.2496817    -3.612675    1.5747112  1213047 
 7632000    1.4481751   -3.6120162   -2.0382777   0.25307721   -3.6120162    1.5737385  1213068 
 7633000    1.4485255   -3.6120313   -2.0379444   0.24790267   -3.6120313    1.5740868  1213093 
 7634000    1.4496421   -3.6124676   -2.0371986   0.25209624   -3.6124676     1.575269  1213117 
 7635000    1.4489311   -3.6117028   -2.0372323   0.25617161   -3.6117028    1.5744705  1213137 
 7636000    1.4480175   -3.6105286   -2.0370859   0.25536233   -3.6105286    1.5734426  1213164 
 7637000     1.448319   -3.6117772   -2.0380315   0.24945562   -3.6117772    1.5737457  1213183 
 7638000    1.4479594   -3.6115873   -2.0382609   0.25075655   -3.6115873    1.5733264  1213205 
 7639000    1.4481527    -3.611714     -2.03821   0.25320352    -3.611714     1.573504  1213230 
 7640000    1.4494968   -3.6125927   -2.0376568   0.25059233   -3.6125927    1.5749359  1213252 
 7641000    1.4487931   -3.6111485   -2.0370097   0.25236907   -3.6111485    1.5741388  1213277 
 7642000    1.4496277   -3.6116587   -2.0366455   0.25454525   -3.6116587    1.5750132  1213302 
 7643000     1.450332   -3.6128091   -2.0370501   0.25219292   -3.6128091    1.5757589  1213317 
 7644000    1.4490837   -3.6113068   -2.0369495   0.25264475   -3.6113068    1.5743573  1213352 
 7645000    1.4500771   -3.6131361    -2.037719   0.24857332   -3.6131361    1.5754171  1213367 
 7646000     1.449457   -3.6125483   -2.0378388   0.25076696   -3.6125483    1.5747096  1213393 
 7647000    1.4491996   -3.6127066   -2.0383156   0.24990837   -3.6127066     1.574391  1213423 
 7648000    1.4500119   -3.6136668   -2.0384218   0.24948791   -3.6136668    1.5752449  1213445 
 7649000    1.4495126   -3.6137464   -2.0390698   0.24630257   -3.6137464    1.5746766  1213465 
 7650000    1.4480511   -3.6125699   -2.0395237   0.25361806   -3.6125699    1.5730462  1213498 
 7651000    1.4487229   -3.6124259   -2.0386941   0.25317761   -3.6124259    1.5737318  1213532 
 7652000    1.4481119   -3.6118961   -2.0388669   0.25223476   -3.6118961    1.5730292  1213562 
 7653000    1.4490736   -3.6130047   -2.0389606   0.24777861   -3.6130047    1.5740441  1213585 
 7654000    1.4487472   -3.6123791   -2.0387129   0.25337101   -3.6123791    1.5736662  1213603 
 7655000    1.4497078   -3.6127414   -2.0380486   0.25439058   -3.6127414    1.5746927  1213616 
 7656000    1.4497578   -3.6132599   -2.0385349   0.25297425   -3.6132599     1.574725  1213633 
 7657000     1.449083   -3.6124781   -2.0385095   0.24990793   -3.6124781    1.5739686  1213651 
 7658000    1.4498209   -3.6139427   -2.0392024   0.25419737   -3.6139427    1.5747403  1213674 
 7659000    1.4493626   -3.6138754   -2.0396627   0.25384414   -3.6138754    1.5742126  1213697 
 7660000     1.449974   -3.6147041   -2.0398481   0.24815055   -3.6147041     1.574856  1213713 
 7661000    1.4487671   -3.6130833   -2.0395744   0.25320428   -3.6130833    1.5735088  1213741 
 7662000    1.4501615   -3.6144208   -2.0394247   0.24848739   -3.6144208     1.574996  1213762 
 7663000    1.4491871   -3.6133656   -2.0394681   0.25573619   -3.6133656    1.5738975  1213793 
 7664000    1.4480269   -3.6120461   -2.0394422   0.25342246   -3.6120461    1.5726038  1213819 
 7665000    1.4489551   -3.6125991    -2.039017   0.25233475   -3.6125991    1.5735821  1213842 
 7666000    1.4494721   -3.6135245   -2.0394213   0.25329612   -3.6135245    1.5741033  1213873 
 7667000    1.4502404    -3.614906   -2.0400021   0.25065324    -3.614906    1.5749039  1213899 
 7668000    1.4500032   -3.6137672   -2.0391519   0.25102891   -3.6137672    1.5746153  1213923 
 7669000    1.4520973   -3.6156326   -2.0387576     0.249982   -3.6156326     1.576875  1213934 
 7670000    1.4494797    -3.612907   -2.0388953   0.25446298    -3.612907    1.5740117  1213950 
 7671000    1.4497547   -3.6132727   -2.0389779   0.25317171   -3.6132727    1.5742948  1213962 
 7672000     1.450495   -3.6139496   -2.0388756    0.2522414   -3.6139496    1.5750741  1213981 
 7673000    1.4509591   -3.6144362   -2.0388919    0.2526682   -3.6144362    1.5755443  1214007 
 7674000    1.4511781   -3.6139506   -2.0382088   0.25215186   -3.6139506    1.5757418  1214038 
 7675000     1.450432   -3.6140498   -2.0391493   0.25116419   -3.6140498    1.5749005  1214062 
 7676000    1.4498955    -3.613346   -2.0390669   0.25290097    -3.613346    1.5742791  1214092 
 7677000    1.4498725   -3.6133079   -2.0390953   0.25525208   -3.6133079    1.5742126  1214124 
 7678000    1.4491488   -3.6133742   -2.0399757   0.25579592   -3.6133742    1.5733984  1214146 
 7679000      1.44974   -3.6133195   -2.0393012   0.25404521   -3.6133195    1.5740183  1214163 
 7680000    1.4500636       -3.614   -2.0396681   0.24905059       -3.614    1.5743319  1214192 
 7681000     1.449663   -3.6143166   -2.0404351   0.25804385   -3.6143166    1.5738815  1214204 
 7682000    1.4488987   -3.6133274   -2.0403029   0.25436894   -3.6133274    1.5730245  1214225 
 7683000     1.450126   -3.6149385   -2.0406127   0.25218736   -3.6149385    1.5743258  1214249 
 7684000    1.4491315   -3.6142957   -2.0410781   0.24996557   -3.6142957    1.5732176  1214271 
 7685000    1.4501658   -3.6160854   -2.0417824    0.2482669   -3.6160854    1.5743029  1214300 
 7686000    1.4498604   -3.6152749   -2.0413321   0.24968063   -3.6152749    1.5739428  1214322 
 7687000    1.4496169   -3.6155185   -2.0418724   0.24939634   -3.6155185     1.573646  1214347 
 7688000    1.4491951   -3.6154571   -2.0422948   0.25200836   -3.6154571    1.5731623  1214367 
 7689000    1.4491617   -3.6148816   -2.0417918   0.25523261   -3.6148816    1.5730897  1214395 
 7690000    1.4499909     -3.61569   -2.0417339    0.2524645     -3.61569    1.5739561  1214421 
 7691000    1.4499702   -3.6151957   -2.0412892   0.25578048   -3.6151957    1.5739065  1214442 
 7692000    1.4501914   -3.6158235   -2.0417029   0.25132212   -3.6158235    1.5741207  1214462 
 7693000    1.4504671   -3.6163662   -2.0419787   0.25302499   -3.6163662    1.5743875  1214487 
 7694000    1.4500394    -3.616725   -2.0428316   0.24956806    -3.616725    1.5738935  1214510 
 7695000    1.4497257   -3.6160127   -2.0424831   0.25005724   -3.6160127    1.5735296  1214528 
 7696000    1.4504289   -3.6161502   -2.0419013   0.24914841   -3.6161502    1.5742489  1214562 
 7697000    1.4505144   -3.6164218   -2.0421255   0.25438352   -3.6164218    1.5742963  1214597 
 7698000    1.4506045   -3.6160918   -2.0417301   0.25386484   -3.6160918    1.5743617  1214622 
 7699000     1.450607   -3.6161459   -2.0418127   0.25506435   -3.6161459    1.5743332  1214646 
 7700000    1.4513247   -3.6167883    -2.041706   0.24884142   -3.6167883    1.5750823  1214669 
 7701000    1.4499119   -3.6149014   -2.0413757    0.2569112   -3.6149014    1.5735258  1214687 
 7702000    1.4500791   -3.6144172    -2.040732   0.25388617   -3.6144172    1.5736852  1214704 
 7703000    1.4513448   -3.6162052   -2.0411763    0.2493801   -3.6162052     1.575029  1214727 
 7704000    1.4498074   -3.6143644   -2.0410272   0.25457635   -3.6143644    1.5733372  1214745 
 7705000    1.4513965   -3.6162749    -2.041256   0.25652094   -3.6162749    1.5750189  1214778 
 7706000    1.4510599   -3.6158955    -2.041269   0.25172658   -3.6158955    1.5746264  1214799 
 7707000    1.4506767   -3.6161029   -2.0419182   0.25352174   -3.6161029    1.5741847  1214819 
 7708000    1.4506368   -3.6163025   -2.0421922   0.25576656   -3.6163025    1.5741103  1214843 
 7709000    1.4506031   -3.6165705    -2.042533   0.25054498   -3.6165705    1.5740375  1214871 
 7710000    1.4504921   -3.6164797   -2.0425887   0.25450317   -3.6164797    1.5738911  1214891 
 7711000    1.4500287   -3.6155881   -2.0422205   0.25257997   -3.6155881    1.5733675  1214907 
 7712000    1.4506248   -3.6159987   -2.0420063   0.25240091   -3.6159987    1.5739924  1214924 
 7713000    1.4510789   -3.6158815   -2.0414366    0.2560519   -3.6158815    1.5744449  1214955 
 7714000    1.4523518   -3.6170936   -2.0412909   0.24807745   -3.6170936    1.5758027  1214973 
 7715000    1.4515093   -3.6166868   -2.0418229   0.25214806   -3.6166868    1.5748639  1214992 
 7716000    1.4521652   -3.6172943   -2.0417641   0.25407294   -3.6172943    1.5755302  1215027 
 7717000    1.4517308   -3.6171102   -2.0420734   0.25302956   -3.6171102    1.5750369  1215044 
 7718000    1.4518655   -3.6177624   -2.0426262   0.24916156   -3.6177624    1.5751363  1215080 
 7719000    1.4518301   -3.6174503    -2.042377    0.2542636   -3.6174503    1.5750733  1215099 
 7720000    1.4504274   -3.6161132   -2.0425941   0.25569601   -3.6161132    1.5735191  1215124 
 7721000    1.4521499   -3.6180645   -2.0427065   0.25545608   -3.6180645     1.575358  1215147 
 7722000    1.4523024   -3.6180899   -2.0425872   0.25364396   -3.6180899    1.5755027  1215163 
 7723000    1.4516904   -3.6185178    -2.043705   0.25141537   -3.6185178    1.5748128  1215183 
 7724000     1.450414    -3.617635   -2.0442444   0.25556851    -3.617635    1.5733906  1215212 
 7725000    1.4507735   -3.6183779   -2.0446297   0.25210406   -3.6183779    1.5737482  1215237 
 7726000     1.450523   -3.6180216   -2.0445852   0.25123654   -3.6180216    1.5734364  1215268 
 7727000    1.4502883   -3.6182726   -2.0451207   0.25048379   -3.6182726     1.573152  1215291 
 7728000    1.4504761   -3.6176739    -2.044348   0.25471263   -3.6176739    1.5733259  1215314 
 7729000    1.4508707   -3.6180392   -2.0443241   0.25439848   -3.6180392    1.5737151  1215344 
 7730000    1.4499222   -3.6172247   -2.0445695   0.25626697   -3.6172247    1.5726552  1215368 
 7731000    1.4499678   -3.6179964   -2.0453343   0.25263637   -3.6179964     1.572662  1215401 
 7732000    1.4503309   -3.6181355   -2.0451043   0.25458001   -3.6181355    1.5730312  1215420 
 7733000    1.4494852   -3.6171994   -2.0451152   0.25470818   -3.6171994    1.5720843  1215443 
 7734000    1.4518948   -3.6200787    -2.045416   0.25100785   -3.6200787    1.5746627  1215470 
 7735000    1.4490425   -3.6176529   -2.0460966    0.2517127   -3.6176529    1.5715563  1215480 
 7736000    1.4511318   -3.6195618   -2.0457733    0.2517868   -3.6195618    1.5737885  1215506 
 7737000     1.450933   -3.6191255   -2.0455901   0.24913529   -3.6191255    1.5735354  1215535 
 7738000    1.4519774   -3.6198382   -2.0451948   0.25604263   -3.6198382    1.5746434  1215554 
 7739000     1.451129   -3.6189471   -2.0452587   0.25454049   -3.6189471    1.5736884  1215581 
 7740000     1.451657     -3.61961   -2.0453735    0.2537365     -3.61961    1.5742364  1215600 
 7741000    1.4512648   -3.6186222   -2.0448435   0.25549856   -3.6186222    1.5737787  1215625 
 7742000    1.4516684   -3.6193037   -2.0451171   0.25314186   -3.6193037    1.5741866  1215648 
 7743000    1.4518755   -3.6194521   -2.0450707   0.25128481   -3.6194521    1.5743814  1215671 
 7744000    1.4531344     -3.62035   -2.0446424   0.25399731     -3.62035    1.5757076  1215701 
 7745000    1.4524466    -3.619251   -2.0443151   0.25427496    -3.619251    1.5749359  1215721 
 7746000    1.4529833   -3.6198196   -2.0443406   0.25081578   -3.6198196     1.575479  1215751 
 7747000     1.452225   -3.6190719   -2.0444423   0.25777791   -3.6190719    1.5746296  1215772 
 7748000    1.4517769   -3.6193533   -2.0452432   0.25388737   -3.6193533      1.57411  1215798 
 7749000    1.4507317   -3.6190994   -2.0461653   0.25264818   -3.6190994    1.5729341  1215831 
 7750000    1.4508477   -3.6191099   -2.0460824   0.25189019   -3.6191099    1.5730275  1215856 
 7751000     1.451515   -3.6196081   -2.0458843   0.25095418   -3.6196081    1.5737237  1215877 
 7752000    1.4520166   -3.6202932    -2.046045   0.25039941   -3.6202932    1.5742482  1215892 
 7753000    1.4517652   -3.6204614   -2.0465233   0.24869851   -3.6204614    1.5739381  1215921 
 7754000     1.450465   -3.6191117   -2.0466233   0.25485821   -3.6191117    1.5724884  1215952 
 7755000    1.4510582   -3.6200584   -2.0469606    0.2525588   -3.6200584    1.5730979  1215978 
 7756000    1.4509037   -3.6195662   -2.0466707   0.25350788   -3.6195662    1.5728955  1216005 
 7757000    1.4514731   -3.6191644   -2.0456943   0.25453698   -3.6191644    1.5734701  1216038 
 7758000    1.4515778   -3.6194077   -2.0458591   0.25670829   -3.6194077    1.5735486  1216065 
 7759000    1.4523216   -3.6199786   -2.0456509   0.25446665   -3.6199786    1.5743277  1216086 
 7760000    1.4526709   -3.6208598    -2.046182   0.25128179   -3.6208598    1.5746778  1216108 
 7761000    1.4517841   -3.6199953   -2.0463046   0.25260631   -3.6199953    1.5736907  1216128 
 7762000    1.4527374   -3.6215309   -2.0468419   0.25413024   -3.6215309     1.574689  1216155 
 7763000    1.4527177   -3.6213108    -2.046669   0.25233568   -3.6213108    1.5746418  1216175 
 7764000    1.4519221   -3.6200471   -2.0462974   0.25455643   -3.6200471    1.5737496  1216198 
 7765000    1.4519355   -3.6211079   -2.0473696   0.25282662   -3.6211079    1.5737384  1216218 
 7766000    1.4516187   -3.6208527   -2.0474914   0.25317516   -3.6208527    1.5733613  1216244 
 7767000    1.4526011   -3.6213491   -2.0469515   0.25467203   -3.6213491    1.5743976  1216266 
 7768000    1.4524661   -3.6205221   -2.0463032   0.25327814   -3.6205221    1.5742189  1216291 
 7769000     1.452051   -3.6202942   -2.0465484   0.25384243   -3.6202942    1.5737457  1216309 
 7770000    1.4522939   -3.6208954   -2.0469031   0.25588752   -3.6208954    1.5739923  1216322 
 7771000    1.4529704   -3.6219463   -2.0472559   0.25546648   -3.6219463    1.5746905  1216349 
 7772000    1.4522505   -3.6208308   -2.0469529   0.25378573   -3.6208308    1.5738778  1216374 
 7773000    1.4525662   -3.6215986   -2.0474148   0.25372088   -3.6215986    1.5741838  1216402 
 7774000    1.4508814   -3.6208259    -2.048499   0.25376945   -3.6208259    1.5723269  1216426 
 7775000    1.4515248   -3.6212693   -2.0482814   0.25353423   -3.6212693    1.5729879  1216454 
 7776000    1.4516584   -3.6208561   -2.0477441   0.25807485   -3.6208561     1.573112  1216470 
 7777000    1.4522815   -3.6213629   -2.0476196   0.25546802   -3.6213629    1.5737433  1216504 
 7778000     1.451115   -3.6203634     -2.04791   0.25330977   -3.6203634    1.5724534  1216524 
 7779000    1.4515889   -3.6213651   -2.0484293   0.25151623   -3.6213651    1.5729359  1216548 
 7780000    1.4526341   -3.6219974   -2.0479652   0.25140908   -3.6219974    1.5740322  1216576 
 7781000    1.4523831   -3.6211861   -2.0474478   0.25383952   -3.6211861    1.5737383  1216593 
 7782000    1.4518892   -3.6205377   -2.0473721   0.25635073   -3.6205377    1.5731656  1216622 
 7783000    1.4532173   -3.6220112   -2.0474415   0.25621963   -3.6220112    1.5745697  1216649 
 7784000    1.4511646   -3.6196295   -2.0473072   0.26316613   -3.6196295    1.5723223  1216667 
 7785000    1.4526292   -3.6212936   -2.0474233   0.25922089   -3.6212936    1.5738703  1216697 
 7786000    1.4532416   -3.6218628   -2.0473652   0.25178076   -3.6218628    1.5744976  1216725 
 7787000    1.4532687   -3.6214034   -2.0469088   0.25575056   -3.6214034    1.5744946  1216750 
 7788000    1.4529394   -3.6213382   -2.0472261   0.25327342   -3.6213382    1.5741121  1216770 
 7789000    1.4530089   -3.6216611   -2.0475061    0.2531072   -3.6216611     1.574155  1216795 
 7790000    1.4531774   -3.6221168   -2.0478156   0.25347589   -3.6221168    1.5743012  1216823 
 7791000    1.4534849   -3.6225109   -2.0479231   0.25550879   -3.6225109    1.5745878  1216859 
 7792000    1.4522857   -3.6208464   -2.0475745   0.25906029   -3.6208464    1.5732719  1216872 
 7793000    1.4540386   -3.6226816    -2.047538   0.25201789   -3.6226816    1.5751436  1216893 
 7794000     1.453627   -3.6224861   -2.0478181   0.25753336   -3.6224861     1.574668  1216916 
 7795000    1.4532132   -3.6222678   -2.0480739   0.25752692   -3.6222678    1.5741939  1216936 
 7796000    1.4527103   -3.6220109   -2.0483876   0.26055251   -3.6220109    1.5736233  1216956 
 7797000    1.4534449   -3.6219833   -2.0475915   0.25715947   -3.6219833    1.5743918  1216977 
 7798000    1.4543259   -3.6225003   -2.0471956   0.25984562   -3.6225003    1.5753047  1217009 
 7799000    1.4535031   -3.6224693   -2.0480946   0.25753702   -3.6224693    1.5743747  1217039 
 7800000    1.4524521   -3.6218077   -2.0486025   0.25390854   -3.6218077    1.5732052  1217063 
 7801000     1.452872   -3.6224318   -2.0488092   0.25470651   -3.6224318    1.5736226  1217092 
 7802000    1.4532094   -3.6229278   -2.0489619   0.25353893   -3.6229278     1.573966  1217109 
 7803000    1.4522524   -3.6216969   -2.0488024   0.25612588   -3.6216969    1.5728946  1217136 
 7804000    1.4527846   -3.6228854   -2.0494468   0.25452338   -3.6228854    1.5734387  1217161 
 7805000    1.4527265   -3.6226764   -2.0493252   0.25721746   -3.6226764    1.5733512  1217180 
 7806000    1.4527164   -3.6219141   -2.0486009   0.25897632   -3.6219141    1.5733131  1217201 
 7807000    1.4537052   -3.6232206   -2.0488585   0.25148101   -3.6232206    1.5743621  1217218 
 7808000    1.4530691   -3.6229802   -2.0493264   0.25485975   -3.6229802    1.5736537  1217233 
 7809000    1.4529772    -3.622468   -2.0489422   0.25364041    -3.622468    1.5735257  1217255 
 7810000    1.4536757   -3.6224893   -2.0482446   0.25636077   -3.6224893    1.5742447  1217284 
 7811000    1.4539004   -3.6231598   -2.0487248   0.25395767   -3.6231598    1.5744351  1217325 
 7812000    1.4530438   -3.6220443   -2.0485576    0.2593147   -3.6220443    1.5734867  1217341 
 7813000    1.4534935   -3.6229651   -2.0490211   0.25054004   -3.6229651     1.573944  1217364 
 7814000    1.4540364   -3.6230707   -2.0485687   0.25437229   -3.6230707    1.5745021  1217387 
 7815000    1.4537101   -3.6234004   -2.0492735   0.25435551   -3.6234004    1.5741268  1217404 
 7816000    1.4540854   -3.6234073   -2.0489051   0.25902127   -3.6234073    1.5745022  1217428 
 7817000    1.4545186   -3.6237956   -2.0488657   0.25573592   -3.6237956    1.5749298  1217460 
 7818000    1.4531679   -3.6226485   -2.0492045   0.25780508   -3.6226485     1.573444  1217478 
 7819000    1.4541141   -3.6228872   -2.0484342   0.25470944   -3.6228872     1.574453  1217490 
 7820000    1.4543635   -3.6235824   -2.0488826   0.25666993   -3.6235824    1.5746998  1217508 
 7821000    1.4540525    -3.623176    -2.048844    0.2599823    -3.623176    1.5743321  1217532 
 7822000    1.4536906   -3.6227302   -2.0488248    0.2558857   -3.6227302    1.5739053  1217559 
 7823000    1.4555354   -3.6251931   -2.0493086   0.25068242   -3.6251931    1.5758845  1217573 
 7824000    1.4538664   -3.6233803   -2.0493209   0.25243698   -3.6233803    1.5740594  1217587 
 7825000    1.4538241   -3.6235157   -2.0495266    0.2580258   -3.6235157    1.5739891  1217606 
 7826000    1.4539155    -3.623757   -2.0496974   0.25527046    -3.623757    1.5740596  1217628 
 7827000     1.453736   -3.6228481   -2.0490191   0.25679529   -3.6228481     1.573829  1217656 
 7828000    1.4539462   -3.6239198   -2.0498928   0.25697863   -3.6239198    1.5740269  1217679 
 7829000    1.4541124   -3.6239267   -2.0497587   0.25368157   -3.6239267     1.574168  1217709 
 7830000    1.4534482   -3.6237748    -2.050349   0.25563974   -3.6237748    1.5734258  1217727 
 7831000    1.4544269   -3.6242607   -2.0498207   0.25620527   -3.6242607      1.57444  1217762 
 7832000     1.454892   -3.6250518   -2.0501419   0.25279102   -3.6250518    1.5749098  1217788 
 7833000    1.4549367   -3.6254429   -2.0505041   0.25327865   -3.6254429    1.5749388  1217803 
 7834000    1.4538472    -3.624449   -2.0507193   0.25787759    -3.624449    1.5737297  1217826 
 7835000    1.4536081   -3.6246891   -2.0512441   0.25486834   -3.6246891    1.5734451  1217846 
 7836000    1.4539252   -3.6250244   -2.0512632   0.25393197   -3.6250244    1.5737612  1217867 
 7837000    1.4538745   -3.6250101   -2.0513296   0.25922168   -3.6250101    1.5736805  1217887 
 7838000    1.4541522   -3.6245119   -2.0505529   0.25918079   -3.6245119    1.5739591  1217904 
 7839000    1.4536335   -3.6248216   -2.0514485   0.25796165   -3.6248216     1.573373  1217923 
 7840000    1.4538961   -3.6252058   -2.0515847   0.25754131   -3.6252058    1.5736211  1217951 
 7841000    1.4532621    -3.625308   -2.0524003   0.25569658    -3.625308    1.5729078  1217972 
 7842000    1.4520521   -3.6253053   -2.0537278    0.2575066   -3.6253053    1.5715775  1217988 
 7843000    1.4535874   -3.6261765   -2.0529631   0.25287102   -3.6261765    1.5732134  1218008 
 7844000    1.4538795   -3.6259835   -2.0524863    0.2560979   -3.6259835    1.5734972  1218033 
 7845000    1.4530109    -3.625509   -2.0529815   0.25617874    -3.625509    1.5725275  1218056 
 7846000    1.4536881   -3.6258617   -2.0526349   0.25760052   -3.6258617    1.5732268  1218082 
 7847000    1.4538479    -3.626192   -2.0528078   0.25621582    -3.626192    1.5733843  1218094 
 7848000     1.453732   -3.6257776   -2.0525562   0.26109833   -3.6257776    1.5732213  1218123 
 7849000    1.4530297   -3.6255459    -2.053122   0.25536709   -3.6255459    1.5724239  1218152 
 7850000    1.4540616   -3.6259969    -2.052495   0.25467787   -3.6259969    1.5735018  1218182 
 7851000    1.4535574   -3.6261379   -2.0532075   0.25374357   -3.6261379    1.5729304  1218202 
 7852000    1.4531628    -3.625863   -2.0533892   0.25843646    -3.625863    1.5724738  1218225 
 7853000    1.4552887   -3.6280086   -2.0532784   0.25091176   -3.6280086    1.5747302  1218259 
 7854000    1.4530372   -3.6257734   -2.0535092   0.25635161   -3.6257734    1.5722642  1218282 
 7855000    1.4540657   -3.6264937   -2.0531449   0.25290288   -3.6264937    1.5733487  1218304 
 7856000    1.4543173   -3.6266713   -2.0530813   0.25740242   -3.6266713      1.57359  1218328 
 7857000    1.4547058    -3.627184   -2.0532008   0.25551238    -3.627184    1.5739831  1218349 
 7858000    1.4541619   -3.6258007   -2.0524473     0.258603   -3.6258007    1.5733534  1218381 
 7859000    1.4547471   -3.6261825   -2.0522257   0.25575826   -3.6261825    1.5739568  1218404 
 7860000    1.4540339   -3.6255653   -2.0524099   0.25862271   -3.6255653    1.5731554  1218427 
 7861000    1.4543771   -3.6259846   -2.0524784    0.2549384   -3.6259846    1.5735061  1218443 
 7862000     1.453754   -3.6253091   -2.0525068   0.26128373   -3.6253091    1.5728022  1218466 
 7863000    1.4554443   -3.6271513   -2.0525565   0.25507496   -3.6271513    1.5745948  1218494 
 7864000    1.4553367   -3.6267395   -2.0522805   0.26062157   -3.6267395     1.574459  1218509 
 7865000    1.4556429   -3.6273249   -2.0525669   0.25821603   -3.6273249     1.574758  1218534 
 7866000    1.4542589   -3.6260429    -2.052808   0.25895583   -3.6260429    1.5732349  1218554 
 7867000     1.455046   -3.6273195   -2.0532654   0.25550764   -3.6273195    1.5740541  1218579 
 7868000    1.4554264   -3.6272443   -2.0528122   0.25368282   -3.6272443    1.5744321  1218605 
 7869000    1.4551332   -3.6275179   -2.0534263   0.25846462   -3.6275179    1.5740917  1218623 
 7870000    1.4551236   -3.6270365   -2.0529862   0.25903868   -3.6270365    1.5740502  1218647 
 7871000    1.4545553   -3.6263874   -2.0529803   0.25779037   -3.6263874    1.5734071  1218669 
 7872000    1.4543662    -3.627099   -2.0539274   0.25393332    -3.627099    1.5731716  1218693 
 7873000    1.4545457   -3.6274953   -2.0541696   0.25348461   -3.6274953    1.5733257  1218724 
 7874000    1.4542791   -3.6270392   -2.0540328   0.25869984   -3.6270392    1.5730063  1218748 
 7875000    1.4545672   -3.6273142   -2.0540234   0.25615949   -3.6273142    1.5732908  1218769 
 7876000    1.4533818   -3.6258651   -2.0538887   0.26157405   -3.6258651    1.5719764  1218794 
 7877000    1.4544415   -3.6273507   -2.0542565   0.25751841   -3.6273507    1.5730942  1218816 
 7878000    1.4546638   -3.6270793   -2.0537704   0.25609573   -3.6270793    1.5733089  1218836 
 7879000    1.4550347   -3.6277903   -2.0541202   0.25938046   -3.6277903      1.57367  1218867 
 7880000    1.4550409    -3.627814   -2.0541747   0.25629114    -3.627814    1.5736393  1218896 
 7881000    1.4548588   -3.6273783   -2.0539541   0.26015713   -3.6273783    1.5734242  1218910 
 7882000    1.4556508   -3.6281574   -2.0539063   0.25905461   -3.6281574    1.5742511  1218933 
 7883000    1.4556929    -3.628757   -2.0544914   0.25836079    -3.628757    1.5742656  1218957 
 7884000     1.455373    -3.628145   -2.0542499   0.25839855    -3.628145    1.5738951  1218976 
 7885000    1.4553487   -3.6279147    -2.054073   0.25929789   -3.6279147    1.5738417  1218997 
 7886000     1.455302    -3.628059    -2.054304   0.25968644    -3.628059     1.573755  1219025 
 7887000    1.4565805   -3.6281614   -2.0530406   0.26071396   -3.6281614    1.5751208  1219038 
 7888000    1.4550302   -3.6277722   -2.0543627   0.26271615   -3.6277722    1.5734095  1219065 
 7889000    1.4544741   -3.6272678   -2.0544867   0.26334618   -3.6272678    1.5727811  1219086 
 7890000     1.455093   -3.6272338   -2.0538105   0.26177245   -3.6272338    1.5734233  1219107 
 7891000     1.455232   -3.6273219   -2.0537897   0.25785806   -3.6273219    1.5735322  1219139 
 7892000    1.4553139   -3.6277362   -2.0541412   0.25837986   -3.6277362     1.573595  1219159 
 7893000    1.4567127   -3.6298207   -2.0547455   0.25716143   -3.6298207    1.5750752  1219184 
 7894000    1.4551601    -3.627685   -2.0543208   0.25827422    -3.627685    1.5733641  1219209 
 7895000    1.4551488   -3.6285406   -2.0552094   0.25305593   -3.6285406    1.5733313  1219225 
 7896000    1.4553241    -3.629164   -2.0556781   0.25564188    -3.629164    1.5734859  1219252 
 7897000    1.4540832   -3.6282684   -2.0561628   0.25775703   -3.6282684    1.5721056  1219282 
 7898000    1.4555154   -3.6299198   -2.0562981    0.2583243   -3.6299198    1.5736218  1219307 
 7899000    1.4539768   -3.6279603   -2.0560239   0.26240695   -3.6279603    1.5719364  1219324 
 7900000    1.4538456   -3.6277656   -2.0560046   0.26258727   -3.6277656    1.5717611  1219350 
 7901000    1.4564773   -3.6295359   -2.0549569   0.25540377   -3.6295359    1.5745791  1219371 
 7902000    1.4559631   -3.6282876   -2.0542927    0.2632694   -3.6282876    1.5739948  1219393 
 7903000    1.4551354   -3.6286795   -2.0556014   0.26138459   -3.6286795    1.5730781  1219410 
 7904000    1.4549782   -3.6287454   -2.0558696   0.25884068   -3.6287454    1.5728758  1219435 
 7905000    1.4550935   -3.6290655   -2.0560882   0.25779994   -3.6290655    1.5729773  1219453 
 7906000    1.4550511   -3.6293412   -2.0564355    0.2581203   -3.6293412    1.5729057  1219473 
 7907000    1.4547408   -3.6291747   -2.0566329   0.25871378   -3.6291747    1.5725418  1219495 
 7908000    1.4556644   -3.6295834   -2.0560715   0.25914785   -3.6295834    1.5735119  1219517 
 7909000    1.4550438   -3.6293686   -2.0565533   0.25817127   -3.6293686    1.5728152  1219537 
 7910000    1.4533745   -3.6283247   -2.0573357   0.25914067   -3.6283247     1.570989  1219554 
 7911000     1.454371   -3.6287038   -2.0566583   0.26082481   -3.6287038    1.5720455  1219570 
 7912000    1.4556111   -3.6299324   -2.0565749   0.25552677   -3.6299324    1.5733575  1219592 
 7913000    1.4568444   -3.6309974   -2.0563366   0.25177385   -3.6309974    1.5746608  1219615 
 7914000    1.4554416   -3.6297098   -2.0565831   0.26113076   -3.6297098    1.5731266  1219629 
 7915000     1.455313   -3.6296259   -2.0566679    0.2563562   -3.6296259     1.572958  1219652 
 7916000    1.4555901   -3.6297298   -2.0565111    0.2603068   -3.6297298    1.5732187  1219682 
 7917000    1.4559334   -3.6304807    -2.056918   0.25743686   -3.6304807    1.5735627  1219703 
 7918000    1.4557099   -3.6305657   -2.0572755   0.25759031   -3.6305657    1.5732902  1219727 
 7919000    1.4555966   -3.6298472   -2.0567066   0.25608016   -3.6298472    1.5731406  1219748 
 7920000    1.4559745     -3.63034   -2.0568103   0.25570601     -3.63034    1.5735296  1219763 
 7921000    1.4567868   -3.6307882   -2.0564142   0.25860848   -3.6307882     1.574374  1219789 
 7922000    1.4548668   -3.6290944   -2.0568198   0.26152531   -3.6290944    1.5722746  1219808 
 7923000    1.4565264   -3.6303948   -2.0563565   0.26134447   -3.6303948    1.5740384  1219831 
 7924000    1.4566969   -3.6304551   -2.0562609   0.25836783   -3.6304551    1.5741943  1219853 
 7925000    1.4566426   -3.6308694   -2.0567635   0.25821769   -3.6308694    1.5741059  1219876 
 7926000    1.4539876   -3.6291527    -2.057952   0.25817467   -3.6291527    1.5712007  1219904 
 7927000    1.4560732   -3.6309993   -2.0575667   0.25601086   -3.6309993    1.5734326  1219921 
 7928000    1.4563972   -3.6307288   -2.0569745   0.26194049   -3.6307288    1.5737543  1219943 
 7929000    1.4554313   -3.6299096   -2.0572274   0.26300908   -3.6299096    1.5726822  1219965 
 7930000    1.4550163   -3.6302164   -2.0580265    0.2599688   -3.6302164    1.5721899  1219999 
 7931000    1.4561392   -3.6310509     -2.05768   0.25649077   -3.6310509     1.573371  1220024 
 7932000    1.4562642   -3.6315332   -2.0580581   0.25572226   -3.6315332    1.5734752  1220048 
 7933000    1.4552322   -3.6303897    -2.058058    0.2613439   -3.6303897    1.5723317  1220070 
 7934000    1.4563456   -3.6319102   -2.0584014   0.25756859   -3.6319102    1.5735089  1220090 
 7935000    1.4551099   -3.6303956   -2.0582618   0.26042946   -3.6303956    1.5721338  1220121 
 7936000    1.4554204   -3.6310324   -2.0585901   0.25504679   -3.6310324    1.5724423  1220142 
 7937000    1.4555042   -3.6310506   -2.0585462   0.25556002   -3.6310506    1.5725044  1220164 
 7938000     1.455321   -3.6312939   -2.0590105   0.26207179   -3.6312939    1.5722834  1220182 
 7939000    1.4568709   -3.6323459    -2.058414   0.25429484   -3.6323459     1.573932  1220202 
 7940000    1.4563958   -3.6323677   -2.0589774   0.25541912   -3.6323677    1.5733904  1220224 
 7941000    1.4569979   -3.6327863   -2.0587726    0.2554922   -3.6327863    1.5740137  1220245 
 7942000    1.4562216    -3.632801   -2.0596491   0.25729392    -3.632801    1.5731519  1220263 
 7943000    1.4542515   -3.6312839   -2.0602835   0.25931491   -3.6312839    1.5710004  1220281 
 7944000    1.4559088   -3.6327757   -2.0600133   0.25726316   -3.6327757    1.5727624  1220303 
 7945000      1.45542    -3.632265    -2.060059   0.25862573    -3.632265     1.572206  1220325 
 7946000    1.4564543   -3.6328046   -2.0595096   0.25831312   -3.6328046     1.573295  1220347 
 7947000    1.4555984   -3.6323658    -2.060025   0.25723003   -3.6323658    1.5723408  1220370 
 7948000    1.4548988   -3.6315137   -2.0599544   0.25730087   -3.6315137    1.5715593  1220390 
 7949000    1.4548517   -3.6317163   -2.0602322   0.25680231   -3.6317163     1.571484  1220409 
 7950000    1.4541781   -3.6317697   -2.0610417   0.25945696   -3.6317697     1.570728  1220431 
 7951000    1.4552011   -3.6324512   -2.0606363   0.25460593   -3.6324512     1.571815  1220445 
 7952000    1.4563426   -3.6335969   -2.0605696    0.2542503   -3.6335969    1.5730273  1220461 
 7953000    1.4553441   -3.6326889   -2.0607581   0.25845015   -3.6326889    1.5719308  1220475 
 7954000    1.4548895   -3.6326961   -2.0612834   0.25682202   -3.6326961    1.5714128  1220496 
 7955000    1.4550133   -3.6323371   -2.0608125   0.25704728   -3.6323371    1.5715246  1220513 
 7956000    1.4558642   -3.6332294    -2.060818   0.25453099   -3.6332294    1.5724114  1220538 
 7957000     1.454747   -3.6326499   -2.0614709   0.25881098   -3.6326499     1.571179  1220558 
 7958000     1.454487   -3.6320269    -2.061157   0.25888599   -3.6320269      1.57087  1220580 
 7959000    1.4562021   -3.6335927   -2.0609078   0.25637259   -3.6335927    1.5726849  1220609 
 7960000    1.4548152   -3.6325308   -2.0613734    0.2578466   -3.6325308    1.5711574  1220632 
 7961000     1.455376   -3.6332507   -2.0615121   0.25628128   -3.6332507    1.5717386  1220651 
 7962000    1.4556797   -3.6328127   -2.0607834   0.26000558   -3.6328127    1.5720293  1220680 
 7963000    1.4559242   -3.6332321   -2.0609607   0.25779521   -3.6332321    1.5722714  1220697 
 7964000    1.4551203   -3.6327022   -2.0613299    0.2616466   -3.6327022    1.5713723  1220721 
 7965000    1.4553519   -3.6331141   -2.0615199   0.25603637   -3.6331141    1.5715942  1220743 
 7966000    1.4554512   -3.6330228   -2.0613523   0.26288276   -3.6330228    1.5716704  1220767 
 7967000    1.4553437   -3.6325384   -2.0610059   0.26085393   -3.6325384    1.5715325  1220784 
 7968000    1.4571315   -3.6347328   -2.0613007   0.25456758   -3.6347328    1.5734321  1220808 
 7969000    1.4555248   -3.6330143   -2.0613442   0.25901426   -3.6330143    1.5716701  1220829 
 7970000    1.4552245   -3.6326174   -2.0612999    0.2557448   -3.6326174    1.5713175  1220851 
 7971000    1.4561091   -3.6337637   -2.0615026   0.25420436   -3.6337637    1.5722611  1220860 
 7972000    1.4546979   -3.6329021   -2.0621905   0.26069125   -3.6329021    1.5707116  1220880 
 7973000    1.4551907   -3.6334919   -2.0622765   0.26055012   -3.6334919    1.5712154  1220902 
 7974000     1.456133   -3.6344072   -2.0621975    0.2544281   -3.6344072    1.5722097  1220920 
 7975000     1.455266   -3.6333563   -2.0621174   0.25682662   -3.6333563    1.5712389  1220947 
 7976000    1.4550297    -3.632787   -2.0618239   0.26457657    -3.632787    1.5709631  1220963 
 7977000    1.4539895   -3.6325361   -2.0627321    0.2587405   -3.6325361     1.569804  1220991 
 7978000    1.4548518   -3.6330188   -2.0623135   0.25771895   -3.6330188    1.5707054  1221014 
 7979000    1.4551585   -3.6340202   -2.0630286   0.25857593   -3.6340202    1.5709915  1221049 
 7980000    1.4551069   -3.6346729   -2.0637654   0.25793047   -3.6346729    1.5709075  1221071 
 7981000    1.4553564   -3.6350784    -2.063926   0.25756151   -3.6350784    1.5711524  1221090 
 7982000     1.454253   -3.6336597   -2.0637357   0.25800606   -3.6336597    1.5699239  1221119 
 7983000    1.4545424   -3.6337987   -2.0635984    0.2578052   -3.6337987    1.5702003  1221147 
 7984000    1.4558171   -3.6354526   -2.0638981   0.25663343   -3.6354526    1.5715545  1221164 
 7985000    1.4555084   -3.6353531   -2.0641512   0.25249612   -3.6353531     1.571202  1221179 
 7986000    1.4561291   -3.6357709   -2.0639286   0.25440375   -3.6357709    1.5718424  1221202 
 7987000    1.4551996   -3.6349444   -2.0641259   0.26053878   -3.6349444    1.5708185  1221218 
 7988000     1.455024   -3.6350064    -2.064407   0.25789803   -3.6350064    1.5705994  1221241 
 7989000    1.4560481   -3.6359093   -2.0642302   0.25924619   -3.6359093    1.5716791  1221261 
 7990000     1.456052   -3.6359823   -2.0643286   0.25774764   -3.6359823    1.5716537  1221284 
 7991000    1.4554291   -3.6352893   -2.0643311   0.26045652   -3.6352893    1.5709582  1221302 
 7992000    1.4556354   -3.6356276   -2.0644725   0.25589811   -3.6356276    1.5711551  1221322 
 7993000    1.4554473   -3.6356219   -2.0647072   0.25885933   -3.6356219    1.5709148  1221351 
 7994000    1.4551937   -3.6354415   -2.0648249   0.25543462   -3.6354415    1.5706166  1221370 
 7995000    1.4548819    -3.635368   -2.0651187   0.25436389    -3.635368    1.5702493  1221394 
 7996000    1.4547568    -3.634975   -2.0648865   0.26226766    -3.634975    1.5700885  1221414 
 7997000    1.4539053   -3.6346576   -2.0655255    0.2626949   -3.6346576    1.5691322  1221443 
 7998000    1.4546538   -3.6358507   -2.0659338   0.25872731   -3.6358507     1.569917  1221461 
 7999000    1.4545472   -3.6361582   -2.0663755   0.25548348   -3.6361582    1.5697826  1221476 
 8000000    1.4537492   -3.6353139   -2.0664144   0.25544518   -3.6353139    1.5688995  1221493 
Loop time of 19128.3 on 192 procs for 5000000 steps with 1221493 atoms

Performance: 112921.930 tau/day, 261.393 timesteps/s
99.4% CPU use with 192 MPI tasks x 1 OpenMP threads

MPI task timing breakdown:
Section |  min time  |  avg time  |  max time  |%varavg|  %CPU | %total
-----------------------------------------------------------------------
Pair    | 6915.6     | 8814.4     | 9777.6     | 746.5 |  99.3 | 46.08
Bond    | 3.4921     | 3.7599     | 4.263      |   7.1 | 100.0 |  0.02
Neigh   | 3576.9     | 4226.7     | 4513.9     | 319.6 |  99.6 | 22.10
Comm    | 1953       | 3850.7     | 6013.6     |1328.7 |  99.2 | 20.13
Output  | 283.82     | 285        | 285.02     |   0.5 |  99.3 |  1.49
Modify  | 1254.1     | 1436.8     | 2508.3     | 855.7 |  99.4 |  7.51
Other   |            | 510.9      |            |       |       |  2.67

Nlocal:        6361.94 ave        6554 max        6227 min
Histogram: 4 19 36 45 33 22 13 13 5 2
Nghost:        6411.56 ave        6893 max        4915 min
Histogram: 31 1 0 0 0 0 0 2 82 76
Neighs:        196157.0 ave      211251 max      172351 min
Histogram: 7 7 3 4 20 41 43 35 23 9

Total # of neighbors = 37662163
Ave neighs/atom = 30.832893
Ave special neighs/atom = 0.0000000
Neighbor list builds = 505000
Dangerous builds = 450000

write_restart   restart_write.dat
System init for write_restart ...
write_data	data.write
System init for write_data ...
WARNING: Not all mixed pair coeffs generated from mixing. Use write_data with 'pair ij' option to store all pair coeffs. (src/write_data.cpp:312)

Total wall time: 5:18:53
