LAMMPS (24 Dec 2020)
OMP_NUM_THREADS environment is not set. Defaulting to 1 thread. (src/comm.cpp:94)
  using 1 OpenMP thread(s) per MPI task
#Read the equilibrated lj fluid and add nanocubes

units           lj
atom_style      full
#atom_modify     map array first cubes
dimension       3
boundary        p p f
pair_style      lj/smooth/linear 2.0

variable        sigma           equal 1.0
variable        epsilon         equal 1.0
read_restart	restart.dat.30000000
Reading restart file ...
  restart file = 24 Dec 2020, LAMMPS = 24 Dec 2020
  restoring atom style full from restart
  orthogonal box = (0.0000000 0.0000000 0.0000000) to (80.000000 80.000000 160.00000)
  6 by 4 by 14 MPI processor grid
  restoring pair style lj/smooth/linear from restart
  264187 atoms
Finding 1-2 1-3 1-4 neighbors ...
  special bond factors lj:    0        0        0       
  special bond factors coul:  0        0        0       
     0 = max # of 1-2 neighbors
     0 = max # of 1-3 neighbors
     0 = max # of 1-4 neighbors
     1 = max # of special neighbors
  special bonds CPU = 2.448 seconds
  read_restart CPU = 2.805 seconds

group		solvent type 1
191035 atoms in group solvent
group 		hull  type 2
28544 atoms in group hull
group 		dummy type 3
44608 atoms in group dummy

neighbor      0.4 bin
neigh_modify  exclude molecule/intra cubes


pair_modify   shift yes

pair_coeff    1 1 1.0 1.0 #solvent
pair_coeff    2 2 1.0 1.0 1.12 #np
pair_coeff    3 3 0.0 0.0 0.0 #dummy
pair_coeff    2 3 0.0 0.0 0.0 #np dummy
pair_coeff    1 2 ${eps} ${sig} ${nscut} #np solvent
pair_coeff    1 2 2.0 ${sig} ${nscut} 
pair_coeff    1 2 2.0 1.0 ${nscut} 
pair_coeff    1 2 2.0 1.0 4.0 
pair_coeff    1 3 0.0 0.0 0.0 #dummy solvent


comm_modify   mode multi cutoff/multi 1 2.0 cutoff/multi 2 2.0 cutoff/multi 3 6.95

reset_timestep 	0

balance 	1.05 shift z 10 1.05
Balancing ...
Unused restart file global fix info:
  fix style: STORE, fix ID: msd_COMPUTE_STORE
Neighbor list info ...
  update every 1 steps, delay 10 steps, check yes
  max neighbors/atom: 2000, page size: 100000
  master list distance cutoff = 4.4
  ghost atom cutoff = 6.95
  binsize = 2.2, bins = 37 37 73
  1 neighbor lists, perpetual/occasional/extra = 1 0 0
  (1) pair lj/smooth/linear, perpetual
      attributes: half, newton on
      pair build: half/bin/newton
      stencil: half/bin/3d/newton
      bin: standard
 rebalancing time: 0.084 seconds
  iteration count = 5
  initial/final maximal load/proc = 2812.0000 1650.0000
  initial/final imbalance factor  = 3.5763758 2.0985136
  x cuts: 0.0000000 0.16666667 0.33333333 0.50000000 0.66666667 0.83333333 1.0000000
  y cuts: 0.0000000 0.25000000 0.50000000 0.75000000 1.0000000
  z cuts: 0.0000000 0.029017857 0.058035714 0.084821429 0.10491071 0.13392857 0.15178571 0.17633929 0.20982143 0.22767857 0.26116071 0.30133929 0.33928571 0.62723214 1.0000000

####################### WALLS ###########################

variable       epsilonWall equal 2*${epsilon}
variable       epsilonWall equal 2*1
variable       repulsive   equal   0.7147*${sigma}
variable       repulsive   equal   0.7147*1
variable       full	   equal   3*${sigma}
variable       full	   equal   3*1
#region         lowWall block EDGE EDGE EDGE EDGE EDGE 2

fix            topWall all wall/lj93 zhi EDGE 	       ${epsilonWall} ${sigma} ${repulsive} units box
fix            topWall all wall/lj93 zhi EDGE 	       2 ${sigma} ${repulsive} units box
fix            topWall all wall/lj93 zhi EDGE 	       2 1 ${repulsive} units box
fix            topWall all wall/lj93 zhi EDGE 	       2 1 0.7147 units box
fix            lowSol solvent wall/lj93 zlo EDGE                ${epsilonWall} ${sigma} ${full} units box
fix            lowSol solvent wall/lj93 zlo EDGE                2 ${sigma} ${full} units box
fix            lowSol solvent wall/lj93 zlo EDGE                2 1 ${full} units box
fix            lowSol solvent wall/lj93 zlo EDGE                2 1 3 units box
fix 	       lowCub cubes wall/lj93 zlo EDGE                ${epsilonWall} ${sigma} ${repulsive} units box
fix 	       lowCub cubes wall/lj93 zlo EDGE                2 ${sigma} ${repulsive} units box
fix 	       lowCub cubes wall/lj93 zlo EDGE                2 1 ${repulsive} units box
fix 	       lowCub cubes wall/lj93 zlo EDGE                2 1 0.7147 units box


###################### COMPUTES ##########################

compute        bin1 solvent chunk/atom bin/1d z lower 1.0 units box


######################  FIXES ############################


fix             peclet solvent ave/chunk 100 1 10000 bin1 density/number norm                  none ave one file density.profile

fix              temp solvent ave/chunk 100 1 10000 bin1 temp norm                  none ave one file temp.profile

fix             1 cubes rigid/nve/small molecule
  create bodies CPU = 0.058 seconds
  64 rigid bodies with 73152 atoms
  6.9282032 = max distance from body owner to body atom

fix             2 solvent nve


## Thermostat
region          regthermo block EDGE EDGE EDGE EDGE 0 15
group           thermo dynamic solvent region regthermo every 1000
dynamic group thermo defined
fix             3 thermo langevin ${start_temp} ${stop_temp} 10 156453
fix             3 thermo langevin 0.6 ${stop_temp} 10 156453
fix             3 thermo langevin 0.6 1.1 10 156453

## Evaporation
#region		regevap block EDGE EDGE EDGE EDGE 140 EDGE
#fix		4 solvent evaporate ${evap} 1 regevap 156415


#### Load balancing

fix             bal all balance 1000 1.05 shift z 10 1.05

############### Diagnostics and computes ###################

compute          cluster all cluster/atom 1.5
compute          cc1 all chunk/atom c_cluster compress yes
compute          size all property/chunk cc1 count
compute          myChunk all temp/chunk cc1 temp
fix              tempe all ave/time 5000 1 5000 c_myChunk file tmp.out mode scalar
compute          comChunk all com/chunk cc1
fix              com all ave/time 10000 1 10000 c_size c_comChunk[*] file com.xyz mode vector


compute        	com cubes          rigid/local   1 mol x y z
compute        	quat cubes         rigid/local   1 mol quatw quati quatj quatk

compute 	cc2 cubes 	   chunk/atom 	 molecule
compute 	msd cubes 	   msd/chunk 	 cc2

fix 		msd all ave/time  1 1 10000 c_msd[*] file dump.msd ave one mode vector

dump            1 all custom 100000 dump.lammpstrj id mol type x y z c_cluster c_cc1
dump		hulltrj hull custom 100000 hull.lammpstrj id mol type x y z
dump		cubestrj cubes custom 100000 cubes.lammpstrj id mol type x y z

dump            com cubes local 100000 dump.*.xyz c_com[*]
dump	        xyz cubes xyz 100000 cubes.*.xyz
dump            quat cubes      local 100000 dump.*.quat c_quat[*]


dump            2 all image 10000 image.*.png type type zoom 1.5 size 1280 720
dump_modify     2 pad 8
dump		image cubes image 10000 image_cubes.*.png type type zoom 1.5 size 1280 720
dump_modify	image pad 8
dump            3 all movie 5000 movie.avi type type zoom 1.5 size 1280 720
dump		4 cubes movie 5000 movie_cubes.avi type type zoom 1.5 size 1280 720


thermo          10000
thermo_style    custom step temp epair evdwl etotal press pe ke atoms

restart         1000000 restart.dat
timestep        0.005
timer           full
New timer settings: style=full  mode=nosync  timeout=off

run 		5000000
Neighbor list info ...
  update every 1 steps, delay 10 steps, check yes
  max neighbors/atom: 2000, page size: 100000
  master list distance cutoff = 4.4
  ghost atom cutoff = 6.95
  binsize = 2.2, bins = 37 37 73
  2 neighbor lists, perpetual/occasional/extra = 1 1 0
  (1) pair lj/smooth/linear, perpetual
      attributes: half, newton on
      pair build: half/bin/newton
      stencil: half/bin/3d/newton
      bin: standard
  (2) compute cluster/atom, occasional
      attributes: full, newton on
      pair build: full/bin
      stencil: full/bin/3d
      bin: standard
Per MPI rank memory allocation (min/avg/max) = 25.94 | 32.19 | 36.95 Mbytes
Step Temp E_pair E_vdwl TotEng Press PotEng KinEng Atoms 
       0    0.6013489   -2.6076745   -2.6076745   -1.9549831 -0.0045052919   -2.6076745   0.65269142   264187 
   10000   0.60129871   -2.6084737   -2.6084737   -1.9558368  0.028738988   -2.6084737   0.65263694   264187 
   20000   0.60290432   -2.6054241   -2.6054241   -1.9510445  0.028771091   -2.6054241   0.65437964   264187 
   30000   0.60286795   -2.6025117   -2.6025117   -1.9481715  0.027706181   -2.6025117   0.65434016   264187 
   40000   0.60349505   -2.6014513   -2.6014513   -1.9464305  0.031037477   -2.6014513    0.6550208   264187 
   50000   0.60410388    -2.600688    -2.600688   -1.9450063  0.020555662    -2.600688   0.65568161   264187 
   60000   0.60505923   -2.5984389   -2.5984389   -1.9417204  0.025640668   -2.5984389   0.65671853   264187 
   70000   0.60490063    -2.595864    -2.595864   -1.9393176   0.03442678    -2.595864   0.65654639   264187 
   80000   0.60756727   -2.5952341   -2.5952341   -1.9357934  0.020548274   -2.5952341    0.6594407   264187 
   90000   0.60837321   -2.5942451   -2.5942451   -1.9339297  0.023952171   -2.5942451   0.66031545   264187 
  100000   0.60758204   -2.5883224   -2.5883224   -1.9288656   0.02369051   -2.5883224   0.65945673   264187 
  110000    0.6104252   -2.5865412   -2.5865412   -1.9239986  0.021732227   -2.5865412   0.66254264   264187 
  120000   0.60809436   -2.5826079   -2.5826079   -1.9225951  0.029122058   -2.5826079    0.6600128   264187 
  130000   0.60849205   -2.5845495   -2.5845495    -1.924105  0.032337923   -2.5845495   0.66044445   264187 
  140000   0.60921254   -2.5817422   -2.5817422   -1.9205157  0.024878468   -2.5817422   0.66122645   264187 
  150000   0.61214888   -2.5778858   -2.5778858   -1.9134723  0.038455142   -2.5778858   0.66441349   264187 
  160000   0.61177167   -2.5759547   -2.5759547   -1.9119506  0.034089464   -2.5759547   0.66400407   264187 
  170000   0.61121941   -2.5715266   -2.5715266    -1.908122  0.025532871   -2.5715266   0.66340466   264187 
  180000   0.61146454   -2.5684681   -2.5684681   -1.9047974  0.034411191   -2.5684681   0.66367072   264187 
  190000   0.61192828   -2.5664895   -2.5664895   -1.9023154  0.037629408   -2.5664895   0.66417406   264187 
  200000   0.61514647    -2.564609    -2.564609    -1.896942  0.024296257    -2.564609     0.667667   264187 
  210000    0.6148929   -2.5581897   -2.5581897   -1.8907979  0.038184693   -2.5581897   0.66739178   264187 
  220000   0.61598884   -2.5548383   -2.5548383    -1.886257  0.031534008   -2.5548383    0.6685813   264187 
  230000   0.61667333   -2.5504296   -2.5504296   -1.8811053  0.025143119   -2.5504296   0.66932423   264187 
  240000   0.61928584   -2.5465737   -2.5465737   -1.8744139  0.035841434   -2.5465737   0.67215979   264187 
  250000   0.61779268   -2.5405132   -2.5405132   -1.8699741   0.02701416   -2.5405132   0.67053915   264187 
  260000   0.61910137   -2.5356932   -2.5356932   -1.8637337  0.023464186   -2.5356932   0.67195957   264187 
  270000   0.61955744    -2.533698    -2.533698   -1.8612434  0.040869937    -2.533698   0.67245458   264187 
  280000   0.62066273   -2.5295335   -2.5295335   -1.8558792  0.030646373   -2.5295335   0.67365425   264187 
  290000   0.62106904   -2.5245024   -2.5245024   -1.8504071   0.03595741   -2.5245024   0.67409524   264187 
  300000   0.62137513   -2.5221887   -2.5221887   -1.8477612  0.030053266   -2.5221887   0.67442747   264187 
  310000   0.62113275   -2.5159844   -2.5159844     -1.84182  0.038364844   -2.5159844   0.67416439   264187 
  320000   0.62290777   -2.5135555   -2.5135555   -1.8374646  0.031798704   -2.5135555   0.67609096   264187 
  330000   0.62386773   -2.5076743   -2.5076743   -1.8305415  0.021385189   -2.5076743   0.67713288   264187 
  340000   0.62633464   -2.5031086   -2.5031086   -1.8232982  0.034408341   -2.5031086   0.67981041   264187 
  350000   0.62537976   -2.4996528   -2.4996528   -1.8208788  0.025870495   -2.4996528   0.67877401   264187 
  360000   0.62679553   -2.4988693   -2.4988693   -1.8185586  0.027313301   -2.4988693   0.68031066   264187 
  370000   0.62613043   -2.4927116   -2.4927116   -1.8131228  0.035745042   -2.4927116   0.67958877   264187 
  380000   0.62746409   -2.4898052   -2.4898052   -1.8087689  0.026591546   -2.4898052   0.68103629   264187 
  390000   0.62868789   -2.4877183   -2.4877183   -1.8053537  0.033088273   -2.4877183   0.68236459   264187 
  400000   0.62922991    -2.482024    -2.482024   -1.7990711  0.027793971    -2.482024   0.68295287   264187 
  410000   0.63194091   -2.4788286   -2.4788286   -1.7929333  0.020500242   -2.4788286   0.68589534   264187 
  420000   0.63190205   -2.4745766   -2.4745766   -1.7887234  0.033741188   -2.4745766   0.68585317   264187 
  430000   0.63056481   -2.4700642   -2.4700642   -1.7856625  0.035840295   -2.4700642   0.68440175   264187 
  440000   0.63249352   -2.4665727   -2.4665727   -1.7800776  0.031388573   -2.4665727   0.68649513   264187 
  450000   0.63255618   -2.4591854   -2.4591854   -1.7726222  0.036731298   -2.4591854   0.68656314   264187 
  460000   0.63339582   -2.4559137   -2.4559137   -1.7684392  0.030498281   -2.4559137   0.68747447   264187 
  470000   0.63574827   -2.4523011   -2.4523011   -1.7622733  0.041944861   -2.4523011   0.69002777   264187 
  480000   0.63664682   -2.4499275   -2.4499275   -1.7589245  0.036422614   -2.4499275   0.69100304   264187 
  490000   0.63692794   -2.4433664   -2.4433664   -1.7520583  0.037049559   -2.4433664   0.69130816   264187 
  500000   0.63798158   -2.4405411   -2.4405411   -1.7480894  0.027320004   -2.4405411   0.69245176   264187 
  510000   0.63804869   -2.4355671   -2.4355671   -1.7430425  0.032264496   -2.4355671   0.69252459   264187 
  520000   0.63970294    -2.431579    -2.431579   -1.7372589  0.039436566    -2.431579   0.69432008   264187 
  530000   0.63886082   -2.4262028   -2.4262028   -1.7327967  0.039104976   -2.4262028   0.69340607   264187 
  540000   0.64307359   -2.4246131   -2.4246131   -1.7266345  0.038400671   -2.4246131   0.69797852   264187 
  550000   0.64232603   -2.4199758   -2.4199758   -1.7228087  0.034454295   -2.4199758   0.69716713   264187 
  560000    0.6418851   -2.4163709   -2.4163709   -1.7196823   0.02847437   -2.4163709   0.69668855   264187 
  570000   0.64324364   -2.4106401   -2.4106401    -1.712477  0.033225341   -2.4106401   0.69816308   264187 
  580000   0.64448985   -2.4031283   -2.4031283   -1.7036126   0.04013968   -2.4031283   0.69951569   264187 
  590000   0.64326598   -2.3977243   -2.3977243    -1.699537  0.035087438   -2.3977243   0.69818733   264187 
  600000   0.64628356   -2.3947773   -2.3947773   -1.6933148  0.037045422   -2.3947773   0.70146255   264187 
  610000   0.64725984   -2.3895002   -2.3895002   -1.6869781  0.036131604   -2.3895002   0.70252218   264187 
  620000   0.64803542   -2.3832927   -2.3832927   -1.6799287  0.046472951   -2.3832927   0.70336398   264187 
  630000   0.64852388   -2.3793817   -2.3793817   -1.6754875  0.036138919   -2.3793817   0.70389415   264187 
  640000   0.64890804   -2.3770492   -2.3770492   -1.6727381  0.036417381   -2.3770492    0.7043111   264187 
  650000   0.64821472   -2.3722087   -2.3722087   -1.6686501  0.039249706   -2.3722087    0.7035586   264187 
  660000   0.65039875   -2.3671514   -2.3671514   -1.6612224  0.038344427   -2.3671514   0.70592909   264187 
  670000   0.65109202   -2.3612839   -2.3612839   -1.6546023  0.033122697   -2.3612839   0.70668155   264187 
  680000   0.65281455   -2.3552394   -2.3552394   -1.6466882  0.038540663   -2.3552394   0.70855114   264187 
  690000   0.65406825   -2.3493302   -2.3493302   -1.6394183  0.038052948   -2.3493302   0.70991189   264187 
  700000   0.65289025   -2.3453767   -2.3453767   -1.6367434  0.034022616   -2.3453767   0.70863331   264187 
  710000   0.65581146   -2.3434159   -2.3434159    -1.631612   0.03709589   -2.3434159   0.71180393   264187 
  720000   0.65537615   -2.3368458   -2.3368458   -1.6255144  0.047394548   -2.3368458   0.71133146   264187 
  730000   0.65611445   -2.3322036   -2.3322036   -1.6200708  0.042371556   -2.3322036    0.7121328   264187 
  740000    0.6566795   -2.3283785   -2.3283785   -1.6156324    0.0373855   -2.3283785   0.71274608   264187 
  750000    0.6569304   -2.3203232   -2.3203232   -1.6073047  0.048107469   -2.3203232   0.71301841   264187 
  760000   0.66083854   -2.3153259   -2.3153259   -1.5980657  0.039467412   -2.3153259   0.71726022   264187 
  770000   0.65994714    -2.310339    -2.310339   -1.5940463  0.039152716    -2.310339   0.71629271   264187 
  780000   0.66199082    -2.306284    -2.306284   -1.5877732  0.039791549    -2.306284   0.71851088   264187 
  790000   0.66024867   -2.2975359   -2.2975359    -1.580916  0.036770742   -2.2975359   0.71661999   264187 
  800000   0.65915049    -2.294354    -2.294354    -1.578926  0.041474921    -2.294354   0.71542804   264187 
  810000    0.6622636   -2.2915935   -2.2915935   -1.5727865  0.036745128   -2.2915935   0.71880695   264187 
  820000   0.66362772   -2.2858396   -2.2858396   -1.5655521   0.04406908   -2.2858396   0.72028753   264187 
  830000   0.66295712   -2.2796523   -2.2796523   -1.5600926  0.040943047   -2.2796523   0.71955968   264187 
  840000     0.665199   -2.2758398   -2.2758398   -1.5538468    0.0425639   -2.2758398   0.72199297   264187 
  850000   0.66505423   -2.2704574   -2.2704574   -1.5486215  0.046256215   -2.2704574   0.72183584   264187 
  860000   0.66785933    -2.265697    -2.265697   -1.5408166  0.050042044    -2.265697   0.72488044   264187 
  870000   0.66780993    -2.260686    -2.260686   -1.5358592  0.041149304    -2.260686   0.72482682   264187 
  880000   0.66716956   -2.2560881   -2.2560881   -1.5319563  0.048462966   -2.2560881   0.72413177   264187 
  890000   0.66977127   -2.2500711   -2.2500711   -1.5231155  0.046263553   -2.2500711   0.72695562   264187 
  900000   0.67108545   -2.2463115   -2.2463115   -1.5179295  0.048251259   -2.2463115     0.728382   264187 
  910000   0.67073172   -2.2420631   -2.2420631   -1.5140651  0.051856091   -2.2420631   0.72799807   264187 
  920000   0.66989777    -2.236185    -2.236185   -1.5090921  0.041754444    -2.236185   0.72709292   264187 
  930000   0.67192129   -2.2308076   -2.2308076   -1.5015184  0.043552047   -2.2308076    0.7292892   264187 
  940000   0.67378364   -2.2250053   -2.2250053   -1.4936947  0.037498434   -2.2250053   0.73131055   264187 
  950000   0.67386093   -2.2229387   -2.2229387   -1.4915442  0.053399204   -2.2229387   0.73139445   264187 
  960000   0.67713205   -2.2187121   -2.2187121   -1.4837672  0.053076031   -2.2187121   0.73494485   264187 
  970000   0.67632724   -2.2119196   -2.2119196   -1.4778483  0.049593558   -2.2119196   0.73407133   264187 
  980000   0.67684163   -2.2064928   -2.2064928   -1.4718632  0.045946014   -2.2064928   0.73462964   264187 
  990000   0.67950378   -2.2031668   -2.2031668   -1.4656477  0.048102145   -2.2031668   0.73751908   264187 
 1000000    0.6781264   -2.1958251   -2.1958251    -1.459801  0.061905917   -2.1958251    0.7360241   264187 
 1010000   0.67907747    -2.191749    -2.191749   -1.4546926   0.04764264    -2.191749   0.73705637   264187 
 1020000   0.67978401   -2.1879119   -2.1879119   -1.4500887  0.044565515   -2.1879119   0.73782323   264187 
 1030000    0.6806268   -2.1847767   -2.1847767   -1.4460387  0.049778968   -2.1847767   0.73873798   264187 
 1040000   0.68153157   -2.1820129   -2.1820129   -1.4422929  0.050005399   -2.1820129      0.73972   264187 
 1050000   0.68284643   -2.1750718   -2.1750718   -1.4339247   0.04652726   -2.1750718   0.74114711   264187 
 1060000    0.6830006   -2.1700809   -2.1700809   -1.4287664  0.047236895   -2.1700809   0.74131445   264187 
 1070000   0.68470652   -2.1659053   -2.1659053   -1.4227392   0.03588038   -2.1659053   0.74316603   264187 
 1080000   0.68455006   -2.1599429   -2.1599429   -1.4169467  0.051128612   -2.1599429    0.7429962   264187 
 1090000   0.68636157   -2.1578861   -2.1578861   -1.4129237  0.049947313   -2.1578861   0.74496238   264187 
 1100000   0.68715324   -2.1542582   -2.1542582   -1.4084366  0.049686745   -2.1542582   0.74582164   264187 
 1110000   0.68769045   -2.1510631   -2.1510631   -1.4046584  0.052041952   -2.1510631   0.74640471   264187 
 1120000   0.68769761   -2.1470425   -2.1470425     -1.40063   0.05925573   -2.1470425   0.74641249   264187 
 1130000   0.68780818   -2.1429052   -2.1429052   -1.3963727  0.054240647   -2.1429052    0.7465325   264187 
 1140000   0.68970017    -2.139767    -2.139767    -1.391181  0.044665307    -2.139767   0.74858602   264187 
 1150000   0.68956538   -2.1368212   -2.1368212   -1.3883815  0.053554673   -2.1368212   0.74843972   264187 
 1160000   0.69133387   -2.1345627   -2.1345627   -1.3842035  0.049424758   -2.1345627    0.7503592   264187 
 1170000   0.69434774   -2.1349702   -2.1349702   -1.3813398  0.044004134   -2.1349702   0.75363039   264187 
 1180000    0.6928617   -2.1275594   -2.1275594   -1.3755419  0.054757406   -2.1275594   0.75201749   264187 
 1190000   0.69289244   -2.1206812   -2.1206812   -1.3686304  0.051066943   -2.1206812   0.75205085   264187 
 1200000   0.69361178   -2.1176345   -2.1176345   -1.3648029  0.044775742   -2.1176345    0.7528316   264187 
 1210000   0.69428084   -2.1138895   -2.1138895   -1.3603317  0.059973832   -2.1138895   0.75355779   264187 
 1220000   0.69501014   -2.1102459   -2.1102459   -1.3558966  0.052283541   -2.1102459   0.75434936   264187 
 1230000    0.6973768   -2.1084289   -2.1084289   -1.3515108  0.055090387   -2.1084289   0.75691807   264187 
 1240000   0.69670989   -2.1032449   -2.1032449   -1.3470507   0.05481277   -2.1032449   0.75619422   264187 
 1250000   0.69766007   -2.1007071   -2.1007071   -1.3434815  0.058634178   -2.1007071   0.75722553   264187 
 1260000   0.69778366   -2.0960366   -2.0960366   -1.3386769  0.051707194   -2.0960366   0.75735968   264187 
 1270000   0.70172489   -2.0951967   -2.0951967   -1.3335593  0.059720095   -2.0951967    0.7616374   264187 
 1280000   0.69905968    -2.090263    -2.090263   -1.3315184  0.055998413    -2.090263   0.75874464   264187 
 1290000   0.70284918    -2.089211    -2.089211   -1.3263533  0.066357529    -2.089211   0.76285768   264187 
 1300000    0.7014528   -2.0840713   -2.0840713   -1.3227292  0.052852395   -2.0840713   0.76134208   264187 
 1310000   0.70318377   -2.0825235   -2.0825235   -1.3193027  0.051655505   -2.0825235   0.76322084   264187 
 1320000   0.69971025   -2.0756683   -2.0756683   -1.3162175  0.065935929   -2.0756683   0.75945075   264187 
 1330000   0.70185295   -2.0759259   -2.0759259   -1.3141495  0.061102167   -2.0759259   0.76177639   264187 
 1340000   0.70394416   -2.0746341   -2.0746341    -1.310588  0.058806104   -2.0746341   0.76404615   264187 
 1350000     0.703275   -2.0703883   -2.0703883   -1.3070685   0.05947044   -2.0703883   0.76331986   264187 
 1360000   0.70368321   -2.0677642   -2.0677642   -1.3040013  0.058510486   -2.0677642   0.76376292   264187 
 1370000   0.70498693   -2.0647092   -2.0647092   -1.2995312  0.052038552   -2.0647092   0.76517795   264187 
 1380000    0.7036103   -2.0610622   -2.0610622   -1.2973784  0.065262957   -2.0610622   0.76368378   264187 
 1390000   0.70663777   -2.0593315   -2.0593315   -1.2923617  0.055901342   -2.0593315   0.76696974   264187 
 1400000   0.70820561    -2.058104    -2.058104   -1.2894326  0.050700735    -2.058104   0.76867143   264187 
 1410000   0.70732876   -2.0527789   -2.0527789   -1.2850592  0.060397236   -2.0527789   0.76771972   264187 
 1420000   0.70743625   -2.0517487   -2.0517487   -1.2839123   0.06450171   -2.0517487   0.76783639   264187 
 1430000   0.70962124   -2.0493755   -2.0493755   -1.2791676  0.049577558   -2.0493755   0.77020794   264187 
 1440000   0.70879801   -2.0460911   -2.0460911   -1.2767767  0.060284445   -2.0460911   0.76931441   264187 
 1450000   0.70905457    -2.044684    -2.044684   -1.2750911  0.059245751    -2.044684   0.76959288   264187 
 1460000   0.71176566   -2.0442888   -2.0442888   -1.2717533  0.056353401   -2.0442888   0.77253544   264187 
 1470000   0.71082914   -2.0406024   -2.0406024   -1.2690834   0.05767907   -2.0406024   0.77151896   264187 
 1480000   0.71016496   -2.0369492   -2.0369492   -1.2661511  0.060557139   -2.0369492   0.77079807   264187 
 1490000    0.7132095    -2.035546    -2.035546   -1.2614435  0.060571144    -2.035546   0.77410255   264187 
 1500000   0.71415877   -2.0333757   -2.0333757   -1.2582429  0.060326425   -2.0333757   0.77513287   264187 
 1510000   0.71415508   -2.0299277   -2.0299277   -1.2547989  0.054878758   -2.0299277   0.77512887   264187 
 1520000   0.71342398    -2.027341    -2.027341   -1.2530056  0.047086653    -2.027341   0.77433535   264187 
 1530000   0.71735749   -2.0266396   -2.0266396   -1.2480349    0.0672858   -2.0266396   0.77860469   264187 
 1540000    0.7158434   -2.0236683   -2.0236683   -1.2467069  0.054196105   -2.0236683   0.77696133   264187 
 1550000   0.71811307   -2.0219952   -2.0219952   -1.2425704  0.069630986   -2.0219952   0.77942478   264187 
 1560000   0.71817074   -2.0201073   -2.0201073   -1.2406199   0.06437345   -2.0201073   0.77948738   264187 
 1570000    0.7187173   -2.0167852   -2.0167852   -1.2367046   0.06545654   -2.0167852   0.78008061   264187 
 1580000   0.71995267   -2.0160876   -2.0160876   -1.2346662  0.067722283   -2.0160876   0.78142145   264187 
 1590000    0.7193375   -2.0115317   -2.0115317   -1.2307779  0.057165981   -2.0115317   0.78075375   264187 
 1600000   0.72059346   -2.0107749   -2.0107749    -1.228658  0.059261232   -2.0107749   0.78211695   264187 
 1610000   0.72238155   -2.0085428   -2.0085428   -1.2244851  0.052630194   -2.0085428    0.7840577   264187 
 1620000   0.72161726   -2.0046366   -2.0046366   -1.2214084  0.060266763   -2.0046366   0.78322816   264187 
 1630000   0.72080199   -1.9998586   -1.9998586   -1.2175153  0.063601231   -1.9998586   0.78234329   264187 
 1640000   0.72318207   -1.9997971   -1.9997971   -1.2148705   0.05828261   -1.9997971   0.78492657   264187 
 1650000    0.7229675   -1.9966548   -1.9966548   -1.2119611  0.065616944   -1.9966548   0.78469368   264187 
 1660000   0.72514767   -1.9963784   -1.9963784   -1.2093184  0.060857045   -1.9963784   0.78705999   264187 
 1670000   0.72558547   -1.9935693   -1.9935693   -1.2060341  0.057999141   -1.9935693   0.78753518   264187 
 1680000   0.72613627   -1.9912276   -1.9912276   -1.2030946  0.072624258   -1.9912276     0.788133   264187 
 1690000   0.72700805   -1.9879643   -1.9879643   -1.1988851  0.058146362   -1.9879643    0.7890792   264187 
 1700000   0.72756056    -1.988015    -1.988015   -1.1983361  0.062890338    -1.988015    0.7896789   264187 
 1710000   0.72986396   -1.9876418   -1.9876418   -1.1954629  0.059442145   -1.9876418   0.79217895   264187 
 1720000   0.72680575   -1.9830559   -1.9830559   -1.1941962  0.062956019   -1.9830559   0.78885964   264187 
 1730000   0.73003574   -1.9843745   -1.9843745   -1.1920091  0.061119056   -1.9843745    0.7923654   264187 
 1740000   0.72766015   -1.9809913   -1.9809913   -1.1912044  0.065674121   -1.9809913   0.78978698   264187 
 1750000   0.72929182   -1.9796406   -1.9796406   -1.1880826  0.059935224   -1.9796406   0.79155796   264187 
 1760000   0.72993379   -1.9772689   -1.9772689   -1.1850141  0.061339856   -1.9772689   0.79225474   264187 
 1770000     0.729586   -1.9739258   -1.9739258   -1.1820486  0.068927903   -1.9739258   0.79187726   264187 
 1780000   0.73110972   -1.9724071   -1.9724071    -1.178876  0.052136819   -1.9724071   0.79353107   264187 
 1790000   0.73094582   -1.9708758   -1.9708758   -1.1775226  0.067598765   -1.9708758   0.79335318   264187 
 1800000   0.73299908   -1.9684203   -1.9684203   -1.1728386  0.078459347   -1.9684203   0.79558174   264187 
 1810000   0.73333027   -1.9682498   -1.9682498   -1.1723086   0.06825358   -1.9682498   0.79594122   264187 
 1820000   0.73390268   -1.9635723   -1.9635723   -1.1670098  0.070395136   -1.9635723   0.79656249   264187 
 1830000    0.7354591   -1.9645574   -1.9645574   -1.1663056  0.061744678   -1.9645574    0.7982518   264187 
 1840000   0.73583113   -1.9627909   -1.9627909   -1.1641354  0.072205049   -1.9627909   0.79865559   264187 
 1850000   0.73729383   -1.9601803   -1.9601803   -1.1599372  0.058182047   -1.9601803   0.80024318   264187 
 1860000   0.73619753   -1.9567204   -1.9567204   -1.1576672  0.068226507   -1.9567204   0.79905328   264187 
 1870000    0.7392048   -1.9579813   -1.9579813    -1.155664  0.061717246   -1.9579813    0.8023173   264187 
 1880000   0.73784629   -1.9521546   -1.9521546   -1.1513118  0.056624553   -1.9521546   0.80084281   264187 
 1890000   0.73833657   -1.9514603   -1.9514603   -1.1500853  0.063631634   -1.9514603   0.80137494   264187 
 1900000   0.73786423   -1.9498182   -1.9498182   -1.1489559  0.075230792   -1.9498182   0.80086228   264187 
 1910000   0.74193042   -1.9492003   -1.9492003   -1.1439246  0.077924838   -1.9492003   0.80527564   264187 
 1920000    0.7404228   -1.9446611   -1.9446611   -1.1410218  0.066654126   -1.9446611   0.80363929   264187 
 1930000   0.74099487   -1.9429188   -1.9429188   -1.1386586  0.081055447   -1.9429188   0.80426021   264187 
 1940000   0.74061288   -1.9394556   -1.9394556     -1.13561  0.072845834   -1.9394556    0.8038456   264187 
 1950000   0.74356942   -1.9407804   -1.9407804   -1.1337259  0.070890108   -1.9407804   0.80705457   264187 
 1960000   0.74175599   -1.9372894   -1.9372894   -1.1322031  0.068337836   -1.9372894   0.80508632   264187 
 1970000   0.74216224   -1.9359235   -1.9359235   -1.1303962  0.063272038   -1.9359235   0.80552725   264187 
 1980000   0.74314356   -1.9346769   -1.9346769   -1.1280846  0.065222421   -1.9346769   0.80659235   264187 
 1990000   0.74429853   -1.9325517   -1.9325517   -1.1247058  0.068464498   -1.9325517   0.80784593   264187 
 2000000   0.74484218   -1.9302976   -1.9302976   -1.1218616  0.083419456   -1.9302976     0.808436   264187 
 2010000   0.74560863   -1.9288547   -1.9288547   -1.1195868  0.064435365   -1.9288547   0.80926789   264187 
 2020000   0.74616907   -1.9271463   -1.9271463   -1.1172701  0.068227637   -1.9271463   0.80987618   264187 
 2030000   0.74742839   -1.9269334   -1.9269334   -1.1156904  0.070443471   -1.9269334   0.81124301   264187 
 2040000   0.74874713   -1.9256087   -1.9256087   -1.1129343  0.065185923   -1.9256087   0.81267434   264187 
 2050000   0.75005361   -1.9245703   -1.9245703   -1.1104779  0.071350865   -1.9245703   0.81409237   264187 
 2060000   0.74930781   -1.9207293   -1.9207293   -1.1074464  0.066990729   -1.9207293    0.8132829   264187 
 2070000   0.74990202   -1.9184054   -1.9184054   -1.1044775  0.068029935   -1.9184054   0.81392785   264187 
 2080000   0.75050971   -1.9169604   -1.9169604    -1.102373  0.060007752   -1.9169604   0.81458741   264187 
 2090000   0.75119216   -1.9140072   -1.9140072   -1.0986791  0.083617664   -1.9140072   0.81532813   264187 
 2100000   0.75197151     -1.91364     -1.91364    -1.097466  0.067080194     -1.91364   0.81617402   264187 
 2110000    0.7517584   -1.9112727   -1.9112727   -1.0953299  0.077148991   -1.9112727   0.81594272   264187 
 2120000   0.75181631   -1.9075978   -1.9075978   -1.0915923  0.068712689   -1.9075978   0.81600558   264187 
 2130000   0.75395163   -1.9067735   -1.9067735   -1.0884503  0.071486936   -1.9067735    0.8183232   264187 
 2140000   0.75517078   -1.9050532   -1.9050532   -1.0854067  0.074943517   -1.9050532   0.81964644   264187 
 2150000   0.75725559   -1.9058635   -1.9058635   -1.0839543  0.063631295   -1.9058635   0.82190925   264187 
 2160000   0.75682981   -1.9020836   -1.9020836   -1.0806365  0.067677608   -1.9020836   0.82144712   264187 
 2170000   0.75529152   -1.8988728   -1.8988728   -1.0790953   0.06142295   -1.8988728    0.8197775   264187 
 2180000   0.75474647   -1.8969459   -1.8969459   -1.0777599   0.07435137   -1.8969459   0.81918591   264187 
 2190000   0.75788609   -1.8955413   -1.8955413   -1.0729477  0.071432688   -1.8955413   0.82259358   264187 
 2200000   0.75893205   -1.8941222   -1.8941222   -1.0703934  0.078661656   -1.8941222   0.82372885   264187 
 2210000   0.76108128   -1.8931043   -1.8931043   -1.0670427  0.081593622   -1.8931043   0.82606158   264187 
 2220000   0.76245978   -1.8918817   -1.8918817   -1.0643239  0.079204729   -1.8918817   0.82755777   264187 
 2230000   0.76310897    -1.886843    -1.886843   -1.0585806  0.073124458    -1.886843   0.82826239   264187 
 2240000    0.7641164   -1.8870901   -1.8870901   -1.0577343  0.067450404   -1.8870901   0.82935583   264187 
 2250000    0.7625643   -1.8841819   -1.8841819   -1.0565107  0.066280551   -1.8841819   0.82767122   264187 
 2260000   0.76362447   -1.8822548   -1.8822548   -1.0534329  0.073030538   -1.8822548   0.82882191   264187 
 2270000   0.76512963   -1.8805294   -1.8805294   -1.0500739  0.073230911   -1.8805294   0.83045557   264187 
 2280000   0.76635066   -1.8789518   -1.8789518   -1.0471709  0.076430956   -1.8789518   0.83178085   264187 
 2290000   0.76676533   -1.8769986   -1.8769986   -1.0447676  0.067834807   -1.8769986   0.83223092   264187 
 2300000   0.76874401   -1.8774011   -1.8774011   -1.0430226  0.073419909   -1.8774011   0.83437854   264187 
 2310000   0.76685001   -1.8719414   -1.8719414   -1.0396185  0.073141112   -1.8719414   0.83232283   264187 
 2320000   0.77016553   -1.8708868   -1.8708868   -1.0349653  0.070250474   -1.8708868   0.83592142   264187 
 2330000   0.77320042   -1.8726747   -1.8726747   -1.0334593  0.073992259   -1.8726747   0.83921543   264187 
 2340000   0.77089329   -1.8668021   -1.8668021   -1.0300907  0.077016552   -1.8668021   0.83671132   264187 
 2350000   0.77150999   -1.8644722   -1.8644722   -1.0270915   0.07618953   -1.8644722   0.83738068   264187 
 2360000   0.77341017   -1.8632439   -1.8632439   -1.0238008  0.082314256   -1.8632439   0.83944309   264187 
 2370000   0.77401772   -1.8634327   -1.8634327   -1.0233302   0.07406608   -1.8634327   0.84010251   264187 
 2380000   0.77429429   -1.8606445   -1.8606445   -1.0202418   0.07368226   -1.8606445   0.84040269   264187 
 2390000    0.7741431   -1.8586679   -1.8586679   -1.0184293  0.073908345   -1.8586679    0.8402386   264187 
 2400000    0.7757939   -1.8567176   -1.8567176   -1.0146873  0.083661376   -1.8567176   0.84203034   264187 
 2410000   0.77737518   -1.8564661   -1.8564661   -1.0127195  0.071945099   -1.8564661   0.84374663   264187 
 2420000   0.77865394   -1.8531307   -1.8531307   -1.0079962  0.068230796   -1.8531307   0.84513457   264187 
 2430000   0.78013725   -1.8510672   -1.8510672   -1.0043227  0.077421734   -1.8510672   0.84674452   264187 
 2440000   0.77953404   -1.8505605   -1.8505605   -1.0044707  0.085944338   -1.8505605   0.84608982   264187 
 2450000    0.7811253    -1.849897    -1.849897   -1.0020801  0.082631396    -1.849897   0.84781693   264187 
 2460000   0.78139028   -1.8464765   -1.8464765  -0.99837198  0.074054479   -1.8464765   0.84810454   264187 
 2470000   0.78277201   -1.8446974   -1.8446974  -0.99509312   0.07502761   -1.8446974   0.84960424   264187 
 2480000   0.78359323    -1.844563    -1.844563  -0.99406748  0.081689202    -1.844563   0.85049557   264187 
 2490000   0.78253363    -1.841073    -1.841073  -0.99172749  0.069793295    -1.841073   0.84934551   264187 
 2500000   0.78461087   -1.8398936   -1.8398936   -0.9882935  0.067835538   -1.8398936    0.8516001   264187 
 2510000   0.78632028   -1.8375863   -1.8375863  -0.98413089  0.071327322   -1.8375863   0.85345546   264187 
 2520000   0.78536433   -1.8335049   -1.8335049    -0.981087  0.075905113   -1.8335049   0.85241788   264187 
 2530000   0.78746656    -1.835149    -1.835149  -0.98044938  0.079471876    -1.835149    0.8546996   264187 
 2540000    0.7886368   -1.8315903   -1.8315903  -0.97562054  0.083606819   -1.8315903   0.85596975   264187 
 2550000   0.78854204   -1.8286525   -1.8286525  -0.97278562   0.07808093   -1.8286525   0.85586691   264187 
 2560000   0.78901557   -1.8250389   -1.8250389  -0.96865801  0.079590172   -1.8250389   0.85638087   264187 
 2570000   0.79154176   -1.8261975   -1.8261975  -0.96707471  0.076671004   -1.8261975   0.85912274   264187 
 2580000   0.79280175   -1.8259256   -1.8259256  -0.96543532  0.083544337   -1.8259256    0.8604903   264187 
 2590000   0.79154928   -1.8221383   -1.8221383  -0.96300741  0.080935839   -1.8221383    0.8591309   264187 
 2600000   0.79231695   -1.8214088   -1.8214088  -0.96144464  0.076357489   -1.8214088   0.85996412   264187 
 2610000   0.79525471   -1.8219326   -1.8219326   -0.9587799  0.079228056   -1.8219326    0.8631527   264187 
 2620000   0.79432028   -1.8172753   -1.8172753  -0.95513679  0.090694617   -1.8172753   0.86213848   264187 
 2630000   0.79519857    -1.816349    -1.816349  -0.95325727  0.090524761    -1.816349   0.86309177   264187 
 2640000   0.79543753   -1.8136556   -1.8136556   -0.9503045  0.077457592   -1.8136556   0.86335112   264187 
 2650000   0.79745042   -1.8129365   -1.8129365  -0.94740064  0.078692909   -1.8129365   0.86553587   264187 
 2660000   0.79675965    -1.810735    -1.810735   -0.9459489  0.085034058    -1.810735   0.86478612   264187 
 2670000   0.79951513   -1.8101946   -1.8101946  -0.94241777  0.089707626   -1.8101946   0.86777687   264187 
 2680000   0.79881481   -1.8079292   -1.8079292  -0.94091241  0.070292054   -1.8079292   0.86701675   264187 
 2690000   0.79888941   -1.8067209   -1.8067209  -0.93962313  0.092677724   -1.8067209   0.86709772   264187 
 2700000    0.7992823     -1.80326     -1.80326  -0.93573582  0.073308459     -1.80326   0.86752416   264187 
 2710000   0.79926216   -1.8015515   -1.8015515  -0.93404923  0.083551199   -1.8015515    0.8675023   264187 
 2720000   0.80291126   -1.8022904   -1.8022904  -0.93082746  0.082449019   -1.8022904   0.87146296   264187 
 2730000   0.80193536   -1.7984323   -1.7984323  -0.92802855  0.077605551   -1.7984323   0.87040373   264187 
 2740000   0.80185186   -1.7964711   -1.7964711  -0.92615804  0.082870913   -1.7964711   0.87031311   264187 
 2750000    0.8071309   -1.7975033   -1.7975033  -0.92146045  0.084501178   -1.7975033   0.87604286   264187 
 2760000   0.80658851   -1.7932375   -1.7932375  -0.91778333  0.078281813   -1.7932375   0.87545416   264187 
 2770000   0.80800419    -1.792693    -1.792693  -0.91570231  0.090297829    -1.792693   0.87699071   264187 
 2780000   0.80637774   -1.7895798   -1.7895798  -0.91435436  0.087059481   -1.7895798    0.8752254   264187 
 2790000   0.81070323   -1.7903455   -1.7903455  -0.91042534  0.082545906   -1.7903455   0.87992019   264187 
 2800000   0.80799934   -1.7854607   -1.7854607  -0.90847527  0.090770613   -1.7854607   0.87698545   264187 
 2810000   0.80931155     -1.78547     -1.78547  -0.90706031  0.089713452     -1.78547    0.8784097   264187 
 2820000   0.81319861   -1.7840063   -1.7840063  -0.90137764  0.089755775   -1.7840063   0.88262863   264187 
 2830000   0.81107829   -1.7802019   -1.7802019  -0.89987463   0.08332673   -1.7802019   0.88032727   264187 
 2840000    0.8121807   -1.7797856   -1.7797856  -0.89826182  0.086441729   -1.7797856    0.8815238   264187 
 2850000   0.81537981   -1.7800963   -1.7800963   -0.8951002  0.088726016   -1.7800963   0.88499605   264187 
 2860000   0.81486265   -1.7777329   -1.7777329  -0.89329819  0.091442313   -1.7777329   0.88443474   264187 
 2870000   0.81629715   -1.7766553   -1.7766553  -0.89066359  0.086136283   -1.7766553   0.88599171   264187 
 2880000   0.81787474   -1.7758365   -1.7758365   -0.8881325  0.079230761   -1.7758365     0.887704   264187 
 2890000   0.81654853   -1.7701292   -1.7701292   -0.8838646  0.090492966   -1.7701292   0.88626456   264187 
 2900000   0.81777334   -1.7704283   -1.7704283   -0.8828344  0.092090936   -1.7704283   0.88759394   264187 
 2910000   0.81919692   -1.7692868   -1.7692868  -0.88014779  0.087678105   -1.7692868   0.88913906   264187 
 2920000   0.82079066   -1.7674516   -1.7674516  -0.87658271  0.086108887   -1.7674516   0.89086887   264187 
 2930000   0.82113532   -1.7647111   -1.7647111   -0.8734681  0.094982677   -1.7647111   0.89124296   264187 
 2940000   0.82282935   -1.7634573   -1.7634573  -0.87037569   0.10215271   -1.7634573   0.89308163   264187 
 2950000   0.82546665   -1.7641938   -1.7641938  -0.86824969  0.091599863   -1.7641938    0.8959441   264187 
 2960000   0.82440547   -1.7610406   -1.7610406  -0.86624825  0.088389523   -1.7610406   0.89479232   264187 
 2970000   0.82596705   -1.7596772   -1.7596772  -0.86318997  0.077955109   -1.7596772   0.89648722   264187 
 2980000   0.82630124   -1.7563268   -1.7563268  -0.85947688  0.084063336   -1.7563268   0.89684995   264187 
 2990000   0.82737543   -1.7553693   -1.7553693  -0.85735347   0.10292914   -1.7553693   0.89801585   264187 
 3000000   0.82833194   -1.7530301   -1.7530301   -0.8539761   0.09463858   -1.7530301   0.89905402   264187 
 3010000    0.8280246   -1.7513086   -1.7513086  -0.85258813   0.08574432   -1.7513086   0.89872045   264187 
 3020000   0.83009732   -1.7528319   -1.7528319  -0.85186179  0.092258002   -1.7528319   0.90097013   264187 
 3030000   0.83017218   -1.7492799   -1.7492799  -0.84822853  0.093729224   -1.7492799   0.90105138   264187 
 3040000   0.83208963   -1.7491122   -1.7491122  -0.84597963  0.092324754   -1.7491122   0.90313254   264187 
 3050000   0.83422195   -1.7462146   -1.7462146  -0.84076771   0.09225314   -1.7462146   0.90544691   264187 
 3060000   0.83654428   -1.7452355   -1.7452355  -0.83726793  0.093247312   -1.7452355   0.90796753   264187 
 3070000   0.83601449   -1.7417006   -1.7417006  -0.83430812   0.08558432   -1.7417006    0.9073925   264187 
 3080000   0.83963125   -1.7429039   -1.7429039  -0.83158586  0.098750318   -1.7429039   0.91131805   264187 
 3090000   0.83936212   -1.7419257   -1.7419257  -0.83089975  0.091621833   -1.7419257   0.91102595   264187 
 3100000   0.83712368    -1.737023    -1.737023  -0.82842664  0.090184788    -1.737023   0.90859639   264187 
 3110000   0.84132923   -1.7354226   -1.7354226  -0.82226155  0.096286439   -1.7354226     0.913161   264187 
 3120000   0.84065734   -1.7317463   -1.7317463  -0.81931453  0.093607518   -1.7317463   0.91243175   264187 
 3130000    0.8423711   -1.7305447   -1.7305447  -0.81625291   0.10287172   -1.7305447   0.91429184   264187 
 3140000    0.8439719   -1.7308533   -1.7308533  -0.81482401  0.090115507   -1.7308533    0.9160293   264187 
 3150000   0.84632295   -1.7298889   -1.7298889  -0.81130786  0.094593987   -1.7298889   0.91858108   264187 
 3160000   0.84567608   -1.7286145   -1.7286145  -0.81073553   0.10598382   -1.7286145   0.91787899   264187 
 3170000   0.84648722   -1.7259528   -1.7259528  -0.80719345  0.084003772   -1.7259528   0.91875939   264187 
 3180000   0.84806431   -1.7259277   -1.7259277  -0.80545662  0.090656235   -1.7259277   0.92047112   264187 
 3190000    0.8477872    -1.722004    -1.722004  -0.80183365  0.097117073    -1.722004   0.92017035   264187 
 3200000   0.85093393   -1.7216574   -1.7216574  -0.79807168  0.099070249   -1.7216574   0.92358575   264187 
 3210000   0.85164874    -1.719642    -1.719642  -0.79528036  0.093772901    -1.719642   0.92436159   264187 
 3220000   0.85242295   -1.7176128   -1.7176128  -0.79241094  0.095148875   -1.7176128   0.92520189   264187 
 3230000   0.85496662   -1.7179068   -1.7179068  -0.78994407  0.096614885   -1.7179068   0.92796274   264187 
 3240000   0.85346305   -1.7130243   -1.7130243  -0.78669354  0.099852847   -1.7130243    0.9263308   264187 
 3250000   0.85554387   -1.7115161   -1.7115161  -0.78292678  0.097232333   -1.7115161   0.92858928   264187 
 3260000   0.85530004   -1.7098564   -1.7098564  -0.78153173  0.098278676   -1.7098564   0.92832463   264187 
 3270000   0.85707554   -1.7086932   -1.7086932  -0.77844146  0.094209494   -1.7086932   0.93025172   264187 
 3280000   0.85793062   -1.7081431   -1.7081431   -0.7769633   0.10665241   -1.7081431    0.9311798   264187 
 3290000   0.85739636   -1.7044287   -1.7044287  -0.77382877   0.10368517   -1.7044287   0.93059993   264187 
 3300000   0.86052074    -1.706055    -1.706055  -0.77206396   0.10062195    -1.706055   0.93399107   264187 
 3310000   0.86294388   -1.7049637   -1.7049637   -0.7683426   0.10102897   -1.7049637   0.93662109   264187 
 3320000    0.8597875   -1.7004275   -1.7004275  -0.76723232   0.10431527   -1.7004275   0.93319522   264187 
 3330000   0.86389184   -1.6997853   -1.6997853   -0.7621353   0.10429799   -1.6997853   0.93764999   264187 
 3340000   0.86454683   -1.6975537   -1.6975537   -0.7591928  0.090372021   -1.6975537   0.93836091   264187 
 3350000   0.86509035    -1.696059    -1.696059  -0.75710816   0.09618771    -1.696059   0.93895083   264187 
 3360000   0.86658581   -1.6954629   -1.6954629  -0.75488893   0.10046064   -1.6954629   0.94057397   264187 
 3370000   0.86735146   -1.6934827   -1.6934827  -0.75207771   0.10779216   -1.6934827   0.94140499   264187 
 3380000   0.86896532   -1.6928801   -1.6928801  -0.74972344  0.091695853   -1.6928801   0.94315663   264187 
 3390000   0.86978732    -1.691255    -1.691255   -0.7472062   0.10665856    -1.691255   0.94404882   264187 
 3400000   0.87088987   -1.6930117   -1.6930117   -0.7477662   0.10837244   -1.6930117   0.94524551   264187 
 3410000   0.87174573     -1.68896     -1.68896  -0.74278556   0.10582121     -1.68896   0.94617444   264187 
 3420000   0.87069162   -1.6875306   -1.6875306   -0.7425003   0.11306035   -1.6875306   0.94503033   264187 
 3430000   0.87191902   -1.6857724   -1.6857724  -0.73940991   0.10095044   -1.6857724   0.94636253   264187 
 3440000   0.87217447   -1.6835466   -1.6835466  -0.73690685   0.10137607   -1.6835466   0.94663979   264187 
 3450000   0.87494133   -1.6819465   -1.6819465  -0.73230361   0.11185521   -1.6819465   0.94964287   264187 
 3460000   0.87450409   -1.6797955   -1.6797955  -0.73062724  0.098175933   -1.6797955    0.9491683   264187 
 3470000   0.87821719   -1.6803001   -1.6803001  -0.72710166   0.11084215   -1.6803001   0.95319843   264187 
 3480000   0.87728145   -1.6777529   -1.6777529  -0.72557008   0.10213782   -1.6777529   0.95218279   264187 
 3490000   0.87838728   -1.6761056   -1.6761056  -0.72272254   0.10714779   -1.6761056   0.95338304   264187 
 3500000   0.87849358   -1.6736518   -1.6736518  -0.72015343   0.11046936   -1.6736518   0.95349841   264187 
 3510000   0.87944209   -1.6708773   -1.6708773  -0.71634936   0.10206013   -1.6708773   0.95452791   264187 
 3520000   0.88316413    -1.672929    -1.672929  -0.71436129   0.10263324    -1.672929   0.95856773   264187 
 3530000    0.8834738   -1.6711001   -1.6711001  -0.71219623    0.1070648   -1.6711001   0.95890384   264187 
 3540000   0.88189909   -1.6690842   -1.6690842  -0.71188955   0.10795811   -1.6690842   0.95719468   264187 
 3550000   0.88445174   -1.6675672   -1.6675672  -0.70760194   0.10480835   -1.6675672   0.95996527   264187 
 3560000   0.88407627   -1.6640698   -1.6640698  -0.70451204   0.10735055   -1.6640698   0.95955774   264187 
 3570000   0.88652054    -1.662143    -1.662143  -0.69993228   0.10636006    -1.662143   0.96221071   264187 
 3580000   0.88912332   -1.6614142   -1.6614142   -0.6963785   0.10730423   -1.6614142   0.96503571   264187 
 3590000   0.89253079   -1.6625099   -1.6625099  -0.69377575   0.10275241   -1.6625099   0.96873411   264187 
 3600000   0.89067184   -1.6598282   -1.6598282   -0.6931118   0.11427358   -1.6598282   0.96671644   264187 
 3610000   0.89176249   -1.6586087   -1.6586087  -0.69070854   0.09843972   -1.6586087   0.96790021   264187 
 3620000   0.89263455   -1.6539748   -1.6539748  -0.68512808   0.10186401   -1.6539748   0.96884672   264187 
 3630000   0.89178634   -1.6528747   -1.6528747  -0.68494856   0.10866582   -1.6528747   0.96792609   264187 
 3640000   0.89485378   -1.6523015   -1.6523015  -0.68104607   0.11710149   -1.6523015   0.97125542   264187 
 3650000   0.89793486    -1.654575    -1.654575  -0.67997541   0.10747366    -1.654575   0.97459956   264187 
 3660000   0.89578938   -1.6501223   -1.6501223  -0.67785143   0.11335691   -1.6501223    0.9722709   264187 
 3670000   0.89849395   -1.6485054   -1.6485054  -0.67329899   0.11352144   -1.6485054   0.97520639   264187 
 3680000   0.89820835   -1.6468904   -1.6468904  -0.67199404   0.10696146   -1.6468904   0.97489641   264187 
 3690000    0.8985771   -1.6456896   -1.6456896  -0.67039298   0.11461677   -1.6456896   0.97529664   264187 
 3700000   0.90200064   -1.6444189   -1.6444189  -0.66540643   0.11207525   -1.6444189   0.97901248   264187 
 3710000   0.90488948   -1.6440097   -1.6440097  -0.66186176   0.10517685   -1.6440097   0.98214796   264187 
 3720000   0.90573762    -1.641032    -1.641032  -0.65796352   0.11625325    -1.641032   0.98306852   264187 
 3730000   0.90620243   -1.6397833   -1.6397833  -0.65621025   0.12133827   -1.6397833   0.98357301   264187 
 3740000   0.90671389    -1.637647    -1.637647  -0.65351886   0.11761132    -1.637647   0.98412814   264187 
 3750000   0.90840563   -1.6354118   -1.6354118  -0.64944746   0.10432814   -1.6354118   0.98596432   264187 
 3760000   0.90632657   -1.6337082   -1.6337082  -0.65000044   0.11405631   -1.6337082   0.98370775   264187 
 3770000   0.91078809     -1.63365     -1.63365  -0.64509976   0.11715917     -1.63365    0.9885502   264187 
 3780000    0.9099779   -1.6315374   -1.6315374  -0.64386659   0.12268879   -1.6315374   0.98767083   264187 
 3790000    0.9130545    -1.632091    -1.632091  -0.64108092   0.10801027    -1.632091    0.9910101   264187 
 3800000   0.91335215   -1.6305139   -1.6305139  -0.63918071   0.11178213   -1.6305139   0.99133317   264187 
 3810000   0.91605041   -1.6302746   -1.6302746  -0.63601276   0.11541625   -1.6302746    0.9942618   264187 
 3820000   0.91735864   -1.6290182   -1.6290182  -0.63333647   0.11128363   -1.6290182   0.99568173   264187 
 3830000   0.91442672   -1.6260826   -1.6260826  -0.63358309    0.1156928   -1.6260826   0.99249948   264187 
 3840000   0.91957886   -1.6274646   -1.6274646  -0.62937314   0.11559386   -1.6274646    0.9980915   264187 
 3850000   0.91591979   -1.6246074   -1.6246074  -0.63048737   0.11579971   -1.6246074   0.99412003   264187 
 3860000   0.91737851   -1.6223495   -1.6223495  -0.62664625   0.11877246   -1.6223495   0.99570329   264187 
 3870000   0.91973763   -1.6213275   -1.6213275  -0.62306369  0.099851128   -1.6213275   0.99826383   264187 
 3880000   0.92363892   -1.6216951   -1.6216951  -0.61919691   0.10430984   -1.6216951    1.0024982   264187 
 3890000   0.92378666   -1.6203637   -1.6203637  -0.61770517   0.11767293   -1.6203637    1.0026586   264187 
 3900000   0.92445553   -1.6179047   -1.6179047   -0.6145202   0.11280377   -1.6179047    1.0033845   264187 
 3910000   0.92560899   -1.6165823   -1.6165823  -0.61194585   0.11028118   -1.6165823    1.0046365   264187 
 3920000   0.92617416   -1.6142694   -1.6142694  -0.60901948   0.11986011   -1.6142694    1.0052499   264187 
 3930000   0.92818494   -1.6140085   -1.6140085  -0.60657612   0.12381299   -1.6140085    1.0074324   264187 
 3940000   0.92796844   -1.6118073   -1.6118073  -0.60460994   0.11391831   -1.6118073    1.0071974   264187 
 3950000   0.93023147   -1.6121083   -1.6121083  -0.60245468   0.11633606   -1.6121083    1.0096536   264187 
 3960000   0.93255332   -1.6103546   -1.6103546  -0.59818088   0.12345462   -1.6103546    1.0121737   264187 
 3970000   0.93400365   -1.6088962   -1.6088962  -0.59514837   0.11899135   -1.6088962    1.0137479   264187 
 3980000   0.93442016    -1.608427    -1.608427  -0.59422706   0.11783068    -1.608427    1.0141999   264187 
 3990000   0.93461872   -1.6061084   -1.6061084  -0.59169296   0.11745627   -1.6061084    1.0144154   264187 
 4000000   0.93265504   -1.6024836   -1.6024836  -0.59019948   0.12014601   -1.6024836    1.0122841   264187 
 4010000   0.93744201    -1.604524    -1.604524   -0.5870442   0.11919653    -1.604524    1.0174798   264187 
 4020000   0.93644267   -1.6031454   -1.6031454  -0.58675031   0.11738246   -1.6031454    1.0163951   264187 
 4030000   0.93823102   -1.6010388   -1.6010388  -0.58270263   0.11760724   -1.6010388    1.0183362   264187 
 4040000    0.9418669   -1.6002679   -1.6002679  -0.57798542   0.11894224   -1.6002679    1.0222825   264187 
 4050000   0.94428369   -1.6010445   -1.6010445  -0.57613885   0.10478746   -1.6010445    1.0249056   264187 
 4060000   0.94198395    -1.595677    -1.595677   -0.5732675   0.12618843    -1.595677    1.0224095   264187 
 4070000   0.94446847   -1.5952733   -1.5952733  -0.57016711   0.12749443   -1.5952733    1.0251062   264187 
 4080000    0.9437406   -1.5903093   -1.5903093  -0.56599319    0.1150482   -1.5903093    1.0243162   264187 
 4090000   0.94684363   -1.5920363   -1.5920363  -0.56435223   0.13249975   -1.5920363    1.0276841   264187 
 4100000   0.94934836   -1.5917749   -1.5917749  -0.56137224   0.12007042   -1.5917749    1.0304027   264187 
 4110000   0.94769314   -1.5888905   -1.5888905  -0.56028437   0.12929688   -1.5888905    1.0286061   264187 
 4120000   0.94865532   -1.5885503   -1.5885503  -0.55889986    0.1235602   -1.5885503    1.0296505   264187 
 4130000   0.94944135   -1.5855497   -1.5855497  -0.55504609   0.13320659   -1.5855497    1.0305036   264187 
 4140000   0.95215594   -1.5857843   -1.5857843   -0.5523343    0.1181138   -1.5857843      1.03345   264187 
 4150000   0.95322846   -1.5847857   -1.5847857  -0.55017163   0.11723208   -1.5847857    1.0346141   264187 
 4160000   0.95240425   -1.5812637   -1.5812637  -0.54754417   0.12652366   -1.5812637    1.0337195   264187 
 4170000   0.95464036   -1.5804947   -1.5804947  -0.54434817   0.12576625   -1.5804947    1.0361465   264187 
 4180000   0.95414609   -1.5803705   -1.5803705  -0.54476041   0.13558437   -1.5803705      1.03561   264187 
 4190000   0.95605579   -1.5785123   -1.5785123  -0.54082952   0.13123138   -1.5785123    1.0376828   264187 
 4200000   0.95676188   -1.5769255   -1.5769255  -0.53847636   0.13263081   -1.5769255    1.0384492   264187 
 4210000   0.95899374   -1.5763096   -1.5763096  -0.53543798   0.12946244   -1.5763096    1.0408716   264187 
 4220000   0.95992382   -1.5747782   -1.5747782  -0.53289715   0.12464154   -1.5747782    1.0418811   264187 
 4230000   0.96055044   -1.5738468   -1.5738468  -0.53128565   0.11715264   -1.5738468    1.0425612   264187 
 4240000   0.96318932   -1.5736146   -1.5736146   -0.5281892   0.13249197   -1.5736146    1.0454254   264187 
 4250000   0.96443866   -1.5726418   -1.5726418  -0.52586039   0.12944206   -1.5726418    1.0467814   264187 
 4260000   0.96474981   -1.5719414   -1.5719414  -0.52482225   0.13451732   -1.5719414    1.0471191   264187 
 4270000    0.9661821   -1.5692317   -1.5692317  -0.52055799   0.12748161   -1.5692317    1.0486737   264187 
 4280000    0.9677944   -1.5698936   -1.5698936  -0.51946992   0.12080422   -1.5698936    1.0504236   264187 
 4290000   0.96734446   -1.5684797   -1.5684797  -0.51854438   0.12496794   -1.5684797    1.0499353   264187 
 4300000   0.97076654   -1.5661524   -1.5661524  -0.51250283   0.12287737   -1.5661524    1.0536495   264187 
 4310000   0.97215232   -1.5656754   -1.5656754  -0.51052174   0.12987021   -1.5656754    1.0551536   264187 
 4320000   0.97238964   -1.5643573   -1.5643573  -0.50894611   0.12105424   -1.5643573    1.0554112   264187 
 4330000   0.96964011   -1.5619695   -1.5619695  -0.50954259   0.12797703   -1.5619695    1.0524269   264187 
 4340000    0.9721825   -1.5615773   -1.5615773  -0.50639094   0.11649127   -1.5615773    1.0551864   264187 
 4350000   0.97462579   -1.5612133   -1.5612133  -0.50337497   0.11863899   -1.5612133    1.0578383   264187 
 4360000   0.97393334     -1.55876     -1.55876  -0.50167328   0.13672985     -1.55876    1.0570867   264187 
 4370000   0.97929754   -1.5613411   -1.5613411  -0.49843216   0.12788076   -1.5613411    1.0629089   264187 
 4380000   0.98020897    -1.560367    -1.560367   -0.4964689   0.11906599    -1.560367    1.0638981   264187 
 4390000   0.97865572   -1.5565818   -1.5565818  -0.49436949   0.13264174   -1.5565818    1.0622123   264187 
 4400000   0.98005112   -1.5557976   -1.5557976  -0.49207078   0.12767851   -1.5557976    1.0637268   264187 
 4410000   0.98160213   -1.5534018   -1.5534018  -0.48799155   0.13312108   -1.5534018    1.0654103   264187 
 4420000    0.9837097   -1.5528185   -1.5528185  -0.48512069   0.14007997   -1.5528185    1.0676978   264187 
 4430000   0.98474031   -1.5512245   -1.5512245  -0.48240809   0.13336466   -1.5512245    1.0688164   264187 
 4440000   0.98403546   -1.5500986   -1.5500986  -0.48204723   0.12862205   -1.5500986    1.0680513   264187 
 4450000   0.98744206   -1.5478291   -1.5478291  -0.47608035   0.14126868   -1.5478291    1.0717488   264187 
 4460000   0.98939367   -1.5497147   -1.5497147  -0.47584762   0.13737769   -1.5497147     1.073867   264187 
 4470000   0.98843395   -1.5470629   -1.5470629  -0.47423755   0.13491858   -1.5470629    1.0728254   264187 
 4480000   0.99247468    -1.549129    -1.549129  -0.47191793   0.13369998    -1.549129    1.0772111   264187 
 4490000   0.99165282    -1.542883    -1.542883  -0.46656392   0.13683551    -1.542883    1.0763191   264187 
 4500000   0.99544309   -1.5451656   -1.5451656  -0.46473268   0.14410687   -1.5451656    1.0804329   264187 
 4510000   0.99434477   -1.5417825   -1.5417825  -0.46254163   0.14818922   -1.5417825    1.0792408   264187 
 4520000   0.99703427   -1.5439518   -1.5439518  -0.46179181   0.13485465   -1.5439518      1.08216   264187 
 4530000   0.99750914    -1.540946    -1.540946  -0.45827057   0.13762562    -1.540946    1.0826754   264187 
 4540000   0.99699006   -1.5384045   -1.5384045  -0.45629248   0.14341732   -1.5384045     1.082112   264187 
 4550000    0.9968596   -1.5373626   -1.5373626  -0.45539224   0.14667606   -1.5373626    1.0819704   264187 
 4560000    0.9977156   -1.5357115   -1.5357115  -0.45281201   0.14061687   -1.5357115    1.0828995   264187 
 4570000    1.0012455   -1.5345622   -1.5345622  -0.44783143   0.12735906   -1.5345622    1.0867308   264187 
 4580000      1.00051   -1.5318827   -1.5318827  -0.44595027   0.14960743   -1.5318827    1.0859325   264187 
 4590000    1.0026469   -1.5337771   -1.5337771  -0.44552525   0.14212373   -1.5337771    1.0882518   264187 
 4600000    1.0040975   -1.5312458   -1.5312458   -0.4414195   0.13345558   -1.5312458    1.0898263   264187 
 4610000    1.0049028   -1.5299322   -1.5299322  -0.43923187   0.14148229   -1.5299322    1.0907003   264187 
 4620000    1.0080259   -1.5301804   -1.5301804  -0.43609027   0.14266923   -1.5301804    1.0940901   264187 
 4630000    1.0092805    -1.528581    -1.528581  -0.43312928   0.14955946    -1.528581    1.0954517   264187 
 4640000    1.0083125   -1.5268919   -1.5268919  -0.43249081    0.1296048   -1.5268919    1.0944011   264187 
 4650000      1.01041   -1.5259734   -1.5259734  -0.42929568   0.14091206   -1.5259734    1.0966777   264187 
 4660000    1.0112938   -1.5255413   -1.5255413  -0.42790432   0.14718306   -1.5255413     1.097637   264187 
 4670000    1.0099872   -1.5239248   -1.5239248   -0.4277059   0.13341737   -1.5239248    1.0962189   264187 
 4680000    1.0129063   -1.5233331   -1.5233331  -0.42394599   0.13898451   -1.5233331    1.0993871   264187 
 4690000    1.0143187   -1.5198173   -1.5198173  -0.41889716   0.14609885   -1.5198173    1.1009202   264187 
 4700000    1.0143641   -1.5193274   -1.5193274  -0.41835799   0.13149651   -1.5193274    1.1009694   264187 
 4710000    1.0187376    -1.521462    -1.521462  -0.41574575    0.1471863    -1.521462    1.1057163   264187 
 4720000    1.0179997   -1.5200276   -1.5200276  -0.41511216   0.14195857   -1.5200276    1.1049154   264187 
 4730000    1.0216182   -1.5204385   -1.5204385  -0.41159569   0.14037914   -1.5204385    1.1088429   264187 
 4740000    1.0215674   -1.5173036   -1.5173036   -0.4085159   0.13933065   -1.5173036    1.1087877   264187 
 4750000    1.0205526   -1.5178036   -1.5178036  -0.41011725   0.14513793   -1.5178036    1.1076863   264187 
 4760000    1.0236239   -1.5172744   -1.5172744  -0.40625462   0.13446832   -1.5172744    1.1110198   264187 
 4770000    1.0240731   -1.5149168   -1.5149168  -0.40340935   0.14305732   -1.5149168    1.1115074   264187 
 4780000    1.0241086   -1.5144276   -1.5144276  -0.40288166   0.14811244   -1.5144276    1.1115459   264187 
 4790000     1.026867   -1.5136163   -1.5136163  -0.39907651   0.15406712   -1.5136163    1.1145398   264187 
 4800000    1.0279577   -1.5128592   -1.5128592  -0.39713568   0.15119984   -1.5128592    1.1157236   264187 
 4810000     1.029677   -1.5099817   -1.5099817  -0.39239189   0.15921478   -1.5099817    1.1175898   264187 
 4820000    1.0309912    -1.510562    -1.510562  -0.39154598   0.13641241    -1.510562    1.1190161   264187 
 4830000    1.0325888   -1.5080038   -1.5080038  -0.38725365    0.1468204   -1.5080038    1.1207501   264187 
 4840000     1.033574   -1.5083216   -1.5083216   -0.3865022   0.15126104   -1.5083216    1.1218194   264187 
 4850000    1.0344531   -1.5090845   -1.5090845  -0.38631092   0.14055355   -1.5090845    1.1227736   264187 
 4860000    1.0366324   -1.5075339   -1.5075339  -0.38239496   0.14563533   -1.5075339    1.1251389   264187 
 4870000    1.0360478   -1.5058659   -1.5058659  -0.38136145   0.14707399   -1.5058659    1.1245045   264187 
 4880000    1.0381044    -1.502067    -1.502067   -0.3753303   0.14354854    -1.502067    1.1267367   264187 
 4890000    1.0389762   -1.5008777   -1.5008777  -0.37319479   0.15814841   -1.5008777    1.1276829   264187 
 4900000    1.0406313   -1.4988614   -1.4988614   -0.3693821   0.15725867   -1.4988614    1.1294793   264187 
 4910000    1.0425152   -1.5001088   -1.5001088  -0.36858481    0.1450039   -1.5001088     1.131524   264187 
 4920000    1.0411627   -1.5001452   -1.5001452  -0.37008917   0.15182957   -1.5001452     1.130056   264187 
 4930000    1.0420307   -1.4978416   -1.4978416  -0.36684345   0.14485664   -1.4978416    1.1309982   264187 
 4940000    1.0422067   -1.4959439   -1.4959439  -0.36475475   0.15708448   -1.4959439    1.1311891   264187 
 4950000    1.0456569   -1.4959635   -1.4959635  -0.36102958    0.1552939   -1.4959635     1.134934   264187 
 4960000    1.0444753   -1.4924275   -1.4924275  -0.35877602    0.1483758   -1.4924275    1.1336515   264187 
 4970000    1.0464052   -1.4928846   -1.4928846  -0.35713843   0.14186111   -1.4928846    1.1357462   264187 
 4980000    1.0460505   -1.4919554   -1.4919554  -0.35659431   0.14568933   -1.4919554    1.1353611   264187 
 4990000     1.047913   -1.4910553   -1.4910553  -0.35367266   0.15781854   -1.4910553    1.1373827   264187 
 5000000    1.0490144   -1.4891422   -1.4891422  -0.35056411   0.15076782   -1.4891422    1.1385781   264187 
Loop time of 12944.2 on 336 procs for 5000000 steps with 264187 atoms

Performance: 166870.059 tau/day, 386.273 timesteps/s
80.9% CPU use with 336 MPI tasks x 1 OpenMP threads

MPI task timing breakdown:
Section |  min time  |  avg time  |  max time  |%varavg|  %CPU | %total
-----------------------------------------------------------------------
Pair    | 148.44     | 996.27     | 2892.7     |2101.1 |  87.0 |  7.70
Bond    | 3.1758     | 3.3546     | 3.5911     |   4.4 | 100.0 |  0.03
Neigh   | 326.37     | 1474.8     | 4017       |2257.5 |  97.1 | 11.39
Comm    | 1822.7     | 5497.4     | 9099.8     |2164.3 |  79.2 | 42.47
Output  | 545.62     | 621.11     | 705.58     | 152.9 |  74.6 |  4.80
Modify  | 1596.4     | 4250.2     | 9571.8     |3262.6 |  77.6 | 32.83
Other   |            | 101.1      |            |       |       |  0.78

Nlocal:        786.271 ave        2051 max         269 min
Histogram: 19 49 141 81 26 6 4 3 5 2
Nghost:        3721.66 ave        8499 max        1326 min
Histogram: 101 56 26 15 26 33 32 33 10 4
Neighs:        11865.2 ave       49498 max        1845 min
Histogram: 182 25 25 28 29 22 14 4 4 3
FullNghs:      23730.4 ave       98051 max        3703 min
Histogram: 183 22 24 35 25 21 14 5 3 4

Total # of neighbors = 7973406
Ave neighs/atom = 30.180917
Ave special neighs/atom = 0.0000000
Neighbor list builds = 499108
Dangerous builds = 481634

unfix 		3
fix             3 thermo langevin ${stop_temp} ${start_temp} 10 156453
fix             3 thermo langevin 1.1 ${start_temp} 10 156453
fix             3 thermo langevin 1.1 0.6 10 156453
run		5000000
Per MPI rank memory allocation (min/avg/max) = 26.36 | 33.77 | 37.34 Mbytes
Step Temp E_pair E_vdwl TotEng Press PotEng KinEng Atoms 
 5000000    1.0490144   -1.4891422   -1.4891422  -0.35056411   0.19777306   -1.4891422    1.1385781   264187 
 5010000    1.0485804   -1.4890623   -1.4890623  -0.35095529   0.15413987   -1.4890623    1.1381071   264187 
 5020000    1.0525959   -1.4894057   -1.4894057  -0.34694028    0.1531441   -1.4894057    1.1424654   264187 
 5030000    1.0529643   -1.4900019   -1.4900019  -0.34713667   0.15327362   -1.4900019    1.1428653   264187 
 5040000    1.0514844   -1.4866388   -1.4866388  -0.34537982   0.15628386   -1.4866388    1.1412589   264187 
 5050000     1.053422   -1.4851901   -1.4851901  -0.34182805   0.14774643   -1.4851901    1.1433621   264187 
 5060000    1.0544676   -1.4864919   -1.4864919  -0.34199498   0.14673859   -1.4864919     1.144497   264187 
 5070000     1.053351    -1.483791    -1.483791  -0.34050596   0.15218955    -1.483791     1.143285   264187 
 5080000    1.0567172   -1.4855893   -1.4855893  -0.33865074   0.15322048   -1.4855893    1.1469386   264187 
 5090000    1.0556575   -1.4855805   -1.4855805  -0.33979207   0.15348024   -1.4855805    1.1457884   264187 
 5100000    1.0548077   -1.4831056   -1.4831056  -0.33823957   0.15793506   -1.4831056     1.144866   264187 
 5110000    1.0557376   -1.4857923   -1.4857923  -0.33991695   0.16397916   -1.4857923    1.1458753   264187 
 5120000    1.0584029   -1.4869883   -1.4869883  -0.33822009   0.15663805   -1.4869883    1.1487682   264187 
 5130000    1.0576685   -1.4850435   -1.4850435  -0.33707239   0.15620675   -1.4850435    1.1479711   264187 
 5140000     1.056391   -1.4829814   -1.4829814  -0.33639697   0.15177056   -1.4829814    1.1465845   264187 
 5150000    1.0595607   -1.4860284   -1.4860284  -0.33600358   0.15398877   -1.4860284    1.1500248   264187 
 5160000    1.0584119   -1.4832529   -1.4832529  -0.33447491   0.15838089   -1.4832529    1.1487779   264187 
 5170000    1.0594041   -1.4822511   -1.4822511  -0.33239622   0.15350121   -1.4822511    1.1498549   264187 
 5180000     1.059668   -1.4820746   -1.4820746  -0.33193329   0.14744612   -1.4820746    1.1501413   264187 
 5190000    1.0606798   -1.4827071   -1.4827071  -0.33146753   0.15243645   -1.4827071    1.1512395   264187 
 5200000    1.0605215   -1.4790194   -1.4790194  -0.32795178    0.1564877   -1.4790194    1.1510677   264187 
 5210000    1.0590641   -1.4792651   -1.4792651  -0.32977923   0.15214685   -1.4792651    1.1494858   264187 
 5220000     1.059721   -1.4810661   -1.4810661  -0.33086727   0.15494109   -1.4810661    1.1501988   264187 
 5230000    1.0586575   -1.4799528   -1.4799528  -0.33090828   0.14592279   -1.4799528    1.1490445   264187 
 5240000    1.0613328   -1.4810995   -1.4810995  -0.32915127   0.15446141   -1.4810995    1.1519483   264187 
 5250000     1.059382   -1.4787396   -1.4787396  -0.32890869   0.15028841   -1.4787396    1.1498309   264187 
 5260000    1.0612066   -1.4805101   -1.4805101  -0.32869886   0.15417319   -1.4805101    1.1518112   264187 
 5270000    1.0603904   -1.4781943   -1.4781943  -0.32726895   0.15421761   -1.4781943    1.1509254   264187 
 5280000    1.0604269   -1.4789251   -1.4789251  -0.32796004   0.16239985   -1.4789251     1.150965   264187 
 5290000    1.0640887   -1.4825249   -1.4825249  -0.32758549   0.15434688   -1.4825249    1.1549394   264187 
 5300000    1.0591971   -1.4805754   -1.4805754   -0.3309452   0.14549241   -1.4805754    1.1496302   264187 
 5310000    1.0594737   -1.4810737   -1.4810737  -0.33114331   0.15499709   -1.4810737    1.1499304   264187 
 5320000    1.0604715   -1.4813386   -1.4813386  -0.33032515   0.16065913   -1.4813386    1.1510134   264187 
 5330000    1.0596994   -1.4810588   -1.4810588  -0.33088341   0.14491757   -1.4810588    1.1501754   264187 
 5340000     1.060287    -1.480759    -1.480759  -0.32994582   0.15398109    -1.480759    1.1508131   264187 
 5350000      1.05971   -1.4789666   -1.4789666   -0.3287797   0.16006284   -1.4789666    1.1501869   264187 
 5360000    1.0629505   -1.4806983   -1.4806983  -0.32699425   0.15628337   -1.4806983    1.1537041   264187 
 5370000    1.0625887   -1.4790194   -1.4790194  -0.32570802   0.15300892   -1.4790194    1.1533114   264187 
 5380000    1.0627581   -1.4792967   -1.4792967  -0.32580142   0.16277302   -1.4792967    1.1534952   264187 
 5390000    1.0591737     -1.47875     -1.47875  -0.32914521    0.1617062     -1.47875    1.1496048   264187 
 5400000    1.0624765   -1.4822845   -1.4822845  -0.32909485   0.17346393   -1.4822845    1.1531896   264187 
 5410000    1.0601585   -1.4818668   -1.4818668  -0.33119311   0.15909661   -1.4818668    1.1506736   264187 
 5420000    1.0653193   -1.4857214   -1.4857214  -0.32944629   0.15446974   -1.4857214    1.1562751   264187 
 5430000    1.0612619   -1.4799835   -1.4799835  -0.32811216   0.15968252   -1.4799835    1.1518713   264187 
 5440000    1.0623869   -1.4820716   -1.4820716  -0.32897922   0.15198834   -1.4820716    1.1530924   264187 
 5450000     1.062441   -1.4831817   -1.4831817   -0.3300306   0.15663825   -1.4831817    1.1531511   264187 
 5460000    1.0619692   -1.4833091   -1.4833091   -0.3306701   0.14858683   -1.4833091     1.152639   264187 
 5470000    1.0665563   -1.4854944   -1.4854944  -0.32787671    0.1582404   -1.4854944    1.1576177   264187 
 5480000    1.0630074   -1.4840215   -1.4840215  -0.33025572    0.1646898   -1.4840215    1.1537658   264187 
 5490000    1.0599229   -1.4831197   -1.4831197  -0.33270178   0.15259493   -1.4831197    1.1504179   264187 
 5500000    1.0595967   -1.4845184   -1.4845184  -0.33445454   0.15807838   -1.4845184    1.1500639   264187 
 5510000    1.0628209   -1.4869941   -1.4869941  -0.33343079   0.15062663   -1.4869941    1.1535634   264187 
 5520000    1.0636509   -1.4874278   -1.4874278  -0.33296356   0.15478281   -1.4874278    1.1544642   264187 
 5530000    1.0618473   -1.4839292   -1.4839292  -0.33142247   0.15632472   -1.4839292    1.1525067   264187 
 5540000     1.060977   -1.4863752   -1.4863752  -0.33481304   0.15843451   -1.4863752    1.1515621   264187 
 5550000    1.0593504   -1.4867312   -1.4867312  -0.33693456   0.14550276   -1.4867312    1.1497966   264187 
 5560000    1.0615253   -1.4892753   -1.4892753  -0.33711806   0.15530662   -1.4892753    1.1521572   264187 
 5570000    1.0567233   -1.4864201   -1.4864201  -0.33947482   0.14848575   -1.4864201    1.1469452   264187 
 5580000    1.0606766    -1.490577    -1.490577  -0.33934095   0.15971472    -1.490577    1.1512361   264187 
 5590000    1.0604353   -1.4898882   -1.4898882  -0.33891413   0.15778483   -1.4898882    1.1509741   264187 
 5600000    1.0611819   -1.4877945   -1.4877945  -0.33601003   0.16462864   -1.4877945    1.1517844   264187 
 5610000    1.0593919   -1.4901741   -1.4901741  -0.34033251   0.14787276   -1.4901741    1.1498416   264187 
 5620000    1.0605253   -1.4918136   -1.4918136  -0.34074182   0.14418558   -1.4918136    1.1510718   264187 
 5630000    1.0606487   -1.4921469   -1.4921469  -0.34094124   0.14587891   -1.4921469    1.1512057   264187 
 5640000    1.0587344   -1.4926548   -1.4926548  -0.34352673   0.16157402   -1.4926548     1.149128   264187 
 5650000    1.0582733   -1.4932254   -1.4932254  -0.34459794   0.15422638   -1.4932254    1.1486275   264187 
 5660000    1.0588454   -1.4959446   -1.4959446  -0.34669621   0.14445956   -1.4959446    1.1492484   264187 
 5670000    1.0584616   -1.4938907   -1.4938907  -0.34505884    0.1605724   -1.4938907    1.1488319   264187 
 5680000     1.055926   -1.4943541   -1.4943541  -0.34827427   0.15551993   -1.4943541    1.1460799   264187 
 5690000     1.059591   -1.4970024   -1.4970024  -0.34694462   0.15687153   -1.4970024    1.1500578   264187 
 5700000    1.0586374   -1.4976742   -1.4976742   -0.3486515   0.16105176   -1.4976742    1.1490227   264187 
 5710000    1.0541058   -1.4944917   -1.4944917  -0.35038746   0.15290954   -1.4944917    1.1441042   264187 
 5720000    1.0543165   -1.4968482   -1.4968482  -0.35251533    0.1535891   -1.4968482    1.1443329   264187 
 5730000    1.0566752   -1.4986116   -1.4986116   -0.3517186   0.17314545   -1.4986116     1.146893   264187 
 5740000    1.0552674   -1.4979565   -1.4979565  -0.35259142   0.15038181   -1.4979565     1.145365   264187 
 5750000    1.0541886   -1.5007562   -1.5007562  -0.35656209   0.15469149   -1.5007562    1.1441941   264187 
 5760000    1.0539482    -1.501855    -1.501855  -0.35792185   0.16556244    -1.501855    1.1439332   264187 
 5770000    1.0530205   -1.4993623   -1.4993623  -0.35643608   0.15415527   -1.4993623    1.1429263   264187 
 5780000    1.0545043   -1.5022232   -1.5022232  -0.35768643   0.15628937   -1.5022232    1.1445368   264187 
 5790000    1.0533182   -1.5020212   -1.5020212  -0.35877179   0.15106223   -1.5020212    1.1432494   264187 
 5800000    1.0541055   -1.5038666   -1.5038666   -0.3597627   0.15214111   -1.5038666    1.1441038   264187 
 5810000     1.051088   -1.5038837   -1.5038837  -0.36305493   0.15420613   -1.5038837    1.1408288   264187 
 5820000    1.0498762   -1.5044822   -1.5044822   -0.3649687   0.14514447   -1.5044822    1.1395135   264187 
 5830000    1.0516474   -1.5072295   -1.5072295  -0.36579357   0.15113148   -1.5072295    1.1414359   264187 
 5840000     1.052182   -1.5071727   -1.5071727  -0.36515661   0.15344514   -1.5071727    1.1420161   264187 
 5850000    1.0491727   -1.5050583   -1.5050583   -0.3663084   0.15249961   -1.5050583    1.1387499   264187 
 5860000    1.0498457   -1.5073837   -1.5073837  -0.36790336   0.16256289   -1.5073837    1.1394804   264187 
 5870000     1.049221   -1.5087982   -1.5087982  -0.36999585   0.14327803   -1.5087982    1.1388023   264187 
 5880000    1.0457883   -1.5070965   -1.5070965  -0.37201992   0.14753003   -1.5070965    1.1350766   264187 
 5890000    1.0462183   -1.5080131   -1.5080131   -0.3724698    0.1568057   -1.5080131    1.1355433   264187 
 5900000    1.0451598   -1.5088651   -1.5088651  -0.37447061   0.16170475   -1.5088651    1.1343944   264187 
 5910000    1.0440528   -1.5085558   -1.5085558  -0.37536287    0.1518618   -1.5085558    1.1331929   264187 
 5920000    1.0431937   -1.5107035   -1.5107035  -0.37844303   0.15666289   -1.5107035    1.1322605   264187 
 5930000     1.045626   -1.5123424   -1.5123424  -0.37744195   0.15634389   -1.5123424    1.1349004   264187 
 5940000    1.0445204   -1.5118838   -1.5118838  -0.37818338   0.14807649   -1.5118838    1.1337004   264187 
 5950000    1.0457296   -1.5125007   -1.5125007  -0.37748783   0.15601883   -1.5125007    1.1350128   264187 
 5960000    1.0448562   -1.5128347   -1.5128347  -0.37876982   0.15991846   -1.5128347    1.1340649   264187 
 5970000    1.0410608   -1.5129812   -1.5129812  -0.38303568   0.15547141   -1.5129812    1.1299455   264187 
 5980000    1.0423066   -1.5133765   -1.5133765  -0.38207889   0.14931207   -1.5133765    1.1312976   264187 
 5990000    1.0386705   -1.5128751   -1.5128751  -0.38552404   0.15662231   -1.5128751     1.127351   264187 
 6000000    1.0377124   -1.5140495   -1.5140495  -0.38773833   0.15776442   -1.5140495    1.1263112   264187 
 6010000    1.0381017    -1.514455    -1.514455  -0.38772128   0.15525383    -1.514455    1.1267337   264187 
 6020000    1.0370747   -1.5170793   -1.5170793  -0.39146035   0.14453437   -1.5170793     1.125619   264187 
 6030000    1.0369367   -1.5171256   -1.5171256  -0.39165635   0.14726402   -1.5171256    1.1254692   264187 
 6040000    1.0389617   -1.5196488   -1.5196488  -0.39198172   0.14813633   -1.5196488    1.1276671   264187 
 6050000     1.036033   -1.5186342   -1.5186342  -0.39414583   0.15345308   -1.5186342    1.1244883   264187 
 6060000    1.0374528   -1.5209098   -1.5209098  -0.39488037   0.15584242   -1.5209098    1.1260294   264187 
 6070000    1.0352411   -1.5208834   -1.5208834  -0.39725457   0.15638518   -1.5208834    1.1236289   264187 
 6080000     1.037392   -1.5219435   -1.5219435  -0.39598012    0.1664796   -1.5219435    1.1259634   264187 
 6090000    1.0368902   -1.5249229   -1.5249229  -0.39950413   0.15429478   -1.5249229    1.1254187   264187 
 6100000    1.0340511   -1.5250156   -1.5250156  -0.40267841   0.15517643   -1.5250156    1.1223372   264187 
 6110000    1.0347763   -1.5266456   -1.5266456  -0.40352121   0.14331143   -1.5266456    1.1231244   264187 
 6120000    1.0326429   -1.5252645   -1.5252645  -0.40445564   0.14571206   -1.5252645    1.1208088   264187 
 6130000    1.0317653   -1.5259533   -1.5259533  -0.40609707    0.1423914   -1.5259533    1.1198563   264187 
 6140000      1.02963   -1.5248267   -1.5248267  -0.40728806   0.15546205   -1.5248267    1.1175387   264187 
 6150000    1.0318152   -1.5279393   -1.5279393  -0.40802889    0.1464138   -1.5279393    1.1199104   264187 
 6160000    1.0292123   -1.5252783   -1.5252783  -0.40819303   0.14724077   -1.5252783    1.1170853   264187 
 6170000    1.0321938   -1.5287481   -1.5287481  -0.40842673   0.15235644   -1.5287481    1.1203214   264187 
 6180000    1.0284685   -1.5305836   -1.5305836  -0.41430557   0.14254029   -1.5305836     1.116278   264187 
 6190000    1.0286344   -1.5321324   -1.5321324  -0.41567427   0.14939718   -1.5321324    1.1164581   264187 
 6200000    1.0253581   -1.5301684   -1.5301684  -0.41726632   0.13937958   -1.5301684    1.1129021   264187 
 6210000    1.0245747   -1.5318501   -1.5318501  -0.41979839   0.15928296   -1.5318501    1.1120518   264187 
 6220000    1.0236647   -1.5314931   -1.5314931  -0.42042909    0.1374758   -1.5314931     1.111064   264187 
 6230000    1.0221759   -1.5301209   -1.5301209  -0.42067273   0.15084245   -1.5301209    1.1094482   264187 
 6240000    1.0251179    -1.533181    -1.533181  -0.42053964   0.14379886    -1.533181    1.1126414   264187 
 6250000    1.0255043   -1.5363758   -1.5363758  -0.42331507   0.14972598   -1.5363758    1.1130607   264187 
 6260000    1.0210524   -1.5345319   -1.5345319  -0.42630305   0.15044586   -1.5345319    1.1082288   264187 
 6270000    1.0209733   -1.5362118   -1.5362118   -0.4280689   0.13943496   -1.5362118    1.1081429   264187 
 6280000    1.0207797   -1.5388798   -1.5388798    -0.430947   0.14947149   -1.5388798    1.1079328   264187 
 6290000     1.018198   -1.5358376   -1.5358376  -0.43070688    0.1367806   -1.5358376    1.1051307   264187 
 6300000    1.0190265   -1.5401768   -1.5401768  -0.43414695   0.14860928   -1.5401768    1.1060298   264187 
 6310000    1.0193651   -1.5403701   -1.5403701  -0.43397271   0.14311108   -1.5403701    1.1063974   264187 
 6320000    1.0182207   -1.5421155   -1.5421155  -0.43696017   0.15454762   -1.5421155    1.1051553   264187 
 6330000    1.0151903   -1.5414914   -1.5414914   -0.4396252   0.13905765   -1.5414914    1.1018662   264187 
 6340000    1.0173802   -1.5439481   -1.5439481  -0.43970509   0.13359648   -1.5439481     1.104243   264187 
 6350000    1.0155541   -1.5440833   -1.5440833   -0.4418223   0.13961141   -1.5440833     1.102261   264187 
 6360000    1.0134419    -1.545148    -1.545148  -0.44517957   0.14902606    -1.545148    1.0999685   264187 
 6370000    1.0146696   -1.5493646   -1.5493646  -0.44806359    0.1398649   -1.5493646     1.101301   264187 
 6380000    1.0145897   -1.5503608   -1.5503608  -0.44914648   0.13641939   -1.5503608    1.1012143   264187 
 6390000    1.0107851   -1.5507356   -1.5507356  -0.45365071   0.13283035   -1.5507356    1.0970849   264187 
 6400000    1.0093591   -1.5478501   -1.5478501  -0.45231302   0.13145422   -1.5478501    1.0955371   264187 
 6410000    1.0091146   -1.5506912   -1.5506912  -0.45541954   0.13568924   -1.5506912    1.0952717   264187 
 6420000    1.0072132   -1.5508066   -1.5508066  -0.45759861   0.14190123   -1.5508066     1.093208   264187 
 6430000    1.0073508   -1.5539648   -1.5539648  -0.46060752   0.13965119   -1.5539648    1.0933573   264187 
 6440000    1.0075665   -1.5535688   -1.5535688  -0.45997741   0.15060455   -1.5535688    1.0935914   264187 
 6450000    1.0076821   -1.5553226   -1.5553226  -0.46160568   0.14278713   -1.5553226    1.0937169   264187 
 6460000    1.0064859   -1.5535552   -1.5535552  -0.46113658   0.13828414   -1.5535552    1.0924186   264187 
 6470000    1.0034404   -1.5544547   -1.5544547  -0.46534173   0.14428627   -1.5544547     1.089113   264187 
 6480000    1.0046813   -1.5557318   -1.5557318  -0.46527198   0.13573984   -1.5557318    1.0904599   264187 
 6490000    1.0049767   -1.5575063   -1.5575063  -0.46672572   0.14219173   -1.5575063    1.0907806   264187 
 6500000    1.0050981   -1.5565092   -1.5565092  -0.46559685   0.14405849   -1.5565092    1.0909123   264187 
 6510000    1.0025838   -1.5550363   -1.5550363  -0.46685293   0.14241624   -1.5550363    1.0881833   264187 
 6520000    1.0029437   -1.5591763   -1.5591763  -0.47060227   0.13893402   -1.5591763     1.088574   264187 
 6530000    1.0019543   -1.5579691   -1.5579691  -0.47046902   0.13954786   -1.5579691       1.0875   264187 
 6540000    1.0007245   -1.5603346   -1.5603346  -0.47416928   0.14635741   -1.5603346    1.0861653   264187 
 6550000   0.99926973   -1.5600421   -1.5600421  -0.47545578   0.13790039   -1.5600421    1.0845863   264187 
 6560000   0.99861397   -1.5622089   -1.5622089  -0.47833438   0.12661133   -1.5622089    1.0838745   264187 
 6570000   0.99732242   -1.5623644   -1.5623644  -0.47989169   0.14420177   -1.5623644    1.0824727   264187 
 6580000   0.99789556   -1.5633764   -1.5633764  -0.48028161   0.14459928   -1.5633764    1.0830948   264187 
 6590000   0.99733382   -1.5662593   -1.5662593  -0.48377416   0.14369038   -1.5662593    1.0824851   264187 
 6600000   0.99968212   -1.5678337   -1.5678337  -0.48279976   0.13256493   -1.5678337    1.0850339   264187 
 6610000   0.99376323   -1.5669911   -1.5669911  -0.48838145   0.13122013   -1.5669911    1.0786097   264187 
 6620000   0.99422835   -1.5686752   -1.5686752  -0.48956069   0.14349843   -1.5686752    1.0791145   264187 
 6630000   0.99331703   -1.5684172   -1.5684172  -0.49029185    0.1394507   -1.5684172    1.0781254   264187 
 6640000   0.99207915   -1.5689476   -1.5689476  -0.49216582   0.14035791   -1.5689476    1.0767818   264187 
 6650000   0.99299488    -1.570968    -1.570968  -0.49319226   0.13244695    -1.570968    1.0777757   264187 
 6660000   0.99282267    -1.571936    -1.571936  -0.49434718   0.13246253    -1.571936    1.0775888   264187 
 6670000   0.98961923   -1.5720003   -1.5720003  -0.49788846   0.12303868   -1.5720003    1.0741119   264187 
 6680000   0.98678094   -1.5728128   -1.5728128  -0.50178154   0.13975271   -1.5728128    1.0710312   264187 
 6690000   0.98830683   -1.5753588   -1.5753588   -0.5026714   0.14709402   -1.5753588    1.0726874   264187 
 6700000   0.98608676   -1.5760214   -1.5760214  -0.50574365   0.13096237   -1.5760214    1.0702778   264187 
 6710000   0.98717088   -1.5771364   -1.5771364  -0.50568197   0.14389326   -1.5771364    1.0714545   264187 
 6720000   0.98573991   -1.5768503   -1.5768503  -0.50694897   0.13015711   -1.5768503    1.0699013   264187 
 6730000   0.98408193   -1.5771216   -1.5771216  -0.50901985    0.1345607   -1.5771216    1.0681018   264187 
 6740000    0.9813472   -1.5780487   -1.5780487  -0.51291515   0.13410588   -1.5780487    1.0651336   264187 
 6750000   0.98356777   -1.5779809   -1.5779809  -0.51043723   0.12597283   -1.5779809    1.0675437   264187 
 6760000   0.98325269   -1.5807042   -1.5807042  -0.51350244   0.13063064   -1.5807042    1.0672017   264187 
 6770000   0.98292453   -1.5822419   -1.5822419  -0.51539634   0.13276027   -1.5822419    1.0668456   264187 
 6780000    0.9803032   -1.5822727   -1.5822727  -0.51827223   0.13204913   -1.5822727    1.0640004   264187 
 6790000   0.97999591   -1.5835938   -1.5835938  -0.51992685   0.13259468   -1.5835938    1.0636669   264187 
 6800000   0.97896291   -1.5841085   -1.5841085  -0.52156277   0.13482488   -1.5841085    1.0625457   264187 
 6810000   0.97748607   -1.5829772   -1.5829772   -0.5220344   0.13743249   -1.5829772    1.0609428   264187 
 6820000   0.98031275    -1.586961    -1.586961  -0.52295017   0.13244756    -1.586961    1.0640108   264187 
 6830000   0.97550211   -1.5863053   -1.5863053  -0.52751588   0.13112797   -1.5863053    1.0587894   264187 
 6840000   0.97644355   -1.5889034   -1.5889034  -0.52909216   0.12562085   -1.5889034    1.0598112   264187 
 6850000   0.97604205   -1.5912898   -1.5912898  -0.53191438   0.13402672   -1.5912898    1.0593755   264187 
 6860000   0.97333479   -1.5898078   -1.5898078  -0.53337076    0.1258624   -1.5898078    1.0564371   264187 
 6870000   0.97272046   -1.5906838   -1.5906838  -0.53491355    0.1345368   -1.5906838    1.0557703   264187 
 6880000   0.97311784   -1.5923077   -1.5923077  -0.53610615   0.13413175   -1.5923077    1.0562016   264187 
 6890000   0.97195155   -1.5938191   -1.5938191  -0.53888343   0.13402424   -1.5938191    1.0549357   264187 
 6900000   0.97055257   -1.5959322   -1.5959322  -0.54251488    0.1381307   -1.5959322    1.0534173   264187 
 6910000   0.97193931   -1.5953118   -1.5953118  -0.54038936    0.1244602   -1.5953118    1.0549224   264187 
 6920000   0.96855441   -1.5971339   -1.5971339  -0.54588539   0.12864418   -1.5971339    1.0512485   264187 
 6930000   0.96795884   -1.5951112   -1.5951112  -0.54450907   0.13684376   -1.5951112    1.0506021   264187 
 6940000   0.96924585   -1.5970806   -1.5970806  -0.54508154   0.13173367   -1.5970806     1.051999   264187 
 6950000   0.96767099    -1.599384    -1.599384  -0.54909427   0.13097244    -1.599384    1.0502897   264187 
 6960000   0.96556685   -1.5989987   -1.5989987  -0.55099283   0.13537677   -1.5989987    1.0480059   264187 
 6970000   0.96463593   -1.6001732   -1.6001732  -0.55317768   0.12902572   -1.6001732    1.0469955   264187 
 6980000    0.9665666     -1.60195     -1.60195  -0.55285897   0.12639338     -1.60195     1.049091   264187 
 6990000   0.96209421   -1.5994264   -1.5994264  -0.55518965   0.13605064   -1.5994264    1.0442368   264187 
 7000000   0.96339228   -1.6025994   -1.6025994   -0.5569537    0.1388582   -1.6025994    1.0456457   264187 
 7010000   0.95923975   -1.6013683   -1.6013683  -0.56022965   0.13308769   -1.6013683    1.0411386   264187 
 7020000   0.96021237   -1.6067081   -1.6067081  -0.56451385   0.13043511   -1.6067081    1.0421943   264187 
 7030000   0.95770684   -1.6084636   -1.6084636  -0.56898881    0.1282027   -1.6084636    1.0394748   264187 
 7040000   0.95778968   -1.6100111   -1.6100111  -0.57044636   0.13362049   -1.6100111    1.0395647   264187 
 7050000   0.95595846   -1.6080516   -1.6080516  -0.57047444   0.12338601   -1.6080516    1.0375772   264187 
 7060000   0.95555101   -1.6099692   -1.6099692   -0.5728343   0.13410271   -1.6099692    1.0371349   264187 
 7070000   0.95424514   -1.6119174   -1.6119174  -0.57619986     0.123035   -1.6119174    1.0357176   264187 
 7080000   0.95768643   -1.6163142   -1.6163142  -0.57686157   0.13310323   -1.6163142    1.0394527   264187 
 7090000   0.95332257   -1.6124676   -1.6124676  -0.57775137    0.1340174   -1.6124676    1.0347162   264187 
 7100000   0.95360237    -1.615806    -1.615806  -0.58078609    0.1294471    -1.615806    1.0350199   264187 
 7110000   0.95469023   -1.6175246   -1.6175246  -0.58132393   0.12603883   -1.6175246    1.0362006   264187 
 7120000   0.95314115   -1.6193002   -1.6193002  -0.58478088   0.13148572   -1.6193002    1.0345193   264187 
 7130000   0.94811217   -1.6167526   -1.6167526  -0.58769161   0.13148004   -1.6167526     1.029061   264187 
 7140000   0.95013075   -1.6202182   -1.6202182  -0.58896633   0.11551916   -1.6202182    1.0312519   264187 
 7150000   0.94901747   -1.6216497   -1.6216497  -0.59160609   0.12153083   -1.6216497    1.0300436   264187 
 7160000   0.94888298   -1.6236055   -1.6236055  -0.59370793   0.12200758   -1.6236055    1.0298976   264187 
 7170000   0.94669377   -1.6233461   -1.6233461  -0.59582461   0.12220855   -1.6233461    1.0275215   264187 
 7180000   0.94293338   -1.6231559   -1.6231559  -0.59971585   0.13143797   -1.6231559      1.02344   264187 
 7190000   0.94696582   -1.6276913   -1.6276913  -0.59987457   0.12676335   -1.6276913    1.0278167   264187 
 7200000   0.94517425   -1.6281286   -1.6281286  -0.60225636   0.12316091   -1.6281286    1.0258722   264187 
 7210000   0.94446273   -1.6275848   -1.6275848  -0.60248485   0.12499461   -1.6275848    1.0250999   264187 
 7220000   0.94243133   -1.6280001   -1.6280001  -0.60510496   0.13439333   -1.6280001    1.0228951   264187 
 7230000   0.94109981   -1.6287918   -1.6287918  -0.60734188   0.11917929   -1.6287918    1.0214499   264187 
 7240000    0.9406206   -1.6305801   -1.6305801  -0.60965032   0.12563695   -1.6305801    1.0209298   264187 
 7250000   0.93909214   -1.6312919   -1.6312919  -0.61202112   0.12567071   -1.6312919    1.0192708   264187 
 7260000   0.93782351   -1.6328088   -1.6328088  -0.61491497   0.13115246   -1.6328088    1.0178939   264187 
 7270000   0.93661794   -1.6344981   -1.6344981  -0.61791275   0.12114162   -1.6344981    1.0165854   264187 
 7280000   0.93333421    -1.635035    -1.635035  -0.62201371   0.12707997    -1.635035    1.0130213   264187 
 7290000   0.93359909   -1.6358172   -1.6358172  -0.62250847   0.13467157   -1.6358172    1.0133088   264187 
 7300000   0.93370275   -1.6371782   -1.6371782  -0.62375694   0.13135026   -1.6371782    1.0134213   264187 
 7310000   0.93443728   -1.6392648   -1.6392648  -0.62504625   0.11722766   -1.6392648    1.0142185   264187 
 7320000   0.93327853   -1.6400654   -1.6400654  -0.62710456   0.13047396   -1.6400654    1.0129608   264187 
 7330000   0.93283826   -1.6438914   -1.6438914  -0.63140838   0.12192076   -1.6438914     1.012483   264187 
 7340000   0.93137006   -1.6422288   -1.6422288  -0.63133941   0.11656246   -1.6422288    1.0108894   264187 
 7350000   0.92879984   -1.6441074   -1.6441074   -0.6360076   0.11225521   -1.6441074    1.0080998   264187 
 7360000   0.93065443   -1.6464589   -1.6464589  -0.63634623   0.12584701   -1.6464589    1.0101127   264187 
 7370000   0.92886276    -1.647032    -1.647032  -0.63886395   0.11627433    -1.647032    1.0081681   264187 
 7380000   0.92718337    -1.646153    -1.646153  -0.63980772   0.11987694    -1.646153    1.0063453   264187 
 7390000   0.92791738   -1.6489655   -1.6489655  -0.64182352   0.11940972   -1.6489655     1.007142   264187 
 7400000   0.92350914   -1.6497316   -1.6497316  -0.64737424   0.11674399   -1.6497316    1.0023574   264187 
 7410000   0.92400747   -1.6511916   -1.6511916  -0.64829333   0.11561914   -1.6511916    1.0028982   264187 
 7420000   0.92328522   -1.6506105   -1.6506105  -0.64849618   0.11913219   -1.6506105    1.0021143   264187 
 7430000   0.92251481   -1.6534964   -1.6534964   -0.6522183   0.11019554   -1.6534964    1.0012781   264187 
 7440000    0.9214728   -1.6518444   -1.6518444   -0.6516972   0.11992897   -1.6518444    1.0001471   264187 
 7450000   0.91987806   -1.6531976   -1.6531976  -0.65478139   0.11861855   -1.6531976   0.99841626   264187 
 7460000   0.92039539   -1.6536136   -1.6536136  -0.65463582   0.12201164   -1.6536136   0.99897776   264187 
 7470000   0.91881743   -1.6556146   -1.6556146  -0.65834956   0.12064677   -1.6556146   0.99726507   264187 
 7480000   0.91780951   -1.6554226   -1.6554226   -0.6592515   0.13150863   -1.6554226   0.99617109   264187 
 7490000   0.91765172   -1.6580507   -1.6580507  -0.66205092   0.11160305   -1.6580507   0.99599983   264187 
 7500000   0.91753244   -1.6598321   -1.6598321  -0.66396176   0.12070556   -1.6598321   0.99587036   264187 
 7510000   0.91662388   -1.6608662   -1.6608662  -0.66598194   0.10988388   -1.6608662   0.99488424   264187 
 7520000   0.91409726   -1.6612429   -1.6612429  -0.66910103   0.11869032   -1.6612429   0.99214189   264187 
 7530000   0.91390126   -1.6636769   -1.6636769   -0.6717477   0.11231573   -1.6636769   0.99192916   264187 
 7540000   0.91006362   -1.6643981   -1.6643981   -0.6766342    0.1239448   -1.6643981   0.98776386   264187 
 7550000   0.91001853   -1.6646578   -1.6646578  -0.67694284   0.12098672   -1.6646578   0.98771493   264187 
 7560000   0.90985549   -1.6666642   -1.6666642  -0.67912627   0.12149432   -1.6666642   0.98753797   264187 
 7570000   0.90959749   -1.6686303   -1.6686303  -0.68137232   0.11203055   -1.6686303   0.98725794   264187 
 7580000   0.90747058   -1.6699766   -1.6699766  -0.68502721    0.1202211   -1.6699766   0.98494943   264187 
 7590000   0.90777705   -1.6723497   -1.6723497  -0.68706767   0.11043433   -1.6723497   0.98528207   264187 
 7600000   0.90617915    -1.671848    -1.671848  -0.68830028   0.10955867    -1.671848   0.98354774   264187 
 7610000   0.90635592   -1.6760667   -1.6760667  -0.69232708   0.10795164   -1.6760667   0.98373961   264187 
 7620000   0.90317085   -1.6768729   -1.6768729  -0.69659035   0.11107605   -1.6768729    0.9802826   264187 
 7630000   0.90255169   -1.6743094   -1.6743094  -0.69469884   0.11397528   -1.6743094   0.97961057   264187 
 7640000   0.90223275    -1.677165    -1.677165  -0.69790064    0.1021655    -1.677165   0.97926441   264187 
 7650000   0.90322406   -1.6817348   -1.6817348   -0.7013945   0.10759147   -1.6817348   0.98034035   264187 
 7660000   0.90093068   -1.6820705   -1.6820705  -0.70421937   0.11814173   -1.6820705   0.97785117   264187 
 7670000   0.89654284   -1.6809013   -1.6809013  -0.70781259   0.10831548   -1.6809013    0.9730887   264187 
 7680000   0.89853409   -1.6859059   -1.6859059  -0.71065598   0.11104129   -1.6859059   0.97524996   264187 
 7690000   0.89382116   -1.6841189   -1.6841189  -0.71398423   0.10819183   -1.6841189   0.97013465   264187 
 7700000   0.89481678   -1.6876778   -1.6876778   -0.7164625   0.10545332   -1.6876778   0.97121526   264187 
 7710000    0.8941229   -1.6880364   -1.6880364  -0.71757422   0.11648346   -1.6880364   0.97046214   264187 
 7720000   0.89506718   -1.6903014   -1.6903014  -0.71881437   0.11434984   -1.6903014   0.97148705   264187 
 7730000   0.89277071   -1.6904322   -1.6904322  -0.72143765   0.11713915   -1.6904322   0.96899451   264187 
 7740000   0.89298145   -1.6945052   -1.6945052  -0.72528198   0.10527576   -1.6945052   0.96922324   264187 
 7750000   0.89086619   -1.6961658   -1.6961658  -0.72923846   0.10889139   -1.6961658   0.96692738   264187 
 7760000   0.88956404   -1.6963151   -1.6963151  -0.73080106   0.10255314   -1.6963151   0.96551406   264187 
 7770000   0.88785656   -1.6968363   -1.6968363  -0.73317549   0.10976822   -1.6968363   0.96366079   264187 
 7780000   0.88735979   -1.6984912   -1.6984912   -0.7353696   0.10677416   -1.6984912   0.96312161   264187 
 7790000   0.88882737   -1.7023072   -1.7023072   -0.7375927   0.10869985   -1.7023072   0.96471449   264187 
 7800000   0.88706448   -1.7034424   -1.7034424  -0.74064128   0.10341138   -1.7034424   0.96280109   264187 
 7810000   0.88468746   -1.7029046   -1.7029046  -0.74268349   0.11439666   -1.7029046   0.96022112   264187 
 7820000   0.88579108   -1.7069943   -1.7069943  -0.74557532   0.10131704   -1.7069943   0.96141897   264187 
 7830000   0.88115443   -1.7049214   -1.7049214  -0.74853498   0.10203595   -1.7049214   0.95638644   264187 
 7840000   0.88077613   -1.7064168   -1.7064168  -0.75044094   0.11678689   -1.7064168   0.95597584   264187 
 7850000   0.88112911   -1.7087141   -1.7087141  -0.75235516   0.10971732   -1.7087141   0.95635896   264187 
 7860000   0.87901122   -1.7087068   -1.7087068  -0.75464652   0.10620726   -1.7087068   0.95406025   264187 
 7870000   0.87779739   -1.7113297   -1.7113297  -0.75858695   0.10871856   -1.7113297   0.95274278   264187 
 7880000   0.87668831   -1.7142426   -1.7142426  -0.76270359  0.099199065   -1.7142426     0.951539   264187 
 7890000   0.87520918   -1.7158076   -1.7158076  -0.76587399   0.10842504   -1.7158076   0.94993359   264187 
 7900000   0.87496231   -1.7175807   -1.7175807  -0.76791505   0.10947985   -1.7175807   0.94966565   264187 
 7910000   0.87307407   -1.7194181   -1.7194181  -0.77180195    0.1064001   -1.7194181   0.94761618   264187 
 7920000   0.87243642   -1.7215527   -1.7215527  -0.77462864   0.10247203   -1.7215527    0.9469241   264187 
 7930000   0.87067921   -1.7213685   -1.7213685  -0.77635168   0.10327745   -1.7213685   0.94501686   264187 
 7940000   0.86910069   -1.7229527   -1.7229527  -0.77964915   0.10110732   -1.7229527   0.94330356   264187 
 7950000   0.86927655   -1.7262232   -1.7262232  -0.78272875  0.097759903   -1.7262232   0.94349445   264187 
 7960000   0.86967991   -1.7268766   -1.7268766  -0.78294432  0.098559988   -1.7268766   0.94393224   264187 
 7970000   0.86531066   -1.7281793   -1.7281793  -0.78898935   0.10357863   -1.7281793   0.93918995   264187 
 7980000   0.86645636   -1.7318566   -1.7318566  -0.79142317   0.10155221   -1.7318566   0.94043346   264187 
 7990000   0.86254992   -1.7318809   -1.7318809  -0.79568744   0.10646438   -1.7318809   0.93619349   264187 
 8000000   0.86403124   -1.7341595   -1.7341595  -0.79635816  0.097250954   -1.7341595    0.9378013   264187 
 8010000   0.86188974   -1.7365091   -1.7365091  -0.80103212   0.10404606   -1.7365091   0.93547696   264187 
 8020000   0.86257889   -1.7370272   -1.7370272  -0.80080231  0.088191616   -1.7370272   0.93622494   264187 
 8030000   0.86262839   -1.7398014   -1.7398014  -0.80352277  0.091634594   -1.7398014   0.93627867   264187 
 8040000   0.85985125   -1.7394329   -1.7394329  -0.80616848  0.099054581   -1.7394329   0.93326442   264187 
 8050000   0.86076704   -1.7430462   -1.7430462  -0.80878785   0.10299722   -1.7430462   0.93425839   264187 
 8060000   0.85755021   -1.7432351   -1.7432351  -0.81246814   0.11345646   -1.7432351   0.93076692   264187 
 8070000   0.85533152    -1.745014    -1.745014  -0.81665525    0.1090862    -1.745014   0.92835879   264187 
 8080000   0.85708668   -1.7494512   -1.7494512  -0.81918739   0.10680729   -1.7494512   0.93026382   264187 
 8090000    0.8528991   -1.7483992   -1.7483992  -0.82268048  0.094727122   -1.7483992   0.92571871   264187 
 8100000   0.85272987   -1.7505092   -1.7505092  -0.82497413   0.09649263   -1.7505092   0.92553502   264187 
 8110000   0.85156527   -1.7523817   -1.7523817  -0.82811073   0.11158175   -1.7523817   0.92427099   264187 
 8120000   0.85309119   -1.7553865   -1.7553865  -0.82945928  0.092921611   -1.7553865   0.92592719   264187 
 8130000   0.84919552   -1.7532379   -1.7532379  -0.83153903  0.098109588   -1.7532379   0.92169892   264187 
 8140000   0.84836832   -1.7557188   -1.7557188  -0.83491768   0.10320482   -1.7557188   0.92080109   264187 
 8150000   0.84852367   -1.7587493   -1.7587493  -0.83777957   0.10666538   -1.7587493    0.9209697   264187 
 8160000   0.84792947   -1.7627997   -1.7627997  -0.84247495   0.10226902   -1.7627997   0.92032477   264187 
 8170000   0.84411133   -1.7613823   -1.7613823  -0.84520169  0.091350006   -1.7613823   0.91618064   264187 
 8180000   0.84436178   -1.7639652   -1.7639652  -0.84751267  0.091559186   -1.7639652   0.91645248   264187 
 8190000    0.8433529   -1.7673116   -1.7673116  -0.85195416  0.092316104   -1.7673116   0.91535746   264187 
 8200000   0.84113307   -1.7681343   -1.7681343  -0.85518617  0.092778679   -1.7681343    0.9129481   264187 
 8210000   0.84006365   -1.7690776   -1.7690776   -0.8572902  0.097746054   -1.7690776   0.91178738   264187 
 8220000   0.83857772   -1.7704638   -1.7704638  -0.86028923  0.094390197   -1.7704638   0.91017458   264187 
 8230000   0.83851587   -1.7730173   -1.7730173  -0.86290981  0.090883411   -1.7730173   0.91010745   264187 
 8240000    0.8382777   -1.7726124   -1.7726124  -0.86276346   0.09259209   -1.7726124   0.90984894   264187 
 8250000   0.83549712   -1.7749495   -1.7749495  -0.86811856  0.083608593   -1.7749495   0.90683095   264187 
 8260000   0.83502457   -1.7763385   -1.7763385  -0.87002045   0.08641005   -1.7763385   0.90631806   264187 
 8270000    0.8325161   -1.7775957   -1.7775957   -0.8740003  0.093471794   -1.7775957   0.90359543   264187 
 8280000   0.83339202   -1.7800568   -1.7800568  -0.87551067  0.090949595   -1.7800568   0.90454613   264187 
 8290000   0.83208641   -1.7817076   -1.7817076  -0.87857853  0.098244092   -1.7817076   0.90312905   264187 
 8300000   0.83126476   -1.7829602   -1.7829602  -0.88072295  0.090687913   -1.7829602   0.90223725   264187 
 8310000   0.82907664   -1.7846455   -1.7846455  -0.88478319   0.10231272   -1.7846455    0.8998623   264187 
 8320000   0.82923456   -1.7890572   -1.7890572  -0.88902345  0.092610725   -1.7890572   0.90003371   264187 
 8330000   0.82871936   -1.7909179   -1.7909179  -0.89144334  0.092263865   -1.7909179   0.89947452   264187 
 8340000   0.82689517   -1.7933396   -1.7933396  -0.89584498  0.097321676   -1.7933396   0.89749458   264187 
 8350000   0.82658892   -1.7973768   -1.7973768  -0.90021465  0.090783053   -1.7973768   0.89716219   264187 
 8360000   0.82293529   -1.7981627   -1.7981627  -0.90496612  0.098895621   -1.7981627   0.89319661   264187 
 8370000   0.82070833   -1.8007095   -1.8007095     -0.90993  0.083510625   -1.8007095   0.89077952   264187 
 8380000   0.81901145   -1.8046742   -1.8046742  -0.91573645  0.091491473   -1.8046742   0.88893776   264187 
 8390000   0.82116697   -1.8072601   -1.8072601  -0.91598281  0.086654509   -1.8072601   0.89127732   264187 
 8400000   0.81738108   -1.8097349   -1.8097349  -0.92256666  0.094574913   -1.8097349   0.88716819   264187 
 8410000    0.8143005    -1.810637    -1.810637  -0.92681238  0.088995078    -1.810637    0.8838246   264187 
 8420000    0.8133944   -1.8127227   -1.8127227  -0.92988159  0.095566779   -1.8127227   0.88284113   264187 
 8430000   0.81265578   -1.8146607   -1.8146607  -0.93262127  0.091981782   -1.8146607   0.88203945   264187 
 8440000   0.81052714   -1.8175022   -1.8175022  -0.93777309  0.094438305   -1.8175022   0.87972907   264187 
 8450000   0.81140336   -1.8196212   -1.8196212   -0.9389411  0.084404815   -1.8196212    0.8806801   264187 
 8460000   0.81028081   -1.8232553   -1.8232553  -0.94379357   0.08976496   -1.8232553    0.8794617   264187 
 8470000   0.80757934   -1.8254871   -1.8254871   -0.9489575  0.086240865   -1.8254871   0.87652959   264187 
 8480000    0.8065002   -1.8280935   -1.8280935  -0.95273522  0.097484345   -1.8280935   0.87535832   264187 
 8490000   0.80620506   -1.8290346   -1.8290346  -0.95399667  0.085784478   -1.8290346   0.87503798   264187 
 8500000   0.80527014   -1.8307945   -1.8307945  -0.95677127  0.089327257   -1.8307945   0.87402323   264187 
 8510000   0.80327594   -1.8325024   -1.8325024  -0.96064359  0.082320726   -1.8325024   0.87185877   264187 
 8520000    0.8027188   -1.8352056   -1.8352056  -0.96395149  0.093335214   -1.8352056   0.87125407   264187 
 8530000   0.80017421   -1.8337076   -1.8337076  -0.96521534  0.092526304   -1.8337076   0.86849221   264187 
 8540000   0.80051691   -1.8378394   -1.8378394  -0.96897525  0.083749656   -1.8378394   0.86886417   264187 
 8550000   0.79860905   -1.8391691   -1.8391691  -0.97237562  0.082579872   -1.8391691   0.86679343   264187 
 8560000   0.79997484   -1.8428145   -1.8428145  -0.97453868  0.086747664   -1.8428145   0.86827582   264187 
 8570000   0.79798515   -1.8440021   -1.8440021  -0.97788589  0.079513073   -1.8440021   0.86611625   264187 
 8580000   0.79738227   -1.8458523   -1.8458523  -0.98039043  0.085134875   -1.8458523    0.8654619   264187 
 8590000   0.79587882   -1.8471152   -1.8471152  -0.98328509  0.068466478   -1.8471152   0.86383009   264187 
 8600000   0.79375308    -1.850186    -1.850186   -0.9886631   0.08729246    -1.850186   0.86152286   264187 
 8610000   0.79391772   -1.8531652   -1.8531652  -0.99146363  0.094192361   -1.8531652   0.86170155   264187 
 8620000   0.79330206   -1.8539475   -1.8539475  -0.99291415  0.092475353   -1.8539475   0.86103333   264187 
 8630000   0.79115135   -1.8559474   -1.8559474  -0.99724843  0.091815104   -1.8559474     0.858699   264187 
 8640000   0.78854202   -1.8582099   -1.8582099    -1.002343  0.082360376   -1.8582099   0.85586689   264187 
 8650000   0.79026168   -1.8630906   -1.8630906   -1.0053572  0.089145263   -1.8630906   0.85773336   264187 
 8660000   0.78525394   -1.8625365   -1.8625365   -1.0102384  0.074465861   -1.8625365   0.85229807   264187 
 8670000    0.7885969   -1.8652964   -1.8652964     -1.00937  0.073380837   -1.8652964   0.85592645   264187 
 8680000   0.78720597   -1.8673518   -1.8673518    -1.012935  0.078460402   -1.8673518   0.85441676   264187 
 8690000   0.78565595   -1.8678257   -1.8678257   -1.0150913  0.091181894   -1.8678257    0.8527344   264187 
 8700000    0.7835633   -1.8706698   -1.8706698   -1.0202067  0.084926272   -1.8706698   0.85046309   264187 
 8710000   0.78323865   -1.8744566   -1.8744566   -1.0243459  0.083899418   -1.8744566   0.85011071   264187 
 8720000   0.78287851    -1.876193    -1.876193   -1.0264732  0.077301433    -1.876193   0.84971983   264187 
 8730000    0.7802388   -1.8758468   -1.8758468   -1.0289921  0.088264546   -1.8758468   0.84685475   264187 
 8740000   0.78089838   -1.8797823   -1.8797823   -1.0322117  0.083759334   -1.8797823   0.84757063   264187 
 8750000   0.77743942   -1.8826595   -1.8826595   -1.0388431  0.080289004   -1.8826595   0.84381635   264187 
 8760000   0.77651566   -1.8822903   -1.8822903   -1.0394765  0.091483071   -1.8822903   0.84281372   264187 
 8770000   0.77763306   -1.8862842   -1.8862842   -1.0422577  0.077602728   -1.8862842   0.84402653   264187 
 8780000   0.77565115   -1.8877203   -1.8877203   -1.0458449  0.076306994   -1.8877203   0.84187541   264187 
 8790000   0.77295197   -1.8907965   -1.8907965   -1.0518507  0.083657299   -1.8907965   0.83894577   264187 
 8800000   0.77187211   -1.8958478   -1.8958478   -1.0580741  0.076081344   -1.8958478   0.83777371   264187 
 8810000   0.77069633   -1.8956775   -1.8956775   -1.0591799  0.070739818   -1.8956775   0.83649755   264187 
 8820000   0.76878942   -1.8968943   -1.8968943   -1.0624665  0.075149239   -1.8968943   0.83442783   264187 
 8830000   0.76859352   -1.8988773   -1.8988773   -1.0646621  0.081944816   -1.8988773    0.8342152   264187 
 8840000   0.76748545   -1.9036012   -1.9036012   -1.0705887  0.077820439   -1.9036012   0.83301252   264187 
 8850000   0.76814404   -1.9074067   -1.9074067   -1.0736793  0.071380851   -1.9074067   0.83372735   264187 
 8860000   0.76730019   -1.9075019   -1.9075019   -1.0746905  0.069355389   -1.9075019   0.83281145   264187 
 8870000   0.76574581   -1.9088758   -1.9088758   -1.0777515  0.080257681   -1.9088758   0.83112436   264187 
 8880000   0.76417851    -1.913078    -1.913078   -1.0836547  0.072916784    -1.913078   0.82942324   264187 
 8890000    0.7623764    -1.914278    -1.914278   -1.0868107  0.084284299    -1.914278   0.82746727   264187 
 8900000   0.75961375   -1.9148832   -1.9148832   -1.0904145  0.071791713   -1.9148832   0.82446875   264187 
 8910000   0.75903441   -1.9182613   -1.9182613   -1.0944214  0.078975707   -1.9182613   0.82383994   264187 
 8920000   0.75792419    -1.920116    -1.920116   -1.0974811   0.07232109    -1.920116   0.82263493   264187 
 8930000   0.75879326   -1.9238295   -1.9238295   -1.1002513  0.069985962   -1.9238295   0.82357821   264187 
 8940000   0.75503654   -1.9223753   -1.9223753   -1.1028746  0.077674022   -1.9223753   0.81950074   264187 
 8950000   0.75604521   -1.9264845   -1.9264845    -1.105889  0.079694526   -1.9264845   0.82059553   264187 
 8960000   0.75667828    -1.930481    -1.930481   -1.1091984  0.063391301    -1.930481   0.82128266   264187 
 8970000   0.75342318   -1.9339048   -1.9339048   -1.1161552   0.07327092   -1.9339048   0.81774963   264187 
 8980000   0.75031416   -1.9336104   -1.9336104   -1.1192352  0.080836702   -1.9336104   0.81437517   264187 
 8990000   0.75034798   -1.9373199   -1.9373199    -1.122908  0.061285195   -1.9373199   0.81441188   264187 
 9000000   0.74995374   -1.9405582   -1.9405582   -1.1265743   0.07107653   -1.9405582   0.81398398   264187 
 9010000   0.74769994   -1.9424704   -1.9424704   -1.1309327  0.075438547   -1.9424704   0.81153775   264187 
 9020000   0.74590212   -1.9438975   -1.9438975   -1.1343111  0.077514912   -1.9438975   0.80958643   264187 
 9030000   0.74552208    -1.947158    -1.947158    -1.137984  0.067718679    -1.947158   0.80917395   264187 
 9040000    0.7437246   -1.9496916   -1.9496916   -1.1424686  0.064859953   -1.9496916     0.807223   264187 
 9050000   0.74489767   -1.9553611   -1.9553611   -1.1468649  0.063930306   -1.9553611   0.80849623   264187 
 9060000   0.74296349   -1.9550409   -1.9550409    -1.148644  0.073975096   -1.9550409   0.80639691   264187 
 9070000   0.74049071   -1.9572444   -1.9572444   -1.1535314  0.074061978   -1.9572444     0.803713   264187 
 9080000   0.73996549   -1.9610714   -1.9610714   -1.1579284  0.074263028   -1.9610714   0.80314295   264187 
 9090000   0.73803061   -1.9623393   -1.9623393   -1.1612964  0.068283887   -1.9623393   0.80104287   264187 
 9100000   0.73609544   -1.9659135   -1.9659135   -1.1669711  0.068478684   -1.9659135   0.79894248   264187 
 9110000   0.73711097   -1.9704733   -1.9704733   -1.1704286   0.07205874   -1.9704733   0.80004471   264187 
 9120000    0.7353086   -1.9743264   -1.9743264    -1.176238  0.065974008   -1.9743264   0.79808845   264187 
 9130000   0.73383974   -1.9741168   -1.9741168   -1.1776226  0.063546172   -1.9741168   0.79649419   264187 
 9140000   0.73393247   -1.9796644   -1.9796644   -1.1830695  0.072458776   -1.9796644   0.79659483   264187 
 9150000   0.73083286   -1.9803359   -1.9803359   -1.1871053  0.072645905   -1.9803359   0.79323058   264187 
 9160000   0.72985942   -1.9839644   -1.9839644   -1.1917903  0.072459467   -1.9839644   0.79217403   264187 
 9170000   0.72914301   -1.9877155   -1.9877155    -1.196319  0.072410567   -1.9877155   0.79139645   264187 
 9180000   0.72936329   -1.9911097   -1.9911097   -1.1994742  0.061458151   -1.9911097   0.79163553   264187 
 9190000   0.72625439   -1.9921182   -1.9921182    -1.203857   0.07039672   -1.9921182   0.78826121   264187 
 9200000   0.72299104   -1.9939302   -1.9939302    -1.209211  0.067122877   -1.9939302   0.78471923   264187 
 9210000   0.72391337    -2.001454    -2.001454   -1.2157337  0.070387297    -2.001454   0.78572031   264187 
 9220000   0.72284447   -2.0038561   -2.0038561    -1.219296  0.061111397   -2.0038561   0.78456015   264187 
 9230000   0.72107708   -2.0084931   -2.0084931   -1.2258512  0.070366393   -2.0084931   0.78264186   264187 
 9240000     0.720852   -2.0115316   -2.0115316   -1.2291341   0.07003761   -2.0115316   0.78239757   264187 
 9250000   0.71972236   -2.0135422   -2.0135422   -1.2323708  0.064596919   -2.0135422   0.78117148   264187 
 9260000   0.71755601   -2.0140172   -2.0140172    -1.235197  0.060656474   -2.0140172   0.77882017   264187 
 9270000   0.71659652   -2.0189265   -2.0189265   -1.2411478  0.061607816   -2.0189265   0.77777875   264187 
 9280000   0.71663692   -2.0232797   -2.0232797   -1.2454571   0.05927894   -2.0232797   0.77782261   264187 
 9290000   0.71442718   -2.0237185   -2.0237185   -1.2482943  0.068832014   -2.0237185    0.7754242   264187 
 9300000   0.71456953   -2.0305202   -2.0305202   -1.2549415  0.069819945   -2.0305202    0.7755787   264187 
 9310000   0.71197986   -2.0333953   -2.0333953   -1.2606274  0.061699052   -2.0333953   0.77276793   264187 
 9320000   0.71072482   -2.0362649   -2.0362649   -1.2648591  0.068291632   -2.0362649   0.77140573   264187 
 9330000   0.70980261   -2.0373237   -2.0373237   -1.2669189  0.058267516   -2.0373237   0.77040479   264187 
 9340000   0.71000933   -2.0405146   -2.0405146   -1.2698854  0.054189592   -2.0405146   0.77062915   264187 
 9350000   0.70798862   -2.0475974   -2.0475974   -1.2791615  0.050612434   -2.0475974   0.76843592   264187 
 9360000   0.70532175   -2.0459683   -2.0459683   -1.2804269  0.064397757   -2.0459683   0.76554136   264187 
 9370000   0.70471123   -2.0509614   -2.0509614   -1.2860826  0.055228655   -2.0509614   0.76487872   264187 
 9380000   0.70502096   -2.0562788   -2.0562788   -1.2910639  0.060434992   -2.0562788   0.76521489   264187 
 9390000   0.70295533   -2.0586884   -2.0586884   -1.2957155  0.058030084   -2.0586884   0.76297289   264187 
 9400000   0.70205218   -2.0644233   -2.0644233   -1.3024307   0.06147547   -2.0644233   0.76199263   264187 
 9410000   0.70203212   -2.0693225   -2.0693225   -1.3073516  0.072318633   -2.0693225   0.76197086   264187 
 9420000   0.69918264   -2.0728069   -2.0728069   -1.3139288  0.063925253   -2.0728069    0.7588781   264187 
 9430000   0.69835484   -2.0743924   -2.0743924   -1.3164128  0.063709166   -2.0743924   0.75797962   264187 
 9440000   0.69639889   -2.0783081   -2.0783081   -1.3224514  0.057025767   -2.0783081   0.75585667   264187 
 9450000   0.69568649   -2.0827274   -2.0827274   -1.3276439  0.053717547   -2.0827274   0.75508345   264187 
 9460000   0.69538293   -2.0871141   -2.0871141   -1.3323601  0.061869907   -2.0871141   0.75475397   264187 
 9470000    0.6922285    -2.087241    -2.087241   -1.3359108  0.059666641    -2.087241   0.75133022   264187 
 9480000   0.68963433   -2.0914642   -2.0914642   -1.3429497  0.056707677   -2.0914642   0.74851456   264187 
 9490000   0.69125654   -2.0969941   -2.0969941   -1.3467188  0.049584076   -2.0969941   0.75027527   264187 
 9500000    0.6886607   -2.1010486   -2.1010486   -1.3535908  0.065620426   -2.1010486    0.7474578   264187 
 9510000   0.68708157   -2.1014583   -2.1014583   -1.3557145  0.062909588   -2.1014583   0.74574385   264187 
 9520000   0.68760791    -2.107396    -2.107396   -1.3610808  0.059202115    -2.107396   0.74631513   264187 
 9530000   0.68695701    -2.112972    -2.112972   -1.3673634  0.055210651    -2.112972   0.74560866   264187 
 9540000   0.68488473   -2.1176186   -2.1176186   -1.3742592   0.06228089   -2.1176186   0.74335945   264187 
 9550000     0.682067   -2.1172252   -2.1172252    -1.376924  0.044678835   -2.1172252   0.74030115   264187 
 9560000   0.68226602   -2.1223193   -2.1223193   -1.3818021   0.06430668   -2.1223193   0.74051715   264187 
 9570000   0.68382982    -2.128448    -2.128448   -1.3862336  0.058070256    -2.128448   0.74221447   264187 
 9580000   0.67989264   -2.1324596   -2.1324596   -1.3945184  0.060095969   -2.1324596   0.73794114   264187 
 9590000   0.67693378   -2.1377564   -2.1377564   -1.4030267  0.060526595   -2.1377564   0.73472966   264187 
 9600000   0.67668448   -2.1413691   -2.1413691     -1.40691  0.045856436   -2.1413691   0.73445907   264187 
 9610000    0.6733779   -2.1457668   -2.1457668   -1.4148966  0.048744049   -2.1457668   0.73087017   264187 
 9620000   0.67431447   -2.1529813   -2.1529813   -1.4210946  0.051184476   -2.1529813   0.73188671   264187 
 9630000   0.67212676   -2.1550621   -2.1550621   -1.4255499  0.049639561   -2.1550621   0.72951222   264187 
 9640000   0.67163009   -2.1570379   -2.1570379   -1.4280647  0.048506436   -2.1570379   0.72897314   264187 
 9650000   0.67032139   -2.1622593   -2.1622593   -1.4347066  0.048715439   -2.1622593    0.7275527   264187 
 9660000   0.66849643   -2.1652187   -2.1652187   -1.4396468  0.054253432   -2.1652187   0.72557194   264187 
 9670000   0.66778048   -2.1718683   -2.1718683   -1.4470734  0.054087929   -2.1718683   0.72479485   264187 
 9680000   0.66705547   -2.1763558   -2.1763558   -1.4523479  0.047256181   -2.1763558   0.72400795   264187 
 9690000   0.66611501   -2.1806649   -2.1806649   -1.4576777  0.058015101   -2.1806649   0.72298718   264187 
 9700000   0.66531833   -2.1849264   -2.1849264   -1.4628039  0.057821998   -2.1849264   0.72212249   264187 
 9710000   0.66354037   -2.1867731   -2.1867731   -1.4665803  0.049428048   -2.1867731   0.72019273   264187 
 9720000   0.66257598   -2.1925312   -2.1925312   -1.4733852  0.054255188   -2.1925312     0.719146   264187 
 9730000   0.66280385     -2.19871     -2.19871   -1.4793167  0.050208063     -2.19871   0.71939332   264187 
 9740000   0.66061361   -2.2039069   -2.2039069   -1.4868909  0.054245322   -2.2039069   0.71701608   264187 
 9750000   0.65758451   -2.2095178   -2.2095178   -1.4957895  0.051130188   -2.2095178   0.71372837   264187 
 9760000   0.65697266   -2.2105531   -2.2105531   -1.4974888  0.052037888   -2.2105531   0.71306427   264187 
 9770000   0.65904978   -2.2141138   -2.2141138   -1.4987951  0.051014451   -2.2141138   0.71531874   264187 
 9780000   0.65525133    -2.219806    -2.219806     -1.50861  0.052619761    -2.219806   0.71119598   264187 
 9790000   0.65340394   -2.2234088   -2.2234088    -1.514218  0.048640059   -2.2234088   0.70919086   264187 
 9800000   0.65356976   -2.2291897   -2.2291897   -1.5198189   0.04594916   -2.2291897   0.70937084   264187 
 9810000   0.65146975   -2.2337987   -2.2337987   -1.5267072  0.059976038   -2.2337987   0.70709153   264187 
 9820000   0.65181043   -2.2399265   -2.2399265   -1.5324652  0.055196209   -2.2399265    0.7074613   264187 
 9830000   0.64911163   -2.2468075   -2.2468075   -1.5422755  0.047688192   -2.2468075   0.70453208   264187 
 9840000   0.64941634   -2.2541715   -2.2541715   -1.5493087  0.045136375   -2.2541715    0.7048628   264187 
 9850000   0.64667759   -2.2584677   -2.2584677   -1.5565775  0.039975723   -2.2584677   0.70189022   264187 
 9860000   0.64550394   -2.2625517   -2.2625517   -1.5619353  0.051632165   -2.2625517   0.70061637   264187 
 9870000   0.64235453    -2.264526    -2.264526    -1.567328  0.049644925    -2.264526   0.69719807   264187 
 9880000    0.6433968    -2.271394    -2.271394   -1.5730647  0.044201217    -2.271394   0.69832932   264187 
 9890000   0.64203544    -2.275744    -2.275744   -1.5788923  0.051564046    -2.275744   0.69685173   264187 
 9900000   0.64129133   -2.2817493   -2.2817493   -1.5857052  0.042227894   -2.2817493   0.69604409   264187 
 9910000   0.63819458   -2.2849397   -2.2849397   -1.5922567  0.033848758   -2.2849397   0.69268295   264187 
 9920000   0.63862322   -2.2895275   -2.2895275   -1.5963794  0.041682643   -2.2895275   0.69314817   264187 
 9930000   0.63869224   -2.2983336   -2.2983336   -1.6051105  0.039773768   -2.2983336   0.69322309   264187 
 9940000   0.63734667   -2.3023177   -2.3023177   -1.6105551  0.047597397   -2.3023177   0.69176264   264187 
 9950000   0.63523224   -2.3064472   -2.3064472   -1.6169795  0.041807524   -2.3064472   0.68946769   264187 
 9960000   0.63519781   -2.3124611   -2.3124611   -1.6230308   0.04775591   -2.3124611   0.68943032   264187 
 9970000   0.63260206   -2.3150162   -2.3150162   -1.6284033  0.047337904   -2.3150162   0.68661293   264187 
 9980000    0.6332106   -2.3234226   -2.3234226   -1.6361492  0.044686109   -2.3234226   0.68727344   264187 
 9990000   0.63005326   -2.3262264   -2.3262264   -1.6423799  0.046481068   -2.3262264   0.68384653   264187 
10000000   0.63024334   -2.3341153   -2.3341153   -1.6500624  0.045667542   -2.3341153   0.68405284   264187 
Loop time of 12550.7 on 336 procs for 5000000 steps with 264187 atoms

Performance: 172101.520 tau/day, 398.383 timesteps/s
80.5% CPU use with 336 MPI tasks x 1 OpenMP threads

MPI task timing breakdown:
Section |  min time  |  avg time  |  max time  |%varavg|  %CPU | %total
-----------------------------------------------------------------------
Pair    | 146.96     | 885.36     | 2993.7     |2351.8 |  85.8 |  7.05
Bond    | 3.1678     | 3.3471     | 3.6084     |   4.8 | 100.0 |  0.03
Neigh   | 331.19     | 1391.8     | 4584.4     |2597.5 |  96.8 | 11.09
Comm    | 1381       | 5355.5     | 9265.3     |2788.3 |  79.4 | 42.67
Output  | 528.5      | 602.32     | 690.74     | 147.6 |  74.5 |  4.80
Modify  | 1352.1     | 4210.7     | 9613       |3938.3 |  77.9 | 33.55
Other   |            | 101.7      |            |       |       |  0.81

Nlocal:        786.271 ave        2267 max          96 min
Histogram: 21 39 55 163 32 18 6 0 1 1
Nghost:        4608.88 ave        8930 max        1151 min
Histogram: 74 31 27 22 24 36 34 36 31 21
Neighs:        18353.4 ave       62891 max         350 min
Histogram: 109 25 52 32 51 37 17 8 3 2
FullNghs:      36706.8 ave      141313 max         684 min
Histogram: 109 47 41 48 51 20 15 3 1 1

Total # of neighbors = 12333490
Ave neighs/atom = 46.684697
Ave special neighs/atom = 0.0000000
Neighbor list builds = 499929
Dangerous builds = 492936
Total wall time: 7:05:00
