LAMMPS (29 Oct 2020)
  using 1 OpenMP thread(s) per MPI task
units           lj
atom_style      full
atom_modify     map array first cubes
dimension       3
boundary        p p f

variable        sigma           equal 1.0
variable        epsilon         equal 1.0

region 		box block 0 80 0 80 0 106

read_data       data.rigid
Reading data file ...
  orthogonal box = (0.0000000 0.0000000 0.0000000) to (13.300000 13.300000 15.140000)
  2 by 2 by 4 MPI processor grid
  reading atoms ...
  1143 atoms
Finding 1-2 1-3 1-4 neighbors ...
  special bond factors lj:    0.0      0.0      0.0     
  special bond factors coul:  0.0      0.0      0.0     
     0 = max # of 1-2 neighbors
     0 = max # of 1-3 neighbors
     0 = max # of 1-4 neighbors
     1 = max # of special neighbors
  special bonds CPU = 0.314 seconds
  read_data CPU = 0.376 seconds

replicate       6 6 7			# 252 cubes
Replicating atoms ...
WARNING: Replicating in a non-periodic dimension (src/replicate.cpp:75)
  orthogonal box = (0.0000000 0.0000000 0.0000000) to (79.800000 79.800000 105.98000)
  2 by 2 by 4 MPI processor grid
  288036 atoms
Finding 1-2 1-3 1-4 neighbors ...
  special bond factors lj:    0.0      0.0      0.0     
  special bond factors coul:  0.0      0.0      0.0     
     0 = max # of 1-2 neighbors
     0 = max # of 1-3 neighbors
     0 = max # of 1-4 neighbors
     1 = max # of special neighbors
  special bonds CPU = 0.008 seconds
  replicate CPU = 0.025 seconds

group           cubes type 2 3
288036 atoms in group cubes


## relax the structure

pair_style      soft 1.12
pair_coeff      1 1 0.0 0.0
pair_coeff      2 2 0.0
pair_coeff      3 3 0.0
pair_coeff      1 3 0.0 0.0
pair_coeff      2 3 0.0
pair_coeff      1 2 0.0 0.0

variable        prefactor equal ramp(0,60)
fix             soft all adapt 1 pair soft a * * v_prefactor

neighbor        0.3 bin
neigh_modify    delay 0 every 1 check yes

#fix             1     cubes rigid molecule

dump 		1 all movie 100 movie.avi type type

compute         tbig all temp
thermo_modify   temp tbig

thermo          100
run             1000
Neighbor list info ...
  update every 1 steps, delay 0 steps, check yes
  max neighbors/atom: 2000, page size: 100000
  master list distance cutoff = 1.42
  ghost atom cutoff = 1.42
  binsize = 0.71, bins = 113 113 150
  1 neighbor lists, perpetual/occasional/extra = 1 0 0
  (1) pair soft, perpetual
      attributes: half, newton on
      pair build: half/bin/newton
      stencil: half/bin/3d/newton
      bin: standard
Setting up Verlet run ...
  Unit style    : lj
  Current step  : 0
  Time step     : 0.005
Per MPI rank memory allocation (min/avg/max) = 14.84 | 14.86 | 14.90 Mbytes
Step Temp E_pair E_mol TotEng Press 
       0            0            0            0            0            0 
     100            0   0.90670399            0   0.90670399    2.1295231 
     200            0     1.813408            0     1.813408    4.2590461 
     300            0     2.720112            0     2.720112    6.3885692 
     400            0    3.6268159            0    3.6268159    8.5180922 
     500            0    4.5335199            0    4.5335199    10.647615 
     600            0    5.4402239            0    5.4402239    12.777138 
     700            0    6.3469279            0    6.3469279    14.906661 
     800            0    7.2536319            0    7.2536319    17.036184 
     900            0    8.1603359            0    8.1603359    19.165708 
    1000            0    9.0670399            0    9.0670399    21.295231 
Loop time of 4.45774 on 16 procs for 1000 steps with 288036 atoms

Performance: 96910.086 tau/day, 224.329 timesteps/s
99.3% CPU use with 16 MPI tasks x 1 OpenMP threads

MPI task timing breakdown:
Section |  min time  |  avg time  |  max time  |%varavg| %total
---------------------------------------------------------------
Pair    | 1.851      | 2.5407     | 3.9427     |  43.1 | 56.99
Bond    | 8.6069e-05 | 0.0001792  | 0.00035744 |   0.0 |  0.00
Neigh   | 0          | 0          | 0          |   0.0 |  0.00
Comm    | 0.062009   | 0.89929    | 2.1859     |  88.7 | 20.17
Output  | 0.25063    | 0.25941    | 0.27745    |   1.8 |  5.82
Modify  | 0.0019358  | 0.0048071  | 0.011214   |   3.2 |  0.11
Other   |            | 0.7534     |            |       | 16.90

Nlocal:        18002.2 ave       19044 max       16434 min
Histogram: 4 0 0 0 4 0 0 0 0 8
Nghost:        2045.25 ave        3087 max        1530 min
Histogram: 8 0 0 4 0 0 0 0 0 4
Neighs:       138632.0 ave      150111 max      125316 min
Histogram: 4 0 0 4 0 0 0 0 4 4

Total # of neighbors = 2218104
Ave neighs/atom = 7.7007874
Ave special neighs/atom = 0.0000000
Neighbor list builds = 0
Dangerous builds = 0
unfix 		soft

reset_timestep 	0

# Jetzt die eigentliche verteilung

pair_style	lj/cut/opt 2.5
pair_modify	shift yes

pair_coeff	1 1 0.0 0.0

pair_coeff	2 2 1.0 1.0

pair_coeff	1 2 0.0 0.0

pair_coeff	1 3 0.0 0.0

pair_coeff	2 3 0.0 0.0

pair_coeff	3 3 0.0 0.0

comm_modify	cutoff 6.93

fix 		1 cubes rigid/small molecule
  create bodies CPU = 0.013 seconds
  252 rigid bodies with 288036 atoms
  6.9282032 = max distance from body owner to body atom


####################### WALLS ###########################

variable       epsilonWall equal 2*${epsilon}
variable       epsilonWall equal 2*1

variable       cutoffTop   equal   0.7147*${sigma}
variable       cutoffTop   equal   0.7147*1

variable       cutoffLow   equal   3*${sigma}
variable       cutoffLow   equal   3*1


fix            topWall all wall/lj93 zhi EDGE                ${epsilonWall} ${sigma} ${cutoffTop} units box
fix            topWall all wall/lj93 zhi EDGE                2 ${sigma} ${cutoffTop} units box
fix            topWall all wall/lj93 zhi EDGE                2 1 ${cutoffTop} units box
fix            topWall all wall/lj93 zhi EDGE                2 1 0.7147 units box

fix            lowWall all wall/lj93 zlo EDGE                ${epsilonWall} ${sigma} ${cutoffLow} units box
fix            lowWall all wall/lj93 zlo EDGE                2 ${sigma} ${cutoffLow} units box
fix            lowWall all wall/lj93 zlo EDGE                2 1 ${cutoffLow} units box
fix            lowWall all wall/lj93 zlo EDGE                2 1 3 units box


velocity	all create ${temp} ${seed} loop geom
velocity	all create 10 ${seed} loop geom
velocity	all create 10 21193 loop geom
WARNING: Changing velocities of atoms in rigid bodies. This has no effect unless rigid bodies are rebuild (src/velocity.cpp:71)
WARNING: Cannot count rigid body degrees-of-freedom before bodies are fully initialized (src/RIGID/fix_rigid_small.cpp:1166)


############### Diagnostics and computes ###################
compute        com cubes          rigid/local   1 mol x y z
compute        quat cubes         rigid/local   1 mol quatw quati quatj quatk

thermo          1000
thermo_style    custom step temp epair evdwl etotal press pe ke vol
WARNING: New thermo_style command, previous thermo_modify settings will be lost (src/output.cpp:693)

#dump            1 all custom 100000 dump.lammpstrj id mol type x y z
dump            2 all image 10000 image.*.png type type

dump_modify     2 pad 8


dump            image cubes image 10000 image_cubes.*.png type type

dump_modify     image pad 8

dump            3 all movie 5000 movie.avi type type
dump           com cubes local 1000 dump.*.xyz c_com[*]
dump           quat cubes      local 1000 dump.*.quat c_quat[*]


restart         250000 restart.dat
timestep        0.005
timer           full
New timer settings: style=full  mode=nosync  timeout=off

run 		1000000
Neighbor list info ...
  update every 1 steps, delay 0 steps, check yes
  max neighbors/atom: 2000, page size: 100000
  master list distance cutoff = 2.8
  ghost atom cutoff = 6.93
  binsize = 1.4, bins = 58 58 76
  1 neighbor lists, perpetual/occasional/extra = 1 0 0
  (1) pair lj/cut/opt, perpetual
      attributes: half, newton on
      pair build: half/bin/newton
      stencil: half/bin/3d/newton
      bin: standard
Setting up Verlet run ...
  Unit style    : lj
  Current step  : 0
  Time step     : 0.005
Per MPI rank memory allocation (min/avg/max) = 43.41 | 48.46 | 53.84 Mbytes
Step Temp E_pair E_vdwl TotEng Press PotEng KinEng Volume 
       0    10.084794  -0.36619638  -0.36619638  -0.33977963    1.6104648  -0.36619638  0.026416757    674884.88 
    1000    12.243655  -0.37045792  -0.37045792   -0.3383861 -0.014002425  -0.37045792  0.032071816    674884.88 
    2000    18.414156  -0.38587757  -0.38587757  -0.33764235  0.017630625  -0.38587757  0.048235222    674884.88 
    3000    20.012769  -0.38996146  -0.38996146  -0.33753873  0.030696566  -0.38996146  0.052422733    674884.88 
    4000    20.782776  -0.39259087  -0.39259087  -0.33815113  0.057661793  -0.39259087  0.054439738    674884.88 
    5000     22.54572  -0.39617988  -0.39617988  -0.33712217   0.03224049  -0.39617988  0.059057708    674884.88 
    6000    23.561397    -0.398881    -0.398881  -0.33716276  0.064710151    -0.398881  0.061718236    674884.88 
    7000    22.897853   -0.3971715   -0.3971715   -0.3371914  0.070200534   -0.3971715  0.059980106    674884.88 
    8000     23.68169  -0.39915017  -0.39915017  -0.33711683  0.052322475  -0.39915017   0.06203334    674884.88 
    9000    25.047103  -0.40238609  -0.40238609   -0.3367761  0.053410659  -0.40238609  0.065609991    674884.88 
   10000    26.169998  -0.40426255  -0.40426255  -0.33571118  0.073869485  -0.40426255  0.068551374    674884.88 
   11000    26.435149  -0.40490052  -0.40490052  -0.33565459   0.07025012  -0.40490052  0.069245928    674884.88 
   12000    26.624439  -0.40523532  -0.40523532  -0.33549355  0.040479638  -0.40523532  0.069741766    674884.88 
   13000    25.833173  -0.40366169  -0.40366169  -0.33599262   0.04327912  -0.40366169  0.067669073    674884.88 
   14000    26.211461  -0.40446963  -0.40446963  -0.33580965  0.033362497  -0.40446963  0.068659985    674884.88 
   15000    27.008668  -0.40670197  -0.40670197  -0.33595373  0.074388127  -0.40670197  0.070748239    674884.88 
   16000    26.564607  -0.40486149  -0.40486149  -0.33527645  0.030551283  -0.40486149  0.069585037    674884.88 
   17000    26.281111  -0.40473575  -0.40473575  -0.33589332   0.10226871  -0.40473575  0.068842429    674884.88 
   18000    26.653123  -0.40424997  -0.40424997  -0.33443306  0.075413505  -0.40424997  0.069816903    674884.88 
   19000    26.543296  -0.40487312  -0.40487312  -0.33534391  0.050695238  -0.40487312  0.069529216    674884.88 
   20000    27.118679  -0.40492864  -0.40492864  -0.33389223  0.057216208  -0.40492864  0.071036409    674884.88 
   21000    27.215623  -0.40600084  -0.40600084  -0.33471049  0.020690348  -0.40600084   0.07129035    674884.88 
   22000    27.136774  -0.40552777  -0.40552777  -0.33444397  0.062415903  -0.40552777  0.071083809    674884.88 
   23000    28.164468  -0.40817106  -0.40817106  -0.33439524  0.091271485  -0.40817106  0.073775818    674884.88 
   24000    26.851533  -0.40474691  -0.40474691  -0.33441028  0.013824117  -0.40474691  0.070336629    674884.88 
   25000    27.180827  -0.40514602  -0.40514602  -0.33394681   0.10511897  -0.40514602  0.071199205    674884.88 
   26000    27.128384  -0.40480965  -0.40480965  -0.33374782  0.067699242  -0.40480965  0.071061832    674884.88 
   27000    27.094142  -0.40427504  -0.40427504  -0.33330291   0.07419526  -0.40427504  0.070972136    674884.88 
   28000    27.319881  -0.40454719  -0.40454719  -0.33298374  0.047638855  -0.40454719  0.071563452    674884.88 
   29000    26.818048  -0.40337735  -0.40337735  -0.33312843  0.062354198  -0.40337735  0.070248917    674884.88 
   30000    26.833813  -0.40520134  -0.40520134  -0.33491112  0.040724662  -0.40520134  0.070290213    674884.88 
   31000    27.811695  -0.40765585  -0.40765585  -0.33480411  0.069023968  -0.40765585  0.072851741    674884.88 
   32000    28.313404    -0.408159    -0.408159  -0.33399305  0.045473537    -0.408159  0.074165949    674884.88 
   33000    28.422308  -0.40906011  -0.40906011  -0.33460889  0.066608274  -0.40906011  0.074451219    674884.88 
   34000    28.481948  -0.40868572  -0.40868572  -0.33407828   0.10600001  -0.40868572  0.074607444    674884.88 
   35000    28.475981  -0.40941924  -0.40941924  -0.33482742   0.05640252  -0.40941924  0.074591812    674884.88 
   36000    28.503707  -0.40865937  -0.40865937  -0.33399493   0.15345274  -0.40865937  0.074664441    674884.88 
   37000    29.255573  -0.41024485  -0.41024485  -0.33361093  0.036547726  -0.41024485  0.076633928    674884.88 
   38000    27.988829   -0.4081435   -0.4081435  -0.33482777  0.086916371   -0.4081435  0.073315736    674884.88 
   39000    28.584396  -0.40825719  -0.40825719  -0.33338139   0.12117484  -0.40825719  0.074875803    674884.88 
   40000    28.702226  -0.40901579  -0.40901579  -0.33383133  0.088733752  -0.40901579  0.075184453    674884.88 
   41000    27.211346  -0.40519343  -0.40519343  -0.33391429  0.077307892  -0.40519343  0.071279146    674884.88 
   42000    27.856864  -0.40751501  -0.40751501  -0.33454495  0.021530225  -0.40751501  0.072970058    674884.88 
   43000    27.280022  -0.40609875  -0.40609875   -0.3346397  0.034528533  -0.40609875  0.071459041    674884.88 
   44000    27.631319   -0.4060116   -0.4060116  -0.33363235  0.091195593   -0.4060116  0.072379251    674884.88 
   45000     28.27132  -0.40702834  -0.40702834  -0.33297263  0.072013573  -0.40702834  0.074055711    674884.88 
   46000    27.290222  -0.40575526  -0.40575526   -0.3342695  0.064102659  -0.40575526  0.071485762    674884.88 
   47000    27.340776  -0.40460635  -0.40460635  -0.33298816   0.10747911  -0.40460635  0.071618185    674884.88 
   48000    27.396047  -0.40664403  -0.40664403  -0.33488107  0.072778602  -0.40664403  0.071762966    674884.88 
   49000     27.52088  -0.40548614  -0.40548614  -0.33339618  0.045260667  -0.40548614  0.072089961    674884.88 
   50000    27.103066  -0.40339107  -0.40339107  -0.33239556   0.10163387  -0.40339107  0.070995511    674884.88 
   51000    27.047014  -0.40292357  -0.40292357  -0.33207488   0.10479426  -0.40292357  0.070848685    674884.88 
   52000    27.325985   -0.4047792   -0.4047792  -0.33319976   0.10996474   -0.4047792   0.07157944    674884.88 
   53000    27.544994  -0.40594489  -0.40594489  -0.33379176  0.047452779  -0.40594489  0.072153127    674884.88 
   54000    26.925683  -0.40400015  -0.40400015  -0.33346929  0.081257044  -0.40400015  0.070530865    674884.88 
   55000    27.298283  -0.40512196  -0.40512196  -0.33361508  0.052746081  -0.40512196  0.071506875    674884.88 
   56000    27.000253  -0.40382656  -0.40382656  -0.33310036  0.083131754  -0.40382656  0.070726196    674884.88 
   57000    27.030632    -0.404425    -0.404425  -0.33361923  0.078700649    -0.404425  0.070805774    674884.88 
   58000    27.409242  -0.40543957  -0.40543957  -0.33364204  0.055338591  -0.40543957  0.071797529    674884.88 
   59000    27.572646  -0.40542926  -0.40542926  -0.33320369  0.091925285  -0.40542926  0.072225561    674884.88 
   60000    28.192951  -0.40566206  -0.40566206  -0.33181163  0.088575943  -0.40566206  0.073850426    674884.88 
   61000    27.019667  -0.40347682  -0.40347682  -0.33269977  0.062364656  -0.40347682  0.070777051    674884.88 
   62000    26.853994  -0.40249544  -0.40249544  -0.33215236  0.069733924  -0.40249544  0.070343078    674884.88 
   63000    26.453045   -0.4015776   -0.4015776  -0.33228479  0.067058461   -0.4015776  0.069292805    674884.88 
   64000    28.385315  -0.40627997  -0.40627997  -0.33192566  0.065290229  -0.40627997  0.074354317    674884.88 
   65000    27.786018   -0.4038142   -0.4038142  -0.33102971  0.064393217   -0.4038142  0.072784482    674884.88 
   66000    28.273451  -0.40488026  -0.40488026  -0.33081897  0.045550866  -0.40488026  0.074061295    674884.88 
   67000    28.490626   -0.4060132   -0.4060132  -0.33138302  0.073090064   -0.4060132  0.074630175    674884.88 
   68000    27.680328  -0.40353221  -0.40353221  -0.33102458  0.097415423  -0.40353221   0.07250763    674884.88 
   69000    27.927559  -0.40445259  -0.40445259  -0.33129735  0.090089831  -0.40445259  0.073155241    674884.88 
   70000    27.691113  -0.40389188  -0.40389188    -0.331356  0.045250028  -0.40389188  0.072535879    674884.88 
   71000    27.643593  -0.40398323  -0.40398323  -0.33157183  0.069965798  -0.40398323  0.072411403    674884.88 
   72000     27.75799  -0.40487544  -0.40487544  -0.33216438  0.013512591  -0.40487544  0.072711061    674884.88 
   73000    27.672601  -0.40271076  -0.40271076  -0.33022338  0.047677707  -0.40271076  0.072487388    674884.88 
   74000    27.939937  -0.40443373  -0.40443373  -0.33124606  0.084982125  -0.40443373  0.073187665    674884.88 
   75000    27.879004  -0.40484223  -0.40484223  -0.33181417  0.079915974  -0.40484223  0.073028055    674884.88 
   76000    27.486733   -0.4037307   -0.4037307  -0.33173018  0.036578899   -0.4037307  0.072000513    674884.88 
   77000    28.560191  -0.40603784  -0.40603784  -0.33122544  0.087462784  -0.40603784  0.074812398    674884.88 
   78000    28.398803  -0.40547825  -0.40547825   -0.3310886  0.055020426  -0.40547825  0.074389649    674884.88 
   79000    28.482839  -0.40554253  -0.40554253  -0.33093275  0.040661267  -0.40554253  0.074609779    674884.88 
   80000    28.429642  -0.40604096  -0.40604096  -0.33157053  0.037848704  -0.40604096   0.07447043    674884.88 
   81000     28.40683   -0.4065087   -0.4065087  -0.33209802  0.067626348   -0.4065087  0.074410675    674884.88 
   82000    28.089897  -0.40605335  -0.40605335  -0.33247287  0.039970153  -0.40605335  0.073580479    674884.88 
   83000    29.120969  -0.40818646  -0.40818646  -0.33190512  0.060961426  -0.40818646  0.076281337    674884.88 
   84000    28.192449  -0.40601931  -0.40601931   -0.3321702  0.084209102  -0.40601931  0.073849112    674884.88 
   85000    28.211824  -0.40634579  -0.40634579  -0.33244593  0.038917971  -0.40634579  0.073899863    674884.88 
   86000    28.684883  -0.40833636  -0.40833636  -0.33319734  0.058284416  -0.40833636  0.075139025    674884.88 
   87000    29.493974  -0.41053966  -0.41053966  -0.33328125  0.061580515  -0.41053966  0.077258411    674884.88 
   88000    29.218898  -0.41021323  -0.41021323  -0.33367537  0.082730324  -0.41021323  0.076537858    674884.88 
   89000     29.43035   -0.4092298   -0.4092298  -0.33213805  0.069067673   -0.4092298  0.077091749    674884.88 
   90000    27.968283   -0.4066497   -0.4066497  -0.33338778  0.075045989   -0.4066497  0.073261918    674884.88 
   91000    28.329331  -0.40664997  -0.40664997   -0.3324423  0.077901578  -0.40664997   0.07420767    674884.88 
   92000    28.465516  -0.40719112  -0.40719112  -0.33262672    0.1069442  -0.40719112  0.074564402    674884.88 
   93000    27.893408  -0.40455245  -0.40455245  -0.33148667  0.078651277  -0.40455245  0.073065785    674884.88 
   94000     28.71126  -0.40517247  -0.40517247  -0.32996435 -0.0014532383  -0.40517247  0.075208118    674884.88 
   95000    28.054658  -0.40429947  -0.40429947   -0.3308113  0.047501846  -0.40429947  0.073488173    674884.88 
   96000    27.875689  -0.40445892  -0.40445892  -0.33143955  0.055906513  -0.40445892  0.073019371    674884.88 
   97000    28.831513  -0.40647995  -0.40647995  -0.33095683  0.024022131  -0.40647995  0.075523116    674884.88 
   98000    28.311258  -0.40545373  -0.40545373   -0.3312934  0.048971534  -0.40545373  0.074160327    674884.88 
   99000    27.627412  -0.40396853  -0.40396853  -0.33159951  0.082837163  -0.40396853  0.072369017    674884.88 
  100000      28.3809  -0.40553258  -0.40553258  -0.33118983  0.081310527  -0.40553258  0.074342752    674884.88 
  101000    28.686098  -0.40608477  -0.40608477  -0.33094256  0.058292106  -0.40608477  0.075142208    674884.88 
  102000    27.542965  -0.40314625  -0.40314625  -0.33099844  0.095774194  -0.40314625  0.072147812    674884.88 
  103000       27.193  -0.40284809  -0.40284809    -0.331617  0.069952055  -0.40284809   0.07123109    674884.88 
  104000    27.864975  -0.40480232  -0.40480232  -0.33181102   0.04524894  -0.40480232  0.072991305    674884.88 
  105000    28.523001  -0.40687439  -0.40687439  -0.33215941  0.045867694  -0.40687439  0.074714981    674884.88 
  106000    27.307077  -0.40376486  -0.40376486  -0.33223495  0.063210742  -0.40376486  0.071529913    674884.88 
  107000    28.264387  -0.40503495  -0.40503495   -0.3309974  0.083948545  -0.40503495  0.074037552    674884.88 
  108000    28.410337  -0.40542917  -0.40542917   -0.3310093  0.072953931  -0.40542917  0.074419862    674884.88 
  109000     29.97667  -0.40854729  -0.40854729  -0.33002448    0.0867946  -0.40854729  0.078522816    674884.88 
  110000    28.643248  -0.40561686  -0.40561686  -0.33058689  0.063463604  -0.40561686  0.075029964    674884.88 
  111000    29.587312  -0.40849086  -0.40849086  -0.33098795  0.018647163  -0.40849086  0.077502906    674884.88 
  112000    29.081019  -0.40566103  -0.40566103  -0.32948434  0.041308818  -0.40566103   0.07617669    674884.88 
  113000     28.58658  -0.40533869  -0.40533869  -0.33045717  0.072401229  -0.40533869  0.074881524    674884.88 
  114000    28.133233  -0.40459944  -0.40459944  -0.33090544  0.047081893  -0.40459944  0.073693999    674884.88 
  115000    27.963287   -0.4045361   -0.4045361  -0.33128727  0.042769717   -0.4045361  0.073248831    674884.88 
  116000    29.426891  -0.40723337  -0.40723337  -0.33015068   0.10466835  -0.40723337  0.077082688    674884.88 
  117000    28.874842  -0.40650014  -0.40650014  -0.33086352  0.030070299  -0.40650014  0.075636616    674884.88 
  118000    28.647936  -0.40552201  -0.40552201  -0.33047976  0.039060207  -0.40552201  0.075042243    674884.88 
  119000    28.436153  -0.40501773  -0.40501773  -0.33053025  0.040775314  -0.40501773  0.074487485    674884.88 
  120000     28.06591  -0.40438575  -0.40438575   -0.3308681  0.067145612  -0.40438575  0.073517648    674884.88 
  121000    28.608328  -0.40593367  -0.40593367  -0.33099518  0.089388253  -0.40593367  0.074938491    674884.88 
  122000    28.827429  -0.40656234  -0.40656234  -0.33104992   0.08792783  -0.40656234   0.07551242    674884.88 
  123000    29.634715  -0.40926777  -0.40926777   -0.3316407  0.096164461  -0.40926777  0.077627075    674884.88 
  124000    29.746276  -0.40934667  -0.40934667  -0.33142737  0.042696462  -0.40934667  0.077919307    674884.88 
  125000    28.001364  -0.40445817  -0.40445817   -0.3311096  0.085073966  -0.40445817  0.073348571    674884.88 
  126000    27.951713  -0.40601383  -0.40601383  -0.33279532  0.025615893  -0.40601383  0.073218513    674884.88 
  127000     28.52631  -0.40702299  -0.40702299  -0.33229934   0.08409363  -0.40702299  0.074723648    674884.88 
  128000    28.716091  -0.40701397  -0.40701397  -0.33179319  0.058503665  -0.40701397  0.075220773    674884.88 
  129000    28.470871  -0.40589639  -0.40589639  -0.33131797  0.064079727  -0.40589639  0.074578429    674884.88 
  130000    28.362437  -0.40657692  -0.40657692  -0.33228253  0.093978816  -0.40657692   0.07429439    674884.88 
  131000    28.630558  -0.40710132  -0.40710132   -0.3321046   0.10332114  -0.40710132  0.074996724    674884.88 
  132000    27.627493  -0.40517581  -0.40517581  -0.33280658  0.081093549  -0.40517581  0.072369229    674884.88 
  133000    27.950713  -0.40572252  -0.40572252  -0.33250663   0.03387117  -0.40572252  0.073215893    674884.88 
  134000    27.739702  -0.40459345  -0.40459345  -0.33193029   0.12265587  -0.40459345  0.072663158    674884.88 
  135000    27.555473  -0.40436365  -0.40436365  -0.33218307  0.033715997  -0.40436365  0.072180576    674884.88 
  136000    27.366225  -0.40350592  -0.40350592  -0.33182108  0.071131808  -0.40350592  0.071684847    674884.88 
  137000    26.516691  -0.40054169  -0.40054169  -0.33108217    0.1284344  -0.40054169  0.069459523    674884.88 
  138000    27.689108  -0.40388295  -0.40388295  -0.33135232  0.054057869  -0.40388295  0.072530629    674884.88 
  139000    28.178755   -0.4056895   -0.4056895  -0.33187626  0.065956351   -0.4056895  0.073813241    674884.88 
  140000    29.010577  -0.40775934  -0.40775934  -0.33176717  0.064762573  -0.40775934   0.07599217    674884.88 
  141000    27.337965  -0.40358295  -0.40358295  -0.33197213  0.051714462  -0.40358295  0.071610822    674884.88 
  142000    27.205932   -0.4025664   -0.4025664  -0.33130143  0.072937276   -0.4025664  0.071264965    674884.88 
  143000    28.205394  -0.40547183  -0.40547183   -0.3315888  0.044910697  -0.40547183  0.073883022    674884.88 
  144000    27.978505  -0.40523903  -0.40523903  -0.33195033  0.043834972  -0.40523903  0.073288693    674884.88 
  145000    28.042464  -0.40565665  -0.40565665  -0.33220042  0.024281354  -0.40565665  0.073456232    674884.88 
  146000    28.354664  -0.40698152  -0.40698152  -0.33270749  0.042401805  -0.40698152  0.074274028    674884.88 
  147000    27.483861  -0.40413958  -0.40413958  -0.33214659  0.094732948  -0.40413958  0.071992992    674884.88 
  148000    26.831539  -0.40322065  -0.40322065  -0.33293639  0.060639724  -0.40322065  0.070284256    674884.88 
  149000    27.156586  -0.40293679  -0.40293679  -0.33180108  0.046407945  -0.40293679  0.071135707    674884.88 
  150000    26.829606  -0.40107586  -0.40107586  -0.33079666  0.072021208  -0.40107586  0.070279193    674884.88 
  151000    26.693361  -0.40133973  -0.40133973  -0.33141743  0.071459197  -0.40133973  0.069922303    674884.88 
  152000    26.185326  -0.40004609  -0.40004609  -0.33145457   0.13098602  -0.40004609  0.068591525    674884.88 
  153000    27.479249  -0.40392139  -0.40392139  -0.33194048  0.044748377  -0.40392139   0.07198091    674884.88 
  154000    28.143542  -0.40547675  -0.40547675  -0.33175575  0.066801936  -0.40547675  0.073721001    674884.88 
  155000    27.640845  -0.40443405  -0.40443405  -0.33202985  0.088418016  -0.40443405  0.072404204    674884.88 
  156000    27.597277  -0.40372654  -0.40372654  -0.33143646  0.081000804  -0.40372654  0.072290081    674884.88 
  157000    29.405515  -0.40778006  -0.40778006  -0.33075336  0.025903145  -0.40778006  0.077026694    674884.88 
  158000    29.283944  -0.40846468  -0.40846468  -0.33175644  0.058206889  -0.40846468  0.076708243    674884.88 
  159000    28.816425  -0.40755319  -0.40755319  -0.33206959  0.079434889  -0.40755319  0.075483595    674884.88 
  160000    27.968717  -0.40669542  -0.40669542  -0.33343236  0.064055714  -0.40669542  0.073263053    674884.88 
  161000    27.575983  -0.40541446  -0.40541446  -0.33318016  0.048166787  -0.40541446  0.072234302    674884.88 
  162000     27.79142  -0.40476513  -0.40476513   -0.3319665  0.033262204  -0.40476513   0.07279863    674884.88 
  163000    27.183995  -0.40359269  -0.40359269  -0.33238519  0.036954035  -0.40359269  0.071207502    674884.88 
  164000     27.25983  -0.40334748  -0.40334748  -0.33194133  0.087962615  -0.40334748  0.071406151    674884.88 
  165000    27.270478  -0.40324536  -0.40324536  -0.33181131   0.09050518  -0.40324536  0.071434041    674884.88 
  166000    26.499365  -0.40115446  -0.40115446  -0.33174032  0.076207434  -0.40115446  0.069414138    674884.88 
  167000    27.646797   -0.4041561   -0.4041561  -0.33173631  0.062109883   -0.4041561  0.072419795    674884.88 
  168000    28.540904   -0.4060201   -0.4060201  -0.33125822   0.07618287   -0.4060201  0.074761876    674884.88 
  169000    27.262767  -0.40339522  -0.40339522  -0.33198138  0.051623678  -0.40339522  0.071413844    674884.88 
  170000    27.259032  -0.40261063  -0.40261063  -0.33120657  0.086496422  -0.40261063   0.07140406    674884.88 
  171000    27.928544   -0.4042366   -0.4042366  -0.33107878  0.091749863   -0.4042366  0.073157823    674884.88 
  172000    28.477238  -0.40454252  -0.40454252  -0.32994742  0.051267249  -0.40454252  0.074595107    674884.88 
  173000    27.508493  -0.40250321  -0.40250321   -0.3304457  0.070236968  -0.40250321  0.072057512    674884.88 
  174000    28.337543  -0.40491481  -0.40491481  -0.33068563  0.023245313  -0.40491481  0.074229181    674884.88 
  175000    28.194449  -0.40613535  -0.40613535    -0.332281  0.043811671  -0.40613535  0.073854349    674884.88 
  176000    27.705945  -0.40437971  -0.40437971  -0.33180498  0.043748623  -0.40437971  0.072574731    674884.88 
  177000    28.324408  -0.40492524  -0.40492524  -0.33073046   0.05805957  -0.40492524  0.074194774    674884.88 
  178000    28.496381  -0.40614549  -0.40614549  -0.33150025  0.048429042  -0.40614549   0.07464525    674884.88 
  179000    28.592535  -0.40432722  -0.40432722  -0.32943009  0.052775598  -0.40432722  0.074897123    674884.88 
  180000     27.98251   -0.4041238   -0.4041238  -0.33082462  0.086000884   -0.4041238  0.073299184    674884.88 
  181000    27.862315  -0.40383331  -0.40383331  -0.33084898  0.051419669  -0.40383331  0.072984337    674884.88 
  182000    27.454259  -0.40272584  -0.40272584  -0.33081039  0.072602207  -0.40272584   0.07191545    674884.88 
  183000    27.574997  -0.40344706  -0.40344706  -0.33121534  0.063380399  -0.40344706  0.072231719    674884.88 
  184000    28.328259  -0.40468823  -0.40468823  -0.33048337  0.062162194  -0.40468823   0.07420486    674884.88 
  185000    27.852162  -0.40437013  -0.40437013  -0.33141239  0.012442186  -0.40437013  0.072957742    674884.88 
  186000    27.692801    -0.404553    -0.404553   -0.3320127   0.10191105    -0.404553  0.072540301    674884.88 
  187000    27.449505  -0.40313121  -0.40313121  -0.33122821   0.05460262  -0.40313121  0.071902996    674884.88 
  188000    26.864527  -0.40134337  -0.40134337   -0.3309727  0.041058112  -0.40134337  0.070370668    674884.88 
  189000    28.145038  -0.40568079  -0.40568079  -0.33195587  0.038761962  -0.40568079   0.07372492    674884.88 
  190000    28.423758  -0.40583807  -0.40583807  -0.33138306  0.090240622  -0.40583807  0.074455017    674884.88 
  191000    26.999901   -0.4028956   -0.4028956  -0.33217033   0.14589719   -0.4028956  0.070725275    674884.88 
  192000    28.544114  -0.40687822  -0.40687822  -0.33210793   0.14474101  -0.40687822  0.074770287    674884.88 
  193000    28.688808  -0.40596739  -0.40596739  -0.33081808  0.019706074  -0.40596739  0.075149307    674884.88 
  194000    28.462266  -0.40600638  -0.40600638  -0.33145049   0.06379224  -0.40600638  0.074555887    674884.88 
  195000     28.62073    -0.406238    -0.406238  -0.33126703  0.042890771    -0.406238  0.074970977    674884.88 
  196000    29.044818  -0.40657116  -0.40657116   -0.3304893  0.073500561  -0.40657116  0.076081862    674884.88 
  197000    29.803085  -0.40782214  -0.40782214  -0.32975402  0.099728048  -0.40782214  0.078068115    674884.88 
  198000     29.42685  -0.40704721  -0.40704721  -0.32996463  0.065185555  -0.40704721   0.07708258    674884.88 
  199000     29.16764  -0.40664273  -0.40664273  -0.33023914  0.076665812  -0.40664273  0.076403589    674884.88 
  200000    27.897521  -0.40361063  -0.40361063  -0.33053407  0.098971995  -0.40361063  0.073076558    674884.88 
  201000    29.196935  -0.40594903  -0.40594903   -0.3294687  0.097988289  -0.40594903  0.076480328    674884.88 
  202000    28.464995  -0.40464785  -0.40464785  -0.33008481  0.062410695  -0.40464785  0.074563037    674884.88 
  203000    29.475199  -0.40844073  -0.40844073  -0.33123151  0.068110708  -0.40844073  0.077209229    674884.88 
  204000    28.735318  -0.40627455  -0.40627455  -0.33100341   0.12196769  -0.40627455  0.075271138    674884.88 
  205000    29.047349  -0.40701754  -0.40701754  -0.33092905  0.046387126  -0.40701754  0.076088491    674884.88 
  206000    29.576804  -0.40919954  -0.40919954  -0.33172416  0.070832655  -0.40919954  0.077475381    674884.88 
  207000    29.201512  -0.40768168  -0.40768168  -0.33118937  0.056961386  -0.40768168  0.076492317    674884.88 
  208000    28.622897  -0.40518819  -0.40518819  -0.33021153  0.057664254  -0.40518819  0.074976655    674884.88 
  209000    28.555046  -0.40569467  -0.40569467  -0.33089575   0.04402382  -0.40569467  0.074798921    674884.88 
  210000    29.436106  -0.40800675  -0.40800675  -0.33089993  0.065992139  -0.40800675  0.077106826    674884.88 
  211000    29.295092  -0.40875656  -0.40875656  -0.33201912  0.088385414  -0.40875656  0.076737446    674884.88 
  212000    28.795296  -0.40858901  -0.40858901  -0.33316076  0.078946205  -0.40858901  0.075428247    674884.88 
  213000    28.373509  -0.40656208  -0.40656208  -0.33223869  0.079049396  -0.40656208  0.074323391    674884.88 
  214000    29.216172  -0.40851304  -0.40851304  -0.33198232  0.085409712  -0.40851304  0.076530717    674884.88 
  215000    28.661614  -0.40692784  -0.40692784  -0.33184977  0.091598852  -0.40692784  0.075078072    674884.88 
  216000    29.295202  -0.40863098  -0.40863098  -0.33189325  0.091106653  -0.40863098  0.076737734    674884.88 
  217000    27.803275  -0.40440943  -0.40440943  -0.33157974  0.091873964  -0.40440943  0.072829685    674884.88 
  218000    27.566432  -0.40482647  -0.40482647  -0.33261719  0.084721942  -0.40482647  0.072209283    674884.88 
  219000    28.227175  -0.40582626  -0.40582626  -0.33188619  0.079250426  -0.40582626  0.073940076    674884.88 
  220000    28.337862  -0.40622706  -0.40622706  -0.33199705  0.042347574  -0.40622706  0.074230015    674884.88 
  221000    27.615919  -0.40495382  -0.40495382  -0.33261491  0.098951472  -0.40495382  0.072338913    674884.88 
  222000    28.769236  -0.40652782  -0.40652782  -0.33116783  0.043857379  -0.40652782  0.075359984    674884.88 
  223000    28.706433  -0.40747741  -0.40747741  -0.33228193  0.081806873  -0.40747741  0.075195476    674884.88 
  224000    28.583399  -0.40693762  -0.40693762  -0.33206443  0.089584816  -0.40693762  0.074873191    674884.88 
  225000    29.162552  -0.40869866  -0.40869866  -0.33230839  0.026173373  -0.40869866  0.076390261    674884.88 
  226000    28.123515  -0.40580841  -0.40580841  -0.33213987  0.065743708  -0.40580841  0.073668542    674884.88 
  227000    27.808666  -0.40571642  -0.40571642  -0.33287261  0.075068144  -0.40571642  0.072843805    674884.88 
  228000    27.912335  -0.40571636  -0.40571636  -0.33260099 -0.018167599  -0.40571636  0.073115362    674884.88 
  229000    28.332662  -0.40572399  -0.40572399  -0.33150759  0.082783458  -0.40572399  0.074216394    674884.88 
  230000    27.524421  -0.40472039  -0.40472039  -0.33262115    0.1100226  -0.40472039  0.072099236    674884.88 
  231000    27.768762  -0.40627967  -0.40627967  -0.33354039   0.12050798  -0.40627967   0.07273928    674884.88 
  232000    28.153683  -0.40713315  -0.40713315  -0.33338558  0.062426369  -0.40713315  0.073747566    674884.88 
  233000    28.677856  -0.40760425  -0.40760425  -0.33248363  0.081620774  -0.40760425  0.075120617    674884.88 
  234000    28.574052  -0.40707207  -0.40707207  -0.33222336   0.10352616  -0.40707207  0.074848708    674884.88 
  235000    28.527538  -0.40816862  -0.40816862  -0.33344176  0.069260766  -0.40816862  0.074726865    674884.88 
  236000    28.384728  -0.40687445  -0.40687445  -0.33252167  0.028543977  -0.40687445  0.074352781    674884.88 
  237000    28.229135  -0.40628841  -0.40628841   -0.3323432  0.063395847  -0.40628841   0.07394521    674884.88 
  238000    28.707543  -0.40780441  -0.40780441  -0.33260602  0.076084386  -0.40780441  0.075198383    674884.88 
  239000     29.74823  -0.41004568  -0.41004568  -0.33212125  0.093157194  -0.41004568  0.077924426    674884.88 
  240000    30.270418  -0.41166181  -0.41166181  -0.33236953   0.13403911  -0.41166181  0.079292278    674884.88 
  241000    29.200473  -0.40824849  -0.40824849   -0.3317589   0.10236701  -0.40824849  0.076489594    674884.88 
  242000    28.805155  -0.40788226  -0.40788226  -0.33242819  0.085186164  -0.40788226  0.075454073    674884.88 
  243000    29.696761  -0.40935926  -0.40935926  -0.33156965   0.04716258  -0.40935926  0.077789603    674884.88 
  244000    29.559738  -0.41043259  -0.41043259  -0.33300192  0.063316831  -0.41043259  0.077430677    674884.88 
  245000    29.464323  -0.40872393  -0.40872393  -0.33154319    0.1149321  -0.40872393  0.077180739    674884.88 
  246000    29.105195  -0.40857855  -0.40857855  -0.33233853  0.083739177  -0.40857855  0.076240018    674884.88 
  247000    28.752675  -0.40646667  -0.40646667  -0.33115007  0.089795068  -0.40646667  0.075316603    674884.88 
  248000    27.430446  -0.40351556  -0.40351556  -0.33166249  0.058148421  -0.40351556  0.071853073    674884.88 
  249000    27.286253  -0.40301886  -0.40301886   -0.3315435  0.050827584  -0.40301886  0.071475364    674884.88 
  250000      27.9199  -0.40415914  -0.40415914  -0.33102396  0.085177116  -0.40415914  0.073135179    674884.88 
  251000    27.979043  -0.40536931  -0.40536931  -0.33207921  0.085786238  -0.40536931  0.073290102    674884.88 
  252000    28.769097  -0.40655396  -0.40655396  -0.33119434  0.046860268  -0.40655396  0.075359622    674884.88 
  253000    28.842326  -0.40741387  -0.40741387  -0.33186243   0.13134381  -0.40741387  0.075551441    674884.88 
  254000    28.067469  -0.40642021  -0.40642021  -0.33289848  0.063041152  -0.40642021  0.073521731    674884.88 
  255000     29.10909   -0.4082967   -0.4082967  -0.33204648  0.050696704   -0.4082967  0.076250219    674884.88 
  256000    29.219413  -0.40895049  -0.40895049  -0.33241128  0.076088764  -0.40895049  0.076539207    674884.88 
  257000    30.011789  -0.41058988  -0.41058988  -0.33197507  0.092476206  -0.41058988  0.078614808    674884.88 
  258000    29.755535  -0.41033454  -0.41033454  -0.33239098  0.046701054  -0.41033454  0.077943558    674884.88 
  259000    29.101336  -0.40902531  -0.40902531  -0.33279541   0.07270459  -0.40902531  0.076229908    674884.88 
  260000    28.915633  -0.40802789  -0.40802789  -0.33228442  0.043965436  -0.40802789  0.075743465    674884.88 
  261000    29.123636  -0.40989111  -0.40989111  -0.33360279  0.095820808  -0.40989111  0.076288324    674884.88 
  262000    29.072764  -0.40985822  -0.40985822  -0.33370316   0.06969366  -0.40985822  0.076155065    674884.88 
  263000    29.216492  -0.40853879  -0.40853879  -0.33200723  0.065235569  -0.40853879  0.076531557    674884.88 
  264000    29.047565  -0.40852808  -0.40852808  -0.33243902  0.039766791  -0.40852808  0.076089057    674884.88 
  265000    29.655033  -0.41016316  -0.41016316  -0.33248286  0.095203441  -0.41016316  0.077680299    674884.88 
  266000    29.728558  -0.40989763  -0.40989763  -0.33202474  0.078193277  -0.40989763  0.077872893    674884.88 
  267000     28.89528  -0.40868769  -0.40868769  -0.33299754  0.077463563  -0.40868769  0.075690151    674884.88 
  268000    29.125351    -0.408214    -0.408214  -0.33192119 -0.0098824406    -0.408214  0.076292816    674884.88 
  269000    28.556783  -0.40657788  -0.40657788   -0.3317744   0.10223516  -0.40657788  0.074803472    674884.88 
  270000    28.542213  -0.40800135  -0.40800135  -0.33323604  0.013394553  -0.40800135  0.074765306    674884.88 
  271000    28.179843  -0.40543895  -0.40543895  -0.33162286  0.043551659  -0.40543895   0.07381609    674884.88 
  272000    28.946448  -0.40642929  -0.40642929  -0.33060511  0.068553199  -0.40642929  0.075824186    674884.88 
  273000    28.085167  -0.40502118  -0.40502118  -0.33145309  0.062671829  -0.40502118  0.073568091    674884.88 
  274000    28.829667  -0.40664002  -0.40664002  -0.33112174   0.04373333  -0.40664002  0.075518281    674884.88 
  275000    28.530935  -0.40580538  -0.40580538  -0.33106961  0.036555282  -0.40580538  0.074735765    674884.88 
  276000    29.124657  -0.40733968  -0.40733968  -0.33104868  0.077141885  -0.40733968  0.076290997    674884.88 
  277000    29.000014   -0.4075985   -0.4075985    -0.331634  0.093234297   -0.4075985  0.075964499    674884.88 
  278000    28.517952   -0.4059333   -0.4059333  -0.33123155  0.062300605   -0.4059333  0.074701754    674884.88 
  279000    28.308955  -0.40579601  -0.40579601  -0.33164171  0.053467086  -0.40579601  0.074154295    674884.88 
  280000    28.718103   -0.4062734   -0.4062734  -0.33104736    0.0603198   -0.4062734  0.075226042    674884.88 
  281000    28.661617  -0.40618319  -0.40618319  -0.33110511   0.10170653  -0.40618319   0.07507808    674884.88 
  282000    28.345186  -0.40601792  -0.40601792  -0.33176872  0.052004365  -0.40601792  0.074249202    674884.88 
  283000    28.386663  -0.40613778  -0.40613778  -0.33177993  0.068289415  -0.40613778  0.074357849    674884.88 
  284000    28.639852  -0.40725066  -0.40725066  -0.33222959  0.053729096  -0.40725066  0.075021069    674884.88 
  285000     28.43238  -0.40655063  -0.40655063  -0.33207303  0.087901263  -0.40655063  0.074477603    674884.88 
  286000    27.970428   -0.4054818   -0.4054818  -0.33221426   0.10399895   -0.4054818  0.073267536    674884.88 
  287000    27.870205  -0.40503286  -0.40503286  -0.33202786  0.075683029  -0.40503286  0.073005006    674884.88 
  288000    28.279062  -0.40656889  -0.40656889   -0.3324929  0.085749231  -0.40656889  0.074075992    674884.88 
  289000    27.929072  -0.40522223  -0.40522223  -0.33206302  0.057782768  -0.40522223  0.073159206    674884.88 
  290000    28.098121  -0.40492957  -0.40492957  -0.33132755   0.10138333  -0.40492957  0.073602023    674884.88 
  291000    27.683831  -0.40480953  -0.40480953  -0.33229273   0.10639235  -0.40480953  0.072516806    674884.88 
  292000    27.703258  -0.40499312  -0.40499312  -0.33242543   0.04201178  -0.40499312  0.072567693    674884.88 
  293000    26.781982  -0.40258825  -0.40258825  -0.33243381   0.14877231  -0.40258825  0.070154444    674884.88 
  294000    27.683545  -0.40332119  -0.40332119  -0.33080514  0.047828081  -0.40332119  0.072516055    674884.88 
  295000    27.473532  -0.40401291  -0.40401291  -0.33204697  0.026858879  -0.40401291  0.071965934    674884.88 
  296000    27.152912  -0.40448613  -0.40448613  -0.33336005  0.081044397  -0.40448613  0.071126081    674884.88 
  297000    27.325704  -0.40477338  -0.40477338  -0.33319468   0.11429231  -0.40477338  0.071578704    674884.88 
  298000    27.407428  -0.40260871  -0.40260871  -0.33081593  0.055547479  -0.40260871  0.071792778    674884.88 
  299000    27.367001  -0.40324901  -0.40324901  -0.33156213  0.073724316  -0.40324901  0.071686881    674884.88 
  300000    27.558599   -0.4039098   -0.4039098  -0.33172103  0.081882063   -0.4039098  0.072188764    674884.88 
  301000    27.607884  -0.40330512  -0.40330512  -0.33098725  0.025989012  -0.40330512  0.072317865    674884.88 
  302000    28.461235  -0.40568597  -0.40568597  -0.33113279   0.10319042  -0.40568597  0.074553188    674884.88 
  303000    28.404955  -0.40564171  -0.40564171  -0.33123595  0.098868429  -0.40564171  0.074405763    674884.88 
  304000     28.88679  -0.40670907  -0.40670907  -0.33104116  0.069283131  -0.40670907  0.075667912    674884.88 
  305000    28.905402  -0.40702652  -0.40702652  -0.33130985  0.065510094  -0.40702652  0.075716667    674884.88 
  306000     28.93113  -0.40711643  -0.40711643  -0.33133237   0.12217866  -0.40711643  0.075784061    674884.88 
  307000    27.687804  -0.40539022  -0.40539022  -0.33286301  0.045555882  -0.40539022  0.072527211    674884.88 
  308000    27.820269  -0.40498364  -0.40498364  -0.33210944   0.12129815  -0.40498364  0.072874201    674884.88 
  309000    29.070775  -0.40852092  -0.40852092  -0.33237107  0.084145509  -0.40852092  0.076149855    674884.88 
  310000    29.260367   -0.4085621   -0.4085621  -0.33191562  0.063563631   -0.4085621  0.076646486    674884.88 
  311000    29.157955  -0.40782362  -0.40782362   -0.3314454  0.094413685  -0.40782362  0.076378221    674884.88 
  312000    27.878182  -0.40511501  -0.40511501  -0.33208911  0.057517657  -0.40511501    0.0730259    674884.88 
  313000    26.787289  -0.40269333  -0.40269333  -0.33252498   0.12162207  -0.40269333  0.070168347    674884.88 
  314000    27.734517    -0.404652    -0.404652  -0.33200243  0.021750566    -0.404652  0.072649575    674884.88 
  315000    28.153588   -0.4050827   -0.4050827  -0.33133538   0.10760622   -0.4050827  0.073747317    674884.88 
  316000    27.526193   -0.4037845   -0.4037845  -0.33168062  0.024774752   -0.4037845  0.072103879    674884.88 
  317000    27.614667  -0.40403461  -0.40403461  -0.33169897  0.073962331  -0.40403461  0.072335633    674884.88 
  318000     28.22371  -0.40563171  -0.40563171  -0.33170071  0.083004461  -0.40563171  0.073930999    674884.88 
  319000    27.903292  -0.40521731  -0.40521731  -0.33212563    0.1045742  -0.40521731  0.073091677    674884.88 
  320000    28.661034  -0.40608275  -0.40608275  -0.33100619  0.079381435  -0.40608275  0.075076553    674884.88 
  321000    28.629737  -0.40715687  -0.40715687   -0.3321623  0.081020854  -0.40715687  0.074994572    674884.88 
  322000    28.252535  -0.40580615  -0.40580615  -0.33179964   0.10269262  -0.40580615  0.074006504    674884.88 
  323000      28.6852  -0.40700479  -0.40700479  -0.33186493   0.02636179  -0.40700479  0.075139856    674884.88 
  324000    28.028167  -0.40556038  -0.40556038   -0.3321416  0.036879319  -0.40556038  0.073418781    674884.88 
  325000     28.21015  -0.40571306  -0.40571306  -0.33181758  0.057872286  -0.40571306  0.073895478    674884.88 
  326000    28.469701  -0.40614331  -0.40614331  -0.33156795  0.050436173  -0.40614331  0.074575364    674884.88 
  327000    28.334405  -0.40598596  -0.40598596    -0.331765   0.10926182  -0.40598596  0.074220961    674884.88 
  328000    28.723942  -0.40679273  -0.40679273  -0.33155139  0.067842445  -0.40679273  0.075241337    674884.88 
  329000    28.065901  -0.40515837  -0.40515837  -0.33164074  0.031149577  -0.40515837  0.073517624    674884.88 
  330000    28.039113   -0.4042805   -0.4042805  -0.33083304  0.089547992   -0.4042805  0.073447454    674884.88 
  331000    28.840362  -0.40645296  -0.40645296  -0.33090667  0.030886329  -0.40645296  0.075546296    674884.88 
  332000    28.558182  -0.40633052  -0.40633052  -0.33152338  0.097028538  -0.40633052  0.074807136    674884.88 
  333000    28.682933  -0.40601965  -0.40601965  -0.33088573  0.087358437  -0.40601965  0.075133918    674884.88 
  334000    28.542228  -0.40576425  -0.40576425   -0.3309989   0.13569042  -0.40576425  0.074765346    674884.88 
  335000    29.011363  -0.40659298  -0.40659298  -0.33059875  0.095589424  -0.40659298  0.075994229    674884.88 
  336000    29.538354  -0.40770005  -0.40770005  -0.33032539   0.11890686  -0.40770005  0.077374662    674884.88 
  337000    28.707921  -0.40590641  -0.40590641  -0.33070703  0.061064684  -0.40590641  0.075199373    674884.88 
  338000    28.890105  -0.40553429  -0.40553429   -0.3298577  0.060939857  -0.40553429  0.075676598    674884.88 
  339000    28.478301   -0.4052486   -0.4052486  -0.33065071  0.040962168   -0.4052486   0.07459789    674884.88 
  340000    28.628556  -0.40659751  -0.40659751  -0.33160603  0.095209679  -0.40659751  0.074991479    674884.88 
  341000     28.81085   -0.4067027   -0.4067027  -0.33123371  0.059028398   -0.4067027  0.075468992    674884.88 
  342000    28.042754  -0.40474051  -0.40474051  -0.33128352  0.056745808  -0.40474051   0.07345699    674884.88 
  343000    28.993461  -0.40659833  -0.40659833    -0.330651  0.034441885  -0.40659833  0.075947335    674884.88 
  344000    28.259621  -0.40378872  -0.40378872  -0.32976365  0.077666481  -0.40378872  0.074025067    674884.88 
  345000    28.353315  -0.40600358  -0.40600358  -0.33173308  0.049105538  -0.40600358  0.074270496    674884.88 
  346000    27.860333  -0.40329073  -0.40329073  -0.33031158  0.071009522  -0.40329073  0.072979145    674884.88 
  347000    28.964422  -0.40566596  -0.40566596  -0.32979469  0.048240324  -0.40566596  0.075871266    674884.88 
  348000    28.577303  -0.40558421  -0.40558421  -0.33072699  0.071804538  -0.40558421  0.074857224    674884.88 
  349000    28.466371  -0.40457222  -0.40457222  -0.33000558   0.05851009  -0.40457222   0.07456664    674884.88 
  350000    28.520848  -0.40386772  -0.40386772  -0.32915838  0.018298662  -0.40386772  0.074709341    674884.88 
  351000    28.423627  -0.40530096  -0.40530096  -0.33084629  0.043350714  -0.40530096  0.074454674    674884.88 
  352000    29.082994  -0.40676076  -0.40676076   -0.3305789   0.10046322  -0.40676076  0.076181864    674884.88 
  353000    28.246609  -0.40446186  -0.40446186  -0.33047088  0.071717369  -0.40446186  0.073990983    674884.88 
  354000    29.785981   -0.4086186   -0.4086186  -0.33059529   0.06789228   -0.4086186  0.078023311    674884.88 
  355000    29.919552  -0.40910242  -0.40910242  -0.33072922  0.034593937  -0.40910242  0.078373196    674884.88 
  356000    30.017048  -0.40870294  -0.40870294  -0.33007436  0.066949578  -0.40870294  0.078628585    674884.88 
  357000    30.340446   -0.4099969   -0.4099969  -0.33052118  0.078466664   -0.4099969  0.079475712    674884.88 
  358000    29.893322  -0.40865281  -0.40865281  -0.33034833  0.079597846  -0.40865281  0.078304488    674884.88 
  359000    29.672355  -0.40834745  -0.40834745  -0.33062177  0.074417047  -0.40834745  0.077725673    674884.88 
  360000    30.125581  -0.40946938  -0.40946938  -0.33055649  0.068790943  -0.40946938  0.078912882    674884.88 
  361000    29.769253  -0.40874553  -0.40874553  -0.33076603  0.057152586  -0.40874553  0.077979493    674884.88 
  362000    29.324534  -0.40734293  -0.40734293  -0.33052837  0.060055686  -0.40734293  0.076814567    674884.88 
  363000    29.032775  -0.40612356  -0.40612356  -0.33007324  0.075549433  -0.40612356  0.076050316    674884.88 
  364000    28.991676   -0.4065958   -0.4065958  -0.33065314  0.059946347   -0.4065958  0.075942659    674884.88 
  365000     29.11005  -0.40808724  -0.40808724  -0.33183451  0.038293877  -0.40808724  0.076252735    674884.88 
  366000    29.366864  -0.40732981  -0.40732981  -0.33040436   0.08974455  -0.40732981  0.076925451    674884.88 
  367000     28.95276   -0.4065485   -0.4065485  -0.33070778  0.029264051   -0.4065485   0.07584072    674884.88 
  368000    29.183463  -0.40686121  -0.40686121  -0.33041618  0.083204123  -0.40686121  0.076445039    674884.88 
  369000    29.393296  -0.40644355  -0.40644355  -0.32944886   0.11368078  -0.40644355  0.076994688    674884.88 
  370000    29.009947  -0.40579184  -0.40579184  -0.32980132  0.089836204  -0.40579184  0.075990518    674884.88 
  371000    28.195839  -0.40329838  -0.40329838  -0.32944039   0.14436289  -0.40329838  0.073857993    674884.88 
  372000    28.861213   -0.4052124   -0.4052124  -0.32961149  0.066330996   -0.4052124  0.075600914    674884.88 
  373000    28.585144  -0.40477902  -0.40477902  -0.32990125  0.045876957  -0.40477902  0.074877762    674884.88 
  374000    28.740448  -0.40502805  -0.40502805  -0.32974347   0.10417573  -0.40502805  0.075284575    674884.88 
  375000    28.288858  -0.40461927  -0.40461927  -0.33051762  0.085954814  -0.40461927  0.074101652    674884.88 
  376000    28.021474     -0.40456     -0.40456  -0.33115875  0.042561887     -0.40456   0.07340125    674884.88 
  377000    28.470222     -0.40497     -0.40497  -0.33039327   0.03133196     -0.40497  0.074576727    674884.88 
  378000    29.147822  -0.40723799  -0.40723799  -0.33088631  0.091045838  -0.40723799  0.076351678    674884.88 
  379000    29.046292  -0.40709394  -0.40709394  -0.33100821  0.057764207  -0.40709394  0.076085724    674884.88 
  380000    30.007809  -0.40962821  -0.40962821  -0.33102382  0.075936995  -0.40962821  0.078604383    674884.88 
  381000    29.131599  -0.40751944  -0.40751944  -0.33121025   0.11922278  -0.40751944  0.076309181    674884.88 
  382000    28.842336  -0.40720664  -0.40720664  -0.33165517  0.028200545  -0.40720664  0.075551468    674884.88 
  383000    29.245588  -0.40745844  -0.40745844  -0.33085067   0.10534962  -0.40745844  0.076607771    674884.88 
  384000    28.885263  -0.40686893  -0.40686893  -0.33120502  0.094887984  -0.40686893  0.075663914    674884.88 
  385000    28.910317  -0.40719352  -0.40719352  -0.33146398  0.068658588  -0.40719352  0.075729541    674884.88 
  386000    29.999525  -0.40990972  -0.40990972  -0.33132703  0.096051962  -0.40990972  0.078582684    674884.88 
  387000    30.064734  -0.40952879  -0.40952879  -0.33077529   0.04738031  -0.40952879  0.078753495    674884.88 
  388000    30.813204  -0.41163631  -0.41163631  -0.33092223  0.075026354  -0.41163631  0.080714087    674884.88 
  389000    30.572724  -0.41074028  -0.41074028  -0.33065612  0.066774034  -0.41074028  0.080084156    674884.88 
  390000    30.171392  -0.40976944  -0.40976944  -0.33073656  0.063410703  -0.40976944  0.079032883    674884.88 
  391000    31.042401  -0.41172346  -0.41172346    -0.330409  0.080892322  -0.41172346   0.08131446    674884.88 
  392000    30.215086  -0.41048805  -0.41048805  -0.33134071  0.089524576  -0.41048805  0.079147337    674884.88 
  393000    28.895227  -0.40719454  -0.40719454  -0.33150452   0.15475713  -0.40719454  0.075690014    674884.88 
  394000    29.904758   -0.4093679   -0.4093679  -0.33103346   0.11143472   -0.4093679  0.078334443    674884.88 
  395000    30.413247  -0.41093293  -0.41093293  -0.33126652  0.095297956  -0.41093293  0.079666412    674884.88 
  396000    29.524271  -0.40806307  -0.40806307   -0.3307253  0.079848262  -0.40806307  0.077337772    674884.88 
  397000    29.779671  -0.40861006  -0.40861006  -0.33060328  0.067641478  -0.40861006  0.078006783    674884.88 
  398000    28.750851  -0.40678083  -0.40678083  -0.33146901   0.11117667  -0.40678083  0.075311825    674884.88 
  399000    28.830051  -0.40718953  -0.40718953  -0.33167024  0.077601776  -0.40718953  0.075519287    674884.88 
  400000    29.733025  -0.40955501  -0.40955501  -0.33167042   0.07817814  -0.40955501  0.077884596    674884.88 
  401000    29.736896  -0.40936779  -0.40936779  -0.33147305  0.098803677  -0.40936779  0.077894736    674884.88 
  402000     29.64582  -0.40871093  -0.40871093  -0.33105477  0.080276214  -0.40871093  0.077656164    674884.88 
  403000    29.093255  -0.40717383  -0.40717383  -0.33096509  0.061668228  -0.40717383   0.07620874    674884.88 
  404000    30.086845  -0.40952804  -0.40952804  -0.33071662  0.077886472  -0.40952804  0.078811414    674884.88 
  405000    29.658178  -0.40834208  -0.40834208  -0.33065354  0.069334075  -0.40834208  0.077688536    674884.88 
  406000    29.087357  -0.40792377  -0.40792377  -0.33173048  0.052477868  -0.40792377   0.07619329    674884.88 
  407000    29.335999  -0.40655644  -0.40655644  -0.32971184   0.12739678  -0.40655644  0.076844601    674884.88 
  408000    29.578126   -0.4069366   -0.4069366  -0.32945776  0.095452206   -0.4069366  0.077478842    674884.88 
  409000    29.571543  -0.40728293  -0.40728293  -0.32982133    0.1061633  -0.40728293    0.0774616    674884.88 
  410000    30.505476  -0.41020873  -0.41020873  -0.33030073   0.10645878  -0.41020873  0.079908004    674884.88 
  411000    28.845636   -0.4070539   -0.4070539  -0.33149379  0.041989118   -0.4070539  0.075560111    674884.88 
  412000    27.702682  -0.40430287  -0.40430287  -0.33173669  0.061168517  -0.40430287  0.072566184    674884.88 
  413000    28.987573  -0.40730792  -0.40730792  -0.33137601   0.09403099  -0.40730792  0.075931912    674884.88 
  414000    29.026379   -0.4067818   -0.4067818  -0.33074824  0.054275059   -0.4067818  0.076033561    674884.88 
  415000    29.066529   -0.4067124   -0.4067124  -0.33057367  0.084286549   -0.4067124  0.076138732    674884.88 
  416000    29.106564  -0.40768623  -0.40768623  -0.33144262  0.054313626  -0.40768623  0.076243602    674884.88 
  417000     28.93649  -0.40702539  -0.40702539  -0.33122729  0.046881737  -0.40702539  0.075798099    674884.88 
  418000    28.831971  -0.40650636  -0.40650636  -0.33098204  0.095984144  -0.40650636  0.075524316    674884.88 
  419000    28.883581  -0.40666388  -0.40666388  -0.33100438  0.070345792  -0.40666388  0.075659506    674884.88 
  420000    28.093788  -0.40421817  -0.40421817   -0.3306275  0.040823585  -0.40421817  0.073590673    674884.88 
  421000    28.346683  -0.40447734  -0.40447734  -0.33022421  0.059443673  -0.40447734  0.074253123    674884.88 
  422000    28.051479  -0.40402841  -0.40402841  -0.33054857  0.071748003  -0.40402841  0.073479845    674884.88 
  423000    28.991567  -0.40734647  -0.40734647  -0.33140409  0.051638288  -0.40734647  0.075942374    674884.88 
  424000     28.44789  -0.40501516  -0.40501516  -0.33049693   0.16638188  -0.40501516  0.074518231    674884.88 
  425000    28.351042  -0.40526014  -0.40526014   -0.3309956  0.063244181  -0.40526014  0.074264541    674884.88 
  426000     29.82179  -0.40778283  -0.40778283  -0.32966572  0.036789264  -0.40778283  0.078117112    674884.88 
  427000     29.88011  -0.40802178  -0.40802178   -0.3297519   0.03942068  -0.40802178   0.07826988    674884.88 
  428000    30.110414   -0.4082204   -0.4082204  -0.32934725  0.075108009   -0.4082204  0.078873152    674884.88 
  429000    30.607463  -0.40929377  -0.40929377  -0.32911862  0.050505353  -0.40929377  0.080175156    674884.88 
  430000    30.119877  -0.40850355  -0.40850355  -0.32960561  0.050396608  -0.40850355   0.07889794    674884.88 
  431000    29.823902  -0.40750185  -0.40750185   -0.3293792  0.080135923  -0.40750185  0.078122644    674884.88 
  432000    30.372579  -0.40875495  -0.40875495  -0.32919506  0.010354688  -0.40875495  0.079559885    674884.88 
  433000    29.813449  -0.40890774  -0.40890774  -0.33081248  0.040141034  -0.40890774  0.078095262    674884.88 
  434000    29.848362  -0.40830403  -0.40830403  -0.33011732  0.066191094  -0.40830403  0.078186716    674884.88 
  435000    30.020981  -0.40906866  -0.40906866  -0.33042977  0.084762854  -0.40906866  0.078638886    674884.88 
  436000    28.866893   -0.4055276   -0.4055276  -0.32991181  0.080957519   -0.4055276  0.075615794    674884.88 
  437000    29.430774  -0.40547483  -0.40547483  -0.32838197  0.094291956  -0.40547483  0.077092861    674884.88 
  438000    29.860676   -0.4072063   -0.4072063  -0.32898733  0.028045008   -0.4072063  0.078218973    674884.88 
  439000    29.395596  -0.40606359  -0.40606359  -0.32906288  0.063825499  -0.40606359  0.077000713    674884.88 
  440000    29.484761  -0.40667598  -0.40667598   -0.3294417  0.079073032  -0.40667598  0.077234277    674884.88 
  441000      28.6231  -0.40491031  -0.40491031  -0.32993312  0.060936047  -0.40491031  0.074977188    674884.88 
  442000    28.010233  -0.40329563  -0.40329563  -0.32992383  0.061331404  -0.40329563  0.073371803    674884.88 
  443000    28.191967  -0.40387418  -0.40387418  -0.33002633   0.11003207  -0.40387418  0.073847849    674884.88 
  444000    29.474968  -0.40716204  -0.40716204  -0.32995341  0.078170854  -0.40716204  0.077208625    674884.88 
  445000    28.788507  -0.40496798  -0.40496798  -0.32955751  0.065241956  -0.40496798  0.075410464    674884.88 
  446000    27.976361  -0.40358189  -0.40358189  -0.33029881  0.051814539  -0.40358189  0.073283077    674884.88 
  447000     27.57149  -0.40340485  -0.40340485  -0.33118232  0.091100362  -0.40340485  0.072222533    674884.88 
  448000    28.108563   -0.4028911   -0.4028911  -0.32926173  0.056027649   -0.4028911  0.073629376    674884.88 
  449000    27.699233  -0.40303587  -0.40303587  -0.33047872   0.10988013  -0.40303587  0.072557149    674884.88 
  450000    28.377591  -0.40385328  -0.40385328   -0.3295192   0.06796153  -0.40385328  0.074334083    674884.88 
  451000    29.653127  -0.40684354  -0.40684354  -0.32916823  0.042689593  -0.40684354  0.077675307    674884.88 
  452000    28.900887  -0.40543658  -0.40543658  -0.32973174  0.034577151  -0.40543658  0.075704841    674884.88 
  453000    29.846135  -0.40740459  -0.40740459  -0.32922371   0.06832232  -0.40740459  0.078180884    674884.88 
  454000     29.43775  -0.40706373  -0.40706373   -0.3299526  0.065011356  -0.40706373  0.077111134    674884.88 
  455000    29.385606   -0.4075254   -0.4075254  -0.33055085   0.09598006   -0.4075254  0.076974544    674884.88 
  456000     29.12728  -0.40693733  -0.40693733  -0.33063946  0.069529353  -0.40693733  0.076297867    674884.88 
  457000    29.854786  -0.40802479  -0.40802479  -0.32982124  0.057474517  -0.40802479  0.078203544    674884.88 
  458000    30.617666  -0.41058839  -0.41058839  -0.33038651  0.074983129  -0.41058839  0.080201882    674884.88 
  459000    29.407494  -0.40644023  -0.40644023  -0.32940835  0.053690807  -0.40644023  0.077031879    674884.88 
  460000    28.514133  -0.40525369  -0.40525369  -0.33056194  0.073526803  -0.40525369  0.074691752    674884.88 
  461000    28.798495  -0.40588763  -0.40588763  -0.33045101  0.072947708  -0.40588763  0.075436627    674884.88 
  462000    28.998225  -0.40614666  -0.40614666  -0.33018684   0.13949692  -0.40614666  0.075959813    674884.88 
  463000    29.737544  -0.40792052  -0.40792052  -0.33002409  0.059445356  -0.40792052  0.077896432    674884.88 
  464000    30.274803   -0.4091675   -0.4091675  -0.32986374  0.055075562   -0.4091675  0.079303763    674884.88 
  465000    29.445324  -0.40795743  -0.40795743  -0.33082645  0.098032972  -0.40795743  0.077130974    674884.88 
  466000    29.510537  -0.40811016  -0.40811016  -0.33080836   0.10173125  -0.40811016  0.077301797    674884.88 
  467000    29.746513  -0.40792993  -0.40792993     -0.33001  0.092024566  -0.40792993  0.077919928    674884.88 
  468000    30.192683  -0.40875327  -0.40875327  -0.32966462  0.019744145  -0.40875327  0.079088653    674884.88 
  469000    28.530762  -0.40489303  -0.40489303  -0.33015772  0.061243637  -0.40489303  0.074735311    674884.88 
  470000    29.008094  -0.40525231  -0.40525231  -0.32926664  0.081468164  -0.40525231  0.075985664    674884.88 
  471000    30.235804  -0.40702492  -0.40702492  -0.32782332  0.071303471  -0.40702492  0.079201606    674884.88 
  472000    29.451199  -0.40562147  -0.40562147  -0.32847511  0.094635777  -0.40562147  0.077146361    674884.88 
  473000    29.793087  -0.40647083  -0.40647083  -0.32842891   0.08483705  -0.40647083  0.078041926    674884.88 
  474000    29.967812  -0.40722666  -0.40722666  -0.32872705  0.060295365  -0.40722666  0.078499613    674884.88 
  475000    30.154346    -0.406818    -0.406818  -0.32782977  0.079453904    -0.406818   0.07898823    674884.88 
  476000    29.581987  -0.40653873  -0.40653873  -0.32904977   0.10897764  -0.40653873  0.077488956    674884.88 
  477000    30.555955  -0.40999582  -0.40999582  -0.32995559  0.031230915  -0.40999582   0.08004023    674884.88 
  478000      30.2089  -0.40867615  -0.40867615  -0.32954502  0.070038624  -0.40867615  0.079131132    674884.88 
  479000    30.429828  -0.40836034  -0.40836034   -0.3286505  0.083686324  -0.40836034  0.079709845    674884.88 
  480000    30.208795  -0.40873357  -0.40873357  -0.32960271   0.10782019  -0.40873357  0.079130858    674884.88 
  481000    30.037995  -0.40665308  -0.40665308  -0.32796963  0.087502636  -0.40665308  0.078683453    674884.88 
  482000    29.889095  -0.40759293  -0.40759293  -0.32929952  0.044555264  -0.40759293  0.078293415    674884.88 
  483000    30.199729  -0.40760086  -0.40760086  -0.32849375  0.066190488  -0.40760086   0.07910711    674884.88 
  484000    31.021688  -0.41032183  -0.41032183  -0.32906163  0.064066642  -0.41032183  0.081260203    674884.88 
  485000    30.533931  -0.40864845  -0.40864845  -0.32866591  0.075710567  -0.40864845  0.079982541    674884.88 
  486000    31.052133  -0.41063967  -0.41063967  -0.32929972   0.11545074  -0.41063967  0.081339953    674884.88 
  487000    30.984235  -0.41099268  -0.41099268  -0.32983059   0.10249125  -0.41099268  0.081162096    674884.88 
  488000    30.908759  -0.41075317  -0.41075317  -0.32978878  0.097929082  -0.41075317   0.08096439    674884.88 
  489000    31.076394   -0.4118583   -0.4118583   -0.3304548 0.0096407894   -0.4118583  0.081403503    674884.88 
  490000    30.780835   -0.4115979   -0.4115979  -0.33096861   0.12607206   -0.4115979  0.080629297    674884.88 
  491000    31.219322  -0.41117354  -0.41117354  -0.32939564  0.052552682  -0.41117354  0.081777897    674884.88 
  492000    30.367885  -0.40956318  -0.40956318  -0.33001559   0.11529994  -0.40956318  0.079547589    674884.88 
  493000     30.00653  -0.40855501  -0.40855501  -0.32995397    0.1010327  -0.40855501  0.078601033    674884.88 
  494000    30.411424  -0.41015247  -0.41015247  -0.33049083  0.037705846  -0.41015247  0.079661638    674884.88 
  495000    31.157831  -0.41200151  -0.41200151  -0.33038469   0.11881538  -0.41200151  0.081616823    674884.88 
  496000    31.122567  -0.41176043  -0.41176043  -0.33023598  0.075484777  -0.41176043  0.081524452    674884.88 
  497000     31.05313  -0.41091239  -0.41091239  -0.32956983  0.077211322  -0.41091239  0.081342564    674884.88 
  498000    30.875416  -0.40982315  -0.40982315   -0.3289461   0.10236571  -0.40982315  0.080877048    674884.88 
  499000    32.137005  -0.41440537  -0.41440537  -0.33022363   0.06673658  -0.41440537  0.084181735    674884.88 
  500000    31.814086   -0.4122155   -0.4122155  -0.32887964  0.098154649   -0.4122155  0.083335861    674884.88 
  501000     31.83059  -0.41253901  -0.41253901  -0.32915992 0.0066198726  -0.41253901  0.083379092    674884.88 
  502000    30.976505  -0.41071351  -0.41071351  -0.32957167  0.045908163  -0.41071351  0.081141846    674884.88 
  503000    32.016297  -0.41360613  -0.41360613  -0.32974059  0.085615655  -0.41360613  0.083865544    674884.88 
  504000    30.926447  -0.41025648  -0.41025648  -0.32924575   0.10392374  -0.41025648  0.081010723    674884.88 
  505000    31.231951  -0.41130845  -0.41130845  -0.32949747  0.045998655  -0.41130845  0.081810979    674884.88 
  506000    31.569273  -0.41255252  -0.41255252  -0.32985794  0.066402844  -0.41255252  0.082694582    674884.88 
  507000    31.127978  -0.41251588  -0.41251588  -0.33097726   0.10274316  -0.41251588  0.081538625    674884.88 
  508000    30.448312  -0.41033133  -0.41033133  -0.33057307   0.10275283  -0.41033133  0.079758265    674884.88 
  509000    30.662038  -0.41029528  -0.41029528  -0.32997717  0.060155775  -0.41029528  0.080318112    674884.88 
  510000    30.987955  -0.41039279  -0.41039279  -0.32922095  0.031787533  -0.41039279   0.08117184    674884.88 
  511000    31.004939  -0.40982139  -0.40982139  -0.32860506  0.054939139  -0.40982139  0.081216329    674884.88 
  512000    30.913476  -0.40928685  -0.40928685  -0.32831011  0.070586256  -0.40928685  0.080976746    674884.88 
  513000    30.684562  -0.41122292  -0.41122292  -0.33084581  0.041378583  -0.41122292  0.080377112    674884.88 
  514000    30.385856  -0.40963607  -0.40963607  -0.33004141  0.098159119  -0.40963607  0.079594662    674884.88 
  515000    29.347233  -0.40653688  -0.40653688  -0.32966285   0.10553674  -0.40653688  0.076874028    674884.88 
  516000    29.649302  -0.40762131  -0.40762131  -0.32995603  0.092874363  -0.40762131  0.077665286    674884.88 
  517000    30.825445  -0.40889553  -0.40889553  -0.32814937  0.091444016  -0.40889553  0.080746152    674884.88 
  518000    30.104544   -0.4074992   -0.4074992  -0.32864143  0.051891994   -0.4074992  0.078857776    674884.88 
  519000    30.550772  -0.40945114  -0.40945114  -0.32942448   0.05866334  -0.40945114  0.080026655    674884.88 
  520000    30.853673  -0.40857326  -0.40857326  -0.32775317  0.059812729  -0.40857326  0.080820092    674884.88 
  521000     31.01015   -0.4102077   -0.4102077  -0.32897772  0.083314434   -0.4102077   0.08122998    674884.88 
  522000    30.625103  -0.40934131  -0.40934131  -0.32911995  0.093755034  -0.40934131  0.080221363    674884.88 
  523000    30.515767  -0.40901348  -0.40901348  -0.32907852  0.082398227  -0.40901348  0.079934961    674884.88 
  524000    31.304919  -0.41093774  -0.41093774  -0.32893563  0.031404144  -0.41093774  0.082002115    674884.88 
  525000    30.614388  -0.40905527  -0.40905527  -0.32886197  0.062860925  -0.40905527  0.080193294    674884.88 
  526000     30.19813  -0.40849688  -0.40849688  -0.32939395  0.077981554  -0.40849688  0.079102921    674884.88 
  527000    30.475029  -0.40964838  -0.40964838  -0.32982013  0.072048863  -0.40964838   0.07982825    674884.88 
  528000    30.610377  -0.40898966  -0.40898966  -0.32880687  0.067383757  -0.40898966  0.080182788    674884.88 
  529000    31.001842  -0.41109863  -0.41109863  -0.32989042  0.076501202  -0.41109863  0.081208216    674884.88 
  530000    30.322101  -0.40917286  -0.40917286   -0.3297452  0.037296924  -0.40917286   0.07942766    674884.88 
  531000    30.964213  -0.40869112  -0.40869112  -0.32758147  0.068255152  -0.40869112  0.081109648    674884.88 
  532000    30.913335  -0.41032045  -0.41032045  -0.32934407  0.085494319  -0.41032045  0.080976374    674884.88 
  533000    31.786304  -0.41111498  -0.41111498  -0.32785189    0.1001865  -0.41111498  0.083263086    674884.88 
  534000    31.690888  -0.41020726  -0.41020726  -0.32719411   0.11367744  -0.41020726  0.083013149    674884.88 
  535000    31.515203  -0.41077379  -0.41077379  -0.32822084  0.073947795  -0.41077379  0.082552946    674884.88 
  536000    32.974091  -0.41412412  -0.41412412  -0.32774967  0.082450666  -0.41412412  0.086374451    674884.88 
  537000    32.370239  -0.41307983  -0.41307983  -0.32828715  0.016605587  -0.41307983  0.084792685    674884.88 
  538000    32.380622  -0.41462798  -0.41462798   -0.3298081   0.08366072  -0.41462798   0.08481988    674884.88 
  539000    32.643071  -0.41377394  -0.41377394  -0.32826658  0.045351059  -0.41377394  0.085507357    674884.88 
  540000    31.694643  -0.40985706  -0.40985706  -0.32683408  0.035116042  -0.40985706  0.083022983    674884.88 
  541000    31.546001  -0.41011166  -0.41011166  -0.32747804  0.092555499  -0.41011166  0.082633622    674884.88 
  542000    31.564405  -0.40989103  -0.40989103   -0.3272092  0.072638963  -0.40989103   0.08268183    674884.88 
  543000    31.685951  -0.41131559  -0.41131559  -0.32831537  0.089844953  -0.41131559  0.083000215    674884.88 
  544000    31.249894  -0.40932235  -0.40932235  -0.32746437  0.020390493  -0.40932235  0.081857979    674884.88 
  545000    30.970695  -0.41018098  -0.41018098  -0.32905435  0.089521291  -0.41018098  0.081126627    674884.88 
  546000    31.668332   -0.4108719   -0.4108719  -0.32791783  0.068015901   -0.4108719  0.082954063    674884.88 
  547000    31.788749  -0.41190636  -0.41190636  -0.32863687  0.083487938  -0.41190636  0.083269491    674884.88 
  548000    32.080376   -0.4130848   -0.4130848   -0.3290514  0.016128461   -0.4130848  0.084033398    674884.88 
  549000    29.847735  -0.40740629  -0.40740629  -0.32922122  0.071708771  -0.40740629  0.078185074    674884.88 
  550000    30.599967  -0.40838696  -0.40838696  -0.32823145  0.057465058  -0.40838696  0.080155518    674884.88 
  551000    31.038577  -0.40880723  -0.40880723  -0.32750279  0.092429935  -0.40880723  0.081304442    674884.88 
  552000    30.475095  -0.40719107  -0.40719107  -0.32736265    0.1203433  -0.40719107  0.079828421    674884.88 
  553000    29.743259  -0.40671218  -0.40671218  -0.32880077    0.1030678  -0.40671218  0.077911403    674884.88 
  554000    30.486824  -0.40802818  -0.40802818  -0.32816903  0.090751498  -0.40802818  0.079859146    674884.88 
  555000    29.496362  -0.40527308  -0.40527308  -0.32800841   0.10142285  -0.40527308  0.077264665    674884.88 
  556000    30.103897  -0.40768598  -0.40768598   -0.3288299  0.099368785  -0.40768598  0.078856082    674884.88 
  557000    30.136138  -0.40690139  -0.40690139  -0.32796086  0.067172695  -0.40690139  0.078940535    674884.88 
  558000    30.304279  -0.40855475  -0.40855475  -0.32917378   0.11050973  -0.40855475  0.079380974    674884.88 
  559000    30.725979  -0.40883307  -0.40883307  -0.32834747  0.093577624  -0.40883307  0.080485604    674884.88 
  560000    30.614352   -0.4091594   -0.4091594   -0.3289662  0.092191904   -0.4091594    0.0801932    674884.88 
  561000    31.490675  -0.41025781  -0.41025781  -0.32776911   0.03535227  -0.41025781  0.082488696    674884.88 
  562000    30.920492  -0.41004141  -0.41004141  -0.32904629  0.060787149  -0.41004141  0.080995122    674884.88 
  563000    31.656626  -0.41156981  -0.41156981  -0.32864641  0.072109277  -0.41156981  0.082923398    674884.88 
  564000    31.182432  -0.41129735  -0.41129735  -0.32961609   0.10025131  -0.41129735  0.081681266    674884.88 
  565000     30.62561  -0.40844152  -0.40844152  -0.32821883  0.069637772  -0.40844152   0.08022269    674884.88 
  566000    30.665708  -0.41093966  -0.41093966  -0.33061194    0.0491729  -0.41093966  0.080327726    674884.88 
  567000    30.290452  -0.40895704  -0.40895704  -0.32961229  0.052126526  -0.40895704  0.079344756    674884.88 
  568000    31.920024  -0.41288512  -0.41288512  -0.32927176    0.1057022  -0.41288512  0.083613362    674884.88 
  569000    32.343058  -0.41392336  -0.41392336  -0.32920187  0.061653406  -0.41392336  0.084721482    674884.88 
  570000    32.406257   -0.4143093   -0.4143093  -0.32942227  0.009452302   -0.4143093  0.084887032    674884.88 
  571000    31.958541  -0.41330307  -0.41330307  -0.32958882  0.049239398  -0.41330307  0.083714255    674884.88 
  572000    31.699756  -0.41216801  -0.41216801  -0.32913164  0.063863091  -0.41216801  0.083036376    674884.88 
  573000    31.558239  -0.41153185  -0.41153185  -0.32886617  0.085397824  -0.41153185  0.082665678    674884.88 
  574000    32.006694    -0.413036    -0.413036  -0.32919561  0.059975819    -0.413036   0.08384039    674884.88 
  575000    30.926677  -0.41016065  -0.41016065  -0.32914933  0.078969964  -0.41016065  0.081011323    674884.88 
  576000    30.839535  -0.41029181  -0.41029181  -0.32950875  0.068233403  -0.41029181   0.08078306    674884.88 
  577000    31.451434  -0.41182195  -0.41182195  -0.32943605  0.049988223  -0.41182195  0.082385905    674884.88 
  578000    32.048289  -0.41243813  -0.41243813  -0.32848879  0.068216224  -0.41243813  0.083949346    674884.88 
  579000    31.684096  -0.41030227  -0.41030227  -0.32730692  0.053518846  -0.41030227  0.082995355    674884.88 
  580000    31.742115  -0.41125751  -0.41125751  -0.32811018  0.065880662  -0.41125751  0.083147334    674884.88 
  581000    32.044845  -0.41194655  -0.41194655  -0.32800623   0.13599555  -0.41194655  0.083940326    674884.88 
  582000    33.025976  -0.41379207  -0.41379207  -0.32728171  0.049639551  -0.41379207  0.086510362    674884.88 
  583000    33.050712  -0.41525392  -0.41525392  -0.32867877  0.075251726  -0.41525392  0.086575158    674884.88 
  584000    32.101189  -0.41342416  -0.41342416  -0.32933624  0.030170943  -0.41342416  0.084087917    674884.88 
  585000    32.067081  -0.41208516  -0.41208516  -0.32808659      0.13838  -0.41208516  0.083998572    674884.88 
  586000    31.510906  -0.41138219  -0.41138219  -0.32884049  0.077230341  -0.41138219  0.082541692    674884.88 
  587000    31.665808  -0.41191802  -0.41191802  -0.32897057  0.069757231  -0.41191802   0.08294745    674884.88 
  588000    30.756867  -0.41166294  -0.41166294  -0.33109642  0.076451606  -0.41166294  0.080566514    674884.88 
  589000    30.945922  -0.41152663  -0.41152663  -0.33046489  0.070286452  -0.41152663  0.081061736    674884.88 
  590000    30.988617  -0.41094087  -0.41094087   -0.3297673  0.097349777  -0.41094087  0.081173574    674884.88 
  591000    31.452812  -0.41094235  -0.41094235  -0.32855283  0.058623445  -0.41094235  0.082389517    674884.88 
  592000    31.867458  -0.41124476  -0.41124476   -0.3277691  0.052018036  -0.41124476  0.083475665    674884.88 
  593000    31.904202  -0.41346982  -0.41346982  -0.32989791  0.030786638  -0.41346982  0.083571916    674884.88 
  594000    30.813788  -0.41040678  -0.41040678  -0.32969116  0.047289192  -0.41040678  0.080715614    674884.88 
  595000     31.32015  -0.41189791  -0.41189791   -0.3298559  0.064297276  -0.41189791  0.082042012    674884.88 
  596000    31.421757  -0.41162789  -0.41162789  -0.32931972   0.13344985  -0.41162789  0.082308168    674884.88 
  597000    32.840479  -0.41498161  -0.41498161  -0.32895715  0.047693364  -0.41498161   0.08602446    674884.88 
  598000    32.190817  -0.41469301  -0.41469301  -0.33037031  0.090257766  -0.41469301  0.084322694    674884.88 
  599000    31.573666  -0.41192501  -0.41192501  -0.32921892  0.067128866  -0.41192501  0.082706089    674884.88 
  600000    31.539371  -0.41213484  -0.41213484  -0.32951858   0.10296331  -0.41213484  0.082616255    674884.88 
  601000    31.447654  -0.41089314  -0.41089314  -0.32851713  0.084586468  -0.41089314  0.082376004    674884.88 
  602000    31.609079  -0.41159336  -0.41159336  -0.32879451   0.12938138  -0.41159336  0.082798852    674884.88 
  603000    31.434872  -0.41151426  -0.41151426  -0.32917174  0.042504408  -0.41151426  0.082342522    674884.88 
  604000    32.490688  -0.41336723  -0.41336723  -0.32825904  0.069751072  -0.41336723  0.085108194    674884.88 
  605000    31.632987  -0.41122048  -0.41122048    -0.328359  0.069552285  -0.41122048  0.082861478    674884.88 
  606000     31.90878  -0.41135564  -0.41135564  -0.32777173   0.11412493  -0.41135564  0.083583908    674884.88 
  607000    31.684008  -0.41177383  -0.41177383  -0.32877871  0.063433445  -0.41177383  0.082995125    674884.88 
  608000    31.698944  -0.41065554  -0.41065554  -0.32762129  0.051927691  -0.41065554   0.08303425    674884.88 
  609000    32.090847  -0.41141454  -0.41141454  -0.32735372   0.08656395  -0.41141454  0.084060827    674884.88 
  610000    32.082881  -0.41179387  -0.41179387  -0.32775391  0.075204441  -0.41179387  0.084039958    674884.88 
  611000    32.784642  -0.41483884  -0.41483884  -0.32896064  0.046744947  -0.41483884  0.085878197    674884.88 
  612000    33.114318  -0.41445429  -0.41445429  -0.32771252  0.058483564  -0.41445429  0.086741771    674884.88 
  613000    32.416584  -0.41302274  -0.41302274  -0.32810866  0.033972605  -0.41302274  0.084914081    674884.88 
  614000    30.920851  -0.41109063  -0.41109063  -0.33009457  0.088295182  -0.41109063  0.080996062    674884.88 
  615000    31.775161  -0.41184556  -0.41184556  -0.32861166   0.09605614  -0.41184556  0.083233898    674884.88 
  616000    32.873895  -0.41493694  -0.41493694  -0.32882494  0.060786654  -0.41493694  0.086111992    674884.88 
  617000    31.424016  -0.41081135  -0.41081135  -0.32849727  0.090898443  -0.41081135  0.082314086    674884.88 
  618000    31.616077  -0.41131375  -0.41131375  -0.32849657  0.090288855  -0.41131375  0.082817184    674884.88 
  619000    31.331778  -0.41046264  -0.41046264  -0.32839017  0.086055303  -0.41046264  0.082072471    674884.88 
  620000    31.454039  -0.40948124  -0.40948124   -0.3270885   0.11733971  -0.40948124  0.082392731    674884.88 
  621000    32.099393   -0.4121852   -0.4121852  -0.32810199  0.071963965   -0.4121852  0.084083213    674884.88 
  622000    31.725923  -0.41115651  -0.41115651  -0.32805159  0.084267836  -0.41115651  0.083104922    674884.88 
  623000    31.373038  -0.41035428  -0.41035428  -0.32817373  0.084133553  -0.41035428   0.08218055    674884.88 
  624000    31.834589  -0.41169687  -0.41169687   -0.3283073  0.096192706  -0.41169687  0.083389568    674884.88 
  625000    30.874982  -0.40846999  -0.40846999  -0.32759407   0.08001014  -0.40846999  0.080875911    674884.88 
  626000    31.488038  -0.41035674  -0.41035674  -0.32787495   0.10101336  -0.41035674  0.082481789    674884.88 
  627000    31.517188  -0.40956679  -0.40956679  -0.32700865  0.081269157  -0.40956679  0.082558146    674884.88 
  628000    31.466243   -0.4088719   -0.4088719   -0.3264472  0.098048438   -0.4088719  0.082424699    674884.88 
  629000    30.999463  -0.40740874  -0.40740874  -0.32620675  0.063610918  -0.40740874  0.081201986    674884.88 
  630000    31.195521  -0.40799962  -0.40799962  -0.32628407  0.085335982  -0.40799962  0.081715553    674884.88 
  631000    31.405353  -0.40887606  -0.40887606  -0.32661086  0.024367704  -0.40887606    0.0822652    674884.88 
  632000    32.027302  -0.41093818  -0.41093818  -0.32704381  0.090686946  -0.41093818  0.083894372    674884.88 
  633000    31.760383  -0.41062626  -0.41062626  -0.32743107  0.056895503  -0.41062626  0.083195186    674884.88 
  634000    30.905131  -0.40805521  -0.40805521  -0.32710032  0.070256473  -0.40805521  0.080954884    674884.88 
  635000    31.151588  -0.40978921  -0.40978921  -0.32818874   0.05378663  -0.40978921   0.08160047    674884.88 
  636000    30.081923  -0.40705481  -0.40705481  -0.32825629   0.07450275  -0.40705481   0.07879852    674884.88 
  637000    30.760166  -0.40902935  -0.40902935   -0.3284542  0.056533711  -0.40902935  0.080575155    674884.88 
  638000    30.029204  -0.40706357  -0.40706357  -0.32840314  0.074547174  -0.40706357  0.078660427    674884.88 
  639000     30.47802  -0.40751573  -0.40751573  -0.32767965    0.1038213  -0.40751573  0.079836083    674884.88 
  640000    30.690778   -0.4080004   -0.4080004    -0.327607  0.055332068   -0.4080004  0.080393395    674884.88 
  641000    30.552348  -0.40905361  -0.40905361  -0.32902283  0.065866348  -0.40905361  0.080030783    674884.88 
  642000    30.979972  -0.40958762  -0.40958762  -0.32843669  0.032786369  -0.40958762  0.081150928    674884.88 
  643000    31.198952  -0.41025832  -0.41025832  -0.32853378  0.069584955  -0.41025832  0.081724538    674884.88 
  644000    31.850489  -0.41178825  -0.41178825  -0.32835704   0.02935123  -0.41178825  0.083431217    674884.88 
  645000    31.584796  -0.41103178  -0.41103178  -0.32829654  0.035183364  -0.41103178  0.082735243    674884.88 
  646000     30.99208  -0.41030951  -0.41030951  -0.32912687  0.070661596  -0.41030951  0.081182645    674884.88 
  647000    30.636679  -0.40936261  -0.40936261  -0.32911093  0.088745001  -0.40936261  0.080251686    674884.88 
  648000    31.488882  -0.41108889  -0.41108889  -0.32860489  0.029969313  -0.41108889  0.082484001    674884.88 
  649000    30.683901   -0.4096665   -0.4096665  -0.32929112  0.043108254   -0.4096665  0.080375382    674884.88 
  650000    29.955113   -0.4072378   -0.4072378  -0.32877145  0.083398619   -0.4072378  0.078466347    674884.88 
  651000    30.447395  -0.40828959  -0.40828959  -0.32853372   0.09767813  -0.40828959  0.079755861    674884.88 
  652000    31.790302  -0.41104802  -0.41104802  -0.32777446    0.0798187  -0.41104802  0.083273559    674884.88 
  653000    30.476276  -0.40860294  -0.40860294  -0.32877143   0.08283641  -0.40860294  0.079831516    674884.88 
  654000    30.982778  -0.40955966  -0.40955966  -0.32840138  0.051382782  -0.40955966  0.081158279    674884.88 
  655000    31.774176   -0.4113886   -0.4113886  -0.32815728  0.052551689   -0.4113886  0.083231317    674884.88 
  656000    31.766777  -0.41081457  -0.41081457  -0.32760263  0.040445898  -0.41081457  0.083211935    674884.88 
  657000    30.509556  -0.40871871  -0.40871871  -0.32880002   0.10703373  -0.40871871  0.079918691    674884.88 
  658000    31.117694  -0.40941656  -0.40941656  -0.32790488   0.07525115  -0.40941656  0.081511686    674884.88 
  659000    31.773355   -0.4117011   -0.4117011  -0.32847193   0.13175855   -0.4117011  0.083229166    674884.88 
  660000     31.96474  -0.41187886  -0.41187886  -0.32814836  0.067275245  -0.41187886  0.083730494    674884.88 
  661000    32.637077  -0.41424194  -0.41424194  -0.32875029  0.047999534  -0.41424194  0.085491655    674884.88 
  662000    32.765584  -0.41373845  -0.41373845  -0.32791017   0.10354095  -0.41373845  0.085828275    674884.88 
  663000    31.800799  -0.41136194  -0.41136194  -0.32806088    0.1058895  -0.41136194  0.083301055    674884.88 
  664000    32.024226  -0.41190693  -0.41190693  -0.32802061    0.1147042  -0.41190693  0.083886315    674884.88 
  665000    31.676704  -0.41297948  -0.41297948  -0.33000349  0.079686131  -0.41297948  0.082975994    674884.88 
  666000    30.945833  -0.41070968  -0.41070968  -0.32964818  0.056796459  -0.41070968  0.081061502    674884.88 
  667000    32.465021  -0.41473923  -0.41473923  -0.32969827  0.069613713  -0.41473923   0.08504096    674884.88 
  668000    31.698693  -0.41135868  -0.41135868  -0.32832508   0.08224147  -0.41135868  0.083033593    674884.88 
  669000    32.412768  -0.41351832  -0.41351832  -0.32861423  0.049969156  -0.41351832  0.084904086    674884.88 
  670000    31.937888    -0.413234    -0.413234  -0.32957384  0.083419139    -0.413234  0.083660155    674884.88 
  671000    31.260527  -0.41051769  -0.41051769  -0.32863186  0.050721352  -0.41051769  0.081885834    674884.88 
  672000    31.914642  -0.41233818  -0.41233818  -0.32873892  0.084470122  -0.41233818  0.083599263    674884.88 
  673000    31.244961  -0.41048409  -0.41048409  -0.32863903  0.040138164  -0.41048409  0.081845058    674884.88 
  674000    31.405075  -0.41252737  -0.41252737   -0.3302629  0.077123697  -0.41252737  0.082264471    674884.88 
  675000    30.749217  -0.40983642  -0.40983642  -0.32928994  0.082798235  -0.40983642  0.080546474    674884.88 
  676000    30.967828  -0.41084108  -0.41084108  -0.32972196  0.086440525  -0.41084108  0.081119119    674884.88 
  677000    32.297542  -0.41312468  -0.41312468  -0.32852242  0.038187417  -0.41312468  0.084602257    674884.88 
  678000    31.153699   -0.4097417   -0.4097417   -0.3281357  0.081156319   -0.4097417  0.081606001    674884.88 
  679000    32.007217  -0.41229678  -0.41229678  -0.32845502    0.1122359  -0.41229678  0.083841761    674884.88 
  680000    31.453188  -0.41093354  -0.41093354  -0.32854304  0.059835428  -0.41093354  0.082390502    674884.88 
  681000    31.694086  -0.41167676  -0.41167676  -0.32865523  0.093118102  -0.41167676  0.083021526    674884.88 
  682000    32.111888  -0.41313597  -0.41313597  -0.32902003   0.04243938  -0.41313597  0.084115943    674884.88 
  683000    32.309457  -0.41312656  -0.41312656  -0.32849309   0.10432664  -0.41312656  0.084633466    674884.88 
  684000    32.816811  -0.41459727  -0.41459727   -0.3286348  0.076929834  -0.41459727  0.085962463    674884.88 
  685000    33.522821   -0.4156583   -0.4156583  -0.32784647  0.039644123   -0.4156583   0.08781183    674884.88 
  686000     33.79622  -0.41656021  -0.41656021  -0.32803222   0.07850145  -0.41656021   0.08852799    674884.88 
  687000    32.437588  -0.41329827  -0.41329827  -0.32832917  0.071980303  -0.41329827  0.084969101    674884.88 
  688000    32.114869  -0.41239938  -0.41239938  -0.32827563  0.066781108  -0.41239938   0.08412375    674884.88 
  689000    33.034909  -0.41357658  -0.41357658  -0.32704281  0.055349969  -0.41357658  0.086533763    674884.88 
  690000    31.465624  -0.41028246  -0.41028246  -0.32785938  0.075756484  -0.41028246  0.082423077    674884.88 
  691000    31.573933   -0.4099705   -0.4099705  -0.32726372  0.097739705   -0.4099705  0.082706789    674884.88 
  692000    32.088152  -0.41158249  -0.41158249  -0.32752873    0.0740201  -0.41158249  0.084053768    674884.88 
  693000    32.731295  -0.41368957  -0.41368957  -0.32795111  0.041911184  -0.41368957  0.085738457    674884.88 
  694000    33.223636  -0.41523196  -0.41523196  -0.32820383   0.03360183  -0.41523196  0.087028126    674884.88 
  695000    33.160867  -0.41398255  -0.41398255  -0.32711885   0.11509399  -0.41398255  0.086863706    674884.88 
  696000    32.525669  -0.41271305  -0.41271305  -0.32751322  0.053608509  -0.41271305  0.085199827    674884.88 
  697000    32.937084  -0.41298124  -0.41298124  -0.32670373  0.068037292  -0.41298124  0.086277514    674884.88 
  698000    33.024779  -0.41453031  -0.41453031  -0.32802308  0.030850904  -0.41453031  0.086507228    674884.88 
  699000    33.282231  -0.41473142  -0.41473142  -0.32754981   0.10064376  -0.41473142  0.087181614    674884.88 
  700000    32.271147  -0.41401714  -0.41401714  -0.32948402  0.043636153  -0.41401714  0.084533116    674884.88 
  701000    33.468047  -0.41527184  -0.41527184  -0.32760349  0.061997667  -0.41527184  0.087668352    674884.88 
  702000    33.050043  -0.41514967  -0.41514967  -0.32857626  0.071399512  -0.41514967  0.086573406    674884.88 
  703000    32.578461  -0.41256127  -0.41256127  -0.32722316  0.066458199  -0.41256127  0.085338113    674884.88 
  704000    32.680575  -0.41330392  -0.41330392  -0.32769832  0.087420501  -0.41330392  0.085605597    674884.88 
  705000    33.188221  -0.41399709  -0.41399709  -0.32706173  0.074238445  -0.41399709  0.086935357    674884.88 
  706000    32.925504  -0.41419282  -0.41419282  -0.32794563   0.10098681  -0.41419282  0.086247181    674884.88 
  707000    32.924919  -0.41390496  -0.41390496  -0.32765931   0.10547031  -0.41390496  0.086245647    674884.88 
  708000    33.351807  -0.41578473  -0.41578473  -0.32842086  0.049592095  -0.41578473  0.087363865    674884.88 
  709000    33.508405  -0.41562951  -0.41562951  -0.32785544  0.062920255  -0.41562951  0.087774068    674884.88 
  710000    33.617557  -0.41461866  -0.41461866  -0.32655868   0.11229604  -0.41461866  0.088059987    674884.88 
  711000    31.799941  -0.41104751  -0.41104751   -0.3277487   0.10147467  -0.41104751  0.083298808    674884.88 
  712000    31.500954  -0.40994896  -0.40994896  -0.32743334  0.071527246  -0.40994896  0.082515621    674884.88 
  713000    32.403276  -0.41342063  -0.41342063  -0.32854141  0.082083179  -0.41342063  0.084879224    674884.88 
  714000    32.113139  -0.41364095  -0.41364095  -0.32952173  0.074085421  -0.41364095   0.08411922    674884.88 
  715000    32.096746  -0.41226847  -0.41226847   -0.3281922  0.073605872  -0.41226847  0.084076278    674884.88 
  716000    30.917196  -0.41051454  -0.41051454  -0.32952805  0.047998812  -0.41051454  0.080986489    674884.88 
  717000    31.595412  -0.41090663  -0.41090663  -0.32814358  0.062293899  -0.41090663  0.082763053    674884.88 
  718000    31.738821  -0.41074632  -0.41074632  -0.32760762  0.023150571  -0.41074632  0.083138706    674884.88 
  719000    33.041166   -0.4129623   -0.4129623  -0.32641214   0.13646851   -0.4129623  0.086550154    674884.88 
  720000     31.96281  -0.41085127  -0.41085127  -0.32712583  0.080880684  -0.41085127  0.083725439    674884.88 
  721000    32.429689  -0.41212279  -0.41212279  -0.32717438    0.1187512  -0.41212279   0.08494841    674884.88 
  722000    31.988428   -0.4110929   -0.4110929  -0.32730036   0.13100663   -0.4110929  0.083792544    674884.88 
  723000    32.423984  -0.41134103  -0.41134103  -0.32640756   0.08479588  -0.41134103  0.084933465    674884.88 
  724000    33.164139  -0.41332156  -0.41332156  -0.32644928  0.043581973  -0.41332156  0.086872277    674884.88 
  725000    32.768206  -0.41437412  -0.41437412  -0.32853898  0.066210513  -0.41437412  0.085835145    674884.88 
  726000    32.188554  -0.41269995  -0.41269995  -0.32838318  0.076370626  -0.41269995  0.084316766    674884.88 
  727000     33.61235  -0.41585042  -0.41585042  -0.32780407  0.040816183  -0.41585042  0.088046348    674884.88 
  728000    32.965465  -0.41393066  -0.41393066  -0.32757881   0.13095229  -0.41393066  0.086351858    674884.88 
  729000    33.457909  -0.41531012  -0.41531012  -0.32766833  0.050684027  -0.41531012  0.087641796    674884.88 
  730000     32.31781   -0.4127771   -0.4127771  -0.32812175  0.070439149   -0.4127771  0.084655348    674884.88 
  731000    32.652323  -0.41247789  -0.41247789  -0.32694629  0.074418601  -0.41247789  0.085531593    674884.88 
  732000    32.248719  -0.41296165  -0.41296165  -0.32848728  0.048558333  -0.41296165  0.084474366    674884.88 
  733000    32.615369  -0.41244329  -0.41244329   -0.3270085  0.056880278  -0.41244329  0.085434793    674884.88 
  734000    32.255759  -0.41338977  -0.41338977  -0.32889697   0.08984866  -0.41338977  0.084492806    674884.88 
  735000    33.223669  -0.41533592  -0.41533592  -0.32830771  0.064256484  -0.41533592  0.087028212    674884.88 
  736000    33.983148  -0.41573727  -0.41573727  -0.32671963  0.089895124  -0.41573727  0.089017641    674884.88 
  737000    33.122146  -0.41485747  -0.41485747   -0.3280952  0.083419634  -0.41485747  0.086762277    674884.88 
  738000    31.488507  -0.41070647  -0.41070647  -0.32822345  0.087550545  -0.41070647  0.082483017    674884.88 
  739000    33.402293  -0.41605257  -0.41605257  -0.32855646  0.060100415  -0.41605257  0.087496111    674884.88 
  740000    32.190446  -0.41248332  -0.41248332   -0.3281616  0.088494961  -0.41248332  0.084321721    674884.88 
  741000    32.898941  -0.41372652  -0.41372652  -0.32754892    0.0497819  -0.41372652  0.086177598    674884.88 
  742000    32.899613  -0.41341705  -0.41341705  -0.32723769   0.10933685  -0.41341705  0.086179361    674884.88 
  743000    32.040615  -0.41389895  -0.41389895   -0.3299697  0.064669672  -0.41389895  0.083929244    674884.88 
  744000    32.907636  -0.41468883  -0.41468883  -0.32848845   0.04985837  -0.41468883  0.086200374    674884.88 
  745000    34.399442  -0.41720286  -0.41720286  -0.32709475  0.098675594  -0.41720286  0.090108109    674884.88 
  746000    32.886285  -0.41421624  -0.41421624  -0.32807179  0.055365896  -0.41421624  0.086144447    674884.88 
  747000    32.627653  -0.41336023  -0.41336023  -0.32789326  0.080629227  -0.41336023   0.08546697    674884.88 
  748000    32.672894  -0.41357557  -0.41357557  -0.32799009  0.086557295  -0.41357557  0.085585476    674884.88 
  749000    32.960644  -0.41371225  -0.41371225  -0.32737303  0.041823841  -0.41371225  0.086339227    674884.88 
  750000    33.581903  -0.41515187  -0.41515187  -0.32718528  0.080115222  -0.41515187  0.087966594    674884.88 
  751000     33.02973  -0.41413406  -0.41413406  -0.32761386  0.094186873  -0.41413406  0.086520196    674884.88 
  752000    33.350698  -0.41372245  -0.41372245  -0.32636149  0.085283135  -0.41372245   0.08736096    674884.88 
  753000    32.517989  -0.41197557  -0.41197557  -0.32679586  0.088053936  -0.41197557  0.085179709    674884.88 
  754000    32.236064  -0.41192322  -0.41192322    -0.327482  0.059046376  -0.41192322  0.084441216    674884.88 
  755000    32.245826  -0.41138745  -0.41138745  -0.32692067  0.080465524  -0.41138745  0.084466787    674884.88 
  756000    32.367599   -0.4126547   -0.4126547  -0.32786894   0.10678689   -0.4126547  0.084785768    674884.88 
  757000    31.868592  -0.41121354  -0.41121354   -0.3277349  0.069818108  -0.41121354  0.083478637    674884.88 
  758000    31.868137  -0.41195474  -0.41195474  -0.32847729   0.12565505  -0.41195474  0.083477445    674884.88 
  759000    32.676895  -0.41463603  -0.41463603  -0.32904007  0.072244403  -0.41463603  0.085595958    674884.88 
  760000    32.512518   -0.4120422   -0.4120422  -0.32687683   0.10197401   -0.4120422  0.085165378    674884.88 
  761000    31.675387  -0.41007314  -0.41007314   -0.3271006   0.07385106  -0.41007314  0.082972542    674884.88 
  762000    33.219413  -0.41438936  -0.41438936  -0.32737229  0.057758678  -0.41438936  0.087017065    674884.88 
  763000    31.621715   -0.4103709   -0.4103709  -0.32753895   0.11643642   -0.4103709   0.08283195    674884.88 
  764000    32.267031  -0.41270168  -0.41270168  -0.32817935  0.086080072  -0.41270168  0.084522334    674884.88 
  765000    32.196171  -0.41201169  -0.41201169  -0.32767497   0.10694177  -0.41201169  0.084336717    674884.88 
  766000    32.703543  -0.41394558  -0.41394558  -0.32827981  0.040440113  -0.41394558  0.085665762    674884.88 
  767000    32.524653  -0.41261331  -0.41261331  -0.32741615  0.074045381  -0.41261331  0.085197166    674884.88 
  768000    31.795747   -0.4115242   -0.4115242  -0.32823637  0.085918047   -0.4115242  0.083287822    674884.88 
  769000    32.721428  -0.41388689  -0.41388689  -0.32817427   0.07198135  -0.41388689  0.085712611    674884.88 
  770000    32.549217  -0.41304988  -0.41304988  -0.32778837  0.040398493  -0.41304988  0.085261511    674884.88 
  771000    33.924295   -0.4161635   -0.4161635  -0.32730002  0.080465641   -0.4161635  0.088863476    674884.88 
  772000    33.155375  -0.41330795  -0.41330795  -0.32645863  0.040052506  -0.41330795  0.086849318    674884.88 
  773000     32.71562  -0.41197688  -0.41197688  -0.32627949   0.10933651  -0.41197688  0.085697396    674884.88 
  774000    33.788273  -0.41561289  -0.41561289  -0.32710571  0.073889238  -0.41561289  0.088507174    674884.88 
  775000    32.749628  -0.41306451  -0.41306451  -0.32727803  0.080691249  -0.41306451  0.085786479    674884.88 
  776000    32.161245  -0.41237117  -0.41237117  -0.32812594  0.094565218  -0.41237117   0.08424523    674884.88 
  777000    32.503377  -0.41244547  -0.41244547  -0.32730404  0.072019116  -0.41244547  0.085141433    674884.88 
  778000    32.174517  -0.41137618  -0.41137618  -0.32709618  0.086822191  -0.41137618  0.084279997    674884.88 
  779000    31.968454   -0.4104006   -0.4104006  -0.32666038   0.13471675   -0.4104006  0.083740221    674884.88 
  780000    32.588165  -0.41256964  -0.41256964  -0.32720611  0.047461305  -0.41256964  0.085363531    674884.88 
  781000    32.553341  -0.41224444  -0.41224444  -0.32697213  0.061048852  -0.41224444  0.085272314    674884.88 
  782000    32.398496   -0.4119476   -0.4119476   -0.3270809  0.094316258   -0.4119476  0.084866701    674884.88 
  783000    31.973726  -0.41077469  -0.41077469  -0.32702066  0.086081419  -0.41077469  0.083754032    674884.88 
  784000    31.996019  -0.41119287  -0.41119287  -0.32738044  0.073065405  -0.41119287  0.083812428    674884.88 
  785000    32.067469  -0.41119605  -0.41119605  -0.32719646  0.064066289  -0.41119605  0.083999589    674884.88 
  786000    32.481292  -0.41297298  -0.41297298   -0.3278894  0.074293416  -0.41297298  0.085083581    674884.88 
  787000    31.452514  -0.40920026  -0.40920026  -0.32681153  0.067998159  -0.40920026  0.082388734    674884.88 
  788000    32.465687  -0.41082748  -0.41082748  -0.32578477  0.097337575  -0.41082748  0.085042707    674884.88 
  789000    32.835593  -0.41130491  -0.41130491  -0.32529325  0.081879734  -0.41130491  0.086011662    674884.88 
  790000     32.46596  -0.41058526  -0.41058526  -0.32554184   0.11369345  -0.41058526   0.08504342    674884.88 
  791000    32.531072  -0.41054033  -0.41054033  -0.32532635  0.026064163  -0.41054033  0.085213979    674884.88 
  792000    33.112868  -0.41207652  -0.41207652  -0.32533854  0.021754438  -0.41207652  0.086737974    674884.88 
  793000    32.389616  -0.41192819  -0.41192819  -0.32708475  0.047838588  -0.41192819  0.084843441    674884.88 
  794000    32.196863  -0.41224604  -0.41224604  -0.32790751   0.12470874  -0.41224604  0.084338532    674884.88 
  795000    33.337418   -0.4129938   -0.4129938  -0.32566763  0.028568317   -0.4129938  0.087326173    674884.88 
  796000     32.19172  -0.41107527  -0.41107527  -0.32675021  0.046147144  -0.41107527  0.084325058    674884.88 
  797000    32.463076  -0.41330084  -0.41330084  -0.32826497  0.057245056  -0.41330084  0.085035867    674884.88 
  798000    33.321336  -0.41428487  -0.41428487  -0.32700082  0.069467996  -0.41428487  0.087284047    674884.88 
  799000    32.800889  -0.41273802  -0.41273802  -0.32681727  0.058936653  -0.41273802  0.085920755    674884.88 
  800000    33.717336  -0.41433719  -0.41433719  -0.32601583  0.069572838  -0.41433719  0.088321356    674884.88 
  801000    33.943751  -0.41429673  -0.41429673  -0.32538229  0.067860116  -0.41429673  0.088914442    674884.88 
  802000    33.928932  -0.41495157  -0.41495157  -0.32607594  0.076392064  -0.41495157  0.088875623    674884.88 
  803000    34.208999  -0.41636321  -0.41636321  -0.32675396   0.05288579  -0.41636321  0.089609249    674884.88 
  804000     33.73913  -0.41427062  -0.41427062  -0.32589218  0.042623229  -0.41427062  0.088378445    674884.88 
  805000    34.292198  -0.41577451  -0.41577451  -0.32594732  0.079231622  -0.41577451  0.089827186    674884.88 
  806000    33.411021  -0.41449013  -0.41449013  -0.32697116   0.07157327  -0.41449013  0.087518974    674884.88 
  807000    34.350715  -0.41690156  -0.41690156  -0.32692109  0.081975944  -0.41690156  0.089980469    674884.88 
  808000     34.27169  -0.41675617  -0.41675617  -0.32698271   0.11156839  -0.41675617  0.089773466    674884.88 
  809000    33.978761  -0.41739043  -0.41739043  -0.32838428  0.038850626  -0.41739043   0.08900615    674884.88 
  810000    33.733405  -0.41598281  -0.41598281  -0.32761937   0.10564795  -0.41598281  0.088363447    674884.88 
  811000    33.960579  -0.41533303  -0.41533303  -0.32637451  0.045170388  -0.41533303  0.088958523    674884.88 
  812000    33.028478  -0.41443154  -0.41443154  -0.32791462   0.11491137  -0.41443154  0.086516917    674884.88 
  813000    32.794747  -0.41355558  -0.41355558  -0.32765091  0.080425542  -0.41355558  0.085904666    674884.88 
  814000    34.491279  -0.41712015  -0.41712015  -0.32677148   0.07695588  -0.41712015  0.090348673    674884.88 
  815000    33.385842  -0.41520949  -0.41520949  -0.32775647   0.13884738  -0.41520949   0.08745302    674884.88 
  816000     33.91559  -0.41534681  -0.41534681  -0.32650614  0.069571633  -0.41534681  0.088840676    674884.88 
  817000    33.202546  -0.41494641  -0.41494641  -0.32797353  0.060193959  -0.41494641  0.086972882    674884.88 
  818000    32.177592  -0.41326505  -0.41326505    -0.328977  0.085916728  -0.41326505  0.084288051    674884.88 
  819000     32.77756   -0.4131679   -0.4131679  -0.32730826  0.064941529   -0.4131679  0.085859645    674884.88 
  820000    32.577961  -0.41167536  -0.41167536  -0.32633856   0.14378473  -0.41167536  0.085336802    674884.88 
  821000     33.30113  -0.41364674  -0.41364674  -0.32641562  0.038493323  -0.41364674   0.08723112    674884.88 
  822000    31.690199  -0.40975267  -0.40975267  -0.32674133  0.028847115  -0.40975267  0.083011343    674884.88 
  823000    33.195241  -0.41251746  -0.41251746  -0.32556372  0.078594315  -0.41251746  0.086953745    674884.88 
  824000    33.441458  -0.41579081  -0.41579081  -0.32819211  0.072532207  -0.41579081  0.087598703    674884.88 
  825000    32.953718    -0.413788    -0.413788  -0.32746692  0.041225902    -0.413788  0.086321087    674884.88 
  826000    32.566934  -0.41131613  -0.41131613  -0.32600821  0.084235431  -0.41131613  0.085307919    674884.88 
  827000    32.088779  -0.41037642  -0.41037642  -0.32632101  0.092215155  -0.41037642   0.08405541    674884.88 
  828000    33.046929   -0.4144054   -0.4144054  -0.32784015  0.054400718   -0.4144054  0.086565249    674884.88 
  829000    34.022507   -0.4157137   -0.4157137  -0.32659296  0.050059543   -0.4157137  0.089120741    674884.88 
  830000    33.603942  -0.41488798  -0.41488798  -0.32686366   0.04569807  -0.41488798  0.088024325    674884.88 
  831000    32.774904  -0.41427114  -0.41427114  -0.32841845  0.081048378  -0.41427114  0.085852689    674884.88 
  832000    33.841208   -0.4153725   -0.4153725  -0.32672667  0.082367252   -0.4153725  0.088645833    674884.88 
  833000    33.332488  -0.41397692  -0.41397692  -0.32666366  0.068902132  -0.41397692  0.087313259    674884.88 
  834000    32.800235  -0.41282316  -0.41282316  -0.32690412 0.0028811028  -0.41282316  0.085919042    674884.88 
  835000    32.727447  -0.41403801  -0.41403801  -0.32830963   0.10802217  -0.41403801  0.085728378    674884.88 
  836000    33.097682  -0.41295018  -0.41295018  -0.32625199  0.065657767  -0.41295018  0.086698194    674884.88 
  837000    33.304929  -0.41319262  -0.41319262  -0.32595155  0.073703733  -0.41319262  0.087241071    674884.88 
  838000    32.687075  -0.41333437  -0.41333437  -0.32771175   0.10469274  -0.41333437  0.085622624    674884.88 
  839000    33.416678  -0.41543156  -0.41543156  -0.32789777  0.053175456  -0.41543156  0.087533794    674884.88 
  840000    32.723869  -0.41307253  -0.41307253  -0.32735353  0.039126589  -0.41307253  0.085719005    674884.88 
  841000    32.891146  -0.41371261  -0.41371261  -0.32755543  0.072638152  -0.41371261  0.086157182    674884.88 
  842000     31.99883  -0.41153733  -0.41153733  -0.32771754  0.064839601  -0.41153733  0.083819789    674884.88 
  843000    32.907219   -0.4149121   -0.4149121  -0.32871282  0.025975411   -0.4149121  0.086199282    674884.88 
  844000    32.610982  -0.41381388  -0.41381388  -0.32839058   0.14643218  -0.41381388  0.085423302    674884.88 
  845000    32.229845  -0.41224095  -0.41224095  -0.32781602  0.097745694  -0.41224095  0.084424926    674884.88 
  846000    30.719955  -0.40974522  -0.40974522   -0.3292754  0.083354125  -0.40974522  0.080469822    674884.88 
  847000    31.990712  -0.41326873  -0.41326873  -0.32947021  0.066386747  -0.41326873  0.083798525    674884.88 
  848000    32.441467    -0.412551    -0.412551  -0.32757174  0.058278989    -0.412551  0.084979262    674884.88 
  849000    31.113525   -0.4100591   -0.4100591  -0.32855833  0.060298788   -0.4100591  0.081500765    674884.88 
  850000    32.442846  -0.41305703  -0.41305703  -0.32807416  0.041838837  -0.41305703  0.084982874    674884.88 
  851000    31.283104  -0.40992727  -0.40992727   -0.3279823   0.10142094  -0.40992727  0.081944971    674884.88 
  852000    32.524706  -0.41369276  -0.41369276  -0.32849545  0.062021623  -0.41369276  0.085197304    674884.88 
  853000    32.789142  -0.41460541  -0.41460541  -0.32871543   0.04955307  -0.41460541  0.085889985    674884.88 
  854000    33.094032  -0.41446567  -0.41446567  -0.32777704   0.04725304  -0.41446567  0.086688634    674884.88 
  855000    33.100012  -0.41400946  -0.41400946  -0.32730516  0.088866583  -0.41400946  0.086704296    674884.88 
  856000    33.628159  -0.41573917  -0.41573917  -0.32765141  0.068561159  -0.41573917   0.08808776    674884.88 
  857000    33.033254  -0.41446986  -0.41446986  -0.32794044   0.10120535  -0.41446986  0.086529427    674884.88 
  858000    34.425605  -0.41804888  -0.41804888  -0.32787224  0.069445239  -0.41804888  0.090176642    674884.88 
  859000    34.188836  -0.41636466  -0.41636466  -0.32680823  0.030727609  -0.41636466  0.089556434    674884.88 
  860000     34.03609  -0.41718187  -0.41718187  -0.32802555  0.099131362  -0.41718187   0.08915632    674884.88 
  861000    34.376031  -0.41904154  -0.41904154  -0.32899476  0.087484926  -0.41904154  0.090046783    674884.88 
  862000    33.451866  -0.41398283  -0.41398283  -0.32635687  0.091927725  -0.41398283  0.087625966    674884.88 
  863000    34.167854   -0.4164956   -0.4164956  -0.32699412  0.076404939   -0.4164956  0.089501473    674884.88 
  864000    34.148825  -0.41743826  -0.41743826  -0.32798664  0.086699332  -0.41743826  0.089451625    674884.88 
  865000    33.036385  -0.41479513  -0.41479513   -0.3282575  0.062707048  -0.41479513   0.08653763    674884.88 
  866000    33.496078  -0.41604767  -0.41604767  -0.32830589  0.036441067  -0.41604767   0.08774178    674884.88 
  867000    33.276507  -0.41463793  -0.41463793  -0.32747131   0.11722223  -0.41463793   0.08716662    674884.88 
  868000    33.414534  -0.41519994  -0.41519994  -0.32767176   0.11429647  -0.41519994  0.087528178    674884.88 
  869000    33.635471  -0.41684511  -0.41684511  -0.32873819  0.052891538  -0.41684511  0.088106914    674884.88 
  870000    34.789099  -0.41832903  -0.41832903  -0.32720023  0.041833933  -0.41832903    0.0911288    674884.88 
  871000    33.223346  -0.41539128  -0.41539128  -0.32836391   0.08173288  -0.41539128  0.087027367    674884.88 
  872000    33.510335  -0.41543629  -0.41543629  -0.32765716  0.053441808  -0.41543629  0.087779125    674884.88 
  873000    33.725954  -0.41658529  -0.41658529  -0.32824136  0.052460964  -0.41658529   0.08834393    674884.88 
  874000    33.802466  -0.41672346  -0.41672346  -0.32817911   0.10768054  -0.41672346  0.088544351    674884.88 
  875000    33.646546  -0.41635746  -0.41635746  -0.32822154   0.10718059  -0.41635746  0.088135925    674884.88 
  876000     34.15859  -0.41654462  -0.41654462  -0.32706742  0.089392683  -0.41654462  0.089477204    674884.88 
  877000    33.953755  -0.41620382  -0.41620382  -0.32726318  0.087904285  -0.41620382  0.088940647    674884.88 
  878000    33.691861  -0.41542868  -0.41542868  -0.32717406  0.042064301  -0.41542868  0.088254626    674884.88 
  879000    33.080331  -0.41401189  -0.41401189  -0.32735915  0.096917592  -0.41401189  0.086652744    674884.88 
  880000    32.870653  -0.41365057  -0.41365057  -0.32754707  0.073555943  -0.41365057  0.086103499    674884.88 
  881000    33.634055  -0.41493169  -0.41493169  -0.32682849   0.06684839  -0.41493169  0.088103204    674884.88 
  882000    33.394109  -0.41567861  -0.41567861  -0.32820393   0.13406681  -0.41567861  0.087474675    674884.88 
  883000    33.816414  -0.41618245  -0.41618245  -0.32760157  0.072868784  -0.41618245  0.088580887    674884.88 
  884000     34.33639  -0.41715343  -0.41715343  -0.32721048  0.090559301  -0.41715343  0.089942945    674884.88 
  885000    34.532581  -0.41754332  -0.41754332  -0.32708646  0.029760061  -0.41754332  0.090456861    674884.88 
  886000    34.672383  -0.41949839  -0.41949839  -0.32867533   0.07111612  -0.41949839  0.090823066    674884.88 
  887000    34.685514  -0.41855683  -0.41855683  -0.32769937   0.11700439  -0.41855683  0.090857462    674884.88 
  888000    34.156955  -0.41673634  -0.41673634  -0.32726342   0.11599972  -0.41673634  0.089472921    674884.88 
  889000    34.040429  -0.41679746  -0.41679746  -0.32762977   0.10619818  -0.41679746  0.089167686    674884.88 
  890000    34.430389  -0.41591657  -0.41591657  -0.32572739     0.121139  -0.41591657  0.090189174    674884.88 
  891000    34.590399  -0.41785429  -0.41785429  -0.32724598  0.047954133  -0.41785429  0.090608313    674884.88 
  892000    33.890732  -0.41651078  -0.41651078  -0.32773522   0.10577869  -0.41651078  0.088775561    674884.88 
  893000    33.436031   -0.4150819   -0.4150819  -0.32749741   0.11891875   -0.4150819  0.087584488    674884.88 
  894000    32.720679  -0.41354757  -0.41354757  -0.32783692  0.076645574  -0.41354757  0.085710648    674884.88 
  895000    33.629315   -0.4136421   -0.4136421  -0.32555131  0.078098656   -0.4136421  0.088090788    674884.88 
  896000    33.039086  -0.41189606  -0.41189606  -0.32535135   0.13908184  -0.41189606  0.086544704    674884.88 
  897000    34.228459  -0.41676901  -0.41676901  -0.32710878  0.056168688  -0.41676901  0.089660225    674884.88 
  898000    34.331007  -0.41684464  -0.41684464  -0.32691579  0.067590619  -0.41684464  0.089928846    674884.88 
  899000    33.085569  -0.41190802  -0.41190802  -0.32524156  0.077939708  -0.41190802  0.086666464    674884.88 
  900000    34.959435  -0.41705182  -0.41705182  -0.32547683   0.10743834  -0.41705182   0.09157499    674884.88 
  901000    33.846971  -0.41493804  -0.41493804  -0.32627711  0.076907141  -0.41493804   0.08866093    674884.88 
  902000    33.561906  -0.41336383  -0.41336383  -0.32544962  0.030932937  -0.41336383  0.087914211    674884.88 
  903000    32.895863  -0.41199445  -0.41199445  -0.32582491  0.057741652  -0.41199445  0.086169535    674884.88 
  904000    33.391957  -0.41356472  -0.41356472  -0.32609568  0.059226961  -0.41356472  0.087469038    674884.88 
  905000    32.472688  -0.41170565  -0.41170565  -0.32664461  0.042542017  -0.41170565  0.085061045    674884.88 
  906000    32.921274  -0.41327032  -0.41327032  -0.32703422  0.073731542  -0.41327032    0.0862361    674884.88 
  907000     33.72896  -0.41476307  -0.41476307  -0.32641126  0.088336477  -0.41476307  0.088351805    674884.88 
  908000     32.73201  -0.41185342  -0.41185342  -0.32611309  0.069577761  -0.41185342   0.08574033    674884.88 
  909000    33.304736  -0.41447694  -0.41447694  -0.32723637  0.061748956  -0.41447694  0.087240565    674884.88 
  910000    33.402628  -0.41343268  -0.41343268   -0.3259357  0.092472818  -0.41343268  0.087496989    674884.88 
  911000    33.321292   -0.4130615   -0.4130615  -0.32577757  0.046353168   -0.4130615  0.087283932    674884.88 
  912000    33.793412  -0.41470186  -0.41470186  -0.32618123  0.091601182  -0.41470186  0.088520634    674884.88 
  913000    33.862817   -0.4141758   -0.4141758  -0.32547336   0.11181281   -0.4141758  0.088702437    674884.88 
  914000    33.060722  -0.41312636  -0.41312636  -0.32652498   0.12850676  -0.41312636  0.086601378    674884.88 
  915000    33.849201  -0.41461639  -0.41461639  -0.32594962  0.036405683  -0.41461639  0.088666771    674884.88 
  916000    34.066782  -0.41572157  -0.41572157  -0.32648485  0.094334647  -0.41572157  0.089236718    674884.88 
  917000    33.603173  -0.41429242  -0.41429242  -0.32627011  0.051176646  -0.41429242   0.08802231    674884.88 
  918000    34.015583  -0.41523286  -0.41523286  -0.32613026  0.071203922  -0.41523286  0.089102602    674884.88 
  919000    34.224107  -0.41611291  -0.41611291  -0.32646408  0.054228383  -0.41611291  0.089648825    674884.88 
  920000    32.782619  -0.41234012  -0.41234012  -0.32646723    0.1432196  -0.41234012  0.085872897    674884.88 
  921000    33.667245  -0.41420375  -0.41420375  -0.32601361    0.1112537  -0.41420375  0.088190144    674884.88 
  922000    33.266422  -0.41264974  -0.41264974  -0.32550954  0.064635278  -0.41264974  0.087140202    674884.88 
  923000    33.017275  -0.41296908  -0.41296908  -0.32648151  0.078969325  -0.41296908  0.086487571    674884.88 
  924000    33.017605  -0.41201728  -0.41201728  -0.32552884  0.043160311  -0.41201728  0.086488436    674884.88 
  925000    32.386719  -0.41034465  -0.41034465   -0.3255088   0.10588166  -0.41034465  0.084835852    674884.88 
  926000    33.767967  -0.41450352  -0.41450352  -0.32604954  0.016967513  -0.41450352  0.088453983    674884.88 
  927000      33.8225  -0.41503788  -0.41503788  -0.32644105  0.073152399  -0.41503788  0.088596829    674884.88 
  928000    34.072349  -0.41673267  -0.41673267  -0.32748137  0.074953542  -0.41673267    0.0892513    674884.88 
  929000    32.308781   -0.4124425   -0.4124425   -0.3278108  0.077959734   -0.4124425  0.084631697    674884.88 
  930000    34.098011  -0.41696925  -0.41696925  -0.32765073  0.030338667  -0.41696925  0.089318521    674884.88 
  931000    33.810578  -0.41540102  -0.41540102  -0.32683542  0.098262424  -0.41540102  0.088565601    674884.88 
  932000    35.361932  -0.41889036  -0.41889036  -0.32626104  0.044297689  -0.41889036  0.092629317    674884.88 
  933000    33.136324  -0.41402973  -0.41402973  -0.32723031  0.097259118  -0.41402973  0.086799415    674884.88 
  934000    33.525778  -0.41486313  -0.41486313  -0.32704355  0.069703893  -0.41486313  0.087819577    674884.88 
  935000    33.643549  -0.41497126  -0.41497126  -0.32684318  0.053437126  -0.41497126  0.088128072    674884.88 
  936000     33.13299  -0.41438152  -0.41438152  -0.32759084   0.12064374  -0.41438152  0.086790681    674884.88 
  937000    33.627438  -0.41590393  -0.41590393  -0.32781806   0.07539857  -0.41590393   0.08808587    674884.88 
  938000    34.655958   -0.4183335   -0.4183335  -0.32755346  0.069574127   -0.4183335  0.090780041    674884.88 
  939000    34.161381  -0.41529428  -0.41529428  -0.32580976   0.14501408  -0.41529428  0.089484516    674884.88 
  940000    34.446443  -0.41681627  -0.41681627  -0.32658505    0.1331608  -0.41681627  0.090231226    674884.88 
  941000    34.588065  -0.41832719  -0.41832719  -0.32772499   0.11625804  -0.41832719  0.090602199    674884.88 
  942000    34.814071  -0.41828045  -0.41828045  -0.32708624  0.053599311  -0.41828045  0.091194214    674884.88 
  943000    34.182149  -0.41658654  -0.41658654  -0.32704762  0.087126626  -0.41658654  0.089538916    674884.88 
  944000    34.207457  -0.41597347  -0.41597347  -0.32636826  0.055855894  -0.41597347  0.089605211    674884.88 
  945000    33.848315  -0.41596704  -0.41596704  -0.32730259  0.020727271  -0.41596704   0.08866445    674884.88 
  946000    33.324592   -0.4135633   -0.4135633  -0.32627072  0.081491645   -0.4135633  0.087292577    674884.88 
  947000    33.731756   -0.4153236   -0.4153236  -0.32696448   0.07360046   -0.4153236  0.088359128    674884.88 
  948000    34.744204  -0.41717693  -0.41717693  -0.32616574  0.066344325  -0.41717693  0.091011199    674884.88 
  949000    34.844946  -0.41759796  -0.41759796  -0.32632287   0.05606334  -0.41759796   0.09127509    674884.88 
  950000    33.531285  -0.41508313  -0.41508313  -0.32724912   0.08801741  -0.41508313  0.087834003    674884.88 
  951000    33.709911   -0.4144175   -0.4144175  -0.32611559  0.041788933   -0.4144175  0.088301906    674884.88 
  952000    33.335346  -0.41376454  -0.41376454  -0.32644379  0.059605182  -0.41376454  0.087320747    674884.88 
  953000    33.259584  -0.41267852  -0.41267852  -0.32555623   0.12758801  -0.41267852   0.08712229    674884.88 
  954000    33.277166  -0.41419731  -0.41419731  -0.32702896  0.078211051  -0.41419731  0.087168347    674884.88 
  955000    34.634705  -0.41682319  -0.41682319  -0.32609881  0.058216869  -0.41682319  0.090724371    674884.88 
  956000    33.337982  -0.41550175  -0.41550175   -0.3281741  0.075880079  -0.41550175  0.087327652    674884.88 
  957000    33.913113  -0.41513162  -0.41513162  -0.32629743  0.048521239  -0.41513162  0.088834187    674884.88 
  958000    33.610704  -0.41611663  -0.41611663   -0.3280746  0.075725104  -0.41611663  0.088042037    674884.88 
  959000    32.791465  -0.41245791  -0.41245791  -0.32656184   0.12021454  -0.41245791   0.08589607    674884.88 
  960000    34.421163  -0.41766774  -0.41766774  -0.32750274  0.081190645  -0.41766774  0.090165006    674884.88 
  961000    33.941147  -0.41652579  -0.41652579  -0.32761817  0.099262492  -0.41652579   0.08890762    674884.88 
  962000    33.717907  -0.41570476  -0.41570476  -0.32738191  0.074938924  -0.41570476  0.088322852    674884.88 
  963000    33.550723  -0.41541635  -0.41541635  -0.32753143  0.043337788  -0.41541635   0.08788492    674884.88 
  964000    34.136755  -0.41686232  -0.41686232  -0.32744231   0.07632743  -0.41686232  0.089420008    674884.88 
  965000     33.63577  -0.41447494  -0.41447494  -0.32636725  0.092106014  -0.41447494  0.088107695    674884.88 
  966000    33.330871  -0.41385084  -0.41385084  -0.32654182  0.060538963  -0.41385084  0.087309023    674884.88 
  967000    33.523561  -0.41488604  -0.41488604  -0.32707228  0.084201312  -0.41488604  0.087813769    674884.88 
  968000     32.40509  -0.41191191  -0.41191191  -0.32702793  0.083598621  -0.41191191  0.084883975    674884.88 
  969000     32.12368  -0.41155082  -0.41155082  -0.32740399  0.089390441  -0.41155082   0.08414683    674884.88 
  970000    32.395835  -0.41368013  -0.41368013   -0.3288204  0.038190884  -0.41368013  0.084859732    674884.88 
  971000    31.403236  -0.40986087  -0.40986087  -0.32760122  0.038431967  -0.40986087  0.082259653    674884.88 
  972000    31.902417  -0.41071083  -0.41071083  -0.32714359   0.10383128  -0.41071083  0.083567239    674884.88 
  973000    32.996885  -0.41236351  -0.41236351  -0.32592935  0.063746092  -0.41236351   0.08643416    674884.88 
  974000    33.272489   -0.4138476   -0.4138476   -0.3266915  0.036943293   -0.4138476  0.087156094    674884.88 
  975000    33.796837  -0.41540653  -0.41540653  -0.32687692   0.06635963  -0.41540653  0.088529606    674884.88 
  976000    32.725054  -0.41239889  -0.41239889  -0.32667678   0.05318073  -0.41239889  0.085722109    674884.88 
  977000    32.620689  -0.41262094  -0.41262094  -0.32717221  0.033229727  -0.41262094  0.085448727    674884.88 
  978000    33.094048  -0.41388364  -0.41388364  -0.32719497  0.077823407  -0.41388364  0.086688674    674884.88 
  979000    33.632199   -0.4142646   -0.4142646  -0.32616625  0.064175501   -0.4142646  0.088098343    674884.88 
  980000    34.051138  -0.41529594  -0.41529594  -0.32610021   0.02835925  -0.41529594  0.089195737    674884.88 
  981000    33.804049  -0.41407604  -0.41407604  -0.32552755   0.13070202  -0.41407604  0.088548498    674884.88 
  982000    33.318165  -0.41470646  -0.41470646  -0.32743072   0.13947172  -0.41470646   0.08727574    674884.88 
  983000    33.250039  -0.41347088  -0.41347088  -0.32637359  0.066923672  -0.41347088  0.087097288    674884.88 
  984000    33.138641  -0.41412627  -0.41412627  -0.32732079   0.05398823  -0.41412627  0.086805484    674884.88 
  985000    33.391548  -0.41391136  -0.41391136   -0.3264434  0.039895135  -0.41391136  0.087467966    674884.88 
  986000    33.547065  -0.41411968  -0.41411968  -0.32624434  0.011365533  -0.41411968  0.087875336    674884.88 
  987000    32.817332  -0.41204498  -0.41204498  -0.32608115    0.0362469  -0.41204498  0.085963828    674884.88 
  988000    34.129778  -0.41574562  -0.41574562  -0.32634389  0.055578033  -0.41574562  0.089401733    674884.88 
  989000    33.129367  -0.41298469  -0.41298469   -0.3262035  0.084679291  -0.41298469  0.086781193    674884.88 
  990000    33.760156  -0.41353694  -0.41353694  -0.32510341   0.15902524  -0.41353694  0.088433522    674884.88 
  991000    34.911916  -0.41770056  -0.41770056  -0.32625005  0.088839558  -0.41770056  0.091450515    674884.88 
  992000    34.618364  -0.41607408  -0.41607408  -0.32539251 -1.0783649e-05  -0.41607408  0.090681566    674884.88 
  993000    33.201051  -0.41323561  -0.41323561  -0.32626664   0.12958522  -0.41323561  0.086968965    674884.88 
  994000    34.594883  -0.41767879  -0.41767879  -0.32705873  0.046244416  -0.41767879  0.090620058    674884.88 
  995000    35.203602  -0.41904691  -0.41904691  -0.32683233  0.066047676  -0.41904691  0.092214576    674884.88 
  996000    33.984965  -0.41696036  -0.41696036  -0.32793796  0.068171247  -0.41696036  0.089022399    674884.88 
  997000    35.474785  -0.41972386  -0.41972386  -0.32679893  0.059742066  -0.41972386  0.092924931    674884.88 
  998000    33.490411  -0.41378252  -0.41378252  -0.32605559  0.086378641  -0.41378252  0.087726933    674884.88 
  999000    33.627127   -0.4145157   -0.4145157  -0.32643064   0.11669382   -0.4145157  0.088085057    674884.88 
 1000000    33.917941  -0.41646629  -0.41646629  -0.32761946  0.059346531  -0.41646629  0.088846834    674884.88 
Loop time of 21394.5 on 16 procs for 1000000 steps with 288036 atoms

Performance: 20192.138 tau/day, 46.741 timesteps/s
99.3% CPU use with 16 MPI tasks x 1 OpenMP threads

MPI task timing breakdown:
Section |  min time  |  avg time  |  max time  |%varavg|  %CPU | %total
-----------------------------------------------------------------------
Pair    | 6712.9     | 10054      | 13710      |1805.9 |  99.4 | 46.99
Bond    | 0.4893     | 0.68054    | 0.94116    |  14.8 | 100.0 |  0.00
Neigh   | 1269.4     | 1792.7     | 2236.3     | 584.3 |  99.9 |  8.38
Comm    | 3274.5     | 7187.8     | 11239      |2489.8 |  98.8 | 33.60
Output  | 115.23     | 150.29     | 240.04     | 282.8 |  98.3 |  0.70
Modify  | 1453.6     | 1738.7     | 2290.3     | 725.9 |  99.6 |  8.13
Other   |            | 470.4      |            |       |       |  2.20

Nlocal:        18002.2 ave       22349 max       15261 min
Histogram: 2 3 1 3 2 2 1 1 0 1
Nghost:        27522.4 ave       32416 max       20950 min
Histogram: 3 1 0 1 2 1 0 1 3 4
Neighs:       569535.0 ave      741938 max      467304 min
Histogram: 2 3 4 0 2 2 1 1 0 1

Total # of neighbors = 9112558
Ave neighs/atom = 31.636872
Ave special neighs/atom = 0.0000000
Neighbor list builds = 42087
Dangerous builds = 0

write_data      data.cubes
System init for write_data ...
WARNING: Not all mixed pair coeffs generated from mixing. Use write_data with 'pair ij' option to store all pair coeffs. (src/write_data.cpp:312)
Total wall time: 5:56:41
