LAMMPS (24 Dec 2020)
OMP_NUM_THREADS environment is not set. Defaulting to 1 thread. (src/comm.cpp:94)
  using 1 OpenMP thread(s) per MPI task
# Simple rigid body system
# needed variables: startTemp, temp

units		lj
atom_style	full
dimension 	3
boundary	p p f
pair_style	lj/smooth 2.5 3.0



variable 	sigma		equal 1.0
variable 	epsilon 	equal 1.0


region		box block 0 80 0 80 0 80
create_box 	3 box
Created orthogonal box = (0.0000000 0.0000000 0.0000000) to (80.000000 80.000000 80.000000)
  6 by 4 by 4 MPI processor grid
lattice 	sc 1.0
Lattice spacing in x,y,z = 1.0000000 1.0000000 1.0000000

create_atoms 	1 region box
Created 512000 atoms
  create_atoms CPU = 0.097 seconds

mass		1 1.0
mass		2 1.0
mass		3 1.0


group		solvent type 1
512000 atoms in group solvent


velocity 	solvent create ${startTemp} 563435 loop geom
velocity 	solvent create 0.5 563435 loop geom

read_data	data.vac add append
Reading data file ...
  orthogonal box = (0.0000000 0.0000000 0.0000000) to (80.000000 80.000000 160.00000)
  3 by 4 by 8 MPI processor grid
Finding 1-2 1-3 1-4 neighbors ...
  special bond factors lj:    0        0        0       
  special bond factors coul:  0        0        0       
     0 = max # of 1-2 neighbors
     0 = max # of 1-3 neighbors
     0 = max # of 1-4 neighbors
     1 = max # of special neighbors
  special bonds CPU = 0.460 seconds
  read_data CPU = 0.467 seconds

neighbor 	0.4 bin

pair_coeff	1 1 1.0 1.0
pair_coeff	2 2 0.0 0.0
pair_coeff	3 3 0.0 0.0
pair_coeff	2 3 0.0 0.0
pair_coeff	1 2*3 0.0 0.0

pair_modify 	shift yes

pair_write      1 1 1000 r 1.0 3.1 pair.txt LJ
Creating table file pair.txt with DATE: 2021-05-19
Neighbor list info ...
  update every 1 steps, delay 10 steps, check yes
  max neighbors/atom: 2000, page size: 100000
  master list distance cutoff = 3.4
  ghost atom cutoff = 3.4
  binsize = 1.7, bins = 48 48 95
  1 neighbor lists, perpetual/occasional/extra = 1 0 0
  (1) pair lj/smooth, perpetual
      attributes: half, newton on
      pair build: half/bin/newton
      stencil: half/bin/3d/newton
      bin: standard
balance 	1.05 shift z 10 1.05
Balancing ...
 rebalancing time: 0.009 seconds
  iteration count = 5
  initial/final maximal load/proc = 10800.000 6480.0000
  initial/final imbalance factor  = 2.0250000 1.2150000
  x cuts: 0.0000000 0.33333333 0.66666667 1.0000000
  y cuts: 0.0000000 0.25000000 0.50000000 0.75000000 1.0000000
  z cuts: 0.0000000 0.062500000 0.12890625 0.18750000 0.25781250 0.30859375 0.38671875 0.43750000 1.0000000


####################### WALLS ###########################


region	       low block  EDGE EDGE EDGE EDGE 0 2

region 	       top block  EDGE EDGE EDGE EDGE 159 160


delete_atoms   region low
WARNING: Ignoring 'compress yes' for molecular system (src/delete_atoms.cpp:125)
Deleted 19200 atoms, new total = 492800

delete_atoms   region top
WARNING: Ignoring 'compress yes' for molecular system (src/delete_atoms.cpp:125)
Deleted 0 atoms, new total = 492800


variable       epsilonWall equal 2*${epsilon}
variable       epsilonWall equal 2*1

variable       cutoffTop   equal   0.7147*${sigma}
variable       cutoffTop   equal   0.7147*1

variable       cutoffLow   equal   3*${sigma}
variable       cutoffLow   equal   3*1


fix            topWall all wall/lj93 zhi EDGE                ${epsilonWall} ${sigma} ${cutoffTop} units box
fix            topWall all wall/lj93 zhi EDGE                2 ${sigma} ${cutoffTop} units box
fix            topWall all wall/lj93 zhi EDGE                2 1 ${cutoffTop} units box
fix            topWall all wall/lj93 zhi EDGE                2 1 0.7147 units box

fix            lowWall all wall/lj93 zlo EDGE                ${epsilonWall} ${sigma} ${cutoffLow} units box
fix            lowWall all wall/lj93 zlo EDGE                2 ${sigma} ${cutoffLow} units box
fix            lowWall all wall/lj93 zlo EDGE                2 1 ${cutoffLow} units box
fix            lowWall all wall/lj93 zlo EDGE                2 1 3 units box


###################### COMPUTES ##########################

compute        bin1 solvent chunk/atom bin/1d z upper 1.0



######################	FIXES ############################


fix 		peclet solvent ave/chunk 1000 1 1000 bin1 density/number norm 		 none ave one file density.profile

fix 		 temp solvent ave/chunk 1000 1 1000 bin1 temp norm none ave one 		 file temp.profile

fix 		2 solvent nve

## Thermostat


region		regthermo block EDGE EDGE EDGE EDGE 0 20

group 		thermo dynamic solvent region regthermo every 1000
dynamic group thermo defined

fix 		3 thermo langevin ${startTemp} ${temp} 10 156453
fix 		3 thermo langevin 0.5 ${temp} 10 156453
fix 		3 thermo langevin 0.5 1.0 10 156453



#### Load balancing


fix 		bal all balance 1000 1.05 shift z 10 1.05


############### Diagnostics and computes ###################
#compute 	com cube	  rigid/local	1 mol x y z
#compute 	quat cube	  rigid/local	1 mol quatw quati quatj quatk

thermo 		1000
thermo_style 	custom step temp epair evdwl etotal press pe ke vol

dump		1 all custom 100000 dump.lammpstrj id mol type x y z
dump 		2 all image 10000 image.*.png type type
dump 		3 all movie 1000 movie.avi type type
#dump 		com cube local 1000 dump.*.xyz c_com[*]
#dump		quat cube      local 1000 dump.*.quat c_quat[*]


restart 	500000 restart.dat
timestep 	0.0025
timer 		full
New timer settings: style=full  mode=nosync  timeout=off


run		1000000
Per MPI rank memory allocation (min/avg/max) = 12.19 | 12.58 | 12.81 Mbytes
Step Temp E_pair E_vdwl TotEng Press PotEng KinEng Volume 
       0   0.49998514   -3.5955076   -3.5955076   -2.8455314     8.314756   -3.5955076   0.74997619      1024000 
    1000    1.4093211   -5.0830603   -5.0830603    -2.969083     3.549124   -5.0830603    2.1139773      1024000 
    2000    1.3460595   -5.1251408   -5.1251408   -3.1060558    2.3505879   -5.1251408    2.0190851      1024000 
    3000    1.2389172   -5.0907124   -5.0907124   -3.2323404    1.5372977   -5.0907124     1.858372      1024000 
    4000    1.1828216   -5.0935128   -5.0935128    -3.319284   0.64447153   -5.0935128    1.7742288      1024000 
    5000    1.1113326    -5.029601    -5.029601   -3.3626056 0.0097161961    -5.029601    1.6669955      1024000 
    6000    1.0353534   -4.9304519   -4.9304519    -3.377425  -0.32747593   -4.9304519    1.5530269      1024000 
    7000   0.97560655   -4.8437977   -4.8437977   -3.3803908  -0.40606305   -4.8437977    1.4634068      1024000 
    8000   0.96578968   -4.8318221   -4.8318221   -3.3831405  -0.27149406   -4.8318221    1.4486816      1024000 
    9000   0.98311049   -4.8672443   -4.8672443   -3.3925815  -0.11093914   -4.8672443    1.4746627      1024000 
   10000   0.98684449    -4.888174    -4.888174   -3.4079103 -0.027945456    -4.888174    1.4802637      1024000 
   11000   0.98520179   -4.8998718   -4.8998718   -3.4220721 -0.018779697   -4.8998718    1.4777997      1024000 
   12000   0.98474412   -4.9104625   -4.9104625   -3.4333493 0.0069066609   -4.9104625    1.4771132      1024000 
   13000   0.98747841   -4.9240543   -4.9240543   -3.4428397  0.041974446   -4.9240543    1.4812146      1024000 
   14000   0.99061008   -4.9376287   -4.9376287   -3.4517166  0.070450668   -4.9376287    1.4859121      1024000 
   15000   0.98680788   -4.9388055   -4.9388055   -3.4585967   0.06716987   -4.9388055    1.4802088      1024000 
   16000   0.98189417   -4.9378447   -4.9378447   -3.4650065  0.061671036   -4.9378447    1.4728383      1024000 
   17000   0.98260595   -4.9444823   -4.9444823   -3.4705763  0.066553134   -4.9444823    1.4739059      1024000 
   18000   0.98405245   -4.9511335   -4.9511335   -3.4750578  0.081771926   -4.9511335    1.4760757      1024000 
   19000   0.98459998   -4.9557392   -4.9557392   -3.4788422   0.10210984   -4.9557392     1.476897      1024000 
   20000   0.98459383   -4.9599303   -4.9599303   -3.4830426   0.10232343   -4.9599303    1.4768877      1024000 
   21000    0.9836367   -4.9620298   -4.9620298   -3.4865777   0.10706651   -4.9620298    1.4754521      1024000 
   22000   0.98313453   -4.9635272   -4.9635272   -3.4888284   0.10895869   -4.9635272    1.4746988      1024000 
   23000   0.98420315   -4.9676001   -4.9676001   -3.4912984   0.10720263   -4.9676001    1.4763017      1024000 
   24000   0.98501515     -4.97109     -4.97109   -3.4935703   0.11519179     -4.97109    1.4775197      1024000 
   25000   0.98501692    -4.973587    -4.973587   -3.4960646   0.13691946    -4.973587    1.4775224      1024000 
   26000   0.98887412   -4.9817043   -4.9817043   -3.4983961    0.2273665   -4.9817043    1.4833082      1024000 
   27000    1.0022117   -5.0039361   -5.0039361   -3.5006215   0.66676574   -5.0039361    1.5033145      1024000 
   28000     1.018598   -5.0300208   -5.0300208   -3.5021269    1.1350163   -5.0300208     1.527894      1024000 
   29000    1.0324847   -5.0524105   -5.0524105   -3.5036866    1.6547497   -5.0524105     1.548724      1024000 
   30000    1.0376604   -5.0620375   -5.0620375     -3.50555    1.6867631   -5.0620375    1.5564875      1024000 
   31000    1.0166966   -5.0319831   -5.0319831   -3.5069414    1.2521925   -5.0319831    1.5250418      1024000 
   32000    1.0019549   -5.0107987   -5.0107987   -3.5078695   0.83261992   -5.0107987    1.5029292      1024000 
   33000   0.97363325   -4.9688087   -4.9688087   -3.5083618   0.47354001   -4.9688087    1.4604469      1024000 
   34000   0.93392373   -4.9108286   -4.9108286   -3.5099459   0.21380345   -4.9108286    1.4008828      1024000 
   35000   0.89466135   -4.8529686   -4.8529686   -3.5109793  0.039938397   -4.8529686    1.3419893      1024000 
   36000   0.86378451   -4.8081403   -4.8081403   -3.5124662 -0.068823392   -4.8081403    1.2956741      1024000 
   37000   0.84007035   -4.7731557   -4.7731557   -3.5130528  -0.12743794   -4.7731557     1.260103      1024000 
   38000   0.83003921   -4.7590134   -4.7590134   -3.5139571  -0.14902983   -4.7590134    1.2450563      1024000 
   39000   0.83014929   -4.7603163   -4.7603163   -3.5150949  -0.13012038   -4.7603163    1.2452214      1024000 
   40000   0.84121646   -4.7778864   -4.7778864   -3.5160643 -0.085255577   -4.7778864    1.2618221      1024000 
   41000    0.8580857   -4.8045667   -4.8045667   -3.5174408 -0.013963358   -4.8045667    1.2871259      1024000 
   42000   0.87742723   -4.8345531   -4.8345531   -3.5184149  0.069231048   -4.8345531    1.3161382      1024000 
   43000   0.89393019   -4.8597424   -4.8597424   -3.5188498   0.15654841   -4.8597424    1.3408926      1024000 
   44000   0.90431524   -4.8764579   -4.8764579   -3.5199877   0.22314905   -4.8764579    1.3564701      1024000 
   45000    0.9063987   -4.8807896   -4.8807896   -3.5211944   0.23351526   -4.8807896    1.3595953      1024000 
   46000   0.89860208   -4.8701955   -4.8701955   -3.5222951   0.18577167   -4.8701955    1.3479004      1024000 
   47000    0.8847678   -4.8507005   -4.8507005   -3.5235515   0.10715309   -4.8507005     1.327149      1024000 
   48000   0.86744342   -4.8259804   -4.8259804   -3.5248179  0.023986861   -4.8259804    1.3011625      1024000 
   49000   0.85154666   -4.8034313   -4.8034313   -3.5261139 -0.035881552   -4.8034313    1.2773174      1024000 
   50000   0.84174422   -4.7894361   -4.7894361   -3.5268223 -0.069981763   -4.7894361    1.2626138      1024000 
   51000   0.84015954   -4.7883839   -4.7883839   -3.5281471 -0.068086974   -4.7883839    1.2602368      1024000 
   52000   0.84580804   -4.7979021   -4.7979021   -3.5291927 -0.053680989   -4.7979021    1.2687095      1024000 
   53000   0.85591685   -4.8142982   -4.8142982   -3.5304256 -0.0028980926   -4.8142982    1.2838727      1024000 
   54000   0.87068894   -4.8373891   -4.8373891   -3.5313584  0.058211102   -4.8373891    1.3060308      1024000 
   55000   0.88539019   -4.8604212   -4.8604212   -3.5323386   0.12746798   -4.8604212    1.3280826      1024000 
   56000   0.89600141   -4.8779869   -4.8779869   -3.5339875   0.17759419   -4.8779869    1.3439994      1024000 
   57000    0.8992866   -4.8845105   -4.8845105   -3.5355834   0.19931531   -4.8845105    1.3489272      1024000 
   58000    0.8973672   -4.8835241   -4.8835241    -3.537476   0.18327906   -4.8835241    1.3460481      1024000 
   59000   0.89179447   -4.8772426   -4.8772426   -3.5395536   0.15015085   -4.8772426     1.337689      1024000 
   60000   0.88209439   -4.8646714   -4.8646714   -3.5415325   0.12720811   -4.8646714    1.3231389      1024000 
   61000   0.87818439   -4.8609617   -4.8609617   -3.5436878    0.1053998   -4.8609617    1.3172739      1024000 
   62000    0.8793788   -4.8660968   -4.8660968   -3.5470313   0.13265961   -4.8660968    1.3190655      1024000 
   63000   0.88863421   -4.8842769   -4.8842769   -3.5513282   0.21010387   -4.8842769    1.3329486      1024000 
   64000   0.90176435   -4.9093691   -4.9093691   -3.5567254   0.30443243   -4.9093691    1.3526438      1024000 
   65000   0.91065032   -4.9311339   -4.9311339   -3.5651612   0.37413351   -4.9311339    1.3659727      1024000 
   66000   0.91431193   -4.9468753   -4.9468753   -3.5754102   0.42791024   -4.9468753    1.3714651      1024000 
   67000   0.90981101   -4.9518746   -4.9518746   -3.5871608   0.43635202   -4.9518746    1.3647137      1024000 
   68000   0.89646657    -4.944346    -4.944346   -3.5996488   0.37843414    -4.944346    1.3446971      1024000 
   69000   0.87672469   -4.9289911   -4.9289911   -3.6139067   0.28938623   -4.9289911    1.3150844      1024000 
   70000   0.85278432   -4.9081697   -4.9081697   -3.6289958    0.2054315   -4.9081697    1.2791739      1024000 
   71000   0.82985508   -4.8890319   -4.8890319   -3.6442518   0.12915194   -4.8890319    1.2447801      1024000 
   72000   0.81388292   -4.8762341   -4.8762341   -3.6554122   0.12786154   -4.8762341    1.2208219      1024000 
   73000   0.80555963   -4.8889446   -4.8889446   -3.6806076   0.26398107   -4.8889446     1.208337      1024000 
   74000   0.80776944   -4.9219114   -4.9219114   -3.7102597    0.3075417   -4.9219114    1.2116517      1024000 
   75000   0.81400895   -4.9532327   -4.9532327   -3.7322218   0.29462079   -4.9532327     1.221011      1024000 
   76000   0.82120666   -4.9787448   -4.9787448   -3.7469374   0.30668397   -4.9787448    1.2318075      1024000 
   77000   0.82691768   -4.9977442   -4.9977442   -3.7573702   0.35404142   -4.9977442     1.240374      1024000 
   78000   0.83665943    -5.018534    -5.018534   -3.7635474    0.4151626    -5.018534    1.2549866      1024000 
   79000   0.84372374   -5.0371571   -5.0371571   -3.7715741   0.47710106   -5.0371571     1.265583      1024000 
   80000   0.83349487    -5.029931    -5.029931   -3.7796913   0.42085699    -5.029931    1.2502398      1024000 
   81000   0.81252364   -5.0078751   -5.0078751   -3.7890921   0.33103532   -5.0078751     1.218783      1024000 
   82000   0.79332152   -4.9901258   -4.9901258   -3.8001459   0.26016479   -4.9901258    1.1899799      1024000 
   83000   0.78015947   -4.9794578   -4.9794578    -3.809221   0.20386605   -4.9794578    1.1702368      1024000 
   84000   0.76918673   -4.9734412   -4.9734412   -3.8196635   0.15256528   -4.9734412    1.1537777      1024000 
   85000   0.75987509   -4.9678247   -4.9678247   -3.8280144   0.10040522   -4.9678247    1.1398103      1024000 
   86000   0.75281194   -4.9628178   -4.9628178   -3.8336022  0.043202609   -4.9628178    1.1292156      1024000 
   87000   0.74649546   -4.9549669   -4.9549669    -3.835226 -0.019594217   -4.9549669    1.1197409      1024000 
   88000   0.73902623   -4.9428028   -4.9428028   -3.8342657  -0.07907363   -4.9428028    1.1085371      1024000 
   89000   0.72995818   -4.9254227   -4.9254227   -3.8304877  -0.13034944   -4.9254227     1.094935      1024000 
   90000   0.72004314   -4.9058446   -4.9058446   -3.8257821  -0.17200834   -4.9058446    1.0800625      1024000 
   91000   0.71063493   -4.8865641   -4.8865641   -3.8206139  -0.20204524   -4.8865641    1.0659502      1024000 
   92000   0.70374976   -4.8733502   -4.8733502   -3.8177277  -0.22452098   -4.8733502    1.0556225      1024000 
   93000   0.69766016   -4.8619027   -4.8619027   -3.8154146  -0.23101728   -4.8619027    1.0464881      1024000 
   94000   0.69383751   -4.8563426   -4.8563426   -3.8155885  -0.24058521   -4.8563426    1.0407542      1024000 
   95000    0.6917358   -4.8540539   -4.8540539   -3.8164523  -0.24069912   -4.8540539    1.0376016      1024000 
   96000   0.69171042   -4.8550109   -4.8550109   -3.8174473   -0.2350681   -4.8550109    1.0375635      1024000 
   97000   0.69567098   -4.8619614   -4.8619614   -3.8184571  -0.23436587   -4.8619614    1.0435043      1024000 
   98000   0.70081889   -4.8696609   -4.8696609   -3.8184347   -0.2192408   -4.8696609    1.0512262      1024000 
   99000   0.70702092   -4.8794275   -4.8794275   -3.8188983  -0.19451397   -4.8794275    1.0605292      1024000 
  100000   0.71520011   -4.8916172   -4.8916172   -3.8188193  -0.16693749   -4.8916172     1.072798      1024000 
  101000   0.72375194   -4.9040243   -4.9040243   -3.8183986  -0.13804285   -4.9040243    1.0856257      1024000 
  102000   0.73177642   -4.9161629   -4.9161629   -3.8185005 -0.099380983   -4.9161629    1.0976624      1024000 
  103000   0.73833283   -4.9268231   -4.9268231   -3.8193261 -0.064617986   -4.9268231     1.107497      1024000 
  104000   0.74398171   -4.9367312   -4.9367312   -3.8207609 -0.028406016   -4.9367312    1.1159703      1024000 
  105000   0.74882139   -4.9474959   -4.9474959   -3.8242661 0.0027672042   -4.9474959    1.1232298      1024000 
  106000   0.75264745   -4.9588782   -4.9588782   -3.8299094  0.044868089   -4.9588782    1.1289689      1024000 
  107000   0.75746395    -4.972902    -4.972902   -3.8367083  0.083810644    -4.972902    1.1361936      1024000 
  108000   0.76283563   -4.9883338   -4.9883338   -3.8440827   0.11713475   -4.9883338    1.1442511      1024000 
  109000   0.76800338    -5.003083    -5.003083   -3.8510803   0.15813392    -5.003083    1.1520027      1024000 
  110000   0.77263279   -5.0173295   -5.0173295   -3.8583827   0.19225615   -5.0173295    1.1589468      1024000 
  111000    0.7755588   -5.0286019   -5.0286019   -3.8652661   0.21842886   -5.0286019    1.1633358      1024000 
  112000   0.77633754   -5.0368866   -5.0368866   -3.8723826   0.23180797   -5.0368866    1.1645039      1024000 
  113000   0.77483735   -5.0408588   -5.0408588   -3.8786051    0.2355402   -5.0408588    1.1622537      1024000 
  114000   0.77343537   -5.0440498   -5.0440498   -3.8838991   0.23063846   -5.0440498    1.1601507      1024000 
  115000   0.76884118   -5.0425463   -5.0425463   -3.8892869   0.21123232   -5.0425463    1.1532594      1024000 
  116000   0.76202606   -5.0381457   -5.0381457    -3.895109    0.1921935   -5.0381457    1.1430368      1024000 
  117000   0.75699284   -5.0346079   -5.0346079   -3.8991209   0.15716277   -5.0346079    1.1354869      1024000 
  118000   0.75164392   -5.0307995   -5.0307995   -3.9033359   0.11869818   -5.0307995    1.1274636      1024000 
  119000   0.74381646   -5.0217158   -5.0217158   -3.9059934  0.087041323   -5.0217158    1.1157224      1024000 
  120000   0.73931308   -5.0163823   -5.0163823   -3.9074149  0.045787468   -5.0163823    1.1089674      1024000 
  121000     0.733375   -5.0082375   -5.0082375   -3.9081773 0.0089572305   -5.0082375    1.1000603      1024000 
  122000   0.72758813   -4.9987407   -4.9987407   -3.9073607 -0.026165227   -4.9987407      1.09138      1024000 
  123000   0.72187753   -4.9892079   -4.9892079   -3.9063938 -0.056782889   -4.9892079    1.0828141      1024000 
  124000   0.71745716   -4.9810251   -4.9810251   -3.9048416 -0.089681228   -4.9810251    1.0761836      1024000 
  125000   0.71198487   -4.9720603   -4.9720603   -3.9040852   -0.1137416   -4.9720603    1.0679751      1024000 
  126000    0.7076013   -4.9638977   -4.9638977   -3.9024979  -0.12974945   -4.9638977    1.0613998      1024000 
  127000   0.70520875   -4.9588634   -4.9588634   -3.9010524  -0.14175683   -4.9588634     1.057811      1024000 
  128000    0.7027294   -4.9539635   -4.9539635   -3.8998715  -0.15158434   -4.9539635     1.054092      1024000 
  129000   0.70201753   -4.9525974   -4.9525974   -3.8995732  -0.15633676   -4.9525974    1.0530242      1024000 
  130000   0.70451319   -4.9549353   -4.9549353   -3.8981676  -0.15643657   -4.9549353    1.0567676      1024000 
  131000   0.70568214   -4.9553787   -4.9553787   -3.8968576  -0.14560412   -4.9553787    1.0585211      1024000 
  132000   0.70768177   -4.9579604   -4.9579604   -3.8964399  -0.12934289   -4.9579604    1.0615205      1024000 
  133000   0.71203112   -4.9633871   -4.9633871   -3.8953426  -0.11294421   -4.9633871    1.0680445      1024000 
  134000   0.71677018   -4.9699465   -4.9699465   -3.8947934  -0.09404782   -4.9699465    1.0751531      1024000 
  135000   0.72152065    -4.977872    -4.977872   -3.8955932 -0.068175869    -4.977872    1.0822788      1024000 
  136000   0.72762697   -4.9880287   -4.9880287   -3.8965905 -0.045470278   -4.9880287    1.0914382      1024000 
  137000    0.7303072   -4.9937996   -4.9937996    -3.898341 -0.0084861706   -4.9937996    1.0954586      1024000 
  138000   0.73522957   -5.0035953   -5.0035953   -3.9007532  0.013460718   -5.0035953    1.1028421      1024000 
  139000   0.73858604   -5.0115547   -5.0115547   -3.9036779  0.050632056   -5.0115547    1.1078768      1024000 
  140000   0.74211543   -5.0207566   -5.0207566   -3.9075857  0.070639526   -5.0207566    1.1131709      1024000 
  141000   0.74495637   -5.0289744   -5.0289744   -3.9115421  0.094756842   -5.0289744    1.1174323      1024000 
  142000   0.74621496   -5.0358882   -5.0358882    -3.916568    0.1144241   -5.0358882    1.1193202      1024000 
  143000   0.74797369   -5.0439524   -5.0439524   -3.9219941   0.12719473   -5.0439524    1.1219583      1024000 
  144000   0.74878201    -5.049469    -5.049469   -3.9262983   0.13907597    -5.049469    1.1231707      1024000 
  145000   0.74925618   -5.0538813   -5.0538813   -3.9299993   0.14208934   -5.0538813     1.123882      1024000 
  146000   0.74867397   -5.0568192   -5.0568192   -3.9338105   0.13431949   -5.0568192    1.1230087      1024000 
  147000   0.74629411   -5.0572786   -5.0572786   -3.9378397   0.12932865   -5.0572786    1.1194389      1024000 
  148000    0.7424511   -5.0544178   -5.0544178   -3.9407434   0.12092219   -5.0544178    1.1136744      1024000 
  149000   0.73812964   -5.0508691   -5.0508691   -3.9436769    0.1054093   -5.0508691    1.1071922      1024000 
  150000   0.73607919   -5.0501946   -5.0501946    -3.946078  0.080015691   -5.0501946    1.1041165      1024000 
  151000   0.73056083   -5.0441576   -5.0441576   -3.9483186  0.059288855   -5.0441576     1.095839      1024000 
  152000   0.72774171   -5.0403763   -5.0403763   -3.9487659  0.034288147   -5.0403763    1.0916104      1024000 
  153000   0.72345972   -5.0346947   -5.0346947   -3.9495073 0.0084890585   -5.0346947    1.0851874      1024000 
  154000   0.71966355   -5.0289651   -5.0289651   -3.9494719 -0.0064341252   -5.0289651    1.0794931      1024000 
  155000   0.71685418   -5.0247189   -5.0247189   -3.9494398 -0.033076801   -5.0247189    1.0752791      1024000 
  156000   0.71368743   -5.0191963   -5.0191963   -3.9486673 -0.049606195   -5.0191963     1.070529      1024000 
  157000   0.71074532   -5.0138355   -5.0138355   -3.9477197 -0.058042701   -5.0138355    1.0661158      1024000 
  158000   0.71018075   -5.0115956   -5.0115956   -3.9463266 -0.078046953   -5.0115956     1.065269      1024000 
  159000    0.7093955   -5.0090713   -5.0090713   -3.9449803 -0.081453288   -5.0090713    1.0640911      1024000 
  160000   0.70861139   -5.0070526   -5.0070526   -3.9441377 -0.083227501   -5.0070526    1.0629149      1024000 
  161000   0.70847261   -5.0053603   -5.0053603   -3.9426536 -0.084774714   -5.0053603    1.0627068      1024000 
  162000   0.70940158   -5.0057889   -5.0057889   -3.9416887 -0.086924644   -5.0057889    1.0641002      1024000 
  163000   0.70973796   -5.0061151   -5.0061151   -3.9415103 -0.075470587   -5.0061151    1.0646048      1024000 
  164000   0.71177619   -5.0082852   -5.0082852   -3.9406231  -0.06613383   -5.0082852    1.0676621      1024000 
  165000   0.71385036   -5.0115331   -5.0115331   -3.9407597   -0.0580377   -5.0115331    1.0707734      1024000 
  166000   0.71640718   -5.0161007   -5.0161007   -3.9414921 -0.041530272   -5.0161007    1.0746086      1024000 
  167000    0.7185416   -5.0205209   -5.0205209   -3.9427107 -0.028058078   -5.0205209    1.0778102      1024000 
  168000   0.72134063   -5.0253868   -5.0253868   -3.9433781  -0.01306785   -5.0253868    1.0820088      1024000 
  169000   0.72343071   -5.0294143   -5.0294143   -3.9442704 0.0014636993   -5.0294143    1.0851439      1024000 
  170000   0.72571759   -5.0345086   -5.0345086   -3.9459344  0.025025658   -5.0345086    1.0885742      1024000 
  171000   0.72816423   -5.0405084   -5.0405084   -3.9482643  0.037353289   -5.0405084    1.0922441      1024000 
  172000   0.73089807   -5.0476005   -5.0476005   -3.9512556  0.049537953   -5.0476005    1.0963449      1024000 
  173000   0.73106445   -5.0501225   -5.0501225    -3.953528  0.061748893   -5.0501225    1.0965944      1024000 
  174000   0.73182817   -5.0534715   -5.0534715   -3.9557315  0.070580318   -5.0534715      1.09774      1024000 
  175000   0.73225652   -5.0567726   -5.0567726   -3.9583901  0.079418392   -5.0567726    1.0983826      1024000 
  176000   0.73342745   -5.0609024   -5.0609024   -3.9607635  0.079424903   -5.0609024    1.1001389      1024000 
  177000   0.73212829    -5.061509    -5.061509   -3.9633188  0.077387327    -5.061509    1.0981902      1024000 
  178000   0.73106542   -5.0622039   -5.0622039    -3.965608  0.077735888   -5.0622039    1.0965959      1024000 
  179000   0.72927862   -5.0617803   -5.0617803   -3.9678646  0.075780758   -5.0617803    1.0939157      1024000 
  180000   0.72764332   -5.0612947   -5.0612947   -3.9698319  0.065630876   -5.0612947    1.0914628      1024000 
  181000   0.72488016   -5.0585714   -5.0585714   -3.9712534   0.05344756   -5.0585714     1.087318      1024000 
  182000   0.72450069   -5.0587333   -5.0587333   -3.9719845  0.038936371   -5.0587333    1.0867488      1024000 
  183000   0.72167352   -5.0556695   -5.0556695   -3.9731614   0.02455582   -5.0556695    1.0825081      1024000 
  184000   0.71960591   -5.0528136   -5.0528136    -3.973407  0.018772644   -5.0528136    1.0794067      1024000 
  185000   0.71791583   -5.0506174   -5.0506174   -3.9737459 0.0037525884   -5.0506174    1.0768716      1024000 
  186000   0.71582594   -5.0469383   -5.0469383   -3.9732016 -0.0065872391   -5.0469383    1.0737367      1024000 
  187000   0.71410933   -5.0445224   -5.0445224   -3.9733606  -0.02092024   -5.0445224    1.0711618      1024000 
  188000   0.71335332   -5.0424782   -5.0424782   -3.9724504 -0.030300681   -5.0424782    1.0700278      1024000 
  189000   0.71185991   -5.0392191   -5.0392191   -3.9714314 -0.027451433   -5.0392191    1.0677877      1024000 
  190000   0.71203361   -5.0385046   -5.0385046   -3.9704564 -0.033930664   -5.0385046    1.0680482      1024000 
  191000   0.71164783   -5.0377629   -5.0377629   -3.9702933 -0.038907359   -5.0377629    1.0674696      1024000 
  192000   0.71140027   -5.0361684   -5.0361684   -3.9690702 -0.040567752   -5.0361684    1.0670982      1024000 
  193000   0.71052012   -5.0345212   -5.0345212   -3.9687431 -0.036962577   -5.0345212     1.065778      1024000 
  194000   0.71304007   -5.0381989   -5.0381989   -3.9686409 -0.039628078   -5.0381989    1.0695579      1024000 
  195000   0.71330051   -5.0390487   -5.0390487   -3.9691001 -0.033402176   -5.0390487    1.0699486      1024000 
  196000   0.71407477   -5.0398212   -5.0398212   -3.9687113 -0.027960886   -5.0398212      1.07111      1024000 
  197000    0.7155308    -5.042298    -5.042298   -3.9690039 -0.021114648    -5.042298     1.073294      1024000 
  198000   0.71559199   -5.0429099   -5.0429099   -3.9695241 -0.011607551   -5.0429099    1.0733858      1024000 
  199000   0.71708898   -5.0460115   -5.0460115   -3.9703802 -0.0038838843   -5.0460115    1.0756313      1024000 
  200000   0.71801448   -5.0489693   -5.0489693   -3.9719498 0.0055118074   -5.0489693    1.0770195      1024000 
  201000   0.71853417   -5.0512822   -5.0512822   -3.9734831  0.015575019   -5.0512822    1.0777991      1024000 
  202000   0.71940425   -5.0543441   -5.0543441     -3.97524  0.022461445   -5.0543441    1.0791042      1024000 
  203000   0.72244287    -5.059705    -5.059705   -3.9760429  0.023253355    -5.059705    1.0836621      1024000 
  204000   0.72181053   -5.0599392   -5.0599392   -3.9772256  0.035050354   -5.0599392    1.0827136      1024000 
  205000    0.7223383   -5.0625744   -5.0625744   -3.9790691  0.037210469   -5.0625744    1.0835052      1024000 
  206000   0.72217918   -5.0633159   -5.0633159   -3.9800494  0.044943626   -5.0633159    1.0832666      1024000 
  207000   0.72235325   -5.0646521   -5.0646521   -3.9811244   0.05043285   -5.0646521    1.0835277      1024000 
  208000   0.72313017   -5.0667869   -5.0667869   -3.9820939  0.045567858   -5.0667869    1.0846931      1024000 
  209000   0.72310747   -5.0680219   -5.0680219   -3.9833629  0.046366576   -5.0680219     1.084659      1024000 
  210000   0.72301094    -5.068801    -5.068801   -3.9842868  0.040944025    -5.068801    1.0845142      1024000 
  211000   0.72158106   -5.0679229   -5.0679229   -3.9855535    0.0385473   -5.0679229    1.0823694      1024000 
  212000   0.71974538   -5.0654047   -5.0654047   -3.9857889  0.041851985   -5.0654047    1.0796159      1024000 
  213000    0.7200122    -5.066431    -5.066431   -3.9864149  0.032466527    -5.066431    1.0800161      1024000 
  214000   0.71908658   -5.0656568   -5.0656568   -3.9870291  0.021470178   -5.0656568    1.0786277      1024000 
  215000   0.71844548   -5.0645297   -5.0645297   -3.9868636  0.016328051   -5.0645297     1.077666      1024000 
  216000   0.71634551   -5.0608466   -5.0608466   -3.9863305  0.012816686   -5.0608466    1.0745161      1024000 
  217000   0.71510605   -5.0588773   -5.0588773   -3.9862204 0.0037499179   -5.0588773    1.0726569      1024000 
  218000   0.71393353   -5.0572193   -5.0572193   -3.9863212 -0.002008555   -5.0572193    1.0708981      1024000 
  219000    0.7131405   -5.0552641   -5.0552641   -3.9855556 -0.0050491545   -5.0552641    1.0697086      1024000 
  220000   0.71385803   -5.0556859   -5.0556859    -3.984901 -0.011492561   -5.0556859    1.0707849      1024000 
  221000   0.71326288   -5.0549193   -5.0549193   -3.9850272 -0.014174649   -5.0549193    1.0698922      1024000 
  222000    0.7123755    -5.053319    -5.053319   -3.9847579 -0.015269114    -5.053319    1.0685611      1024000 
  223000   0.71194286   -5.0528611   -5.0528611    -3.984949 -0.014741785   -5.0528611    1.0679121      1024000 
  224000   0.71313105   -5.0534616   -5.0534616   -3.9837672 -0.018525787   -5.0534616    1.0696944      1024000 
  225000   0.71110995   -5.0501855   -5.0501855   -3.9835227 -0.012537259   -5.0501855    1.0666628      1024000 
  226000   0.71206161    -5.051289    -5.051289   -3.9831988 -0.015757114    -5.051289    1.0680903      1024000 
  227000   0.71332214   -5.0528599   -5.0528599   -3.9828789 -0.014124522   -5.0528599     1.069981      1024000 
  228000   0.71290325   -5.0519599   -5.0519599   -3.9826072 -0.0062799354   -5.0519599    1.0693527      1024000 
  229000   0.71476861   -5.0547423   -5.0547423   -3.9825916 -0.0028756894   -5.0547423    1.0721507      1024000 
  230000   0.71474454   -5.0553011   -5.0553011   -3.9831865 -0.0011443936   -5.0553011    1.0721146      1024000 
  231000    0.7152321   -5.0567448   -5.0567448   -3.9838988 0.00041260355   -5.0567448     1.072846      1024000 
  232000   0.71746453   -5.0604811   -5.0604811   -3.9842865 0.0015064984   -5.0604811    1.0761946      1024000 
  233000   0.71691176   -5.0602131   -5.0602131   -3.9848477  0.011164028   -5.0602131    1.0753655      1024000 
  234000    0.7171398    -5.061756    -5.061756   -3.9860485  0.014570418    -5.061756    1.0757075      1024000 
  235000   0.71723735   -5.0618165   -5.0618165   -3.9859627  0.019133855   -5.0618165    1.0758538      1024000 
  236000    0.7190451   -5.0646901   -5.0646901   -3.9861247  0.020518117   -5.0646901    1.0785655      1024000 
  237000   0.71886512   -5.0654637   -5.0654637   -3.9871682  0.021699306   -5.0654637    1.0782955      1024000 
  238000   0.71823624   -5.0654715   -5.0654715   -3.9881194  0.021499659   -5.0654715    1.0773522      1024000 
  239000   0.71758157   -5.0659393   -5.0659393   -3.9895691  0.028807003   -5.0659393    1.0763702      1024000 
  240000   0.71833134   -5.0673518   -5.0673518    -3.989857  0.029929121   -5.0673518    1.0774948      1024000 
  241000   0.71814756   -5.0673958   -5.0673958   -3.9901767  0.029213939   -5.0673958    1.0772192      1024000 
  242000   0.71773636   -5.0679237   -5.0679237   -3.9913213   0.02832551   -5.0679237    1.0766024      1024000 
  243000   0.71775244   -5.0680626   -5.0680626   -3.9914362  0.026870333   -5.0680626    1.0766265      1024000 
  244000   0.71760779   -5.0681715   -5.0681715    -3.991762  0.019665267   -5.0681715    1.0764095      1024000 
  245000   0.71562666   -5.0654247   -5.0654247   -3.9919869  0.022522904   -5.0654247    1.0734378      1024000 
  246000   0.71661861   -5.0663098   -5.0663098   -3.9913841  0.016588997   -5.0663098    1.0749257      1024000 
  247000   0.71608292   -5.0658303   -5.0658303   -3.9917081  0.016154072   -5.0658303    1.0741222      1024000 
  248000   0.71500629    -5.064233    -5.064233   -3.9917257   0.01340539    -5.064233    1.0725073      1024000 
  249000    0.7147595   -5.0633729   -5.0633729   -3.9912359  0.013163549   -5.0633729    1.0721371      1024000 
  250000   0.71450466   -5.0631042   -5.0631042   -3.9913494 0.0023739079   -5.0631042    1.0717548      1024000 
  251000   0.71375381   -5.0617727   -5.0617727   -3.9911442 0.0048772096   -5.0617727    1.0706285      1024000 
  252000   0.71390427   -5.0621382   -5.0621382   -3.9912839 -0.0050575389   -5.0621382    1.0708542      1024000 
  253000   0.71385351   -5.0611377   -5.0611377   -3.9903596 -0.0016145615   -5.0611377    1.0707781      1024000 
  254000   0.71431847    -5.061587    -5.061587   -3.9901115 -0.0018099363    -5.061587    1.0714755      1024000 
  255000   0.71236955   -5.0588297   -5.0588297   -3.9902776 0.0016092728   -5.0588297    1.0685522      1024000 
  256000    0.7131353   -5.0604941   -5.0604941   -3.9907933 -0.0057044062   -5.0604941    1.0697008      1024000 
  257000   0.71278125   -5.0589861   -5.0589861   -3.9898164 -0.0055727564   -5.0589861    1.0691697      1024000 
  258000   0.71303956   -5.0596706   -5.0596706   -3.9901135 -0.0057312057   -5.0596706    1.0695572      1024000 
  259000   0.71263302   -5.0594589   -5.0594589   -3.9905115 0.0011080415   -5.0594589    1.0689474      1024000 
  260000    0.7129251   -5.0591529   -5.0591529   -3.9897674 0.0040899215   -5.0591529    1.0693855      1024000 
  261000   0.71430602    -5.061464    -5.061464   -3.9900071 0.0037626878    -5.061464    1.0714569      1024000 
  262000   0.71479651   -5.0618778   -5.0618778   -3.9896852 0.0037254901   -5.0618778    1.0721926      1024000 
  263000   0.71491499   -5.0619586   -5.0619586   -3.9895883  0.013054925   -5.0619586    1.0723703      1024000 
  264000    0.7165053   -5.0648367   -5.0648367    -3.990081 0.0066340458   -5.0648367    1.0747558      1024000 
  265000    0.7150181   -5.0632414   -5.0632414   -3.9907165  0.014263634   -5.0632414     1.072525      1024000 
  266000    0.7149387   -5.0634633   -5.0634633   -3.9910574  0.011636253   -5.0634633    1.0724059      1024000 
  267000   0.71541574   -5.0641781   -5.0641781   -3.9910567  0.012032384   -5.0641781    1.0731214      1024000 
  268000   0.71654815   -5.0652914   -5.0652914   -3.9904714   0.01509808   -5.0652914      1.07482      1024000 
  269000   0.71489214   -5.0633718   -5.0633718   -3.9910357  0.022937687   -5.0633718     1.072336      1024000 
  270000    0.7152761   -5.0640203   -5.0640203   -3.9911083  0.021178646   -5.0640203     1.072912      1024000 
  271000   0.71549527   -5.0649838   -5.0649838   -3.9917431  0.019187347   -5.0649838    1.0732407      1024000 
  272000   0.71575221   -5.0652559   -5.0652559   -3.9916298  0.022706955   -5.0652559    1.0736261      1024000 
  273000    0.7158037    -5.065575    -5.065575   -3.9918716  0.023560787    -5.065575    1.0737034      1024000 
  274000   0.71675066   -5.0667094   -5.0667094   -3.9915856  0.020646909   -5.0667094    1.0751238      1024000 
  275000   0.71593759   -5.0652462   -5.0652462    -3.991342  0.025475746   -5.0652462    1.0739042      1024000 
  276000   0.71666754   -5.0663095   -5.0663095   -3.9913104  0.021324011   -5.0663095    1.0749991      1024000 
  277000   0.71659644   -5.0661141   -5.0661141   -3.9912217  0.014242143   -5.0661141    1.0748925      1024000 
  278000    0.7161212    -5.065796    -5.065796   -3.9916164  0.011257033    -5.065796    1.0741796      1024000 
  279000   0.71624336    -5.066498    -5.066498   -3.9921351 0.0096229574    -5.066498    1.0743629      1024000 
  280000   0.71425414   -5.0635557   -5.0635557   -3.9921766 0.0099470185   -5.0635557     1.071379      1024000 
  281000   0.71471372   -5.0644641   -5.0644641   -3.9923957 0.0052282918   -5.0644641    1.0720684      1024000 
  282000   0.71487468   -5.0645597   -5.0645597   -3.9922499 -0.00088625058   -5.0645597    1.0723099      1024000 
  283000    0.7142048   -5.0635332   -5.0635332   -3.9922282 -0.001425975   -5.0635332     1.071305      1024000 
  284000   0.71361473   -5.0612262   -5.0612262   -3.9908062 0.0046902767   -5.0612262    1.0704199      1024000 
  285000   0.71395833   -5.0622612   -5.0622612   -3.9913258  0.003093278   -5.0622612    1.0709353      1024000 
  286000   0.71546681   -5.0640261   -5.0640261   -3.9908281 0.00030518071   -5.0640261     1.073198      1024000 
  287000   0.71529837   -5.0634094   -5.0634094    -3.990464 -0.00083437004   -5.0634094    1.0729454      1024000 
  288000   0.71532567   -5.0620167   -5.0620167   -3.9890303 -0.00042634772   -5.0620167    1.0729863      1024000 
  289000   0.71464116   -5.0609354   -5.0609354   -3.9889758 0.0019159355   -5.0609354    1.0719596      1024000 
  290000   0.71431416   -5.0595695   -5.0595695   -3.9881004  0.007818344   -5.0595695    1.0714691      1024000 
  291000   0.71406886   -5.0582952   -5.0582952   -3.9871941  0.011123273   -5.0582952    1.0711011      1024000 
  292000    0.7158537   -5.0613537   -5.0613537   -3.9875753 0.0065102369   -5.0613537    1.0737784      1024000 
  293000   0.71589013   -5.0609603   -5.0609603   -3.9871273 0.0095200383   -5.0609603     1.073833      1024000 
  294000   0.71545786   -5.0607351   -5.0607351   -3.9875505 0.0080402065   -5.0607351    1.0731846      1024000 
  295000   0.71557041   -5.0606377   -5.0606377   -3.9872843  0.012924841   -5.0606377    1.0733534      1024000 
  296000   0.71650681   -5.0617286   -5.0617286   -3.9869705  0.011466412   -5.0617286     1.074758      1024000 
  297000   0.71602451   -5.0609715   -5.0609715   -3.9869369  0.014627806   -5.0609715    1.0740346      1024000 
  298000   0.71622017   -5.0611692   -5.0611692   -3.9868412  0.012692032   -5.0611692    1.0743281      1024000 
  299000   0.71678762   -5.0622597   -5.0622597   -3.9870805 0.0068175133   -5.0622597    1.0751792      1024000 
  300000   0.71703663   -5.0627366   -5.0627366   -3.9871838  0.011223934   -5.0627366    1.0755528      1024000 
  301000   0.71703503   -5.0624482   -5.0624482   -3.9868979 0.0097142159   -5.0624482    1.0755504      1024000 
  302000   0.71695125   -5.0622079   -5.0622079   -3.9867832  0.011703172   -5.0622079    1.0754247      1024000 
  303000   0.71706959   -5.0616065   -5.0616065   -3.9860043  0.015386159   -5.0616065    1.0756022      1024000 
  304000   0.71687497    -5.062278    -5.062278   -3.9869677 0.0098279964    -5.062278    1.0753103      1024000 
  305000   0.71689578   -5.0619038   -5.0619038   -3.9865623  0.013901013   -5.0619038    1.0753415      1024000 
  306000   0.71533734   -5.0604583   -5.0604583   -3.9874545  0.012500095   -5.0604583    1.0730038      1024000 
  307000    0.7163704   -5.0619189   -5.0619189   -3.9873655 0.0069063154   -5.0619189    1.0745534      1024000 
  308000    0.7159954   -5.0610243   -5.0610243   -3.9870334 0.0058324103   -5.0610243    1.0739909      1024000 
  309000   0.71560531   -5.0605542   -5.0605542   -3.9871485 0.0051968608   -5.0605542    1.0734058      1024000 
  310000   0.71554731   -5.0608401   -5.0608401   -3.9875213 0.0044510842   -5.0608401    1.0733188      1024000 
  311000   0.71515646   -5.0599512   -5.0599512   -3.9872187 0.0024386798   -5.0599512    1.0727325      1024000 
  312000   0.71568321    -5.060347    -5.060347   -3.9868244 0.00062232922    -5.060347    1.0735226      1024000 
  313000   0.71524255   -5.0591728   -5.0591728   -3.9863112  0.006227542   -5.0591728    1.0728617      1024000 
  314000   0.71568712   -5.0582942   -5.0582942   -3.9847657  0.014048987   -5.0582942    1.0735285      1024000 
  315000   0.71618299   -5.0587214   -5.0587214   -3.9844491  0.013948995   -5.0587214    1.0742723      1024000 
  316000   0.71671223   -5.0596388   -5.0596388   -3.9845726   0.01390352   -5.0596388    1.0750662      1024000 
  317000   0.71743541   -5.0600946   -5.0600946   -3.9839437  0.011271096   -5.0600946    1.0761509      1024000 
  318000   0.71720491   -5.0589562   -5.0589562    -3.983151 0.0099029959   -5.0589562    1.0758052      1024000 
  319000   0.71733475   -5.0578763   -5.0578763   -3.9818764  0.016512535   -5.0578763    1.0759999      1024000 
  320000   0.71720819   -5.0573894   -5.0573894   -3.9815793  0.018312966   -5.0573894    1.0758101      1024000 
  321000   0.71820846   -5.0588849   -5.0588849   -3.9815743  0.011614183   -5.0588849    1.0773105      1024000 
  322000   0.71809501   -5.0587506   -5.0587506   -3.9816102  0.012181557   -5.0587506    1.0771403      1024000 
  323000      0.71807   -5.0588753   -5.0588753   -3.9817725 0.0098543892   -5.0588753    1.0771028      1024000 
  324000   0.71627398   -5.0558625   -5.0558625   -3.9814537  0.013997895   -5.0558625    1.0744088      1024000 
  325000   0.71828745   -5.0580399   -5.0580399   -3.9806109 0.0090692524   -5.0580399     1.077429      1024000 
  326000    0.7170613   -5.0565869   -5.0565869   -3.9809971  0.012736497   -5.0565869    1.0755898      1024000 
  327000   0.71754998   -5.0571576   -5.0571576   -3.9808348 0.0099946248   -5.0571576    1.0763228      1024000 
  328000   0.71784434   -5.0571784   -5.0571784   -3.9804141 0.0084213196   -5.0571784    1.0767643      1024000 
  329000   0.71749313   -5.0562991   -5.0562991   -3.9800616 0.0083963305   -5.0562991    1.0762375      1024000 
  330000   0.71732861   -5.0564498   -5.0564498   -3.9804591 0.0071245346   -5.0564498    1.0759907      1024000 
  331000   0.71668568   -5.0548935   -5.0548935   -3.9798672 0.0085184758   -5.0548935    1.0750263      1024000 
  332000   0.71750286   -5.0550387   -5.0550387   -3.9787866 0.0081044243   -5.0550387    1.0762521      1024000 
  333000   0.71819158   -5.0555222   -5.0555222    -3.978237 0.0070790799   -5.0555222    1.0772852      1024000 
  334000   0.71899941   -5.0564487   -5.0564487   -3.9779518 0.0037790853   -5.0564487    1.0784969      1024000 
  335000   0.71754102   -5.0540444   -5.0540444   -3.9777351 0.0096690268   -5.0540444    1.0763093      1024000 
  336000   0.71803846   -5.0541218   -5.0541218   -3.9770663  0.010899179   -5.0541218    1.0770555      1024000 
  337000   0.71785471   -5.0539784   -5.0539784   -3.9771985  0.011792821   -5.0539784    1.0767799      1024000 
  338000   0.71766536   -5.0538209   -5.0538209   -3.9773251   0.01202133   -5.0538209    1.0764959      1024000 
  339000   0.71763317   -5.0531992   -5.0531992   -3.9767516 0.0090962367   -5.0531992    1.0764476      1024000 
  340000   0.71708279   -5.0514933   -5.0514933   -3.9758713 0.0088404293   -5.0514933     1.075622      1024000 
  341000   0.71874267      -5.0529      -5.0529   -3.9747882 0.0095788786      -5.0529    1.0781118      1024000 
  342000   0.71884567   -5.0528921   -5.0528921   -3.9746257 0.0065329692   -5.0528921    1.0782663      1024000 
  343000   0.71844769   -5.0526837   -5.0526837   -3.9750144 0.0092000091   -5.0526837    1.0776694      1024000 
  344000   0.71718212   -5.0502777   -5.0502777   -3.9745067 0.0087860561   -5.0502777     1.075771      1024000 
  345000   0.71906569   -5.0526073   -5.0526073    -3.974011 0.0045951743   -5.0526073    1.0785963      1024000 
  346000   0.71781236   -5.0507594   -5.0507594   -3.9740431  0.013274735   -5.0507594    1.0767164      1024000 
  347000   0.71902362   -5.0517352   -5.0517352    -3.973202 0.0076920886   -5.0517352    1.0785332      1024000 
  348000   0.71833012   -5.0498151   -5.0498151   -3.9723221 0.0069069693   -5.0498151     1.077493      1024000 
  349000   0.71898485   -5.0502705   -5.0502705   -3.9717954 0.0073878993   -5.0502705    1.0784751      1024000 
  350000   0.71871215   -5.0490354   -5.0490354   -3.9709694  0.008777127   -5.0490354     1.078066      1024000 
  351000   0.71976289   -5.0498983   -5.0498983   -3.9702562 0.0091799052   -5.0498983    1.0796421      1024000 
  352000   0.71933492   -5.0487169   -5.0487169   -3.9697167   0.01066143   -5.0487169    1.0790002      1024000 
  353000   0.71825576   -5.0473556   -5.0473556   -3.9699742  0.012414362   -5.0473556    1.0773815      1024000 
  354000   0.71917927    -5.048261    -5.048261   -3.9694943 0.0066892495    -5.048261    1.0787667      1024000 
  355000   0.71929812   -5.0483009   -5.0483009   -3.9693559 0.0059318907   -5.0483009     1.078945      1024000 
  356000    0.7194634    -5.047516    -5.047516   -3.9683231  0.010884703    -5.047516    1.0791929      1024000 
  357000   0.71976345   -5.0481653   -5.0481653   -3.9685224  0.011261357   -5.0481653     1.079643      1024000 
  358000   0.71877821   -5.0460704   -5.0460704   -3.9679053 0.0094919087   -5.0460704    1.0781651      1024000 
  359000   0.71939037     -5.04641     -5.04641   -3.9673266 0.0077971959     -5.04641    1.0790834      1024000 
  360000   0.71862992   -5.0457204   -5.0457204   -3.9677777 0.0098343046   -5.0457204    1.0779427      1024000 
  361000   0.71887618   -5.0455255   -5.0455255   -3.9672134 0.0089921127   -5.0455255    1.0783121      1024000 
  362000    0.7193663   -5.0452216   -5.0452216   -3.9661744  0.011857079   -5.0452216    1.0790473      1024000 
  363000   0.71925169    -5.044841    -5.044841   -3.9659656 0.0099301547    -5.044841    1.0788753      1024000 
  364000   0.72073035   -5.0459388   -5.0459388   -3.9648455  0.007070428   -5.0459388    1.0810933      1024000 
  365000   0.72035624   -5.0455279   -5.0455279   -3.9649957 0.0074380508   -5.0455279    1.0805322      1024000 
  366000   0.72071438    -5.044575    -5.044575   -3.9635056 0.0089187406    -5.044575    1.0810694      1024000 
  367000   0.72094185   -5.0445134   -5.0445134   -3.9631028 0.0091426472   -5.0445134    1.0814106      1024000 
  368000   0.72092737   -5.0442134   -5.0442134   -3.9628245  0.012632866   -5.0442134    1.0813889      1024000 
  369000    0.7206006   -5.0435511   -5.0435511   -3.9626524 0.0093455512   -5.0435511    1.0808987      1024000 
  370000   0.72103044   -5.0434833   -5.0434833   -3.9619398 0.0063215867   -5.0434833    1.0815435      1024000 
  371000    0.7210103    -5.042955    -5.042955   -3.9614417  0.013475014    -5.042955    1.0815132      1024000 
  372000   0.72184399   -5.0426955   -5.0426955   -3.9599317 0.0099433666   -5.0426955    1.0827638      1024000 
  373000    0.7214129   -5.0424989   -5.0424989   -3.9603818 0.0083478784   -5.0424989    1.0821172      1024000 
  374000   0.72084766   -5.0412388   -5.0412388   -3.9599695 0.0099496976   -5.0412388    1.0812693      1024000 
  375000   0.72162678   -5.0413673   -5.0413673   -3.9589294  0.010923186   -5.0413673     1.082438      1024000 
  376000    0.7215055   -5.0412964   -5.0412964   -3.9590404 0.0056763207   -5.0412964    1.0822561      1024000 
  377000   0.72174833   -5.0403296   -5.0403296   -3.9577093 0.0072064165   -5.0403296    1.0826203      1024000 
  378000   0.72128555   -5.0390573   -5.0390573   -3.9571312  0.010871443   -5.0390573    1.0819261      1024000 
  379000   0.72282989   -5.0402232   -5.0402232   -3.9559805 0.0098041857   -5.0402232    1.0842426      1024000 
  380000   0.72221183   -5.0385641   -5.0385641   -3.9552485  0.013662424   -5.0385641    1.0833155      1024000 
  381000   0.72254493   -5.0393368   -5.0393368   -3.9555216 0.0081651494   -5.0393368    1.0838152      1024000 
  382000   0.72221917   -5.0380682   -5.0380682   -3.9547417 0.0083040172   -5.0380682    1.0833266      1024000 
  383000    0.7230104   -5.0384532   -5.0384532   -3.9539398 0.0097444859   -5.0384532    1.0845134      1024000 
  384000   0.72328357    -5.038199    -5.038199   -3.9532758 0.0073423676    -5.038199    1.0849231      1024000 
  385000   0.72238352   -5.0361349   -5.0361349   -3.9525618 0.0080357642   -5.0361349    1.0835731      1024000 
  386000   0.72275716   -5.0355643   -5.0355643   -3.9514308 0.0078639691   -5.0355643    1.0841335      1024000 
  387000    0.7227918   -5.0361028   -5.0361028   -3.9519173 0.0058528945   -5.0361028    1.0841855      1024000 
  388000    0.7223541   -5.0342505   -5.0342505   -3.9507216 0.0074198133   -5.0342505     1.083529      1024000 
  389000   0.72186492   -5.0329278   -5.0329278   -3.9501326 0.0079890391   -5.0329278    1.0827952      1024000 
  390000   0.72270864   -5.0339166   -5.0339166   -3.9498558 0.0086726596   -5.0339166    1.0840608      1024000 
  391000   0.72289207   -5.0338953   -5.0338953   -3.9495594 0.0050463269   -5.0338953    1.0843359      1024000 
  392000   0.72255881   -5.0327108   -5.0327108   -3.9488747 0.0086957654   -5.0327108     1.083836      1024000 
  393000    0.7239764   -5.0336577   -5.0336577   -3.9476953 0.0046897033   -5.0336577    1.0859624      1024000 
  394000   0.72261462   -5.0316216   -5.0316216   -3.9477019 0.0089561998   -5.0316216    1.0839197      1024000 
  395000    0.7243533   -5.0338436   -5.0338436   -3.9473159  0.001773339   -5.0338436    1.0865277      1024000 
  396000     0.722043   -5.0301472   -5.0301472   -3.9470849 0.0066339859   -5.0301472    1.0830623      1024000 
  397000   0.72332367   -5.0315511   -5.0315511   -3.9465678 0.0034234635   -5.0315511    1.0849833      1024000 
  398000   0.72439872    -5.032923    -5.032923   -3.9463271 -0.0019231331    -5.032923    1.0865959      1024000 
  399000   0.72349524    -5.030404    -5.030404   -3.9451633 0.0045274002    -5.030404    1.0852407      1024000 
  400000   0.72339365   -5.0288177   -5.0288177   -3.9437294  0.010892989   -5.0288177    1.0850883      1024000 
  401000   0.72543678   -5.0313821   -5.0313821   -3.9432291  0.006644715   -5.0313821     1.088153      1024000 
  402000   0.72459463   -5.0301107   -5.0301107   -3.9432209 0.0083351866   -5.0301107    1.0868897      1024000 
  403000   0.72455133   -5.0294758   -5.0294758    -3.942651  0.013791018   -5.0294758    1.0868248      1024000 
  404000   0.72527235   -5.0302689   -5.0302689   -3.9423626  0.011127977   -5.0302689    1.0879063      1024000 
  405000   0.72496259   -5.0282609   -5.0282609   -3.9408192  0.013824015   -5.0282609    1.0874417      1024000 
  406000   0.72558815   -5.0288626   -5.0288626   -3.9404826 0.0080000073   -5.0288626      1.08838      1024000 
  407000   0.72515614   -5.0282749   -5.0282749   -3.9405429  0.015239234   -5.0282749     1.087732      1024000 
  408000   0.72478726   -5.0271968   -5.0271968   -3.9400181  0.012553177   -5.0271968    1.0871787      1024000 
  409000   0.72675269   -5.0281501   -5.0281501   -3.9380233  0.012112495   -5.0281501    1.0901268      1024000 
  410000   0.72628135   -5.0275915   -5.0275915   -3.9381717  0.013208511   -5.0275915    1.0894198      1024000 
  411000   0.72597103   -5.0277196   -5.0277196   -3.9387653 0.0096764324   -5.0277196    1.0889543      1024000 
  412000   0.72622667   -5.0279415   -5.0279415   -3.9386038 0.0058506252   -5.0279415    1.0893378      1024000 
  413000   0.72536113   -5.0258679   -5.0258679   -3.9378284  0.011093193   -5.0258679    1.0880395      1024000 
  414000   0.72550959   -5.0261807   -5.0261807   -3.9379185 0.0073436922   -5.0261807    1.0882622      1024000 
  415000    0.7251275   -5.0248526   -5.0248526   -3.9371636 0.0072760514   -5.0248526     1.087689      1024000 
  416000   0.72506206   -5.0258253   -5.0258253   -3.9382344 0.0046032024   -5.0258253    1.0875909      1024000 
  417000   0.72503704   -5.0242787   -5.0242787   -3.9367253 0.0075995235   -5.0242787    1.0875534      1024000 
  418000   0.72613994   -5.0244397   -5.0244397    -3.935232 0.0065034949   -5.0244397    1.0892077      1024000 
  419000   0.72636509   -5.0239977   -5.0239977   -3.9344523 0.0088131401   -5.0239977    1.0895454      1024000 
  420000   0.72563735   -5.0222623   -5.0222623   -3.9338085 0.0096735891   -5.0222623    1.0884538      1024000 
  421000   0.72591498   -5.0218369   -5.0218369   -3.9329667 0.0090890174   -5.0218369    1.0888703      1024000 
  422000   0.72604039   -5.0209577   -5.0209577   -3.9318994  0.010484314   -5.0209577    1.0890584      1024000 
  423000   0.72773835   -5.0225705   -5.0225705   -3.9309652  0.011132053   -5.0225705    1.0916053      1024000 
  424000   0.72739607   -5.0222268   -5.0222268   -3.9311349 0.0058098993   -5.0222268    1.0910919      1024000 
  425000   0.72766554   -5.0217618   -5.0217618   -3.9302657 0.0093545341   -5.0217618    1.0914961      1024000 
  426000   0.72621868   -5.0196864   -5.0196864   -3.9303606  0.011497419   -5.0196864    1.0893258      1024000 
  427000   0.72649035   -5.0191422   -5.0191422   -3.9294088  0.010974967   -5.0191422    1.0897333      1024000 
  428000   0.72789904   -5.0203545   -5.0203545   -3.9285082 0.0033463121   -5.0203545    1.0918463      1024000 
  429000   0.72756917   -5.0194458   -5.0194458   -3.9280942 0.0030217195   -5.0194458    1.0913515      1024000 
  430000   0.72733553   -5.0187433   -5.0187433   -3.9277422 0.0079772131   -5.0187433    1.0910011      1024000 
  431000   0.72842605   -5.0195671   -5.0195671   -3.9269303 0.0054626139   -5.0195671    1.0926369      1024000 
  432000   0.72872639   -5.0183796   -5.0183796   -3.9252922 0.0084997886   -5.0183796    1.0930874      1024000 
  433000   0.72842675   -5.0174295   -5.0174295   -3.9247916  0.010487817   -5.0174295    1.0926379      1024000 
  434000   0.72761443   -5.0154071   -5.0154071   -3.9239877 0.0076408689   -5.0154071    1.0914194      1024000 
  435000    0.7291056   -5.0179413   -5.0179413   -3.9242851 0.0052109857   -5.0179413    1.0936562      1024000 
  436000   0.72905507   -5.0168724   -5.0168724    -3.923292  0.010008217   -5.0168724    1.0935804      1024000 
  437000   0.72835955   -5.0152102   -5.0152102   -3.9226731 0.0082470679   -5.0152102    1.0925371      1024000 
  438000   0.72934903   -5.0171651   -5.0171651   -3.9231437 0.0051854729   -5.0171651    1.0940213      1024000 
  439000    0.7286524   -5.0154845   -5.0154845   -3.9225081  0.008613238   -5.0154845    1.0929764      1024000 
  440000   0.72920002   -5.0150952   -5.0150952   -3.9212973 0.0056534779   -5.0150952    1.0937978      1024000 
  441000   0.72887357   -5.0133706   -5.0133706   -3.9200624 0.0065256638   -5.0133706    1.0933081      1024000 
  442000    0.7288296    -5.012555    -5.012555   -3.9193128 0.0096258607    -5.012555    1.0932422      1024000 
  443000   0.72948739   -5.0130093   -5.0130093   -3.9187805  0.003520405   -5.0130093    1.0942289      1024000 
  444000   0.72948646   -5.0115369   -5.0115369   -3.9173094 0.0078246363   -5.0115369    1.0942275      1024000 
  445000   0.73066171   -5.0130433   -5.0130433    -3.917053 0.0063099779   -5.0130433    1.0959903      1024000 
  446000   0.73032267     -5.01138     -5.01138   -3.9158982   0.01002129     -5.01138    1.0954818      1024000 
  447000   0.72940008   -5.0092302   -5.0092302   -3.9151323  0.010751823   -5.0092302    1.0940979      1024000 
  448000   0.73030549   -5.0091784   -5.0091784   -3.9137223  0.011696214   -5.0091784     1.095456      1024000 
  449000   0.73119045   -5.0093124   -5.0093124   -3.9125289  0.010119713   -5.0093124    1.0967834      1024000 
  450000   0.73176084   -5.0095059   -5.0095059   -3.9118668  0.009372276   -5.0095059     1.097639      1024000 
  451000   0.73151766   -5.0078035   -5.0078035   -3.9105293  0.011464548   -5.0078035    1.0972743      1024000 
  452000   0.72988446    -5.004878    -5.004878   -3.9100535  0.010112048    -5.004878    1.0948245      1024000 
  453000   0.73094801   -5.0050598   -5.0050598     -3.90864 0.0087319307   -5.0050598    1.0964198      1024000 
  454000   0.72999253   -5.0041894   -5.0041894   -3.9092028  0.006201005   -5.0041894    1.0949866      1024000 
  455000   0.73089251   -5.0047029   -5.0047029   -3.9083664  0.003605824   -5.0047029    1.0963365      1024000 
  456000   0.73104205   -5.0041798   -5.0041798    -3.907619 0.0088251452   -5.0041798    1.0965608      1024000 
  457000   0.73124495   -5.0038512   -5.0038512    -3.906986    0.0059748   -5.0038512    1.0968652      1024000 
  458000   0.73096551   -5.0029959   -5.0029959   -3.9065499 0.0044737078   -5.0029959     1.096446      1024000 
  459000   0.73145717   -5.0031791   -5.0031791   -3.9059956 0.0055259087   -5.0031791    1.0971835      1024000 
  460000   0.73186757   -5.0030494   -5.0030494   -3.9052503 0.0059694113   -5.0030494    1.0977991      1024000 
  461000   0.73207318   -5.0025428   -5.0025428   -3.9044353 0.0047981248   -5.0025428    1.0981075      1024000 
  462000   0.73222084   -5.0024779   -5.0024779   -3.9041489 0.0058289148   -5.0024779     1.098329      1024000 
  463000   0.73278086   -5.0020467   -5.0020467   -3.9028777 0.0056370092   -5.0020467    1.0991691      1024000 
  464000   0.73235741   -5.0004955   -5.0004955   -3.9019616 0.0079762239   -5.0004955    1.0985339      1024000 
  465000   0.73281375   -5.0016386   -5.0016386   -3.9024202 0.0033485364   -5.0016386    1.0992184      1024000 
  466000   0.73330909   -4.9999059   -4.9999059   -3.8999445 0.0086736381   -4.9999059    1.0999614      1024000 
  467000   0.73334745   -4.9992003   -4.9992003   -3.8991813 0.0093441716   -4.9992003    1.1000189      1024000 
  468000   0.73416522   -4.9996815   -4.9996815   -3.8984359 0.0082054499   -4.9996815    1.1012456      1024000 
  469000   0.73359979   -4.9978096   -4.9978096   -3.8974121  0.011475697   -4.9978096    1.1003975      1024000 
  470000   0.73485873   -4.9985485   -4.9985485   -3.8962626  0.006510475   -4.9985485    1.1022859      1024000 
  471000   0.73322846   -4.9957134   -4.9957134   -3.8958729  0.013014023   -4.9957134    1.0998405      1024000 
  472000   0.73336989   -4.9956057   -4.9956057   -3.8955531  0.013179969   -4.9956057    1.1000526      1024000 
  473000   0.73418822   -4.9960839   -4.9960839   -3.8948038 0.0099986329   -4.9960839    1.1012801      1024000 
  474000   0.73386137   -4.9949775   -4.9949775   -3.8941877 0.0097447383   -4.9949775    1.1007898      1024000 
  475000   0.73422803   -4.9946024   -4.9946024   -3.8932626 0.0092254099   -4.9946024    1.1013398      1024000 
  476000    0.7342897    -4.994103    -4.994103   -3.8926707 0.0075310621    -4.994103    1.1014323      1024000 
  477000   0.73489366   -4.9933581   -4.9933581   -3.8910198  0.010881343   -4.9933581    1.1023383      1024000 
  478000   0.73508187   -4.9930832   -4.9930832   -3.8904627 0.0038052912   -4.9930832    1.1026206      1024000 
  479000   0.73485311   -4.9913153   -4.9913153   -3.8890378 0.0059508076   -4.9913153    1.1022774      1024000 
  480000   0.73458516   -4.9910554   -4.9910554   -3.8891799  0.006115747   -4.9910554    1.1018755      1024000 
  481000   0.73464902   -4.9904067   -4.9904067   -3.8884354 0.0070758948   -4.9904067    1.1019713      1024000 
  482000   0.73516304   -4.9908128   -4.9908128   -3.8880705  0.006231196   -4.9908128    1.1027423      1024000 
  483000   0.73462057   -4.9896612   -4.9896612   -3.8877326 0.0080156648   -4.9896612    1.1019286      1024000 
  484000   0.73501428   -4.9890942   -4.9890942    -3.886575  0.010534503   -4.9890942    1.1025192      1024000 
  485000   0.73589559   -4.9897932   -4.9897932   -3.8859521  0.005789656   -4.9897932    1.1038411      1024000 
  486000   0.73510565   -4.9876167   -4.9876167   -3.8849605 0.0070091833   -4.9876167    1.1026562      1024000 
  487000   0.73540826   -4.9869252   -4.9869252    -3.883815 0.0041945006   -4.9869252    1.1031102      1024000 
  488000   0.73493372   -4.9857376   -4.9857376   -3.8833392 0.0051481745   -4.9857376    1.1023984      1024000 
  489000   0.73594793   -4.9867826   -4.9867826   -3.8828629 0.0014968304   -4.9867826    1.1039197      1024000 
  490000   0.73582104   -4.9864881   -4.9864881   -3.8827588 0.0061131174   -4.9864881    1.1037293      1024000 
  491000   0.73667439   -4.9863356   -4.9863356   -3.8813262  0.007685584   -4.9863356    1.1050093      1024000 
  492000   0.73735705   -4.9863195   -4.9863195   -3.8802862 0.0077107259   -4.9863195    1.1060333      1024000 
  493000   0.73762554   -4.9863057   -4.9863057   -3.8798697 0.0080282433   -4.9863057    1.1064361      1024000 
  494000   0.73849803   -4.9864178   -4.9864178    -3.878673 0.0062316502   -4.9864178    1.1077448      1024000 
  495000   0.73622826   -4.9825885   -4.9825885   -3.8782483  0.012280585   -4.9825885    1.1043401      1024000 
  496000   0.73742606    -4.983801    -4.983801   -3.8776642 0.0079369986    -4.983801    1.1061369      1024000 
  497000   0.73755644   -4.9820297   -4.9820297   -3.8756972 0.0069832134   -4.9820297    1.1063324      1024000 
  498000   0.73729271   -4.9809331   -4.9809331   -3.8749963 0.0064709266   -4.9809331    1.1059368      1024000 
  499000   0.73738988   -4.9808895   -4.9808895   -3.8748069 0.0026755652   -4.9808895    1.1060826      1024000 
  500000   0.73699288     -4.97876     -4.97876   -3.8732729 0.0080112284     -4.97876    1.1054871      1024000 
  501000   0.73895056   -4.9809256   -4.9809256    -3.872502 0.0043970911   -4.9809256    1.1084236      1024000 
  502000   0.73804477   -4.9793229   -4.9793229    -3.872258 0.0093366427   -4.9793229    1.1070649      1024000 
  503000   0.73866134   -4.9786816   -4.9786816   -3.8706918  0.010154518   -4.9786816    1.1079898      1024000 
  504000   0.73876049    -4.977562    -4.977562   -3.8694235  0.014038909    -4.977562    1.1081385      1024000 
  505000   0.73998168   -4.9787021   -4.9787021   -3.8687318 0.0099340508   -4.9787021    1.1099703      1024000 
  506000   0.73934983   -4.9763315   -4.9763315    -3.867309  0.012271093   -4.9763315    1.1090225      1024000 
  507000   0.73944813   -4.9760421   -4.9760421   -3.8668721  0.011137371   -4.9760421    1.1091699      1024000 
  508000   0.73874154    -4.974061    -4.974061   -3.8659509   0.01186092    -4.974061    1.1081101      1024000 
  509000    0.7391525    -4.974031    -4.974031   -3.8653045 0.0062245861    -4.974031    1.1087265      1024000 
  510000   0.73963378    -4.973031    -4.973031   -3.8635826 0.0056470456    -4.973031    1.1094484      1024000 
  511000   0.73886999   -4.9709343   -4.9709343   -3.8626316 0.0095177652   -4.9709343    1.1083027      1024000 
  512000   0.74070286   -4.9712732   -4.9712732   -3.8602212 0.0075383276   -4.9712732     1.111052      1024000 
  513000   0.74074471    -4.969859    -4.969859   -3.8587442 0.0097062442    -4.969859    1.1111148      1024000 
  514000   0.74170932   -4.9700355   -4.9700355   -3.8574738  0.006215099   -4.9700355    1.1125617      1024000 
  515000   0.74110506   -4.9684658   -4.9684658   -3.8568105  0.010644897   -4.9684658    1.1116553      1024000 
  516000   0.74151485   -4.9693011   -4.9693011   -3.8570311 0.0078671246   -4.9693011      1.11227      1024000 
  517000   0.74083511   -4.9674972   -4.9674972   -3.8562467  0.010801738   -4.9674972    1.1112504      1024000 
  518000   0.73967325   -4.9654158   -4.9654158   -3.8559082 0.0054891333   -4.9654158    1.1095076      1024000 
  519000   0.74023726   -4.9654987   -4.9654987   -3.8551451 0.0049589934   -4.9654987    1.1103536      1024000 
  520000   0.73989069   -4.9640585   -4.9640585   -3.8542247 0.0035620883   -4.9640585    1.1098338      1024000 
  521000   0.74081069    -4.964506    -4.964506   -3.8532922 0.00089002827    -4.964506    1.1112138      1024000 
  522000   0.73990556   -4.9628647   -4.9628647   -3.8530086 -0.0006469517   -4.9628647    1.1098561      1024000 
  523000   0.74127995    -4.962894    -4.962894   -3.8509763 -0.0031741119    -4.962894    1.1119177      1024000 
  524000   0.74012453   -4.9600489   -4.9600489   -3.8498644 0.0055938054   -4.9600489    1.1101845      1024000 
  525000   0.74123924    -4.960816    -4.960816   -3.8489594 0.00062470861    -4.960816    1.1118566      1024000 
  526000   0.74150023   -4.9598812   -4.9598812   -3.8476331 0.0003894506   -4.9598812    1.1122481      1024000 
  527000   0.74234201   -4.9606486   -4.9606486   -3.8471378 0.0025073777   -4.9606486    1.1135108      1024000 
  528000   0.74295542    -4.960784    -4.960784   -3.8463531 0.0012043909    -4.960784    1.1144309      1024000 
  529000   0.74249455   -4.9587163   -4.9587163   -3.8449767 0.0075673703   -4.9587163    1.1137396      1024000 
  530000   0.74352676   -4.9592185   -4.9592185   -3.8439306 0.0076414442   -4.9592185    1.1152879      1024000 
  531000   0.74297712   -4.9583749   -4.9583749   -3.8439115 0.0050404331   -4.9583749    1.1144634      1024000 
  532000   0.74237182   -4.9567661   -4.9567661   -3.8432106  0.010673457   -4.9567661    1.1135555      1024000 
  533000   0.74332836   -4.9572126   -4.9572126   -3.8422224  0.006946427   -4.9572126    1.1149903      1024000 
  534000    0.7431549   -4.9564277   -4.9564277   -3.8416976 0.0063438926   -4.9564277    1.1147301      1024000 
  535000   0.74359326   -4.9557617   -4.9557617    -3.840374  0.010112815   -4.9557617    1.1153876      1024000 
  536000   0.74427448   -4.9558609   -4.9558609   -3.8394515   0.01193017   -4.9558609    1.1164095      1024000 
  537000   0.74472494   -4.9551727   -4.9551727   -3.8380876  0.014179787   -4.9551727    1.1170851      1024000 
  538000   0.74577012   -4.9552505   -4.9552505   -3.8365976  0.012363151   -4.9552505    1.1186529      1024000 
  539000   0.74558787   -4.9543678   -4.9543678   -3.8359883  0.017421173   -4.9543678    1.1183795      1024000 
  540000   0.74579216   -4.9534385   -4.9534385   -3.8347526  0.018377713   -4.9534385     1.118686      1024000 
  541000   0.74684018   -4.9548343   -4.9548343   -3.8345763  0.013250254   -4.9548343     1.120258      1024000 
  542000   0.74605942   -4.9530489   -4.9530489   -3.8339621   0.01776143   -4.9530489    1.1190869      1024000 
  543000   0.74713484   -4.9530307   -4.9530307   -3.8323307  0.014136461   -4.9530307       1.1207      1024000 
  544000   0.74728496   -4.9529919   -4.9529919   -3.8320668   0.01318753   -4.9529919    1.1209252      1024000 
  545000   0.74730737   -4.9514074   -4.9514074   -3.8304486  0.012941555   -4.9514074    1.1209588      1024000 
  546000   0.74677576   -4.9495666   -4.9495666   -3.8294052  0.012511959   -4.9495666    1.1201614      1024000 
  547000   0.74665273   -4.9489365   -4.9489365   -3.8289597   0.00662038   -4.9489365    1.1199768      1024000 
  548000   0.74658982   -4.9464731   -4.9464731   -3.8265906 0.0091872293   -4.9464731    1.1198825      1024000 
  549000   0.74683493    -4.946321    -4.946321   -3.8260709  0.007421348    -4.946321    1.1202501      1024000 
  550000   0.74667523   -4.9458974   -4.9458974   -3.8258868 0.0076994422   -4.9458974    1.1200106      1024000 
  551000   0.74613434   -4.9439883   -4.9439883    -3.824789 0.0045367493   -4.9439883    1.1191992      1024000 
  552000   0.74549014   -4.9427394   -4.9427394   -3.8245065 0.0039852571   -4.9427394    1.1182329      1024000 
  553000   0.74660618   -4.9438427   -4.9438427   -3.8239357 -0.00045962907   -4.9438427     1.119907      1024000 
  554000    0.7469534   -4.9435243   -4.9435243   -3.8230965 0.0018058012   -4.9435243    1.1204278      1024000 
  555000   0.74644684   -4.9411885   -4.9411885   -3.8215205 0.00085084487   -4.9411885     1.119668      1024000 
  556000   0.74736812   -4.9413027   -4.9413027   -3.8202528 -0.0065570332   -4.9413027    1.1210499      1024000 
  557000   0.74616743   -4.9379347   -4.9379347   -3.8186859 0.0035179626   -4.9379347    1.1192489      1024000 
  558000   0.74675219    -4.937717    -4.937717    -3.817591 0.0023898646    -4.937717     1.120126      1024000 
  559000   0.74663935   -4.9361927   -4.9361927    -3.816236 0.0080486339   -4.9361927    1.1199567      1024000 
  560000   0.74812277   -4.9371254   -4.9371254   -3.8149435 0.0011440191   -4.9371254    1.1221819      1024000 
  561000   0.74853909   -4.9357895   -4.9357895   -3.8129831 0.0019012778   -4.9357895    1.1228064      1024000 
  562000   0.74849036   -4.9345414   -4.9345414   -3.8118081 0.0092349903   -4.9345414    1.1227333      1024000 
  563000   0.75036481   -4.9364966   -4.9364966   -3.8109517 0.0061868456   -4.9364966    1.1255449      1024000 
  564000   0.74860129   -4.9326248   -4.9326248   -3.8097251   0.01069416   -4.9326248    1.1228997      1024000 
  565000   0.75000816   -4.9343994   -4.9343994   -3.8093895 0.0074465477   -4.9343994      1.12501      1024000 
  566000   0.75101349   -4.9348086   -4.9348086   -3.8082906  0.006465372   -4.9348086    1.1265179      1024000 
  567000   0.75149628   -4.9334051   -4.9334051   -3.8061629 0.0086817167   -4.9334051    1.1272421      1024000 
  568000   0.75133375   -4.9338694   -4.9338694   -3.8068711  0.004929803   -4.9338694    1.1269983      1024000 
  569000   0.75078804   -4.9322964   -4.9322964   -3.8061166  0.012197833   -4.9322964    1.1261798      1024000 
  570000   0.75118731   -4.9319826   -4.9319826   -3.8052039 0.0087371566   -4.9319826    1.1267787      1024000 
  571000   0.75083879   -4.9306597   -4.9306597   -3.8044038 0.0067209644   -4.9306597    1.1262559      1024000 
  572000   0.75077161   -4.9299482   -4.9299482   -3.8037931  0.009370238   -4.9299482    1.1261551      1024000 
  573000   0.75131857    -4.930068    -4.930068   -3.8030924 0.0082377721    -4.930068    1.1269756      1024000 
  574000   0.75054855   -4.9279444   -4.9279444   -3.8021239 0.0078958899   -4.9279444    1.1258205      1024000 
  575000     0.751402   -4.9289569   -4.9289569   -3.8018561 0.0033183379   -4.9289569    1.1271007      1024000 
  576000   0.75188309   -4.9286639   -4.9286639   -3.8008415 0.0025544079   -4.9286639    1.1278224      1024000 
  577000   0.75057857   -4.9258975   -4.9258975    -3.800032 0.0070675437   -4.9258975    1.1258656      1024000 
  578000   0.75104484    -4.925464    -4.925464    -3.798899 0.0035182491    -4.925464     1.126565      1024000 
  579000   0.75156223   -4.9245085   -4.9245085   -3.7971675  0.007903204   -4.9245085    1.1273411      1024000 
  580000   0.75262989   -4.9246356   -4.9246356   -3.7956931 0.0062770398   -4.9246356    1.1289425      1024000 
  581000    0.7524373   -4.9237102   -4.9237102   -3.7950565 0.0091058626   -4.9237102    1.1286537      1024000 
  582000   0.75241624   -4.9229868   -4.9229868   -3.7943647   0.01097421   -4.9229868    1.1286221      1024000 
  583000   0.75247724   -4.9219262   -4.9219262   -3.7932126  0.014397376   -4.9219262    1.1287136      1024000 
  584000    0.7534931   -4.9224361   -4.9224361   -3.7921987  0.013019408   -4.9224361    1.1302374      1024000 
  585000   0.75341971   -4.9216232   -4.9216232   -3.7914959 0.0083702057   -4.9216232    1.1301273      1024000 
  586000    0.7541064   -4.9213643   -4.9213643    -3.790207 0.0080986802   -4.9213643    1.1311573      1024000 
  587000   0.75360582   -4.9192614   -4.9192614    -3.788855 0.0038466158   -4.9192614    1.1304064      1024000 
  588000    0.7532561   -4.9172776   -4.9172776   -3.7873957 0.0089664455   -4.9172776    1.1298819      1024000 
  589000   0.75487811   -4.9188593   -4.9188593   -3.7865444 0.0050035178   -4.9188593    1.1323149      1024000 
  590000   0.75431367   -4.9178028   -4.9178028   -3.7863346 0.0096975363   -4.9178028    1.1314682      1024000 
  591000   0.75544045   -4.9181739   -4.9181739   -3.7850156 0.0066928732   -4.9181739    1.1331584      1024000 
  592000   0.75575374   -4.9169457   -4.9169457   -3.7833174 0.0094189205   -4.9169457    1.1336283      1024000 
  593000   0.75603905    -4.916658    -4.916658   -3.7826017 0.0086757293    -4.916658    1.1340563      1024000 
  594000   0.75575492   -4.9152181   -4.9152181    -3.781588 0.0062225566   -4.9152181    1.1336301      1024000 
  595000    0.7546436    -4.912148    -4.912148   -3.7801849  0.011878056    -4.912148    1.1319631      1024000 
  596000   0.75658252   -4.9141376   -4.9141376   -3.7792661 0.0066867623   -4.9141376    1.1348715      1024000 
  597000   0.75632386   -4.9128658   -4.9128658   -3.7783823 0.0098866709   -4.9128658    1.1344835      1024000 
  598000   0.75665863   -4.9122677   -4.9122677   -3.7772821 0.0071192098   -4.9122677    1.1349856      1024000 
  599000   0.75610637   -4.9107614   -4.9107614   -3.7766042 0.0085932767   -4.9107614    1.1341572      1024000 
  600000   0.75570672   -4.9089495   -4.9089495   -3.7753917 0.0020051689   -4.9089495    1.1335578      1024000 
  601000   0.75517506   -4.9071443   -4.9071443    -3.774384  0.009775688   -4.9071443    1.1327603      1024000 
  602000   0.75651187   -4.9084572   -4.9084572   -3.7736917 0.0011759443   -4.9084572    1.1347655      1024000 
  603000   0.75636307   -4.9064279   -4.9064279   -3.7718856 0.0041010143   -4.9064279    1.1345423      1024000 
  604000   0.75669642   -4.9053501   -4.9053501   -3.7703078 0.0069258387   -4.9053501    1.1350423      1024000 
  605000   0.75609253   -4.9043907   -4.9043907   -3.7702542  0.008164218   -4.9043907    1.1341365      1024000 
  606000   0.75636791   -4.9031895   -4.9031895   -3.7686399 0.0088796686   -4.9031895    1.1345496      1024000 
  607000   0.75896812   -4.9049589   -4.9049589    -3.766509 0.0038724615   -4.9049589    1.1384499      1024000 
  608000   0.75733659   -4.9011995   -4.9011995   -3.7651969 0.0087406218   -4.9011995    1.1360026      1024000 
  609000   0.75802797   -4.9006167   -4.9006167    -3.763577 0.0088977743   -4.9006167    1.1370396      1024000 
  610000   0.75738402   -4.8994684   -4.8994684   -3.7633947  0.012174287   -4.8994684    1.1360737      1024000 
  611000    0.7581862   -4.8990059   -4.8990059   -3.7617289  0.010508587   -4.8990059     1.137277      1024000 
  612000   0.75909642   -4.8991605   -4.8991605   -3.7605182 0.0077267604   -4.8991605    1.1386423      1024000 
  613000   0.76006809   -4.8992748   -4.8992748    -3.759175 0.0034820676   -4.8992748    1.1400998      1024000 
  614000   0.75971737   -4.8977418   -4.8977418    -3.758168 0.0038977893   -4.8977418    1.1395737      1024000 
  615000    0.7586376   -4.8958011   -4.8958011    -3.757847   0.00462588   -4.8958011    1.1379541      1024000 
  616000   0.75999265   -4.8973605   -4.8973605   -3.7573738 0.0018523635   -4.8973605    1.1399867      1024000 
  617000   0.75993722   -4.8957126   -4.8957126    -3.755809  0.004303479   -4.8957126    1.1399035      1024000 
  618000   0.75880036   -4.8926321   -4.8926321   -3.7544338 0.0058351614   -4.8926321    1.1381982      1024000 
  619000   0.75904508    -4.892326    -4.892326   -3.7537607 0.0023388303    -4.892326    1.1385653      1024000 
  620000   0.75993499   -4.8920596   -4.8920596   -3.7521594 0.0023736667   -4.8920596    1.1399002      1024000 
  621000   0.75993875    -4.890705    -4.890705   -3.7507992 0.0063789103    -4.890705    1.1399058      1024000 
  622000   0.76087653   -4.8902212   -4.8902212   -3.7489087 0.0067751994   -4.8902212    1.1413125      1024000 
  623000   0.76181288   -4.8911079   -4.8911079   -3.7483909 0.0049417459   -4.8911079     1.142717      1024000 
  624000   0.76146125   -4.8900854   -4.8900854   -3.7478958  0.010502359   -4.8900854    1.1421896      1024000 
  625000    0.7620669   -4.8899453   -4.8899453   -3.7468472 0.0095712412   -4.8899453     1.143098      1024000 
  626000   0.76126198   -4.8880715   -4.8880715   -3.7461809  0.014125047   -4.8880715    1.1418906      1024000 
  627000   0.76129037   -4.8870795   -4.8870795   -3.7451462   0.01085033   -4.8870795    1.1419332      1024000 
  628000    0.7612116   -4.8857967   -4.8857967   -3.7439816  0.006907138   -4.8857967    1.1418151      1024000 
  629000   0.76163548   -4.8847606   -4.8847606   -3.7423097 0.0090530537   -4.8847606    1.1424509      1024000 
  630000   0.76213305   -4.8848852   -4.8848852   -3.7416879 0.0057799457   -4.8848852    1.1431973      1024000 
  631000   0.76061606   -4.8821354   -4.8821354   -3.7412137  0.012183617   -4.8821354    1.1409218      1024000 
  632000   0.76162288   -4.8830589   -4.8830589   -3.7406269 0.0055816477   -4.8830589     1.142432      1024000 
  633000   0.76170525   -4.8824264   -4.8824264   -3.7398709  0.008510699   -4.8824264    1.1425555      1024000 
  634000    0.7625244   -4.8826883   -4.8826883   -3.7389041 0.0036325136   -4.8826883    1.1437843      1024000 
  635000   0.76420735    -4.882924    -4.882924   -3.7366153 0.0033513855    -4.882924    1.1463087      1024000 
  636000   0.76408827   -4.8817672   -4.8817672   -3.7356371 0.0053202294   -4.8817672    1.1461301      1024000 
  637000     0.762546   -4.8785053   -4.8785053   -3.7346886   0.01563293   -4.8785053    1.1438167      1024000 
  638000    0.7643675   -4.8794075   -4.8794075   -3.7328585  0.010037906   -4.8794075    1.1465489      1024000 
  639000   0.76399462   -4.8781491   -4.8781491   -3.7321595  0.012932586   -4.8781491    1.1459896      1024000 
  640000   0.76493515   -4.8793883   -4.8793883   -3.7319879  0.006046168   -4.8793883    1.1474004      1024000 
  641000   0.76369142   -4.8772917   -4.8772917   -3.7317569 0.0085400259   -4.8772917    1.1455348      1024000 
  642000   0.76390323   -4.8764525   -4.8764525      -3.7306 0.0030671782   -4.8764525    1.1458525      1024000 
  643000   0.76294608   -4.8748563   -4.8748563   -3.7304395 0.0080833661   -4.8748563    1.1444168      1024000 
  644000   0.76336484   -4.8741575   -4.8741575   -3.7291125 0.0018372918   -4.8741575    1.1450449      1024000 
  645000   0.76373416   -4.8736005   -4.8736005   -3.7280015  0.005621853   -4.8736005    1.1455989      1024000 
  646000    0.7652203   -4.8739647   -4.8739647   -3.7261366 0.0036506502   -4.8739647    1.1478281      1024000 
  647000   0.76421954   -4.8724597   -4.8724597   -3.7261327 0.0050016851   -4.8724597     1.146327      1024000 
  648000   0.76499957    -4.873053    -4.873053    -3.725556 0.0037644836    -4.873053     1.147497      1024000 
  649000   0.76463355   -4.8713023   -4.8713023   -3.7243543 0.0065395572   -4.8713023     1.146948      1024000 
  650000   0.76460257   -4.8699435   -4.8699435   -3.7230419 0.0051711302   -4.8699435    1.1469015      1024000 
  651000      0.76477   -4.8694509   -4.8694509   -3.7222982  0.010625936   -4.8694509    1.1471527      1024000 
  652000   0.76564484   -4.8688165   -4.8688165   -3.7203516 0.0095940635   -4.8688165    1.1484649      1024000 
  653000   0.76538641   -4.8676979   -4.8676979   -3.7196206 0.0083031689   -4.8676979    1.1480773      1024000 
  654000   0.76606569   -4.8674866   -4.8674866   -3.7183904 0.0064461959   -4.8674866    1.1490962      1024000 
  655000   0.76527838   -4.8661244   -4.8661244   -3.7182092 0.0059217752   -4.8661244    1.1479152      1024000 
  656000   0.76627811    -4.866782    -4.866782   -3.7173671 0.0052357885    -4.866782    1.1494148      1024000 
  657000   0.76620151    -4.865199    -4.865199   -3.7158991 0.0054440452    -4.865199    1.1492999      1024000 
  658000   0.76642468   -4.8643976   -4.8643976   -3.7147629 0.0090584656   -4.8643976    1.1496347      1024000 
  659000   0.76777201   -4.8649049   -4.8649049   -3.7132492  0.010571865   -4.8649049    1.1516557      1024000 
  660000   0.76916213   -4.8670996   -4.8670996   -3.7133587 0.0043887608   -4.8670996    1.1537408      1024000 
  661000   0.76763706    -4.864282    -4.864282   -3.7128287 0.0067959071    -4.864282    1.1514532      1024000 
  662000   0.76849843   -4.8631588   -4.8631588   -3.7104135 0.0060277312   -4.8631588    1.1527453      1024000 
  663000   0.76817526   -4.8626788   -4.8626788   -3.7104183  0.014642863   -4.8626788    1.1522606      1024000 
  664000   0.76892967   -4.8618666   -4.8618666   -3.7084744  0.011840023   -4.8618666    1.1533922      1024000 
  665000   0.76868986   -4.8597354   -4.8597354    -3.706703  0.013925116   -4.8597354    1.1530324      1024000 
  666000   0.77080255    -4.861992    -4.861992   -3.7057906 0.0079025883    -4.861992    1.1562015      1024000 
  667000   0.77037072   -4.8597058   -4.8597058    -3.704152  0.011668043   -4.8597058    1.1555537      1024000 
  668000   0.77037439   -4.8584998   -4.8584998   -3.7029405 0.0071216427   -4.8584998    1.1555592      1024000 
  669000   0.76965847   -4.8561727   -4.8561727   -3.7016874 0.0099031079   -4.8561727    1.1544854      1024000 
  670000   0.77030898   -4.8560851   -4.8560851    -3.700624 0.0091600243   -4.8560851    1.1554611      1024000 
  671000    0.7705631    -4.855219    -4.855219   -3.6993767  0.012157013    -4.855219    1.1558423      1024000 
  672000   0.77042335    -4.853963    -4.853963   -3.6983303  0.012616334    -4.853963    1.1556327      1024000 
  673000   0.77158666   -4.8551305   -4.8551305   -3.6977529 0.0082470866   -4.8551305    1.1573776      1024000 
  674000    0.7712029   -4.8537618   -4.8537618   -3.6969598 0.0045975325   -4.8537618     1.156802      1024000 
  675000    0.7696243   -4.8515712   -4.8515712   -3.6971371 0.0062879356   -4.8515712    1.1544341      1024000 
  676000   0.76987542   -4.8509803   -4.8509803   -3.6961695 -0.00053906552   -4.8509803    1.1548108      1024000 
  677000   0.76900385   -4.8491099   -4.8491099   -3.6956065 0.0032188319   -4.8491099    1.1535034      1024000 
  678000    0.7697363   -4.8480818   -4.8480818   -3.6934797 0.0031548858   -4.8480818    1.1546021      1024000 
  679000     0.769968    -4.847187    -4.847187   -3.6922373 0.0033157478    -4.847187    1.1549497      1024000 
  680000   0.77081819   -4.8476598   -4.8476598   -3.6914349 0.00097005664   -4.8476598    1.1562249      1024000 
  681000   0.77031494   -4.8445722   -4.8445722   -3.6891021 0.0092860958   -4.8445722    1.1554701      1024000 
  682000   0.77229491   -4.8461865   -4.8461865   -3.6877465 0.0064723855   -4.8461865      1.15844      1024000 
  683000   0.77210272    -4.843557    -4.843557   -3.6854053  0.015424745    -4.843557    1.1581517      1024000 
  684000   0.77335815   -4.8443426   -4.8443426   -3.6843077 0.0097214574   -4.8443426    1.1600349      1024000 
  685000   0.77333872   -4.8430157   -4.8430157   -3.6830099  0.012652056   -4.8430157    1.1600057      1024000 
  686000   0.77309558   -4.8425927   -4.8425927   -3.6829516  0.014217866   -4.8425927     1.159641      1024000 
  687000   0.77339772   -4.8421507   -4.8421507   -3.6820565 0.0091070955   -4.8421507    1.1600942      1024000 
  688000   0.77276301   -4.8407876   -4.8407876   -3.6816455 0.0089247725   -4.8407876    1.1591422      1024000 
  689000   0.77337746   -4.8389639   -4.8389639      -3.6789 0.0081858227   -4.8389639    1.1600638      1024000 
  690000    0.7732703   -4.8371127   -4.8371127   -3.6772096  0.010406399   -4.8371127    1.1599031      1024000 
  691000   0.77262657   -4.8367202   -4.8367202   -3.6777827 0.0074548884   -4.8367202    1.1589375      1024000 
  692000   0.77321172   -4.8355859   -4.8355859   -3.6757707  0.010282853   -4.8355859    1.1598152      1024000 
  693000   0.77345532    -4.834288    -4.834288   -3.6741074  0.013904599    -4.834288    1.1601806      1024000 
  694000   0.77357054    -4.834164    -4.834164   -3.6738105  0.012705124    -4.834164    1.1603535      1024000 
  695000   0.77496736   -4.8350687   -4.8350687     -3.67262  0.011459687   -4.8350687    1.1624487      1024000 
  696000   0.77483064   -4.8331018   -4.8331018   -3.6708582   0.01330641   -4.8331018    1.1622436      1024000 
  697000   0.77487987   -4.8317073   -4.8317073   -3.6693898  0.015843661   -4.8317073    1.1623174      1024000 
  698000   0.77649547   -4.8328188   -4.8328188    -3.668078  0.010756272   -4.8328188    1.1647408      1024000 
  699000   0.77562752   -4.8307007   -4.8307007   -3.6672618  0.011900146   -4.8307007    1.1634389      1024000 
  700000   0.77523814   -4.8295303   -4.8295303   -3.6666755 0.0062217342   -4.8295303    1.1628548      1024000 
  701000   0.77602598   -4.8289846   -4.8289846    -3.664948 0.0071951874   -4.8289846    1.1640366      1024000 
  702000   0.77697943   -4.8297118   -4.8297118    -3.664245 0.0043238036   -4.8297118    1.1654668      1024000 
  703000   0.77707981   -4.8279226   -4.8279226   -3.6623052 0.0073235631   -4.8279226    1.1656173      1024000 
  704000   0.77610226   -4.8259931   -4.8259931    -3.661842 0.0070709808   -4.8259931     1.164151      1024000 
  705000   0.77625058   -4.8252103   -4.8252103   -3.6608368 0.00092328518   -4.8252103    1.1643735      1024000 
  706000   0.77731473   -4.8248088   -4.8248088   -3.6588391 0.0047221433   -4.8248088    1.1659697      1024000 
  707000   0.77669673   -4.8235839   -4.8235839   -3.6585411 0.0077925361   -4.8235839    1.1650427      1024000 
  708000   0.77754218   -4.8230363   -4.8230363   -3.6567254 0.0054013354   -4.8230363    1.1663109      1024000 
  709000   0.77809653   -4.8228604   -4.8228604    -3.655718  0.005221475   -4.8228604    1.1671424      1024000 
  710000   0.77773615   -4.8211179   -4.8211179    -3.654516  0.005305242   -4.8211179    1.1666019      1024000 
  711000   0.77825259   -4.8202086   -4.8202086   -3.6528321 0.0065838801   -4.8202086    1.1673765      1024000 
  712000   0.77791952   -4.8195968   -4.8195968   -3.6527199  0.005528155   -4.8195968    1.1668769      1024000 
  713000   0.77750788   -4.8180925   -4.8180925   -3.6518331 0.0067304202   -4.8180925    1.1662594      1024000 
  714000    0.7785803   -4.8182255   -4.8182255   -3.6503574 0.0047199471   -4.8182255    1.1678681      1024000 
  715000   0.77868091   -4.8160746   -4.8160746   -3.6480556 0.0076355818   -4.8160746     1.168019      1024000 
  716000   0.77966419   -4.8155103   -4.8155103   -3.6460164 0.0088829674   -4.8155103    1.1694939      1024000 
  717000   0.78035088   -4.8146402   -4.8146402   -3.6441163 0.0070173233   -4.8146402    1.1705239      1024000 
  718000   0.78048569   -4.8132761   -4.8132761   -3.6425499 0.0088221133   -4.8132761    1.1707262      1024000 
  719000   0.78045057   -4.8115075   -4.8115075    -3.640834  0.011858231   -4.8115075    1.1706735      1024000 
  720000   0.78121072   -4.8121482   -4.8121482   -3.6403345  0.013933308   -4.8121482    1.1718137      1024000 
  721000   0.78141624    -4.811404    -4.811404    -3.639282  0.014185407    -4.811404     1.172122      1024000 
  722000   0.78217402   -4.8118022   -4.8118022   -3.6385436   0.01026312   -4.8118022    1.1732586      1024000 
  723000   0.78082194   -4.8082872   -4.8082872   -3.6370567  0.013517008   -4.8082872    1.1712305      1024000 
  724000   0.78196819   -4.8082884   -4.8082884   -3.6353385  0.011336421   -4.8082884    1.1729499      1024000 
  725000   0.78126457   -4.8079187   -4.8079187   -3.6360242  0.012032502   -4.8079187    1.1718945      1024000 
  726000   0.78133502     -4.80669     -4.80669   -3.6346899 0.0045021255     -4.80669    1.1720002      1024000 
  727000   0.78106036   -4.8039262   -4.8039262   -3.6323381 0.0066200906   -4.8039262    1.1715882      1024000 
  728000   0.78327351   -4.8057939   -4.8057939    -3.630886 -0.0011265559   -4.8057939    1.1749079      1024000 
  729000   0.78120359   -4.8017848   -4.8017848   -3.6299818 0.0048198677   -4.8017848     1.171803      1024000 
  730000   0.78249751   -4.8026098   -4.8026098   -3.6288659 0.0012701733   -4.8026098    1.1737439      1024000 
  731000   0.78164944   -4.8002044   -4.8002044   -3.6277327 0.00078652041   -4.8002044    1.1724718      1024000 
  732000   0.78067087    -4.797924    -4.797924     -3.62692 0.0062558998    -4.797924    1.1710039      1024000 
  733000   0.78208215   -4.7981998   -4.7981998    -3.625079 0.0056219679   -4.7981998    1.1731208      1024000 
  734000   0.78242237   -4.7970908   -4.7970908   -3.6234597  0.002838067   -4.7970908    1.1736312      1024000 
  735000   0.78346779   -4.7970281   -4.7970281   -3.6218288 0.0033077419   -4.7970281    1.1751993      1024000 
  736000   0.78274045   -4.7946374   -4.7946374   -3.6205291 0.0037320083   -4.7946374    1.1741083      1024000 
  737000   0.78288868   -4.7928543   -4.7928543   -3.6185236 0.0093655556   -4.7928543    1.1743306      1024000 
  738000   0.78340597   -4.7929865   -4.7929865   -3.6178799  0.010780757   -4.7929865    1.1751066      1024000 
  739000   0.78372521   -4.7917136   -4.7917136   -3.6161282   0.01012798   -4.7917136    1.1755854      1024000 
  740000   0.78414593   -4.7910392   -4.7910392   -3.6148227  0.012008278   -4.7910392    1.1762165      1024000 
  741000   0.78468211   -4.7903282   -4.7903282   -3.6133074 0.0094652082   -4.7903282    1.1770208      1024000 
  742000    0.7855272   -4.7903076   -4.7903076   -3.6120192 0.0068683967   -4.7903076    1.1782884      1024000 
  743000   0.78637436   -4.7907265   -4.7907265   -3.6111673 0.0055215196   -4.7907265    1.1795591      1024000 
  744000   0.78567859   -4.7878616   -4.7878616   -3.6093461  0.010906396   -4.7878616    1.1785155      1024000 
  745000   0.78557674   -4.7856442   -4.7856442   -3.6072815  0.012000636   -4.7856442    1.1783627      1024000 
  746000   0.78623061   -4.7855808   -4.7855808   -3.6062373 0.0044204226   -4.7855808    1.1793435      1024000 
  747000   0.78662478   -4.7861303   -4.7861303   -3.6061956 0.0051909124   -4.7861303    1.1799348      1024000 
  748000   0.78694164   -4.7858473   -4.7858473   -3.6054372 0.0046502243   -4.7858473    1.1804101      1024000 
  749000    0.7856787   -4.7836826   -4.7836826   -3.6051669 0.0077099419   -4.7836826    1.1785157      1024000 
  750000   0.78647623   -4.7845301   -4.7845301   -3.6048181 0.0010208972   -4.7845301    1.1797119      1024000 
  751000    0.7856955   -4.7825824   -4.7825824   -3.6040415 0.0083674461   -4.7825824    1.1785409      1024000 
  752000   0.78659734   -4.7826805   -4.7826805   -3.6027869 0.0046424707   -4.7826805    1.1798936      1024000 
  753000   0.78559786   -4.7796515   -4.7796515   -3.6012571  0.012426348   -4.7796515    1.1783944      1024000 
  754000   0.78775437   -4.7817086   -4.7817086   -3.6000794 -0.00041659456   -4.7817086    1.1816292      1024000 
  755000   0.78686104   -4.7790659   -4.7790659   -3.5987767 0.0038578251   -4.7790659    1.1802892      1024000 
  756000   0.78710772   -4.7785011   -4.7785011   -3.5978419 0.0048712536   -4.7785011    1.1806592      1024000 
  757000   0.78619001   -4.7773512   -4.7773512   -3.5980686 0.0085257824   -4.7773512    1.1792826      1024000 
  758000   0.78738136   -4.7779602   -4.7779602   -3.5968906 0.0021507876   -4.7779602    1.1810696      1024000 
  759000   0.78751375   -4.7764639   -4.7764639   -3.5951957 0.0069712926   -4.7764639    1.1812682      1024000 
  760000   0.78864857   -4.7759067   -4.7759067   -3.5929362 0.0083828596   -4.7759067    1.1829705      1024000 
  761000   0.78977897    -4.776571    -4.776571   -3.5919049 0.0068785894    -4.776571     1.184666      1024000 
  762000   0.78968189   -4.7752378   -4.7752378   -3.5907174  0.011432301   -4.7752378    1.1845204      1024000 
  763000   0.79038004   -4.7739719   -4.7739719   -3.5884043  0.015740676   -4.7739719    1.1855676      1024000 
  764000   0.78922499   -4.7720146   -4.7720146   -3.5881795  0.017186564   -4.7720146    1.1838351      1024000 
  765000   0.79062459   -4.7727075   -4.7727075    -3.586773  0.010486284   -4.7727075    1.1859345      1024000 
  766000   0.79035436   -4.7708275   -4.7708275   -3.5852983  0.013482121   -4.7708275    1.1855291      1024000 
  767000   0.79034553   -4.7704839   -4.7704839    -3.584968 0.0095572351   -4.7704839    1.1855159      1024000 
  768000   0.79064219   -4.7692404   -4.7692404   -3.5832795 0.0071258524   -4.7692404    1.1859609      1024000 
  769000    0.7892954   -4.7660626   -4.7660626   -3.5821219 0.0078171841   -4.7660626    1.1839407      1024000 
  770000   0.79037608   -4.7664097   -4.7664097   -3.5808479 0.0060246203   -4.7664097    1.1855617      1024000 
  771000   0.79198966   -4.7677343   -4.7677343   -3.5797522 0.0056426625   -4.7677343    1.1879821      1024000 
  772000   0.79196143   -4.7655785   -4.7655785   -3.5776387 0.0064914833   -4.7655785    1.1879397      1024000 
  773000   0.79128203   -4.7644841   -4.7644841   -3.5775635 0.0093626995   -4.7644841    1.1869206      1024000 
  774000   0.79248506   -4.7652037   -4.7652037   -3.5764785 0.0073248993   -4.7652037    1.1887252      1024000 
  775000   0.79243281   -4.7639376   -4.7639376   -3.5752908 0.0062810138   -4.7639376    1.1886468      1024000 
  776000   0.79334817   -4.7642305   -4.7642305   -3.5742106 0.0044854704   -4.7642305    1.1900198      1024000 
  777000   0.79229042   -4.7615209   -4.7615209   -3.5730877 0.0036663922   -4.7615209    1.1884332      1024000 
  778000   0.79283931   -4.7604465   -4.7604465     -3.57119 0.0054513821   -4.7604465    1.1892566      1024000 
  779000   0.79197869   -4.7576625   -4.7576625   -3.5696968  0.010263399   -4.7576625    1.1879656      1024000 
  780000   0.79216139   -4.7570986   -4.7570986    -3.568859 0.0063029065   -4.7570986    1.1882397      1024000 
  781000    0.7921923   -4.7558332   -4.7558332   -3.5675472 0.0031576081   -4.7558332     1.188286      1024000 
  782000   0.79279028   -4.7547317   -4.7547317   -3.5655486 -0.00032180043   -4.7547317     1.189183      1024000 
  783000   0.79289623   -4.7541757   -4.7541757   -3.5648338 0.0039315547   -4.7541757    1.1893419      1024000 
  784000   0.79224822   -4.7511443   -4.7511443   -3.5627744 0.0075085156   -4.7511443    1.1883699      1024000 
  785000   0.79386435   -4.7515858   -4.7515858   -3.5607917 0.0078276301   -4.7515858    1.1907941      1024000 
  786000   0.79507465    -4.751991    -4.751991   -3.5593815 0.0069461631    -4.751991    1.1926096      1024000 
  787000   0.79496928   -4.7517827   -4.7517827   -3.5593312 0.0080909152   -4.7517827    1.1924515      1024000 
  788000   0.79461137   -4.7507379   -4.7507379   -3.5588233  0.012284103   -4.7507379    1.1919146      1024000 
  789000   0.79588733   -4.7509124   -4.7509124   -3.5570838 0.0039289826   -4.7509124    1.1938286      1024000 
  790000   0.79466464   -4.7476771   -4.7476771   -3.5556825 0.0047816398   -4.7476771    1.1919945      1024000 
  791000   0.79438903   -4.7464097   -4.7464097   -3.5548285  0.001851364   -4.7464097    1.1915811      1024000 
  792000    0.7940487   -4.7452634   -4.7452634   -3.5541927 0.0016355265   -4.7452634    1.1910706      1024000 
  793000   0.79439886   -4.7446463   -4.7446463   -3.5530505 -0.0026380442   -4.7446463    1.1915959      1024000 
  794000   0.79507661   -4.7424109   -4.7424109   -3.5497984 2.0898825e-06   -4.7424109    1.1926125      1024000 
  795000   0.79554127   -4.7428958   -4.7428958   -3.5495863 -1.4359629e-06   -4.7428958    1.1933095      1024000 
  796000   0.79443191   -4.7394322   -4.7394322   -3.5477868 0.0070847728   -4.7394322    1.1916454      1024000 
  797000   0.79581582   -4.7411365   -4.7411365   -3.5474152 0.0026234611   -4.7411365    1.1937213      1024000 
  798000    0.7965972   -4.7412388   -4.7412388   -3.5463454  0.011078445   -4.7412388    1.1948934      1024000 
  799000   0.79696049   -4.7398458   -4.7398458   -3.5444075  0.014755239   -4.7398458    1.1954383      1024000 
  800000    0.7988369   -4.7410234   -4.7410234   -3.5427705  0.013307645   -4.7410234    1.1982529      1024000 
  801000   0.79878874   -4.7396567   -4.7396567    -3.541476  0.013339892   -4.7396567    1.1981807      1024000 
  802000   0.79911077   -4.7384387   -4.7384387   -3.5397749  0.015419798   -4.7384387    1.1986637      1024000 
  803000   0.80020547   -4.7382727   -4.7382727    -3.537967  0.009260164   -4.7382727    1.2003058      1024000 
  804000   0.79949853   -4.7355958   -4.7355958   -3.5363505  0.012635032   -4.7355958    1.1992454      1024000 
  805000   0.80070741   -4.7358127   -4.7358127    -3.534754  0.012431971   -4.7358127    1.2010587      1024000 
  806000   0.79954891   -4.7333289   -4.7333289    -3.534008 0.0079858022   -4.7333289    1.1993209      1024000 
  807000   0.79984628   -4.7327708   -4.7327708   -3.5330038 0.0060217624   -4.7327708     1.199767      1024000 
  808000   0.79985334   -4.7313387   -4.7313387   -3.5315611  0.011023279   -4.7313387    1.1997776      1024000 
  809000   0.80027063   -4.7306222   -4.7306222   -3.5302187  0.011024501   -4.7306222    1.2004035      1024000 
  810000   0.80031428   -4.7291422   -4.7291422   -3.5286732   0.01180251   -4.7291422     1.200469      1024000 
  811000   0.80126738   -4.7293353   -4.7293353   -3.5274367  0.011191487   -4.7293353    1.2018986      1024000 
  812000   0.80119685   -4.7280492   -4.7280492   -3.5262564  0.013066613   -4.7280492    1.2017928      1024000 
  813000    0.8016318   -4.7275788   -4.7275788   -3.5251335 0.0052844485   -4.7275788    1.2024453      1024000 
  814000   0.80100378   -4.7251097   -4.7251097   -3.5236065 0.0082553398   -4.7251097    1.2015032      1024000 
  815000   0.80091062    -4.723333    -4.723333   -3.5219695  0.010227948    -4.723333    1.2013635      1024000 
  816000   0.80199014   -4.7232128   -4.7232128     -3.52023 0.0044404036   -4.7232128    1.2029828      1024000 
  817000   0.79980911    -4.719685    -4.719685   -3.5199738  0.011359854    -4.719685    1.1997112      1024000 
  818000    0.8015163   -4.7205932   -4.7205932   -3.5183212 0.0064740932   -4.7205932     1.202272      1024000 
  819000   0.80034837   -4.7170622   -4.7170622   -3.5165421 0.0081671428   -4.7170622    1.2005201      1024000 
  820000   0.80181476   -4.7181743   -4.7181743   -3.5154546 0.0055842153   -4.7181743    1.2027197      1024000 
  821000   0.80193214   -4.7174304   -4.7174304   -3.5145346 0.0047000751   -4.7174304    1.2028958      1024000 
  822000   0.80222493   -4.7169851   -4.7169851   -3.5136502 0.0039160738   -4.7169851    1.2033349      1024000 
  823000   0.80060705   -4.7136988   -4.7136988   -3.5127906  0.012178499   -4.7136988    1.2009081      1024000 
  824000     0.802203   -4.7145072   -4.7145072   -3.5112052 -0.0014832234   -4.7145072    1.2033021      1024000 
  825000   0.80169331   -4.7125492   -4.7125492   -3.5100117 0.0011751273   -4.7125492    1.2025375      1024000 
  826000   0.80192821   -4.7121566   -4.7121566   -3.5092667 -0.0019272423   -4.7121566    1.2028899      1024000 
  827000   0.80172982   -4.7104753   -4.7104753    -3.507883 -0.0027840415   -4.7104753    1.2025923      1024000 
  828000   0.80147428   -4.7077778   -4.7077778   -3.5055688 -0.0029204828   -4.7077778     1.202209      1024000 
  829000   0.80239958   -4.7070734   -4.7070734   -3.5034765 0.0019600606   -4.7070734    1.2035969      1024000 
  830000   0.80382566    -4.707948    -4.707948    -3.502212 0.0010231248    -4.707948     1.205736      1024000 
  831000    0.8034091   -4.7060451   -4.7060451   -3.5009339 0.0043245524   -4.7060451    1.2051112      1024000 
  832000   0.80441559    -4.706532    -4.706532    -3.499911 0.0079507205    -4.706532    1.2066209      1024000 
  833000   0.80519102   -4.7066551   -4.7066551    -3.498871 0.0059616244   -4.7066551    1.2077841      1024000 
  834000   0.80535462   -4.7053193   -4.7053193   -3.4972898    0.0113825   -4.7053193    1.2080295      1024000 
  835000   0.80594799    -4.704362    -4.704362   -3.4954425  0.013024888    -4.704362    1.2089195      1024000 
  836000   0.80658236   -4.7032549   -4.7032549   -3.4933839 0.0087311111   -4.7032549    1.2098711      1024000 
  837000    0.8057982   -4.7013055   -4.7013055   -3.4926107 0.0090362654   -4.7013055    1.2086948      1024000 
  838000   0.80569884   -4.7004738   -4.7004738    -3.491928  0.010953382   -4.7004738    1.2085458      1024000 
  839000   0.80546901   -4.6985883   -4.6985883   -3.4903872  0.011092525   -4.6985883    1.2082011      1024000 
  840000   0.80601348    -4.698864    -4.698864   -3.4898463 0.0034311514    -4.698864    1.2090178      1024000 
  841000   0.80639896   -4.6978886   -4.6978886   -3.4882926 0.0066237486   -4.6978886     1.209596      1024000 
  842000   0.80714509   -4.6974217   -4.6974217   -3.4867065 0.0061743945   -4.6974217    1.2107152      1024000 
  843000   0.80689452   -4.6956916   -4.6956916   -3.4853522 0.0012194617   -4.6956916    1.2103393      1024000 
  844000   0.80678353   -4.6942707   -4.6942707   -3.4840979 0.0053906501   -4.6942707    1.2101728      1024000 
  845000   0.80801465   -4.6954303   -4.6954303   -3.4834108 0.0096784608   -4.6954303    1.2120195      1024000 
  846000   0.80786747   -4.6935071   -4.6935071   -3.4817083  0.009974564   -4.6935071    1.2117987      1024000 
  847000   0.80949555   -4.6931213   -4.6931213   -3.4788804  0.013745233   -4.6931213    1.2142409      1024000 
  848000   0.80953487   -4.6919451   -4.6919451   -3.4776453  0.008705609   -4.6919451    1.2142998      1024000 
  849000    0.8084889   -4.6898583   -4.6898583   -3.4771274  0.014824079   -4.6898583    1.2127309      1024000 
  850000   0.80849571   -4.6888811   -4.6888811   -3.4761399  0.012840315   -4.6888811    1.2127411      1024000 
  851000    0.8090535   -4.6878912   -4.6878912   -3.4743135  0.013041708   -4.6878912    1.2135778      1024000 
  852000   0.80957254    -4.687404    -4.687404   -3.4730476  0.010130397    -4.687404    1.2143564      1024000 
  853000   0.81046143   -4.6863757   -4.6863757    -3.470686  0.010150077   -4.6863757    1.2156897      1024000 
  854000   0.81003208   -4.6849233   -4.6849233   -3.4698777 0.0074948394   -4.6849233    1.2150457      1024000 
  855000   0.80900477   -4.6819126   -4.6819126   -3.4684079   0.01113551   -4.6819126    1.2135047      1024000 
  856000   0.81053839   -4.6823319   -4.6823319   -3.4665268 0.0064763956   -4.6823319    1.2158051      1024000 
  857000   0.81047195   -4.6818059   -4.6818059   -3.4661004 0.0056692479   -4.6818059    1.2157055      1024000 
  858000   0.81084211   -4.6820033   -4.6820033   -3.4657426 0.0041338998   -4.6820033    1.2162607      1024000 
  859000   0.80978117   -4.6790464   -4.6790464   -3.4643771 0.0099090009   -4.6790464    1.2146693      1024000 
  860000   0.80949342   -4.6777619   -4.6777619   -3.4635243 0.0074781534   -4.6777619    1.2142377      1024000 
  861000   0.81105273    -4.677496    -4.677496   -3.4609194 0.0081361082    -4.677496    1.2165766      1024000 
  862000   0.81131319   -4.6771823   -4.6771823    -3.460215 0.0040393756   -4.6771823    1.2169673      1024000 
  863000   0.81041777   -4.6747926   -4.6747926   -3.4591684 0.0040177329   -4.6747926    1.2156242      1024000 
  864000   0.81010708   -4.6731519   -4.6731519   -3.4579937 0.0028560995   -4.6731519    1.2151582      1024000 
  865000   0.81084052    -4.672618    -4.672618   -3.4563597 0.0080816347    -4.672618    1.2162583      1024000 
  866000   0.81196376   -4.6724804   -4.6724804   -3.4545372 0.0089979249   -4.6724804    1.2179432      1024000 
  867000   0.81211237    -4.670939    -4.670939   -3.4527729 0.0097418326    -4.670939    1.2181661      1024000 
  868000   0.81199208   -4.6700705   -4.6700705   -3.4520848  0.012009366   -4.6700705    1.2179857      1024000 
  869000   0.81226152   -4.6692124   -4.6692124   -3.4508226 0.0092942519   -4.6692124    1.2183898      1024000 
  870000   0.81287686   -4.6680312   -4.6680312   -3.4487184 0.0066316105   -4.6680312    1.2193128      1024000 
  871000   0.81230835   -4.6661153   -4.6661153   -3.4476552 0.0093322083   -4.6661153      1.21846      1024000 
  872000   0.81244017   -4.6640662   -4.6640662   -3.4454084 0.0099450476   -4.6640662    1.2186578      1024000 
  873000   0.81350758   -4.6641293   -4.6641293   -3.4438704 0.0071479131   -4.6641293    1.2202589      1024000 
  874000   0.81262762   -4.6616638   -4.6616638   -3.4427248 0.0060214888   -4.6616638     1.218939      1024000 
  875000   0.81410206   -4.6611388   -4.6611388   -3.4399882 0.0083119078   -4.6611388    1.2211506      1024000 
  876000   0.81506365   -4.6620122   -4.6620122   -3.4394192  0.003404474   -4.6620122     1.222593      1024000 
  877000   0.81467078   -4.6594729   -4.6594729   -3.4374692 0.0087555776   -4.6594729    1.2220037      1024000 
  878000   0.81476007   -4.6571816   -4.6571816    -3.435044 0.0095643964   -4.6571816    1.2221376      1024000 
  879000    0.8163972   -4.6579713   -4.6579713    -3.433378   0.00977608   -4.6579713    1.2245933      1024000 
  880000   0.81541655   -4.6565677   -4.6565677   -3.4334454 0.0061276558   -4.6565677    1.2231223      1024000 
  881000   0.81540007   -4.6561263   -4.6561263   -3.4330287  0.015059648   -4.6561263    1.2230976      1024000 
  882000   0.81619794   -4.6563766   -4.6563766   -3.4320822  0.011073649   -4.6563766    1.2242944      1024000 
  883000   0.81649488    -4.655548    -4.655548   -3.4308082 0.0066120637    -4.655548    1.2247398      1024000 
  884000   0.81685291   -4.6531484   -4.6531484   -3.4278715 0.0088543362   -4.6531484    1.2252769      1024000 
  885000   0.81691473   -4.6524157   -4.6524157   -3.4270461 0.0079098885   -4.6524157    1.2253696      1024000 
  886000   0.81809381   -4.6531048   -4.6531048   -3.4259666 0.00043479593   -4.6531048    1.2271382      1024000 
  887000   0.81729559   -4.6500498   -4.6500498   -3.4241089 0.0038106528   -4.6500498    1.2259409      1024000 
  888000   0.81618874   -4.6473076   -4.6473076   -3.4230269 0.0021419699   -4.6473076    1.2242806      1024000 
  889000    0.8158245   -4.6464722   -4.6464722   -3.4227379 0.0061214881   -4.6464722    1.2237343      1024000 
  890000   0.81621373   -4.6473809   -4.6473809   -3.4230628 0.0085572824   -4.6473809    1.2243181      1024000 
  891000    0.8163806   -4.6462191   -4.6462191   -3.4216507  0.004384134   -4.6462191    1.2245684      1024000 
  892000   0.81737352   -4.6457577   -4.6457577      -3.4197 0.0048117434   -4.6457577    1.2260578      1024000 
  893000   0.81724555    -4.644255    -4.644255   -3.4183892 0.0065373747    -4.644255    1.2258658      1024000 
  894000   0.81784612   -4.6431598   -4.6431598   -3.4163931 0.0030882496   -4.6431598    1.2267667      1024000 
  895000   0.81737373   -4.6417148   -4.6417148   -3.4156567 0.0068210569   -4.6417148    1.2260581      1024000 
  896000   0.81750076   -4.6407656   -4.6407656   -3.4145169 0.0071309311   -4.6407656    1.2262487      1024000 
  897000   0.81963283     -4.64213     -4.64213   -3.4126833  0.010853772     -4.64213    1.2294467      1024000 
  898000   0.82057631   -4.6415694   -4.6415694   -3.4107075 0.0091505639   -4.6415694     1.230862      1024000 
  899000   0.82043592   -4.6401368   -4.6401368   -3.4094854 0.0080383926   -4.6401368    1.2306514      1024000 
  900000   0.82033591   -4.6392578   -4.6392578   -3.4087564  0.009989098   -4.6392578    1.2305014      1024000 
  901000   0.82001825   -4.6380561   -4.6380561   -3.4080313   0.01069729   -4.6380561    1.2300249      1024000 
  902000   0.81994764   -4.6364541   -4.6364541   -3.4065351  0.011524312   -4.6364541     1.229919      1024000 
  903000   0.81929358   -4.6335122   -4.6335122   -3.4045743  0.013596606   -4.6335122    1.2289379      1024000 
  904000   0.82123354   -4.6350069   -4.6350069   -3.4031591  0.010577566   -4.6350069    1.2318478      1024000 
  905000   0.81993478   -4.6322547   -4.6322547    -3.402355 0.0082474672   -4.6322547    1.2298997      1024000 
  906000   0.82079886   -4.6320643   -4.6320643   -3.4008685  0.010215535   -4.6320643    1.2311958      1024000 
  907000   0.82154362   -4.6322763   -4.6322763   -3.3999634  0.011948432   -4.6322763    1.2323129      1024000 
  908000   0.82178916   -4.6311504   -4.6311504   -3.3984692 0.0060428773   -4.6311504    1.2326812      1024000 
  909000     0.823094    -4.631695    -4.631695   -3.3970565 0.0057063781    -4.631695    1.2346385      1024000 
  910000   0.82183823   -4.6291066   -4.6291066   -3.3963517 0.0061093901   -4.6291066    1.2327548      1024000 
  911000   0.82305014   -4.6285702   -4.6285702   -3.3939975 0.0023910405   -4.6285702    1.2345727      1024000 
  912000    0.8219884    -4.625581    -4.625581   -3.3926009  0.006262711    -4.625581    1.2329801      1024000 
  913000    0.8216579   -4.6244643   -4.6244643     -3.39198 0.0052170228   -4.6244643    1.2324843      1024000 
  914000   0.82172773   -4.6228803   -4.6228803   -3.3902912  0.013016193   -4.6228803    1.2325891      1024000 
  915000   0.82446846   -4.6244132   -4.6244132   -3.3877131 0.0055451579   -4.6244132    1.2367002      1024000 
  916000   0.82403794   -4.6222505   -4.6222505   -3.3861961 0.0088554095   -4.6222505    1.2360544      1024000 
  917000   0.82421358   -4.6209061   -4.6209061   -3.3845882 0.0086272432   -4.6209061    1.2363179      1024000 
  918000   0.82299202   -4.6193381   -4.6193381   -3.3848526 0.0065262435   -4.6193381    1.2344855      1024000 
  919000   0.82318547   -4.6179708   -4.6179708   -3.3831951 0.0072330792   -4.6179708    1.2347757      1024000 
  920000   0.82320646   -4.6166304   -4.6166304   -3.3818233  0.010849194   -4.6166304    1.2348072      1024000 
  921000    0.8248033   -4.6160613   -4.6160613   -3.3788589 0.0096010401   -4.6160613    1.2372024      1024000 
  922000   0.82475567   -4.6144413   -4.6144413   -3.3773103  0.011214303   -4.6144413     1.237131      1024000 
  923000   0.82487041   -4.6138984   -4.6138984   -3.3765953  0.010494056   -4.6138984    1.2373031      1024000 
  924000   0.82473611   -4.6131146   -4.6131146   -3.3760129 0.0087525378   -4.6131146    1.2371016      1024000 
  925000   0.82463485   -4.6114154   -4.6114154   -3.3744656 0.0047693568   -4.6114154    1.2369498      1024000 
  926000   0.82449697   -4.6098533   -4.6098533   -3.3731104  0.005498755   -4.6098533    1.2367429      1024000 
  927000   0.82482981   -4.6097223   -4.6097223   -3.3724801 0.0043953699   -4.6097223    1.2372422      1024000 
  928000   0.82526906    -4.608818    -4.608818    -3.370917 0.0069819997    -4.608818    1.2379011      1024000 
  929000    0.8243411   -4.6057902   -4.6057902    -3.369281 0.0091433433   -4.6057902    1.2365091      1024000 
  930000   0.82623703   -4.6060659   -4.6060659   -3.3667129 0.0087896046   -4.6060659     1.239353      1024000 
  931000   0.82689303   -4.6060333   -4.6060333   -3.3656963 0.0085193766   -4.6060333     1.240337      1024000 
  932000   0.82642199   -4.6037802   -4.6037802   -3.3641498 0.0042201341   -4.6037802    1.2396305      1024000 
  933000   0.82678545   -4.6028733   -4.6028733   -3.3626977 0.0029472787   -4.6028733    1.2401757      1024000 
  934000   0.82515364   -4.5993222   -4.5993222   -3.3615942  0.010585628   -4.5993222    1.2377279      1024000 
  935000   0.82707415   -4.6000772   -4.6000772   -3.3594684  0.005825422   -4.6000772    1.2406087      1024000 
  936000   0.82670375   -4.5982318   -4.5982318   -3.3581787  0.012575295   -4.5982318    1.2400531      1024000 
  937000   0.82766111   -4.5990627   -4.5990627   -3.3575736 0.0096711034   -4.5990627    1.2414891      1024000 
  938000    0.8279375   -4.5977462   -4.5977462   -3.3558425  0.009481799   -4.5977462    1.2419037      1024000 
  939000   0.82770625   -4.5960055   -4.5960055   -3.3544486  0.013030796   -4.5960055    1.2415569      1024000 
  940000   0.82900929   -4.5957952   -4.5957952   -3.3522838  0.013458965   -4.5957952    1.2435114      1024000 
  941000   0.82977377   -4.5959536   -4.5959536   -3.3512955 0.0090919244   -4.5959536    1.2446581      1024000 
  942000   0.82959042   -4.5925654   -4.5925654   -3.3481823  0.013946075   -4.5925654    1.2443831      1024000 
  943000    0.8299943   -4.5914344   -4.5914344   -3.3464455  0.011558059   -4.5914344    1.2449889      1024000 
  944000   0.82921078   -4.5900151   -4.5900151   -3.3462015 0.0093847477   -4.5900151    1.2438136      1024000 
  945000   0.83008017   -4.5900827   -4.5900827    -3.344965 0.0062835453   -4.5900827    1.2451177      1024000 
  946000   0.82896617   -4.5879475   -4.5879475   -3.3445007  0.013275159   -4.5879475    1.2434467      1024000 
  947000   0.82881144   -4.5866703   -4.5866703   -3.3434557 0.0045930262   -4.5866703    1.2432146      1024000 
  948000   0.83113488   -4.5884412   -4.5884412   -3.3417414 0.0070576148   -4.5884412    1.2466998      1024000 
  949000   0.83027223   -4.5853919   -4.5853919   -3.3399861 0.0082663587   -4.5853919    1.2454058      1024000 
  950000   0.83214773   -4.5870636   -4.5870636   -3.3388445 0.0023955522   -4.5870636    1.2482191      1024000 
  951000   0.83120123   -4.5846655   -4.5846655   -3.3378662 0.0018447086   -4.5846655    1.2467993      1024000 
  952000   0.83075061   -4.5814101   -4.5814101   -3.3352867 0.0029780725   -4.5814101    1.2461234      1024000 
  953000   0.83049217   -4.5795135   -4.5795135   -3.3337778 0.0066875355   -4.5795135    1.2457357      1024000 
  954000    0.8308126   -4.5782961   -4.5782961   -3.3320798 0.0079256507   -4.5782961    1.2462164      1024000 
  955000   0.83344738   -4.5803123   -4.5803123   -3.3301438 0.0026528822   -4.5803123    1.2501685      1024000 
  956000   0.83289664   -4.5781465   -4.5781465   -3.3288041 0.0098349659   -4.5781465    1.2493424      1024000 
  957000   0.83274279   -4.5760648   -4.5760648   -3.3269531  0.013735698   -4.5760648    1.2491116      1024000 
  958000   0.83216227    -4.573792    -4.573792   -3.3255511  0.011011441    -4.573792    1.2482409      1024000 
  959000   0.83318059     -4.57486     -4.57486   -3.3250917   0.00273384     -4.57486    1.2497684      1024000 
  960000   0.83428344   -4.5749897   -4.5749897   -3.3235671 0.0055506056   -4.5749897    1.2514226      1024000 
  961000   0.83276763   -4.5718311   -4.5718311   -3.3226822  0.011423769   -4.5718311    1.2491489      1024000 
  962000   0.83382122   -4.5717495   -4.5717495   -3.3210202 0.0077428679   -4.5717495    1.2507293      1024000 
  963000   0.83301306   -4.5707992   -4.5707992   -3.3212821 0.0034268253   -4.5707992     1.249517      1024000 
  964000   0.83346299   -4.5696176   -4.5696176   -3.3194257 0.0039443406   -4.5696176    1.2501919      1024000 
  965000    0.8338872   -4.5691004   -4.5691004   -3.3182722  0.002922212   -4.5691004    1.2508283      1024000 
  966000   0.83435447   -4.5679306   -4.5679306   -3.3164014 0.0044511143   -4.5679306    1.2515292      1024000 
  967000   0.83442272   -4.5657687   -4.5657687   -3.3141371  0.011103335   -4.5657687    1.2516315      1024000 
  968000   0.83470564   -4.5655294   -4.5655294   -3.3134735 0.0070850554   -4.5655294    1.2520559      1024000 
  969000   0.83378845    -4.562979    -4.562979   -3.3122989  0.013191843    -4.562979    1.2506801      1024000 
  970000   0.83498104   -4.5630483   -4.5630483   -3.3105793 0.0064997737   -4.5630483     1.252469      1024000 
  971000   0.83568803   -4.5626262   -4.5626262   -3.3090967 0.0072237855   -4.5626262    1.2535295      1024000 
  972000   0.83548658   -4.5605565   -4.5605565   -3.3073292 0.0099120809   -4.5605565    1.2532273      1024000 
  973000   0.83626826   -4.5611123   -4.5611123   -3.3067124 0.0071245318   -4.5611123    1.2543998      1024000 
  974000   0.83559416   -4.5579843   -4.5579843   -3.3045956   0.01338059   -4.5579843    1.2533887      1024000 
  975000   0.83642524   -4.5584436   -4.5584436   -3.3038083 0.0088112418   -4.5584436    1.2546353      1024000 
  976000   0.83642521   -4.5584928   -4.5584928   -3.3038575 0.0065532196   -4.5584928    1.2546353      1024000 
  977000    0.8371477   -4.5579044   -4.5579044   -3.3021854 0.0070322859   -4.5579044     1.255719      1024000 
  978000    0.8361808   -4.5553107   -4.5553107    -3.301042 0.0032312026   -4.5553107    1.2542686      1024000 
  979000   0.83565902   -4.5536244   -4.5536244   -3.3001384  0.013915934   -4.5536244     1.253486      1024000 
  980000     0.836378   -4.5522864   -4.5522864    -3.297722  0.010500427   -4.5522864    1.2545645      1024000 
  981000   0.83708849   -4.5520249   -4.5520249   -3.2963947 0.0079845076   -4.5520249    1.2556302      1024000 
  982000   0.83562082   -4.5488927   -4.5488927    -3.295464 0.0069159672   -4.5488927    1.2534287      1024000 
  983000   0.83658532   -4.5491841   -4.5491841   -3.2943086 0.0037349302   -4.5491841    1.2548754      1024000 
  984000   0.83659761   -4.5473645   -4.5473645   -3.2924706 0.0056375757   -4.5473645    1.2548939      1024000 
  985000   0.83801752   -4.5483082   -4.5483082   -3.2912844 0.0058490145   -4.5483082    1.2570237      1024000 
  986000   0.83887945   -4.5483089   -4.5483089   -3.2899923 0.0066068213   -4.5483089    1.2583166      1024000 
  987000   0.83784986   -4.5455149   -4.5455149   -3.2887426 0.0099812439   -4.5455149    1.2567722      1024000 
  988000   0.83870859   -4.5447665   -4.5447665   -3.2867061  0.011964069   -4.5447665    1.2580603      1024000 
  989000   0.84023475   -4.5449939   -4.5449939   -3.2846444   0.01146516   -4.5449939    1.2603496      1024000 
  990000    0.8400389   -4.5439642   -4.5439642   -3.2839084  0.017832486   -4.5439642    1.2600558      1024000 
  991000   0.84064841   -4.5431535   -4.5431535   -3.2821834  0.015885123   -4.5431535    1.2609701      1024000 
  992000   0.84157807   -4.5437231   -4.5437231   -3.2813586  0.010908326   -4.5437231    1.2623645      1024000 
  993000   0.84145533   -4.5422697   -4.5422697   -3.2800893  0.011825734   -4.5422697    1.2621804      1024000 
  994000    0.8403961   -4.5389951   -4.5389951   -3.2784035  0.013704069   -4.5389951    1.2605916      1024000 
  995000   0.83927672   -4.5369738   -4.5369738   -3.2780613  0.011074726   -4.5369738    1.2589125      1024000 
  996000   0.83968091     -4.53604     -4.53604   -3.2765212 0.0080586407     -4.53604    1.2595188      1024000 
  997000   0.83985671   -4.5348867   -4.5348867   -3.2751042 0.0073000425   -4.5348867    1.2597825      1024000 
  998000   0.83915939   -4.5331862   -4.5331862   -3.2744497 0.0017964661   -4.5331862    1.2587365      1024000 
  999000   0.84117921   -4.5347828   -4.5347828   -3.2730165 0.0014850407   -4.5347828    1.2617663      1024000 
 1000000    0.8412588   -4.5327295   -4.5327295   -3.2708439 0.0033621992   -4.5327295    1.2618856      1024000 
Loop time of 7430.57 on 96 procs for 1000000 steps with 492800 atoms

Performance: 29069.117 tau/day, 134.579 timesteps/s
99.5% CPU use with 96 MPI tasks x 1 OpenMP threads

MPI task timing breakdown:
Section |  min time  |  avg time  |  max time  |%varavg|  %CPU | %total
-----------------------------------------------------------------------
Pair    | 4459.7     | 5422.2     | 5743.7     | 466.0 |  99.5 | 72.97
Bond    | 0.75593    | 0.80661    | 0.86811    |   2.7 | 100.0 |  0.01
Neigh   | 524.8      | 632.98     | 667.29     | 155.1 |  99.6 |  8.52
Comm    | 701.99     | 1035.5     | 2086.8     |1188.2 |  99.2 | 13.94
Output  | 39.84      | 40.135     | 40.143     |   0.5 |  98.9 |  0.54
Modify  | 68.076     | 111.99     | 293.62     | 713.7 |  99.6 |  1.51
Other   |            | 187        |            |       |       |  2.52

Nlocal:        5133.33 ave        5342 max        4900 min
Histogram: 2 1 2 4 21 44 18 2 1 1
Nghost:        7373.55 ave        8255 max        5360 min
Histogram: 12 12 0 0 0 0 0 12 19 41
Neighs:        298363.0 ave      331796 max      246026 min
Histogram: 2 8 9 6 11 4 8 14 19 15

Total # of neighbors = 28642824
Ave neighs/atom = 58.122614
Ave special neighs/atom = 0.0000000
Neighbor list builds = 59419
Dangerous builds = 34
Total wall time: 2:03:52
