LAMMPS (29 Oct 2020)
  using 1 OpenMP thread(s) per MPI task
# Simple rigid body system

units		lj
atom_style	full
dimension 	3
boundary	p p f
pair_style	lj/cut/opt 2.5


variable 	sigma		equal 1.0
variable 	epsilon 	equal 1.0


region		box block 0 80 0 80 0 80
create_box 	3 box
Created orthogonal box = (0.0000000 0.0000000 0.0000000) to (80.000000 80.000000 80.000000)
  2 by 4 by 4 MPI processor grid
lattice 	sc 1.0
Lattice spacing in x,y,z = 1.0000000 1.0000000 1.0000000

create_atoms 	1 region box
Created 512000 atoms
  create_atoms CPU = 0.040 seconds

mass		1 1.0
mass		2 1.0
mass		3 1.0


group		solvent type 1
512000 atoms in group solvent


velocity 	solvent create ${startTemp} 563435 loop geom
velocity 	solvent create 0.5 563435 loop geom

read_data	data.vac add append
Reading data file ...
  orthogonal box = (0.0000000 0.0000000 0.0000000) to (80.000000 80.000000 160.00000)
  2 by 2 by 8 MPI processor grid
Finding 1-2 1-3 1-4 neighbors ...
  special bond factors lj:    0.0      0.0      0.0     
  special bond factors coul:  0.0      0.0      0.0     
     0 = max # of 1-2 neighbors
     0 = max # of 1-3 neighbors
     0 = max # of 1-4 neighbors
     1 = max # of special neighbors
  special bonds CPU = 0.349 seconds
  read_data CPU = 0.366 seconds

neighbor 	0.4 bin

pair_coeff	1 1 1.0 1.0
pair_coeff	2 2 0.0 0.0
pair_coeff	3 3 0.0 0.0
pair_coeff	2 3 0.0 0.0
pair_coeff	1 2*3 0.0 0.0

pair_modify 	shift yes


balance 	1.05 shift z 10 1.05
Balancing ...
Neighbor list info ...
  update every 1 steps, delay 10 steps, check yes
  max neighbors/atom: 2000, page size: 100000
  master list distance cutoff = 2.9
  ghost atom cutoff = 2.9
  binsize = 1.45, bins = 56 56 111
  1 neighbor lists, perpetual/occasional/extra = 1 0 0
  (1) pair lj/cut/opt, perpetual
      attributes: half, newton on
      pair build: half/bin/newton
      stencil: half/bin/3d/newton
      bin: standard
 rebalancing time: 0.031 seconds
  iteration count = 5
  initial/final maximal load/proc = 32000.000 19200.000
  initial/final imbalance factor  = 2.0000000 1.2000000
  x cuts: 0.0000000 0.5 1.0000000
  y cuts: 0.0000000 0.5 1.0000000
  z cuts: 0.0000000 0.0625 0.12890625 0.1875 0.2578125 0.30859375 0.38671875 0.4375 1.0000000


####################### WALLS ###########################


region	       low block  EDGE EDGE EDGE EDGE 0 2

region 	       top block  EDGE EDGE EDGE EDGE 159 160


delete_atoms   region low
WARNING: Ignoring 'compress yes' for molecular system (src/delete_atoms.cpp:125)
Deleted 19200 atoms, new total = 492800

delete_atoms   region top
WARNING: Ignoring 'compress yes' for molecular system (src/delete_atoms.cpp:125)
Deleted 0 atoms, new total = 492800


variable       epsilonWall equal 2*${epsilon}
variable       epsilonWall equal 2*1

variable       cutoffTop   equal   0.7147*${sigma}
variable       cutoffTop   equal   0.7147*1

variable       cutoffLow   equal   3*${sigma}
variable       cutoffLow   equal   3*1


fix            topWall all wall/lj93 zhi EDGE                ${epsilonWall} ${sigma} ${cutoffTop} units box
fix            topWall all wall/lj93 zhi EDGE                2 ${sigma} ${cutoffTop} units box
fix            topWall all wall/lj93 zhi EDGE                2 1 ${cutoffTop} units box
fix            topWall all wall/lj93 zhi EDGE                2 1 0.7147 units box

fix            lowWall all wall/lj93 zlo EDGE                ${epsilonWall} ${sigma} ${cutoffLow} units box
fix            lowWall all wall/lj93 zlo EDGE                2 ${sigma} ${cutoffLow} units box
fix            lowWall all wall/lj93 zlo EDGE                2 1 ${cutoffLow} units box
fix            lowWall all wall/lj93 zlo EDGE                2 1 3 units box


###################### COMPUTES ##########################

compute        bin1 solvent chunk/atom bin/1d z upper 1.0



######################	FIXES ############################


fix 		peclet solvent ave/chunk 1000 1 1000 bin1 density/number norm 		 none ave one file density.profile

fix 		2 solvent nve

## Thermostat


region		regthermo block EDGE EDGE EDGE EDGE 0 20

group 		thermo dynamic solvent region regthermo every 1000
dynamic group thermo defined

fix 		3 thermo langevin ${startTemp} ${temp} 10 156453
fix 		3 thermo langevin 0.5 ${temp} 10 156453
fix 		3 thermo langevin 0.5 1.2 10 156453



#### Load balancing


fix 		bal all balance 1000 1.05 shift z 10 1.05


############### Diagnostics and computes ###################
#compute 	com cube	  rigid/local	1 mol x y z
#compute 	quat cube	  rigid/local	1 mol quatw quati quatj quatk

thermo 		1000
thermo_style 	custom step temp epair evdwl etotal press pe ke vol

dump		1 all custom 100000 dump.lammpstrj id mol type x y z
dump 		2 all image 10000 image.*.png type type
dump 		3 all movie 1000 movie.avi type type
#dump 		com cube local 1000 dump.*.xyz c_com[*]
#dump		quat cube      local 1000 dump.*.quat c_quat[*]


restart 	500000 restart.dat
timestep 	0.0025
timer 		full
New timer settings: style=full  mode=nosync  timeout=off


run		1000000
Per MPI rank memory allocation (min/avg/max) = 21.45 | 22.19 | 22.73 Mbytes
Step Temp E_pair E_vdwl TotEng Press PotEng KinEng Volume 
       0   0.49998514   -3.2974116   -3.2974116   -2.5474355    8.3319627   -3.2974116   0.74997619      1024000 
    1000    1.4274103   -4.8138435   -4.8138435   -2.6727324    3.6859999   -4.8138435     2.141111      1024000 
    2000    1.3660944   -4.8622841   -4.8622841   -2.8131467    2.4701744   -4.8622841    2.0491375      1024000 
    3000    1.2649849    -4.838883    -4.838883   -2.9414096    1.6268595    -4.838883    1.8974735      1024000 
    4000    1.2131178   -4.8487461   -4.8487461   -3.0290731   0.72102154   -4.8487461     1.819673      1024000 
    5000    1.1412694   -4.7846065   -4.7846065   -3.0727058  0.086821353   -4.7846065    1.7119006      1024000 
    6000    1.0637425   -4.6832926   -4.6832926   -3.0876821  -0.25828348   -4.6832926    1.5956106      1024000 
    7000    1.0042557   -4.5963389   -4.5963389   -3.0899585  -0.35784024   -4.5963389    1.5063805      1024000 
    8000   0.98968849   -4.5745879   -4.5745879   -3.0900582  -0.24652944   -4.5745879    1.4845297      1024000 
    9000    1.0030493   -4.5990499   -4.5990499   -3.0944791  -0.10339143   -4.5990499    1.5045708      1024000 
   10000    1.0081739   -4.6174526   -4.6174526   -3.1051948 -0.014092117   -4.6174526    1.5122578      1024000 
   11000    1.0052588   -4.6244014   -4.6244014   -3.1165163 0.0017084592   -4.6244014    1.5078851      1024000 
   12000    1.0050674    -4.633526    -4.633526    -3.125928  0.021896505    -4.633526     1.507598      1024000 
   13000    1.0091779   -4.6483216   -4.6483216   -3.1345578  0.064101559   -4.6483216    1.5137638      1024000 
   14000    1.0103852   -4.6579277   -4.6579277   -3.1423529  0.086764641   -4.6579277    1.5155748      1024000 
   15000    1.0090471   -4.6628725   -4.6628725   -3.1493049  0.089536316   -4.6628725    1.5135675      1024000 
   16000    1.0061469   -4.6642444   -4.6642444    -3.155027  0.083716186   -4.6642444    1.5092174      1024000 
   17000    1.0031707   -4.6652796   -4.6652796   -3.1605267   0.08501768   -4.6652796    1.5047529      1024000 
   18000    1.0038177   -4.6702956   -4.6702956   -3.1645721  0.090326868   -4.6702956    1.5057236      1024000 
   19000    1.0055587   -4.6769698   -4.6769698   -3.1686348   0.10954357   -4.6769698     1.508335      1024000 
   20000    1.0075507   -4.6838555   -4.6838555   -3.1725325   0.12303979   -4.6838555     1.511323      1024000 
   21000    1.0062341   -4.6856949   -4.6856949   -3.1763468    0.1228979   -4.6856949    1.5093481      1024000 
   22000    1.0049798   -4.6870066   -4.6870066   -3.1795399    0.1229052   -4.6870066    1.5074667      1024000 
   23000    1.0060264   -4.6910056   -4.6910056    -3.181969   0.12959402   -4.6910056    1.5090365      1024000 
   24000    1.0105844   -4.7010946   -4.7010946   -3.1852211   0.20501458   -4.7010946    1.5158736      1024000 
   25000    1.0233877   -4.7235993   -4.7235993   -3.1885208   0.63439567   -4.7235993    1.5350785      1024000 
   26000    1.0365449   -4.7455773   -4.7455773   -3.1907632    1.0629239   -4.7455773    1.5548141      1024000 
   27000    1.0475888   -4.7637742   -4.7637742   -3.1923943    1.5896537   -4.7637742    1.5713799      1024000 
   28000    1.0555545    -4.777285    -4.777285   -3.1939565     1.832673    -4.777285    1.5833285      1024000 
   29000    1.0355406   -4.7483806   -4.7483806   -3.1950729    1.4162615   -4.7483806    1.5533077      1024000 
   30000    1.0217737   -4.7286588   -4.7286588   -3.1960013   0.99059306   -4.7286588    1.5326575      1024000 
   31000    1.0031692   -4.7014159   -4.7014159   -3.1966651   0.59703203   -4.7014159    1.5047508      1024000 
   32000   0.96627362   -4.6469069   -4.6469069   -3.1974995   0.31720922   -4.6469069    1.4494075      1024000 
   33000   0.92192522   -4.5812415   -4.5812415   -3.1983565   0.11330862   -4.5812415     1.382885      1024000 
   34000   0.88341986   -4.5248641   -4.5248641    -3.199737  -0.02280081   -4.5248641    1.3251271      1024000 
   35000   0.85346854   -4.4813141   -4.4813141   -3.2011139 -0.098066915   -4.4813141    1.2802002      1024000 
   36000   0.83763686   -4.4586087   -4.4586087   -3.2021559  -0.11893662   -4.4586087    1.2564527      1024000 
   37000   0.83500825   -4.4563053   -4.4563053   -3.2037955  -0.11240867   -4.4563053    1.2525098      1024000 
   38000   0.84226185   -4.4680141   -4.4680141   -3.2046239 -0.079399073   -4.4680141    1.2633902      1024000 
   39000   0.85526093   -4.4885031   -4.4885031   -3.2056143 -0.028340368   -4.4885031    1.2828888      1024000 
   40000   0.87195226   -4.5145501   -4.5145501   -3.2066243  0.026425893   -4.5145501    1.3079257      1024000 
   41000   0.88434615   -4.5343291   -4.5343291   -3.2078126  0.093313475   -4.5343291    1.3265165      1024000 
   42000   0.89234723   -4.5472459   -4.5472459   -3.2087278   0.12261566   -4.5472459    1.3385181      1024000 
   43000   0.89476089   -4.5520484   -4.5520484   -3.2099098   0.14294685   -4.5520484    1.3421386      1024000 
   44000   0.89487322   -4.5532833   -4.5532833   -3.2109762   0.14273061   -4.5532833    1.3423071      1024000 
   45000   0.89493129    -4.554557    -4.554557   -3.2121627   0.14019075    -4.554557    1.3423942      1024000 
   46000   0.89257988   -4.5517141   -4.5517141   -3.2128469   0.13485618   -4.5517141    1.3388671      1024000 
   47000   0.88771031   -4.5450353   -4.5450353   -3.2134725   0.10641698   -4.5450353    1.3315628      1024000 
   48000   0.87982442   -4.5338585   -4.5338585   -3.2141245  0.074159177   -4.5338585     1.319734      1024000 
   49000     0.872008   -4.5244494   -4.5244494   -3.2164401  0.048141442   -4.5244494    1.3080093      1024000 
   50000   0.86584707   -4.5166613   -4.5166613   -3.2178933  0.028957129   -4.5166613     1.298768      1024000 
   51000   0.86225832   -4.5121328   -4.5121328   -3.2187479  0.025949198   -4.5121328    1.2933848      1024000 
   52000   0.86256289   -4.5143874   -4.5143874   -3.2205457  0.018765281   -4.5143874    1.2938417      1024000 
   53000   0.86522404   -4.5203935   -4.5203935   -3.2225601  0.037139938   -4.5203935    1.2978334      1024000 
   54000   0.87298139   -4.5331643   -4.5331643   -3.2236949  0.065170481   -4.5331643    1.3094694      1024000 
   55000   0.88042765   -4.5462457   -4.5462457   -3.2256069  0.098273079   -4.5462457    1.3206388      1024000 
   56000   0.88693328   -4.5583376   -4.5583376   -3.2279404   0.12891507   -4.5583376    1.3303972      1024000 
   57000   0.89226242   -4.5685568   -4.5685568   -3.2301658   0.16436934   -4.5685568    1.3383909      1024000 
   58000   0.89979378   -4.5829009   -4.5829009    -3.233213   0.19098732   -4.5829009    1.3496879      1024000 
   59000   0.90209982    -4.590352    -4.590352    -3.237205   0.21296657    -4.590352     1.353147      1024000 
   60000   0.90456243   -4.5973693   -4.5973693   -3.2405284   0.23856408   -4.5973693    1.3568409      1024000 
   61000   0.90795055   -4.6073374   -4.6073374   -3.2454144   0.27623262   -4.6073374    1.3619231      1024000 
   62000   0.91422004   -4.6232173   -4.6232173     -3.25189   0.36340759   -4.6232173    1.3713273      1024000 
   63000   0.92040684   -4.6424148   -4.6424148   -3.2618074   0.43261251   -4.6424148    1.3806075      1024000 
   64000   0.91818479    -4.653359    -4.653359   -3.2760846   0.45273806    -4.653359    1.3772744      1024000 
   65000   0.90894476   -4.6564461   -4.6564461   -3.2930317   0.43653576   -4.6564461    1.3634144      1024000 
   66000   0.89641183   -4.6511321   -4.6511321   -3.3065171   0.38751308   -4.6511321     1.344615      1024000 
   67000   0.88043916   -4.6372543   -4.6372543   -3.3165982   0.38427445   -4.6372543    1.3206561      1024000 
   68000   0.86688704   -4.6424021   -4.6424021   -3.3420741   0.47791275   -4.6424021    1.3003279      1024000 
   69000   0.85349968   -4.6534096   -4.6534096   -3.3731626   0.51943464   -4.6534096    1.2802469      1024000 
   70000   0.84519481   -4.6692845   -4.6692845   -3.4014949   0.51996822   -4.6692845    1.2677896      1024000 
   71000   0.84335289   -4.6882115   -4.6882115   -3.4231848   0.51488706   -4.6882115    1.2650268      1024000 
   72000   0.84666972   -4.7112693   -4.7112693   -3.4412673   0.51180127   -4.7112693     1.270002      1024000 
   73000    0.8539565    -4.735397    -4.735397   -3.4544649   0.52807306    -4.735397    1.2809321      1024000 
   74000   0.85986358   -4.7539436   -4.7539436   -3.4641509   0.56711106   -4.7539436    1.2897928      1024000 
   75000   0.85138354   -4.7467767   -4.7467767   -3.4697039   0.49459348   -4.7467767    1.2770727      1024000 
   76000   0.82945656    -4.718555    -4.718555   -3.4743727   0.35501476    -4.718555    1.2441823      1024000 
   77000   0.80806933   -4.6897215   -4.6897215     -3.47762   0.24052502   -4.6897215    1.2121015      1024000 
   78000   0.78797856   -4.6629484   -4.6629484    -3.480983   0.16307089   -4.6629484    1.1819654      1024000 
   79000   0.76902743   -4.6395815   -4.6395815   -3.4860427   0.10153998   -4.6395815    1.1535388      1024000 
   80000   0.75267844   -4.6210226   -4.6210226   -3.4920072  0.044093965   -4.6210226    1.1290154      1024000 
   81000    0.7380989   -4.6045045   -4.6045045   -3.4973584 -0.019919848   -4.6045045    1.1071461      1024000 
   82000   0.72665732   -4.5896653   -4.5896653   -3.4996815 -0.091558025   -4.5896653    1.0899838      1024000 
   83000   0.71666591   -4.5733753   -4.5733753   -3.4983786  -0.15605997   -4.5733753    1.0749967      1024000 
   84000   0.70873441   -4.5580593   -4.5580593   -3.4949598  -0.20479415   -4.5580593    1.0630995      1024000 
   85000   0.70230018    -4.542742    -4.542742   -3.4892939  -0.23710591    -4.542742    1.0534481      1024000 
   86000    0.6987649   -4.5303642   -4.5303642    -3.482219  -0.24661124   -4.5303642    1.0481452      1024000 
   87000   0.69779991   -4.5219641   -4.5219641   -3.4752663  -0.24338302   -4.5219641    1.0466977      1024000 
   88000   0.69830718   -4.5170687   -4.5170687     -3.46961  -0.23320977   -4.5170687    1.0474586      1024000 
   89000   0.70133854   -4.5175522   -4.5175522   -3.4655465  -0.20924041   -4.5175522    1.0520057      1024000 
   90000   0.70776218   -4.5242355   -4.5242355   -3.4625944  -0.18442587   -4.5242355    1.0616411      1024000 
   91000   0.71498111   -4.5341951   -4.5341951   -3.4617256  -0.14908011   -4.5341951    1.0724695      1024000 
   92000   0.72213548   -4.5470121   -4.5470121   -3.4638111   -0.1036429   -4.5470121     1.083201      1024000 
   93000    0.7281078   -4.5594133   -4.5594133   -3.4672538 -0.064325692   -4.5594133    1.0921595      1024000 
   94000    0.7328687   -4.5727184   -4.5727184   -3.4734176 -0.021252919   -4.5727184    1.0993008      1024000 
   95000   0.73869328   -4.5867997   -4.5867997    -3.478762 0.0020041251   -4.5867997    1.1080377      1024000 
   96000   0.74149884   -4.5957637   -4.5957637   -3.4835177 0.0082917621   -4.5957637     1.112246      1024000 
   97000   0.74172257   -4.5996078   -4.5996078   -3.4870262  0.011548627   -4.5996078    1.1125816      1024000 
   98000   0.74052291   -4.6009486   -4.6009486   -3.4901665 -0.0011996616   -4.6009486    1.1107821      1024000 
   99000   0.73663605   -4.5972037   -4.5972037   -3.4922519 -0.015808175   -4.5972037    1.1049518      1024000 
  100000   0.73342883   -4.5938982   -4.5938982   -3.4937572 -0.030658118   -4.5938982     1.100141      1024000 
  101000   0.73053999    -4.591284    -4.591284   -3.4954763 -0.045492162    -4.591284    1.0958078      1024000 
  102000   0.72790135   -4.5892443   -4.5892443   -3.4973945   -0.0471195   -4.5892443    1.0918498      1024000 
  103000   0.72771935   -4.5909029   -4.5909029   -3.4993261 -0.049698393   -4.5909029    1.0915768      1024000 
  104000   0.72872125   -4.5925764   -4.5925764   -3.4994968 -0.038842496   -4.5925764    1.0930797      1024000 
  105000   0.73153424   -4.5983376   -4.5983376   -3.5010385 -0.020201547   -4.5983376    1.0972991      1024000 
  106000   0.73448541    -4.604918    -4.604918   -3.5031921 -0.014136818    -4.604918    1.1017259      1024000 
  107000   0.73673486   -4.6103036   -4.6103036   -3.5052035 -0.0084167107   -4.6103036    1.1051001      1024000 
  108000   0.73764443   -4.6138436   -4.6138436   -3.5073792  0.002672712   -4.6138436    1.1064644      1024000 
  109000   0.73751191   -4.6144819   -4.6144819   -3.5082163 0.0024549474   -4.6144819    1.1062656      1024000 
  110000    0.7375695   -4.6162338   -4.6162338   -3.5098818 -0.0011801144   -4.6162338     1.106352      1024000 
  111000   0.73590012   -4.6156235   -4.6156235   -3.5117756 -0.007753629   -4.6156235    1.1038479      1024000 
  112000   0.73496779   -4.6151566   -4.6151566   -3.5127072 -0.014921089   -4.6151566    1.1024494      1024000 
  113000   0.73198952   -4.6119691   -4.6119691   -3.5139871 -0.017088099   -4.6119691    1.0979821      1024000 
  114000    0.7316225   -4.6120267   -4.6120267   -3.5145951 -0.018195356   -4.6120267    1.0974315      1024000 
  115000   0.73133991   -4.6127424   -4.6127424   -3.5157347 -0.022668808   -4.6127424    1.0970076      1024000 
  116000   0.73159861   -4.6141355   -4.6141355   -3.5167398  -0.02082819   -4.6141355    1.0973957      1024000 
  117000   0.73206554   -4.6161114   -4.6161114   -3.5180154 -0.013284416   -4.6161114    1.0980961      1024000 
  118000   0.73343972   -4.6191942   -4.6191942   -3.5190368 -0.013266029   -4.6191942    1.1001573      1024000 
  119000   0.73412552   -4.6214612   -4.6214612   -3.5202751 -0.0076352012   -4.6214612     1.101186      1024000 
  120000   0.73617639   -4.6259627   -4.6259627   -3.5217003 -0.002884495   -4.6259627    1.1042623      1024000 
  121000   0.73657988   -4.6271473   -4.6271473   -3.5222798 -0.0017125857   -4.6271473    1.1048676      1024000 
  122000   0.73534411   -4.6269644   -4.6269644   -3.5239504 0.00047911289   -4.6269644    1.1030139      1024000 
  123000   0.73373016   -4.6256387   -4.6256387   -3.5250457 0.0016263958   -4.6256387     1.100593      1024000 
  124000    0.7337032   -4.6273916   -4.6273916    -3.526839 -0.011022549   -4.6273916    1.1005526      1024000 
  125000   0.73412106   -4.6295078   -4.6295078   -3.5283284 -0.014747057   -4.6295078    1.1011794      1024000 
  126000    0.7325517   -4.6280267   -4.6280267   -3.5292013 -0.0077846566   -4.6280267    1.0988253      1024000 
  127000   0.73241643   -4.6291252   -4.6291252   -3.5305028 -0.0079129798   -4.6291252    1.0986224      1024000 
  128000   0.73283395   -4.6297612   -4.6297612   -3.5305125 -0.0080728602   -4.6297612    1.0992487      1024000 
  129000    0.7340247    -4.633033    -4.633033   -3.5319982 -0.0019980205    -4.633033    1.1010348      1024000 
  130000   0.73445485   -4.6347357   -4.6347357   -3.5330556 3.5419001e-06   -4.6347357      1.10168      1024000 
  131000   0.73561676   -4.6363105   -4.6363105   -3.5328876 0.0033793042   -4.6363105    1.1034229      1024000 
  132000   0.73595393   -4.6363271   -4.6363271   -3.5323984 0.0032109408   -4.6363271    1.1039287      1024000 
  133000   0.73572858   -4.6363681   -4.6363681   -3.5327775 0.0036810681   -4.6363681    1.1035906      1024000 
  134000   0.73550102   -4.6364843   -4.6364843    -3.533235 -1.9503366e-05   -4.6364843    1.1032493      1024000 
  135000   0.73489095   -4.6365344   -4.6365344   -3.5342002 0.0016513768   -4.6365344    1.1023342      1024000 
  136000   0.73416845   -4.6370713   -4.6370713   -3.5358208 -0.0068514466   -4.6370713    1.1012504      1024000 
  137000   0.73401088   -4.6375435   -4.6375435   -3.5365295 -0.0038928426   -4.6375435    1.1010141      1024000 
  138000   0.73417507   -4.6382309   -4.6382309   -3.5369705 -0.0011392733   -4.6382309    1.1012604      1024000 
  139000   0.73547009   -4.6415645   -4.6415645   -3.5383616 0.0017334058   -4.6415645    1.1032029      1024000 
  140000   0.73532964   -4.6427177   -4.6427177   -3.5397255 0.0024751476   -4.6427177    1.1029922      1024000 
  141000   0.73569942   -4.6441303   -4.6441303   -3.5405834 0.0011095673   -4.6441303    1.1035469      1024000 
  142000   0.73735107   -4.6467218   -4.6467218   -3.5406974 0.0089786723   -4.6467218    1.1060244      1024000 
  143000   0.73746883    -4.647941    -4.647941     -3.54174  0.014174625    -4.647941     1.106201      1024000 
  144000   0.73742618   -4.6485013   -4.6485013   -3.5423643  0.012759088   -4.6485013     1.106137      1024000 
  145000   0.73905006   -4.6516217   -4.6516217   -3.5430489 0.0087986926   -4.6516217    1.1085728      1024000 
  146000   0.73716579   -4.6492697   -4.6492697   -3.5435232  0.019196124   -4.6492697    1.1057464      1024000 
  147000   0.73849089   -4.6526785   -4.6526785   -3.5449444  0.017959572   -4.6526785    1.1077341      1024000 
  148000   0.73892246   -4.6530156   -4.6530156   -3.5446341   0.01889451   -4.6530156    1.1083814      1024000 
  149000   0.73826722   -4.6531698   -4.6531698   -3.5457712  0.022660205   -4.6531698    1.1073986      1024000 
  150000   0.73940308   -4.6552438   -4.6552438   -3.5461415  0.019472975   -4.6552438    1.1091024      1024000 
  151000   0.73945553   -4.6563142   -4.6563142   -3.5471332  0.023368083   -4.6563142     1.109181      1024000 
  152000   0.73898055   -4.6567093   -4.6567093   -3.5482408  0.029422405   -4.6567093    1.1084686      1024000 
  153000   0.74010821   -4.6585245   -4.6585245   -3.5483644  0.026782361   -4.6585245    1.1101601      1024000 
  154000   0.74076516   -4.6599505   -4.6599505    -3.548805  0.027227116   -4.6599505    1.1111455      1024000 
  155000   0.74063685   -4.6614184   -4.6614184   -3.5504654  0.031698543   -4.6614184     1.110953      1024000 
  156000   0.74053989   -4.6614436   -4.6614436    -3.550636  0.035890162   -4.6614436    1.1108076      1024000 
  157000    0.7408484    -4.663013    -4.663013   -3.5517426  0.036455981    -4.663013    1.1112704      1024000 
  158000   0.74192137   -4.6653532   -4.6653532   -3.5524734  0.039055677   -4.6653532    1.1128798      1024000 
  159000   0.74207956   -4.6664487   -4.6664487   -3.5533316  0.043202613   -4.6664487    1.1131171      1024000 
  160000   0.74350171   -4.6697284   -4.6697284   -3.5544781  0.045518866   -4.6697284    1.1152503      1024000 
  161000   0.74388182   -4.6724798   -4.6724798   -3.5566594  0.051555704   -4.6724798    1.1158205      1024000 
  162000   0.74453916   -4.6744286   -4.6744286   -3.5576221  0.054174095   -4.6744286    1.1168065      1024000 
  163000   0.74433906   -4.6747016   -4.6747016   -3.5581953  0.061057276   -4.6747016    1.1165063      1024000 
  164000   0.74466872   -4.6768129   -4.6768129   -3.5598121  0.060810633   -4.6768129    1.1170008      1024000 
  165000    0.7448135   -4.6775797   -4.6775797   -3.5603617  0.065992584   -4.6775797     1.117218      1024000 
  166000   0.74433741   -4.6783578   -4.6783578   -3.5618539  0.065403668   -4.6783578    1.1165038      1024000 
  167000   0.74508515   -4.6807623   -4.6807623   -3.5631368  0.056504073   -4.6807623    1.1176255      1024000 
  168000   0.74235958   -4.6771691   -4.6771691    -3.563632  0.056717944   -4.6771691    1.1135371      1024000 
  169000   0.74203125   -4.6777919   -4.6777919   -3.5647473    0.0461753   -4.6777919    1.1130446      1024000 
  170000   0.73987294   -4.6751601   -4.6751601   -3.5653529  0.046070739   -4.6751601    1.1098072      1024000 
  171000    0.7394284   -4.6747823   -4.6747823   -3.5656419  0.035531517   -4.6747823    1.1091404      1024000 
  172000   0.73793496   -4.6732681   -4.6732681   -3.5663679  0.029808107   -4.6732681    1.1069002      1024000 
  173000    0.7359468   -4.6699505   -4.6699505   -3.5660326  0.026040198   -4.6699505     1.103918      1024000 
  174000   0.73500382   -4.6685848   -4.6685848   -3.5660813  0.011597644   -4.6685848    1.1025035      1024000 
  175000   0.73453247   -4.6672621   -4.6672621   -3.5654657 0.0027492184   -4.6672621    1.1017965      1024000 
  176000   0.73179152   -4.6617882   -4.6617882   -3.5641031 0.0022529064   -4.6617882    1.0976851      1024000 
  177000   0.73201353   -4.6611264   -4.6611264   -3.5631083 -0.0068603734   -4.6611264    1.0980181      1024000 
  178000   0.73043567   -4.6588067   -4.6588067   -3.5631555 -0.012804684   -4.6588067    1.0956513      1024000 
  179000   0.72911403   -4.6556461   -4.6556461   -3.5619772 -0.017171091   -4.6556461    1.0936688      1024000 
  180000   0.72959386   -4.6552857   -4.6552857   -3.5608971 -0.020809561   -4.6552857    1.0943886      1024000 
  181000   0.72897508   -4.6531232   -4.6531232   -3.5596627 -0.027889916   -4.6531232    1.0934604      1024000 
  182000   0.72893846   -4.6530839   -4.6530839   -3.5596784 -0.026443181   -4.6530839    1.0934055      1024000 
  183000   0.72812645   -4.6508678   -4.6508678   -3.5586803 -0.022199471   -4.6508678    1.0921875      1024000 
  184000   0.72781634   -4.6501753   -4.6501753    -3.558453 -0.023980801   -4.6501753    1.0917223      1024000 
  185000   0.72851246   -4.6503453   -4.6503453   -3.5575788 -0.022875989   -4.6503453    1.0927665      1024000 
  186000   0.72980892   -4.6512773   -4.6512773   -3.5565662 -0.016628428   -4.6512773    1.0947112      1024000 
  187000   0.73102075   -4.6525338   -4.6525338   -3.5560049 -0.014289904   -4.6525338    1.0965289      1024000 
  188000   0.73253643   -4.6548651   -4.6548651   -3.5560627 -0.008793332   -4.6548651    1.0988024      1024000 
  189000   0.73404306   -4.6566692   -4.6566692   -3.5556068 -0.0059373694   -4.6566692    1.1010624      1024000 
  190000   0.73384122   -4.6562233   -4.6562233   -3.5554637 -0.0001418495   -4.6562233    1.1007596      1024000 
  191000   0.73527061   -4.6586507   -4.6586507    -3.555747 0.0035186388   -4.6586507    1.1029037      1024000 
  192000   0.73522411   -4.6599698   -4.6599698   -3.5571358  0.012505945   -4.6599698    1.1028339      1024000 
  193000   0.73723093    -4.663485    -4.663485   -3.5576408  0.014910576    -4.663485    1.1058441      1024000 
  194000   0.73759767    -4.664168    -4.664168   -3.5577737  0.017740373    -4.664168    1.1063943      1024000 
  195000   0.73835957   -4.6661131   -4.6661131    -3.558576  0.020344851   -4.6661131    1.1075371      1024000 
  196000   0.73854678   -4.6673632   -4.6673632   -3.5595453  0.028690574   -4.6673632    1.1078179      1024000 
  197000     0.739872   -4.6700216   -4.6700216   -3.5602158  0.031065645   -4.6700216    1.1098058      1024000 
  198000   0.74052513   -4.6712941   -4.6712941   -3.5605087  0.034281446   -4.6712941    1.1107854      1024000 
  199000   0.74054855   -4.6713823   -4.6713823   -3.5605618  0.035599969   -4.6713823    1.1108206      1024000 
  200000    0.7394981   -4.6704485   -4.6704485   -3.5612036  0.037894025   -4.6704485    1.1092449      1024000 
  201000   0.74024786   -4.6722801   -4.6722801   -3.5619105  0.039109564   -4.6722801    1.1103695      1024000 
  202000   0.74029942   -4.6728179   -4.6728179    -3.562371  0.035458574   -4.6728179    1.1104469      1024000 
  203000   0.73808534    -4.671126    -4.671126   -3.5640002  0.038157669    -4.671126    1.1071258      1024000 
  204000   0.73802068   -4.6714361   -4.6714361   -3.5644074   0.03025814   -4.6714361    1.1070288      1024000 
  205000   0.73686082   -4.6704101   -4.6704101   -3.5651211   0.02419035   -4.6704101     1.105289      1024000 
  206000   0.73655529   -4.6696465   -4.6696465   -3.5648158  0.026287753   -4.6696465    1.1048307      1024000 
  207000   0.73553544   -4.6692672   -4.6692672   -3.5659663  0.021714848   -4.6692672    1.1033009      1024000 
  208000   0.73585368    -4.669808    -4.669808   -3.5660297  0.013599572    -4.669808    1.1037783      1024000 
  209000   0.73390139   -4.6663711   -4.6663711   -3.5655212  0.017059147   -4.6663711    1.1008499      1024000 
  210000   0.73323289   -4.6648225   -4.6648225   -3.5649754  0.010688651   -4.6648225    1.0998471      1024000 
  211000   0.73239925    -4.663039    -4.663039   -3.5644424  0.013303065    -4.663039    1.0985966      1024000 
  212000   0.73235033   -4.6614758   -4.6614758   -3.5629525 0.0059015932   -4.6614758    1.0985233      1024000 
  213000   0.73310681   -4.6618752   -4.6618752   -3.5622172 0.0020222762   -4.6618752     1.099658      1024000 
  214000   0.73270401    -4.660386    -4.660386   -3.5613322 -0.0035766187    -4.660386    1.0990538      1024000 
  215000   0.73351239   -4.6615987   -4.6615987   -3.5613324 -0.0024123117   -4.6615987    1.1002664      1024000 
  216000   0.73294666   -4.6592275   -4.6592275   -3.5598097 0.0014501638   -4.6592275    1.0994178      1024000 
  217000   0.73260895   -4.6585763   -4.6585763   -3.5596651 -0.0017477609   -4.6585763    1.0989112      1024000 
  218000   0.73225225   -4.6571385   -4.6571385   -3.5587623 -0.003296457   -4.6571385    1.0983761      1024000 
  219000   0.73193688   -4.6564798   -4.6564798   -3.5585767 -0.0049048158   -4.6564798    1.0979031      1024000 
  220000   0.73229451   -4.6562689   -4.6562689   -3.5578293 -0.0025041051   -4.6562689    1.0984395      1024000 
  221000    0.7335937   -4.6575028   -4.6575028   -3.5571145 -0.00091484178   -4.6575028    1.1003883      1024000 
  222000   0.73467916   -4.6576937   -4.6576937   -3.5556772 0.0010455247   -4.6576937    1.1020165      1024000 
  223000   0.73345463   -4.6565085   -4.6565085   -3.5563288 0.0057366689   -4.6565085    1.1001797      1024000 
  224000   0.73418678   -4.6572374   -4.6572374   -3.5559594 0.0023328142   -4.6572374    1.1012779      1024000 
  225000   0.73540095   -4.6580341   -4.6580341   -3.5549349 0.0026560848   -4.6580341    1.1030992      1024000 
  226000   0.73530418   -4.6576522   -4.6576522   -3.5546982 0.0083890793   -4.6576522     1.102954      1024000 
  227000   0.73636356   -4.6592885   -4.6592885   -3.5547454  0.011554927   -4.6592885    1.1045431      1024000 
  228000   0.73587071   -4.6583939   -4.6583939   -3.5545901  0.016049124   -4.6583939    1.1038038      1024000 
  229000   0.73627744   -4.6592003   -4.6592003   -3.5547864  0.020860533   -4.6592003    1.1044139      1024000 
  230000   0.73729851   -4.6607898   -4.6607898   -3.5548443  0.019382464   -4.6607898    1.1059455      1024000 
  231000   0.73659638   -4.6596465   -4.6596465   -3.5547541   0.02487217   -4.6596465    1.1048923      1024000 
  232000   0.73750627   -4.6612036   -4.6612036   -3.5549465  0.024250584   -4.6612036    1.1062572      1024000 
  233000   0.73815225   -4.6620731   -4.6620731    -3.554847  0.021651448   -4.6620731    1.1072261      1024000 
  234000   0.73794069   -4.6614541   -4.6614541   -3.5545453  0.024208855   -4.6614541    1.1069088      1024000 
  235000    0.7380591   -4.6615541   -4.6615541   -3.5544677   0.02264164   -4.6615541    1.1070864      1024000 
  236000   0.73788791   -4.6613769   -4.6613769   -3.5545472  0.021706576   -4.6613769    1.1068296      1024000 
  237000    0.7384264   -4.6630591   -4.6630591   -3.5554218  0.021748428   -4.6630591    1.1076374      1024000 
  238000   0.73773439   -4.6613729   -4.6613729   -3.5547735  0.021759777   -4.6613729    1.1065993      1024000 
  239000   0.73790165   -4.6612811   -4.6612811   -3.5544308  0.020168956   -4.6612811    1.1068502      1024000 
  240000   0.73840132   -4.6617654   -4.6617654   -3.5541656  0.015030938   -4.6617654    1.1075997      1024000 
  241000   0.73720181   -4.6595496   -4.6595496   -3.5537491  0.017847604   -4.6595496    1.1058005      1024000 
  242000   0.73696111   -4.6588099   -4.6588099   -3.5533705  0.015275231   -4.6588099    1.1054394      1024000 
  243000   0.73642445   -4.6576845   -4.6576845     -3.55305  0.015488587   -4.6576845    1.1046344      1024000 
  244000    0.7368216   -4.6580422   -4.6580422    -3.552812  0.013431963   -4.6580422    1.1052302      1024000 
  245000   0.73604786    -4.656014    -4.656014   -3.5519445  0.012777438    -4.656014    1.1040695      1024000 
  246000   0.73641748   -4.6564903   -4.6564903   -3.5518663  0.010614831   -4.6564903     1.104624      1024000 
  247000   0.73626161   -4.6557291   -4.6557291   -3.5513389  0.010235015   -4.6557291    1.1043902      1024000 
  248000   0.73540948   -4.6540506   -4.6540506   -3.5509386  0.012979577   -4.6540506     1.103112      1024000 
  249000   0.73601606   -4.6541193   -4.6541193   -3.5500974 0.0093021881   -4.6541193    1.1040218      1024000 
  250000   0.73652731   -4.6546497   -4.6546497    -3.549861 0.0051892006   -4.6546497    1.1047887      1024000 
  251000   0.73534888   -4.6520601   -4.6520601    -3.549039   0.01120739   -4.6520601    1.1030211      1024000 
  252000   0.73649792   -4.6532569   -4.6532569   -3.5485123 0.0049545523   -4.6532569    1.1047446      1024000 
  253000   0.73683346   -4.6526346   -4.6526346   -3.5473867 0.0095130593   -4.6526346    1.1052479      1024000 
  254000    0.7378594   -4.6538223   -4.6538223   -3.5470354 0.0053796675   -4.6538223    1.1067869      1024000 
  255000   0.73569749   -4.6504561   -4.6504561   -3.5469121  0.013349518   -4.6504561     1.103544      1024000 
  256000   0.73625615   -4.6504604   -4.6504604   -3.5460784  0.008860419   -4.6504604     1.104382      1024000 
  257000   0.73840075   -4.6528719   -4.6528719    -3.545273 0.0092695417   -4.6528719    1.1075989      1024000 
  258000   0.73784631   -4.6521344   -4.6521344   -3.5453672   0.01077735   -4.6521344    1.1067672      1024000 
  259000   0.73771539   -4.6519959   -4.6519959   -3.5454251  0.010439797   -4.6519959    1.1065708      1024000 
  260000   0.73718621   -4.6506906   -4.6506906   -3.5449135  0.014867642   -4.6506906    1.1057771      1024000 
  261000   0.73816588   -4.6520647   -4.6520647   -3.5448181 0.0092182546   -4.6520647    1.1072466      1024000 
  262000   0.73700786   -4.6498511   -4.6498511   -3.5443416  0.013599223   -4.6498511    1.1055095      1024000 
  263000   0.73830151   -4.6519301   -4.6519301   -3.5444801  0.012635057   -4.6519301      1.10745      1024000 
  264000   0.73849667   -4.6506732   -4.6506732   -3.5429304  0.010513041   -4.6506732    1.1077428      1024000 
  265000   0.73830919   -4.6497728   -4.6497728   -3.5423113  0.015808344   -4.6497728    1.1074615      1024000 
  266000   0.73893389   -4.6500409   -4.6500409   -3.5416423  0.013967699   -4.6500409    1.1083986      1024000 
  267000   0.73944695   -4.6503945   -4.6503945   -3.5412263  0.014640349   -4.6503945    1.1091682      1024000 
  268000    0.7390129   -4.6498013   -4.6498013   -3.5412842  0.012515831   -4.6498013    1.1085171      1024000 
  269000   0.73910544   -4.6494812   -4.6494812   -3.5408253  0.014143483   -4.6494812    1.1086559      1024000 
  270000   0.73962479   -4.6488034   -4.6488034   -3.5393685  0.017183163   -4.6488034    1.1094349      1024000 
  271000   0.74003303   -4.6494417   -4.6494417   -3.5393944  0.014574173   -4.6494417    1.1100473      1024000 
  272000   0.73976972   -4.6480871   -4.6480871   -3.5384348  0.016512333   -4.6480871    1.1096523      1024000 
  273000   0.73961147   -4.6477176   -4.6477176   -3.5383026  0.018268859   -4.6477176    1.1094149      1024000 
  274000     0.739723   -4.6470777   -4.6470777   -3.5374954  0.011779471   -4.6470777    1.1095823      1024000 
  275000   0.73880292   -4.6450784   -4.6450784   -3.5368762  0.017863215   -4.6450784    1.1082021      1024000 
  276000   0.73931892   -4.6449646   -4.6449646   -3.5359885  0.015405766   -4.6449646    1.1089761      1024000 
  277000   0.74035034   -4.6456509   -4.6456509   -3.5351277  0.011243737   -4.6456509    1.1105233      1024000 
  278000   0.73914332   -4.6438765   -4.6438765   -3.5351637  0.017362613   -4.6438765    1.1087127      1024000 
  279000   0.74027349   -4.6444385   -4.6444385   -3.5340305  0.013455979   -4.6444385     1.110408      1024000 
  280000   0.73866957   -4.6421656   -4.6421656   -3.5341635  0.011327369   -4.6421656    1.1080021      1024000 
  281000   0.73864758   -4.6411779   -4.6411779   -3.5332088  0.014734215   -4.6411779    1.1079691      1024000 
  282000   0.74083163   -4.6443191   -4.6443191   -3.5330739 0.0088484532   -4.6443191    1.1112452      1024000 
  283000    0.7399546   -4.6417587   -4.6417587   -3.5318291  0.016215581   -4.6417587    1.1099296      1024000 
  284000    0.7401306   -4.6408498   -4.6408498   -3.5306561  0.013412425   -4.6408498    1.1101937      1024000 
  285000   0.74026207   -4.6397164   -4.6397164   -3.5293256   0.01077231   -4.6397164    1.1103909      1024000 
  286000   0.73994838   -4.6383113   -4.6383113    -3.528391  0.014653056   -4.6383113    1.1099203      1024000 
  287000   0.74092555   -4.6392994   -4.6392994   -3.5279133  0.013013431   -4.6392994    1.1113861      1024000 
  288000   0.74021983   -4.6380047   -4.6380047   -3.5276772  0.011364675   -4.6380047    1.1103275      1024000 
  289000    0.7408071   -4.6372838   -4.6372838   -3.5260754  0.013824634   -4.6372838    1.1112084      1024000 
  290000   0.74129619   -4.6374555   -4.6374555   -3.5255135 0.0092946471   -4.6374555     1.111942      1024000 
  291000   0.73981701   -4.6356963   -4.6356963   -3.5259731  0.015614279   -4.6356963    1.1097233      1024000 
  292000   0.74095227   -4.6370232   -4.6370232   -3.5255971  0.010927621   -4.6370232    1.1114261      1024000 
  293000   0.74194558   -4.6379496   -4.6379496   -3.5250335 0.0025897195   -4.6379496    1.1129161      1024000 
  294000   0.74227835   -4.6373294   -4.6373294   -3.5239142 0.0038824285   -4.6373294    1.1134153      1024000 
  295000    0.7417134   -4.6349401   -4.6349401   -3.5223723 0.0084844618   -4.6349401    1.1125678      1024000 
  296000   0.74185373     -4.63381     -4.63381   -3.5210317 0.0082876362     -4.63381    1.1127783      1024000 
  297000   0.74148018   -4.6327898   -4.6327898   -3.5205718  0.014734809   -4.6327898     1.112218      1024000 
  298000   0.74314281   -4.6347197   -4.6347197   -3.5200077 0.0080232541   -4.6347197     1.114712      1024000 
  299000   0.74243685   -4.6328045   -4.6328045   -3.5191515  0.011295969   -4.6328045     1.113653      1024000 
  300000   0.74374262   -4.6351524   -4.6351524   -3.5195407  0.011555214   -4.6351524    1.1156117      1024000 
  301000   0.74229413   -4.6323483   -4.6323483   -3.5189093  0.015665736   -4.6323483    1.1134389      1024000 
  302000   0.74385496   -4.6332725   -4.6332725   -3.5174923   0.01236301   -4.6332725    1.1157802      1024000 
  303000   0.74286333   -4.6309001   -4.6309001   -3.5166074  0.016316781   -4.6309001    1.1142927      1024000 
  304000   0.74389815   -4.6318368   -4.6318368   -3.5159918    0.0155543   -4.6318368     1.115845      1024000 
  305000   0.74408758   -4.6310036   -4.6310036   -3.5148745  0.013778963   -4.6310036    1.1161291      1024000 
  306000   0.74379442   -4.6302842   -4.6302842   -3.5145948  0.010963788   -4.6302842    1.1156894      1024000 
  307000   0.74412725   -4.6296886   -4.6296886      -3.5135  0.015627772   -4.6296886    1.1161886      1024000 
  308000   0.74355441   -4.6278446   -4.6278446   -3.5125152  0.016838105   -4.6278446    1.1153294      1024000 
  309000   0.74353825   -4.6272254   -4.6272254   -3.5119203  0.014867676   -4.6272254    1.1153051      1024000 
  310000   0.74466993   -4.6286964   -4.6286964   -3.5116938  0.014235479   -4.6286964    1.1170026      1024000 
  311000   0.74583817   -4.6286483   -4.6286483   -3.5098933  0.014748655   -4.6286483     1.118755      1024000 
  312000   0.74584976   -4.6275496   -4.6275496   -3.5087772  0.018108786   -4.6275496    1.1187724      1024000 
  313000   0.74504574   -4.6261922   -4.6261922   -3.5086259  0.012614144   -4.6261922    1.1175663      1024000 
  314000   0.74382912   -4.6238317   -4.6238317   -3.5080903  0.016252122   -4.6238317    1.1157414      1024000 
  315000   0.74388525   -4.6233168   -4.6233168   -3.5074912  0.015154487   -4.6233168    1.1158256      1024000 
  316000   0.74540248   -4.6237971   -4.6237971   -3.5056957  0.010947769   -4.6237971    1.1181015      1024000 
  317000    0.7446883   -4.6217307   -4.6217307   -3.5047005  0.013857285   -4.6217307    1.1170302      1024000 
  318000   0.74537022   -4.6221916   -4.6221916   -3.5041386  0.012294956   -4.6221916    1.1180531      1024000 
  319000   0.74516247   -4.6213071   -4.6213071   -3.5035657   0.01251528   -4.6213071    1.1177414      1024000 
  320000   0.74494844    -4.620881    -4.620881   -3.5034607 0.0095641994    -4.620881    1.1174204      1024000 
  321000   0.74382452    -4.618744    -4.618744   -3.5030095  0.010269311    -4.618744    1.1157345      1024000 
  322000   0.74396799   -4.6185419   -4.6185419   -3.5025922 0.0078586242   -4.6185419    1.1159497      1024000 
  323000   0.74463615   -4.6183757   -4.6183757   -3.5014237  0.010611927   -4.6183757     1.116952      1024000 
  324000   0.74526473   -4.6182738   -4.6182738    -3.500379 0.0087167682   -4.6182738    1.1178948      1024000 
  325000   0.74411285   -4.6157943   -4.6157943   -3.4996272 0.0069485142   -4.6157943     1.116167      1024000 
  326000   0.74593005   -4.6170161   -4.6170161   -3.4981233  0.007962757   -4.6170161    1.1188928      1024000 
  327000   0.74602371   -4.6166702   -4.6166702   -3.4976369 0.0097102135   -4.6166702    1.1190333      1024000 
  328000   0.74646783   -4.6157584   -4.6157584   -3.4960589  0.013234155   -4.6157584    1.1196995      1024000 
  329000   0.74658846   -4.6153365   -4.6153365   -3.4954561  0.011388545   -4.6153365    1.1198804      1024000 
  330000    0.7466717     -4.61495     -4.61495   -3.4949447 0.0087618664     -4.61495    1.1200053      1024000 
  331000   0.74606523   -4.6139263   -4.6139263   -3.4948307  0.012647902   -4.6139263    1.1190956      1024000 
  332000   0.74551259   -4.6122412   -4.6122412   -3.4939746  0.017669145   -4.6122412    1.1182666      1024000 
  333000   0.74697193   -4.6142454   -4.6142454   -3.4937898  0.011016484   -4.6142454    1.1204556      1024000 
  334000   0.74811967   -4.6144081   -4.6144081   -3.4922308  0.012354424   -4.6144081    1.1221772      1024000 
  335000   0.74733187   -4.6126261   -4.6126261   -3.4916306  0.015746947   -4.6126261    1.1209955      1024000 
  336000   0.74736141   -4.6113607   -4.6113607   -3.4903209  0.015589296   -4.6113607    1.1210398      1024000 
  337000   0.74816406   -4.6117423   -4.6117423   -3.4894985  0.015965768   -4.6117423    1.1222438      1024000 
  338000   0.74862431   -4.6107366   -4.6107366   -3.4878024  0.020140423   -4.6107366    1.1229342      1024000 
  339000   0.74964244    -4.611177    -4.611177   -3.4867156   0.02004208    -4.611177    1.1244614      1024000 
  340000    0.7499366   -4.6109906   -4.6109906    -3.486088  0.019827618   -4.6109906    1.1249026      1024000 
  341000   0.75068586   -4.6117545   -4.6117545    -3.485728  0.019975661   -4.6117545    1.1260265      1024000 
  342000   0.74903239   -4.6093565   -4.6093565   -3.4858102   0.02328454   -4.6093565    1.1235463      1024000 
  343000   0.74928505   -4.6085712   -4.6085712   -3.4846459  0.019256494   -4.6085712    1.1239253      1024000 
  344000   0.74907875   -4.6071424   -4.6071424   -3.4835266  0.020010097   -4.6071424    1.1236158      1024000 
  345000    0.7490701   -4.6056363   -4.6056363   -3.4820334  0.017590449   -4.6056363    1.1236029      1024000 
  346000   0.74889287   -4.6052976   -4.6052976   -3.4819606  0.012646971   -4.6052976     1.123337      1024000 
  347000   0.74854776   -4.6041604   -4.6041604    -3.481341  0.012708486   -4.6041604    1.1228194      1024000 
  348000   0.74906662   -4.6040096   -4.6040096    -3.480412 0.0090277853   -4.6040096    1.1235977      1024000 
  349000   0.74896412   -4.6027453   -4.6027453   -3.4793014  0.012579437   -4.6027453    1.1234439      1024000 
  350000   0.74912182   -4.6016561   -4.6016561   -3.4779756  0.010650823   -4.6016561    1.1236805      1024000 
  351000   0.74850393   -4.6003243   -4.6003243   -3.4775707  0.012405314   -4.6003243    1.1227536      1024000 
  352000   0.75025628   -4.6004638   -4.6004638   -3.4750817  0.012054718   -4.6004638    1.1253821      1024000 
  353000   0.75046066    -4.598916    -4.598916   -3.4732273  0.017621067    -4.598916    1.1256887      1024000 
  354000   0.75109088   -4.5989432   -4.5989432   -3.4723091  0.012380736   -4.5989432     1.126634      1024000 
  355000   0.75021334   -4.5968581   -4.5968581   -3.4715403  0.013317802   -4.5968581    1.1253177      1024000 
  356000   0.75143119   -4.5973566   -4.5973566   -3.4702121 0.0090473199   -4.5973566    1.1271445      1024000 
  357000     0.749691   -4.5943396   -4.5943396   -3.4698054 0.0075447364   -4.5943396    1.1245342      1024000 
  358000   0.75045898   -4.5943872   -4.5943872    -3.468701  0.010253025   -4.5943872    1.1256862      1024000 
  359000   0.75057034   -4.5942985   -4.5942985   -3.4684452 0.0067391305   -4.5942985    1.1258532      1024000 
  360000   0.75088215   -4.5940859   -4.5940859    -3.467765 0.0059039189   -4.5940859    1.1263209      1024000 
  361000    0.7506143    -4.592753    -4.592753   -3.4668338 0.0054721572    -4.592753    1.1259192      1024000 
  362000   0.75046172   -4.5913512   -4.5913512   -3.4656609 0.0085612639   -4.5913512    1.1256903      1024000 
  363000   0.75127549   -4.5915884   -4.5915884   -3.4646775  0.010692631   -4.5915884    1.1269109      1024000 
  364000   0.75255556   -4.5923167   -4.5923167   -3.4634856 0.0053479758   -4.5923167    1.1288311      1024000 
  365000   0.75140832   -4.5892063   -4.5892063   -3.4620961   0.01033725   -4.5892063    1.1271102      1024000 
  366000   0.75220609   -4.5893016   -4.5893016   -3.4609947  0.014384548   -4.5893016    1.1283068      1024000 
  367000     0.753365   -4.5908971   -4.5908971   -3.4608519 0.0080136061   -4.5908971    1.1300452      1024000 
  368000   0.75327445    -4.589591    -4.589591   -3.4596816  0.011470342    -4.589591    1.1299094      1024000 
  369000   0.75301657   -4.5874724   -4.5874724   -3.4579498  0.014713765   -4.5874724    1.1295226      1024000 
  370000    0.7527443   -4.5868035   -4.5868035   -3.4576893  0.017947609   -4.5868035    1.1291142      1024000 
  371000   0.75305307   -4.5871398   -4.5871398   -3.4575625  0.018894513   -4.5871398    1.1295773      1024000 
  372000   0.75333806   -4.5869475   -4.5869475   -3.4569427  0.013262435   -4.5869475    1.1300048      1024000 
  373000    0.7541194   -4.5868582   -4.5868582   -3.4556814  0.015574204   -4.5868582    1.1311768      1024000 
  374000   0.75450105   -4.5855856   -4.5855856   -3.4538363  0.015904954   -4.5855856    1.1317493      1024000 
  375000   0.75433757    -4.583491    -4.583491    -3.451987  0.021542429    -4.583491    1.1315041      1024000 
  376000   0.75611591   -4.5859967   -4.5859967   -3.4518252  0.020429417   -4.5859967    1.1341716      1024000 
  377000   0.75625057   -4.5853654   -4.5853654   -3.4509918  0.018415399   -4.5853654    1.1343736      1024000 
  378000   0.75548543   -4.5832624   -4.5832624   -3.4500365  0.024081316   -4.5832624    1.1332258      1024000 
  379000   0.75638617   -4.5838674   -4.5838674   -3.4492904  0.016504914   -4.5838674     1.134577      1024000 
  380000   0.75625426   -4.5818083   -4.5818083   -3.4474292  0.019303606   -4.5818083    1.1343791      1024000 
  381000   0.75686412   -4.5815936   -4.5815936   -3.4462998  0.018930392   -4.5815936    1.1352939      1024000 
  382000   0.75608626   -4.5794947   -4.5794947   -3.4453676  0.022002675   -4.5794947    1.1341271      1024000 
  383000   0.75554232   -4.5776139   -4.5776139   -3.4443028  0.020650265   -4.5776139    1.1333112      1024000 
  384000   0.75687297    -4.578868    -4.578868   -3.4435608  0.019196349    -4.578868    1.1353072      1024000 
  385000   0.75601108   -4.5758136   -4.5758136   -3.4417993  0.018039201   -4.5758136    1.1340143      1024000 
  386000   0.75693762    -4.575772    -4.575772   -3.4403679  0.015660219    -4.575772    1.1354041      1024000 
  387000   0.75663347   -4.5743464   -4.5743464   -3.4393985  0.012262175   -4.5743464    1.1349479      1024000 
  388000    0.7568197   -4.5732176   -4.5732176   -3.4379904  0.012741715   -4.5732176    1.1352272      1024000 
  389000   0.75703601   -4.5725818   -4.5725818   -3.4370301  0.013990518   -4.5725818    1.1355517      1024000 
  390000   0.75784515   -4.5723984   -4.5723984    -3.435633  0.015319233   -4.5723984    1.1367654      1024000 
  391000   0.75852289   -4.5721137   -4.5721137   -3.4343317 0.0091100484   -4.5721137     1.137782      1024000 
  392000   0.75770079   -4.5696511   -4.5696511   -3.4331022  0.015851959   -4.5696511    1.1365489      1024000 
  393000   0.75784984   -4.5682995   -4.5682995   -3.4315271  0.013681162   -4.5682995    1.1367725      1024000 
  394000   0.75689042    -4.565927    -4.565927   -3.4305937  0.016678497    -4.565927    1.1353333      1024000 
  395000   0.75755981    -4.566385    -4.566385   -3.4300476 0.0088111975    -4.566385    1.1363374      1024000 
  396000   0.75754753   -4.5646644   -4.5646644   -3.4283454 0.0086781469   -4.5646644     1.136319      1024000 
  397000   0.75775831   -4.5638837   -4.5638837   -3.4272485  0.010032394   -4.5638837    1.1366352      1024000 
  398000    0.7580936   -4.5635705   -4.5635705   -3.4264324 0.0049118573   -4.5635705    1.1371381      1024000 
  399000     0.757676   -4.5613779   -4.5613779   -3.4248662 0.0074145666   -4.5613779    1.1365117      1024000 
  400000   0.75798726   -4.5611982   -4.5611982   -3.4242196  0.007507719   -4.5611982    1.1369786      1024000 
  401000    0.7589039    -4.560841    -4.560841   -3.4224874 0.0095284297    -4.560841    1.1383535      1024000 
  402000   0.75879365   -4.5592289   -4.5592289   -3.4210408  0.012760276   -4.5592289    1.1381882      1024000 
  403000   0.75838635    -4.557681    -4.557681   -3.4201038   0.01388921    -4.557681    1.1375772      1024000 
  404000   0.75995441   -4.5580462   -4.5580462   -3.4181169  0.011329949   -4.5580462    1.1399293      1024000 
  405000   0.76016282   -4.5573319   -4.5573319     -3.41709 0.0097159043   -4.5573319    1.1402419      1024000 
  406000   0.76025419   -4.5560504   -4.5560504   -3.4156715  0.012659929   -4.5560504     1.140379      1024000 
  407000   0.76111486   -4.5553248   -4.5553248   -3.4136548  0.012308992   -4.5553248      1.14167      1024000 
  408000   0.76100029   -4.5545183   -4.5545183   -3.4130201  0.013642163   -4.5545183    1.1414981      1024000 
  409000   0.76075823   -4.5528667   -4.5528667   -3.4117317  0.016733769   -4.5528667     1.141135      1024000 
  410000   0.76206358   -4.5545767   -4.5545767   -3.4114836  0.012036987   -4.5545767     1.143093      1024000 
  411000   0.76068624   -4.5515574   -4.5515574   -3.4105304  0.017074041   -4.5515574    1.1410271      1024000 
  412000   0.76121123   -4.5516203   -4.5516203   -3.4098058  0.016900765   -4.5516203    1.1418145      1024000 
  413000   0.76265782   -4.5522382   -4.5522382   -3.4082538  0.012883796   -4.5522382    1.1439844      1024000 
  414000   0.76280766    -4.550965    -4.550965   -3.4067559  0.015876473    -4.550965    1.1442092      1024000 
  415000   0.76248028   -4.5485509   -4.5485509   -3.4048328  0.017958458   -4.5485509    1.1437181      1024000 
  416000   0.76289143   -4.5486433   -4.5486433   -3.4043084   0.01426459   -4.5486433    1.1443348      1024000 
  417000   0.76321308   -4.5477449   -4.5477449   -3.4029276  0.014364812   -4.5477449    1.1448173      1024000 
  418000   0.76237943   -4.5458971   -4.5458971   -3.4023302  0.018604644   -4.5458971    1.1435668      1024000 
  419000   0.76312224   -4.5458166   -4.5458166   -3.4011356  0.013177314   -4.5458166     1.144681      1024000 
  420000   0.76396749    -4.545897    -4.545897   -3.3999481  0.016400595    -4.545897    1.1459489      1024000 
  421000   0.76429846   -4.5440738   -4.5440738   -3.3976284  0.016317989   -4.5440738    1.1464454      1024000 
  422000   0.76552094   -4.5445327   -4.5445327   -3.3962537  0.017517954   -4.5445327    1.1482791      1024000 
  423000   0.76528349   -4.5429412   -4.5429412   -3.3950183  0.018871357   -4.5429412    1.1479229      1024000 
  424000   0.76528144   -4.5411331   -4.5411331   -3.3932132  0.015093907   -4.5411331    1.1479198      1024000 
  425000   0.76487698   -4.5397949   -4.5397949   -3.3924818  0.013114441   -4.5397949    1.1473131      1024000 
  426000   0.76607494   -4.5396565   -4.5396565   -3.3905465  0.017009313   -4.5396565    1.1491101      1024000 
  427000   0.76645958      -4.5395      -4.5395    -3.389813  0.012719317      -4.5395     1.149687      1024000 
  428000   0.76541311    -4.536502    -4.536502   -3.3883846   0.01604633    -4.536502    1.1481173      1024000 
  429000   0.76558142   -4.5351758   -4.5351758    -3.386806  0.014568258   -4.5351758    1.1483698      1024000 
  430000   0.76618817    -4.535182    -4.535182    -3.385902  0.012046717    -4.535182    1.1492799      1024000 
  431000   0.76604186   -4.5339692   -4.5339692   -3.3849087  0.014100953   -4.5339692    1.1490605      1024000 
  432000    0.7668618   -4.5332912   -4.5332912   -3.3830008 0.0099549588   -4.5332912    1.1502904      1024000 
  433000   0.76591893   -4.5310977   -4.5310977   -3.3822217  0.012491685   -4.5310977    1.1488761      1024000 
  434000   0.76712678   -4.5308994   -4.5308994   -3.3802116 0.0093482728   -4.5308994    1.1506878      1024000 
  435000   0.76486624   -4.5269555   -4.5269555   -3.3796585  0.016212506   -4.5269555     1.147297      1024000 
  436000   0.76548598   -4.5272336   -4.5272336   -3.3790069  0.015482959   -4.5272336    1.1482266      1024000 
  437000   0.76574569   -4.5267837   -4.5267837   -3.3781675  0.011825952   -4.5267837    1.1486162      1024000 
  438000   0.76703413   -4.5268702   -4.5268702   -3.3763213 0.0085434595   -4.5268702    1.1505489      1024000 
  439000   0.76700507   -4.5261252   -4.5261252   -3.3756199 0.0083956212   -4.5261252    1.1505053      1024000 
  440000   0.76778924   -4.5250057   -4.5250057   -3.3733241  0.013253765   -4.5250057    1.1516815      1024000 
  441000   0.76835679   -4.5239279   -4.5239279   -3.3713951  0.012681236   -4.5239279    1.1525328      1024000 
  442000    0.7677641   -4.5226754   -4.5226754   -3.3710316  0.011272994   -4.5226754    1.1516438      1024000 
  443000   0.76889321   -4.5233833   -4.5233833   -3.3700459 0.0069119543   -4.5233833    1.1533375      1024000 
  444000   0.76785539   -4.5197031   -4.5197031   -3.3679224 0.0073943302   -4.5197031    1.1517808      1024000 
  445000   0.76801819   -4.5190819   -4.5190819   -3.3670569  0.011015001   -4.5190819     1.152025      1024000 
  446000   0.76895134   -4.5185218   -4.5185218   -3.3650972  0.010526819   -4.5185218    1.1534247      1024000 
  447000   0.76959827    -4.519326    -4.519326   -3.3649309 0.0097982383    -4.519326    1.1543951      1024000 
  448000   0.76872587   -4.5163649   -4.5163649   -3.3632785 0.0094268169   -4.5163649    1.1530865      1024000 
  449000   0.76998393   -4.5180208   -4.5180208   -3.3630473 0.0067127376   -4.5180208    1.1549736      1024000 
  450000   0.77042394   -4.5163523   -4.5163523   -3.3607187 0.0081723583   -4.5163523    1.1556336      1024000 
  451000   0.76976686   -4.5139326   -4.5139326   -3.3592847  0.012451491   -4.5139326    1.1546479      1024000 
  452000   0.77137928   -4.5146829   -4.5146829   -3.3576163 0.0084695619   -4.5146829    1.1570666      1024000 
  453000   0.77123232   -4.5128024   -4.5128024   -3.3559563  0.016230249   -4.5128024    1.1568461      1024000 
  454000   0.77186105    -4.512992    -4.512992   -3.3552028  0.015393231    -4.512992    1.1577892      1024000 
  455000   0.77133435   -4.5108147   -4.5108147   -3.3538155  0.020114375   -4.5108147    1.1569992      1024000 
  456000   0.77208901   -4.5101504   -4.5101504   -3.3520192  0.015850853   -4.5101504    1.1581312      1024000 
  457000   0.77295669    -4.509913    -4.509913   -3.3504804  0.010445349    -4.509913    1.1594327      1024000 
  458000   0.77252044   -4.5084272   -4.5084272   -3.3496489  0.017637685   -4.5084272    1.1587783      1024000 
  459000   0.77313195   -4.5079741   -4.5079741   -3.3482786  0.019841939   -4.5079741    1.1596956      1024000 
  460000   0.77246599   -4.5057518   -4.5057518   -3.3470551  0.014755926   -4.5057518    1.1586966      1024000 
  461000   0.77497705   -4.5085499   -4.5085499   -3.3460867  0.016241388   -4.5085499    1.1624632      1024000 
  462000   0.77306718   -4.5054095   -4.5054095   -3.3458111  0.016593092   -4.5054095    1.1595984      1024000 
  463000   0.77344327   -4.5037769   -4.5037769   -3.3436143   0.01813662   -4.5037769    1.1601625      1024000 
  464000   0.77363618   -4.5020233   -4.5020233   -3.3415713  0.017272602   -4.5020233    1.1604519      1024000 
  465000   0.77356079    -4.500923    -4.500923   -3.3405842  0.011437695    -4.500923    1.1603388      1024000 
  466000   0.77369791     -4.49897     -4.49897   -3.3384255  0.010632569     -4.49897    1.1605445      1024000 
  467000   0.77361124   -4.4985081   -4.4985081   -3.3380936   0.01516964   -4.4985081    1.1604145      1024000 
  468000   0.77506433   -4.4997873   -4.4997873   -3.3371931   0.01440273   -4.4997873    1.1625941      1024000 
  469000   0.77527081   -4.4988328   -4.4988328   -3.3359289  0.014773655   -4.4988328    1.1629038      1024000 
  470000   0.77447968   -4.4969449   -4.4969449   -3.3352278  0.012849263   -4.4969449    1.1617172      1024000 
  471000   0.77436545   -4.4947025   -4.4947025   -3.3331567  0.017118762   -4.4947025    1.1615458      1024000 
  472000   0.77557404   -4.4947847   -4.4947847    -3.331426 0.0090760642   -4.4947847    1.1633587      1024000 
  473000   0.77533386   -4.4927242   -4.4927242   -3.3297258  0.015708474   -4.4927242    1.1629984      1024000 
  474000   0.77546936   -4.4913227   -4.4913227    -3.328121  0.014030071   -4.4913227    1.1632017      1024000 
  475000   0.77616971   -4.4911072   -4.4911072    -3.326855  0.010552117   -4.4911072    1.1642522      1024000 
  476000   0.77617103   -4.4888288   -4.4888288   -3.3245746  0.015328364   -4.4888288    1.1642542      1024000 
  477000   0.77668699   -4.4889651   -4.4889651    -3.323937  0.011165523   -4.4889651    1.1650281      1024000 
  478000   0.77742571    -4.487997    -4.487997   -3.3218608  0.013164976    -4.487997    1.1661362      1024000 
  479000   0.77680688   -4.4851233   -4.4851233   -3.3199153  0.015013165   -4.4851233     1.165208      1024000 
  480000   0.77790187   -4.4853033   -4.4853033   -3.3184528  0.012512936   -4.4853033    1.1668504      1024000 
  481000   0.77811396   -4.4842437   -4.4842437   -3.3170752  0.013768655   -4.4842437    1.1671686      1024000 
  482000   0.77848184   -4.4833685   -4.4833685   -3.3156481  0.014243279   -4.4833685    1.1677204      1024000 
  483000   0.77830066   -4.4827482   -4.4827482   -3.3152995   0.01182003   -4.4827482    1.1674486      1024000 
  484000   0.77869516   -4.4820766   -4.4820766   -3.3140363  0.010339933   -4.4820766    1.1680404      1024000 
  485000   0.77829311   -4.4794983   -4.4794983    -3.312061  0.012261509   -4.4794983    1.1674373      1024000 
  486000   0.77824238   -4.4784836   -4.4784836   -3.3111224 0.0092980086   -4.4784836    1.1673612      1024000 
  487000   0.77804337    -4.476832    -4.476832   -3.3097693  0.011223531    -4.476832    1.1670627      1024000 
  488000   0.77914963   -4.4760185   -4.4760185   -3.3072964 0.0062332613   -4.4760185    1.1687221      1024000 
  489000   0.77888363   -4.4746819   -4.4746819   -3.3063588 0.0087195512   -4.4746819    1.1683231      1024000 
  490000   0.77932076   -4.4741288   -4.4741288     -3.30515 0.0082902077   -4.4741288    1.1689788      1024000 
  491000   0.77873655   -4.4718928   -4.4718928   -3.3037903  0.013876314   -4.4718928    1.1681025      1024000 
  492000   0.77938531   -4.4710936   -4.4710936    -3.302018   0.01379601   -4.4710936    1.1690756      1024000 
  493000   0.77965738   -4.4707207   -4.4707207    -3.301237  0.010682253   -4.4707207    1.1694837      1024000 
  494000    0.7804375   -4.4713387   -4.4713387   -3.3006849  0.012726535   -4.4713387    1.1706539      1024000 
  495000   0.77972724   -4.4695273   -4.4695273   -3.2999388  0.012423065   -4.4695273    1.1695885      1024000 
  496000   0.78152786   -4.4702864   -4.4702864    -3.297997  0.012317796   -4.4702864    1.1722894      1024000 
  497000   0.78073795   -4.4673156   -4.4673156    -3.296211  0.012479678   -4.4673156    1.1711045      1024000 
  498000   0.78070771   -4.4651823   -4.4651823   -3.2941231  0.017292023   -4.4651823    1.1710592      1024000 
  499000   0.78230996   -4.4668679   -4.4668679   -3.2934054  0.011841563   -4.4668679    1.1734626      1024000 
  500000   0.78178437   -4.4643174   -4.4643174   -3.2916432  0.013932916   -4.4643174    1.1726742      1024000 
  501000   0.78214152   -4.4634917   -4.4634917   -3.2902818  0.013675831   -4.4634917    1.1732099      1024000 
  502000   0.78214911   -4.4620636   -4.4620636   -3.2888423  0.018453719   -4.4620636    1.1732213      1024000 
  503000    0.7830257    -4.462414    -4.462414   -3.2878779  0.014635831    -4.462414    1.1745362      1024000 
  504000   0.78382359   -4.4612471   -4.4612471   -3.2855141  0.013546679   -4.4612471     1.175733      1024000 
  505000   0.78324942   -4.4589389   -4.4589389   -3.2840672  0.018470488   -4.4589389    1.1748717      1024000 
  506000   0.78427991   -4.4599588   -4.4599588   -3.2835413  0.013603395   -4.4599588    1.1764175      1024000 
  507000   0.78433646   -4.4589216   -4.4589216   -3.2824193  0.018128662   -4.4589216    1.1765023      1024000 
  508000   0.78342688   -4.4566859   -4.4566859    -3.281548  0.018208273   -4.4566859    1.1751379      1024000 
  509000   0.78567877   -4.4589683   -4.4589683   -3.2804526  0.015541703   -4.4589683    1.1785158      1024000 
  510000   0.78467078   -4.4562088   -4.4562088    -3.279205   0.01822128   -4.4562088    1.1770038      1024000 
  511000   0.78340664    -4.453137    -4.453137   -3.2780294  0.017062941    -4.453137    1.1751076      1024000 
  512000   0.78390254    -4.453285    -4.453285   -3.2774336  0.014927691    -4.453285    1.1758514      1024000 
  513000   0.78424506   -4.4517589   -4.4517589   -3.2753937  0.015755147   -4.4517589    1.1763652      1024000 
  514000   0.78475603   -4.4509451   -4.4509451   -3.2738134  0.011458671   -4.4509451    1.1771317      1024000 
  515000   0.78400068   -4.4494768   -4.4494768   -3.2734782  0.015214717   -4.4494768    1.1759986      1024000 
  516000   0.78383567    -4.448226    -4.448226   -3.2724749   0.01250156    -4.448226    1.1757511      1024000 
  517000   0.78645338   -4.4498809   -4.4498809   -3.2702032 0.0059739154   -4.4498809    1.1796777      1024000 
  518000   0.78503725    -4.446143    -4.446143   -3.2685895  0.012428531    -4.446143    1.1775535      1024000 
  519000   0.78552777   -4.4454882   -4.4454882    -3.267199  0.016132676   -4.4454882    1.1782893      1024000 
  520000    0.7868592    -4.446105    -4.446105   -3.2658186  0.012922798    -4.446105    1.1802864      1024000 
  521000   0.78634115   -4.4434663   -4.4434663    -3.263957   0.01698973   -4.4434663    1.1795093      1024000 
  522000   0.78763967   -4.4441012   -4.4441012   -3.2626441  0.017642719   -4.4441012    1.1814571      1024000 
  523000   0.78808009   -4.4424949   -4.4424949   -3.2603772  0.011448968   -4.4424949    1.1821177      1024000 
  524000   0.78903929   -4.4420823   -4.4420823   -3.2585258  0.015335942   -4.4420823    1.1835565      1024000 
  525000   0.78849567   -4.4388912   -4.4388912   -3.2561501    0.0201478   -4.4388912    1.1827411      1024000 
  526000   0.78986466   -4.4395056   -4.4395056   -3.2547111  0.017697643   -4.4395056    1.1847946      1024000 
  527000   0.78928507   -4.4370244   -4.4370244   -3.2530992  0.016119781   -4.4370244    1.1839252      1024000 
  528000   0.79017823   -4.4363472   -4.4363472   -3.2510822  0.016215646   -4.4363472    1.1852649      1024000 
  529000    0.7897193   -4.4343335   -4.4343335   -3.2497569  0.019517291   -4.4343335    1.1845765      1024000 
  530000   0.79058837   -4.4344681   -4.4344681   -3.2485879  0.012156537   -4.4344681    1.1858802      1024000 
  531000   0.79149353   -4.4338685   -4.4338685   -3.2466306   0.01210621   -4.4338685    1.1872379      1024000 
  532000   0.78885189   -4.4291095   -4.4291095    -3.245834  0.018796554   -4.4291095    1.1832754      1024000 
  533000   0.78999037   -4.4297225   -4.4297225   -3.2447394  0.012838029   -4.4297225    1.1849832      1024000 
  534000    0.7894862   -4.4279349   -4.4279349    -3.243708 0.0097250465   -4.4279349    1.1842269      1024000 
  535000   0.78973994   -4.4270577   -4.4270577   -3.2424502  0.013343701   -4.4270577    1.1846075      1024000 
  536000   0.78960932   -4.4253592   -4.4253592   -3.2409477  0.013082839   -4.4253592    1.1844116      1024000 
  537000   0.79149622    -4.427244    -4.427244   -3.2400021 0.0012383838    -4.427244    1.1872419      1024000 
  538000   0.79050769   -4.4245509   -4.4245509   -3.2387918 0.0096365437   -4.4245509    1.1857591      1024000 
  539000   0.78969975   -4.4209134   -4.4209134   -3.2363662  0.014404619   -4.4209134    1.1845472      1024000 
  540000   0.78989852   -4.4195783   -4.4195783   -3.2347329   0.01381814   -4.4195783    1.1848454      1024000 
  541000   0.79110549   -4.4197735   -4.4197735   -3.2331177 0.0091389806   -4.4197735    1.1866558      1024000 
  542000   0.79241273   -4.4188489   -4.4188489   -3.2302323  0.011171796   -4.4188489    1.1886167      1024000 
  543000   0.79184426   -4.4158386   -4.4158386   -3.2280746   0.01672481   -4.4158386     1.187764      1024000 
  544000   0.79323376   -4.4157218   -4.4157218   -3.2258736  0.012201167   -4.4157218    1.1898482      1024000 
  545000    0.7933168   -4.4144664   -4.4144664   -3.2244936  0.014308734   -4.4144664    1.1899728      1024000 
  546000   0.79316038   -4.4137956   -4.4137956   -3.2240575  0.015089235   -4.4137956    1.1897382      1024000 
  547000     0.793386   -4.4132076   -4.4132076    -3.223131  0.013520093   -4.4132076    1.1900766      1024000 
  548000   0.79350465   -4.4121353   -4.4121353   -3.2218808  0.011507829   -4.4121353    1.1902546      1024000 
  549000   0.79295885   -4.4093978   -4.4093978    -3.219962  0.015928784   -4.4093978    1.1894359      1024000 
  550000   0.79334321   -4.4081606   -4.4081606   -3.2181482  0.012127131   -4.4081606    1.1900124      1024000 
  551000   0.79521701    -4.409203    -4.409203   -3.2163799 0.0060934928    -4.409203    1.1928231      1024000 
  552000   0.79377159   -4.4049665   -4.4049665   -3.2143116   0.01066103   -4.4049665     1.190655      1024000 
  553000   0.79384593   -4.4032903   -4.4032903   -3.2125239  0.012442258   -4.4032903    1.1907665      1024000 
  554000   0.79575142   -4.4051081   -4.4051081   -3.2114834 0.0073458642   -4.4051081    1.1936247      1024000 
  555000    0.7947904   -4.4021833   -4.4021833   -3.2100002 0.0088454656   -4.4021833    1.1921832      1024000 
  556000   0.79458125   -4.4008358   -4.4008358   -3.2089663  0.011029295   -4.4008358    1.1918694      1024000 
  557000   0.79598062   -4.4001536   -4.4001536   -3.2061851  0.012748349   -4.4001536    1.1939685      1024000 
  558000   0.79690327   -4.3996838   -4.3996838   -3.2043313  0.012181746   -4.3996838    1.1953525      1024000 
  559000   0.79685902   -4.3975338   -4.3975338   -3.2022477  0.018695301   -4.3975338    1.1952861      1024000 
  560000    0.7970551   -4.3969155   -4.3969155   -3.2013353  0.019355003   -4.3969155    1.1955802      1024000 
  561000   0.79783748   -4.3964286   -4.3964286   -3.1996748  0.015238284   -4.3964286    1.1967538      1024000 
  562000   0.79889822   -4.3969934   -4.3969934   -3.1986485  0.010930831   -4.3969934    1.1983449      1024000 
  563000   0.79773968    -4.394219    -4.394219   -3.1976119  0.018724145    -4.394219    1.1966071      1024000 
  564000   0.79794155   -4.3944289   -4.3944289    -3.197519  0.011922356   -4.3944289    1.1969099      1024000 
  565000   0.79767536   -4.3914655   -4.3914655   -3.1949549   0.01310831   -4.3914655    1.1965106      1024000 
  566000   0.79860711   -4.3918951   -4.3918951   -3.1939869  0.014363825   -4.3918951    1.1979082      1024000 
  567000   0.79818323   -4.3904606   -4.3904606   -3.1931882  0.016165697   -4.3904606    1.1972724      1024000 
  568000   0.79745738   -4.3886434   -4.3886434   -3.1924597 0.0099252497   -4.3886434    1.1961836      1024000 
  569000   0.79808425   -4.3876463   -4.3876463   -3.1905223 0.0039783982   -4.3876463    1.1971239      1024000 
  570000   0.79903796   -4.3867781   -4.3867781   -3.1882236  0.010399101   -4.3867781    1.1985545      1024000 
  571000   0.79974709    -4.385996    -4.385996   -3.1863778  0.010586192    -4.385996    1.1996182      1024000 
  572000   0.79952836   -4.3839763   -4.3839763   -3.1846862 0.0088493171   -4.3839763    1.1992901      1024000 
  573000   0.80006455   -4.3824193   -4.3824193   -3.1823249  0.015579742   -4.3824193    1.2000944      1024000 
  574000   0.79952771   -4.3799499   -4.3799499   -3.1806607  0.013294486   -4.3799499    1.1992891      1024000 
  575000   0.80063751   -4.3793606   -4.3793606   -3.1784067  0.015928278   -4.3793606    1.2009538      1024000 
  576000   0.80063748   -4.3796848   -4.3796848    -3.178731  0.010845484   -4.3796848    1.2009538      1024000 
  577000   0.80053825    -4.378134    -4.378134   -3.1773291  0.016383946    -4.378134    1.2008049      1024000 
  578000   0.80162721   -4.3775478   -4.3775478   -3.1751094   0.01400623   -4.3775478    1.2024384      1024000 
  579000   0.80179413   -4.3752714   -4.3752714   -3.1725827  0.012683152   -4.3752714    1.2026888      1024000 
  580000   0.80219819   -4.3759143   -4.3759143   -3.1726194 0.0049513822   -4.3759143    1.2032948      1024000 
  581000   0.80094281   -4.3728214   -4.3728214   -3.1714096  0.012586084   -4.3728214    1.2014118      1024000 
  582000    0.8024634   -4.3729654   -4.3729654   -3.1692728 0.0094675711   -4.3729654    1.2036927      1024000 
  583000    0.8033208   -4.3719625   -4.3719625   -3.1669837  0.010103667   -4.3719625    1.2049788      1024000 
  584000   0.80329956   -4.3710585   -4.3710585   -3.1661117  0.012829693   -4.3710585    1.2049469      1024000 
  585000   0.80318463    -4.369248    -4.369248   -3.1644735   0.01586147    -4.369248    1.2047745      1024000 
  586000   0.80333331   -4.3687495   -4.3687495    -3.163752  0.014582755   -4.3687495    1.2049975      1024000 
  587000   0.80388964   -4.3683925   -4.3683925   -3.1625605  0.010273209   -4.3683925     1.205832      1024000 
  588000   0.80278663   -4.3652525   -4.3652525    -3.161075   0.01328372   -4.3652525    1.2041775      1024000 
  589000   0.80319476   -4.3627151   -4.3627151   -3.1579254  0.015703747   -4.3627151    1.2047897      1024000 
  590000   0.80427784   -4.3627048   -4.3627048   -3.1562905  0.014320898   -4.3627048    1.2064143      1024000 
  591000   0.80530587   -4.3634746   -4.3634746   -3.1555183  0.012204224   -4.3634746    1.2079564      1024000 
  592000   0.80554796   -4.3618832   -4.3618832   -3.1535637 0.0099409262   -4.3618832    1.2083195      1024000 
  593000   0.80406525   -4.3591041   -4.3591041   -3.1530087  0.010635095   -4.3591041    1.2060954      1024000 
  594000   0.80436809   -4.3579981   -4.3579981   -3.1514484  0.015108809   -4.3579981    1.2065497      1024000 
  595000   0.80482374   -4.3562686   -4.3562686   -3.1490354  0.014691669   -4.3562686    1.2072332      1024000 
  596000   0.80636652    -4.356627    -4.356627   -3.1470797  0.014458235    -4.356627    1.2095473      1024000 
  597000   0.80587165   -4.3543264   -4.3543264   -3.1455214  0.017083744   -4.3543264     1.208805      1024000 
  598000   0.80781642   -4.3552813   -4.3552813   -3.1435591  0.016236129   -4.3552813    1.2117222      1024000 
  599000   0.80857801   -4.3551133   -4.3551133   -3.1422487 0.0099662581   -4.3551133    1.2128646      1024000 
  600000   0.80743718   -4.3519783   -4.3519783    -3.140825  0.014062064   -4.3519783    1.2111533      1024000 
  601000   0.80695115   -4.3494501   -4.3494501   -3.1390258  0.018039808   -4.3494501    1.2104243      1024000 
  602000   0.80740774   -4.3481451   -4.3481451    -3.137036  0.016004897   -4.3481451    1.2111091      1024000 
  603000   0.80902991   -4.3493103   -4.3493103   -3.1357679  0.013633955   -4.3493103    1.2135424      1024000 
  604000   0.80924864   -4.3495823   -4.3495823   -3.1357118 0.0080066325   -4.3495823    1.2138705      1024000 
  605000   0.80828621   -4.3466754   -4.3466754   -3.1342486  0.011205406   -4.3466754    1.2124269      1024000 
  606000   0.80921436     -4.34581     -4.34581   -3.1319909  0.015790437     -4.34581    1.2138191      1024000 
  607000   0.80897815   -4.3431208   -4.3431208    -3.129656  0.016916271   -4.3431208    1.2134648      1024000 
  608000   0.80874646   -4.3416774   -4.3416774   -3.1285602  0.015231294   -4.3416774    1.2131172      1024000 
  609000   0.80873594   -4.3399529   -4.3399529   -3.1268514  0.013575178   -4.3399529    1.2131014      1024000 
  610000   0.81018615   -4.3400319   -4.3400319   -3.1247551  0.013776806   -4.3400319    1.2152768      1024000 
  611000   0.80886559   -4.3371534   -4.3371534   -3.1238574  0.015437087   -4.3371534    1.2132959      1024000 
  612000   0.80986805   -4.3363309   -4.3363309   -3.1215313   0.01038636   -4.3363309    1.2147996      1024000 
  613000   0.80999243   -4.3346473   -4.3346473   -3.1196612  0.017115208   -4.3346473    1.2149862      1024000 
  614000   0.81068739   -4.3338161   -4.3338161   -3.1177874  0.010302107   -4.3338161    1.2160286      1024000 
  615000   0.81016049   -4.3316483   -4.3316483     -3.11641  0.011464636   -4.3316483    1.2152383      1024000 
  616000   0.80965551   -4.3286922   -4.3286922   -3.1142114  0.017118795   -4.3286922    1.2144808      1024000 
  617000   0.81065736   -4.3300004   -4.3300004   -3.1140168 0.0089968252   -4.3300004    1.2159836      1024000 
  618000    0.8097453   -4.3279171   -4.3279171   -3.1133016  0.011321284   -4.3279171    1.2146155      1024000 
  619000   0.81028097   -4.3256185   -4.3256185   -3.1101995  0.012544827   -4.3256185     1.215419      1024000 
  620000   0.81170158   -4.3249115   -4.3249115   -3.1073616  0.014264437   -4.3249115    1.2175499      1024000 
  621000   0.81197497   -4.3240727   -4.3240727   -3.1061127  0.012214402   -4.3240727      1.21796      1024000 
  622000   0.81275962   -4.3235197   -4.3235197   -3.1043827  0.011611276   -4.3235197     1.219137      1024000 
  623000   0.81206368   -4.3213548   -4.3213548   -3.1032617  0.010017317   -4.3213548     1.218093      1024000 
  624000   0.81342764   -4.3209743   -4.3209743   -3.1008353  0.013450658   -4.3209743     1.220139      1024000 
  625000   0.81308367   -4.3191991   -4.3191991   -3.0995761 0.0082463108   -4.3191991     1.219623      1024000 
  626000   0.81284039   -4.3162214   -4.3162214   -3.0969633  0.011219387   -4.3162214    1.2192581      1024000 
  627000   0.81359622   -4.3153434   -4.3153434   -3.0949516  0.013705471   -4.3153434    1.2203919      1024000 
  628000   0.81353358   -4.3133677   -4.3133677   -3.0930698   0.01145514   -4.3133677    1.2202979      1024000 
  629000   0.81408821   -4.3134832   -4.3134832   -3.0923534  0.010948572   -4.3134832    1.2211298      1024000 
  630000   0.81460233   -4.3131802   -4.3131802   -3.0912792 0.0087256649   -4.3131802     1.221901      1024000 
  631000    0.8133554    -4.310135    -4.310135   -3.0901044 0.0090549137    -4.310135    1.2200306      1024000 
  632000   0.81399573   -4.3091974   -4.3091974   -3.0882063 0.0076136612   -4.3091974    1.2209911      1024000 
  633000   0.81527751   -4.3099454   -4.3099454   -3.0870316 0.0065495444   -4.3099454    1.2229138      1024000 
  634000   0.81383902   -4.3059552   -4.3059552   -3.0851991   0.01477825   -4.3059552     1.220756      1024000 
  635000   0.81526695   -4.3055131   -4.3055131   -3.0826151  0.010370023   -4.3055131    1.2228979      1024000 
  636000   0.81624469   -4.3059567   -4.3059567   -3.0815921 0.0049762201   -4.3059567    1.2243646      1024000 
  637000   0.81623625   -4.3044812   -4.3044812   -3.0801293 0.0099908414   -4.3044812    1.2243519      1024000 
  638000   0.81555871   -4.3020066   -4.3020066    -3.078671  0.017064254   -4.3020066    1.2233356      1024000 
  639000   0.81672395    -4.301421    -4.301421   -3.0763376  0.015566131    -4.301421    1.2250834      1024000 
  640000   0.81700807   -4.2997178   -4.2997178   -3.0742082  0.013591376   -4.2997178    1.2255096      1024000 
  641000   0.81732855   -4.2996737   -4.2996737   -3.0736833  0.011722952   -4.2996737    1.2259903      1024000 
  642000   0.81745773   -4.2972539   -4.2972539   -3.0710698  0.011377686   -4.2972539    1.2261841      1024000 
  643000   0.81780186    -4.296706    -4.296706   -3.0700057  0.012332991    -4.296706    1.2267003      1024000 
  644000   0.81668961   -4.2942106   -4.2942106   -3.0691787  0.014666535   -4.2942106    1.2250319      1024000 
  645000   0.81750499   -4.2948298   -4.2948298   -3.0685748 0.0065123489   -4.2948298     1.226255      1024000 
  646000   0.81770647   -4.2928384   -4.2928384   -3.0662812   0.01232105   -4.2928384    1.2265572      1024000 
  647000   0.81913051   -4.2933966   -4.2933966   -3.0647033 0.0095440053   -4.2933966    1.2286933      1024000 
  648000    0.8195903   -4.2920657   -4.2920657   -3.0626827  0.013159133   -4.2920657     1.229383      1024000 
  649000    0.8194546    -4.290294    -4.290294   -3.0611146  0.011039276    -4.290294    1.2291794      1024000 
  650000   0.81876256   -4.2874318   -4.2874318   -3.0592904  0.015906667   -4.2874318    1.2281414      1024000 
  651000   0.81980154   -4.2879714   -4.2879714   -3.0582715  0.011363769   -4.2879714    1.2296998      1024000 
  652000   0.81917696   -4.2849281   -4.2849281   -3.0561651  0.019229018   -4.2849281     1.228763      1024000 
  653000   0.81972435   -4.2834151   -4.2834151   -3.0538311  0.018963924   -4.2834151     1.229584      1024000 
  654000   0.82085041    -4.283315    -4.283315   -3.0520419  0.018020063    -4.283315    1.2312731      1024000 
  655000   0.82189395   -4.2839596   -4.2839596   -3.0511212  0.018027705   -4.2839596    1.2328384      1024000 
  656000   0.82195061   -4.2820714   -4.2820714    -3.049148  0.020649794   -4.2820714    1.2329234      1024000 
  657000   0.82213606   -4.2808411   -4.2808411   -3.0476395  0.019022923   -4.2808411    1.2332016      1024000 
  658000   0.82281961   -4.2808632   -4.2808632   -3.0466363  0.016238846   -4.2808632    1.2342269      1024000 
  659000   0.82278366    -4.278632    -4.278632    -3.044459  0.015034157    -4.278632     1.234173      1024000 
  660000   0.82292107   -4.2767127   -4.2767127   -3.0423336  0.012947281   -4.2767127    1.2343791      1024000 
  661000   0.82324564   -4.2761551   -4.2761551   -3.0412891  0.014340268   -4.2761551     1.234866      1024000 
  662000   0.82242871    -4.272553    -4.272553   -3.0389124  0.013469553    -4.272553    1.2336406      1024000 
  663000   0.82336872   -4.2725704   -4.2725704   -3.0375198  0.013634174   -4.2725704    1.2350506      1024000 
  664000   0.82192613   -4.2698863   -4.2698863   -3.0369996  0.015956966   -4.2698863    1.2328867      1024000 
  665000   0.82346844   -4.2695007   -4.2695007   -3.0343005  0.018725899   -4.2695007    1.2352002      1024000 
  666000   0.82388658   -4.2689727   -4.2689727   -3.0331454  0.012498046   -4.2689727    1.2358274      1024000 
  667000   0.82495951   -4.2683245   -4.2683245   -3.0308878  0.016293081   -4.2683245    1.2374367      1024000 
  668000   0.82452196   -4.2653057   -4.2653057   -3.0285252  0.016019612   -4.2653057    1.2367804      1024000 
  669000   0.82484321   -4.2646187   -4.2646187   -3.0273564  0.013304999   -4.2646187    1.2372623      1024000 
  670000   0.82445226   -4.2623042   -4.2623042   -3.0256283  0.017045571   -4.2623042    1.2366759      1024000 
  671000   0.82528933   -4.2616596   -4.2616596   -3.0237281  0.015675194   -4.2616596    1.2379315      1024000 
  672000    0.8249639   -4.2587392   -4.2587392   -3.0212959  0.019839439   -4.2587392    1.2374433      1024000 
  673000   0.82544581   -4.2585613   -4.2585613   -3.0203951  0.016247345   -4.2585613    1.2381662      1024000 
  674000    0.8252688   -4.2560063   -4.2560063   -3.0181057  0.020226388   -4.2560063    1.2379007      1024000 
  675000   0.82637403   -4.2551229   -4.2551229   -3.0155643  0.014658473   -4.2551229    1.2395585      1024000 
  676000   0.82667931   -4.2528757   -4.2528757   -3.0128592  0.014040215   -4.2528757    1.2400164      1024000 
  677000   0.82597145    -4.250814    -4.250814   -3.0118594 0.0067956372    -4.250814    1.2389547      1024000 
  678000   0.82660653   -4.2496015   -4.2496015   -3.0096942 0.0090265091   -4.2496015    1.2399073      1024000 
  679000   0.82618262   -4.2484245   -4.2484245   -3.0091531 0.0088474455   -4.2484245    1.2392714      1024000 
  680000   0.82613334    -4.246776    -4.246776   -3.0075786  0.015394725    -4.246776    1.2391975      1024000 
  681000   0.82765855   -4.2473297   -4.2473297   -3.0058444  0.011162275   -4.2473297    1.2414853      1024000 
  682000   0.82803456   -4.2460174   -4.2460174   -3.0039681  0.015993353   -4.2460174    1.2420493      1024000 
  683000   0.82868286   -4.2450257   -4.2450257    -3.002004  0.013722865   -4.2450257    1.2430218      1024000 
  684000   0.82896717   -4.2428692   -4.2428692   -2.9994209  0.017946749   -4.2428692    1.2434482      1024000 
  685000   0.82921309   -4.2418532   -4.2418532   -2.9980361  0.015698736   -4.2418532    1.2438171      1024000 
  686000     0.828805   -4.2390971   -4.2390971   -2.9958922  0.014824987   -4.2390971     1.243205      1024000 
  687000   0.82969613   -4.2381333   -4.2381333   -2.9935916  0.014925074   -4.2381333    1.2445417      1024000 
  688000   0.82937357   -4.2367173   -4.2367173   -2.9926595  0.014642197   -4.2367173    1.2440578      1024000 
  689000   0.82956467   -4.2351939   -4.2351939   -2.9908494  0.013578764   -4.2351939    1.2443445      1024000 
  690000   0.82988373   -4.2338953   -4.2338953   -2.9890722  0.013922862   -4.2338953    1.2448231      1024000 
  691000   0.82938519   -4.2307463   -4.2307463    -2.986671  0.010070957   -4.2307463    1.2440753      1024000 
  692000   0.82983914   -4.2305842   -4.2305842    -2.985828 0.0074916584   -4.2305842    1.2447562      1024000 
  693000   0.82827954    -4.226851    -4.226851   -2.9844342  0.010515152    -4.226851    1.2424168      1024000 
  694000   0.82977712   -4.2272597   -4.2272597   -2.9825966 0.0084806319   -4.2272597    1.2446632      1024000 
  695000   0.82980672   -4.2250105   -4.2250105   -2.9803029 0.0013092784   -4.2250105    1.2447075      1024000 
  696000   0.83043221   -4.2247557   -4.2247557   -2.9791099 0.0021941333   -4.2247557    1.2456458      1024000 
  697000   0.82886868   -4.2219104   -4.2219104   -2.9786099 0.0096564285   -4.2219104    1.2433005      1024000 
  698000   0.83062741   -4.2220366   -4.2220366   -2.9760981 0.0052282805   -4.2220366    1.2459386      1024000 
  699000   0.83107983   -4.2197785   -4.2197785   -2.9731613  0.012563683   -4.2197785    1.2466172      1024000 
  700000   0.83096377   -4.2175134   -4.2175134   -2.9710703  0.018182239   -4.2175134    1.2464431      1024000 
  701000    0.8327062    -4.217444    -4.217444   -2.9683872  0.015353304    -4.217444    1.2490568      1024000 
  702000   0.83120512   -4.2135889   -4.2135889   -2.9667838  0.022900971   -4.2135889    1.2468052      1024000 
  703000   0.83252966   -4.2132478   -4.2132478   -2.9644558  0.019663224   -4.2132478     1.248792      1024000 
  704000   0.83406779   -4.2132714   -4.2132714   -2.9621722  0.021260386   -4.2132714    1.2510992      1024000 
  705000   0.83292774   -4.2102872   -4.2102872   -2.9608981  0.019845408   -4.2102872    1.2493891      1024000 
  706000    0.8354263   -4.2113709   -4.2113709    -2.958234  0.017432014   -4.2113709    1.2531369      1024000 
  707000    0.8347599   -4.2083291   -4.2083291   -2.9561918  0.019784276   -4.2083291    1.2521373      1024000 
  708000   0.83562743   -4.2094122   -4.2094122   -2.9559736   0.01145131   -4.2094122    1.2534386      1024000 
  709000   0.83481977   -4.2066406   -4.2066406   -2.9544135  0.018606149   -4.2066406    1.2522271      1024000 
  710000   0.83363715   -4.2030489   -4.2030489   -2.9525957  0.013581684   -4.2030489    1.2504532      1024000 
  711000    0.8342189   -4.2023806   -4.2023806   -2.9510548  0.015318228   -4.2023806    1.2513258      1024000 
  712000   0.83550932   -4.2019728   -4.2019728   -2.9487113 0.0076740179   -4.2019728    1.2532614      1024000 
  713000   0.83587081   -4.2014602   -4.2014602   -2.9476565 0.0086656474   -4.2014602    1.2538037      1024000 
  714000    0.8355193   -4.1983522   -4.1983522   -2.9450758 0.0090839809   -4.1983522    1.2532764      1024000 
  715000   0.83522751   -4.1963292   -4.1963292   -2.9434905   0.01071851   -4.1963292    1.2528387      1024000 
  716000   0.83588538   -4.1963941   -4.1963941   -2.9425685  0.011251035   -4.1963941    1.2538255      1024000 
  717000   0.83470967   -4.1929604   -4.1929604   -2.9408984  0.011478837   -4.1929604     1.252062      1024000 
  718000   0.83640495   -4.1935635   -4.1935635   -2.9389586  0.010218347   -4.1935635    1.2546049      1024000 
  719000   0.83575573   -4.1909388   -4.1909388   -2.9373078  0.015995166   -4.1909388     1.253631      1024000 
  720000   0.83611428    -4.189524    -4.189524   -2.9353552  0.013217944    -4.189524    1.2541689      1024000 
  721000   0.83683197   -4.1887066   -4.1887066   -2.9334612  0.018278338   -4.1887066    1.2552454      1024000 
  722000   0.83743317   -4.1877462   -4.1877462    -2.931599  0.015278634   -4.1877462    1.2561472      1024000 
  723000   0.83848095   -4.1873153   -4.1873153   -2.9295965  0.012999521   -4.1873153    1.2577189      1024000 
  724000   0.83776402    -4.184529    -4.184529   -2.9278856  0.013776454    -4.184529    1.2566435      1024000 
  725000    0.8371151   -4.1815799   -4.1815799   -2.9259098  0.014772108   -4.1815799    1.2556701      1024000 
  726000   0.83756396   -4.1799711   -4.1799711   -2.9236277  0.020022955   -4.1799711    1.2563434      1024000 
  727000    0.8388311   -4.1802525   -4.1802525   -2.9220084  0.015484656   -4.1802525    1.2582441      1024000 
  728000   0.83904394   -4.1785875   -4.1785875   -2.9200242  0.019230474   -4.1785875    1.2585634      1024000 
  729000    0.8394189   -4.1775954   -4.1775954   -2.9184696  0.020351061   -4.1775954    1.2591258      1024000 
  730000   0.84053761   -4.1768144   -4.1768144   -2.9160106  0.016822654   -4.1768144    1.2608039      1024000 
  731000   0.83936454   -4.1747514   -4.1747514   -2.9157071  0.023652288   -4.1747514    1.2590443      1024000 
  732000   0.84059159   -4.1752369   -4.1752369   -2.9143521  0.022723224   -4.1752369    1.2608848      1024000 
  733000   0.84080289   -4.1734061   -4.1734061   -2.9122043  0.020598865   -4.1734061    1.2612018      1024000 
  734000   0.83967586   -4.1697961   -4.1697961   -2.9102849  0.022019971   -4.1697961    1.2595112      1024000 
  735000   0.84072028   -4.1701712   -4.1701712   -2.9090934   0.01455694   -4.1701712    1.2610779      1024000 
  736000   0.83972599   -4.1671323   -4.1671323   -2.9075458  0.015750083   -4.1671323    1.2595864      1024000 
  737000   0.83972511   -4.1640538   -4.1640538   -2.9044687  0.015463464   -4.1640538    1.2595851      1024000 
  738000   0.84155403   -4.1640033   -4.1640033   -2.9016748  0.011466671   -4.1640033    1.2623285      1024000 
  739000    0.8403453   -4.1610851   -4.1610851   -2.9005697  0.013444623   -4.1610851    1.2605154      1024000 
  740000   0.84218177   -4.1611262   -4.1611262   -2.8978561  0.017383064   -4.1611262    1.2632701      1024000 
  741000   0.83985333   -4.1568179   -4.1568179   -2.8970405  0.018109252   -4.1568179    1.2597774      1024000 
  742000   0.84202245   -4.1588174   -4.1588174   -2.8957863   0.01266478   -4.1588174    1.2630311      1024000 
  743000   0.84182801    -4.155938    -4.155938   -2.8931985   0.01770282    -4.155938    1.2627395      1024000 
  744000   0.84201775   -4.1543529   -4.1543529   -2.8913288  0.012850925   -4.1543529    1.2630241      1024000 
  745000   0.84272715   -4.1528593   -4.1528593   -2.8887711  0.017569343   -4.1528593    1.2640882      1024000 
  746000   0.84422766   -4.1537194   -4.1537194   -2.8873805   0.01128548   -4.1537194    1.2663389      1024000 
  747000   0.84254739   -4.1506975   -4.1506975    -2.886879  0.019473935   -4.1506975    1.2638185      1024000 
  748000   0.84423228   -4.1511318   -4.1511318   -2.8847859  0.016983772   -4.1511318    1.2663458      1024000 
  749000   0.84327121   -4.1472225   -4.1472225   -2.8823182  0.018756347   -4.1472225    1.2649042      1024000 
  750000   0.84339985   -4.1447611   -4.1447611   -2.8796639  0.018341695   -4.1447611    1.2650972      1024000 
  751000    0.8443126   -4.1447041   -4.1447041   -2.8782378  0.018228324   -4.1447041    1.2664663      1024000 
  752000    0.8438422   -4.1426968   -4.1426968    -2.876936  0.015751107   -4.1426968    1.2657607      1024000 
  753000   0.84370457   -4.1402021   -4.1402021   -2.8746479  0.018965863   -4.1402021    1.2655543      1024000 
  754000   0.84463438   -4.1393324   -4.1393324   -2.8723834  0.013650661   -4.1393324     1.266949      1024000 
  755000    0.8442546   -4.1372093   -4.1372093     -2.87083  0.016797064   -4.1372093    1.2663793      1024000 
  756000   0.84440833   -4.1358177   -4.1358177   -2.8692077  0.017017575   -4.1358177    1.2666099      1024000 
  757000   0.84440216   -4.1344479   -4.1344479   -2.8678472  0.018361096   -4.1344479    1.2666007      1024000 
  758000   0.84551065   -4.1339132   -4.1339132   -2.8656498  0.014564601   -4.1339132    1.2682634      1024000 
  759000   0.84594883   -4.1335925   -4.1335925   -2.8646719  0.014940888   -4.1335925    1.2689207      1024000 
  760000    0.8453845   -4.1299284   -4.1299284   -2.8618543  0.017888766   -4.1299284    1.2680742      1024000 
  761000    0.8475426   -4.1308495   -4.1308495   -2.8595382  0.020832262   -4.1308495    1.2713113      1024000 
  762000   0.84675537   -4.1283248   -4.1283248   -2.8581944  0.023467484   -4.1283248    1.2701305      1024000 
  763000   0.84777369   -4.1292826   -4.1292826   -2.8576247  0.022059736   -4.1292826     1.271658      1024000 
  764000   0.84614631   -4.1256215   -4.1256215   -2.8564046  0.019883866   -4.1256215    1.2692169      1024000 
  765000   0.84702236   -4.1249041   -4.1249041   -2.8543731  0.018347482   -4.1249041     1.270531      1024000 
  766000   0.84652181   -4.1229637   -4.1229637   -2.8531836  0.020854492   -4.1229637    1.2697801      1024000 
  767000   0.84812901   -4.1225258   -4.1225258   -2.8503348  0.018223969   -4.1225258    1.2721909      1024000 
  768000   0.84726781   -4.1202657   -4.1202657   -2.8493666  0.020939315   -4.1202657    1.2708991      1024000 
  769000   0.84716927    -4.118592    -4.118592   -2.8478407  0.018515144    -4.118592    1.2707513      1024000 
  770000   0.84752203   -4.1171192   -4.1171192   -2.8458388  0.020163918   -4.1171192    1.2712805      1024000 
  771000   0.84727219    -4.114444    -4.114444   -2.8435383  0.018241727    -4.114444    1.2709057      1024000 
  772000   0.84783128   -4.1127546   -4.1127546   -2.8410102  0.015112446   -4.1127546    1.2717443      1024000 
  773000   0.84825335   -4.1111314   -4.1111314    -2.838754  0.014573359   -4.1111314    1.2723774      1024000 
  774000   0.84855154   -4.1107188   -4.1107188   -2.8378941  0.017154323   -4.1107188    1.2728247      1024000 
  775000   0.84807368   -4.1085831   -4.1085831   -2.8364752  0.018069031   -4.1085831    1.2721079      1024000 
  776000    0.8478357   -4.1057366   -4.1057366   -2.8339857  0.024788736   -4.1057366     1.271751      1024000 
  777000    0.8491905   -4.1063656   -4.1063656   -2.8325824  0.022498648   -4.1063656    1.2737832      1024000 
  778000   0.84978082   -4.1053132   -4.1053132   -2.8306446  0.025731467   -4.1053132    1.2746686      1024000 
  779000   0.84990821   -4.1033811   -4.1033811   -2.8285213  0.026202252   -4.1033811    1.2748597      1024000 
  780000   0.85145143   -4.1040532   -4.1040532   -2.8268786  0.018192443   -4.1040532    1.2771746      1024000 
  781000   0.85019227   -4.1005092   -4.1005092   -2.8252234  0.023326871   -4.1005092    1.2752858      1024000 
  782000   0.85114185   -4.1002331   -4.1002331   -2.8235229  0.017976063   -4.1002331    1.2767102      1024000 
  783000   0.85003536   -4.0975213   -4.0975213   -2.8224709  0.026429364   -4.0975213    1.2750504      1024000 
  784000   0.85113946   -4.0973637   -4.0973637   -2.8206571  0.019647105   -4.0973637    1.2767066      1024000 
  785000   0.85267948   -4.0977238   -4.0977238   -2.8187072  0.019743195   -4.0977238    1.2790166      1024000 
  786000    0.8508388   -4.0939714   -4.0939714   -2.8177158  0.019127447   -4.0939714    1.2762556      1024000 
  787000   0.85209361   -4.0945718   -4.0945718    -2.816434  0.013205521   -4.0945718    1.2781378      1024000 
  788000   0.85217937   -4.0920963   -4.0920963   -2.8138299  0.023619098   -4.0920963    1.2782665      1024000 
  789000   0.85325205   -4.0916764   -4.0916764   -2.8118009   0.02160627   -4.0916764    1.2798755      1024000 
  790000    0.8521208   -4.0892156   -4.0892156    -2.811037  0.024414554   -4.0892156    1.2781786      1024000 
  791000   0.85320068   -4.0891631   -4.0891631   -2.8093647  0.026589546   -4.0891631    1.2797984      1024000 
  792000   0.85356538    -4.087667    -4.087667   -2.8073215  0.027709496    -4.087667    1.2803455      1024000 
  793000   0.85252731   -4.0842054   -4.0842054    -2.805417  0.027878002   -4.0842054    1.2787884      1024000 
  794000   0.85320191   -4.0836785   -4.0836785   -2.8038782  0.030594258   -4.0836785    1.2798003      1024000 
  795000   0.85320453   -4.0825058   -4.0825058   -2.8027016  0.029271798   -4.0825058    1.2798042      1024000 
  796000   0.85446852   -4.0821095   -4.0821095   -2.8004093  0.025719822   -4.0821095    1.2817002      1024000 
  797000   0.85523514   -4.0807611   -4.0807611    -2.797911  0.024627179   -4.0807611    1.2828501      1024000 
  798000   0.85482159    -4.078931    -4.078931   -2.7967013  0.025299648    -4.078931    1.2822298      1024000 
  799000   0.85471404   -4.0764762   -4.0764762   -2.7944078  0.025628407   -4.0764762    1.2820685      1024000 
  800000   0.85392972   -4.0737471   -4.0737471   -2.7928551  0.025419984   -4.0737471     1.280892      1024000 
  801000   0.85384825   -4.0716375   -4.0716375   -2.7908677  0.021316935   -4.0716375    1.2807698      1024000 
  802000   0.85543796   -4.0714449   -4.0714449   -2.7882906  0.023279284   -4.0714449    1.2831543      1024000 
  803000    0.8552196   -4.0693779   -4.0693779   -2.7865511  0.028378579   -4.0693779    1.2828268      1024000 
  804000   0.85527357   -4.0679372   -4.0679372   -2.7850295  0.028250379   -4.0679372    1.2829078      1024000 
  805000    0.8562134   -4.0678358   -4.0678358   -2.7835183  0.029386565   -4.0678358    1.2843175      1024000 
  806000   0.85623621   -4.0662061   -4.0662061   -2.7818544  0.028856179   -4.0662061    1.2843517      1024000 
  807000   0.85680493   -4.0649636   -4.0649636   -2.7797588  0.028586078   -4.0649636    1.2852048      1024000 
  808000   0.85653311   -4.0630183   -4.0630183   -2.7782212  0.032167658   -4.0630183    1.2847971      1024000 
  809000    0.8560093    -4.060887    -4.060887   -2.7768757  0.029510468    -4.060887    1.2840113      1024000 
  810000   0.85667653   -4.0603606   -4.0603606   -2.7753484  0.027267364   -4.0603606    1.2850122      1024000 
  811000   0.85703847   -4.0591212   -4.0591212   -2.7735661  0.029521268   -4.0591212    1.2855551      1024000 
  812000   0.85813989   -4.0583128   -4.0583128   -2.7711056  0.030307614   -4.0583128    1.2872072      1024000 
  813000   0.85800042   -4.0566184   -4.0566184   -2.7696204   0.02821894   -4.0566184     1.286998      1024000 
  814000   0.85790633    -4.055572    -4.055572   -2.7687151  0.032017657    -4.055572    1.2868569      1024000 
  815000   0.85939227   -4.0551388   -4.0551388    -2.766053  0.027832775   -4.0551388    1.2890858      1024000 
  816000   0.85971032   -4.0539799   -4.0539799   -2.7644171   0.02713846   -4.0539799    1.2895629      1024000 
  817000     0.859345    -4.051724    -4.051724   -2.7627091  0.031953394    -4.051724    1.2890149      1024000 
  818000    0.8595883   -4.0506751   -4.0506751   -2.7612953  0.034569339   -4.0506751    1.2893798      1024000 
  819000   0.86003452     -4.04944     -4.04944   -2.7593908  0.035343406     -4.04944    1.2900492      1024000 
  820000    0.8609021   -4.0489429   -4.0489429   -2.7575924  0.031966955   -4.0489429    1.2913505      1024000 
  821000   0.85987076     -4.04588     -4.04588   -2.7560765  0.033811961     -4.04588    1.2898035      1024000 
  822000   0.85963013   -4.0443666   -4.0443666    -2.754924  0.031843074   -4.0443666    1.2894426      1024000 
  823000   0.85913068   -4.0414239   -4.0414239   -2.7527305  0.034742277   -4.0414239    1.2886934      1024000 
  824000   0.86090589   -4.0424455   -4.0424455   -2.7510893  0.032180899   -4.0424455    1.2913562      1024000 
  825000   0.86017631   -4.0393712   -4.0393712   -2.7491093  0.034162861   -4.0393712    1.2902619      1024000 
  826000   0.86031555   -4.0379589   -4.0379589   -2.7474882  0.032760337   -4.0379589    1.2904707      1024000 
  827000   0.86180993   -4.0384914   -4.0384914   -2.7457791  0.030824948   -4.0384914    1.2927123      1024000 
  828000   0.86134785    -4.036358    -4.036358   -2.7443389  0.036479682    -4.036358    1.2920192      1024000 
  829000   0.86109193   -4.0339728   -4.0339728   -2.7423376  0.034186826   -4.0339728    1.2916353      1024000 
  830000   0.86131341   -4.0326785   -4.0326785    -2.740711  0.037625606   -4.0326785    1.2919675      1024000 
  831000   0.86178211   -4.0327332   -4.0327332   -2.7400626   0.03483594   -4.0327332    1.2926705      1024000 
  832000   0.86300536   -4.0327209   -4.0327209   -2.7382155  0.036729768   -4.0327209    1.2945054      1024000 
  833000   0.86147894   -4.0288015   -4.0288015   -2.7365857  0.038861311   -4.0288015    1.2922158      1024000 
  834000   0.86190365   -4.0281038   -4.0281038   -2.7352509  0.038917153   -4.0281038    1.2928528      1024000 
  835000   0.86223938   -4.0264019   -4.0264019   -2.7330455  0.034536471   -4.0264019    1.2933564      1024000 
  836000   0.86200747   -4.0249192   -4.0249192   -2.7319106  0.035366518   -4.0249192    1.2930086      1024000 
  837000   0.86344461   -4.0255589   -4.0255589   -2.7303946   0.04047245   -4.0255589    1.2951643      1024000 
  838000   0.86358303   -4.0246447   -4.0246447   -2.7292728  0.039344742   -4.0246447    1.2953719      1024000 
  839000   0.86298631   -4.0219125   -4.0219125   -2.7274357  0.040502461   -4.0219125    1.2944768      1024000 
  840000   0.86367262    -4.020846    -4.020846   -2.7253397  0.029507171    -4.020846    1.2955063      1024000 
  841000   0.86431441   -4.0199719   -4.0199719   -2.7235029  0.038129171   -4.0199719     1.296469      1024000 
  842000   0.86450807   -4.0181089   -4.0181089   -2.7213494  0.036421512   -4.0181089    1.2967595      1024000 
  843000   0.86684699   -4.0192956   -4.0192956   -2.7190278  0.037679382   -4.0192956    1.3002679      1024000 
  844000   0.86625779   -4.0179841   -4.0179841      -2.7186  0.038302372   -4.0179841    1.2993841      1024000 
  845000   0.86580219   -4.0151463   -4.0151463   -2.7164457  0.045801079   -4.0151463    1.2987006      1024000 
  846000   0.86710075   -4.0140295   -4.0140295    -2.713381   0.04274611   -4.0140295    1.3006485      1024000 
  847000   0.86764696   -4.0140806   -4.0140806   -2.7126128  0.042134617   -4.0140806    1.3014678      1024000 
  848000   0.86585587   -4.0102598   -4.0102598   -2.7114787  0.042522875   -4.0102598    1.2987812      1024000 
  849000   0.86710817   -4.0104231   -4.0104231   -2.7097635  0.046554592   -4.0104231    1.3006596      1024000 
  850000    0.8687614   -4.0107119   -4.0107119   -2.7075725   0.04220955   -4.0107119    1.3031395      1024000 
  851000   0.86859718   -4.0083763   -4.0083763   -2.7054832  0.041295539   -4.0083763    1.3028931      1024000 
  852000   0.86885494   -4.0074176   -4.0074176   -2.7041379  0.043442005   -4.0074176    1.3032798      1024000 
  853000   0.86936058   -4.0071594   -4.0071594   -2.7031212  0.038943267   -4.0071594    1.3040382      1024000 
  854000    0.8701882   -4.0060267   -4.0060267    -2.700747  0.042757625   -4.0060267    1.3052797      1024000 
  855000   0.86950476   -4.0039142   -4.0039142   -2.6996597  0.045607847   -4.0039142    1.3042545      1024000 
  856000   0.86836657   -4.0013029   -4.0013029   -2.6987557  0.040013896   -4.0013029    1.3025472      1024000 
  857000   0.86968997   -4.0013218   -4.0013218   -2.6967895  0.039769177   -4.0013218    1.3045323      1024000 
  858000   0.86775114   -3.9966701   -3.9966701    -2.695046  0.043556473   -3.9966701    1.3016241      1024000 
  859000   0.86902045    -3.997403    -3.997403    -2.693875  0.046278955    -3.997403     1.303528      1024000 
  860000   0.86958723   -3.9967962   -3.9967962    -2.692418  0.047343226   -3.9967962    1.3043782      1024000 
  861000   0.86976884   -3.9952891   -3.9952891   -2.6906385  0.045089612   -3.9952891    1.3046506      1024000 
  862000   0.86980707   -3.9941627   -3.9941627   -2.6894547    0.0480723   -3.9941627     1.304708      1024000 
  863000    0.8695899   -3.9927552   -3.9927552    -2.688373  0.042798845   -3.9927552    1.3043822      1024000 
  864000   0.87031215   -3.9921236   -3.9921236    -2.686658   0.03911135   -3.9921236    1.3054656      1024000 
  865000   0.87021422   -3.9902818   -3.9902818   -2.6849631  0.045597112   -3.9902818    1.3053187      1024000 
  866000   0.87125797   -3.9897907   -3.9897907   -2.6829063  0.049261312   -3.9897907    1.3068843      1024000 
  867000     0.872092   -3.9892552   -3.9892552   -2.6811199  0.050421786   -3.9892552    1.3081353      1024000 
  868000   0.87108843   -3.9860513   -3.9860513   -2.6794213  0.050930721   -3.9860513      1.30663      1024000 
  869000   0.87182541   -3.9856102   -3.9856102   -2.6778748  0.047158023   -3.9856102    1.3077355      1024000 
  870000   0.87179216   -3.9843005   -3.9843005   -2.6766149  0.053396389   -3.9843005    1.3076856      1024000 
  871000   0.87202508   -3.9831568   -3.9831568   -2.6751218  0.045893479   -3.9831568     1.308035      1024000 
  872000   0.87353568   -3.9838975   -3.9838975   -2.6735966  0.051904145   -3.9838975    1.3103009      1024000 
  873000   0.87324425   -3.9815452   -3.9815452   -2.6716815  0.048854728   -3.9815452    1.3098637      1024000 
  874000   0.87330083   -3.9804662   -3.9804662   -2.6705176  0.049941132   -3.9804662    1.3099486      1024000 
  875000   0.87387453   -3.9795244   -3.9795244   -2.6687153   0.04687839   -3.9795244    1.3108091      1024000 
  876000   0.87400247   -3.9784072   -3.9784072   -2.6674062  0.044226012   -3.9784072     1.311001      1024000 
  877000   0.87292078   -3.9754325   -3.9754325    -2.666054  0.045835814   -3.9754325    1.3093785      1024000 
  878000   0.87425539   -3.9763157   -3.9763157   -2.6649352  0.045362369   -3.9763157    1.3113804      1024000 
  879000   0.87351946   -3.9731178   -3.9731178   -2.6628413  0.050818182   -3.9731178    1.3102765      1024000 
  880000   0.87423132   -3.9733237   -3.9733237   -2.6619793  0.046480579   -3.9733237    1.3113443      1024000 
  881000   0.87512366   -3.9726479   -3.9726479   -2.6599651  0.049633473   -3.9726479    1.3126828      1024000 
  882000   0.87447303   -3.9698659   -3.9698659    -2.658159   0.04503365   -3.9698659    1.3117069      1024000 
  883000   0.87452778   -3.9688011   -3.9688011   -2.6570121  0.051206887   -3.9688011     1.311789      1024000 
  884000   0.87437745   -3.9680163   -3.9680163   -2.6564528   0.04860515   -3.9680163    1.3115635      1024000 
  885000   0.87614029   -3.9688958   -3.9688958    -2.654688  0.044825285   -3.9688958    1.3142078      1024000 
  886000   0.87636461   -3.9679054   -3.9679054   -2.6533611   0.04727002   -3.9679054    1.3145442      1024000 
  887000   0.87545893   -3.9643947   -3.9643947   -2.6512089  0.052721287   -3.9643947    1.3131857      1024000 
  888000   0.87651161   -3.9642191   -3.9642191   -2.6494544    0.0531151   -3.9642191    1.3147648      1024000 
  889000   0.87699706   -3.9638556   -3.9638556   -2.6483626  0.053422882   -3.9638556    1.3154929      1024000 
  890000    0.8790695   -3.9656468   -3.9656468   -2.6470453  0.059034737   -3.9656468    1.3186016      1024000 
  891000   0.87911483   -3.9646643   -3.9646643   -2.6459947  0.055916008   -3.9646643    1.3186696      1024000 
  892000   0.87834758   -3.9623339   -3.9623339   -2.6448152  0.060023474   -3.9623339    1.3175187      1024000 
  893000   0.87909866   -3.9615087   -3.9615087   -2.6428633  0.059688726   -3.9615087    1.3186453      1024000 
  894000   0.87990104   -3.9622792   -3.9622792   -2.6424304  0.055551267   -3.9622792    1.3198489      1024000 
  895000   0.87922245   -3.9595867   -3.9595867   -2.6407557  0.055185125   -3.9595867     1.318831      1024000 
  896000   0.87893452   -3.9576547   -3.9576547   -2.6392556  0.054064546   -3.9576547    1.3183991      1024000 
  897000   0.88014973   -3.9574119   -3.9574119     -2.63719  0.054842206   -3.9574119    1.3202219      1024000 
  898000   0.88129945   -3.9579689   -3.9579689   -2.6360224  0.051146444   -3.9579689    1.3219465      1024000 
  899000   0.88041964   -3.9556865   -3.9556865   -2.6350597  0.048925486   -3.9556865    1.3206268      1024000 
  900000   0.88140938    -3.955429    -3.955429   -2.6333176  0.048860099    -3.955429    1.3221114      1024000 
  901000   0.88050342   -3.9528768   -3.9528768   -2.6321244  0.049783293   -3.9528768    1.3207524      1024000 
  902000   0.88113581   -3.9525384   -3.9525384   -2.6308373  0.049698039   -3.9525384     1.321701      1024000 
  903000   0.88035797   -3.9498154   -3.9498154   -2.6292811  0.054026831   -3.9498154    1.3205343      1024000 
  904000   0.88118334    -3.949941    -3.949941   -2.6281687  0.050890374    -3.949941    1.3217723      1024000 
  905000   0.88205483   -3.9501411   -3.9501411   -2.6270615  0.055335097   -3.9501411    1.3230796      1024000 
  906000   0.88209922    -3.949734    -3.949734   -2.6265878  0.053624364    -3.949734    1.3231462      1024000 
  907000   0.88212546    -3.948852    -3.948852   -2.6256665  0.057999883    -3.948852    1.3231855      1024000 
  908000   0.88263623    -3.948476    -3.948476   -2.6245244  0.057749465    -3.948476    1.3239517      1024000 
  909000   0.88112774   -3.9455073   -3.9455073   -2.6238184  0.058766588   -3.9455073    1.3216889      1024000 
  910000   0.88343346   -3.9476184   -3.9476184   -2.6224709  0.057770073   -3.9476184    1.3251475      1024000 
  911000   0.88449899   -3.9479262   -3.9479262   -2.6211804  0.054942253   -3.9479262    1.3267458      1024000 
  912000   0.88424728   -3.9468227   -3.9468227   -2.6204545   0.05600919   -3.9468227    1.3263682      1024000 
  913000    0.8861941   -3.9484226   -3.9484226   -2.6191342  0.055514999   -3.9484226    1.3292885      1024000 
  914000   0.88573594   -3.9469751   -3.9469751   -2.6183738  0.060499572   -3.9469751    1.3286012      1024000 
  915000   0.88516499   -3.9452809   -3.9452809   -2.6175361  0.059193055   -3.9452809    1.3277448      1024000 
  916000   0.88498579   -3.9438044   -3.9438044   -2.6163284  0.060026897   -3.9438044     1.327476      1024000 
  917000   0.88672544   -3.9456963   -3.9456963   -2.6156108    0.0562379   -3.9456963    1.3300855      1024000 
  918000   0.88600846   -3.9437846   -3.9437846   -2.6147746  0.063595017   -3.9437846      1.32901      1024000 
  919000   0.88808993   -3.9457972   -3.9457972    -2.613665  0.062789004   -3.9457972    1.3321322      1024000 
  920000   0.88897903    -3.946089    -3.946089   -2.6126232  0.072608122    -3.946089    1.3334658      1024000 
  921000   0.89185103   -3.9493979   -3.9493979    -2.611624  0.079892299   -3.9493979    1.3377738      1024000 
  922000   0.89505728   -3.9534949   -3.9534949   -2.6109117  0.097069059   -3.9534949    1.3425832      1024000 
  923000   0.90017513     -3.96004     -3.96004     -2.60978    0.1213971     -3.96004      1.35026      1024000 
  924000   0.90869868    -3.971891    -3.971891   -2.6088457   0.15650074    -3.971891    1.3630453      1024000 
  925000   0.91675091   -3.9831045   -3.9831045   -2.6079809   0.19367659   -3.9831045    1.3751236      1024000 
  926000   0.92348734   -3.9923634   -3.9923634   -2.6071352   0.24491399   -3.9923634    1.3852282      1024000 
  927000   0.93253386     -4.00457     -4.00457   -2.6057721   0.27955744     -4.00457    1.3987979      1024000 
  928000   0.94052784   -4.0160281   -4.0160281   -2.6052392   0.31459984   -4.0160281    1.4107889      1024000 
  929000   0.94844667   -4.0269759   -4.0269759   -2.6043088   0.34224563   -4.0269759    1.4226671      1024000 
  930000   0.95454251   -4.0351964   -4.0351964   -2.6033856   0.36735229   -4.0351964    1.4318109      1024000 
  931000   0.96027221   -4.0429818   -4.0429818   -2.6025764    0.3742971   -4.0429818    1.4404054      1024000 
  932000   0.95948671    -4.040744    -4.040744   -2.6015168   0.37585177    -4.040744    1.4392271      1024000 
  933000   0.95462014   -4.0323566   -4.0323566   -2.6004293   0.35854083   -4.0323566    1.4319273      1024000 
  934000   0.95005975   -4.0243569   -4.0243569   -2.5992702   0.32115517   -4.0243569    1.4250867      1024000 
  935000   0.94118465   -4.0103917   -4.0103917   -2.5986176   0.28461047   -4.0103917    1.4117741      1024000 
  936000     0.932366   -3.9963873   -3.9963873   -2.5978411   0.24873277   -3.9963873    1.3985462      1024000 
  937000   0.92290986   -3.9813535   -3.9813535   -2.5969916   0.21546718   -3.9813535     1.384362      1024000 
  938000     0.915264   -3.9690699   -3.9690699   -2.5961767   0.17114112   -3.9690699    1.3728932      1024000 
  939000   0.90721348   -3.9568122   -3.9568122   -2.5959947   0.13313748   -3.9568122    1.3608175      1024000 
  940000   0.90072068   -3.9461523   -3.9461523    -2.595074  0.096683449   -3.9461523    1.3510783      1024000 
  941000    0.8948482   -3.9365329   -3.9365329   -2.5942633   0.07191607   -3.9365329    1.3422696      1024000 
  942000   0.88870421   -3.9267895   -3.9267895   -2.5937359  0.052901664   -3.9267895    1.3330536      1024000 
  943000    0.8872005   -3.9240069   -3.9240069   -2.5932089  0.036816632   -3.9240069     1.330798      1024000 
  944000    0.8836571   -3.9182396   -3.9182396   -2.5927567  0.028415422   -3.9182396     1.325483      1024000 
  945000    0.8828146   -3.9165335   -3.9165335   -2.5923142  0.022669489   -3.9165335    1.3242192      1024000 
  946000   0.88163696   -3.9151489   -3.9151489   -2.5926961   0.03029468   -3.9151489    1.3224528      1024000 
  947000    0.8842998   -3.9189791   -3.9189791   -2.5925321  0.028178909   -3.9189791     1.326447      1024000 
  948000   0.88580034   -3.9214449   -3.9214449   -2.5927471  0.037576799   -3.9214449    1.3286978      1024000 
  949000    0.8868255    -3.923159    -3.923159   -2.5929234  0.045426513    -3.923159    1.3302356      1024000 
  950000   0.88931393   -3.9276714   -3.9276714   -2.5937033  0.053474775   -3.9276714    1.3339682      1024000 
  951000   0.89009776   -3.9290067   -3.9290067   -2.5938627  0.063196833   -3.9290067    1.3351439      1024000 
  952000   0.89186415   -3.9320134   -3.9320134   -2.5942199  0.066545261   -3.9320134    1.3377935      1024000 
  953000     0.893403   -3.9346082   -3.9346082   -2.5945064  0.069457852   -3.9346082    1.3401018      1024000 
  954000   0.89403878   -3.9361216   -3.9361216   -2.5950662  0.080177546   -3.9361216    1.3410554      1024000 
  955000   0.89410146    -3.936925    -3.936925   -2.5957756  0.085595383    -3.936925    1.3411495      1024000 
  956000   0.89548632   -3.9394768   -3.9394768     -2.59625  0.079641874   -3.9394768    1.3432268      1024000 
  957000   0.89540148   -3.9395873   -3.9395873   -2.5964878  0.078798871   -3.9395873    1.3430995      1024000 
  958000     0.894411   -3.9386441   -3.9386441   -2.5970303  0.074180729   -3.9386441    1.3416138      1024000 
  959000   0.89258719   -3.9359242   -3.9359242   -2.5970461  0.075150844   -3.9359242    1.3388781      1024000 
  960000   0.89027164   -3.9328408   -3.9328408    -2.597436  0.063974121   -3.9328408    1.3354047      1024000 
  961000   0.88803065   -3.9296105   -3.9296105   -2.5975672  0.058941864   -3.9296105    1.3320433      1024000 
  962000   0.88694592   -3.9284937   -3.9284937   -2.5980775  0.053920734   -3.9284937    1.3304162      1024000 
  963000   0.88536588   -3.9266458   -3.9266458   -2.5985997  0.049880329   -3.9266458    1.3280461      1024000 
  964000   0.88393013   -3.9242439   -3.9242439   -2.5983514  0.040351716   -3.9242439    1.3258925      1024000 
  965000   0.88293615   -3.9226557   -3.9226557   -2.5982542  0.035794401   -3.9226557    1.3244015      1024000 
  966000   0.88148747   -3.9208159   -3.9208159   -2.5985874   0.03535259   -3.9208159    1.3222285      1024000 
  967000   0.88118504   -3.9203515   -3.9203515   -2.5985766  0.031880088   -3.9203515    1.3217749      1024000 
  968000   0.88224762   -3.9217788   -3.9217788   -2.5984101  0.030903701   -3.9217788    1.3233687      1024000 
  969000   0.88209053   -3.9221206   -3.9221206   -2.5989875  0.035872524   -3.9221206    1.3231331      1024000 
  970000    0.8831151   -3.9235924   -3.9235924   -2.5989224  0.045874488   -3.9235924      1.32467      1024000 
  971000    0.8846963   -3.9260011   -3.9260011   -2.5989593    0.0464378   -3.9260011    1.3270418      1024000 
  972000   0.88709854   -3.9299473   -3.9299473   -2.5993022  0.051506747   -3.9299473    1.3306451      1024000 
  973000   0.88729459   -3.9309748   -3.9309748   -2.6000356  0.060700872   -3.9309748    1.3309392      1024000 
  974000   0.88986317   -3.9350013   -3.9350013   -2.6002093  0.063934796   -3.9350013    1.3347921      1024000 
  975000   0.88944474   -3.9342731   -3.9342731   -2.6001087  0.072423775   -3.9342731    1.3341644      1024000 
  976000   0.89049783   -3.9356612   -3.9356612   -2.5999172  0.077490618   -3.9356612     1.335744      1024000 
  977000   0.89187523   -3.9374352   -3.9374352   -2.5996251  0.076673115   -3.9374352    1.3378101      1024000 
  978000   0.89261767   -3.9390398   -3.9390398    -2.600116  0.073850631   -3.9390398    1.3389238      1024000 
  979000   0.89232571   -3.9387783   -3.9387783   -2.6002925   0.07406736   -3.9387783    1.3384858      1024000 
  980000   0.89180828   -3.9381771   -3.9381771   -2.6004674  0.072594638   -3.9381771    1.3377097      1024000 
  981000   0.89146768   -3.9380102   -3.9380102   -2.6008114  0.070277907   -3.9380102    1.3371988      1024000 
  982000    0.8901137   -3.9358079   -3.9358079     -2.60064  0.067970037   -3.9358079    1.3351678      1024000 
  983000   0.88866309   -3.9336956   -3.9336956   -2.6007036  0.060037207   -3.9336956    1.3329919      1024000 
  984000   0.88676992   -3.9309765   -3.9309765   -2.6008243  0.059070747   -3.9309765    1.3301522      1024000 
  985000   0.88588637   -3.9291193   -3.9291193   -2.6002924  0.048036949   -3.9291193    1.3288269      1024000 
  986000   0.88384033   -3.9263158   -3.9263158    -2.600558  0.044012616   -3.9263158    1.3257578      1024000 
  987000   0.88320961   -3.9248541   -3.9248541   -2.6000424  0.042265329   -3.9248541    1.3248117      1024000 
  988000   0.88298728    -3.924244    -3.924244   -2.5997658  0.041362246    -3.924244    1.3244782      1024000 
  989000   0.88275741   -3.9240186   -3.9240186   -2.5998852   0.03643115   -3.9240186    1.3241334      1024000 
  990000   0.88333173   -3.9248758   -3.9248758   -2.5998808  0.037441664   -3.9248758    1.3249949      1024000 
  991000   0.88143421   -3.9225978   -3.9225978   -2.6004491  0.037659794   -3.9225978    1.3221486      1024000 
  992000   0.88187805    -3.922705    -3.922705   -2.5998906  0.040080764    -3.922705    1.3228144      1024000 
  993000   0.88236903   -3.9236686   -3.9236686   -2.6001177  0.042416161   -3.9236686    1.3235509      1024000 
  994000   0.88262631   -3.9242437   -3.9242437   -2.6003069  0.047923493   -3.9242437    1.3239368      1024000 
  995000   0.88496783   -3.9279167   -3.9279167   -2.6004677  0.058507819   -3.9279167    1.3274491      1024000 
  996000    0.8867442   -3.9301944   -3.9301944   -2.6000808  0.056285896   -3.9301944    1.3301136      1024000 
  997000   0.88699079    -3.930828    -3.930828   -2.6003445   0.06392512    -3.930828    1.3304835      1024000 
  998000   0.88774092   -3.9318199   -3.9318199   -2.6002112   0.06712128   -3.9318199    1.3316087      1024000 
  999000   0.88958486   -3.9341429   -3.9341429   -2.5997683  0.069223617   -3.9341429    1.3343746      1024000 
 1000000   0.88867519   -3.9330582   -3.9330582   -2.6000481  0.067772555   -3.9330582    1.3330101      1024000 
Loop time of 14924 on 32 procs for 1000000 steps with 492800 atoms

Performance: 14473.313 tau/day, 67.006 timesteps/s
99.1% CPU use with 32 MPI tasks x 1 OpenMP threads

MPI task timing breakdown:
Section |  min time  |  avg time  |  max time  |%varavg|  %CPU | %total
-----------------------------------------------------------------------
Pair    | 4904.3     | 7102       | 9601.3     | 997.6 |  99.2 | 47.59
Bond    | 0.37886    | 0.61791    | 0.78922    |  12.3 | 100.0 |  0.00
Neigh   | 1102.4     | 1468.6     | 1867.3     | 387.7 |  99.8 |  9.84
Comm    | 2752.4     | 5239.2     | 6922.8     |1212.0 |  98.6 | 35.11
Output  | 33.51      | 33.744     | 33.753     |   0.7 |  98.7 |  0.23
Modify  | 208.19     | 370.11     | 997.75     |1152.1 |  99.3 |  2.48
Other   |            | 709.8      |            |       |       |  4.76

Nlocal:        15400.0 ave       15734 max       15133 min
Histogram: 2 0 3 4 14 5 3 0 0 1
Nghost:        12105.2 ave       13627 max        8445 min
Histogram: 4 4 0 0 0 0 0 4 4 16
Neighs:       498228.0 ave      559217 max      271991 min
Histogram: 4 0 0 0 0 0 0 8 3 17

Total # of neighbors = 15943289
Ave neighs/atom = 32.352453
Ave special neighs/atom = 0.0000000
Neighbor list builds = 61274
Dangerous builds = 424
Total wall time: 4:08:45
