LAMMPS (24 Dec 2020)
OMP_NUM_THREADS environment is not set. Defaulting to 1 thread. (src/comm.cpp:94)
  using 1 OpenMP thread(s) per MPI task
# Simple rigid body system
# needed variables: startTemp, temp

units		lj
atom_style	full
dimension 	3
boundary	p p f
pair_style	lj/cut/opt 2.5


variable 	sigma		equal 1.0
variable 	epsilon 	equal 1.0


region		box block 0 160 0 160 0 160
create_box 	3 box
Created orthogonal box = (0.0000000 0.0000000 0.0000000) to (160.00000 160.00000 160.00000)
  6 by 4 by 6 MPI processor grid
lattice 	sc 1.0
Lattice spacing in x,y,z = 1.0000000 1.0000000 1.0000000

create_atoms 	1 region box
Created 4096000 atoms
  create_atoms CPU = 0.063 seconds

mass		1 1.0
mass		2 1.0
mass		3 1.0


group		solvent type 1
4096000 atoms in group solvent


velocity 	solvent create ${startTemp} 563435 loop geom
velocity 	solvent create 0.5 563435 loop geom

read_data	data.vac add append
Reading data file ...
  orthogonal box = (0.0000000 0.0000000 0.0000000) to (160.00000 160.00000 320.00000)
  4 by 4 by 9 MPI processor grid
Finding 1-2 1-3 1-4 neighbors ...
  special bond factors lj:    0        0        0       
  special bond factors coul:  0        0        0       
     0 = max # of 1-2 neighbors
     0 = max # of 1-3 neighbors
     0 = max # of 1-4 neighbors
     1 = max # of special neighbors
  special bonds CPU = 0.906 seconds
  read_data CPU = 0.946 seconds

neighbor 	0.4 bin

pair_coeff	1 1 1.0 1.0
pair_coeff	2 2 0.0 0.0
pair_coeff	3 3 0.0 0.0
pair_coeff	2 3 0.0 0.0
pair_coeff	1 2*3 0.0 0.0

pair_modify 	shift yes


balance 	1.05 shift z 10 1.05
Balancing ...
Neighbor list info ...
  update every 1 steps, delay 10 steps, check yes
  max neighbors/atom: 2000, page size: 100000
  master list distance cutoff = 2.9
  ghost atom cutoff = 2.9
  binsize = 1.45, bins = 111 111 221
  1 neighbor lists, perpetual/occasional/extra = 1 0 0
  (1) pair lj/cut/opt, perpetual
      attributes: half, newton on
      pair build: half/bin/newton
      stencil: half/bin/3d/newton
      bin: standard
 rebalancing time: 0.064 seconds
  iteration count = 5
  initial/final maximal load/proc = 57600.000 41600.000
  initial/final imbalance factor  = 2.0250000 1.4625000
  x cuts: 0.0000000 0.25000000 0.50000000 0.75000000 1.0000000
  y cuts: 0.0000000 0.25000000 0.50000000 0.75000000 1.0000000
  z cuts: 0.0000000 0.052083333 0.10416667 0.15972222 0.22569444 0.27430556 0.31944444 0.37500000 0.45486111 1.0000000


####################### WALLS ###########################


region	       low block  EDGE EDGE EDGE EDGE 0 2

region 	       top block  EDGE EDGE EDGE EDGE 159 160


delete_atoms   region low
WARNING: Ignoring 'compress yes' for molecular system (src/delete_atoms.cpp:125)
Deleted 76800 atoms, new total = 4019200

delete_atoms   region top
WARNING: Ignoring 'compress yes' for molecular system (src/delete_atoms.cpp:125)
Deleted 25600 atoms, new total = 3993600


variable       epsilonWall equal 2*${epsilon}
variable       epsilonWall equal 2*1

variable       cutoffTop   equal   0.7147*${sigma}
variable       cutoffTop   equal   0.7147*1

variable       cutoffLow   equal   3*${sigma}
variable       cutoffLow   equal   3*1


fix            topWall all wall/lj93 zhi EDGE                ${epsilonWall} ${sigma} ${cutoffTop} units box
fix            topWall all wall/lj93 zhi EDGE                2 ${sigma} ${cutoffTop} units box
fix            topWall all wall/lj93 zhi EDGE                2 1 ${cutoffTop} units box
fix            topWall all wall/lj93 zhi EDGE                2 1 0.7147 units box

fix            lowWall all wall/lj93 zlo EDGE                ${epsilonWall} ${sigma} ${cutoffLow} units box
fix            lowWall all wall/lj93 zlo EDGE                2 ${sigma} ${cutoffLow} units box
fix            lowWall all wall/lj93 zlo EDGE                2 1 ${cutoffLow} units box
fix            lowWall all wall/lj93 zlo EDGE                2 1 3 units box


###################### COMPUTES ##########################

compute        bin1 solvent chunk/atom bin/1d z upper 1.0



######################	FIXES ############################


fix 		peclet solvent ave/chunk 1000 1 1000 bin1 density/number norm 		 none ave one file density.profile

fix 		2 solvent nve

## Thermostat


region		regthermo block EDGE EDGE EDGE EDGE 0 20

group 		thermo dynamic solvent region regthermo every 1000
dynamic group thermo defined

fix 		3 thermo langevin ${startTemp} ${temp} 10 156453
fix 		3 thermo langevin 0.5 ${temp} 10 156453
fix 		3 thermo langevin 0.5 1.0 10 156453



#### Load balancing


fix 		bal all balance 1000 1.05 shift z 10 1.05


############### Diagnostics and computes ###################
#compute 	com cube	  rigid/local	1 mol x y z
#compute 	quat cube	  rigid/local	1 mol quatw quati quatj quatk

thermo 		1000
thermo_style 	custom step temp epair evdwl etotal press pe ke vol

dump		1 all custom 100000 dump.lammpstrj id mol type x y z
dump 		2 all image 10000 image.*.png type type
dump 		3 all movie 1000 movie.avi type type
#dump 		com cube local 1000 dump.*.xyz c_com[*]
#dump		quat cube      local 1000 dump.*.quat c_quat[*]


#restart 	500000 restart.dat
timestep 	0.005
timer 		full
New timer settings: style=full  mode=nosync  timeout=off


run		1000000
Per MPI rank memory allocation (min/avg/max) = 30.97 | 35.01 | 39.70 Mbytes
Step Temp E_pair E_vdwl TotEng Press PotEng KinEng Volume 
       0   0.49997217   -3.3137429   -3.3137429   -2.5637849    8.4475947   -3.3137429   0.74995807      8192000 
    1000    1.4162574   -4.8189582   -4.8189582   -2.6945727    4.0917048   -4.8189582    2.1243855      8192000 
    2000    1.3817394   -4.8912571   -4.8912571   -2.8186485    2.8256091   -4.8912571    2.0726086      8192000 
    3000    1.3250092   -4.9023287   -4.9023287   -2.9148155    1.8447924   -4.9023287    1.9875133      8192000 
    4000    1.3037593   -4.9251713   -4.9251713   -2.9695327   0.81569179   -4.9251713    1.9556385      8192000 
    5000    1.2401071   -4.8436895   -4.8436895   -2.9835293   0.13713797   -4.8436895    1.8601601      8192000 
    6000    1.1638157     -4.72471     -4.72471   -2.9789868  -0.18068821     -4.72471    1.7457232      8192000 
    7000     1.136058   -4.6731619   -4.6731619   -2.9690753  -0.15908978   -4.6731619    1.7040866      8192000 
    8000     1.151675   -4.6893332   -4.6893332   -2.9618212  0.012780688   -4.6893332     1.727512      8192000 
    9000    1.1617513   -4.7054779   -4.7054779   -2.9628514  0.099219786   -4.7054779    1.7426265      8192000 
   10000    1.1618174   -4.7123249   -4.7123249   -2.9695993     0.131374   -4.7123249    1.7427256      8192000 
   11000    1.1592181     -4.71546     -4.71546   -2.9766333   0.14029067     -4.71546    1.7388267      8192000 
   12000    1.1592984   -4.7204043   -4.7204043   -2.9814572   0.14487177   -4.7204043    1.7389471      8192000 
   13000    1.1647398   -4.7318316   -4.7318316   -2.9847223   0.18271381   -4.7318316    1.7471093      8192000 
   14000    1.1680347   -4.7400843   -4.7400843   -2.9880327   0.21217225   -4.7400843    1.7520516      8192000 
   15000      1.16559   -4.7400806   -4.7400806    -2.991696   0.20592997   -4.7400806    1.7483846      8192000 
   16000    1.1615137   -4.7375302   -4.7375302     -2.99526    0.1935164   -4.7375302    1.7422702      8192000 
   17000    1.1600903   -4.7380459   -4.7380459    -2.997911   0.18716384   -4.7380459     1.740135      8192000 
   18000    1.1603265   -4.7409721   -4.7409721   -3.0004828   0.19501378   -4.7409721    1.7404893      8192000 
   19000      1.16115   -4.7450456   -4.7450456   -3.0033211   0.20893237   -4.7450456    1.7417245      8192000 
   20000    1.1619314    -4.748911    -4.748911   -3.0060142   0.21865696    -4.748911    1.7428967      8192000 
   21000    1.1620922    -4.751923    -4.751923   -3.0087851   0.22902588    -4.751923    1.7431379      8192000 
   22000    1.1656668   -4.7604677   -4.7604677    -3.011968   0.42796433   -4.7604677    1.7484997      8192000 
   23000    1.1662419    -4.763762    -4.763762   -3.0143995     1.126334    -4.763762    1.7493625      8192000 
   24000    1.1665066   -4.7662501   -4.7662501   -3.0164906    1.7992077   -4.7662501    1.7497595      8192000 
   25000    1.1684329   -4.7710117   -4.7710117   -3.0183629    2.4427433   -4.7710117    1.7526489      8192000 
   26000    1.1736911   -4.7809131   -4.7809131   -3.0203768    2.0529555   -4.7809131    1.7605362      8192000 
   27000    1.1727884   -4.7812858   -4.7812858   -3.0221037    1.6002794   -4.7812858    1.7591821      8192000 
   28000     1.156874   -4.7590708   -4.7590708   -3.0237602    1.1692591   -4.7590708    1.7353106      8192000 
   29000    1.1181551   -4.7029746   -4.7029746   -3.0257424   0.83131948   -4.7029746    1.6772322      8192000 
   30000    1.0679973   -4.6301421   -4.6301421   -3.0281465   0.51213953   -4.6301421    1.6019956      8192000 
   31000    1.0110274   -4.5470333   -4.5470333   -3.0304926    0.2277133   -4.5470333    1.5165407      8192000 
   32000   0.95166808   -4.4607205   -4.4607205   -3.0332187  0.021312134   -4.4607205    1.4275018      8192000 
   33000   0.90368424   -4.3915067   -4.3915067   -3.0359807 -0.089446369   -4.3915067     1.355526      8192000 
   34000   0.87552278   -4.3523072   -4.3523072   -3.0390233  -0.12495931   -4.3523072    1.3132838      8192000 
   35000    0.8706651   -4.3480614   -4.3480614   -3.0420641 -0.092921719   -4.3480614    1.3059973      8192000 
   36000    0.8791566   -4.3642844   -4.3642844   -3.0455498 -0.027215127   -4.3642844    1.3187346      8192000 
   37000   0.88918583   -4.3832586   -4.3832586   -3.0494802  0.033648892   -4.3832586    1.3337784      8192000 
   38000   0.89507509   -4.3958038   -4.3958038   -3.0531915  0.079022044   -4.3958038    1.3426123      8192000 
   39000   0.89543347   -4.4004008   -4.4004008   -3.0572509  0.094268419   -4.4004008    1.3431499      8192000 
   40000   0.88881763    -4.395154    -4.395154   -3.0619279  0.083106581    -4.395154    1.3332261      8192000 
   41000   0.88175287   -4.3897123   -4.3897123   -3.0670833  0.063727154   -4.3897123     1.322629      8192000 
   42000   0.87732827   -4.3884416   -4.3884416   -3.0724495  0.055547236   -4.3884416    1.3159921      8192000 
   43000   0.87768167   -4.3942835   -4.3942835   -3.0777613  0.065494429   -4.3942835    1.3165222      8192000 
   44000   0.87857936    -4.400529    -4.400529   -3.0826603  0.080671563    -4.400529    1.3178687      8192000 
   45000   0.87937602   -4.4072345   -4.4072345   -3.0881708  0.087909161   -4.4072345    1.3190637      8192000 
   46000   0.87617389   -4.4078508   -4.4078508   -3.0935903  0.087338074   -4.4078508    1.3142605      8192000 
   47000    0.8728492   -4.4078901   -4.4078901   -3.0986166  0.077774636   -4.4078901    1.3092735      8192000 
   48000   0.86964061   -4.4084455   -4.4084455    -3.103985  0.072507095   -4.4084455    1.3044606      8192000 
   49000   0.86736128   -4.4103309   -4.4103309   -3.1092893  0.068675228   -4.4103309    1.3010416      8192000 
   50000   0.86661116   -4.4144143   -4.4144143   -3.1144979  0.069387631   -4.4144143    1.2999164      8192000 
   51000   0.86547962   -4.4179972   -4.4179972   -3.1197781  0.072573169   -4.4179972    1.2982191      8192000 
   52000   0.86514959   -4.4225852   -4.4225852   -3.1248612   0.07382688   -4.4225852    1.2977241      8192000 
   53000   0.86453736   -4.4268345   -4.4268345   -3.1300288  0.077849171   -4.4268345    1.2968057      8192000 
   54000   0.86449669   -4.4316544   -4.4316544   -3.1349096  0.078250303   -4.4316544    1.2967447      8192000 
   55000    0.8645438   -4.4365779   -4.4365779   -3.1397625  0.082993068   -4.4365779    1.2968154      8192000 
   56000   0.86389605   -4.4404489   -4.4404489   -3.1446052  0.083261385   -4.4404489    1.2958437      8192000 
   57000   0.86373975   -4.4449761   -4.4449761   -3.1493668  0.082310822   -4.4449761    1.2956093      8192000 
   58000   0.86240142   -4.4479056   -4.4479056   -3.1543038  0.084000477   -4.4479056    1.2936018      8192000 
   59000   0.86149422   -4.4511184   -4.4511184   -3.1588774  0.081270217   -4.4511184     1.292241      8192000 
   60000   0.85966839   -4.4529236   -4.4529236   -3.1634213  0.077622043   -4.4529236    1.2895023      8192000 
   61000   0.85824359   -4.4553624   -4.4553624   -3.1679973  0.069430599   -4.4553624    1.2873651      8192000 
   62000   0.85611428   -4.4567176   -4.4567176   -3.1725465  0.067114413   -4.4567176    1.2841711      8192000 
   63000   0.85514422   -4.4596714   -4.4596714   -3.1769554  0.064325656   -4.4596714     1.282716      8192000 
   64000   0.85476164   -4.4635482   -4.4635482   -3.1814061  0.065923094   -4.4635482    1.2821421      8192000 
   65000   0.85501824   -4.4682327   -4.4682327   -3.1857056   0.06696865   -4.4682327     1.282527      8192000 
   66000   0.85571615   -4.4737378   -4.4737378   -3.1901638  0.073576907   -4.4737378    1.2835739      8192000 
   67000   0.85699924   -4.4800225   -4.4800225   -3.1945239  0.085523561   -4.4800225    1.2854985      8192000 
   68000   0.85977986   -4.4885047   -4.4885047   -3.1988352  0.096001702   -4.4885047    1.2896695      8192000 
   69000   0.86289316   -4.4976374   -4.4976374    -3.203298   0.10833515   -4.4976374    1.2943394      8192000 
   70000   0.86520868   -4.5058549   -4.5058549   -3.2080422   0.12435766   -4.5058549    1.2978127      8192000 
   71000   0.86922058   -4.5169366   -4.5169366    -3.213106   0.14141232   -4.5169366    1.3038306      8192000 
   72000   0.87367095   -4.5286771   -4.5286771    -3.218171   0.16531243   -4.5286771    1.3105061      8192000 
   73000   0.88031218    -4.543789    -4.543789   -3.2233211   0.19653249    -4.543789    1.3204679      8192000 
   74000   0.88808775   -4.5605898   -4.5605898   -3.2284585   0.24580541   -4.5605898    1.3321313      8192000 
   75000   0.89772115   -4.5812425   -4.5812425   -3.2346611   0.31080001   -4.5812425    1.3465814      8192000 
   76000   0.90811541   -4.6035235   -4.6035235   -3.2413507   0.38682251   -4.6035235    1.3621728      8192000 
   77000   0.91674895   -4.6245677   -4.6245677   -3.2494446   0.46210201   -4.6245677    1.3751231      8192000 
   78000   0.92388109   -4.6432971   -4.6432971   -3.2574758   0.52060963   -4.6432971    1.3858213      8192000 
   79000    0.9270305   -4.6559142   -4.6559142   -3.2653688   0.56409265   -4.6559142    1.3905454      8192000 
   80000   0.92699339   -4.6636101   -4.6636101   -3.2731204    0.5817929   -4.6636101    1.3904897      8192000 
   81000   0.92345868   -4.6657016   -4.6657016    -3.280514   0.57940545   -4.6657016    1.3851877      8192000 
   82000   0.91854031   -4.6656427   -4.6656427   -3.2878326   0.55096273   -4.6656427    1.3778101      8192000 
   83000   0.91008487   -4.6602564   -4.6602564   -3.2951295    0.5102299   -4.6602564     1.365127      8192000 
   84000   0.90000163   -4.6517141   -4.6517141    -3.301712    0.4516919   -4.6517141    1.3500021      8192000 
   85000   0.88766432   -4.6393287   -4.6393287   -3.3078326   0.37792665   -4.6393287    1.3314961      8192000 
   86000   0.87350623   -4.6231486   -4.6231486   -3.3128895   0.30306533   -4.6231486     1.310259      8192000 
   87000    0.8593549   -4.6056816   -4.6056816   -3.3166496   0.22820015   -4.6056816     1.289032      8192000 
   88000   0.84503221   -4.5873208   -4.5873208   -3.3197728   0.15857679   -4.5873208     1.267548      8192000 
   89000   0.83053395   -4.5679147   -4.5679147   -3.3221141  0.095687136   -4.5679147    1.2458006      8192000 
   90000   0.81553461   -4.5472465   -4.5472465   -3.3239449   0.04271155   -4.5472465    1.2233016      8192000 
   91000   0.80165137   -4.5279458   -4.5279458   -3.3254691 -0.0056133837   -4.5279458    1.2024768      8192000 
   92000   0.78854553   -4.5096651   -4.5096651   -3.3268471 -0.048040378   -4.5096651     1.182818      8192000 
   93000   0.77823685   -4.4953409   -4.4953409   -3.3279859 -0.077863659   -4.4953409     1.167355      8192000 
   94000   0.77140683   -4.4861059   -4.4861059   -3.3289959 -0.096454209   -4.4861059    1.1571099      8192000 
   95000   0.76943528   -4.4841115   -4.4841115   -3.3299589 -0.095646639   -4.4841115    1.1541526      8192000 
   96000   0.77241054   -4.4901877   -4.4901877   -3.3315722 -0.084730873   -4.4901877    1.1586155      8192000 
   97000   0.77833595   -4.5008077   -4.5008077   -3.3333041 -0.054555785   -4.5008077    1.1675036      8192000 
   98000   0.78628813   -4.5147082   -4.5147082   -3.3352763 -0.020672293   -4.5147082    1.1794319      8192000 
   99000   0.79387539   -4.5282587   -4.5282587   -3.3374459  0.012135652   -4.5282587    1.1908128      8192000 
  100000   0.80028472   -4.5403475   -4.5403475   -3.3399207  0.039878519   -4.5403475    1.2004268      8192000 
  101000   0.80520282   -4.5497169   -4.5497169    -3.341913  0.058015608   -4.5497169    1.2078039      8192000 
  102000   0.80685283    -4.554006    -4.554006    -3.343727  0.066373069    -4.554006    1.2102789      8192000 
  103000   0.80609508   -4.5545799   -4.5545799   -3.3454375  0.070288591   -4.5545799    1.2091423      8192000 
  104000   0.80314904   -4.5519047   -4.5519047   -3.3471814  0.055318542   -4.5519047    1.2047233      8192000 
  105000   0.79752988   -4.5453309   -4.5453309   -3.3490364  0.032439381   -4.5453309    1.1962945      8192000 
  106000   0.79081767     -4.53727     -4.53727   -3.3510437 0.0086273721     -4.53727    1.1862262      8192000 
  107000   0.78525038   -4.5308624   -4.5308624   -3.3529871 -0.015106496   -4.5308624    1.1778753      8192000 
  108000   0.78117661   -4.5265425   -4.5265425   -3.3547779 -0.029950695   -4.5265425    1.1717646      8192000 
  109000   0.77989719   -4.5265763   -4.5265763   -3.3567309 -0.032554662   -4.5265763    1.1698455      8192000 
  110000   0.78121511   -4.5301361   -4.5301361   -3.3583137 -0.024418099   -4.5301361    1.1718224      8192000 
  111000   0.78500218   -4.5375155   -4.5375155   -3.3600126 -0.0051083679   -4.5375155     1.177503      8192000 
  112000    0.7909025   -4.5481332   -4.5481332   -3.3617797  0.018778494   -4.5481332    1.1863535      8192000 
  113000    0.7962038   -4.5579194   -4.5579194    -3.363614  0.045033954   -4.5579194    1.1943054      8192000 
  114000   0.79966562   -4.5649907   -4.5649907   -3.3654925  0.062355727   -4.5649907    1.1994981      8192000 
  115000   0.80030534   -4.5677076   -4.5677076   -3.3672499  0.064977587   -4.5677076    1.2004577      8192000 
  116000   0.79834924   -4.5662784   -4.5662784   -3.3687548  0.058257779   -4.5662784    1.1975236      8192000 
  117000   0.79383955   -4.5614473   -4.5614473   -3.3706883  0.039077551   -4.5614473     1.190759      8192000 
  118000   0.78834782   -4.5544837   -4.5544837   -3.3719623  0.019204965   -4.5544837    1.1825214      8192000 
  119000   0.78357846   -4.5490842   -4.5490842   -3.3737168 0.0011028126   -4.5490842    1.1753674      8192000 
  120000   0.77999551   -4.5454928   -4.5454928   -3.3754998   -0.0113756   -4.5454928     1.169993      8192000 
  121000   0.77820632   -4.5445183   -4.5445183   -3.3772091 -0.017483813   -4.5445183    1.1673092      8192000 
  122000   0.77858034   -4.5467564   -4.5467564   -3.3788862 -0.014427209   -4.5467564    1.1678702      8192000 
  123000   0.78057132   -4.5515361   -4.5515361   -3.3806794 -0.0032133891   -4.5515361    1.1708567      8192000 
  124000   0.78472144   -4.5591823   -4.5591823   -3.3821004  0.011839828   -4.5591823    1.1770819      8192000 
  125000   0.78911185   -4.5670161   -4.5670161   -3.3833486  0.033962791   -4.5670161    1.1836675      8192000 
  126000   0.79193474   -4.5726938   -4.5726938    -3.384792  0.049200133   -4.5726938    1.1879018      8192000 
  127000   0.79329435   -4.5760441   -4.5760441   -3.3861029   0.05636378   -4.5760441    1.1899412      8192000 
  128000   0.79225302   -4.5760276   -4.5760276   -3.3876484  0.056119692   -4.5760276    1.1883792      8192000 
  129000   0.78918568   -4.5730174   -4.5730174   -3.3892392  0.042395262   -4.5730174    1.1837782      8192000 
  130000   0.78497367   -4.5682982   -4.5682982    -3.390838  0.026473311   -4.5682982    1.1774602      8192000 
  131000    0.7811305   -4.5636554   -4.5636554   -3.3919599 0.0089598853   -4.5636554    1.1716955      8192000 
  132000   0.77720285   -4.5592592   -4.5592592   -3.3934552 -0.0023353074   -4.5592592     1.165804      8192000 
  133000   0.77596856   -4.5588034   -4.5588034   -3.3948508 -0.0099936232   -4.5588034    1.1639525      8192000 
  134000   0.77573931    -4.559775    -4.559775   -3.3961663 -0.0058378256    -4.559775    1.1636087      8192000 
  135000   0.77789128   -4.5643006   -4.5643006   -3.3974639 0.00092523475   -4.5643006    1.1668366      8192000 
  136000   0.78049051   -4.5696613   -4.5696613   -3.3989258  0.015062038   -4.5696613    1.1707355      8192000 
  137000   0.78364111   -4.5757929   -4.5757929   -3.4003315  0.029688227   -4.5757929    1.1754614      8192000 
  138000    0.7862552   -4.5808828   -4.5808828   -3.4015003  0.046879265   -4.5808828    1.1793825      8192000 
  139000   0.78818933   -4.5850036   -4.5850036   -3.4027199  0.051932904   -4.5850036    1.1822837      8192000 
  140000   0.78758297   -4.5853751   -4.5853751   -3.4040009  0.051761044   -4.5853751    1.1813742      8192000 
  141000   0.78530817   -4.5833642   -4.5833642   -3.4054023  0.040977929   -4.5833642     1.177962      8192000 
  142000   0.78224775   -4.5798989   -4.5798989   -3.4065275  0.026803409   -4.5798989    1.1733713      8192000 
  143000   0.77796704    -4.574706    -4.574706   -3.4077558  0.013880265    -4.574706    1.1669503      8192000 
  144000   0.77550133   -4.5723428   -4.5723428   -3.4090911 0.0015859533   -4.5723428    1.1632517      8192000 
  145000   0.77406763   -4.5711368   -4.5711368   -3.4100356 -0.0018138498   -4.5711368    1.1611012      8192000 
  146000   0.77410617   -4.5724936   -4.5724936   -3.4113347 0.00077411061   -4.5724936     1.161159      8192000 
  147000   0.77525159   -4.5754256   -4.5754256   -3.4125485 0.0083856894   -4.5754256    1.1628771      8192000 
  148000   0.77758054   -4.5799567   -4.5799567   -3.4135862  0.018249711   -4.5799567    1.1663705      8192000 
  149000    0.7806162   -4.5853665   -4.5853665   -3.4144425  0.029856692   -4.5853665     1.170924      8192000 
  150000   0.78238405   -4.5892053   -4.5892053   -3.4156295  0.040275121   -4.5892053    1.1735758      8192000 
  151000   0.78363485    -4.592039    -4.592039    -3.416587  0.045103877    -4.592039     1.175452      8192000 
  152000   0.78293951   -4.5922072   -4.5922072   -3.4177983   0.04626807   -4.5922072     1.174409      8192000 
  153000   0.78159976   -4.5916315   -4.5916315   -3.4192322  0.037856552   -4.5916315    1.1723993      8192000 
  154000   0.77910427   -4.5888096   -4.5888096   -3.4201535  0.030360933   -4.5888096    1.1686561      8192000 
  155000   0.77624923   -4.5856016   -4.5856016    -3.421228  0.019124004   -4.5856016    1.1643736      8192000 
  156000   0.77394892   -4.5831156   -4.5831156   -3.4221925 0.0087327807   -4.5831156    1.1609231      8192000 
  157000   0.77247869   -4.5820065   -4.5820065   -3.4232887 0.0033897156   -4.5820065    1.1587177      8192000 
  158000   0.77234508   -4.5826302   -4.5826302   -3.4241128  0.004187603   -4.5826302    1.1585173      8192000 
  159000   0.77335892   -4.5849389   -4.5849389   -3.4249008  0.009319391   -4.5849389    1.1600381      8192000 
  160000    0.7757996   -4.5892537   -4.5892537   -3.4255546  0.021505785   -4.5892537    1.1636991      8192000 
  161000   0.77780973   -4.5933992   -4.5933992   -3.4266849  0.033548244   -4.5933992    1.1667143      8192000 
  162000   0.78031428   -4.5979869   -4.5979869   -3.4275158  0.044264119   -4.5979869    1.1704711      8192000 
  163000   0.78243123   -4.6017502   -4.6017502   -3.4281036   0.05062041   -4.6017502    1.1736466      8192000 
  164000   0.78403865   -4.6050299   -4.6050299   -3.4289722  0.060906569   -4.6050299    1.1760577      8192000 
  165000   0.78560621   -4.6079833   -4.6079833   -3.4295743  0.071237447   -4.6079833     1.178409      8192000 
  166000   0.78842945   -4.6128918   -4.6128918   -3.4302479  0.088458377   -4.6128918    1.1826439      8192000 
  167000   0.79348553   -4.6214129   -4.6214129   -3.4311849   0.11871014   -4.6214129     1.190228      8192000 
  168000   0.80025493   -4.6322945   -4.6322945   -3.4319125   0.16276265   -4.6322945    1.2003821      8192000 
  169000   0.80663019   -4.6428995   -4.6428995   -3.4329545   0.20252442   -4.6428995     1.209945      8192000 
  170000   0.81272552   -4.6525059   -4.6525059   -3.4334179   0.23345326   -4.6525059     1.219088      8192000 
  171000   0.81510001   -4.6568151   -4.6568151   -3.4341654   0.24778114   -4.6568151    1.2226497      8192000 
  172000    0.8129168    -4.653957    -4.653957   -3.4345821   0.23212075    -4.653957    1.2193749      8192000 
  173000   0.80618297   -4.6443664   -4.6443664   -3.4350922   0.19286271   -4.6443664    1.2092741      8192000 
  174000   0.79660718   -4.6307051   -4.6307051   -3.4357946   0.13926245   -4.6307051    1.1949105      8192000 
  175000   0.78584609   -4.6152881   -4.6152881   -3.4365193  0.090713125   -4.6152881    1.1787688      8192000 
  176000   0.77713085   -4.6027436   -4.6027436   -3.4370476  0.045727508   -4.6027436     1.165696      8192000 
  177000   0.76959165   -4.5921152   -4.5921152   -3.4377281   0.01514226   -4.5921152    1.1543872      8192000 
  178000   0.76457091   -4.5850664   -4.5850664   -3.4382103 -0.0046016356   -4.5850664    1.1468561      8192000 
  179000   0.76272025   -4.5828579   -4.5828579   -3.4387778 -0.013625418   -4.5828579    1.1440801      8192000 
  180000   0.76293929   -4.5838796   -4.5838796    -3.439471 -0.009397679   -4.5838796    1.1444087      8192000 
  181000   0.76593436   -4.5888104   -4.5888104   -3.4399092 0.0014792991   -4.5888104    1.1489013      8192000 
  182000   0.76957139   -4.5948099   -4.5948099   -3.4404531  0.017358217   -4.5948099    1.1543568      8192000 
  183000   0.77316538   -4.6008971   -4.6008971   -3.4411493  0.034431243   -4.6008971    1.1597478      8192000 
  184000    0.7755739   -4.6050947   -4.6050947   -3.4417341  0.048143306   -4.6050947    1.1633606      8192000 
  185000   0.77825539   -4.6096855   -4.6096855   -3.4423027  0.055614477   -4.6096855    1.1673828      8192000 
  186000   0.77845261   -4.6103945   -4.6103945   -3.4427158  0.058605744   -4.6103945    1.1676786      8192000 
  187000   0.77687985   -4.6085626   -4.6085626   -3.4432432   0.05012892   -4.6085626    1.1653195      8192000 
  188000   0.77379366   -4.6041504   -4.6041504   -3.4434602    0.0397787   -4.6041504    1.1606902      8192000 
  189000   0.76978908   -4.5988824   -4.5988824   -3.4441991  0.024454523   -4.5988824    1.1546833      8192000 
  190000   0.76636449   -4.5944586   -4.5944586   -3.4449122 0.0096259901   -4.5944586    1.1495465      8192000 
  191000   0.76337335   -4.5899932   -4.5899932   -3.4449335 5.6670942e-06   -4.5899932    1.1450597      8192000 
  192000   0.76171253   -4.5880734   -4.5880734   -3.4455049 -0.0087472901   -4.5880734    1.1425685      8192000 
  193000   0.76145524   -4.5879762   -4.5879762   -3.4457936 -0.0088382559   -4.5879762    1.1421826      8192000 
  194000   0.76319746   -4.5908237   -4.5908237   -3.4460278 -0.0038699613   -4.5908237    1.1447959      8192000 
  195000   0.76582753   -4.5950406   -4.5950406   -3.4462996  0.010224104   -4.5950406     1.148741      8192000 
  196000   0.76929756   -4.6005939   -4.6005939   -3.4466479  0.024964723   -4.6005939    1.1539461      8192000 
  197000   0.77211799   -4.6049342   -4.6049342   -3.4467575    0.0403244   -4.6049342    1.1581767      8192000 
  198000   0.77442706   -4.6087714   -4.6087714   -3.4471311  0.048391438   -4.6087714    1.1616403      8192000 
  199000   0.77534987   -4.6104437   -4.6104437   -3.4474192  0.052578353   -4.6104437    1.1630245      8192000 
  200000   0.77482136   -4.6098441   -4.6098441   -3.4476123   0.04782673   -4.6098441    1.1622317      8192000 
  201000   0.77252612   -4.6065931   -4.6065931   -3.4478042  0.039448591   -4.6065931    1.1587889      8192000 
  202000   0.76922025   -4.6020583   -4.6020583   -3.4482283  0.028548974   -4.6020583    1.1538301      8192000 
  203000   0.76663727   -4.5984944   -4.5984944   -3.4485388  0.016940979   -4.5984944    1.1499556      8192000 
  204000   0.76395155   -4.5945977   -4.5945977   -3.4486706 0.0059687797   -4.5945977     1.145927      8192000 
  205000   0.76207646   -4.5919798   -4.5919798   -3.4488654 -0.0022116223   -4.5919798    1.1431144      8192000 
  206000   0.76130971   -4.5908266   -4.5908266   -3.4488623 -0.0053235918   -4.5908266    1.1419643      8192000 
  207000   0.76205637    -4.592248    -4.592248   -3.4491638 -0.0042379643    -4.592248    1.1430843      8192000 
  208000   0.76358257   -4.5945766   -4.5945766    -3.449203  0.003585048   -4.5945766    1.1453736      8192000 
  209000   0.76604415   -4.5982999   -4.5982999    -3.449234  0.014980502   -4.5982999    1.1490659      8192000 
  210000   0.76859966   -4.6024204   -4.6024204   -3.4495212   0.02631078   -4.6024204    1.1528992      8192000 
  211000   0.77095063   -4.6059468   -4.6059468   -3.4495212  0.038239155   -4.6059468    1.1564256      8192000 
  212000   0.77260005   -4.6083541   -4.6083541   -3.4494543  0.043619459   -4.6083541    1.1588998      8192000 
  213000   0.77292089   -4.6087508   -4.6087508   -3.4493698  0.045087587   -4.6087508     1.159381      8192000 
  214000   0.77182243    -4.607017    -4.607017   -3.4492836  0.039295448    -4.607017    1.1577334      8192000 
  215000   0.76931746   -4.6033787   -4.6033787   -3.4494028  0.030782752   -4.6033787    1.1539759      8192000 
  216000   0.76637889    -4.599174    -4.599174   -3.4496059  0.020530875    -4.599174     1.149568      8192000 
  217000   0.76423793   -4.5956735   -4.5956735   -3.4493169 0.0091359306   -4.5956735    1.1463566      8192000 
  218000   0.76237371    -4.592609    -4.592609   -3.4490487 0.0030125308    -4.592609    1.1435603      8192000 
  219000   0.76077478   -4.5900687   -4.5900687   -3.4489068 -0.0016726577   -4.5900687    1.1411619      8192000 
  220000   0.76118853   -4.5905454   -4.5905454   -3.4487629 -0.0046090445   -4.5905454    1.1417825      8192000 
  221000    0.7623788   -4.5922438   -4.5922438   -3.4486759 -0.00015140058   -4.5922438    1.1435679      8192000 
  222000   0.76426882   -4.5949618   -4.5949618   -3.4485589 0.0084270675   -4.5949618    1.1464029      8192000 
  223000   0.76611246   -4.5973996   -4.5973996   -3.4482312  0.020116886   -4.5973996    1.1491684      8192000 
  224000   0.76820587   -4.6004147   -4.6004147   -3.4481062  0.028091041   -4.6004147    1.1523085      8192000 
  225000   0.76987966   -4.6025748   -4.6025748   -3.4477556  0.036993021   -4.6025748    1.1548192      8192000 
  226000   0.77137806   -4.6045326   -4.6045326   -3.4474658   0.03884209   -4.6045326    1.1570668      8192000 
  227000   0.77089434   -4.6036309   -4.6036309   -3.4472896  0.038977333   -4.6036309    1.1563412      8192000 
  228000   0.76965545   -4.6016479   -4.6016479   -3.4471651  0.031588305   -4.6016479    1.1544829      8192000 
  229000   0.76762516   -4.5982207   -4.5982207   -3.4467832  0.024130369   -4.5982207    1.1514375      8192000 
  230000   0.76562017   -4.5950007   -4.5950007   -3.4465707  0.013900215   -4.5950007      1.14843      8192000 
  231000   0.76310869   -4.5909524   -4.5909524   -3.4462897  0.004494737   -4.5909524    1.1446628      8192000 
  232000   0.76182229   -4.5884511   -4.5884511   -3.4457179 -0.00059003682   -4.5884511    1.1427331      8192000 
  233000    0.7611762   -4.5873966   -4.5873966   -3.4456326 -0.0023347939   -4.5873966     1.141764      8192000 
  234000   0.76213052   -4.5883858   -4.5883858   -3.4451903  -0.00151314   -4.5883858    1.1431955      8192000 
  235000   0.76286358   -4.5890842   -4.5890842   -3.4447892 0.0051153622   -4.5890842    1.1442951      8192000 
  236000   0.76494644   -4.5918038   -4.5918038   -3.4443844  0.012746313   -4.5918038    1.1474194      8192000 
  237000   0.76730815    -4.594832    -4.594832   -3.4438701  0.022077489    -4.594832    1.1509619      8192000 
  238000   0.76851438   -4.5962545   -4.5962545   -3.4434832  0.030520625   -4.5962545    1.1527713      8192000 
  239000   0.76978043   -4.5975776   -4.5975776   -3.4429073   0.03429923   -4.5975776    1.1546704      8192000 
  240000   0.76979654   -4.5971114   -4.5971114   -3.4424169  0.033258091   -4.5971114    1.1546945      8192000 
  241000   0.76918572   -4.5955462   -4.5955462   -3.4417679  0.029814925   -4.5955462    1.1537783      8192000 
  242000   0.76762058   -4.5925538   -4.5925538   -3.4411232  0.024060034   -4.5925538    1.1514306      8192000 
  243000   0.76568672   -4.5892168   -4.5892168    -3.440687  0.015538791   -4.5892168    1.1485298      8192000 
  244000   0.76409058   -4.5863535   -4.5863535   -3.4402179  0.007743089   -4.5863535    1.1461356      8192000 
  245000   0.76275458   -4.5836126   -4.5836126    -3.439481 0.0030708279   -4.5836126    1.1441316      8192000 
  246000   0.76139079   -4.5809338   -4.5809338   -3.4388479 0.0010267628   -4.5809338    1.1420859      8192000 
  247000   0.76160189   -4.5804631   -4.5804631   -3.4380605 0.0010219952   -4.5804631    1.1424025      8192000 
  248000   0.76247373   -4.5811462   -4.5811462   -3.4374359 0.0025557941   -4.5811462    1.1437103      8192000 
  249000   0.76381472   -4.5825669   -4.5825669   -3.4368451 0.0059729531   -4.5825669    1.1457218      8192000 
  250000   0.76552543   -4.5842773   -4.5842773   -3.4359894  0.015367307   -4.5842773    1.1482879      8192000 
  251000   0.76735521   -4.5863131   -4.5863131   -3.4352805  0.020872425   -4.5863131    1.1510325      8192000 
  252000   0.76854485   -4.5873755   -4.5873755   -3.4345586  0.028253425   -4.5873755     1.152817      8192000 
  253000   0.76916472   -4.5872313   -4.5872313   -3.4334845  0.031863097   -4.5872313    1.1537468      8192000 
  254000    0.7689235    -4.585842    -4.585842    -3.432457  0.030668261    -4.585842     1.153385      8192000 
  255000   0.76784301   -4.5838179   -4.5838179   -3.4320536  0.025191177   -4.5838179    1.1517642      8192000 
  256000   0.76634857   -4.5805336   -4.5805336   -3.4310111  0.017988086   -4.5805336    1.1495226      8192000 
  257000   0.76472293   -4.5772749   -4.5772749   -3.4301908  0.011256633   -4.5772749    1.1470841      8192000 
  258000   0.76289496   -4.5733789   -4.5733789   -3.4290367  0.005055887   -4.5733789    1.1443422      8192000 
  259000   0.76244904   -4.5715997   -4.5715997   -3.4279264 1.1097726e-05   -4.5715997    1.1436733      8192000 
  260000   0.76220416   -4.5701498   -4.5701498   -3.4268438 -0.00063420712   -4.5701498     1.143306      8192000 
  261000   0.76245766   -4.5693752   -4.5693752    -3.425689 0.0026554955   -4.5693752    1.1436862      8192000 
  262000   0.76387203   -4.5703761   -4.5703761   -3.4245684 0.0074293775   -4.5703761    1.1458078      8192000 
  263000   0.76482877   -4.5710307   -4.5710307   -3.4237878  0.013205621   -4.5710307    1.1472429      8192000 
  264000   0.76642357   -4.5723817   -4.5723817   -3.4227467  0.019769982   -4.5723817    1.1496351      8192000 
  265000   0.76775484    -4.573449    -4.573449    -3.421817  0.021628916    -4.573449     1.151632      8192000 
  266000    0.7680614   -4.5725782   -4.5725782   -3.4204864  0.026491919   -4.5725782    1.1520918      8192000 
  267000   0.76855277   -4.5720806   -4.5720806   -3.4192517  0.026219223   -4.5720806    1.1528289      8192000 
  268000   0.76750869   -4.5693282   -4.5693282   -3.4180654  0.024287268   -4.5693282    1.1512627      8192000 
  269000   0.76657782   -4.5667945   -4.5667945   -3.4169281  0.018024179   -4.5667945    1.1498664      8192000 
  270000   0.76556789   -4.5641349   -4.5641349   -3.4157833   0.01324014   -4.5641349    1.1483516      8192000 
  271000   0.76404124   -4.5605401   -4.5605401   -3.4144786  0.007156868   -4.5605401    1.1460616      8192000 
  272000   0.76295864   -4.5578415   -4.5578415   -3.4134039 0.0049656728   -4.5578415    1.1444377      8192000 
  273000   0.76261636   -4.5559748   -4.5559748   -3.4120506 0.0037549728   -4.5559748    1.1439243      8192000 
  274000   0.76305345   -4.5552981   -4.5552981   -3.4107182 0.0014259367   -4.5552981    1.1445799      8192000 
  275000   0.76309549   -4.5541967   -4.5541967   -3.4095537 0.0056344977   -4.5541967     1.144643      8192000 
  276000   0.76431102   -4.5546722   -4.5546722    -3.408206 0.0090916301   -4.5546722    1.1464662      8192000 
  277000   0.76543307   -4.5553391   -4.5553391   -3.4071897  0.012806394   -4.5553391    1.1481493      8192000 
  278000   0.76652547   -4.5559759   -4.5559759    -3.406188  0.017703139   -4.5559759    1.1497879      8192000 
  279000   0.76714475   -4.5559242   -4.5559242   -3.4052074  0.024188937   -4.5559242    1.1507168      8192000 
  280000   0.76828863   -4.5561756   -4.5561756    -3.403743  0.023316688   -4.5561756    1.1524327      8192000 
  281000   0.76799352   -4.5547503   -4.5547503   -3.4027603  0.023598421   -4.5547503      1.15199      8192000 
  282000   0.76755866   -4.5528385   -4.5528385   -3.4015008  0.019971783   -4.5528385    1.1513377      8192000 
  283000   0.76654577   -4.5502708   -4.5502708   -3.4004524  0.018432853   -4.5502708    1.1498184      8192000 
  284000   0.76536652   -4.5472967   -4.5472967   -3.3992472  0.013484391   -4.5472967    1.1480495      8192000 
  285000    0.7640411   -4.5444491   -4.5444491   -3.3983878  0.007221536   -4.5444491    1.1460614      8192000 
  286000   0.76364348   -4.5427551   -4.5427551   -3.3972901 0.0040276445   -4.5427551    1.1454649      8192000 
  287000   0.76373061   -4.5417769   -4.5417769   -3.3961813  0.002689627   -4.5417769    1.1455956      8192000 
  288000   0.76377916   -4.5407554   -4.5407554    -3.395087  0.003479473   -4.5407554    1.1456684      8192000 
  289000   0.76435072   -4.5405503   -4.5405503   -3.3940245 0.0056370546   -4.5405503    1.1465258      8192000 
  290000   0.76548562   -4.5412543   -4.5412543   -3.3930261 0.0090225899   -4.5412543    1.1482281      8192000 
  291000   0.76674715   -4.5421912   -4.5421912   -3.3920708  0.014096516   -4.5421912    1.1501204      8192000 
  292000   0.76771886   -4.5426938   -4.5426938   -3.3911158  0.018163718   -4.5426938     1.151578      8192000 
  293000   0.76805549   -4.5421967   -4.5421967   -3.3901137  0.021268647   -4.5421967    1.1520829      8192000 
  294000   0.76846096    -4.541806    -4.541806   -3.3891149  0.021174127    -4.541806    1.1526911      8192000 
  295000   0.76805527   -4.5403893   -4.5403893   -3.3883067  0.020081796   -4.5403893    1.1520826      8192000 
  296000   0.76754183   -4.5387536   -4.5387536   -3.3874411  0.016634657   -4.5387536    1.1513125      8192000 
  297000   0.76667871   -4.5365684   -4.5365684   -3.3865506  0.014485642   -4.5365684    1.1500178      8192000 
  298000   0.76585371   -4.5344796   -4.5344796   -3.3856993 0.0095364792   -4.5344796    1.1487803      8192000 
  299000    0.7649412   -4.5323031   -4.5323031   -3.3848916 0.0053673437   -4.5323031    1.1474115      8192000 
  300000   0.76450956   -4.5309923   -4.5309923   -3.3842283 0.0018901446   -4.5309923     1.146764      8192000 
  301000   0.76440188    -4.530209    -4.530209   -3.3836065  0.002152975    -4.530209    1.1466025      8192000 
  302000   0.76475013   -4.5301474   -4.5301474   -3.3830224 0.0046974779   -4.5301474    1.1471249      8192000 
  303000   0.76584209   -4.5313456   -4.5313456   -3.3825827 0.0067841017   -4.5313456    1.1487629      8192000 
  304000   0.76689068   -4.5324629   -4.5324629   -3.3821271  0.010715375   -4.5324629    1.1503357      8192000 
  305000   0.76769851   -4.5332226   -4.5332226   -3.3816751   0.01534979   -4.5332226    1.1515475      8192000 
  306000   0.76870888   -4.5343146   -4.5343146   -3.3812516  0.018863643   -4.5343146     1.153063      8192000 
  307000   0.76862174   -4.5340152   -4.5340152   -3.3810829   0.01982031   -4.5340152    1.1529323      8192000 
  308000   0.76873546   -4.5341196   -4.5341196   -3.3810167  0.019218496   -4.5341196    1.1531029      8192000 
  309000   0.76864806   -4.5336419   -4.5336419   -3.3806701  0.016610737   -4.5336419    1.1529718      8192000 
  310000   0.76779794   -4.5321315   -4.5321315   -3.3804349  0.014822454   -4.5321315    1.1516966      8192000 
  311000      0.76709   -4.5308916   -4.5308916   -3.3802569  0.010515025   -4.5308916    1.1506347      8192000 
  312000   0.76646124   -4.5296147   -4.5296147   -3.3799231 0.0045344855   -4.5296147    1.1496916      8192000 
  313000   0.76597404   -4.5287535   -4.5287535   -3.3797927 0.0030738185   -4.5287535    1.1489608      8192000 
  314000    0.7657294   -4.5282444   -4.5282444   -3.3796506 0.0036552239   -4.5282444    1.1485938      8192000 
  315000    0.7656868   -4.5280278   -4.5280278   -3.3794979  0.005048125   -4.5280278    1.1485299      8192000 
  316000   0.76615729   -4.5284378   -4.5284378   -3.3792021 0.0058099818   -4.5284378    1.1492356      8192000 
  317000   0.76669279   -4.5292771   -4.5292771   -3.3792382 0.0098107015   -4.5292771    1.1500389      8192000 
  318000   0.76747923   -4.5305336   -4.5305336    -3.379315  0.013371383   -4.5305336    1.1512186      8192000 
  319000   0.76818441   -4.5313367   -4.5313367   -3.3790604  0.016503855   -4.5313367    1.1522763      8192000 
  320000   0.76891822   -4.5324249   -4.5324249   -3.3790478  0.017547275   -4.5324249     1.153377      8192000 
  321000   0.76916506   -4.5325033   -4.5325033    -3.378756  0.018195687   -4.5325033    1.1537473      8192000 
  322000   0.76937227    -4.532946    -4.532946   -3.3788879   0.01599814    -4.532946    1.1540581      8192000 
  323000   0.76845538   -4.5316534   -4.5316534   -3.3789706  0.015682122   -4.5316534    1.1526828      8192000 
  324000   0.76796576   -4.5308506   -4.5308506   -3.3789023  0.010572735   -4.5308506    1.1519484      8192000 
  325000   0.76712843   -4.5294753   -4.5294753    -3.378783 0.0091902415   -4.5294753    1.1506924      8192000 
  326000   0.76669028   -4.5286252   -4.5286252     -3.37859 0.0050029991   -4.5286252    1.1500351      8192000 
  327000   0.76620332    -4.527765    -4.527765   -3.3784603 0.0051703858    -4.527765    1.1493047      8192000 
  328000   0.76607611   -4.5275185   -4.5275185   -3.3784047 0.0040588331   -4.5275185    1.1491139      8192000 
  329000   0.76700553   -4.5288347   -4.5288347   -3.3783267 0.0027518063   -4.5288347     1.150508      8192000 
  330000   0.76678551   -4.5283383   -4.5283383   -3.3781604 0.0076254418   -4.5283383     1.150178      8192000 
  331000   0.76746274   -4.5294022   -4.5294022   -3.3782084 0.0082429028   -4.5294022    1.1511938      8192000 
  332000   0.76850373   -4.5310365   -4.5310365   -3.3782811 0.0091365201   -4.5310365    1.1527553      8192000 
  333000   0.76879847   -4.5313736   -4.5313736   -3.3781762  0.013336142   -4.5313736    1.1531974      8192000 
  334000   0.76985234   -4.5327669   -4.5327669   -3.3779887  0.015423395   -4.5327669    1.1547782      8192000 
  335000   0.76995988   -4.5326083   -4.5326083   -3.3776688   0.01730969   -4.5326083    1.1549395      8192000 
  336000   0.77027838   -4.5330446   -4.5330446   -3.3776273  0.016124546   -4.5330446    1.1554173      8192000 
  337000   0.76971402   -4.5321387   -4.5321387   -3.3775679   0.01486318   -4.5321387    1.1545707      8192000 
  338000   0.76912507   -4.5312253   -4.5312253    -3.377538  0.014075066   -4.5312253    1.1536873      8192000 
  339000   0.76834168    -4.530168    -4.530168   -3.3776558  0.011101213    -4.530168    1.1525122      8192000 
  340000   0.76837968   -4.5300726   -4.5300726   -3.3775033 0.0061856205   -4.5300726    1.1525692      8192000 
  341000    0.7678925   -4.5291146   -4.5291146   -3.3772761 0.0065658516   -4.5291146    1.1518385      8192000 
  342000   0.76846764   -4.5299085   -4.5299085   -3.3772073 0.0045061241   -4.5299085    1.1527012      8192000 
  343000   0.76859123   -4.5300695   -4.5300695    -3.377183 0.0059826856   -4.5300695    1.1528866      8192000 
  344000     0.769283   -4.5306843   -4.5306843   -3.3767601 0.0078960284   -4.5306843    1.1539242      8192000 
  345000    0.7705417   -4.5325234   -4.5325234   -3.3767112  0.011792351   -4.5325234    1.1558123      8192000 
  346000   0.77116732   -4.5333939   -4.5333939   -3.3766432  0.017309831   -4.5333939    1.1567507      8192000 
  347000   0.77210707   -4.5348219   -4.5348219   -3.3766616  0.018002553   -4.5348219    1.1581603      8192000 
  348000   0.77266449   -4.5356791   -4.5356791   -3.3766827  0.021400841   -4.5356791    1.1589964      8192000 
  349000   0.77314809   -4.5362833   -4.5362833   -3.3765614  0.022518325   -4.5362833    1.1597218      8192000 
  350000   0.77377524   -4.5375845   -4.5375845    -3.376922  0.022915398   -4.5375845    1.1606626      8192000 
  351000   0.77368749   -4.5372402   -4.5372402   -3.3767093  0.025366332   -4.5372402    1.1605309      8192000 
  352000   0.77436899   -4.5386156   -4.5386156   -3.3770624  0.025038729   -4.5386156    1.1615532      8192000 
  353000   0.77444343   -4.5389892   -4.5389892   -3.3773244  0.029568411   -4.5389892    1.1616649      8192000 
  354000   0.77604402   -4.5414866   -4.5414866   -3.3774209  0.032276902   -4.5414866    1.1640657      8192000 
  355000   0.77748023   -4.5438504   -4.5438504   -3.3776303  0.040342436   -4.5438504    1.1662201      8192000 
  356000   0.77915757   -4.5470423   -4.5470423   -3.3783062  0.049083869   -4.5470423    1.1687361      8192000 
  357000   0.78162958   -4.5511556   -4.5511556   -3.3787115  0.061192726   -4.5511556    1.1724441      8192000 
  358000   0.78477886   -4.5565974   -4.5565974   -3.3794294  0.076012574   -4.5565974     1.177168      8192000 
  359000    0.7873255   -4.5613018   -4.5613018   -3.3803139  0.089922802   -4.5613018     1.180988      8192000 
  360000   0.78891277   -4.5648316   -4.5648316   -3.3814627    0.1010175   -4.5648316    1.1833689      8192000 
  361000   0.79013659   -4.5679892   -4.5679892   -3.3827846   0.10779437   -4.5679892    1.1852046      8192000 
  362000   0.79042625   -4.5697065   -4.5697065   -3.3840674   0.11205337   -4.5697065    1.1856391      8192000 
  363000   0.79017731   -4.5701517   -4.5701517    -3.384886   0.10999951   -4.5701517    1.1852657      8192000 
  364000   0.78908874   -4.5696772   -4.5696772   -3.3860444   0.10787151   -4.5696772    1.1836328      8192000 
  365000   0.78831774   -4.5690454   -4.5690454    -3.386569     0.100434   -4.5690454    1.1824763      8192000 
  366000   0.78653322   -4.5667339   -4.5667339   -3.3869344   0.09532292   -4.5667339    1.1797995      8192000 
  367000   0.78456069   -4.5641519   -4.5641519   -3.3873111  0.084686643   -4.5641519    1.1768407      8192000 
  368000   0.78233634   -4.5608858   -4.5608858   -3.3873816  0.074793817   -4.5608858    1.1735042      8192000 
  369000   0.78007988   -4.5574079   -4.5574079   -3.3872883  0.062509721   -4.5574079    1.1701195      8192000 
  370000   0.77739136   -4.5527968   -4.5527968   -3.3867101  0.047145975   -4.5527968    1.1660868      8192000 
  371000   0.77471504   -4.5476789   -4.5476789   -3.3856066  0.033513367   -4.5476789    1.1620723      8192000 
  372000   0.77246632   -4.5429479   -4.5429479   -3.3842487  0.019446797   -4.5429479    1.1586992      8192000 
  373000   0.76989405   -4.5374508   -4.5374508     -3.38261 0.0055359118   -4.5374508    1.1548408      8192000 
  374000   0.76700842   -4.5318057   -4.5318057   -3.3812934 -0.0062617469   -4.5318057    1.1505123      8192000 
  375000   0.76492772   -4.5269725   -4.5269725   -3.3795812 -0.020113693   -4.5269725    1.1473913      8192000 
  376000   0.76243343   -4.5215639   -4.5215639    -3.377914 -0.031032626   -4.5215639    1.1436499      8192000 
  377000   0.76051712   -4.5169592   -4.5169592   -3.3761838 -0.041255667   -4.5169592    1.1407754      8192000 
  378000   0.75891692   -4.5129049   -4.5129049   -3.3745298 -0.049690541   -4.5129049    1.1383751      8192000 
  379000    0.7568321   -4.5082241   -4.5082241   -3.3729763 -0.057062463   -4.5082241    1.1352479      8192000 
  380000   0.75601982   -4.5054641   -4.5054641   -3.3714346 -0.063515309   -4.5054641    1.1340294      8192000 
  381000   0.75532254   -4.5027286   -4.5027286   -3.3697451 -0.066256332   -4.5027286    1.1329835      8192000 
  382000   0.75484498   -4.5011332   -4.5011332    -3.368866 -0.071249063   -4.5011332    1.1322672      8192000 
  383000   0.75531935    -4.500606    -4.500606   -3.3676273 -0.071498757    -4.500606    1.1329787      8192000 
  384000   0.75607962   -4.5005537   -4.5005537   -3.3664345 -0.067949059   -4.5005537    1.1341192      8192000 
  385000   0.75680906   -4.5006802   -4.5006802   -3.3654669 -0.064752793   -4.5006802    1.1352133      8192000 
  386000   0.75801542   -4.5016333   -4.5016333   -3.3646104 -0.058149446   -4.5016333    1.1370228      8192000 
  387000   0.75962275   -4.5034627   -4.5034627   -3.3640289 -0.052230758   -4.5034627    1.1394338      8192000 
  388000   0.76132771    -4.505652    -4.505652   -3.3636607  -0.04568693    -4.505652    1.1419913      8192000 
  389000   0.76292858   -4.5077607   -4.5077607   -3.3633681 -0.036933129   -4.5077607    1.1443926      8192000 
  390000   0.76551242   -4.5115781   -4.5115781   -3.3633098 -0.028727548   -4.5115781    1.1482683      8192000 
  391000   0.76708891   -4.5141345   -4.5141345   -3.3635014  -0.01665846   -4.5141345    1.1506331      8192000 
  392000   0.76975811   -4.5187393   -4.5187393   -3.3641024 -0.0067669563   -4.5187393    1.1546369      8192000 
  393000   0.77174515   -4.5227705   -4.5227705   -3.3651531 0.0033999309   -4.5227705    1.1576174      8192000 
  394000   0.77369614   -4.5268433   -4.5268433   -3.3662994  0.013807115   -4.5268433    1.1605439      8192000 
  395000   0.77562774   -4.5309269   -4.5309269   -3.3674856   0.02521454   -4.5309269    1.1634413      8192000 
  396000   0.77741555   -4.5348029   -4.5348029   -3.3686799   0.03558441   -4.5348029     1.166123      8192000 
  397000   0.77943228   -4.5388764   -4.5388764   -3.3697283  0.044952741   -4.5388764    1.1691481      8192000 
  398000   0.78099856   -4.5423686   -4.5423686   -3.3708711  0.053771236   -4.5423686    1.1714976      8192000 
  399000   0.78245872   -4.5459181   -4.5459181   -3.3722303   0.06073042   -4.5459181    1.1736878      8192000 
  400000   0.78348157   -4.5482673   -4.5482673   -3.3730452  0.066585474   -4.5482673    1.1752221      8192000 
  401000   0.78422812   -4.5509025   -4.5509025   -3.3745606   0.07042621   -4.5509025    1.1763419      8192000 
  402000   0.78417294   -4.5517297   -4.5517297   -3.3754706  0.076010081   -4.5517297    1.1762591      8192000 
  403000   0.78446087   -4.5527575   -4.5527575   -3.3760665  0.078051042   -4.5527575     1.176691      8192000 
  404000   0.78454181   -4.5536157   -4.5536157   -3.3768033  0.075987656   -4.5536157    1.1768124      8192000 
  405000   0.78383777   -4.5531287   -4.5531287   -3.3773723  0.074305216   -4.5531287    1.1757564      8192000 
  406000   0.78267093   -4.5518476   -4.5518476   -3.3778415  0.068618673   -4.5518476    1.1740061      8192000 
  407000   0.78111332   -4.5497482   -4.5497482   -3.3780785  0.065655378   -4.5497482    1.1716697      8192000 
  408000   0.78017516    -4.548307    -4.548307   -3.3780445  0.058707783    -4.548307    1.1702624      8192000 
  409000   0.77872307   -4.5459997   -4.5459997   -3.3779154  0.049545068   -4.5459997    1.1680843      8192000 
  410000   0.77721552   -4.5430874   -4.5430874   -3.3772644  0.041718026   -4.5430874     1.165823      8192000 
  411000   0.77566944   -4.5397804   -4.5397804   -3.3762765   0.03374217   -4.5397804    1.1635039      8192000 
  412000   0.77390329   -4.5364926   -4.5364926    -3.375638  0.024707137   -4.5364926    1.1608546      8192000 
  413000   0.77237202   -4.5330835   -4.5330835   -3.3745257  0.013972286   -4.5330835    1.1585577      8192000 
  414000   0.77076361   -4.5295166   -4.5295166   -3.3733715  0.005816897   -4.5295166    1.1561451      8192000 
  415000   0.76921914    -4.526253    -4.526253   -3.3724246 -0.004180812    -4.526253    1.1538284      8192000 
  416000    0.7674017   -4.5223412   -4.5223412    -3.371239  -0.01137739   -4.5223412    1.1511023      8192000 
  417000   0.76571114   -4.5187535   -4.5187535   -3.3701871 -0.017330905   -4.5187535    1.1485664      8192000 
  418000   0.76503434   -4.5163827   -4.5163827   -3.3688315 -0.027206294   -4.5163827    1.1475512      8192000 
  419000   0.76368613   -4.5132306   -4.5132306   -3.3677017 -0.031965582   -4.5132306    1.1455289      8192000 
  420000   0.76331743   -4.5112067   -4.5112067   -3.3662308 -0.035651681   -4.5112067    1.1449759      8192000 
  421000   0.76227444   -4.5086623   -4.5086623   -3.3652509 -0.037649099   -4.5086623    1.1434114      8192000 
  422000   0.76214465   -4.5074277   -4.5074277    -3.364211  -0.03985311   -4.5074277    1.1432167      8192000 
  423000   0.76190009   -4.5059252   -4.5059252   -3.3630753 -0.039956503   -4.5059252    1.1428498      8192000 
  424000   0.76234256   -4.5056975   -4.5056975   -3.3621839 -0.040980748   -4.5056975    1.1435136      8192000 
  425000   0.76266547   -4.5054285   -4.5054285   -3.3614306  -0.03917769   -4.5054285    1.1439979      8192000 
  426000   0.76333143   -4.5053823   -4.5053823   -3.3603855 -0.036205791   -4.5053823    1.1449969      8192000 
  427000   0.76424233   -4.5065408   -4.5065408   -3.3601776 -0.033272304   -4.5065408    1.1463632      8192000 
  428000   0.76579358   -4.5084998   -4.5084998   -3.3598098 -0.027919323   -4.5084998    1.1486901      8192000 
  429000   0.76670383   -4.5098183   -4.5098183   -3.3597628 -0.022012012   -4.5098183    1.1500555      8192000 
  430000   0.76757816   -4.5108867   -4.5108867   -3.3595197  -0.01733427   -4.5108867     1.151367      8192000 
  431000   0.76889541   -4.5129696   -4.5129696   -3.3596268 -0.010837772   -4.5129696    1.1533428      8192000 
  432000   0.77039515   -4.5154807   -4.5154807   -3.3598882 -0.0040726297   -4.5154807    1.1555924      8192000 
  433000   0.77179638   -4.5181463   -4.5181463   -3.3604521 0.00099414981   -4.5181463    1.1576943      8192000 
  434000   0.77273192   -4.5203626   -4.5203626    -3.361265 0.0077965769   -4.5203626    1.1590976      8192000 
  435000   0.77450906   -4.5232788   -4.5232788   -3.3615155  0.015343744   -4.5232788    1.1617633      8192000 
  436000   0.77604246   -4.5261209   -4.5261209   -3.3620575  0.022109604   -4.5261209    1.1640634      8192000 
  437000   0.77699288   -4.5281541   -4.5281541   -3.3626651  0.028903536   -4.5281541     1.165489      8192000 
  438000   0.77843776   -4.5310036   -4.5310036   -3.3633473  0.034403412   -4.5310036    1.1676563      8192000 
  439000    0.7789827   -4.5323069   -4.5323069   -3.3638332  0.042293479   -4.5323069    1.1684738      8192000 
  440000   0.77996546    -4.534336    -4.534336   -3.3643881  0.046148415    -4.534336    1.1699479      8192000 
  441000   0.78055595   -4.5360599   -4.5360599   -3.3652263  0.047430268   -4.5360599    1.1708336      8192000 
  442000   0.78132797   -4.5380082   -4.5380082   -3.3660165  0.050919966   -4.5380082    1.1719917      8192000 
  443000   0.78128526   -4.5383973   -4.5383973   -3.3664697  0.053901637   -4.5383973    1.1719276      8192000 
  444000   0.78143537   -4.5389253   -4.5389253   -3.3667726  0.053764283   -4.5389253    1.1721528      8192000 
  445000   0.78156741   -4.5394677   -4.5394677   -3.3671169   0.05213297   -4.5394677    1.1723508      8192000 
  446000   0.78098657   -4.5388117   -4.5388117   -3.3673321  0.050549037   -4.5388117    1.1714796      8192000 
  447000   0.77985913   -4.5370222   -4.5370222   -3.3672338  0.048739557   -4.5370222    1.1697884      8192000 
  448000    0.7792276    -4.536174    -4.536174   -3.3673329  0.043968431    -4.536174    1.1688411      8192000 
  449000   0.77802853   -4.5342464   -4.5342464    -3.367204  0.040780844   -4.5342464    1.1670425      8192000 
  450000   0.77757856   -4.5331447   -4.5331447   -3.3667771  0.036080997   -4.5331447    1.1663676      8192000 
  451000   0.77666869   -4.5313547   -4.5313547   -3.3663519  0.028897769   -4.5313547    1.1650027      8192000 
  452000    0.7757451   -4.5293032   -4.5293032   -3.3656858  0.025037031   -4.5293032    1.1636174      8192000 
  453000   0.77426814    -4.526368    -4.526368   -3.3649661  0.020246215    -4.526368    1.1614019      8192000 
  454000   0.77363893   -4.5248346   -4.5248346   -3.3643765  0.012356588   -4.5248346    1.1604581      8192000 
  455000   0.77265868   -4.5224813   -4.5224813   -3.3634936 0.0068855438   -4.5224813    1.1589877      8192000 
  456000   0.77123418   -4.5193857   -4.5193857   -3.3625347 0.0023593616   -4.5193857     1.156851      8192000 
  457000   0.77110305   -4.5180858   -4.5180858   -3.3614315 -0.0054326598   -4.5180858    1.1566543      8192000 
  458000   0.76970602   -4.5148001   -4.5148001   -3.3602414 -0.0074610159   -4.5148001    1.1545587      8192000 
  459000   0.76925836   -4.5130399   -4.5130399   -3.3591527 -0.010415153   -4.5130399    1.1538872      8192000 
  460000   0.76820245   -4.5105747   -4.5105747   -3.3582713 -0.012879743   -4.5105747    1.1523034      8192000 
  461000   0.76812515   -4.5096179   -4.5096179   -3.3574304 -0.017959952   -4.5096179    1.1521874      8192000 
  462000   0.76753971   -4.5080769   -4.5080769   -3.3567676  -0.02081536   -4.5080769    1.1513093      8192000 
  463000   0.76759047   -4.5072181   -4.5072181   -3.3558326  -0.02237137   -4.5072181    1.1513854      8192000 
  464000   0.76788139   -4.5066668   -4.5066668    -3.354845   -0.0233095   -4.5066668    1.1518218      8192000 
  465000   0.76801906   -4.5058792   -4.5058792   -3.3538509  -0.02142789   -4.5058792    1.1520283      8192000 
  466000   0.76863689   -4.5061358   -4.5061358   -3.3531807 -0.020973253   -4.5061358     1.152955      8192000 
  467000   0.76868814   -4.5056035   -4.5056035   -3.3525716 -0.016774529   -4.5056035    1.1530319      8192000 
  468000   0.76932862   -4.5057891   -4.5057891   -3.3517964 -0.015392885   -4.5057891    1.1539926      8192000 
  469000   0.77005255   -4.5066071   -4.5066071   -3.3515285 -0.013224896   -4.5066071    1.1550785      8192000 
  470000   0.77114703   -4.5079656   -4.5079656   -3.3512454 -0.010857843   -4.5079656    1.1567203      8192000 
  471000   0.77192649   -4.5089277   -4.5089277   -3.3510383 -0.0063440113   -4.5089277    1.1578895      8192000 
  472000   0.77273459   -4.5101225   -4.5101225   -3.3510209 -0.0025919557   -4.5101225    1.1591016      8192000 
  473000   0.77326526   -4.5108559   -4.5108559   -3.3509583 0.0014087038   -4.5108559    1.1598976      8192000 
  474000   0.77374287   -4.5121076   -4.5121076   -3.3514936 0.0063017056   -4.5121076     1.160614      8192000 
  475000   0.77483961    -4.513764    -4.513764   -3.3515049 0.0095516458    -4.513764    1.1622591      8192000 
  476000   0.77562905    -4.515203    -4.515203   -3.3517597  0.013865173    -4.515203    1.1634433      8192000 
  477000   0.77675892   -4.5172047   -4.5172047   -3.3520666  0.016977482   -4.5172047    1.1651381      8192000 
  478000   0.77698632    -4.517696    -4.517696   -3.3522169  0.024802753    -4.517696    1.1654792      8192000 
  479000   0.77797924    -4.519303    -4.519303   -3.3523344  0.025638286    -4.519303    1.1669686      8192000 
  480000   0.77878151   -4.5209373   -4.5209373   -3.3527653  0.026940532   -4.5209373     1.168172      8192000 
  481000   0.77898367    -4.521501    -4.521501   -3.3530258   0.03175195    -4.521501    1.1684752      8192000 
  482000   0.77932464   -4.5221546   -4.5221546    -3.353168  0.034280443   -4.5221546    1.1689867      8192000 
  483000   0.78001898   -4.5233029   -4.5233029   -3.3532747   0.03558945   -4.5233029    1.1700282      8192000 
  484000   0.77980678   -4.5232183   -4.5232183   -3.3535084   0.03829484   -4.5232183    1.1697099      8192000 
  485000   0.78006507   -4.5236171   -4.5236171   -3.3535198  0.038421247   -4.5236171    1.1700973      8192000 
  486000   0.78036864   -4.5240745   -4.5240745   -3.3535218  0.036202783   -4.5240745    1.1705527      8192000 
  487000     0.779758    -4.522881    -4.522881   -3.3532443  0.037629752    -4.522881    1.1696367      8192000 
  488000   0.77962348   -4.5225546   -4.5225546   -3.3531197  0.034150581   -4.5225546    1.1694349      8192000 
  489000   0.77947813   -4.5220775   -4.5220775   -3.3528605  0.032475318   -4.5220775    1.1692169      8192000 
  490000   0.77919782   -4.5212677   -4.5212677   -3.3524713  0.029630345   -4.5212677    1.1687964      8192000 
  491000    0.7786685   -4.5203308   -4.5203308   -3.3523283  0.025754336   -4.5203308    1.1680025      8192000 
  492000   0.77807772   -4.5192195   -4.5192195   -3.3521032  0.023421132   -4.5192195    1.1671163      8192000 
  493000   0.77713147   -4.5173718   -4.5173718   -3.3516748  0.020382612   -4.5173718    1.1656969      8192000 
  494000   0.77640905   -4.5154372   -4.5154372    -3.350824  0.017418614   -4.5154372    1.1646133      8192000 
  495000   0.77637438   -4.5145465   -4.5145465   -3.3499853  0.012827685   -4.5145465    1.1645613      8192000 
  496000   0.77569776   -4.5129304   -4.5129304    -3.349384 0.0096016898   -4.5129304    1.1635463      8192000 
  497000   0.77519402    -4.511346    -4.511346   -3.3485552 0.0062037517    -4.511346    1.1627907      8192000 
  498000   0.77406095   -4.5086528   -4.5086528   -3.3475617 0.0058893055   -4.5086528    1.1610911      8192000 
  499000   0.77407873   -4.5080038   -4.5080038    -3.346886 0.0011012824   -4.5080038    1.1611178      8192000 
  500000    0.7738021   -4.5066073   -4.5066073   -3.3459045 -0.0020977612   -4.5066073    1.1607029      8192000 
  501000   0.77376855   -4.5058618   -4.5058618   -3.3452093 -0.0047827944   -4.5058618    1.1606525      8192000 
  502000   0.77274468   -4.5037435   -4.5037435   -3.3446268 -0.0043382955   -4.5037435    1.1591167      8192000 
  503000   0.77276396   -4.5030546   -4.5030546    -3.343909 -0.0072715665   -4.5030546    1.1591457      8192000 
  504000   0.77250605   -4.5020292   -4.5020292   -3.3432705 -0.0095902822   -4.5020292    1.1587588      8192000 
  505000   0.77291004   -4.5017717   -4.5017717   -3.3424069 -0.010073593   -4.5017717    1.1593648      8192000 
  506000   0.77317571   -4.5012357   -4.5012357   -3.3414724 -0.010810982   -4.5012357    1.1597633      8192000 
  507000   0.77295429   -4.5002983   -4.5002983   -3.3408672 -0.0075457577   -4.5002983    1.1594311      8192000 
  508000   0.77321184   -4.4999708   -4.4999708   -3.3401533 -0.0090101593   -4.4999708    1.1598175      8192000 
  509000   0.77357814   -4.5002552   -4.5002552   -3.3398883 -0.0073751657   -4.5002552    1.1603669      8192000 
  510000   0.77379458   -4.5000693   -4.5000693   -3.3393777 -0.0057152779   -4.5000693    1.1606916      8192000 
  511000   0.77486074   -4.5007276   -4.5007276   -3.3384368 -0.0026828698   -4.5007276    1.1622908      8192000 
  512000    0.7752187   -4.5009111   -4.5009111   -3.3380833 -0.00011316435   -4.5009111    1.1628278      8192000 
  513000   0.77523152   -4.5008661   -4.5008661   -3.3380191 0.0046413208   -4.5008661     1.162847      8192000 
  514000   0.77589783   -4.5015513   -4.5015513   -3.3377048 0.0044692386   -4.5015513    1.1638465      8192000 
  515000   0.77664608   -4.5025399   -4.5025399    -3.337571 0.0065208597   -4.5025399    1.1649688      8192000 
  516000   0.77799172   -4.5041371   -4.5041371   -3.3371499  0.005550253   -4.5041371    1.1669873      8192000 
  517000   0.77812201   -4.5041657   -4.5041657    -3.336983  0.010946549   -4.5041657    1.1671827      8192000 
  518000   0.77861139   -4.5050437   -4.5050437   -3.3371269  0.012696374   -4.5050437    1.1679168      8192000 
  519000   0.77884426   -4.5052789   -4.5052789   -3.3370128   0.01609019   -4.5052789    1.1682661      8192000 
  520000   0.77929693   -4.5060797   -4.5060797   -3.3371346  0.018047744   -4.5060797    1.1689451      8192000 
  521000   0.77924634   -4.5062111   -4.5062111   -3.3373418  0.019969246   -4.5062111    1.1688692      8192000 
  522000   0.78000532   -4.5075018   -4.5075018   -3.3374941  0.019231297   -4.5075018    1.1700077      8192000 
  523000   0.77960927   -4.5066975   -4.5066975   -3.3372839  0.024693888   -4.5066975    1.1694136      8192000 
  524000   0.78035136   -4.5076187   -4.5076187    -3.337092  0.023748221   -4.5076187    1.1705267      8192000 
  525000   0.78050902   -4.5079628   -4.5079628   -3.3371995  0.024008273   -4.5079628    1.1707632      8192000 
  526000   0.78073118   -4.5080702   -4.5080702   -3.3369737  0.024459114   -4.5080702    1.1710965      8192000 
  527000   0.78065685   -4.5079617   -4.5079617   -3.3369767  0.023781083   -4.5079617     1.170985      8192000 
  528000   0.78109735   -4.5085001   -4.5085001   -3.3368543  0.023292974   -4.5085001    1.1716457      8192000 
  529000   0.78097238   -4.5078331   -4.5078331   -3.3363748   0.02478801   -4.5078331    1.1714583      8192000 
  530000    0.7804884   -4.5069245   -4.5069245   -3.3361922  0.024002649   -4.5069245    1.1707323      8192000 
  531000   0.78058902   -4.5066759   -4.5066759   -3.3357927  0.022244985   -4.5066759    1.1708832      8192000 
  532000   0.78031344   -4.5059071   -4.5059071   -3.3354373  0.022503885   -4.5059071    1.1704699      8192000 
  533000   0.78017367    -4.505193    -4.505193   -3.3349327  0.019157906    -4.505193    1.1702602      8192000 
  534000   0.77968719   -4.5039736   -4.5039736   -3.3344431  0.019259798   -4.5039736    1.1695305      8192000 
  535000   0.77926416   -4.5028046   -4.5028046   -3.3339086   0.01796519   -4.5028046    1.1688959      8192000 
  536000   0.77915408   -4.5023932   -4.5023932   -3.3336624   0.01334343   -4.5023932    1.1687308      8192000 
  537000   0.77861332   -4.5012883   -4.5012883   -3.3333686  0.012950094   -4.5012883    1.1679197      8192000 
  538000   0.77825427   -4.5001774   -4.5001774   -3.3327963   0.01217829   -4.5001774    1.1673811      8192000 
  539000   0.77810514   -4.4989862   -4.4989862   -3.3318288 0.0091086711   -4.4989862    1.1671574      8192000 
  540000   0.77768909    -4.497612    -4.497612   -3.3310787 0.0087050541    -4.497612    1.1665333      8192000 
  541000    0.7778326   -4.4970053   -4.4970053   -3.3302567  0.006536764   -4.4970053    1.1667486      8192000 
  542000   0.77780238   -4.4962415   -4.4962415   -3.3295382 0.0040623865   -4.4962415    1.1667033      8192000 
  543000   0.77797548   -4.4958573   -4.4958573   -3.3288944 0.0027132459   -4.4958573    1.1669629      8192000 
  544000   0.77786218   -4.4951676   -4.4951676   -3.3283746 0.0035308852   -4.4951676     1.166793      8192000 
  545000   0.77744561   -4.4937744   -4.4937744   -3.3276062 0.0012536911   -4.4937744    1.1661681      8192000 
  546000   0.77738566   -4.4930016   -4.4930016   -3.3269234 0.0020356755   -4.4930016    1.1660782      8192000 
  547000   0.77771945   -4.4926985   -4.4926985   -3.3261196 0.0012365966   -4.4926985    1.1665789      8192000 
  548000   0.77754375   -4.4917405   -4.4917405   -3.3254251  0.001726678   -4.4917405    1.1663153      8192000 
  549000   0.77776504   -4.4915443   -4.4915443    -3.324897 0.0016619476   -4.4915443    1.1666473      8192000 
  550000   0.77785188   -4.4911879   -4.4911879   -3.3244104 0.0027674692   -4.4911879    1.1667775      8192000 
  551000   0.77792308   -4.4905263   -4.4905263    -3.323642 0.0015983204   -4.4905263    1.1668843      8192000 
  552000   0.77825325    -4.490659    -4.490659   -3.3232794  0.002343295    -4.490659    1.1673796      8192000 
  553000    0.7780944   -4.4899415   -4.4899415   -3.3228001 0.0037654482   -4.4899415    1.1671413      8192000 
  554000   0.77856433    -4.490444    -4.490444   -3.3225978 0.0042598892    -4.490444    1.1678462      8192000 
  555000    0.7791756   -4.4904337   -4.4904337   -3.3216706 0.0050540121   -4.4904337    1.1687631      8192000 
  556000   0.77947336   -4.4904262   -4.4904262   -3.3212165 0.0080078034   -4.4904262    1.1692097      8192000 
  557000   0.78012353   -4.4912688   -4.4912688   -3.3210838 0.0073343995   -4.4912688     1.170185      8192000 
  558000   0.77981274   -4.4906558   -4.4906558    -3.320937 0.0094010934   -4.4906558    1.1697188      8192000 
  559000   0.78041666    -4.491191    -4.491191   -3.3205663  0.011094905    -4.491191    1.1706247      8192000 
  560000   0.78073156   -4.4912426   -4.4912426   -3.3201455  0.013145733   -4.4912426     1.171097      8192000 
  561000   0.78128767    -4.491764    -4.491764   -3.3198328  0.013340641    -4.491764    1.1719312      8192000 
  562000   0.78128252   -4.4915095   -4.4915095    -3.319586  0.014560838   -4.4915095    1.1719235      8192000 
  563000   0.78167643   -4.4918742   -4.4918742   -3.3193599   0.01503573   -4.4918742    1.1725144      8192000 
  564000   0.78206668   -4.4922676   -4.4922676   -3.3191678  0.015406307   -4.4922676    1.1730997      8192000 
  565000   0.78175274   -4.4914534   -4.4914534   -3.3188246  0.016940848   -4.4914534    1.1726288      8192000 
  566000   0.78227806   -4.4922618   -4.4922618    -3.318845  0.015207793   -4.4922618    1.1734168      8192000 
  567000   0.78219998   -4.4918745   -4.4918745   -3.3185748  0.016011274   -4.4918745    1.1732997      8192000 
  568000   0.78273058    -4.492428    -4.492428   -3.3183324  0.016684828    -4.492428    1.1740956      8192000 
  569000   0.78242174   -4.4916543   -4.4916543    -3.318022  0.018153056   -4.4916543    1.1736323      8192000 
  570000   0.78256496   -4.4913471   -4.4913471   -3.3174999   0.01829916   -4.4913471    1.1738472      8192000 
  571000   0.78275027   -4.4910847   -4.4910847   -3.3169596  0.018843664   -4.4910847    1.1741251      8192000 
  572000   0.78292062   -4.4908459   -4.4908459   -3.3164653  0.018074473   -4.4908459    1.1743806      8192000 
  573000   0.78326804   -4.4906918   -4.4906918     -3.31579  0.016608827   -4.4906918    1.1749018      8192000 
  574000   0.78295703   -4.4898754   -4.4898754   -3.3154401  0.016456255   -4.4898754    1.1744352      8192000 
  575000   0.78275356   -4.4887595   -4.4887595   -3.3146294  0.018469721   -4.4887595    1.1741301      8192000 
  576000      0.78277   -4.4883032   -4.4883032   -3.3141485   0.01759879   -4.4883032    1.1741547      8192000 
  577000   0.78269567   -4.4880819   -4.4880819   -3.3140387  0.017198746   -4.4880819    1.1740432      8192000 
  578000   0.78273231   -4.4875124   -4.4875124   -3.3134142  0.016865285   -4.4875124    1.1740982      8192000 
  579000   0.78180618   -4.4859008   -4.4859008   -3.3131918  0.015977923   -4.4859008     1.172709      8192000 
  580000   0.78233591   -4.4858432   -4.4858432   -3.3123396  0.012274533   -4.4858432    1.1735036      8192000 
  581000   0.78185732   -4.4846249   -4.4846249   -3.3118392  0.012168308   -4.4846249    1.1727857      8192000 
  582000   0.78202896   -4.4842434   -4.4842434   -3.3112003 0.0088096635   -4.4842434    1.1730431      8192000 
  583000   0.78201185   -4.4833927   -4.4833927   -3.3103752 0.0095801929   -4.4833927    1.1730175      8192000 
  584000     0.781791   -4.4824092   -4.4824092   -3.3097229 0.0088888017   -4.4824092    1.1726862      8192000 
  585000   0.78223962   -4.4822943   -4.4822943   -3.3089352 0.0083628624   -4.4822943    1.1733591      8192000 
  586000   0.78133057   -4.4805019   -4.4805019   -3.3085063  0.010390141   -4.4805019    1.1719956      8192000 
  587000   0.78188733   -4.4803753   -4.4803753   -3.3075446 0.0091113698   -4.4803753    1.1728307      8192000 
  588000   0.78215225   -4.4800687   -4.4800687   -3.3068406 0.0067242401   -4.4800687    1.1732281      8192000 
  589000   0.78236024   -4.4799152   -4.4799152   -3.3063751 0.0042109159   -4.4799152    1.1735401      8192000 
  590000   0.78235316   -4.4794642   -4.4794642   -3.3059348 0.0036228116   -4.4794642    1.1735294      8192000 
  591000   0.78197826   -4.4784876   -4.4784876   -3.3055205 0.0048760058   -4.4784876    1.1729671      8192000 
  592000     0.781813   -4.4774611   -4.4774611   -3.3047418 0.0060949849   -4.4774611    1.1727192      8192000 
  593000   0.78208781   -4.4771377   -4.4771377   -3.3040063  0.006705482   -4.4771377    1.1731314      8192000 
  594000   0.78193696   -4.4766571   -4.4766571    -3.303752 0.0061982451   -4.4766571    1.1729051      8192000 
  595000   0.78242091   -4.4768041   -4.4768041    -3.303173 0.0052648977   -4.4768041    1.1736311      8192000 
  596000   0.78234175    -4.476001    -4.476001   -3.3024887 0.0054981125    -4.476001    1.1735123      8192000 
  597000   0.78213861   -4.4754339   -4.4754339   -3.3022263 0.0072882473   -4.4754339    1.1732076      8192000 
  598000     0.782446   -4.4751239   -4.4751239   -3.3014552 0.0064372812   -4.4751239    1.1736687      8192000 
  599000   0.78301153   -4.4755222   -4.4755222   -3.3010052 0.0080602526   -4.4755222     1.174517      8192000 
  600000   0.78334552   -4.4752583   -4.4752583   -3.3002403  0.010110424   -4.4752583     1.175018      8192000 
  601000    0.7837668   -4.4754033   -4.4754033   -3.2997533  0.012089394   -4.4754033    1.1756499      8192000 
  602000   0.78407793   -4.4752753   -4.4752753   -3.2991587  0.012713516   -4.4752753    1.1761166      8192000 
  603000   0.78411053   -4.4748259   -4.4748259   -3.2986604  0.012769014   -4.4748259    1.1761655      8192000 
  604000   0.78444642   -4.4752368   -4.4752368   -3.2985675   0.01297223   -4.4752368    1.1766693      8192000 
  605000   0.78458821    -4.474915    -4.474915   -3.2980329  0.014475352    -4.474915     1.176882      8192000 
  606000   0.78501306   -4.4754068   -4.4754068   -3.2978875  0.012718751   -4.4754068    1.1775193      8192000 
  607000   0.78536657   -4.4752284   -4.4752284   -3.2971788  0.014872362   -4.4752284    1.1780496      8192000 
  608000   0.78520803     -4.47449     -4.47449   -3.2966782  0.014659772     -4.47449    1.1778117      8192000 
  609000   0.78516097   -4.4742634   -4.4742634   -3.2965222  0.014724804   -4.4742634    1.1777412      8192000 
  610000   0.78515081   -4.4739757   -4.4739757   -3.2962498  0.014473931   -4.4739757    1.1777259      8192000 
  611000   0.78549248   -4.4740085   -4.4740085     -3.29577  0.013753473   -4.4740085    1.1782384      8192000 
  612000    0.7854145   -4.4734812   -4.4734812   -3.2953598  0.014784061   -4.4734812    1.1781214      8192000 
  613000   0.78533206   -4.4730758   -4.4730758    -3.295078  0.017128346   -4.4730758    1.1779978      8192000 
  614000   0.78603892   -4.4735623   -4.4735623   -3.2945042  0.016395351   -4.4735623    1.1790581      8192000 
  615000   0.78599073   -4.4729054   -4.4729054   -3.2939196  0.017025139   -4.4729054    1.1789858      8192000 
  616000   0.78633138   -4.4729253   -4.4729253   -3.2934285  0.014797759   -4.4729253    1.1794968      8192000 
  617000   0.78606671   -4.4715749   -4.4715749   -3.2924751  0.016185142   -4.4715749    1.1790998      8192000 
  618000   0.78635868   -4.4718489   -4.4718489   -3.2923112  0.014843655   -4.4718489    1.1795377      8192000 
  619000   0.78581033   -4.4705178   -4.4705178   -3.2918026  0.016023531   -4.4705178    1.1787152      8192000 
  620000   0.78627836   -4.4706868   -4.4706868   -3.2912696  0.013463645   -4.4706868    1.1794172      8192000 
  621000   0.78603221   -4.4698465   -4.4698465   -3.2907985  0.014511709   -4.4698465     1.179048      8192000 
  622000   0.78575787   -4.4686752   -4.4686752   -3.2900387  0.014039628   -4.4686752    1.1786365      8192000 
  623000   0.78596866   -4.4686169   -4.4686169   -3.2896642  0.013162833   -4.4686169    1.1789527      8192000 
  624000   0.78587656   -4.4680832   -4.4680832   -3.2892686  0.012914951   -4.4680832    1.1788145      8192000 
  625000   0.78628126   -4.4676352   -4.4676352   -3.2882136   0.01223286   -4.4676352    1.1794216      8192000 
  626000   0.78596427   -4.4667338   -4.4667338   -3.2877877  0.011701207   -4.4667338    1.1789461      8192000 
  627000   0.78563009   -4.4655122   -4.4655122   -3.2870674  0.012977759   -4.4655122    1.1784448      8192000 
  628000   0.78642569   -4.4660558   -4.4660558   -3.2864176 0.0092478054   -4.4660558    1.1796382      8192000 
  629000   0.78603741   -4.4647352   -4.4647352   -3.2856793  0.010427455   -4.4647352    1.1790558      8192000 
  630000    0.7863425   -4.4643415   -4.4643415   -3.2848281  0.010465138   -4.4643415    1.1795135      8192000 
  631000   0.78666627   -4.4646058   -4.4646058   -3.2846067 0.0094824316   -4.4646058    1.1799991      8192000 
  632000   0.78654435   -4.4636126   -4.4636126   -3.2837963 0.0097825844   -4.4636126    1.1798162      8192000 
  633000   0.78606981   -4.4622922   -4.4622922   -3.2831878  0.011286352   -4.4622922    1.1791044      8192000 
  634000   0.78642191   -4.4622103   -4.4622103   -3.2825777 0.0078586003   -4.4622103    1.1796326      8192000 
  635000   0.78677301   -4.4618165   -4.4618165   -3.2816573 0.0084727693   -4.4618165    1.1801592      8192000 
  636000   0.78631989   -4.4606807   -4.4606807   -3.2812011 0.0092468589   -4.4606807    1.1794795      8192000 
  637000   0.78655084   -4.4601809   -4.4601809   -3.2803549   0.01035545   -4.4601809     1.179826      8192000 
  638000   0.78717673   -4.4604007   -4.4604007   -3.2796359 0.0087714299   -4.4604007    1.1807648      8192000 
  639000    0.7866068   -4.4591066   -4.4591066   -3.2791967  0.010877742   -4.4591066    1.1799099      8192000 
  640000   0.78711412   -4.4590647   -4.4590647   -3.2783939  0.010326349   -4.4590647    1.1806709      8192000 
  641000   0.78717163    -4.458829    -4.458829   -3.2780719  0.010980098    -4.458829    1.1807572      8192000 
  642000   0.78745042    -4.458699    -4.458699   -3.2775237  0.010508316    -4.458699    1.1811753      8192000 
  643000   0.78760875   -4.4584576   -4.4584576   -3.2770448  0.011918356   -4.4584576    1.1814128      8192000 
  644000   0.78767102   -4.4577479   -4.4577479   -3.2762417  0.010363127   -4.4577479    1.1815062      8192000 
  645000   0.78765058   -4.4573174   -4.4573174   -3.2758418  0.011658802   -4.4573174    1.1814756      8192000 
  646000   0.78742805   -4.4563775   -4.4563775   -3.2752358  0.010689989   -4.4563775    1.1811418      8192000 
  647000   0.78774209   -4.4565102   -4.4565102   -3.2748974  0.011932247   -4.4565102    1.1816128      8192000 
  648000   0.78804507   -4.4564884   -4.4564884    -3.274421  0.011182094   -4.4564884    1.1820673      8192000 
  649000   0.78832356    -4.456186    -4.456186   -3.2737009   0.01038505    -4.456186     1.182485      8192000 
  650000   0.78838179   -4.4559128   -4.4559128   -3.2733404 0.0091305444   -4.4559128    1.1825724      8192000 
  651000   0.78839319   -4.4553111   -4.4553111   -3.2727216  0.010108127   -4.4553111    1.1825895      8192000 
  652000   0.78848003   -4.4549189   -4.4549189   -3.2721992  0.011562004   -4.4549189    1.1827198      8192000 
  653000   0.78863855   -4.4545735   -4.4545735    -3.271616  0.011427125   -4.4545735    1.1829575      8192000 
  654000   0.78886354   -4.4542193   -4.4542193   -3.2709243  0.013712804   -4.4542193     1.183295      8192000 
  655000   0.78951457   -4.4543256   -4.4543256    -3.270054  0.013386499   -4.4543256    1.1842716      8192000 
  656000   0.78939127   -4.4537238   -4.4537238   -3.2696372  0.014215833   -4.4537238    1.1840866      8192000 
  657000   0.78916164   -4.4530032   -4.4530032    -3.269261  0.015799887   -4.4530032    1.1837422      8192000 
  658000   0.78987761   -4.4533329   -4.4533329   -3.2685168  0.014480579   -4.4533329    1.1848161      8192000 
  659000   0.78953037   -4.4525131   -4.4525131   -3.2682178  0.014311027   -4.4525131    1.1842953      8192000 
  660000   0.78975866   -4.4523183   -4.4523183   -3.2676806  0.013847286   -4.4523183    1.1846377      8192000 
  661000   0.78973378   -4.4516702   -4.4516702   -3.2670699  0.014479467   -4.4516702    1.1846004      8192000 
  662000   0.78984355   -4.4511023   -4.4511023   -3.2663373  0.014081857   -4.4511023     1.184765      8192000 
  663000   0.79023957   -4.4512131   -4.4512131    -3.265854  0.012010573   -4.4512131    1.1853591      8192000 
  664000   0.79014602   -4.4508169   -4.4508169   -3.2655981  0.012824216   -4.4508169    1.1852187      8192000 
  665000   0.79025439   -4.4501973   -4.4501973   -3.2648161  0.012692536   -4.4501973    1.1853813      8192000 
  666000   0.78999125   -4.4493737   -4.4493737   -3.2643871  0.011404003   -4.4493737    1.1849866      8192000 
  667000   0.78987109   -4.4487711   -4.4487711   -3.2639647  0.011293466   -4.4487711    1.1848063      8192000 
  668000   0.79003343   -4.4482608   -4.4482608   -3.2632109  0.013000501   -4.4482608    1.1850498      8192000 
  669000   0.78991101   -4.4476174   -4.4476174   -3.2627512  0.013184179   -4.4476174    1.1848662      8192000 
  670000   0.79011616   -4.4471808   -4.4471808   -3.2620068  0.012167219   -4.4471808    1.1851739      8192000 
  671000   0.79036671   -4.4469035   -4.4469035   -3.2613537  0.013462468   -4.4469035    1.1855498      8192000 
  672000    0.7902995   -4.4460932   -4.4460932   -3.2606442  0.013870529   -4.4460932     1.185449      8192000 
  673000   0.79090755   -4.4462824   -4.4462824   -3.2599214  0.010896919   -4.4462824     1.186361      8192000 
  674000   0.79062927   -4.4451896   -4.4451896    -3.259246  0.011906752   -4.4451896    1.1859436      8192000 
  675000   0.79031577   -4.4443414   -4.4443414    -3.258868  0.013588405   -4.4443414    1.1854734      8192000 
  676000   0.79106532   -4.4443567   -4.4443567    -3.257759  0.012829248   -4.4443567    1.1865977      8192000 
  677000   0.79126733   -4.4439897   -4.4439897    -3.257089  0.012569401   -4.4439897    1.1869007      8192000 
  678000   0.79104331   -4.4430269   -4.4430269   -3.2564622  0.012774257   -4.4430269    1.1865647      8192000 
  679000   0.79086013    -4.442255    -4.442255   -3.2559651  0.012268598    -4.442255    1.1862899      8192000 
  680000   0.79118749   -4.4418915   -4.4418915   -3.2551106  0.011809466   -4.4418915    1.1867809      8192000 
  681000   0.79169506   -4.4420171   -4.4420171   -3.2544748 0.0090948661   -4.4420171    1.1875423      8192000 
  682000    0.7915083   -4.4410218   -4.4410218   -3.2537596  0.009829432   -4.4410218    1.1872621      8192000 
  683000   0.79153038   -4.4405103   -4.4405103    -3.253215  0.012260521   -4.4405103    1.1872953      8192000 
  684000   0.79194932   -4.4404263   -4.4404263   -3.2525026  0.010636551   -4.4404263    1.1879237      8192000 
  685000   0.79127753    -4.438737    -4.438737    -3.251821  0.012916493    -4.438737     1.186916      8192000 
  686000   0.79189112   -4.4391279   -4.4391279   -3.2512915  0.010828416   -4.4391279    1.1878364      8192000 
  687000   0.79202644   -4.4386711   -4.4386711   -3.2506318   0.01098844   -4.4386711    1.1880394      8192000 
  688000   0.79181267   -4.4376989   -4.4376989   -3.2499802  0.012117496   -4.4376989    1.1877187      8192000 
  689000   0.79165011   -4.4370822   -4.4370822   -3.2496073  0.011718112   -4.4370822    1.1874749      8192000 
  690000   0.79197051      -4.4368      -4.4368   -3.2488445   0.01161846      -4.4368    1.1879555      8192000 
  691000    0.7922792    -4.436603    -4.436603   -3.2481845 0.0092285378    -4.436603    1.1884185      8192000 
  692000   0.79211759   -4.4359973   -4.4359973   -3.2478212  0.011232645   -4.4359973    1.1881761      8192000 
  693000   0.79217588   -4.4353612   -4.4353612   -3.2470977  0.010928063   -4.4353612    1.1882635      8192000 
  694000   0.79262464   -4.4353701   -4.4353701   -3.2464334  0.011212413   -4.4353701    1.1889367      8192000 
  695000   0.79275621   -4.4351179   -4.4351179   -3.2459839 0.0097295474   -4.4351179     1.189134      8192000 
  696000   0.79264987    -4.433957    -4.433957   -3.2449825  0.010677443    -4.433957    1.1889745      8192000 
  697000   0.79267141    -4.433262    -4.433262   -3.2442552   0.01317705    -4.433262    1.1890068      8192000 
  698000    0.7931457   -4.4334608   -4.4334608   -3.2437425  0.010601105   -4.4334608    1.1897182      8192000 
  699000   0.79350345   -4.4333872   -4.4333872   -3.2431323  0.012575442   -4.4333872    1.1902549      8192000 
  700000   0.79356447   -4.4327933   -4.4327933   -3.2424469   0.01355925   -4.4327933    1.1903464      8192000 
  701000   0.79352762   -4.4323061   -4.4323061    -3.242015  0.013473049   -4.4323061    1.1902911      8192000 
  702000   0.79403571   -4.4323674   -4.4323674   -3.2413142  0.011267772   -4.4323674    1.1910533      8192000 
  703000   0.79405402   -4.4315874   -4.4315874   -3.2405066  0.013339265   -4.4315874    1.1910807      8192000 
  704000   0.79415406   -4.4312761   -4.4312761   -3.2400453  0.013704199   -4.4312761    1.1912308      8192000 
  705000   0.79373227   -4.4304628   -4.4304628   -3.2398647  0.012974444   -4.4304628    1.1905981      8192000 
  706000     0.794006   -4.4302054   -4.4302054   -3.2391967  0.012590158   -4.4302054    1.1910087      8192000 
  707000   0.79440552   -4.4301333   -4.4301333   -3.2385253   0.01177237   -4.4301333     1.191608      8192000 
  708000   0.79435568    -4.429381    -4.429381   -3.2378478  0.011662368    -4.429381    1.1915332      8192000 
  709000   0.79418826   -4.4284468   -4.4284468   -3.2371647   0.01379531   -4.4284468    1.1912821      8192000 
  710000   0.79514667   -4.4291539   -4.4291539   -3.2364342 0.0099442625   -4.4291539    1.1927197      8192000 
  711000   0.79476974   -4.4276465   -4.4276465   -3.2354922  0.014750936   -4.4276465    1.1921543      8192000 
  712000   0.79502399   -4.4275346   -4.4275346   -3.2349989  0.013863457   -4.4275346    1.1925357      8192000 
  713000   0.79506433   -4.4270816   -4.4270816   -3.2344854  0.013803179   -4.4270816    1.1925962      8192000 
  714000   0.79502742   -4.4263377   -4.4263377   -3.2337969  0.015635423   -4.4263377    1.1925408      8192000 
  715000   0.79575051   -4.4266013   -4.4266013   -3.2329758  0.013221531   -4.4266013    1.1936255      8192000 
  716000   0.79582648   -4.4257277   -4.4257277   -3.2319883  0.015992792   -4.4257277    1.1937394      8192000 
  717000   0.79563758   -4.4247085   -4.4247085   -3.2312525  0.015489364   -4.4247085    1.1934561      8192000 
  718000   0.79588495   -4.4243128   -4.4243128   -3.2304857   0.01660546   -4.4243128    1.1938271      8192000 
  719000   0.79595446   -4.4238216   -4.4238216   -3.2298902  0.014603757   -4.4238216    1.1939314      8192000 
  720000   0.79604877   -4.4234574   -4.4234574   -3.2293845  0.012765706   -4.4234574    1.1940729      8192000 
  721000   0.79560175   -4.4223583   -4.4223583    -3.228956  0.015739661   -4.4223583    1.1934023      8192000 
  722000   0.79580904   -4.4218043   -4.4218043    -3.228091   0.01415946   -4.4218043    1.1937133      8192000 
  723000   0.79615853   -4.4216876   -4.4216876   -3.2274501  0.012488252   -4.4216876    1.1942375      8192000 
  724000   0.79621568   -4.4211459   -4.4211459   -3.2268227  0.010991287   -4.4211459    1.1943232      8192000 
  725000   0.79598651   -4.4204003   -4.4204003   -3.2264209  0.011348338   -4.4204003    1.1939795      8192000 
  726000   0.79571776   -4.4193133   -4.4193133    -3.225737  0.011124285   -4.4193133    1.1935763      8192000 
  727000    0.7956946   -4.4188285   -4.4188285   -3.2252869  0.011976865   -4.4188285    1.1935416      8192000 
  728000   0.79571131   -4.4179149   -4.4179149   -3.2243483  0.011711727   -4.4179149    1.1935667      8192000 
  729000   0.79618077   -4.4179178   -4.4179178    -3.223647  0.010389688   -4.4179178    1.1942709      8192000 
  730000   0.79583397   -4.4168437   -4.4168437   -3.2230931  0.010179162   -4.4168437    1.1937507      8192000 
  731000   0.79587938   -4.4162214   -4.4162214   -3.2224026  0.010822756   -4.4162214    1.1938188      8192000 
  732000   0.79628729   -4.4158175   -4.4158175   -3.2213868  0.010950672   -4.4158175    1.1944306      8192000 
  733000   0.79657402   -4.4153443   -4.4153443   -3.2204835  0.012778771   -4.4153443    1.1948607      8192000 
  734000   0.79666699   -4.4147207   -4.4147207   -3.2197205  0.011215785   -4.4147207    1.1950002      8192000 
  735000   0.79726071   -4.4148758   -4.4148758    -3.218985 0.0086695494   -4.4148758    1.1958908      8192000 
  736000   0.79703584   -4.4138926   -4.4138926   -3.2183391  0.011739711   -4.4138926    1.1955535      8192000 
  737000    0.7968828   -4.4130721   -4.4130721   -3.2177482  0.012411398   -4.4130721    1.1953239      8192000 
  738000   0.79737113   -4.4130233   -4.4130233   -3.2169669  0.010087846   -4.4130233    1.1960564      8192000 
  739000    0.7976602   -4.4127692   -4.4127692   -3.2162792  0.011367236   -4.4127692      1.19649      8192000 
  740000   0.79748708   -4.4121064   -4.4121064   -3.2158761  0.011861182   -4.4121064    1.1962303      8192000 
  741000   0.79749431   -4.4114188   -4.4114188   -3.2151777   0.01260656   -4.4114188    1.1962412      8192000 
  742000    0.7976972   -4.4108098   -4.4108098   -3.2142643  0.011784413   -4.4108098    1.1965455      8192000 
  743000   0.79774985   -4.4106888   -4.4106888   -3.2140644  0.011771464   -4.4106888    1.1966245      8192000 
  744000   0.79747043   -4.4093919   -4.4093919   -3.2131865  0.013413815   -4.4093919    1.1962053      8192000 
  745000   0.79837052   -4.4099812   -4.4099812   -3.2124257  0.012613218   -4.4099812    1.1975555      8192000 
  746000    0.7982082   -4.4093487   -4.4093487   -3.2120367  0.012787748   -4.4093487     1.197312      8192000 
  747000   0.79855471   -4.4092159   -4.4092159   -3.2113842  0.011388494   -4.4092159    1.1978318      8192000 
  748000   0.79879724    -4.408995    -4.408995   -3.2107995   0.01112525    -4.408995    1.1981956      8192000 
  749000   0.79886134    -4.408412    -4.408412   -3.2101203  0.013577377    -4.408412    1.1982917      8192000 
  750000   0.79894848   -4.4079075   -4.4079075   -3.2094851  0.013787717   -4.4079075    1.1984224      8192000 
  751000   0.79927241   -4.4075894   -4.4075894   -3.2086811  0.012968549   -4.4075894    1.1989083      8192000 
  752000   0.79901818    -4.406656    -4.406656    -3.208129   0.01439156    -4.406656     1.198527      8192000 
  753000   0.79953302   -4.4069476   -4.4069476   -3.2076484  0.013072931   -4.4069476    1.1992992      8192000 
  754000   0.79940982      -4.4061      -4.4061   -3.2069855  0.014495913      -4.4061    1.1991144      8192000 
  755000   0.79947448   -4.4053582   -4.4053582   -3.2061468  0.014398355   -4.4053582    1.1992114      8192000 
  756000   0.79925703   -4.4043576   -4.4043576   -3.2054724  0.015589278   -4.4043576    1.1988853      8192000 
  757000   0.79934535   -4.4039143   -4.4039143   -3.2048965  0.014456317   -4.4039143    1.1990177      8192000 
  758000   0.79977967   -4.4037981   -4.4037981   -3.2041289  0.014059268   -4.4037981    1.1996692      8192000 
  759000   0.79959514   -4.4030006   -4.4030006   -3.2036082  0.014582215   -4.4030006    1.1993924      8192000 
  760000   0.80023249   -4.4033812   -4.4033812   -3.2030328  0.011068722   -4.4033812    1.2003484      8192000 
  761000   0.80047333   -4.4027988   -4.4027988   -3.2020891   0.01316598   -4.4027988    1.2007097      8192000 
  762000   0.80034805   -4.4017221   -4.4017221   -3.2012003  0.014120357   -4.4017221    1.2005218      8192000 
  763000   0.80034905   -4.4013277   -4.4013277   -3.2008045  0.013749904   -4.4013277    1.2005233      8192000 
  764000   0.80049802   -4.4008132   -4.4008132   -3.2000665  0.014131616   -4.4008132    1.2007467      8192000 
  765000   0.80077311   -4.4003342   -4.4003342   -3.1991749  0.015194948   -4.4003342    1.2011594      8192000 
  766000   0.80105895   -4.4000784   -4.4000784   -3.1984903  0.014245553   -4.4000784    1.2015881      8192000 
  767000   0.80078399   -4.3986765   -4.3986765   -3.1975008  0.013413398   -4.3986765    1.2011757      8192000 
  768000   0.80079081   -4.3979788   -4.3979788   -3.1967929  0.014579736   -4.3979788    1.2011859      8192000 
  769000   0.80121811    -4.397625    -4.397625   -3.1957981  0.013398516    -4.397625    1.2018269      8192000 
  770000   0.80112824   -4.3968888   -4.3968888   -3.1951968   0.01279675   -4.3968888    1.2016921      8192000 
  771000    0.8011591   -4.3964491   -4.3964491   -3.1947107  0.013235392   -4.3964491    1.2017383      8192000 
  772000   0.80106557   -4.3955989   -4.3955989   -3.1940009  0.011645778   -4.3955989    1.2015981      8192000 
  773000   0.80118105   -4.3951886   -4.3951886   -3.1934174  0.013196616   -4.3951886    1.2017713      8192000 
  774000   0.80114333   -4.3944485   -4.3944485   -3.1927338  0.012961367   -4.3944485    1.2017147      8192000 
  775000   0.80159914   -4.3944342   -4.3944342   -3.1920358  0.012095948   -4.3944342    1.2023984      8192000 
  776000   0.80130543   -4.3932051   -4.3932051   -3.1912473  0.012871937   -4.3932051    1.2019578      8192000 
  777000   0.80130972   -4.3927722   -4.3927722   -3.1908079   0.01241713   -4.3927722    1.2019643      8192000 
  778000   0.80138297   -4.3920916   -4.3920916   -3.1900175  0.012783116   -4.3920916    1.2020742      8192000 
  779000   0.80160458   -4.3918406   -4.3918406    -3.189434   0.01095278   -4.3918406    1.2024066      8192000 
  780000   0.80186129   -4.3911606   -4.3911606    -3.188369   0.01217121   -4.3911606    1.2027916      8192000 
  781000   0.80189194   -4.3904007   -4.3904007   -3.1875631  0.010465582   -4.3904007    1.2028376      8192000 
  782000   0.80226561   -4.3899905   -4.3899905   -3.1865924   0.01148958   -4.3899905    1.2033981      8192000 
  783000    0.8026355   -4.3897415   -4.3897415   -3.1857886  0.011762345   -4.3897415    1.2039529      8192000 
  784000   0.80258626   -4.3887475   -4.3887475   -3.1848685  0.011137004   -4.3887475    1.2038791      8192000 
  785000   0.80277438   -4.3879301   -4.3879301   -3.1837689  0.012657871   -4.3879301    1.2041613      8192000 
  786000   0.80274642   -4.3872708   -4.3872708   -3.1831515   0.01441428   -4.3872708    1.2041193      8192000 
  787000   0.80304763   -4.3873497   -4.3873497   -3.1827785  0.013252726   -4.3873497    1.2045711      8192000 
  788000    0.8026778   -4.3862268   -4.3862268   -3.1822104  0.014974928   -4.3862268    1.2040164      8192000 
  789000    0.8033542   -4.3864459   -4.3864459   -3.1814149  0.013230014   -4.3864459     1.205031      8192000 
  790000   0.80296586   -4.3850734   -4.3850734   -3.1806249  0.014879108   -4.3850734    1.2044485      8192000 
  791000   0.80368701   -4.3852954   -4.3852954   -3.1797652  0.014317396   -4.3852954    1.2055302      8192000 
  792000   0.80402544   -4.3854211   -4.3854211   -3.1793832  0.012061891   -4.3854211    1.2060379      8192000 
  793000   0.80324073   -4.3837239   -4.3837239   -3.1788631  0.012682311   -4.3837239    1.2048608      8192000 
  794000   0.80358452   -4.3834125   -4.3834125    -3.178036  0.010999894   -4.3834125    1.2053765      8192000 
  795000   0.80332024   -4.3823322   -4.3823322   -3.1773521  0.010671115   -4.3823322    1.2049801      8192000 
  796000   0.80361513   -4.3823522   -4.3823522   -3.1769298 0.0094591475   -4.3823522    1.2054224      8192000 
  797000   0.80389119   -4.3815989   -4.3815989   -3.1757624  0.010911867   -4.3815989    1.2058365      8192000 
  798000   0.80370579   -4.3807223   -4.3807223    -3.175164  0.011740724   -4.3807223    1.2055584      8192000 
  799000    0.8042054   -4.3809497   -4.3809497   -3.1746419  0.012342675   -4.3809497    1.2063078      8192000 
  800000   0.80398571   -4.3800084   -4.3800084   -3.1740301  0.013399606   -4.3800084    1.2059783      8192000 
  801000   0.80424687   -4.3796559   -4.3796559   -3.1732859  0.013662936   -4.3796559      1.20637      8192000 
  802000   0.80479189   -4.3793762   -4.3793762   -3.1721886  0.012748634   -4.3793762    1.2071875      8192000 
  803000   0.80509634   -4.3788967   -4.3788967   -3.1712525  0.014085782   -4.3788967    1.2076442      8192000 
  804000   0.80564009   -4.3786901   -4.3786901   -3.1702303   0.01393841   -4.3786901    1.2084598      8192000 
  805000   0.80566589   -4.3782238   -4.3782238   -3.1697252  0.013098964   -4.3782238    1.2084985      8192000 
  806000   0.80543397   -4.3771967   -4.3771967    -3.169046    0.0147854   -4.3771967    1.2081507      8192000 
  807000   0.80591853   -4.3769307   -4.3769307   -3.1680532  0.013230348   -4.3769307    1.2088775      8192000 
  808000   0.80598259   -4.3764867   -4.3764867   -3.1675131  0.012042345   -4.3764867    1.2089736      8192000 
  809000   0.80587132   -4.3754199   -4.3754199   -3.1666132  0.013727379   -4.3754199    1.2088067      8192000 
  810000   0.80558503   -4.3741909   -4.3741909   -3.1658137  0.013796745   -4.3741909    1.2083772      8192000 
  811000   0.80589128   -4.3742341   -4.3742341   -3.1653975  0.010809114   -4.3742341    1.2088366      8192000 
  812000   0.80580945    -4.373355    -4.373355   -3.1646411  0.012823826    -4.373355    1.2087139      8192000 
  813000   0.80603226   -4.3731627   -4.3731627   -3.1641146  0.012205138   -4.3731627    1.2090481      8192000 
  814000   0.80584402   -4.3720979   -4.3720979   -3.1633322  0.013165983   -4.3720979    1.2087657      8192000 
  815000   0.80619399   -4.3718441   -4.3718441   -3.1625535  0.013854209   -4.3718441    1.2092907      8192000 
  816000   0.80616877   -4.3710981   -4.3710981   -3.1618452  0.014673571   -4.3710981    1.2092529      8192000 
  817000    0.8064748   -4.3710179   -4.3710179    -3.161306  0.013066021   -4.3710179    1.2097119      8192000 
  818000   0.80666446   -4.3705443   -4.3705443   -3.1605479   0.01287601   -4.3705443    1.2099964      8192000 
  819000   0.80679379   -4.3698358   -4.3698358   -3.1596454  0.013235901   -4.3698358    1.2101904      8192000 
  820000   0.80690511   -4.3692074   -4.3692074   -3.1588501  0.012595069   -4.3692074    1.2103574      8192000 
  821000    0.8066163   -4.3679163   -4.3679163   -3.1579922  0.014537121   -4.3679163    1.2099242      8192000 
  822000    0.8073086   -4.3679725   -4.3679725   -3.1570099  0.014712676   -4.3679725    1.2109626      8192000 
  823000   0.80705686   -4.3669026   -4.3669026   -3.1563176  0.013185924   -4.3669026     1.210585      8192000 
  824000   0.80744978   -4.3664634   -4.3664634   -3.1552891  0.013443942   -4.3664634    1.2111744      8192000 
  825000    0.8074219   -4.3657514   -4.3657514   -3.1546189  0.015007028   -4.3657514    1.2111325      8192000 
  826000   0.80736884   -4.3649314   -4.3649314   -3.1538785  0.012232377   -4.3649314     1.211053      8192000 
  827000   0.80766976    -4.364764    -4.364764   -3.1532597  0.011218042    -4.364764    1.2115043      8192000 
  828000   0.80738725   -4.3635642   -4.3635642   -3.1524837  0.012996985   -4.3635642    1.2110806      8192000 
  829000   0.80755839   -4.3630898   -4.3630898   -3.1517526  0.013072104   -4.3630898    1.2113373      8192000 
  830000   0.80794527   -4.3627742   -4.3627742   -3.1508566  0.012354553   -4.3627742    1.2119176      8192000 
  831000   0.80807112   -4.3624599   -4.3624599   -3.1503536  0.011682849   -4.3624599    1.2121064      8192000 
  832000   0.80754715   -4.3610782   -4.3610782   -3.1497578  0.012883906   -4.3610782    1.2113204      8192000 
  833000   0.80826541   -4.3610953   -4.3610953   -3.1486975  0.012134706   -4.3610953    1.2123978      8192000 
  834000    0.8083835   -4.3608002   -4.3608002   -3.1482253  0.010186659   -4.3608002    1.2125749      8192000 
  835000   0.80789614   -4.3590825   -4.3590825   -3.1472386  0.014265151   -4.3590825    1.2118439      8192000 
  836000   0.80831476   -4.3590421   -4.3590421   -3.1465703  0.012292318   -4.3590421    1.2124718      8192000 
  837000   0.80894406   -4.3589648   -4.3589648    -3.145549  0.012027798   -4.3589648    1.2134158      8192000 
  838000   0.80891605   -4.3583618   -4.3583618    -3.144988  0.012817449   -4.3583618    1.2133738      8192000 
  839000   0.80857928   -4.3573766   -4.3573766    -3.144508  0.012436455   -4.3573766    1.2128686      8192000 
  840000   0.80906426   -4.3574262   -4.3574262   -3.1438302  0.009496337   -4.3574262    1.2135961      8192000 
  841000   0.80902256   -4.3565259   -4.3565259   -3.1429924  0.010815434   -4.3565259    1.2135335      8192000 
  842000    0.8088168   -4.3554701   -4.3554701   -3.1422452  0.011220488   -4.3554701    1.2132249      8192000 
  843000   0.80878406   -4.3549727   -4.3549727   -3.1417969  0.010753999   -4.3549727    1.2131758      8192000 
  844000   0.80944564   -4.3549851   -4.3549851   -3.1408169  0.011661462   -4.3549851    1.2141681      8192000 
  845000    0.8096396   -4.3543442   -4.3543442   -3.1398851  0.012739233   -4.3543442    1.2144591      8192000 
  846000   0.80961648   -4.3535266   -4.3535266   -3.1391022  0.014412386   -4.3535266    1.2144244      8192000 
  847000   0.80986124   -4.3531676   -4.3531676   -3.1383761   0.01133864   -4.3531676    1.2147916      8192000 
  848000   0.80988319   -4.3524734   -4.3524734   -3.1376489  0.013112296   -4.3524734    1.2148245      8192000 
  849000   0.81027673   -4.3522383   -4.3522383   -3.1368235  0.013960686   -4.3522383    1.2154148      8192000 
  850000   0.81069141   -4.3518194   -4.3518194   -3.1357826  0.014602344   -4.3518194    1.2160368      8192000 
  851000   0.81100334   -4.3517079   -4.3517079   -3.1352032  0.012781477   -4.3517079    1.2165047      8192000 
  852000   0.81098742   -4.3508216   -4.3508216   -3.1343407  0.015060455   -4.3508216    1.2164808      8192000 
  853000    0.8111294   -4.3501138   -4.3501138     -3.13342  0.013773456   -4.3501138    1.2166938      8192000 
  854000   0.81088262   -4.3492655   -4.3492655   -3.1329419  0.015242418   -4.3492655    1.2163236      8192000 
  855000   0.81127051   -4.3489916   -4.3489916   -3.1320862  0.013907456   -4.3489916    1.2169055      8192000 
  856000   0.81105298   -4.3479322   -4.3479322    -3.131353   0.01364302   -4.3479322    1.2165792      8192000 
  857000    0.8111573   -4.3475495   -4.3475495   -3.1308139  0.014063353   -4.3475495    1.2167357      8192000 
  858000   0.81123367   -4.3468243   -4.3468243   -3.1299741  0.013145602   -4.3468243    1.2168502      8192000 
  859000   0.81170045   -4.3468001   -4.3468001   -3.1292497  0.011180875   -4.3468001    1.2175504      8192000 
  860000   0.81142465   -4.3454721   -4.3454721   -3.1283354  0.013972951   -4.3454721    1.2171367      8192000 
  861000   0.81160313   -4.3451456   -4.3451456   -3.1277412  0.014850408   -4.3451456    1.2174044      8192000 
  862000   0.81155367   -4.3440875   -4.3440875   -3.1267573  0.013516641   -4.3440875    1.2173302      8192000 
  863000   0.81180718   -4.3436887   -4.3436887   -3.1259783  0.014037803   -4.3436887    1.2177105      8192000 
  864000   0.81192096   -4.3430719   -4.3430719   -3.1251908  0.014942405   -4.3430719    1.2178811      8192000 
  865000   0.81171431   -4.3422417   -4.3422417   -3.1246705  0.014746797   -4.3422417    1.2175712      8192000 
  866000   0.81218225    -4.341786    -4.341786   -3.1235129   0.01472288    -4.341786    1.2182731      8192000 
  867000   0.81262831   -4.3419182   -4.3419182    -3.122976  0.012061473   -4.3419182    1.2189422      8192000 
  868000   0.81245864   -4.3409296   -4.3409296    -3.122242  0.012915383   -4.3409296    1.2186877      8192000 
  869000   0.81271279   -4.3402963   -4.3402963   -3.1212275  0.014203414   -4.3402963    1.2190689      8192000 
  870000   0.81271404   -4.3396028   -4.3396028    -3.120532    0.0147228   -4.3396028    1.2190708      8192000 
  871000   0.81276303   -4.3388208   -4.3388208   -3.1196765  0.012946791   -4.3388208    1.2191442      8192000 
  872000    0.8128767   -4.3379304   -4.3379304   -3.1186156  0.012774207   -4.3379304    1.2193147      8192000 
  873000    0.8130908   -4.3373901   -4.3373901   -3.1177542  0.012938941   -4.3373901    1.2196359      8192000 
  874000   0.81316293   -4.3365873   -4.3365873   -3.1168432  0.012865638   -4.3365873    1.2197441      8192000 
  875000   0.81323945    -4.335997    -4.335997   -3.1161381  0.013359544    -4.335997    1.2198589      8192000 
  876000   0.81346626   -4.3352418   -4.3352418   -3.1150427   0.01423237   -4.3352418    1.2201991      8192000 
  877000   0.81314645   -4.3339957   -4.3339957   -3.1142763  0.014632889   -4.3339957    1.2197194      8192000 
  878000    0.8142197   -4.3344582   -4.3344582    -3.113129  0.012906774   -4.3344582    1.2213292      8192000 
  879000   0.81379665   -4.3333223   -4.3333223   -3.1126276  0.014415879   -4.3333223    1.2206947      8192000 
  880000    0.8138268   -4.3327841   -4.3327841   -3.1120442  0.013609949   -4.3327841    1.2207399      8192000 
  881000     0.814119    -4.332151    -4.332151   -3.1109729  0.012615033    -4.332151    1.2211782      8192000 
  882000    0.8135856   -4.3309151   -4.3309151    -3.110537  0.013099707   -4.3309151    1.2203781      8192000 
  883000   0.81415004   -4.3310783   -4.3310783   -3.1098536  0.011133102   -4.3310783    1.2212248      8192000 
  884000   0.81381704   -4.3296079   -4.3296079   -3.1088827  0.012210991   -4.3296079    1.2207252      8192000 
  885000   0.81410482   -4.3292498   -4.3292498   -3.1080929  0.010946287   -4.3292498    1.2211569      8192000 
  886000   0.81436931   -4.3288174   -4.3288174   -3.1072637  0.010601704   -4.3288174    1.2215537      8192000 
  887000   0.81435541   -4.3281602   -4.3281602   -3.1066274 0.0098287001   -4.3281602    1.2215328      8192000 
  888000   0.81444871   -4.3276417   -4.3276417    -3.105969 0.0091153751   -4.3276417    1.2216728      8192000 
  889000   0.81390937   -4.3258734   -4.3258734   -3.1050097  0.012143373   -4.3258734    1.2208637      8192000 
  890000   0.81458785   -4.3265891   -4.3265891   -3.1047077  0.010392403   -4.3265891    1.2218815      8192000 
  891000   0.81444244   -4.3253453   -4.3253453    -3.103682  0.011802563   -4.3253453    1.2216634      8192000 
  892000   0.81491689   -4.3251801   -4.3251801   -3.1028051  0.010965531   -4.3251801     1.222375      8192000 
  893000    0.8153987   -4.3244368   -4.3244368   -3.1013391  0.013215462   -4.3244368    1.2230977      8192000 
  894000   0.81534276   -4.3235176   -4.3235176   -3.1005037  0.014125753   -4.3235176    1.2230138      8192000 
  895000   0.81592131   -4.3233143   -4.3233143   -3.0994326  0.015653152   -4.3233143    1.2238817      8192000 
  896000   0.81630621   -4.3229281   -4.3229281   -3.0984691  0.013408711   -4.3229281     1.224459      8192000 
  897000   0.81609529   -4.3217956   -4.3217956    -3.097653  0.012894108   -4.3217956    1.2241426      8192000 
  898000    0.8164755   -4.3215994   -4.3215994   -3.0968864  0.011940025   -4.3215994    1.2247129      8192000 
  899000   0.81645988   -4.3207712   -4.3207712   -3.0960817  0.013046268   -4.3207712    1.2246895      8192000 
  900000   0.81654866   -4.3197125   -4.3197125   -3.0948898  0.015287604   -4.3197125    1.2248227      8192000 
  901000   0.81683091    -4.319628    -4.319628    -3.094382  0.015656352    -4.319628    1.2252461      8192000 
  902000   0.81711736   -4.3195332   -4.3195332   -3.0938574  0.013894652   -4.3195332    1.2256757      8192000 
  903000   0.81700815   -4.3187504   -4.3187504   -3.0932385  0.012339183   -4.3187504    1.2255119      8192000 
  904000   0.81688485   -4.3180305   -4.3180305   -3.0927035  0.012418751   -4.3180305     1.225327      8192000 
  905000   0.81684493   -4.3174095   -4.3174095   -3.0921424   0.01326296   -4.3174095    1.2252671      8192000 
  906000   0.81696035   -4.3167903   -4.3167903   -3.0913501  0.012480814   -4.3167903    1.2254402      8192000 
  907000   0.81691466   -4.3157154   -4.3157154   -3.0903437  0.011867565   -4.3157154    1.2253717      8192000 
  908000   0.81715823   -4.3152589   -4.3152589   -3.0895219  0.013271969   -4.3152589     1.225737      8192000 
  909000   0.81752007   -4.3148956   -4.3148956   -3.0886158  0.012194112   -4.3148956    1.2262798      8192000 
  910000   0.81728531   -4.3141801   -4.3141801   -3.0882524  0.012419865   -4.3141801    1.2259277      8192000 
  911000   0.81735137   -4.3136421   -4.3136421   -3.0876153  0.012818414   -4.3136421    1.2260268      8192000 
  912000   0.81750196    -4.313126    -4.313126   -3.0868733  0.013884157    -4.313126    1.2262526      8192000 
  913000    0.8178512   -4.3125504   -4.3125504   -3.0857739  0.011630692   -4.3125504    1.2267765      8192000 
  914000   0.81807102   -4.3118285   -4.3118285   -3.0847223  0.012274571   -4.3118285    1.2271062      8192000 
  915000   0.81763723    -4.310707    -4.310707   -3.0842515  0.012133723    -4.310707    1.2264555      8192000 
  916000   0.81767153   -4.3101357   -4.3101357   -3.0836287  0.012983719   -4.3101357     1.226507      8192000 
  917000   0.81816146    -4.309736    -4.309736   -3.0824941  0.012846398    -4.309736    1.2272419      8192000 
  918000   0.81779436   -4.3083441   -4.3083441   -3.0816528  0.012848028   -4.3083441    1.2266912      8192000 
  919000   0.81849202   -4.3084757   -4.3084757   -3.0807379  0.012788726   -4.3084757    1.2277377      8192000 
  920000   0.81852681   -4.3077595   -4.3077595   -3.0799696  0.012740554   -4.3077595    1.2277899      8192000 
  921000   0.81908193   -4.3077226   -4.3077226      -3.0791  0.013524912   -4.3077226    1.2286226      8192000 
  922000    0.8195577   -4.3074934   -4.3074934   -3.0781572  0.013358554   -4.3074934    1.2293362      8192000 
  923000   0.81890665   -4.3058067   -4.3058067    -3.077447  0.015546779   -4.3058067    1.2283597      8192000 
  924000   0.81961908   -4.3062964   -4.3062964   -3.0768681  0.013370277   -4.3062964    1.2294283      8192000 
  925000   0.81965375   -4.3052442   -4.3052442   -3.0757639  0.014947662   -4.3052442    1.2294803      8192000 
  926000     0.819764   -4.3048706   -4.3048706   -3.0752249  0.015787065   -4.3048706    1.2296457      8192000 
  927000   0.81994052   -4.3042588   -4.3042588   -3.0743484  0.014692049   -4.3042588    1.2299105      8192000 
  928000   0.82010622   -4.3035089   -4.3035089   -3.0733499  0.014845123   -4.3035089     1.230159      8192000 
  929000   0.82004401   -4.3027741   -4.3027741   -3.0727084  0.013718647   -4.3027741    1.2300657      8192000 
  930000   0.81977465   -4.3013697   -4.3013697   -3.0717081  0.013530408   -4.3013697    1.2296617      8192000 
  931000   0.82004788   -4.3011433   -4.3011433   -3.0710718  0.012912534   -4.3011433    1.2300715      8192000 
  932000   0.82000269   -4.3004989   -4.3004989   -3.0704952  0.013051868   -4.3004989    1.2300037      8192000 
  933000   0.82076318   -4.3008262   -4.3008262   -3.0696817  0.011183594   -4.3008262    1.2311445      8192000 
  934000   0.82030329   -4.2991064   -4.2991064   -3.0686517  0.015018755   -4.2991064    1.2304546      8192000 
  935000   0.82071316   -4.2990236   -4.2990236   -3.0679542  0.012469802   -4.2990236    1.2310694      8192000 
  936000   0.82019057   -4.2974512   -4.2974512   -3.0671656  0.014246056   -4.2974512    1.2302856      8192000 
  937000    0.8202421   -4.2967097   -4.2967097   -3.0663469  0.012048569   -4.2967097    1.2303628      8192000 
  938000   0.82089161   -4.2968715   -4.2968715   -3.0655344  0.011059607   -4.2968715    1.2313371      8192000 
  939000   0.82096526   -4.2961531   -4.2961531   -3.0647056  0.011924328   -4.2961531    1.2314476      8192000 
  940000   0.82062156    -4.294809    -4.294809    -3.063877  0.015220116    -4.294809     1.230932      8192000 
  941000   0.82090874   -4.2944584   -4.2944584   -3.0630955  0.015472215   -4.2944584    1.2313628      8192000 
  942000   0.82161687   -4.2942986   -4.2942986   -3.0618736  0.012771884   -4.2942986     1.232425      8192000 
  943000   0.82155107   -4.2932847   -4.2932847   -3.0609584  0.014262789   -4.2932847    1.2323263      8192000 
  944000   0.82178788   -4.2929149   -4.2929149   -3.0602334  0.013083278   -4.2929149    1.2326815      8192000 
  945000   0.82202998   -4.2921915   -4.2921915   -3.0591468  0.013234132   -4.2921915    1.2330447      8192000 
  946000   0.82173941     -4.29118     -4.29118   -3.0585712  0.015412641     -4.29118    1.2326088      8192000 
  947000   0.82206281   -4.2906301   -4.2906301   -3.0575361  0.013694179   -4.2906301    1.2330939      8192000 
  948000   0.82195241   -4.2896898   -4.2896898   -3.0567615  0.014352628   -4.2896898    1.2329283      8192000 
  949000   0.82188652   -4.2889744   -4.2889744    -3.056145  0.013034781   -4.2889744    1.2328295      8192000 
  950000   0.82214979   -4.2882071   -4.2882071   -3.0549827  0.013159622   -4.2882071    1.2332244      8192000 
  951000   0.82241163   -4.2877226   -4.2877226   -3.0541055  0.013110703   -4.2877226    1.2336171      8192000 
  952000   0.82237511   -4.2871034   -4.2871034   -3.0535411  0.014008004   -4.2871034    1.2335624      8192000 
  953000   0.82286712    -4.286572    -4.286572   -3.0522716  0.015135442    -4.286572    1.2343004      8192000 
  954000   0.82298581   -4.2862034   -4.2862034    -3.051725  0.016223294   -4.2862034    1.2344784      8192000 
  955000   0.82326026   -4.2856988   -4.2856988   -3.0508087  0.014959516   -4.2856988    1.2348901      8192000 
  956000   0.82305708   -4.2844512   -4.2844512   -3.0498659  0.016241881   -4.2844512    1.2345853      8192000 
  957000   0.82283016   -4.2836055   -4.2836055   -3.0493605  0.015087172   -4.2836055    1.2342449      8192000 
  958000   0.82272387   -4.2823864   -4.2823864   -3.0483009  0.014686599   -4.2823864    1.2340855      8192000 
  959000    0.8232707   -4.2824215   -4.2824215   -3.0475158   0.01293232   -4.2824215    1.2349057      8192000 
  960000   0.82361107    -4.281602    -4.281602   -3.0461857  0.012923702    -4.281602    1.2354163      8192000 
  961000   0.82368078   -4.2811209   -4.2811209   -3.0456001  0.014392899   -4.2811209    1.2355209      8192000 
  962000   0.82330747   -4.2795874   -4.2795874   -3.0446265  0.013314059   -4.2795874    1.2349609      8192000 
  963000   0.82322513   -4.2787728   -4.2787728   -3.0439355  0.014372829   -4.2787728    1.2348374      8192000 
  964000   0.82364711   -4.2784949   -4.2784949   -3.0430245  0.012788714   -4.2784949    1.2354704      8192000 
  965000   0.82346566   -4.2772437   -4.2772437   -3.0420456  0.013098581   -4.2772437    1.2351982      8192000 
  966000   0.82392708   -4.2766958   -4.2766958   -3.0408055  0.013490504   -4.2766958    1.2358903      8192000 
  967000   0.82405808   -4.2762539   -4.2762539    -3.040167  0.015855574   -4.2762539    1.2360868      8192000 
  968000   0.82477303   -4.2761884   -4.2761884   -3.0390291  0.013263646   -4.2761884    1.2371592      8192000 
  969000   0.82393303   -4.2740997   -4.2740997   -3.0382004  0.016520895   -4.2740997    1.2358992      8192000 
  970000   0.82447666   -4.2738525   -4.2738525   -3.0371378  0.013154695   -4.2738525    1.2367147      8192000 
  971000   0.82452828   -4.2732403   -4.2732403   -3.0364482  0.012371696   -4.2732403    1.2367921      8192000 
  972000   0.82451113   -4.2723057   -4.2723057   -3.0355393  0.014605648   -4.2723057    1.2367664      8192000 
  973000   0.82500237    -4.272511    -4.272511   -3.0350078  0.015701511    -4.272511    1.2375032      8192000 
  974000     0.825101   -4.2716614   -4.2716614   -3.0340102   0.01449913   -4.2716614    1.2376512      8192000 
  975000   0.82505118   -4.2708303   -4.2708303   -3.0332538  0.013024219   -4.2708303    1.2375765      8192000 
  976000   0.82496114   -4.2698239   -4.2698239   -3.0323825  0.013330951   -4.2698239    1.2374414      8192000 
  977000   0.82485126   -4.2690447   -4.2690447   -3.0317682  0.012346198   -4.2690447    1.2372766      8192000 
  978000   0.82487733   -4.2679224   -4.2679224   -3.0306067  0.013977679   -4.2679224    1.2373157      8192000 
  979000   0.82543474   -4.2678416   -4.2678416   -3.0296898  0.013153243   -4.2678416    1.2381518      8192000 
  980000   0.82561716    -4.267096    -4.267096   -3.0286706  0.013659799    -4.267096    1.2384254      8192000 
  981000   0.82613072   -4.2671051   -4.2671051   -3.0279093  0.012504778   -4.2671051    1.2391958      8192000 
  982000   0.82609991     -4.26625     -4.26625   -3.0271004  0.013226902     -4.26625    1.2391496      8192000 
  983000   0.82564636   -4.2649255   -4.2649255   -3.0264563  0.014426032   -4.2649255    1.2384692      8192000 
  984000   0.82585009   -4.2642154   -4.2642154   -3.0254406  0.014292486   -4.2642154    1.2387748      8192000 
  985000   0.82609658   -4.2637603   -4.2637603   -3.0246158  0.014215319   -4.2637603    1.2391446      8192000 
  986000   0.82587603   -4.2626418   -4.2626418    -3.023828  0.014727142   -4.2626418    1.2388137      8192000 
  987000   0.82645887   -4.2622709   -4.2622709   -3.0225829  0.013404008   -4.2622709     1.239688      8192000 
  988000   0.82688162   -4.2619874   -4.2619874   -3.0216653   0.01365268   -4.2619874    1.2403221      8192000 
  989000   0.82681192   -4.2607156   -4.2607156    -3.020498  0.013470982   -4.2607156    1.2402176      8192000 
  990000   0.82678284   -4.2599759   -4.2599759    -3.019802  0.011885807   -4.2599759     1.240174      8192000 
  991000   0.82636747   -4.2586716   -4.2586716   -3.0191207  0.012841788   -4.2586716    1.2395509      8192000 
  992000   0.82706684   -4.2586375   -4.2586375   -3.0180375  0.012571287   -4.2586375    1.2405999      8192000 
  993000   0.82733162   -4.2581785   -4.2581785   -3.0171814  0.013772501   -4.2581785    1.2409971      8192000 
  994000   0.82710447   -4.2572333   -4.2572333   -3.0165769  0.013603201   -4.2572333    1.2406564      8192000 
  995000   0.82732173   -4.2566761   -4.2566761   -3.0156938  0.013977651   -4.2566761    1.2409823      8192000 
  996000   0.82754313   -4.2557046   -4.2557046   -3.0143902  0.013572897   -4.2557046    1.2413144      8192000 
  997000   0.82814846   -4.2558337   -4.2558337   -3.0136114  0.013108372   -4.2558337    1.2422224      8192000 
  998000   0.82809937   -4.2548426   -4.2548426   -3.0126939  0.014845756   -4.2548426    1.2421487      8192000 
  999000   0.82843729   -4.2542721   -4.2542721   -3.0116165  0.014677503   -4.2542721    1.2426556      8192000 
 1000000   0.82861598    -4.253956    -4.253956   -3.0110323  0.015477665    -4.253956    1.2429237      8192000 
Loop time of 22828 on 144 procs for 1000000 steps with 3993600 atoms

Performance: 18924.166 tau/day, 43.806 timesteps/s
99.5% CPU use with 144 MPI tasks x 1 OpenMP threads

MPI task timing breakdown:
Section |  min time  |  avg time  |  max time  |%varavg|  %CPU | %total
-----------------------------------------------------------------------
Pair    | 9320.2     | 10924      | 12108      | 564.0 |  99.5 | 47.86
Bond    | 0.83239    | 0.93901    | 1.025      |   3.4 | 100.0 |  0.00
Neigh   | 3913.7     | 4555.8     | 5070.8     | 336.3 |  99.5 | 19.96
Comm    | 4442.8     | 6022.6     | 8319.6     |1156.1 |  99.3 | 26.38
Output  | 50.468     | 50.929     | 50.936     |   0.5 |  98.1 |  0.22
Modify  | 684.96     | 872.2      | 1701.3     | 964.2 |  98.8 |  3.82
Other   |            | 401        |            |       |       |  1.76

Nlocal:        27733.3 ave       29071 max       26997 min
Histogram: 4 5 19 97 10 1 2 2 2 2
Nghost:        16369.9 ave       17739 max       12279 min
Histogram: 16 13 3 0 0 0 0 10 12 90
Neighs:        964109.0 ave 1.03272e+06 max      773872 min
Histogram: 8 8 2 3 8 12 7 8 18 70

Total # of neighbors = 1.3883168e+08
Ave neighs/atom = 34.763541
Ave special neighs/atom = 0.0000000
Neighbor list builds = 100000
Dangerous builds = 98998

write_restart	restart.005
System init for write_restart ...
write_data 	data.lj
System init for write_data ...
WARNING: Not all mixed pair coeffs generated from mixing. Use write_data with 'pair ij' option to store all pair coeffs. (src/write_data.cpp:312)
Total wall time: 6:20:37
