LAMMPS (24 Dec 2020)
OMP_NUM_THREADS environment is not set. Defaulting to 1 thread. (src/comm.cpp:94)
  using 1 OpenMP thread(s) per MPI task
# Simple rigid body system
# needed variables:

#variable	startTemp equal 0.5
#variable 	temp 	  equal 0.8

units		lj
atom_style	full
dimension 	3
boundary	p p f
pair_style	lj/smooth/linear 1.5

variable 	sigma		equal 1.0
variable 	epsilon 	equal 1.0

region		box block 0 80 0 80 0 160
create_box 	3 box
Created orthogonal box = (0.0000000 0.0000000 0.0000000) to (80.000000 80.000000 160.00000)
  2 by 3 by 8 MPI processor grid



lattice 	sc 0.66
Lattice spacing in x,y,z = 1.1485556 1.1485556 1.1485556
region		fluid block EDGE EDGE EDGE EDGE 2 100 units box
create_atoms 	1 region fluid
Created 421400 atoms
  create_atoms CPU = 0.009 seconds

lattice 	sc 0.045
Lattice spacing in x,y,z = 2.8114422 2.8114422 2.8114422
region		gas block EDGE EDGE EDGE EDGE 101 158 units box
create_atoms    1 region gas
Created 17661 atoms
  create_atoms CPU = 0.005 seconds

group		solvent type 1
439061 atoms in group solvent

mass		1 1.0
mass		2 1.0
mass		3 1.0



neighbor 	0.4 bin

pair_coeff	1 1 1.0 1.0
pair_coeff	2 2 0.0 0.0
pair_coeff	3 3 0.0 0.0
pair_coeff	2 3 0.0 0.0
pair_coeff	1 2*3 0.0 0.0

pair_modify 	shift yes

delete_atoms	overlap 0.5 solvent solvent
System init for delete_atoms ...
Neighbor list info ...
  update every 1 steps, delay 10 steps, check yes
  max neighbors/atom: 2000, page size: 100000
  master list distance cutoff = 1.9
  ghost atom cutoff = 1.9
  binsize = 0.95, bins = 85 85 169
  2 neighbor lists, perpetual/occasional/extra = 1 1 0
  (1) command delete_atoms, occasional
      attributes: full, newton on
      pair build: full/bin
      stencil: full/bin/3d
      bin: standard
  (2) pair lj/smooth/linear, perpetual
      attributes: half, newton on
      pair build: half/bin/newton
      stencil: half/bin/3d/newton
      bin: standard
WARNING: Ignoring 'compress yes' for molecular system (src/delete_atoms.cpp:125)
Deleted 0 atoms, new total = 439061

velocity 	solvent create ${startTemp} 563435 loop geom
velocity 	solvent create 1.0 563435 loop geom

balance 	1.05 shift z 10 1.05
Balancing ...
Neighbor list info ...
  update every 1 steps, delay 10 steps, check yes
  max neighbors/atom: 2000, page size: 100000
  master list distance cutoff = 1.9
  ghost atom cutoff = 1.9
  binsize = 0.95, bins = 85 85 169
  1 neighbor lists, perpetual/occasional/extra = 1 0 0
  (1) pair lj/smooth/linear, perpetual
      attributes: half, newton on
      pair build: half/bin/newton
      stencil: half/bin/3d/newton
      bin: standard
 rebalancing time: 0.012 seconds
  iteration count = 5
  initial/final maximal load/proc = 15120.000 10920.000
  initial/final imbalance factor  = 1.6529822 1.1938204
  x cuts: 0.0000000 0.50000000 1.0000000
  y cuts: 0.0000000 0.33333333 0.66666667 1.0000000
  z cuts: 0.0000000 0.089843750 0.17578125 0.25390625 0.33593750 0.41406250 0.50390625 0.58203125 1.0000000


####################### WALLS ###########################


variable       epsilonWall equal 2*${epsilon}
variable       epsilonWall equal 2*1

variable       cutoffTop   equal   0.7147*${sigma}
variable       cutoffTop   equal   0.7147*1

variable       cutoffLow   equal   3*${sigma}
variable       cutoffLow   equal   3*1


fix            topWall all wall/lj93 zhi EDGE                ${epsilonWall} ${sigma} ${cutoffTop} units box
fix            topWall all wall/lj93 zhi EDGE                2 ${sigma} ${cutoffTop} units box
fix            topWall all wall/lj93 zhi EDGE                2 1 ${cutoffTop} units box
fix            topWall all wall/lj93 zhi EDGE                2 1 0.7147 units box

fix            lowWall all wall/lj93 zlo EDGE                ${epsilonWall} ${sigma} ${cutoffLow} units box
fix            lowWall all wall/lj93 zlo EDGE                2 ${sigma} ${cutoffLow} units box
fix            lowWall all wall/lj93 zlo EDGE                2 1 ${cutoffLow} units box
fix            lowWall all wall/lj93 zlo EDGE                2 1 3 units box


###################### COMPUTES ##########################

compute        bin1 solvent chunk/atom bin/1d z upper 1.0


######################	FIXES ############################


fix 		peclet solvent ave/chunk 1000 1 1000 bin1 density/number norm 		 none ave one file density.profile

fix 		 temp solvent ave/chunk 1000 1 1000 bin1 temp norm 		 none ave one file temp.profile

fix 		2 solvent nve


## Thermostat


region		regthermo block EDGE EDGE EDGE EDGE 0 20 units box

group 		thermo dynamic solvent region regthermo every 1000
dynamic group thermo defined

fix 		3 thermo langevin ${startTemp} ${temp} 10 156453
fix 		3 thermo langevin 1.0 ${temp} 10 156453
fix 		3 thermo langevin 1.0 1.0 10 156453



#### Load balancing


fix 		bal all balance 1000 1.05 shift z 10 1.05


############### Diagnostics and computes ###################
#compute 	com cube	  rigid/local	1 mol x y z
#compute 	quat cube	  rigid/local	1 mol quatw quati quatj quatk

thermo 		1000
thermo_style 	custom step temp epair evdwl etotal press pe ke atoms

dump		1 all custom 100000 dump.lammpstrj id mol type x y z
dump 		2 all image 10000 image.*.png type type
dump 		3 all movie 1000 movie.avi type type

#dump 		com cube local 1000 dump.*.xyz c_com[*]
#dump		quat cube      local 1000 dump.*.quat c_quat[*]


restart 	1000000 restart.dat
timestep 	0.005
timer 		full
New timer settings: style=full  mode=nosync  timeout=off

run		3000000
Per MPI rank memory allocation (min/avg/max) = 11.24 | 15.17 | 17.59 Mbytes
Step Temp E_pair E_vdwl TotEng Press PotEng KinEng Atoms 
       0            1    2.1636708    2.1636708    3.6636674    5.8516817    2.1636708    1.4999966   439061 
    1000    1.9946985   0.20262392   0.20262392    3.1946648     3.278442   0.20262392    2.9920409   439061 
    2000    2.0230494 -0.015042338 -0.015042338    3.0195248    2.4104558 -0.015042338    3.0345671   439061 
    3000    1.9831673  -0.08684896  -0.08684896    2.8878952     2.025665  -0.08684896    2.9747442   439061 
    4000    1.9747907  -0.13107993  -0.13107993    2.8310993     1.770173  -0.13107993    2.9621793   439061 
    5000    1.9673577  -0.11014093  -0.11014093    2.8408889    1.7270842  -0.11014093    2.9510298   439061 
    6000    1.9578994 -0.061783424 -0.061783424     2.875059    1.8021421 -0.061783424    2.9368425   439061 
    7000    1.9481056 -0.011290276 -0.011290276    2.9108615    1.9219385 -0.011290276    2.9221518   439061 
    8000    1.9381476  0.034774123  0.034774123    2.9419889    2.0458827  0.034774123    2.9072147   439061 
    9000     1.942029  0.054452093  0.054452093    2.9674889    2.1263266  0.054452093    2.9130368   439061 
   10000     1.962608  0.045125197  0.045125197    2.9890305    2.1008915  0.045125197    2.9439053   439061 
   11000    1.9769437  0.040290032  0.040290032    3.0056988    2.0976539  0.040290032    2.9654088   439061 
   12000     2.000461  0.019888623  0.019888623    3.0205733    2.0524128  0.019888623    3.0006846   439061 
   13000    1.9986769 0.0018880115 0.0018880115    2.9998965    1.9853041 0.0018880115    2.9980085   439061 
   14000    1.9442805 -0.015943542 -0.015943542    2.9004706    1.8919643 -0.015943542    2.9164142   439061 
   15000    1.8529342 -0.014205289 -0.014205289    2.7651897    1.8928608 -0.014205289     2.779395   439061 
   16000    1.7647935 -0.013122649 -0.013122649    2.6340615    1.9095989 -0.013122649    2.6471842   439061 
   17000    1.7043209 -0.016064291 -0.016064291    2.5404113     1.905406 -0.016064291    2.5564756   439061 
   18000    1.6736182 -0.024846379 -0.024846379    2.4855753    1.8747899 -0.024846379    2.5104216   439061 
   19000    1.6585639 -0.032259217 -0.032259217    2.4555809     1.844385 -0.032259217    2.4878402   439061 
   20000    1.6552576 -0.039608417 -0.039608417    2.4432723    1.8196832 -0.039608417    2.4828807   439061 
   21000     1.657766 -0.047007973 -0.047007973    2.4396353    1.7869579 -0.047007973    2.4866433   439061 
   22000    1.6644947 -0.051945863 -0.051945863    2.4447905    1.7401102 -0.051945863    2.4967364   439061 
   23000    1.6750273 -0.060953063 -0.060953063    2.4515821    1.6835987 -0.060953063    2.5125352   439061 
   24000    1.6767204 -0.054015997 -0.054015997    2.4610588    1.6791444 -0.054015997    2.5150748   439061 
   25000    1.6802659 -0.047501169 -0.047501169    2.4728919    1.6867983 -0.047501169    2.5203931   439061 
   26000    1.6827278 -0.040052924 -0.040052924     2.484033    1.7034665 -0.040052924    2.5240859   439061 
   27000    1.6896251 -0.037248774 -0.037248774    2.4971832    1.7087756 -0.037248774    2.5344319   439061 
   28000    1.6964959  -0.03470921  -0.03470921    2.5100289    1.7142821  -0.03470921    2.5447381   439061 
   29000     1.703956 -0.032616102 -0.032616102    2.5233121    1.7229369 -0.032616102    2.5559282   439061 
   30000    1.7106916 -0.029054841 -0.029054841    2.5369766    1.7416916 -0.029054841    2.5660315   439061 
   31000    1.7181412 -0.030232134 -0.030232134    2.5469738      1.74871 -0.030232134     2.577206   439061 
   32000    1.7090353 -0.035193216 -0.035193216    2.5283538    1.7395665 -0.035193216     2.563547   439061 
   33000    1.6836834 -0.039042649 -0.039042649    2.4864767    1.7367737 -0.039042649    2.5255193   439061 
   34000    1.6591285  -0.04215371  -0.04215371    2.4465334    1.7345366  -0.04215371    2.4886871   439061 
   35000    1.6412236 -0.044357012 -0.044357012    2.4174728    1.7305456 -0.044357012    2.4618298   439061 
   36000    1.6297366 -0.046538965 -0.046538965    2.3980604    1.7256436 -0.046538965    2.4445994   439061 
   37000    1.6229292 -0.049495669 -0.049495669    2.3848926    1.7155146 -0.049495669    2.4343882   439061 
   38000    1.6180487 -0.048900738 -0.048900738    2.3781668     1.714272 -0.048900738    2.4270676   439061 
   39000    1.6179568 -0.051239226 -0.051239226    2.3756905    1.6993805 -0.051239226    2.4269297   439061 
   40000    1.6193465 -0.053609112 -0.053609112    2.3754051    1.6814046 -0.053609112    2.4290142   439061 
   41000    1.6224967 -0.055091356 -0.055091356    2.3786482     1.668127 -0.055091356    2.4337395   439061 
   42000    1.6241529 -0.051277444 -0.051277444    2.3849464    1.6686089 -0.051277444    2.4362238   439061 
   43000    1.6284709  -0.05322765  -0.05322765    2.3894731    1.6568974  -0.05322765    2.4427007   439061 
   44000     1.631148 -0.051654258 -0.051654258    2.3950622    1.6555791 -0.051654258    2.4467165   439061 
   45000    1.6345974 -0.050745519 -0.050745519     2.401145    1.6536467 -0.050745519    2.4518905   439061 
   46000    1.6369524 -0.047517067 -0.047517067    2.4079059    1.6628818 -0.047517067     2.455423   439061 
   47000    1.6406093  -0.04536452  -0.04536452    2.4155439    1.6705326  -0.04536452    2.4609084   439061 
   48000     1.644484 -0.043915205 -0.043915205    2.4228052    1.6771599 -0.043915205    2.4667204   439061 
   49000    1.6474921 -0.043575654 -0.043575654    2.4276569    1.6846537 -0.043575654    2.4712326   439061 
   50000    1.6435503 -0.046593902 -0.046593902     2.418726    1.6818593 -0.046593902    2.4653199   439061 
   51000    1.6326583 -0.047935674 -0.047935674    2.4010462    1.6813361 -0.047935674    2.4489819   439061 
   52000    1.6221766 -0.050448086 -0.050448086    2.3828112    1.6815425 -0.050448086    2.4332593   439061 
   53000    1.6119533 -0.049864171 -0.049864171    2.3680602    1.6839253 -0.049864171    2.4179244   439061 
   54000    1.6064586 -0.053050444 -0.053050444     2.356632    1.6772187 -0.053050444    2.4096824   439061 
   55000     1.601802 -0.053587891 -0.053587891    2.3491097    1.6752512 -0.053587891    2.4026976   439061 
   56000    1.5992695 -0.052356386 -0.052356386    2.3465424    1.6762197 -0.052356386    2.3988988   439061 
   57000    1.5973104 -0.054052634 -0.054052634    2.3419076    1.6688717 -0.054052634    2.3959602   439061 
   58000    1.5982978 -0.055428462 -0.055428462    2.3420128    1.6613079 -0.055428462    2.3974412   439061 
   59000    1.5994616 -0.056960222 -0.056960222    2.3422267    1.6475554 -0.056960222    2.3991869   439061 
   60000     1.600308 -0.056958643 -0.056958643    2.3434979    1.6433305 -0.056958643    2.4004565   439061 
   61000    1.6014398 -0.054631689 -0.054631689    2.3475225    1.6443487 -0.054631689    2.4021542   439061 
   62000    1.6028919 -0.054081386 -0.054081386    2.3502509    1.6415299 -0.054081386    2.4043323   439061 
   63000    1.6059736 -0.054575971 -0.054575971    2.3543789    1.6372005 -0.054575971    2.4089549   439061 
   64000    1.6064037 -0.050358468 -0.050358468    2.3592417    1.6470273 -0.050358468    2.4096001   439061 
   65000    1.6108034  -0.05163818  -0.05163818    2.3645614    1.6454316  -0.05163818    2.4161996   439061 
   66000     1.614388 -0.052108978 -0.052108978    2.3694675    1.6479952 -0.052108978    2.4215765   439061 
   67000    1.6149154 -0.050874157 -0.050874157    2.3714934    1.6552145 -0.050874157    2.4223675   439061 
   68000    1.6141665 -0.052963908 -0.052963908    2.3682803    1.6531359 -0.052963908    2.4212442   439061 
   69000    1.6063758 -0.051613514 -0.051613514    2.3579446    1.6586605 -0.051613514    2.4095582   439061 
   70000    1.5999644 -0.053705712 -0.053705712    2.3462354    1.6552362 -0.053705712    2.3999411   439061 
   71000    1.5961436 -0.056874582 -0.056874582    2.3373354    1.6488486 -0.056874582      2.39421   439061 
   72000    1.5910976 -0.057072699 -0.057072699    2.3295683    1.6478356 -0.057072699     2.386641   439061 
   73000    1.5886981 -0.057826373 -0.057826373    2.3252153    1.6459614 -0.057826373    2.3830417   439061 
   74000    1.5871445 -0.058071425 -0.058071425    2.3226399     1.646132 -0.058071425    2.3807113   439061 
   75000    1.5846904 -0.057589601 -0.057589601    2.3194406    1.6434576 -0.057589601    2.3770302   439061 
   76000    1.5851284 -0.058495488 -0.058495488    2.3191917    1.6379587 -0.058495488    2.3776872   439061 
   77000     1.584781 -0.058404075 -0.058404075     2.318762    1.6370567 -0.058404075    2.3771661   439061 
   78000    1.5866941 -0.059037162 -0.059037162    2.3209986    1.6317741 -0.059037162    2.3800357   439061 
   79000    1.5854797 -0.057690685 -0.057690685    2.3205235    1.6302528 -0.057690685    2.3782142   439061 
   80000    1.5859379 -0.058099145 -0.058099145    2.3208023    1.6275927 -0.058099145    2.3789014   439061 
   81000    1.5870884 -0.058422031 -0.058422031    2.3222051    1.6241994 -0.058422031    2.3806272   439061 
   82000     1.587654 -0.056678601 -0.056678601     2.324797    1.6273644 -0.056678601    2.3814756   439061 
   83000    1.5879312 -0.054580682 -0.054580682    2.3273107    1.6333185 -0.054580682    2.3818914   439061 
   84000    1.5911735 -0.056519133 -0.056519133    2.3302357    1.6293613 -0.056519133    2.3867549   439061 
   85000    1.5913581 -0.055528492 -0.055528492    2.3315032     1.633748 -0.055528492    2.3870317   439061 
   86000    1.5901269 -0.055331518 -0.055331518    2.3298534    1.6357946 -0.055331518    2.3851849   439061 
   87000    1.5854715 -0.053930749 -0.053930749     2.324271    1.6402704 -0.053930749    2.3782018   439061 
   88000    1.5822224 -0.055513217 -0.055513217     2.317815    1.6374757 -0.055513217    2.3733282   439061 
   89000    1.5800595 -0.057958785 -0.057958785     2.312125    1.6354246 -0.057958785    2.3700838   439061 
   90000      1.57673 -0.059300248 -0.059300248    2.3057894    1.6310311 -0.059300248    2.3650897   439061 
   91000    1.5741679 -0.060483189 -0.060483189    2.3007634    1.6264627 -0.060483189    2.3612465   439061 
   92000    1.5710912 -0.059845713 -0.059845713    2.2967857    1.6273615 -0.059845713    2.3566314   439061 
   93000     1.568845 -0.057796789 -0.057796789    2.2954653    1.6318577 -0.057796789    2.3532621   439061 
   94000    1.5704231 -0.061004455 -0.061004455    2.2946248    1.6224738 -0.061004455    2.3556292   439061 
   95000    1.5701873 -0.061460253 -0.061460253    2.2938154    1.6188051 -0.061460253    2.3552756   439061 
   96000    1.5701378 -0.060236928 -0.060236928    2.2949644    1.6204967 -0.060236928    2.3552014   439061 
   97000    1.5717173 -0.061637134 -0.061637134    2.2959334    1.6109832 -0.061637134    2.3575705   439061 
   98000    1.5718281 -0.060988498 -0.060988498    2.2967482    1.6151199 -0.060988498    2.3577367   439061 
   99000    1.5721824 -0.060396167 -0.060396167     2.297872    1.6131263 -0.060396167    2.3582682   439061 
  100000    1.5720131 -0.059637007 -0.059637007    2.2983772    1.6127175 -0.059637007    2.3580142   439061 
  101000    1.5716504 -0.059365332 -0.059365332    2.2981049    1.6169078 -0.059365332    2.3574702   439061 
  102000    1.5717983 -0.060363116 -0.060363116    2.2973289    1.6133335 -0.060363116     2.357692   439061 
  103000    1.5721019 -0.061174795 -0.061174795    2.2969727    1.6120022 -0.061174795    2.3581475   439061 
  104000    1.5693923 -0.058866193 -0.058866193    2.2952168    1.6206872 -0.058866193     2.354083   439061 
  105000    1.5683029 -0.060162423 -0.060162423    2.2922866    1.6166864 -0.060162423     2.352449   439061 
  106000     1.566719 -0.059906399 -0.059906399    2.2901668    1.6158766 -0.059906399    2.3500732   439061 
  107000      1.56516 -0.059982137 -0.059982137    2.2877525    1.6198023 -0.059982137    2.3477347   439061 
  108000    1.5651034 -0.063091129 -0.063091129    2.2845586    1.6134179 -0.063091129    2.3476497   439061 
  109000    1.5611244 -0.061348844 -0.061348844    2.2803324    1.6161531 -0.061348844    2.3416812   439061 
  110000    1.5589047 -0.062483233 -0.062483233    2.2758685    1.6106377 -0.062483233    2.3383517   439061 
  111000    1.5565958 -0.063068281 -0.063068281    2.2718201     1.608477 -0.063068281    2.3348884   439061 
  112000    1.5554647 -0.062737942 -0.062737942    2.2704538    1.6083606 -0.062737942    2.3331917   439061 
  113000    1.5541699 -0.060978686 -0.060978686    2.2702708    1.6105608 -0.060978686    2.3312495   439061 
  114000     1.555202 -0.062797426 -0.062797426    2.2700003     1.605102 -0.062797426    2.3327977   439061 
  115000    1.5556287 -0.064146483 -0.064146483    2.2692912    1.5992382 -0.064146483    2.3334377   439061 
  116000    1.5553843 -0.063292428 -0.063292428    2.2697786    1.6008777 -0.063292428    2.3330711   439061 
  117000    1.5565625 -0.064206387 -0.064206387    2.2706321    1.5989505 -0.064206387    2.3348385   439061 
  118000    1.5557837 -0.061982932 -0.061982932    2.2716873    1.6030123 -0.061982932    2.3336702   439061 
  119000    1.5564318 -0.061000409 -0.061000409     2.273642    1.6062604 -0.061000409    2.3346424   439061 
  120000    1.5573588 -0.063183011 -0.063183011    2.2728498    1.5992298 -0.063183011    2.3360328   439061 
  121000    1.5573156 -0.062783238 -0.062783238    2.2731849    1.6012905 -0.062783238    2.3359681   439061 
  122000    1.5546522 -0.061364704 -0.061364704    2.2706082    1.6044624 -0.061364704    2.3319729   439061 
  123000    1.5548744 -0.064763646 -0.064763646    2.2675426    1.5983507 -0.064763646    2.3323063   439061 
  124000    1.5534108 -0.063513634 -0.063513634    2.2665973    1.6017729 -0.063513634    2.3301109   439061 
  125000     1.551005 -0.062279392 -0.062279392    2.2642227    1.6037652 -0.062279392    2.3265021   439061 
  126000    1.5502088 -0.064099313 -0.064099313    2.2612086    1.6009392 -0.064099313     2.325308   439061 
  127000    1.5482347 -0.065367527 -0.065367527    2.2569792    1.5974533 -0.065367527    2.3223467   439061 
  128000    1.5466185 -0.064019365 -0.064019365    2.2559031     1.599949 -0.064019365    2.3199225   439061 
  129000    1.5456961 -0.065610835 -0.065610835     2.252928    1.5945768 -0.065610835    2.3185388   439061 
  130000    1.5434289 -0.063244347 -0.063244347    2.2518937    1.5983478 -0.063244347    2.3151381   439061 
  131000    1.5442111 -0.064660716 -0.064660716    2.2516507     1.595663 -0.064660716    2.3163114   439061 
  132000    1.5434487 -0.063382858 -0.063382858    2.2517849    1.5956135 -0.063382858    2.3151677   439061 
  133000    1.5446434  -0.06618765  -0.06618765    2.2507722    1.5887404  -0.06618765    2.3169598   439061 
  134000    1.5445756  -0.06624796  -0.06624796    2.2506101    1.5884813  -0.06624796    2.3168581   439061 
  135000     1.541855 -0.064657159 -0.064657159    2.2481201    1.5903946 -0.064657159    2.3127772   439061 
  136000    1.5416423  -0.06451402  -0.06451402    2.2479442    1.5915102  -0.06451402    2.3124582   439061 
  137000    1.5420257 -0.065421411 -0.065421411    2.2476119    1.5868125 -0.065421411    2.3130333   439061 
  138000    1.5423767  -0.06540893  -0.06540893    2.2481509    1.5874329  -0.06540893    2.3135598   439061 
  139000    1.5422066 -0.066373897 -0.066373897    2.2469308    1.5868353 -0.066373897    2.3133047   439061 
  140000    1.5407247  -0.06526696  -0.06526696    2.2458148    1.5891187  -0.06526696    2.3110818   439061 
  141000     1.539569 -0.066086017 -0.066086017    2.2432622    1.5894266 -0.066086017    2.3093482   439061 
  142000    1.5399613 -0.066037049 -0.066037049    2.2438997    1.5887642 -0.066037049    2.3099367   439061 
  143000    1.5396365 -0.066853416 -0.066853416    2.2425961    1.5868908 -0.066853416    2.3094495   439061 
  144000    1.5368909 -0.066270838 -0.066270838    2.2390603    1.5867537 -0.066270838    2.3053311   439061 
  145000    1.5347687 -0.065067368 -0.065067368    2.2370805    1.5892611 -0.065067368    2.3021479   439061 
  146000    1.5349383 -0.066590522 -0.066590522    2.2358117    1.5854341 -0.066590522    2.3024023   439061 
  147000    1.5334125 -0.066122007 -0.066122007    2.2339916    1.5867536 -0.066122007    2.3001136   439061 
  148000    1.5321954 -0.065786979 -0.065786979    2.2325008    1.5860469 -0.065786979    2.2982878   439061 
  149000    1.5325228 -0.068063363 -0.068063363    2.2307155    1.5782925 -0.068063363    2.2987789   439061 
  150000    1.5312688 -0.066167633 -0.066167633    2.2307303    1.5838414 -0.066167633    2.2968979   439061 
  151000    1.5314449 -0.067142174 -0.067142174    2.2300199     1.579609 -0.067142174    2.2971621   439061 
  152000    1.5310723 -0.066777279 -0.066777279     2.229826    1.5800001 -0.066777279    2.2966033   439061 
  153000    1.5302692 -0.065928909 -0.065928909    2.2294697    1.5825226 -0.065928909    2.2953986   439061 
  154000    1.5302772 -0.066336877 -0.066336877    2.2290737    1.5790988 -0.066336877    2.2954106   439061 
  155000    1.5299082 -0.066834866 -0.066834866    2.2280222    1.5779499 -0.066834866     2.294857   439061 
  156000    1.5296703  -0.06602337  -0.06602337    2.2284769    1.5814419  -0.06602337    2.2945002   439061 
  157000    1.5299378 -0.068350818 -0.068350818    2.2265507    1.5753815 -0.068350818    2.2949015   439061 
  158000    1.5283288  -0.06693418  -0.06693418    2.2255538    1.5781549  -0.06693418     2.292488   439061 
  159000    1.5276962 -0.068180039 -0.068180039    2.2233591    1.5740274 -0.068180039    2.2915391   439061 
  160000    1.5258218 -0.067318284 -0.067318284    2.2214092    1.5783589 -0.067318284    2.2887275   439061 
  161000    1.5246756 -0.066727477 -0.066727477    2.2202807    1.5791505 -0.066727477    2.2870082   439061 
  162000    1.5230576 -0.068298817 -0.068298817    2.2162824    1.5750765 -0.068298817    2.2845812   439061 
  163000    1.5225056 -0.068801641 -0.068801641    2.2149516    1.5722381 -0.068801641    2.2837532   439061 
  164000    1.5215876 -0.067963998 -0.067963998    2.2144122    1.5739026 -0.067963998    2.2823762   439061 
  165000    1.5205197  -0.06742255  -0.06742255    2.2133518    1.5767455  -0.06742255    2.2807743   439061 
  166000    1.5204626 -0.067664696 -0.067664696     2.213024    1.5762752 -0.067664696    2.2806887   439061 
  167000    1.5209929 -0.069904159 -0.069904159    2.2115799    1.5705756 -0.069904159    2.2814841   439061 
  168000    1.5191447 -0.068221517 -0.068221517    2.2104904    1.5720688 -0.068221517    2.2787119   439061 
  169000    1.5203532 -0.070033295 -0.070033295    2.2104913    1.5661989 -0.070033295    2.2805246   439061 
  170000     1.519484 -0.068088339 -0.068088339    2.2111325    1.5714117 -0.068088339    2.2792208   439061 
  171000    1.5201671 -0.068035299 -0.068035299    2.2122101    1.5699922 -0.068035299    2.2802454   439061 
  172000    1.5198888 -0.070510929 -0.070510929    2.2093171    1.5648424 -0.070510929     2.279828   439061 
  173000    1.5177996 -0.068507101 -0.068507101    2.2081871    1.5685929 -0.068507101    2.2766942   439061 
  174000    1.5183054 -0.069389229 -0.069389229    2.2080637    1.5672803 -0.069389229     2.277453   439061 
  175000    1.5177839 -0.069230101 -0.069230101    2.2074406    1.5673019 -0.069230101    2.2766707   439061 
  176000    1.5157356 -0.068027281 -0.068027281    2.2055709    1.5692012 -0.068027281    2.2735982   439061 
  177000     1.517039 -0.070652895 -0.070652895    2.2049004    1.5627947 -0.070652895    2.2755533   439061 
  178000    1.5153898 -0.068950433 -0.068950433    2.2041291    1.5669275 -0.068950433    2.2730795   439061 
  179000    1.5166764 -0.071701642 -0.071701642    2.2033078    1.5597875 -0.071701642    2.2750095   439061 
  180000    1.5142998 -0.069871277 -0.069871277    2.2015733    1.5636566 -0.069871277    2.2714446   439061 
  181000    1.5132161 -0.069206421 -0.069206421    2.2006126    1.5672447 -0.069206421     2.269819   439061 
  182000    1.5120995 -0.069784834 -0.069784834    2.1983592    1.5648835 -0.069784834     2.268144   439061 
  183000     1.511846  -0.07040036  -0.07040036    2.1973635    1.5618216  -0.07040036    2.2677638   439061 
  184000    1.5100021  -0.07012083  -0.07012083    2.1948772    1.5620358  -0.07012083    2.2649981   439061 
  185000    1.5094701  -0.07135756  -0.07135756    2.1928425    1.5578951  -0.07135756       2.2642   439061 
  186000    1.5098253 -0.072071021 -0.072071021    2.1926618    1.5548116 -0.072071021    2.2647328   439061 
  187000    1.5081104 -0.069956618 -0.069956618    2.1922039    1.5613856 -0.069956618    2.2621605   439061 
  188000    1.5091865 -0.071684801 -0.071684801    2.1920899    1.5569446 -0.071684801    2.2637747   439061 
  189000    1.5087478 -0.072203498 -0.072203498    2.1909131    1.5525055 -0.072203498    2.2631166   439061 
  190000    1.5063614 -0.069118728 -0.069118728    2.1904182     1.562471 -0.069118728    2.2595369   439061 
  191000     1.507769 -0.071226256 -0.071226256    2.1904221    1.5563967 -0.071226256    2.2616484   439061 
  192000     1.507748 -0.073121009 -0.073121009    2.1884958    1.5514431 -0.073121009    2.2616168   439061 
  193000    1.5067564 -0.072891433 -0.072891433     2.187238    1.5516222 -0.072891433    2.2601295   439061 
  194000    1.5048736 -0.071092158 -0.071092158    2.1862131    1.5563691 -0.071092158    2.2573052   439061 
  195000    1.5070909 -0.073673408 -0.073673408    2.1869577    1.5503271 -0.073673408    2.2606311   439061 
  196000    1.5057646 -0.072290017 -0.072290017    2.1863517     1.553178 -0.072290017    2.2586417   439061 
  197000    1.5043999  -0.07232821  -0.07232821    2.1842665    1.5526486  -0.07232821    2.2565947   439061 
  198000    1.5044953 -0.073675211 -0.073675211    2.1830625    1.5493663 -0.073675211    2.2567378   439061 
  199000    1.5038053   -0.0728567   -0.0728567    2.1828462    1.5490226   -0.0728567    2.2557029   439061 
  200000    1.5019248  -0.07125834  -0.07125834    2.1816237    1.5545081  -0.07125834     2.252882   439061 
  201000    1.5021028 -0.072353866 -0.072353866    2.1807952    1.5512883 -0.072353866    2.2531491   439061 
  202000    1.5010791 -0.071903188 -0.071903188    2.1797103    1.5535544 -0.071903188    2.2516135   439061 
  203000    1.5003404 -0.073371661 -0.073371661    2.1771338    1.5483864 -0.073371661    2.2505054   439061 
  204000    1.4992955 -0.073173455 -0.073173455    2.1757646    1.5477007 -0.073173455    2.2489381   439061 
  205000    1.4961258 -0.071608925 -0.071608925    2.1725746     1.551729 -0.071608925    2.2441835   439061 
  206000    1.4963907 -0.072520148 -0.072520148    2.1720608     1.546584 -0.072520148     2.244581   439061 
  207000    1.4975627 -0.075484529 -0.075484529    2.1708545    1.5415558 -0.075484529     2.246339   439061 
  208000    1.4960889 -0.073546396 -0.073546396    2.1705819    1.5473807 -0.073546396    2.2441283   439061 
  209000    1.4966453 -0.074982582 -0.074982582    2.1699802    1.5410173 -0.074982582    2.2449628   439061 
  210000    1.4941795 -0.072760951 -0.072760951    2.1685031    1.5450224 -0.072760951    2.2412641   439061 
  211000    1.4932392 -0.072255953 -0.072255953    2.1675977    1.5462768 -0.072255953    2.2398536   439061 
  212000    1.4949828 -0.075222118 -0.075222118    2.1672469    1.5398383 -0.075222118     2.242469   439061 
  213000    1.4926708 -0.072012908 -0.072012908    2.1669882    1.5470725 -0.072012908    2.2390011   439061 
  214000    1.4921423 -0.072102987 -0.072102987    2.1661053    1.5473304 -0.072102987    2.2382083   439061 
  215000    1.4934623 -0.075052223 -0.075052223    2.1651362     1.541347 -0.075052223    2.2401884   439061 
  216000    1.4922481 -0.073977672 -0.073977672    2.1643894    1.5416973 -0.073977672    2.2383671   439061 
  217000    1.4911644 -0.074367742 -0.074367742    2.1623738    1.5403307 -0.074367742    2.2367416   439061 
  218000    1.4900954 -0.074388252 -0.074388252    2.1607497    1.5415406 -0.074388252     2.235138   439061 
  219000    1.4889787  -0.07396245  -0.07396245    2.1595005    1.5409286  -0.07396245     2.233463   439061 
  220000    1.4882069 -0.074475419 -0.074475419    2.1578299    1.5397684 -0.074475419    2.2323053   439061 
  221000    1.4874991 -0.074695409 -0.074695409    2.1565481    1.5373873 -0.074695409    2.2312435   439061 
  222000    1.4867043 -0.073722854 -0.073722854    2.1563286      1.54034 -0.073722854    2.2300514   439061 
  223000    1.4865319 -0.074962694 -0.074962694    2.1548301    1.5374541 -0.074962694    2.2297928   439061 
  224000    1.4858324 -0.075060339 -0.075060339    2.1536832    1.5363415 -0.075060339    2.2287435   439061 
  225000     1.486434 -0.075881908 -0.075881908     2.153764    1.5342868 -0.075881908    2.2296459   439061 
  226000    1.4862193 -0.074506133 -0.074506133    2.1548177    1.5357754 -0.074506133    2.2293239   439061 
  227000     1.486524 -0.076716572 -0.076716572    2.1530643    1.5315062 -0.076716572    2.2297809   439061 
  228000    1.4853911 -0.076291844 -0.076291844    2.1517898    1.5314029 -0.076291844    2.2280816   439061 
  229000    1.4838142 -0.074815213 -0.074815213     2.150901    1.5365584 -0.074815213    2.2257162   439061 
  230000    1.4838075 -0.074293055 -0.074293055    2.1514132     1.535651 -0.074293055    2.2257062   439061 
  231000    1.4839657 -0.075786309 -0.075786309    2.1501572    1.5333616 -0.075786309    2.2259435   439061 
  232000    1.4835332  -0.07674543  -0.07674543    2.1485492    1.5296005  -0.07674543    2.2252947   439061 
  233000    1.4817118 -0.075042421 -0.075042421    2.1475203    1.5320627 -0.075042421    2.2225627   439061 
  234000    1.4815635 -0.077347563 -0.077347563    2.1449926     1.527076 -0.077347563    2.2223401   439061 
  235000    1.4808876 -0.076543743 -0.076543743    2.1447826    1.5282052 -0.076543743    2.2213263   439061 
  236000    1.4802828  -0.07577258  -0.07577258    2.1446466    1.5322463  -0.07577258    2.2204192   439061 
  237000    1.4783117 -0.074953108 -0.074953108    2.1425094    1.5338665 -0.074953108    2.2174625   439061 
  238000    1.4783976 -0.075873716 -0.075873716    2.1417176    1.5289835 -0.075873716    2.2175913   439061 
  239000    1.4782251 -0.075921548 -0.075921548    2.1414111    1.5281642 -0.075921548    2.2173327   439061 
  240000    1.4780487 -0.078198007 -0.078198007      2.13887    1.5224281 -0.078198007    2.2170681   439061 
  241000    1.4767606 -0.076674411 -0.076674411    2.1384614    1.5265193 -0.076674411    2.2151358   439061 
  242000    1.4776955 -0.078505366 -0.078505366    2.1380329     1.522399 -0.078505366    2.2165382   439061 
  243000    1.4769738 -0.077726822 -0.077726822    2.1377288    1.5240286 -0.077726822    2.2154556   439061 
  244000    1.4764742 -0.076495208 -0.076495208     2.138211    1.5263433 -0.076495208    2.2147062   439061 
  245000    1.4748326 -0.075533945 -0.075533945      2.13671    1.5280482 -0.075533945    2.2122439   439061 
  246000    1.4748596 -0.076334502 -0.076334502    2.1359498    1.5259783 -0.076334502    2.2122843   439061 
  247000    1.4739575 -0.076586179 -0.076586179     2.134345    1.5241107 -0.076586179    2.2109312   439061 
  248000    1.4727906 -0.076210244 -0.076210244    2.1329706    1.5263494 -0.076210244    2.2091808   439061 
  249000    1.4737114 -0.077201503 -0.077201503    2.1333606    1.5231247 -0.077201503    2.2105621   439061 
  250000     1.473277 -0.078215215 -0.078215215    2.1316953    1.5198646 -0.078215215    2.2099105   439061 
  251000    1.4724047 -0.077668096 -0.077668096    2.1309339    1.5210311 -0.077668096     2.208602   439061 
  252000    1.4711981 -0.077660611 -0.077660611    2.1291315    1.5217153 -0.077660611    2.2067921   439061 
  253000     1.470529 -0.077914529 -0.077914529     2.127874    1.5195755 -0.077914529    2.2057885   439061 
  254000    1.4720876   -0.0794528   -0.0794528    2.1286735    1.5170498   -0.0794528    2.2081263   439061 
  255000    1.4703631 -0.077611959 -0.077611959    2.1279276    1.5210132 -0.077611959    2.2055396   439061 
  256000    1.4692602 -0.077200036 -0.077200036    2.1266853    1.5209572 -0.077200036    2.2038853   439061 
  257000    1.4697541 -0.077850536 -0.077850536    2.1267757    1.5182304 -0.077850536    2.2046262   439061 
  258000    1.4686203 -0.078388169 -0.078388169    2.1245372     1.517742 -0.078388169    2.2029254   439061 
  259000    1.4676686 -0.078402013 -0.078402013    2.1230959    1.5152308 -0.078402013    2.2014979   439061 
  260000    1.4657059 -0.077139202 -0.077139202    2.1214146    1.5194574 -0.077139202    2.1985538   439061 
  261000    1.4670051 -0.080391147 -0.080391147    2.1201114    1.5122987 -0.080391147    2.2005026   439061 
  262000    1.4639876 -0.077450066 -0.077450066    2.1185263    1.5177599 -0.077450066    2.1959764   439061 
  263000    1.4648202 -0.078367092 -0.078367092    2.1188583    1.5168271 -0.078367092    2.1972253   439061 
  264000     1.465137 -0.079361813 -0.079361813    2.1183387    1.5132737 -0.079361813    2.1977005   439061 
  265000    1.4650206 -0.080094434 -0.080094434    2.1174315    1.5126053 -0.080094434    2.1975259   439061 
  266000    1.4646467 -0.080312252 -0.080312252    2.1166528    1.5110783 -0.080312252    2.1969651   439061 
  267000     1.463709 -0.080010939 -0.080010939    2.1155476    1.5108379 -0.080010939    2.1955585   439061 
  268000    1.4619748 -0.078920061 -0.078920061    2.1140371    1.5132072 -0.078920061    2.1929572   439061 
  269000    1.4607433 -0.078089982 -0.078089982      2.11302    1.5143451 -0.078089982      2.19111   439061 
  270000    1.4612187 -0.079522842 -0.079522842    2.1123001    1.5107272 -0.079522842     2.191823   439061 
  271000    1.4595364 -0.078208454 -0.078208454    2.1110911    1.5123148 -0.078208454    2.1892996   439061 
  272000    1.4605899  -0.07978899  -0.07978899    2.1110909     1.510733  -0.07978899    2.1908799   439061 
  273000    1.4599241 -0.079963125 -0.079963125     2.109918    1.5089648 -0.079963125    2.1898811   439061 
  274000    1.4585123 -0.078885011 -0.078885011    2.1088784    1.5090864 -0.078885011    2.1877635   439061 
  275000    1.4574688 -0.078062603 -0.078062603    2.1081356    1.5124012 -0.078062603    2.1861982   439061 
  276000     1.458571 -0.079840827 -0.079840827    2.1080107     1.506348 -0.079840827    2.1878516   439061 
  277000    1.4569926 -0.078880043 -0.078880043    2.1066038    1.5104997 -0.078880043    2.1854839   439061 
  278000    1.4576287 -0.080939803 -0.080939803    2.1054982    1.5045907 -0.080939803     2.186438   439061 
  279000    1.4562506 -0.079234249 -0.079234249    2.1051367    1.5096915 -0.079234249    2.1843709   439061 
  280000    1.4556916 -0.078730831 -0.078730831    2.1048016    1.5096144 -0.078730831    2.1835324   439061 
  281000    1.4559918 -0.080714738 -0.080714738     2.103268    1.5047683 -0.080714738    2.1839827   439061 
  282000    1.4553102 -0.081428002 -0.081428002    2.1015324    1.5027221 -0.081428002    2.1829604   439061 
  283000    1.4536296 -0.079573433 -0.079573433     2.100866    1.5066369 -0.079573433    2.1804394   439061 
  284000    1.4528982 -0.078281513 -0.078281513    2.1010608     1.510952 -0.078281513    2.1793423   439061 
  285000    1.4533105 -0.080644723 -0.080644723     2.099316     1.502179 -0.080644723    2.1799607   439061 
  286000    1.4530459 -0.080810272 -0.080810272    2.0987537    1.5020167 -0.080810272     2.179564   439061 
  287000    1.4524129 -0.081391221 -0.081391221    2.0972232    1.5009524 -0.081391221    2.1786144   439061 
  288000     1.451167 -0.080589559 -0.080589559     2.096156    1.5039373 -0.080589559    2.1767455   439061 
  289000    1.4514012   -0.0810805   -0.0810805    2.0960164    1.5013194   -0.0810805    2.1770969   439061 
  290000    1.4500526 -0.079542119 -0.079542119    2.0955319    1.5024265 -0.079542119     2.175074   439061 
  291000    1.4514259  -0.08155921  -0.08155921    2.0955746    1.4995422  -0.08155921    2.1771339   439061 
  292000    1.4507503 -0.082274241 -0.082274241    2.0938463     1.496708 -0.082274241    2.1761205   439061 
  293000     1.448581   -0.0818773   -0.0818773    2.0909893    1.4980913   -0.0818773    2.1728666   439061 
  294000    1.4481468 -0.081244348 -0.081244348    2.0909709    1.4993903 -0.081244348    2.1722152   439061 
  295000    1.4479725 -0.081862579 -0.081862579    2.0900912    1.4989319 -0.081862579    2.1719538   439061 
  296000    1.4473151 -0.082052414 -0.082052414    2.0889152    1.4965916 -0.082052414    2.1709676   439061 
  297000    1.4463265  -0.08172573  -0.08172573    2.0877591     1.499251  -0.08172573    2.1694848   439061 
  298000    1.4453652 -0.080370414 -0.080370414    2.0876724      1.50128 -0.080370414    2.1680428   439061 
  299000    1.4474532 -0.082829546 -0.082829546    2.0883453    1.4935181 -0.082829546    2.1711749   439061 
  300000     1.445969 -0.082344203 -0.082344203    2.0866044    1.4958208 -0.082344203    2.1689486   439061 
  301000    1.4454022 -0.082671316 -0.082671316     2.085427    1.4934862 -0.082671316    2.1680983   439061 
  302000    1.4444079 -0.083244996 -0.083244996    2.0833619    1.4913607 -0.083244996    2.1666069   439061 
  303000    1.4413312 -0.080254145 -0.080254145    2.0817377    1.4992134 -0.080254145    2.1619918   439061 
  304000    1.4435225 -0.084096511 -0.084096511    2.0811823     1.488896 -0.084096511    2.1652788   439061 
  305000    1.4421449  -0.08412868  -0.08412868    2.0790838    1.4893076  -0.08412868    2.1632124   439061 
  306000    1.4410692 -0.083553595 -0.083553595    2.0780453    1.4893122 -0.083553595    2.1615989   439061 
  307000    1.4403977 -0.084272707 -0.084272707    2.0763189    1.4858577 -0.084272707    2.1605916   439061 
  308000    1.4406127 -0.084290392 -0.084290392    2.0766238    1.4868445 -0.084290392    2.1609142   439061 
  309000    1.4395038 -0.083682289 -0.083682289    2.0755685    1.4887681 -0.083682289    2.1592508   439061 
  310000    1.4389333 -0.083206914 -0.083206914    2.0751881    1.4878445 -0.083206914     2.158395   439061 
  311000    1.4373963 -0.082255583 -0.082255583    2.0738339    1.4913597 -0.082255583    2.1560895   439061 
  312000    1.4383498 -0.083514225 -0.083514225    2.0740056    1.4919778 -0.083514225    2.1575198   439061 
  313000    1.4377978 -0.083312784 -0.083312784    2.0733791    1.4887884 -0.083312784    2.1566918   439061 
  314000    1.4379848 -0.083416077 -0.083416077    2.0735561     1.490461 -0.083416077    2.1569722   439061 
  315000    1.4375279 -0.084255877 -0.084255877     2.072031    1.4864342 -0.084255877    2.1562869   439061 
  316000    1.4362287 -0.083201995 -0.083201995    2.0711362    1.4884449 -0.083201995    2.1543382   439061 
  317000    1.4350255 -0.082730279 -0.082730279    2.0698031    1.4901926 -0.082730279    2.1525334   439061 
  318000    1.4336872 -0.082352275 -0.082352275    2.0681737    1.4887985 -0.082352275    2.1505259   439061 
  319000    1.4343892  -0.08495299  -0.08495299    2.0666259    1.4823388  -0.08495299    2.1515789   439061 
  320000     1.433569 -0.085118489 -0.085118489    2.0652301    1.4818456 -0.085118489    2.1503486   439061 
  321000       1.4338 -0.084554537 -0.084554537    2.0661406    1.4825227 -0.084554537    2.1506951   439061 
  322000    1.4335088 -0.084307089 -0.084307089    2.0659513    1.4832276 -0.084307089    2.1502584   439061 
  323000    1.4346885 -0.085858688 -0.085858688    2.0661691    1.4794951 -0.085858688    2.1520278   439061 
  324000    1.4335317 -0.086053096 -0.086053096    2.0642396    1.4797293 -0.086053096    2.1502927   439061 
  325000    1.4327132 -0.084713083 -0.084713083    2.0643519    1.4818941 -0.084713083    2.1490649   439061 
  326000    1.4315634 -0.084068337 -0.084068337    2.0632718    1.4830538 -0.084068337    2.1473402   439061 
  327000    1.4315526 -0.085542505 -0.085542505    2.0617815      1.47851 -0.085542505     2.147324   439061 
  328000    1.4297694 -0.084344618 -0.084344618    2.0603046    1.4819885 -0.084344618    2.1446493   439061 
  329000    1.4313015 -0.087087788 -0.087087788    2.0598595    1.4766692 -0.087087788    2.1469473   439061 
  330000    1.4293427 -0.085406999 -0.085406999    2.0586022    1.4796347 -0.085406999    2.1440092   439061 
  331000    1.4285136 -0.084909459 -0.084909459     2.057856    1.4792724 -0.084909459    2.1427655   439061 
  332000    1.4287128 -0.085804757 -0.085804757    2.0572595    1.4760692 -0.085804757    2.1430643   439061 
  333000    1.4277854 -0.085167349 -0.085167349    2.0565059    1.4773649 -0.085167349    2.1416733   439061 
  334000    1.4276949 -0.085294222 -0.085294222    2.0562433    1.4787792 -0.085294222    2.1415375   439061 
  335000    1.4285153 -0.087562457 -0.087562457    2.0552056    1.4717144 -0.087562457    2.1427681   439061 
  336000    1.4273151 -0.085218847 -0.085218847     2.055749    1.4788382 -0.085218847    2.1409678   439061 
  337000    1.4276944 -0.087394179 -0.087394179    2.0541426    1.4717964 -0.087394179    2.1415367   439061 
  338000     1.426697 -0.085718616 -0.085718616     2.054322    1.4750568 -0.085718616    2.1400406   439061 
  339000    1.4256128 -0.086218009 -0.086218009    2.0521964    1.4757272 -0.086218009    2.1384144   439061 
  340000    1.4256623 -0.087091446 -0.087091446    2.0513971    1.4705238 -0.087091446    2.1384886   439061 
  341000    1.4251245 -0.087091145 -0.087091145    2.0505908    1.4709428 -0.087091145    2.1376819   439061 
  342000    1.4251627 -0.087463499 -0.087463499    2.0502757    1.4721597 -0.087463499    2.1377392   439061 
  343000    1.4231735 -0.086385751 -0.086385751    2.0483697    1.4741582 -0.086385751    2.1347554   439061 
  344000    1.4236726 -0.088198437 -0.088198437    2.0473056    1.4670455 -0.088198437    2.1355041   439061 
  345000    1.4238814 -0.088845113 -0.088845113    2.0469721    1.4656198 -0.088845113    2.1358173   439061 
  346000    1.4220995 -0.085855757 -0.085855757    2.0472886    1.4718447 -0.085855757    2.1331444   439061 
  347000    1.4209609 -0.085675705 -0.085675705    2.0457608    1.4722459 -0.085675705    2.1314365   439061 
  348000    1.4211724 -0.087074401 -0.087074401    2.0446793    1.4706312 -0.087074401    2.1317537   439061 
  349000    1.4213132  -0.08771648  -0.08771648    2.0442485    1.4702467  -0.08771648    2.1319649   439061 
  350000    1.4208819 -0.086851471 -0.086851471    2.0444665    1.4721807 -0.086851471     2.131318   439061 
  351000    1.4206223 -0.088533344 -0.088533344    2.0423952    1.4650257 -0.088533344    2.1309285   439061 
  352000    1.4196978 -0.087260377 -0.087260377    2.0422815    1.4708021 -0.087260377    2.1295419   439061 
  353000    1.4195655 -0.087956212 -0.087956212    2.0413871     1.466734 -0.087956212    2.1293434   439061 
  354000    1.4180041 -0.087292509 -0.087292509    2.0397087    1.4661852 -0.087292509    2.1270012   439061 
  355000    1.4186024 -0.087730324 -0.087730324    2.0401684    1.4675799 -0.087730324    2.1278987   439061 
  356000    1.4178402 -0.086878564 -0.086878564    2.0398769    1.4677394 -0.086878564    2.1267555   439061 
  357000    1.4175345 -0.087051924 -0.087051924     2.039245    1.4681808 -0.087051924    2.1262969   439061 
  358000    1.4187451 -0.088875557 -0.088875557    2.0392373    1.4647093 -0.088875557    2.1281128   439061 
  359000    1.4166836 -0.087065577 -0.087065577     2.037955    1.4678735 -0.087065577    2.1250206   439061 
  360000    1.4172638  -0.08858539  -0.08858539    2.0373055    1.4633646  -0.08858539    2.1258909   439061 
  361000     1.415258 -0.086673098 -0.086673098    2.0362091    1.4684172 -0.086673098    2.1228822   439061 
  362000    1.4157833 -0.087757925 -0.087757925    2.0359122    1.4636389 -0.087757925    2.1236702   439061 
  363000    1.4155653 -0.088383704 -0.088383704    2.0349593     1.464396 -0.088383704     2.123343   439061 
  364000    1.4150567 -0.088545638 -0.088545638    2.0340346     1.462499 -0.088545638    2.1225802   439061 
  365000    1.4140476 -0.086998477 -0.086998477    2.0340681    1.4642121 -0.086998477    2.1210666   439061 
  366000    1.4157853 -0.089539401 -0.089539401    2.0341336    1.4616469 -0.089539401     2.123673   439061 
  367000     1.413882 -0.088098785 -0.088098785    2.0327193    1.4621979 -0.088098785    2.1208181   439061 
  368000    1.4141284 -0.088089494 -0.088089494    2.0330982    1.4644556 -0.088089494    2.1211877   439061 
  369000    1.4132664 -0.087483062 -0.087483062    2.0324118    1.4657619 -0.087483062    2.1198948   439061 
  370000    1.4115276  -0.08724704  -0.08724704    2.0300396    1.4645028  -0.08724704    2.1172866   439061 
  371000    1.4112311 -0.088022692 -0.088022692    2.0288191    1.4613992 -0.088022692    2.1168418   439061 
  372000    1.4116309 -0.089050565 -0.089050565     2.028391    1.4580706 -0.089050565    2.1174415   439061 
  373000    1.4123434 -0.090560395 -0.090560395    2.0279499    1.4565057 -0.090560395    2.1185103   439061 
  374000    1.4110208 -0.089356384 -0.089356384      2.02717    1.4589861 -0.089356384    2.1165264   439061 
  375000    1.4088328 -0.088149136 -0.088149136    2.0250953    1.4608731 -0.088149136    2.1132444   439061 
  376000    1.4083342 -0.088696577 -0.088696577       2.0238    1.4590993 -0.088696577    2.1124966   439061 
  377000    1.4082325 -0.088737001 -0.088737001     2.023607    1.4592105 -0.088737001     2.112344   439061 
  378000    1.4093742 -0.089829562 -0.089829562     2.024227    1.4577546 -0.089829562    2.1140565   439061 
  379000    1.4078297 -0.088287806 -0.088287806     2.023452    1.4582937 -0.088287806    2.1117398   439061 
  380000    1.4081807 -0.089396504 -0.089396504    2.0228697     1.456951 -0.089396504    2.1122662   439061 
  381000    1.4067724 -0.088051196 -0.088051196    2.0221026    1.4588035 -0.088051196    2.1101538   439061 
  382000    1.4071703 -0.089043067 -0.089043067    2.0217076    1.4567336 -0.089043067    2.1107507   439061 
  383000    1.4059163 -0.089305228 -0.089305228    2.0195645    1.4554315 -0.089305228    2.1088697   439061 
  384000    1.4053083 -0.089275051 -0.089275051    2.0186826    1.4575413 -0.089275051    2.1079577   439061 
  385000    1.4055105 -0.088880854 -0.088880854    2.0193801    1.4581263 -0.088880854    2.1082609   439061 
  386000    1.4062537 -0.091460026 -0.091460026    2.0179157    1.4505076 -0.091460026    2.1093758   439061 
  387000    1.4054681 -0.090951052 -0.090951052    2.0172463    1.4508556 -0.090951052    2.1081973   439061 
  388000    1.4047325 -0.090207919 -0.090207919     2.016886    1.4527167 -0.090207919    2.1070939   439061 
  389000    1.4043733 -0.090586036 -0.090586036    2.0159692    1.4514389 -0.090586036    2.1065552   439061 
  390000     1.403235 -0.089798277 -0.089798277    2.0150494    1.4529809 -0.089798277    2.1048477   439061 
  391000    1.4024966 -0.089415837 -0.089415837    2.0143243    1.4534866 -0.089415837    2.1037402   439061 
  392000    1.4027584 -0.091149932 -0.091149932    2.0129829    1.4511123 -0.091149932    2.1041328   439061 
  393000    1.4021923 -0.090588615 -0.090588615    2.0126951     1.450825 -0.090588615    2.1032837   439061 
  394000    1.4022131 -0.090351454 -0.090351454    2.0129634      1.45229 -0.090351454    2.1033148   439061 
  395000    1.4014779 -0.091658785 -0.091658785    2.0105533    1.4474593 -0.091658785    2.1022121   439061 
  396000    1.4009275 -0.091649415 -0.091649415    2.0097371    1.4475258 -0.091649415    2.1013865   439061 
  397000    1.4007799 -0.091347265 -0.091347265    2.0098178    1.4479457 -0.091347265    2.1011651   439061 
  398000    1.3999026 -0.091345129 -0.091345129    2.0085039    1.4472178 -0.091345129    2.0998491   439061 
  399000    1.3988559 -0.090210415 -0.090210415    2.0080687    1.4487855 -0.090210415    2.0982791   439061 
  400000    1.3994072 -0.092639525 -0.092639525    2.0064664    1.4438202 -0.092639525     2.099106   439061 
  401000    1.3979631 -0.090374636 -0.090374636    2.0065652    1.4498318 -0.090374636    2.0969398   439061 
  402000    1.3982573 -0.093636725 -0.093636725    2.0037445     1.438811 -0.093636725    2.0973812   439061 
  403000    1.3983307 -0.092831104 -0.092831104    2.0046602    1.4424856 -0.092831104    2.0974913   439061 
  404000    1.3964103  -0.09174283  -0.09174283    2.0028678    1.4447602  -0.09174283    2.0946106   439061 
  405000    1.3951962 -0.092045574 -0.092045574     2.000744    1.4455476 -0.092045574    2.0927896   439061 
  406000    1.3947062 -0.092017779 -0.092017779    2.0000367    1.4422988 -0.092017779    2.0920545   439061 
  407000    1.3940685 -0.090490591 -0.090490591    2.0006074    1.4478222 -0.090490591     2.091098   439061 
  408000    1.3950693 -0.091962872 -0.091962872    2.0006363    1.4441228 -0.091962872    2.0925991   439061 
  409000    1.3947044 -0.090893079 -0.090893079    2.0011588    1.4445682 -0.090893079    2.0920519   439061 
  410000    1.3947924 -0.091867501 -0.091867501    2.0003163    1.4438464 -0.091867501    2.0921838   439061 
  411000    1.3943593 -0.092187914 -0.092187914    1.9993463    1.4440827 -0.092187914    2.0915342   439061 
  412000    1.3929786  -0.09105046  -0.09105046    1.9984126    1.4443735  -0.09105046    2.0894631   439061 
  413000     1.393251 -0.091931772 -0.091931772      1.99794    1.4424013 -0.091931772    2.0898717   439061 
  414000    1.3936622 -0.093669579 -0.093669579     1.996819    1.4378214 -0.093669579    2.0904886   439061 
  415000    1.3921206 -0.091960051 -0.091960051    1.9962162    1.4408086 -0.091960051    2.0881762   439061 
  416000    1.3917325 -0.092148519 -0.092148519    1.9954455    1.4414091 -0.092148519    2.0875941   439061 
  417000    1.3918653 -0.092973362 -0.092973362    1.9948198     1.437925 -0.092973362    2.0877932   439061 
  418000    1.3919201 -0.093550607 -0.093550607    1.9943247    1.4377464 -0.093550607    2.0878753   439061 
  419000    1.3901585 -0.090379341 -0.090379341    1.9948537    1.4452791 -0.090379341     2.085233   439061 
  420000    1.3905704 -0.091567369 -0.091567369    1.9942835     1.443388 -0.091567369    2.0858509   439061 
  421000    1.3899547 -0.091963054 -0.091963054    1.9929642    1.4398889 -0.091963054    2.0849272   439061 
  422000    1.3888023 -0.091219891 -0.091219891    1.9919788    1.4423542 -0.091219891    2.0831987   439061 
  423000    1.3895051 -0.093366143 -0.093366143    1.9908868    1.4373996 -0.093366143    2.0842529   439061 
  424000    1.3878709 -0.092861233 -0.092861233    1.9889403    1.4366361 -0.092861233    2.0818016   439061 
  425000    1.3870777 -0.094343119 -0.094343119    1.9862687    1.4333163 -0.094343119    2.0806118   439061 
  426000    1.3858589 -0.093258293 -0.093258293    1.9855254    1.4364481 -0.093258293    2.0787837   439061 
  427000    1.3861812 -0.092906823 -0.092906823    1.9863602    1.4367983 -0.092906823     2.079267   439061 
  428000    1.3858608 -0.093061467 -0.093061467    1.9857249     1.435783 -0.093061467    2.0787864   439061 
  429000    1.3858757  -0.09279355  -0.09279355    1.9860153    1.4367754  -0.09279355    2.0788088   439061 
  430000    1.3863424 -0.093085679 -0.093085679    1.9864231    1.4354055 -0.093085679    2.0795088   439061 
  431000    1.3856565  -0.09275412  -0.09275412    1.9857259    1.4368864  -0.09275412      2.07848   439061 
  432000     1.383763 -0.091354666 -0.091354666    1.9842851    1.4378205 -0.091354666    2.0756397   439061 
  433000    1.3852718  -0.09347841  -0.09347841    1.9844245     1.434927  -0.09347841    2.0779029   439061 
  434000     1.384546 -0.093838025 -0.093838025    1.9829763    1.4353781 -0.093838025    2.0768143   439061 
  435000    1.3846184 -0.094252072 -0.094252072    1.9826709    1.4309528 -0.094252072    2.0769229   439061 
  436000    1.3843147 -0.093927294 -0.093927294      1.98254     1.432889 -0.093927294    2.0764673   439061 
  437000    1.3829094 -0.093452607 -0.093452607    1.9809068    1.4335937 -0.093452607    2.0743594   439061 
  438000    1.3819829   -0.0941518   -0.0941518    1.9788178    1.4297224   -0.0941518    2.0729696   439061 
  439000    1.3814992 -0.091572567 -0.091572567    1.9806715    1.4372603 -0.091572567    2.0722441   439061 
  440000    1.3825859 -0.094997987 -0.094997987    1.9788762    1.4261014 -0.094997987    2.0738742   439061 
  441000    1.3815914 -0.094707943 -0.094707943    1.9776745    1.4281075 -0.094707943    2.0723824   439061 
  442000    1.3818615 -0.095217314 -0.095217314    1.9775702    1.4275569 -0.095217314    2.0727875   439061 
  443000    1.3801668 -0.093199954 -0.093199954    1.9770456    1.4317963 -0.093199954    2.0702455   439061 
  444000     1.380938 -0.094257768 -0.094257768    1.9771445    1.4287978 -0.094257768    2.0714022   439061 
  445000    1.3801299 -0.095158017 -0.095158017    1.9750321    1.4281711 -0.095158017    2.0701902   439061 
  446000    1.3792736 -0.092435687 -0.092435687      1.97647    1.4325047 -0.092435687    2.0689057   439061 
  447000    1.3794869 -0.093496313 -0.093496313    1.9757294    1.4313476 -0.093496313    2.0692257   439061 
  448000    1.3790956 -0.094005704 -0.094005704     1.974633    1.4290219 -0.094005704    2.0686387   439061 
  449000     1.379357 -0.094948076 -0.094948076    1.9740827    1.4280783 -0.094948076    2.0690308   439061 
  450000    1.3792968 -0.096156575 -0.096156575    1.9727839    1.4244858 -0.096156575    2.0689404   439061 
  451000    1.3786969 -0.095881167 -0.095881167    1.9721595    1.4254601 -0.095881167    2.0680407   439061 
  452000    1.3774547 -0.094741493 -0.094741493    1.9714358     1.426934 -0.094741493    2.0661773   439061 
  453000    1.3755071 -0.094100837 -0.094100837    1.9691551    1.4272063 -0.094100837    2.0632559   439061 
  454000     1.376683 -0.095799514 -0.095799514    1.9692203    1.4235697 -0.095799514    2.0650198   439061 
  455000    1.3755472 -0.095564349 -0.095564349    1.9677518    1.4255968 -0.095564349    2.0633161   439061 
  456000     1.376657 -0.096558014 -0.096558014    1.9684228    1.4197444 -0.096558014    2.0649808   439061 
  457000     1.374977 -0.094157723 -0.094157723    1.9683031    1.4282475 -0.094157723    2.0624608   439061 
  458000    1.3742769 -0.094347851 -0.094347851    1.9670629     1.425901 -0.094347851    2.0614107   439061 
  459000    1.3745629 -0.094991276 -0.094991276    1.9668483    1.4253636 -0.094991276    2.0618396   439061 
  460000    1.3747561 -0.096381483 -0.096381483     1.965748    1.4209261 -0.096381483    2.0621294   439061 
  461000    1.3721496 -0.094899392 -0.094899392    1.9633203    1.4236296 -0.094899392    2.0582197   439061 
  462000    1.3729905 -0.095489222 -0.095489222    1.9639918    1.4224592 -0.095489222     2.059481   439061 
  463000     1.371655 -0.094502528 -0.094502528    1.9629753    1.4242187 -0.094502528    2.0574778   439061 
  464000    1.3732187 -0.097231291 -0.097231291    1.9625921    1.4190455 -0.097231291    2.0598234   439061 
  465000    1.3720816 -0.095476777 -0.095476777    1.9626409     1.421785 -0.095476777    2.0581177   439061 
  466000    1.3732243  -0.09713178  -0.09713178    1.9626999     1.417838  -0.09713178    2.0598317   439061 
  467000    1.3706044 -0.093938462 -0.093938462    1.9619634    1.4269329 -0.093938462    2.0559019   439061 
  468000    1.3718922 -0.096046499 -0.096046499    1.9617871    1.4216699 -0.096046499    2.0578336   439061 
  469000    1.3722473 -0.097383844 -0.097383844    1.9609824    1.4184951 -0.097383844    2.0583662   439061 
  470000    1.3705757  -0.09608251  -0.09608251    1.9597764    1.4204022  -0.09608251    2.0558589   439061 
  471000    1.3695368 -0.094826594 -0.094826594    1.9594739    1.4232704 -0.094826594    2.0543005   439061 
  472000    1.3707726 -0.097163251 -0.097163251    1.9589909    1.4142189 -0.097163251    2.0561542   439061 
  473000    1.3697221 -0.096615066 -0.096615066    1.9579634    1.4166415 -0.096615066    2.0545784   439061 
  474000    1.3690419 -0.096561674 -0.096561674    1.9569965    1.4182936 -0.096561674    2.0535582   439061 
  475000    1.3691571 -0.097439208 -0.097439208    1.9562918    1.4161035 -0.097439208     2.053731   439061 
  476000    1.3695007 -0.097965509 -0.097965509    1.9562809     1.414484 -0.097965509    2.0542464   439061 
  477000    1.3683057 -0.097380977 -0.097380977    1.9550728    1.4140638 -0.097380977    2.0524538   439061 
  478000    1.3673812 -0.097079895 -0.097079895    1.9539872    1.4153058 -0.097079895    2.0510671   439061 
  479000    1.3667829 -0.096550292 -0.096550292    1.9536194    1.4146546 -0.096550292    2.0501697   439061 
  480000    1.3663655 -0.097255648 -0.097255648    1.9522879    1.4138074 -0.097255648    2.0495436   439061 
  481000     1.364923 -0.097060188 -0.097060188    1.9503197    1.4144553 -0.097060188    2.0473799   439061 
  482000    1.3660318 -0.097279041 -0.097279041     1.951764    1.4147686 -0.097279041     2.049043   439061 
  483000    1.3656927 -0.096837301 -0.096837301    1.9516972    1.4168513 -0.096837301    2.0485345   439061 
  484000    1.3637304 -0.096289121 -0.096289121    1.9493018    1.4179476 -0.096289121     2.045591   439061 
  485000    1.3640309 -0.097795935 -0.097795935    1.9482457     1.413057 -0.097795935    2.0460417   439061 
  486000    1.3632771 -0.098243231 -0.098243231    1.9466677    1.4138673 -0.098243231    2.0449109   439061 
  487000    1.3627458 -0.097118214 -0.097118214    1.9469959    1.4121876 -0.097118214    2.0441141   439061 
  488000    1.3630749 -0.098039121 -0.098039121    1.9465685    1.4113346 -0.098039121    2.0446077   439061 
  489000    1.3622837 -0.098126059 -0.098126059    1.9452948    1.4099133 -0.098126059    2.0434208   439061 
  490000    1.3629297 -0.098457073 -0.098457073    1.9459328    1.4078872 -0.098457073    2.0443899   439061 
  491000    1.3618054 -0.097459711 -0.097459711    1.9452438    1.4129132 -0.097459711    2.0427035   439061 
  492000     1.361255 -0.097180919 -0.097180919     1.944697    1.4127306 -0.097180919    2.0418779   439061 
  493000     1.361556 -0.099080795 -0.099080795    1.9432486    1.4060775 -0.099080795    2.0423294   439061 
  494000    1.3600644 -0.098206588 -0.098206588    1.9418854    1.4078025 -0.098206588     2.040092   439061 
  495000     1.359144 -0.096949715 -0.096949715    1.9417617    1.4119627 -0.096949715    2.0387114   439061 
  496000     1.360747   -0.1000881   -0.1000881    1.9410278    1.4045168   -0.1000881    2.0411159   439061 
  497000      1.35888 -0.097430436 -0.097430436    1.9408849    1.4116464 -0.097430436    2.0383154   439061 
  498000    1.3591325 -0.098780362 -0.098780362    1.9399138    1.4077928 -0.098780362    2.0386941   439061 
  499000    1.3606456  -0.10120293  -0.10120293    1.9397608    1.4022416  -0.10120293    2.0409638   439061 
  500000     1.358479 -0.099753145 -0.099753145    1.9379607    1.4046178 -0.099753145    2.0377138   439061 
  501000    1.3585276 -0.099218655 -0.099218655    1.9385681    1.4076309 -0.099218655    2.0377868   439061 
  502000    1.3579662 -0.098660315 -0.098660315    1.9382843    1.4070773 -0.098660315    2.0369446   439061 
  503000    1.3564548 -0.098554282 -0.098554282    1.9361234    1.4079656 -0.098554282    2.0346776   439061 
  504000    1.3561823  -0.10073196  -0.10073196    1.9335368    1.4023533  -0.10073196    2.0342688   439061 
  505000    1.3557056 -0.099258862 -0.099258862    1.9342949     1.404549 -0.099258862    2.0335538   439061 
  506000    1.3558968 -0.099544734 -0.099544734    1.9342958    1.4056522 -0.099544734    2.0338405   439061 
  507000    1.3551333 -0.099672339 -0.099672339     1.933023    1.4023586 -0.099672339    2.0326954   439061 
  508000    1.3546916 -0.099520338 -0.099520338    1.9325125     1.404128 -0.099520338    2.0320328   439061 
  509000    1.3548455 -0.099468693 -0.099468693    1.9327949    1.4022209 -0.099468693    2.0322636   439061 
  510000    1.3544562  -0.09939388  -0.09939388    1.9322859    1.4024995  -0.09939388    2.0316797   439061 
  511000     1.354324  -0.09877635  -0.09877635     1.932705    1.4051502  -0.09877635    2.0314813   439061 
  512000    1.3534054 -0.099160833 -0.099160833    1.9309427    1.4034413 -0.099160833    2.0301035   439061 
  513000    1.3546816  -0.10064222  -0.10064222    1.9313756    1.3978441  -0.10064222    2.0320178   439061 
  514000    1.3537015 -0.099352443 -0.099352443    1.9311952    1.4004756 -0.099352443    2.0305476   439061 
  515000    1.3545269 -0.099813416 -0.099813416    1.9319723    1.4031146 -0.099813416    2.0317857   439061 
  516000    1.3537503 -0.099321014 -0.099321014    1.9312999    1.4032903 -0.099321014    2.0306209   439061 
  517000    1.3539371   -0.1009939   -0.1009939    1.9299071    1.3969777   -0.1009939     2.030901   439061 
  518000    1.3534624  -0.10202173  -0.10202173    1.9281673    1.3959998  -0.10202173     2.030189   439061 
  519000    1.3514884 -0.099668239 -0.099668239    1.9275597    1.4019884 -0.099668239    2.0272279   439061 
  520000    1.3503265  -0.09943469  -0.09943469    1.9260504    1.4017284  -0.09943469    2.0254851   439061 
  521000    1.3507611  -0.10075354  -0.10075354    1.9253835    1.3955099  -0.10075354     2.026137   439061 
  522000    1.3515092  -0.10198041  -0.10198041    1.9252788    1.3942727  -0.10198041    2.0272593   439061 
  523000    1.3486141 -0.099141464 -0.099141464    1.9237751    1.4021938 -0.099141464    2.0229166   439061 
  524000    1.3493847  -0.10008365  -0.10008365    1.9239887    1.4004503  -0.10008365    2.0240724   439061 
  525000    1.3489511  -0.10107475  -0.10107475    1.9223473    1.3957343  -0.10107475     2.023422   439061 
  526000    1.3483781   -0.1004376   -0.1004376     1.922125    1.3977563   -0.1004376    2.0225626   439061 
  527000    1.3482218  -0.10037647  -0.10037647    1.9219516    1.3969683  -0.10037647     2.022328   439061 
  528000    1.3472342 -0.099150961 -0.099150961    1.9216957    1.4008766 -0.099150961    2.0208467   439061 
  529000    1.3488608  -0.10209597  -0.10209597    1.9211907    1.3935853  -0.10209597    2.0232866   439061 
  530000    1.3479266  -0.10108746  -0.10108746    1.9207978     1.394045  -0.10108746    2.0218853   439061 
  531000    1.3478932    -0.101639    -0.101639    1.9201962    1.3934494    -0.101639    2.0218352   439061 
  532000    1.3459939 -0.099889375 -0.099889375    1.9190969    1.3985576 -0.099889375    2.0189863   439061 
  533000    1.3458332 -0.099956568 -0.099956568    1.9187886    1.3972267 -0.099956568    2.0187452   439061 
  534000    1.3464147  -0.10142535  -0.10142535    1.9181921    1.3944896  -0.10142535    2.0196174   439061 
  535000    1.3461621  -0.10090427  -0.10090427    1.9183342    1.3951162  -0.10090427    2.0192385   439061 
  536000    1.3453253  -0.10040725  -0.10040725    1.9175761     1.397057  -0.10040725    2.0179834   439061 
  537000    1.3455974   -0.1015299   -0.1015299    1.9168616    1.3922609   -0.1015299    2.0183915   439061 
  538000    1.3464717  -0.10244755  -0.10244755    1.9172555    1.3905672  -0.10244755     2.019703   439061 
  539000    1.3466862  -0.10253467  -0.10253467      1.91749    1.3903916  -0.10253467    2.0200247   439061 
  540000    1.3449719  -0.10048001  -0.10048001    1.9169732    1.3948241  -0.10048001    2.0174532   439061 
  541000     1.345364  -0.10203748  -0.10203748     1.916004    1.3913241  -0.10203748    2.0180415   439061 
  542000    1.3443554  -0.10132659  -0.10132659    1.9152019    1.3927932  -0.10132659    2.0165284   439061 
  543000     1.343302  -0.10161941  -0.10161941    1.9133291    1.3911895  -0.10161941    2.0149485   439061 
  544000    1.3430471  -0.10268719  -0.10268719    1.9118788    1.3882939  -0.10268719     2.014566   439061 
  545000    1.3421286  -0.10189806  -0.10189806    1.9112902    1.3903911  -0.10189806    2.0131883   439061 
  546000    1.3416474  -0.10169016  -0.10169016    1.9107764    1.3911132  -0.10169016    2.0124666   439061 
  547000    1.3407638  -0.10148289  -0.10148289    1.9096582    1.3922905  -0.10148289    2.0111411   439061 
  548000    1.3421428  -0.10282178  -0.10282178    1.9103878    1.3890239  -0.10282178    2.0132096   439061 
  549000    1.3408135  -0.10226288  -0.10226288    1.9089528    1.3883853  -0.10226288    2.0112157   439061 
  550000    1.3398922  -0.10300312  -0.10300312    1.9068305    1.3875674  -0.10300312    2.0098337   439061 
  551000    1.3389896  -0.10136776  -0.10136776     1.907112    1.3903164  -0.10136776    2.0084798   439061 
  552000    1.3398741  -0.10214576  -0.10214576    1.9076609    1.3890841  -0.10214576    2.0098066   439061 
  553000    1.3388793  -0.10219107  -0.10219107    1.9061232    1.3886347  -0.10219107    2.0083143   439061 
  554000    1.3383034  -0.10229464  -0.10229464    1.9051559    1.3877093  -0.10229464    2.0074505   439061 
  555000     1.339296  -0.10349957  -0.10349957    1.9054399    1.3836072  -0.10349957    2.0089395   439061 
  556000    1.3379146  -0.10160259  -0.10160259    1.9052647    1.3879551  -0.10160259    2.0068673   439061 
  557000    1.3375978  -0.10205925  -0.10205925    1.9043329    1.3869848  -0.10205925    2.0063922   439061 
  558000     1.338115  -0.10314377  -0.10314377    1.9040241    1.3858688  -0.10314377    2.0071679   439061 
  559000    1.3372422  -0.10277294  -0.10277294    1.9030859    1.3857085  -0.10277294    2.0058588   439061 
  560000    1.3359808  -0.10260165  -0.10260165     1.901365    1.3843055  -0.10260165    2.0039667   439061 
  561000    1.3374506  -0.10462179  -0.10462179    1.9015496     1.379545  -0.10462179    2.0061714   439061 
  562000    1.3363398  -0.10317257  -0.10317257    1.9013325    1.3842076  -0.10317257    2.0045051   439061 
  563000    1.3362247  -0.10416419  -0.10416419    1.9001682     1.380502  -0.10416419    2.0043324   439061 
  564000     1.335507  -0.10330575  -0.10330575    1.8999502    1.3818092  -0.10330575     2.003256   439061 
  565000    1.3340834  -0.10189923  -0.10189923    1.8992214    1.3857006  -0.10189923    2.0011206   439061 
  566000    1.3339885  -0.10367121  -0.10367121     1.897307    1.3814953  -0.10367121    2.0009782   439061 
  567000    1.3346208  -0.10368883  -0.10368883    1.8982378    1.3838607  -0.10368883    2.0019266   439061 
  568000    1.3321835  -0.10238569  -0.10238569     1.895885    1.3854252  -0.10238569    1.9982707   439061 
  569000    1.3315019  -0.10288199  -0.10288199    1.8943662    1.3821124  -0.10288199    1.9972482   439061 
  570000    1.3317151  -0.10261796  -0.10261796    1.8949501    1.3839148  -0.10261796     1.997568   439061 
  571000    1.3324693  -0.10474945  -0.10474945      1.89395    1.3769631  -0.10474945    1.9986995   439061 
  572000    1.3320015  -0.10451093  -0.10451093    1.8934867    1.3773477  -0.10451093    1.9979977   439061 
  573000    1.3311449  -0.10411939  -0.10411939    1.8925934    1.3790486  -0.10411939    1.9967128   439061 
  574000    1.3317286  -0.10474249  -0.10474249    1.8928458    1.3784714  -0.10474249    1.9975883   439061 
  575000    1.3300935  -0.10321644  -0.10321644    1.8919192    1.3785424  -0.10321644    1.9951356   439061 
  576000    1.3308145  -0.10517243  -0.10517243    1.8910448    1.3777748  -0.10517243    1.9962172   439061 
  577000    1.3296532  -0.10428506  -0.10428506    1.8901902     1.377815  -0.10428506    1.9944752   439061 
  578000    1.3310283  -0.10483512  -0.10483512    1.8917028    1.3768336  -0.10483512     1.996538   439061 
  579000    1.3293196  -0.10284055  -0.10284055    1.8911343    1.3812589  -0.10284055    1.9939749   439061 
  580000    1.3307512   -0.1044151   -0.1044151    1.8917072    1.3773999   -0.1044151    1.9961223   439061 
  581000    1.3295449  -0.10393336  -0.10393336    1.8903795    1.3779258  -0.10393336    1.9943128   439061 
  582000    1.3295323  -0.10511087  -0.10511087     1.889183    1.3756958  -0.10511087    1.9942939   439061 
  583000    1.3285776  -0.10541938  -0.10541938    1.8874424    1.3731246  -0.10541938    1.9928618   439061 
  584000    1.3288086  -0.10551509  -0.10551509    1.8876932    1.3751874  -0.10551509    1.9932083   439061 
  585000    1.3285013  -0.10516409  -0.10516409    1.8875833    1.3725633  -0.10516409    1.9927474   439061 
  586000    1.3280366   -0.1046323   -0.1046323    1.8874181    1.3761219   -0.1046323    1.9920504   439061 
  587000    1.3280944   -0.1057427   -0.1057427    1.8863944    1.3726935   -0.1057427    1.9921371   439061 
  588000    1.3264583  -0.10442438  -0.10442438    1.8852585    1.3769682  -0.10442438    1.9896829   439061 
  589000    1.3253168  -0.10290601  -0.10290601    1.8850647    1.3807495  -0.10290601    1.9879707   439061 
  590000    1.3261251  -0.10469386  -0.10469386    1.8844893    1.3745426  -0.10469386    1.9891832   439061 
  591000    1.3249949  -0.10377028  -0.10377028    1.8837175    1.3771722  -0.10377028    1.9874878   439061 
  592000    1.3247018  -0.10335177  -0.10335177    1.8836963    1.3775901  -0.10335177    1.9870481   439061 
  593000    1.3260889  -0.10506756  -0.10506756    1.8840613    1.3724693  -0.10506756    1.9891289   439061 
  594000    1.3253265  -0.10544076  -0.10544076    1.8825445    1.3733441  -0.10544076    1.9879853   439061 
  595000    1.3245686  -0.10380983  -0.10380983    1.8830385    1.3769224  -0.10380983    1.9868483   439061 
  596000     1.325956  -0.10631165  -0.10631165    1.8826178    1.3717749  -0.10631165    1.9889294   439061 
  597000    1.3249807  -0.10573225  -0.10573225    1.8817342    1.3711223  -0.10573225    1.9874664   439061 
  598000     1.324895  -0.10427912  -0.10427912    1.8830589    1.3741616  -0.10427912     1.987338   439061 
  599000    1.3260855  -0.10723009  -0.10723009    1.8818936    1.3681363  -0.10723009    1.9891237   439061 
  600000    1.3248314  -0.10610667  -0.10610667    1.8811359    1.3698432  -0.10610667    1.9872426   439061 
  601000    1.3248732  -0.10661601  -0.10661601    1.8806893    1.3674907  -0.10661601    1.9873053   439061 
  602000     1.324406  -0.10691343  -0.10691343    1.8796911    1.3675503  -0.10691343    1.9866045   439061 
  603000    1.3239391  -0.10600535  -0.10600535    1.8798988    1.3686994  -0.10600535    1.9859042   439061 
  604000    1.3224303  -0.10517409  -0.10517409    1.8784668    1.3720899  -0.10517409    1.9836409   439061 
  605000    1.3226154  -0.10552566  -0.10552566    1.8783929    1.3717269  -0.10552566    1.9839185   439061 
  606000    1.3224864  -0.10516761  -0.10516761    1.8785574      1.37122  -0.10516761     1.983725   439061 
  607000    1.3214756  -0.10487205  -0.10487205    1.8773369    1.3739383  -0.10487205     1.982209   439061 
  608000    1.3201819  -0.10543606  -0.10543606    1.8748323    1.3687528  -0.10543606    1.9802684   439061 
  609000     1.320206  -0.10610598  -0.10610598    1.8741984    1.3673842  -0.10610598    1.9803044   439061 
  610000     1.320187  -0.10573544  -0.10573544    1.8745405    1.3701419  -0.10573544     1.980276   439061 
  611000    1.3203715  -0.10610376  -0.10610376    1.8744489    1.3688358  -0.10610376    1.9805527   439061 
  612000    1.3192906   -0.1048792   -0.1048792    1.8740521    1.3701001   -0.1048792    1.9789313   439061 
  613000    1.3199015   -0.1068204   -0.1068204    1.8730273     1.364884   -0.1068204    1.9798477   439061 
  614000    1.3198414  -0.10652765  -0.10652765      1.87323    1.3664752  -0.10652765    1.9797576   439061 
  615000    1.3185384  -0.10612543  -0.10612543    1.8716776    1.3653487  -0.10612543     1.977803   439061 
  616000     1.318165  -0.10596049  -0.10596049    1.8712825    1.3675162  -0.10596049     1.977243   439061 
  617000    1.3193975   -0.1082521   -0.1082521    1.8708397     1.362778   -0.1082521    1.9790918   439061 
  618000     1.318405  -0.10790464  -0.10790464    1.8696983    1.3622279  -0.10790464     1.977603   439061 
  619000    1.3169054  -0.10538002  -0.10538002    1.8699736    1.3673703  -0.10538002    1.9753536   439061 
  620000    1.3181331  -0.10700048  -0.10700048    1.8701947    1.3659522  -0.10700048    1.9771952   439061 
  621000    1.3182437  -0.10786791  -0.10786791    1.8694932    1.3619418  -0.10786791    1.9773611   439061 
  622000    1.3169541  -0.10571508  -0.10571508    1.8697116    1.3688273  -0.10571508    1.9754267   439061 
  623000    1.3180017  -0.10842401  -0.10842401     1.868574    1.3587458  -0.10842401    1.9769981   439061 
  624000    1.3173462  -0.10757292  -0.10757292    1.8684419    1.3652025  -0.10757292    1.9760148   439061 
  625000    1.3166794  -0.10591952  -0.10591952     1.869095    1.3678001  -0.10591952    1.9750145   439061 
  626000    1.3162298  -0.10514512  -0.10514512    1.8691951    1.3685687  -0.10514512    1.9743403   439061 
  627000    1.3168712  -0.10746995  -0.10746995    1.8678324    1.3625122  -0.10746995    1.9753024   439061 
  628000     1.315641  -0.10787308  -0.10787308    1.8655839    1.3606246  -0.10787308     1.973457   439061 
  629000    1.3150044  -0.10688924  -0.10688924    1.8656128    1.3643393  -0.10688924     1.972502   439061 
  630000    1.3164239  -0.10906308  -0.10906308    1.8655683    1.3580716  -0.10906308    1.9746314   439061 
  631000    1.3144936  -0.10674428  -0.10674428    1.8649917    1.3628818  -0.10674428     1.971736   439061 
  632000    1.3149683  -0.10675454  -0.10675454    1.8656933    1.3636766  -0.10675454    1.9724479   439061 
  633000    1.3143322  -0.10571278  -0.10571278     1.865781    1.3656759  -0.10571278    1.9714938   439061 
  634000     1.314862  -0.10777995  -0.10777995    1.8645086    1.3619345  -0.10777995    1.9722886   439061 
  635000    1.3144594  -0.10696164  -0.10696164    1.8647229    1.3626427  -0.10696164    1.9716846   439061 
  636000    1.3136402  -0.10810603  -0.10810603    1.8623498    1.3580336  -0.10810603    1.9704559   439061 
  637000    1.3120653  -0.10640562  -0.10640562    1.8616879    1.3624302  -0.10640562    1.9680935   439061 
  638000    1.3144454  -0.10961113  -0.10961113    1.8620525    1.3559485  -0.10961113    1.9716637   439061 
  639000     1.312801  -0.10666873  -0.10666873    1.8625283    1.3631069  -0.10666873    1.9691971   439061 
  640000    1.3121471   -0.1069633   -0.1069633    1.8612529    1.3624424   -0.1069633    1.9682162   439061 
  641000    1.3128737  -0.10825652  -0.10825652    1.8610496    1.3583092  -0.10825652    1.9693061   439061 
  642000    1.3116917  -0.10761873  -0.10761873    1.8599143    1.3606955  -0.10761873     1.967533   439061 
  643000    1.3119145  -0.10950774  -0.10950774    1.8583595    1.3552246  -0.10950774    1.9678673   439061 
  644000    1.3122215  -0.10937168  -0.10937168     1.858956    1.3552618  -0.10937168    1.9683277   439061 
  645000     1.310444  -0.10699312  -0.10699312    1.8586685    1.3597117  -0.10699312    1.9656616   439061 
  646000    1.3113477  -0.10757764  -0.10757764    1.8594394    1.3603631  -0.10757764     1.967017   439061 
  647000    1.3116348  -0.10878116  -0.10878116    1.8586666    1.3558344  -0.10878116    1.9674478   439061 
  648000    1.3101728  -0.10689411  -0.10689411    1.8583606    1.3619278  -0.10689411    1.9652547   439061 
  649000    1.3098027  -0.10762304  -0.10762304    1.8570766    1.3579369  -0.10762304    1.9646996   439061 
  650000    1.3092374  -0.10803173  -0.10803173    1.8558199     1.358276  -0.10803173    1.9638517   439061 
  651000    1.3089547  -0.10839252  -0.10839252    1.8550351    1.3577612  -0.10839252    1.9634276   439061 
  652000    1.3077126  -0.10773769  -0.10773769    1.8538268    1.3582692  -0.10773769    1.9615645   439061 
  653000     1.309559  -0.10941034  -0.10941034    1.8549237    1.3529525  -0.10941034    1.9643341   439061 
  654000    1.3087376  -0.10886083  -0.10886083    1.8542411    1.3549039  -0.10886083    1.9631019   439061 
  655000    1.3087224  -0.10871688  -0.10871688    1.8543623     1.355049  -0.10871688    1.9630792   439061 
  656000    1.3075574  -0.10683965  -0.10683965     1.854492    1.3575118  -0.10683965    1.9613317   439061 
  657000    1.3079521  -0.10808394  -0.10808394    1.8538398    1.3569577  -0.10808394    1.9619237   439061 
  658000    1.3076688  -0.10788478  -0.10788478     1.853614     1.357978  -0.10788478    1.9614988   439061 
  659000    1.3061302  -0.10705687  -0.10705687     1.852134    1.3585508  -0.10705687    1.9591909   439061 
  660000    1.3063342  -0.10748091  -0.10748091     1.852016    1.3562561  -0.10748091    1.9594969   439061 
  661000    1.3080545  -0.10926169  -0.10926169    1.8528156     1.351386  -0.10926169    1.9620773   439061 
  662000    1.3075724  -0.10996984  -0.10996984    1.8513843    1.3515538  -0.10996984    1.9613541   439061 
  663000    1.3063601  -0.10887351  -0.10887351    1.8506622    1.3547598  -0.10887351    1.9595357   439061 
  664000    1.3049861  -0.10777927  -0.10777927    1.8496954    1.3551293  -0.10777927    1.9574746   439061 
  665000    1.3041338  -0.10787221  -0.10787221     1.848324    1.3557446  -0.10787221    1.9561962   439061 
  666000    1.3051313  -0.10974927  -0.10974927    1.8479432    1.3493691  -0.10974927    1.9576924   439061 
  667000    1.3042598  -0.10750425  -0.10750425    1.8488811    1.3566564  -0.10750425    1.9563853   439061 
  668000     1.304275  -0.10719172  -0.10719172    1.8492164    1.3575793  -0.10719172    1.9564081   439061 
  669000    1.3048843  -0.10844332  -0.10844332    1.8488786    1.3528083  -0.10844332    1.9573219   439061 
  670000    1.3037466  -0.10808046  -0.10808046     1.847535    1.3553209  -0.10808046    1.9556155   439061 
  671000     1.304727  -0.10969389  -0.10969389    1.8473921    1.3489461  -0.10969389     1.957086   439061 
  672000    1.3054753  -0.11108703  -0.11108703    1.8471215    1.3456348  -0.11108703    1.9582086   439061 
  673000    1.3040574  -0.11018398  -0.11018398    1.8458977    1.3494387  -0.11018398    1.9560817   439061 
  674000    1.3031808   -0.1095123   -0.1095123    1.8452544    1.3493419   -0.1095123    1.9547667   439061 
  675000    1.3025864  -0.10908359  -0.10908359    1.8447916    1.3512517  -0.10908359    1.9538752   439061 
  676000    1.3025466  -0.10990057  -0.10990057    1.8439149    1.3484245  -0.10990057    1.9538154   439061 
  677000    1.3026411  -0.11007928  -0.11007928     1.843878    1.3480745  -0.11007928    1.9539572   439061 
  678000    1.3031992  -0.11047327  -0.11047327    1.8443211    1.3469566  -0.11047327    1.9547944   439061 
  679000    1.3023928  -0.10980487  -0.10980487    1.8437799    1.3466832  -0.10980487    1.9535848   439061 
  680000    1.3014627  -0.10899805  -0.10899805    1.8431915    1.3502585  -0.10899805    1.9521895   439061 
  681000    1.3010424  -0.10928135  -0.10928135    1.8422778     1.348034  -0.10928135    1.9515591   439061 
  682000    1.3010998  -0.10936353  -0.10936353    1.8422818    1.3498404  -0.10936353    1.9516453   439061 
  683000    1.3015244  -0.11043703  -0.11043703    1.8418451     1.345143  -0.11043703    1.9522822   439061 
  684000    1.3004283  -0.10908909  -0.10908909    1.8415489     1.350942  -0.10908909     1.950638   439061 
  685000     1.300215   -0.1091682   -0.1091682    1.8411499    1.3506201   -0.1091682    1.9503181   439061 
  686000     1.298717  -0.10845131  -0.10845131    1.8396197    1.3507552  -0.10845131     1.948071   439061 
  687000    1.3004295  -0.10962487  -0.10962487    1.8410149    1.3502119  -0.10962487    1.9506398   439061 
  688000    1.2992137  -0.10879681  -0.10879681    1.8400193    1.3499683  -0.10879681    1.9488161   439061 
  689000    1.3005878  -0.11051957  -0.11051957    1.8403577    1.3439512  -0.11051957    1.9508773   439061 
  690000    1.3001372   -0.1102513   -0.1102513      1.83995    1.3476774   -0.1102513    1.9502013   439061 
  691000    1.3007338  -0.11064658  -0.11064658    1.8404497     1.346569  -0.11064658    1.9510963   439061 
  692000    1.2996166  -0.10930004  -0.10930004    1.8401205    1.3501909  -0.10930004    1.9494205   439061 
  693000    1.2987055  -0.10958945  -0.10958945    1.8384644    1.3470347  -0.10958945    1.9480538   439061 
  694000    1.2989364  -0.11057039  -0.11057039    1.8378298    1.3442581  -0.11057039    1.9484001   439061 
  695000    1.2990695  -0.11143489  -0.11143489     1.837165     1.342362  -0.11143489    1.9485998   439061 
  696000    1.2983199  -0.11074758  -0.11074758    1.8367279    1.3441819  -0.11074758    1.9474755   439061 
  697000    1.2981407  -0.11079655  -0.11079655    1.8364101    1.3441894  -0.11079655    1.9472067   439061 
  698000     1.297258  -0.11057256  -0.11057256    1.8353101    1.3450901  -0.11057256    1.9458826   439061 
  699000    1.2976032   -0.1098888   -0.1098888    1.8365115    1.3462154   -0.1098888    1.9464003   439061 
  700000    1.2970471  -0.11041245  -0.11041245    1.8351537    1.3452434  -0.11041245    1.9455662   439061 
  701000    1.2965418  -0.10989581  -0.10989581    1.8349124    1.3467934  -0.10989581    1.9448082   439061 
  702000    1.2973076  -0.11088943  -0.11088943    1.8350676    1.3443017  -0.11088943     1.945957   439061 
  703000     1.297061  -0.11194528  -0.11194528    1.8336418    1.3408562  -0.11194528    1.9455871   439061 
  704000    1.2962413   -0.1119488   -0.1119488    1.8324087    1.3394296   -0.1119488    1.9443575   439061 
  705000    1.2942914  -0.10978587  -0.10978587    1.8316468    1.3444928  -0.10978587    1.9414327   439061 
  706000    1.2959785  -0.11180858  -0.11180858    1.8321547    1.3389509  -0.11180858    1.9439633   439061 
  707000    1.2949575  -0.11047965  -0.11047965    1.8319522    1.3426732  -0.11047965    1.9424319   439061 
  708000    1.2950222  -0.11160878  -0.11160878    1.8309201     1.341227  -0.11160878    1.9425289   439061 
  709000    1.2938179  -0.10982948  -0.10982948     1.830893     1.345364  -0.10982948    1.9407225   439061 
  710000    1.2941682  -0.11172736  -0.11172736    1.8295205    1.3389853  -0.11172736    1.9412479   439061 
  711000    1.2946151  -0.11211046  -0.11211046    1.8298078    1.3390078  -0.11211046    1.9419182   439061 
  712000    1.2934437  -0.11069352  -0.11069352    1.8294677    1.3416117  -0.11069352    1.9401612   439061 
  713000    1.2932289  -0.11084771  -0.11084771    1.8289913    1.3403279  -0.11084771     1.939839   439061 
  714000    1.2940613  -0.11213254  -0.11213254     1.828955    1.3387471  -0.11213254    1.9410875   439061 
  715000    1.2929582    -0.110759    -0.110759     1.828674    1.3419619    -0.110759     1.939433   439061 
  716000    1.2940929    -0.111819    -0.111819     1.829316    1.3385715    -0.111819     1.941135   439061 
  717000    1.2946062  -0.11178748  -0.11178748    1.8301174    1.3417398  -0.11178748    1.9419049   439061 
  718000    1.2930478  -0.11116874  -0.11116874    1.8283985    1.3407133  -0.11116874    1.9395672   439061 
  719000    1.2931321  -0.11129216  -0.11129216    1.8284016    1.3379021  -0.11129216    1.9396938   439061 
  720000    1.2926091  -0.11136224  -0.11136224     1.827547    1.3386525  -0.11136224    1.9389092   439061 
  721000    1.2930343   -0.1128293   -0.1128293    1.8267178    1.3346357   -0.1128293    1.9395471   439061 
  722000     1.292609  -0.11199766  -0.11199766    1.8269115    1.3379375  -0.11199766    1.9389091   439061 
  723000    1.2917221  -0.11079913  -0.11079913    1.8267795    1.3389863  -0.11079913    1.9375787   439061 
  724000     1.291764  -0.11096923  -0.11096923    1.8266724    1.3409118  -0.11096923    1.9376416   439061 
  725000    1.2918932  -0.11229586  -0.11229586    1.8255395    1.3358384  -0.11229586    1.9378354   439061 
  726000     1.291102  -0.11231661  -0.11231661     1.824332     1.336059  -0.11231661    1.9366486   439061 
  727000    1.2900282  -0.11095675  -0.11095675    1.8240811    1.3399801  -0.11095675    1.9350378   439061 
  728000    1.2905886  -0.11058246  -0.11058246     1.825296    1.3392325  -0.11058246    1.9358785   439061 
  729000    1.2893768  -0.11066342  -0.11066342    1.8233974    1.3404196  -0.11066342    1.9340609   439061 
  730000    1.2896505  -0.11242109  -0.11242109    1.8220503    1.3349228  -0.11242109    1.9344714   439061 
  731000     1.288747  -0.11163807  -0.11163807     1.821478    1.3373219  -0.11163807    1.9331161   439061 
  732000    1.2889812  -0.11127307  -0.11127307    1.8221943    1.3387315  -0.11127307    1.9334674   439061 
  733000    1.2907336  -0.11317461  -0.11317461    1.8229213    1.3339409  -0.11317461    1.9360959   439061 
  734000    1.2882977  -0.11066772  -0.11066772    1.8217744    1.3391793  -0.11066772    1.9324421   439061 
  735000    1.2892528  -0.11225037  -0.11225037    1.8216244    1.3344096  -0.11225037    1.9338748   439061 
  736000    1.2883502  -0.11179522  -0.11179522    1.8207257    1.3363069  -0.11179522    1.9325209   439061 
  737000     1.289644  -0.11404923  -0.11404923    1.8204123    1.3302755  -0.11404923    1.9344616   439061 
  738000    1.2892892  -0.11310075  -0.11310075    1.8208286    1.3330464  -0.11310075    1.9339294   439061 
  739000    1.2885362  -0.11184677  -0.11184677    1.8209532    1.3368534  -0.11184677    1.9327999   439061 
  740000    1.2894808  -0.11448729  -0.11448729    1.8197295    1.3302444  -0.11448729    1.9342167   439061 
  741000    1.2884113  -0.11271981  -0.11271981    1.8198927    1.3337074  -0.11271981    1.9326125   439061 
  742000    1.2884949  -0.11223632  -0.11223632    1.8205016     1.332836  -0.11223632    1.9327379   439061 
  743000    1.2871436  -0.11052946  -0.11052946    1.8201815    1.3377466  -0.11052946     1.930711   439061 
  744000     1.287988  -0.11161912  -0.11161912    1.8203584    1.3368042  -0.11161912    1.9319775   439061 
  745000    1.2875093  -0.11290124  -0.11290124    1.8183584    1.3324153  -0.11290124    1.9312596   439061 
  746000    1.2878371  -0.11425119  -0.11425119    1.8175001    1.3290963  -0.11425119    1.9317513   439061 
  747000     1.287231  -0.11347806  -0.11347806    1.8173641    1.3307418  -0.11347806    1.9308421   439061 
  748000     1.285815  -0.11261389  -0.11261389    1.8161042    1.3323461  -0.11261389    1.9287181   439061 
  749000    1.2872258  -0.11358692  -0.11358692    1.8172473    1.3286592  -0.11358692    1.9308343   439061 
  750000    1.2862676  -0.11302017  -0.11302017    1.8163768    1.3314617  -0.11302017     1.929397   439061 
  751000    1.2858513  -0.11299459  -0.11299459     1.815778    1.3315105  -0.11299459    1.9287726   439061 
  752000    1.2860914  -0.11370462  -0.11370462    1.8154281    1.3304096  -0.11370462    1.9291328   439061 
  753000    1.2850136  -0.11305542  -0.11305542    1.8144606    1.3313771  -0.11305542    1.9275161   439061 
  754000    1.2849244  -0.11412937  -0.11412937    1.8132529    1.3279132  -0.11412937    1.9273823   439061 
  755000     1.282482  -0.11157598  -0.11157598    1.8121427    1.3335588  -0.11157598    1.9237187   439061 
  756000    1.2857169  -0.11544654  -0.11544654    1.8131244    1.3240627  -0.11544654    1.9285709   439061 
  757000    1.2832169  -0.11223787  -0.11223787     1.812583    1.3318248  -0.11223787    1.9248209   439061 
  758000    1.2837142   -0.1141554   -0.1141554    1.8114115    1.3296274   -0.1141554    1.9255669   439061 
  759000    1.2845125  -0.11489296  -0.11489296    1.8118714    1.3260856  -0.11489296    1.9267643   439061 
  760000    1.2830371  -0.11347697  -0.11347697    1.8110743    1.3291857  -0.11347697    1.9245513   439061 
  761000    1.2830096  -0.11295027  -0.11295027    1.8115597    1.3298989  -0.11295027      1.92451   439061 
  762000    1.2843239  -0.11425221  -0.11425221    1.8122292    1.3282493  -0.11425221    1.9264814   439061 
  763000    1.2835285  -0.11319947  -0.11319947     1.812089    1.3307914  -0.11319947    1.9252884   439061 
  764000    1.2835806  -0.11336178  -0.11336178    1.8120048    1.3284049  -0.11336178    1.9253665   439061 
  765000     1.282287   -0.1131924   -0.1131924    1.8102338    1.3279961   -0.1131924    1.9234262   439061 
  766000    1.2824136  -0.11280985  -0.11280985    1.8108061    1.3310713  -0.11280985     1.923616   439061 
  767000    1.2822877  -0.11373499  -0.11373499    1.8096922    1.3282128  -0.11373499    1.9234272   439061 
  768000    1.2805094  -0.11282905  -0.11282905    1.8079306    1.3295934  -0.11282905    1.9207597   439061 
  769000    1.2816788  -0.11357267  -0.11357267    1.8089412    1.3275313  -0.11357267    1.9225139   439061 
  770000    1.2807591  -0.11260914  -0.11260914    1.8085251    1.3304509  -0.11260914    1.9211342   439061 
  771000    1.2814236  -0.11307879  -0.11307879    1.8090522    1.3303665  -0.11307879     1.922131   439061 
  772000    1.2817561  -0.11374641  -0.11374641    1.8088833    1.3283739  -0.11374641    1.9226298   439061 
  773000    1.2814429  -0.11439564  -0.11439564    1.8077644    1.3251534  -0.11439564      1.92216   439061 
  774000     1.280927   -0.1136429   -0.1136429    1.8077432    1.3273002   -0.1136429    1.9213861   439061 
  775000    1.2820415  -0.11584997  -0.11584997    1.8072079    1.3229322  -0.11584997    1.9230579   439061 
  776000    1.2806223  -0.11392767  -0.11392767    1.8070013    1.3254022  -0.11392767     1.920929   439061 
  777000     1.280749  -0.11458404  -0.11458404    1.8065351    1.3247913  -0.11458404    1.9211191   439061 
  778000    1.2805011  -0.11269404  -0.11269404    1.8080532    1.3288647  -0.11269404    1.9207472   439061 
  779000    1.2807672   -0.1129412   -0.1129412    1.8082052    1.3282516   -0.1129412    1.9211464   439061 
  780000    1.2812016  -0.11378698  -0.11378698    1.8080111    1.3263135  -0.11378698    1.9217981   439061 
  781000    1.2794362   -0.1137886   -0.1137886    1.8053614    1.3260667   -0.1137886      1.91915   439061 
  782000    1.2791172  -0.11406457  -0.11406457    1.8046068    1.3260419  -0.11406457    1.9186714   439061 
  783000    1.2794132  -0.11508714  -0.11508714    1.8040283    1.3210771  -0.11508714    1.9191155   439061 
  784000    1.2797425  -0.11542681  -0.11542681    1.8041825    1.3215839  -0.11542681    1.9196093   439061 
  785000    1.2784401  -0.11456498  -0.11456498    1.8030907    1.3237461  -0.11456498    1.9176557   439061 
  786000    1.2782242  -0.11376243  -0.11376243    1.8035695    1.3257181  -0.11376243    1.9173319   439061 
  787000    1.2780389  -0.11399662  -0.11399662    1.8030574    1.3231631  -0.11399662     1.917054   439061 
  788000    1.2770799   -0.1135047   -0.1135047    1.8021108    1.3269526   -0.1135047    1.9156155   439061 
  789000    1.2782562  -0.11516679  -0.11516679    1.8022132    1.3234457  -0.11516679    1.9173799   439061 
  790000    1.2786518  -0.11557879  -0.11557879    1.8023945    1.3226422  -0.11557879    1.9179733   439061 
  791000     1.278158   -0.1153652   -0.1153652    1.8018675     1.322131   -0.1153652    1.9172327   439061 
  792000    1.2773495  -0.11555188  -0.11555188    1.8004679    1.3207822  -0.11555188    1.9160198   439061 
  793000    1.2761625  -0.11409719  -0.11409719    1.8001423    1.3240202  -0.11409719    1.9142395   439061 
  794000    1.2749241   -0.1129311   -0.1129311    1.7994506    1.3263329   -0.1129311    1.9123817   439061 
  795000    1.2764968  -0.11723061  -0.11723061    1.7975102    1.3145002  -0.11723061    1.9147408   439061 
  796000     1.274715  -0.11434801  -0.11434801    1.7977201    1.3223109  -0.11434801    1.9120682   439061 
  797000    1.2748694  -0.11575858  -0.11575858    1.7965412    1.3191835  -0.11575858    1.9122998   439061 
  798000    1.2749328  -0.11575698  -0.11575698    1.7966379    1.3185169  -0.11575698    1.9123949   439061 
  799000    1.2743372  -0.11447003  -0.11447003    1.7970314    1.3238038  -0.11447003    1.9115014   439061 
  800000    1.2752392  -0.11570396  -0.11570396    1.7971505    1.3189824  -0.11570396    1.9128545   439061 
  801000    1.2734731  -0.11453135  -0.11453135    1.7956739    1.3214243  -0.11453135    1.9102053   439061 
  802000    1.2736544  -0.11559853  -0.11559853    1.7948787    1.3194767  -0.11559853    1.9104772   439061 
  803000    1.2734605  -0.11421801  -0.11421801    1.7959684    1.3209152  -0.11421801    1.9101864   439061 
  804000    1.2741935  -0.11460437  -0.11460437    1.7966815    1.3214597  -0.11460437    1.9112859   439061 
  805000    1.2746371  -0.11524892  -0.11524892    1.7967024    1.3212334  -0.11524892    1.9119514   439061 
  806000     1.274506  -0.11526089  -0.11526089    1.7964937    1.3180557  -0.11526089    1.9117546   439061 
  807000    1.2737129   -0.1147636   -0.1147636    1.7958014    1.3225278   -0.1147636     1.910565   439061 
  808000    1.2739541  -0.11479135  -0.11479135    1.7961354    1.3230101  -0.11479135    1.9109268   439061 
  809000    1.2732911   -0.1151733   -0.1151733     1.794759    1.3189952   -0.1151733    1.9099323   439061 
  810000    1.2734101  -0.11573397  -0.11573397    1.7943769    1.3171759  -0.11573397    1.9101108   439061 
  811000    1.2729292  -0.11531452  -0.11531452     1.794075    1.3193189  -0.11531452    1.9093895   439061 
  812000    1.2714855  -0.11422087  -0.11422087    1.7930031    1.3217873  -0.11422087    1.9072239   439061 
  813000    1.2714335   -0.1153372   -0.1153372    1.7918087    1.3177237   -0.1153372    1.9071459   439061 
  814000    1.2713896  -0.11517523  -0.11517523    1.7919048    1.3196376  -0.11517523    1.9070801   439061 
  815000    1.2723565  -0.11607474  -0.11607474    1.7924557    1.3173322  -0.11607474    1.9085305   439061 
  816000    1.2713044  -0.11402248  -0.11402248    1.7929298    1.3201689  -0.11402248    1.9069523   439061 
  817000     1.272204  -0.11596294  -0.11596294    1.7923387    1.3158798  -0.11596294    1.9083016   439061 
  818000    1.2714227  -0.11546932  -0.11546932    1.7916605    1.3167951  -0.11546932    1.9071298   439061 
  819000    1.2710689  -0.11608156  -0.11608156    1.7905175    1.3170846  -0.11608156     1.906599   439061 
  820000    1.2710101   -0.1159232   -0.1159232    1.7905876    1.3158095   -0.1159232    1.9065108   439061 
  821000    1.2696297  -0.11481618  -0.11481618    1.7896241    1.3194577  -0.11481618    1.9044403   439061 
  822000    1.2700397  -0.11613741  -0.11613741    1.7889179    1.3151324  -0.11613741    1.9050553   439061 
  823000    1.2695175  -0.11546141  -0.11546141    1.7888104    1.3160977  -0.11546141    1.9042719   439061 
  824000    1.2686789  -0.11558532  -0.11558532    1.7874287    1.3155178  -0.11558532     1.903014   439061 
  825000    1.2689237  -0.11554031  -0.11554031    1.7878409     1.317334  -0.11554031    1.9033812   439061 
  826000    1.2684217  -0.11609945  -0.11609945    1.7865288    1.3146758  -0.11609945    1.9026282   439061 
  827000    1.2691053  -0.11726037  -0.11726037    1.7863933    1.3114553  -0.11726037    1.9036537   439061 
  828000    1.2683508  -0.11602829  -0.11602829    1.7864936    1.3168905  -0.11602829    1.9025219   439061 
  829000     1.268959  -0.11633211  -0.11633211    1.7871021    1.3151398  -0.11633211    1.9034342   439061 
  830000    1.2684099  -0.11607693  -0.11607693    1.7865336    1.3158173  -0.11607693    1.9026105   439061 
  831000    1.2680163  -0.11678497  -0.11678497    1.7852351    1.3114051  -0.11678497      1.90202   439061 
  832000    1.2675663  -0.11607489  -0.11607489    1.7852702    1.3152348  -0.11607489    1.9013451   439061 
  833000    1.2670378  -0.11462442  -0.11462442    1.7859279    1.3172413  -0.11462442    1.9005523   439061 
  834000    1.2685379  -0.11729305  -0.11729305    1.7855094    1.3113285  -0.11729305    1.9028025   439061 
  835000    1.2663411  -0.11467497  -0.11467497    1.7848323    1.3175984  -0.11467497    1.8995073   439061 
  836000    1.2679841  -0.11723629  -0.11723629    1.7847356    1.3091001  -0.11723629    1.9019719   439061 
  837000      1.26758  -0.11685861  -0.11685861    1.7845071    1.3132012  -0.11685861    1.9013657   439061 
  838000    1.2664435  -0.11598587  -0.11598587    1.7836751    1.3127747  -0.11598587     1.899661   439061 
  839000    1.2674939  -0.11797109  -0.11797109    1.7832655    1.3090039  -0.11797109    1.9012366   439061 
  840000    1.2664002  -0.11671284  -0.11671284    1.7828831    1.3109071  -0.11671284     1.899596   439061 
  841000    1.2643365  -0.11472828  -0.11472828    1.7817722    1.3170404  -0.11472828    1.8965005   439061 
  842000    1.2656604  -0.11729147  -0.11729147    1.7811948    1.3103645  -0.11729147    1.8984863   439061 
  843000    1.2654462  -0.11677066  -0.11677066    1.7813944      1.31158  -0.11677066     1.898165   439061 
  844000     1.266306  -0.11810703  -0.11810703    1.7813476    1.3089419  -0.11810703    1.8994547   439061 
  845000    1.2649136  -0.11692935  -0.11692935    1.7804367     1.311408  -0.11692935    1.8973661   439061 
  846000     1.264409  -0.11664379  -0.11664379    1.7799654    1.3106195  -0.11664379    1.8966092   439061 
  847000    1.2648568  -0.11733865  -0.11733865    1.7799423    1.3105221  -0.11733865    1.8972809   439061 
  848000    1.2644822  -0.11737933  -0.11737933    1.7793397    1.3098847  -0.11737933     1.896719   439061 
  849000    1.2641761  -0.11772806  -0.11772806    1.7785317    1.3087482  -0.11772806    1.8962598   439061 
  850000    1.2628299  -0.11721762  -0.11721762     1.777023    1.3091423  -0.11721762    1.8942406   439061 
  851000    1.2626796  -0.11705723  -0.11705723    1.7769579    1.3087144  -0.11705723    1.8940151   439061 
  852000    1.2634881  -0.11806794  -0.11806794    1.7771599    1.3070402  -0.11806794    1.8952278   439061 
  853000    1.2635418   -0.1182225   -0.1182225    1.7770859    1.3070866   -0.1182225    1.8953084   439061 
  854000    1.2621641  -0.11722959  -0.11722959    1.7760123    1.3092931  -0.11722959    1.8932419   439061 
  855000    1.2621837  -0.11708334  -0.11708334    1.7761879     1.309228  -0.11708334    1.8932712   439061 
  856000    1.2615959  -0.11544581  -0.11544581    1.7769437    1.3135128  -0.11544581    1.8923895   439061 
  857000    1.2617785  -0.11753454  -0.11753454     1.775129    1.3084428  -0.11753454    1.8926635   439061 
  858000    1.2616629  -0.11729731  -0.11729731    1.7751927     1.309329  -0.11729731      1.89249   439061 
  859000    1.2611275  -0.11713315  -0.11713315    1.7745537    1.3082902  -0.11713315    1.8916869   439061 
  860000    1.2607582  -0.11780065  -0.11780065    1.7733323      1.30665  -0.11780065    1.8911329   439061 
  861000    1.2598411  -0.11676084  -0.11676084    1.7729966    1.3090722  -0.11676084    1.8897574   439061 
  862000    1.2594359  -0.11705162  -0.11705162    1.7720979    1.3069293  -0.11705162    1.8891495   439061 
  863000    1.2604779   -0.1182739   -0.1182739    1.7724386    1.3053122   -0.1182739    1.8907125   439061 
  864000    1.2595948   -0.1183871   -0.1183871    1.7710007    1.3052512   -0.1183871    1.8893878   439061 
  865000    1.2583419  -0.11722528  -0.11722528    1.7702833    1.3057288  -0.11722528    1.8875086   439061 
  866000    1.2598195  -0.11893144  -0.11893144    1.7707935    1.3020869  -0.11893144    1.8897249   439061 
  867000      1.25968  -0.11775479  -0.11775479     1.771761    1.3064143  -0.11775479    1.8895158   439061 
  868000    1.2594782  -0.11752915  -0.11752915    1.7716838    1.3070729  -0.11752915     1.889213   439061 
  869000    1.2605141   -0.1196969   -0.1196969    1.7710699     1.300818   -0.1196969    1.8907668   439061 
  870000     1.258826  -0.11701108  -0.11701108    1.7712236    1.3083991  -0.11701108    1.8882347   439061 
  871000    1.2586601  -0.11739255  -0.11739255    1.7705933    1.3065586  -0.11739255    1.8879859   439061 
  872000    1.2581834  -0.11705176  -0.11705176     1.770219    1.3062021  -0.11705176    1.8872708   439061 
  873000    1.2573759  -0.11618414  -0.11618414    1.7698754    1.3112523  -0.11618414    1.8860596   439061 
  874000    1.2583138  -0.11796593  -0.11796593    1.7695004    1.3031282  -0.11796593    1.8874663   439061 
  875000    1.2588847  -0.11812913  -0.11812913    1.7701936    1.3035681  -0.11812913    1.8883227   439061 
  876000    1.2589624  -0.11812929  -0.11812929      1.77031    1.3045942  -0.11812929    1.8884393   439061 
  877000    1.2582391  -0.11846616  -0.11846616    1.7688882    1.3028277  -0.11846616    1.8873544   439061 
  878000       1.2582  -0.11868759  -0.11868759    1.7686082    1.3039732  -0.11868759    1.8872958   439061 
  879000    1.2582391  -0.11811665  -0.11811665    1.7692377    1.3029854  -0.11811665    1.8873543   439061 
  880000    1.2575308  -0.11829566  -0.11829566    1.7679963    1.3012506  -0.11829566    1.8862919   439061 
  881000    1.2565299  -0.11827586  -0.11827586    1.7665147    1.3050593  -0.11827586    1.8847906   439061 
  882000    1.2572414  -0.11847497  -0.11847497    1.7673829    1.3030904  -0.11847497    1.8858579   439061 
  883000    1.2563268  -0.11820104  -0.11820104    1.7662849    1.3014195  -0.11820104     1.884486   439061 
  884000     1.256447    -0.119238    -0.119238    1.7654282    1.3004605    -0.119238    1.8846662   439061 
  885000    1.2554938  -0.11929106  -0.11929106    1.7639454    1.3002538  -0.11929106    1.8832364   439061 
  886000    1.2552806  -0.11763316  -0.11763316    1.7652834    1.3051565  -0.11763316    1.8829166   439061 
  887000    1.2541286  -0.11823626  -0.11823626    1.7629523    1.3026817  -0.11823626    1.8811885   439061 
  888000    1.2549078  -0.11913926  -0.11913926    1.7632181    1.3008055  -0.11913926    1.8823573   439061 
  889000    1.2548879  -0.11925984  -0.11925984    1.7630677    1.3009779  -0.11925984    1.8823275   439061 
  890000    1.2555138  -0.11913676  -0.11913676    1.7641296    1.2999706  -0.11913676    1.8832664   439061 
  891000    1.2551193  -0.11733033  -0.11733033    1.7653444    1.3036429  -0.11733033    1.8826747   439061 
  892000    1.2557453  -0.11829995  -0.11829995    1.7653138    1.3027582  -0.11829995    1.8836137   439061 
  893000    1.2553166  -0.11823861  -0.11823861    1.7647319    1.3021577  -0.11823861    1.8829706   439061 
  894000    1.2560647  -0.11921169  -0.11921169    1.7648811    1.3016619  -0.11921169    1.8840928   439061 
  895000    1.2552578  -0.11937579  -0.11937579    1.7635067    1.2988808  -0.11937579    1.8828825   439061 
  896000    1.2540583  -0.11809784  -0.11809784    1.7629853    1.3016038  -0.11809784    1.8810831   439061 
  897000     1.255529  -0.12044439  -0.12044439    1.7628448    1.2968498  -0.12044439    1.8832892   439061 
  898000    1.2548527  -0.11885522  -0.11885522    1.7634195    1.3011088  -0.11885522    1.8822748   439061 
  899000    1.2549988  -0.12039551  -0.12039551    1.7620984    1.2958392  -0.12039551    1.8824939   439061 
  900000    1.2551716  -0.12146273  -0.12146273    1.7612904    1.2937008  -0.12146273    1.8827531   439061 
  901000    1.2534373  -0.11880727  -0.11880727    1.7613445    1.3016077  -0.11880727    1.8801517   439061 
  902000     1.253197  -0.11762406  -0.11762406    1.7621671    1.3032225  -0.11762406    1.8797912   439061 
  903000     1.252534  -0.11831685  -0.11831685    1.7604799    1.3008813  -0.11831685    1.8787968   439061 
  904000    1.2525606  -0.11989707  -0.11989707    1.7589396    1.2972803  -0.11989707    1.8788367   439061 
  905000    1.2528617  -0.12053105  -0.12053105    1.7587573    1.2946859  -0.12053105    1.8792883   439061 
  906000    1.2519353   -0.1189216   -0.1189216    1.7589771    1.2986632   -0.1189216    1.8778987   439061 
  907000    1.2520242  -0.11994699  -0.11994699     1.758085    1.2963216  -0.11994699     1.878032   439061 
  908000    1.2511552  -0.11813568  -0.11813568    1.7585928     1.299189  -0.11813568    1.8767285   439061 
  909000    1.2528516  -0.12083919  -0.12083919    1.7584339    1.2941952  -0.12083919    1.8792731   439061 
  910000    1.2513044  -0.11969133  -0.11969133    1.7572611    1.2974463  -0.11969133    1.8769524   439061 
  911000    1.2522579  -0.12015687  -0.12015687    1.7582256    1.2990415  -0.12015687    1.8783825   439061 
  912000    1.2508106  -0.11824588  -0.11824588    1.7579658    1.3013515  -0.11824588    1.8762117   439061 
  913000    1.2504419  -0.11870325  -0.11870325    1.7569554    1.2989676  -0.11870325    1.8756586   439061 
  914000    1.2502026  -0.11815897  -0.11815897    1.7571406    1.3001166  -0.11815897    1.8752996   439061 
  915000    1.2513122  -0.12027502  -0.12027502    1.7566889    1.2939271  -0.12027502     1.876964   439061 
  916000     1.250832  -0.11974594  -0.11974594    1.7564978    1.2980195  -0.11974594    1.8762438   439061 
  917000    1.2501392  -0.12000177  -0.12000177    1.7552028    1.2942099  -0.12000177    1.8752045   439061 
  918000    1.2503254  -0.12009054  -0.12009054    1.7553933    1.2964759  -0.12009054    1.8754839   439061 
  919000    1.2509728  -0.12148788  -0.12148788    1.7549671    1.2906637  -0.12148788     1.876455   439061 
  920000     1.247051  -0.11847284  -0.11847284    1.7520995    1.2978138  -0.11847284    1.8705723   439061 
  921000    1.2492959  -0.12124652  -0.12124652    1.7526931    1.2910914  -0.12124652    1.8739396   439061 
  922000    1.2490388  -0.12030013  -0.12030013    1.7532538    1.2936105  -0.12030013    1.8735539   439061 
  923000    1.2492066  -0.12040451  -0.12040451    1.7534011    1.2926958  -0.12040451    1.8738056   439061 
  924000    1.2472134  -0.11909719  -0.11909719    1.7517187    1.2952576  -0.11909719    1.8708159   439061 
  925000     1.247971  -0.11946677  -0.11946677    1.7524854    1.2947762  -0.11946677    1.8719522   439061 
  926000    1.2476562   -0.1191227   -0.1191227    1.7523573     1.296587   -0.1191227      1.87148   439061 
  927000    1.2487131  -0.11985576  -0.11985576    1.7532096     1.295638  -0.11985576    1.8730653   439061 
  928000    1.2462925   -0.1182775   -0.1182775    1.7511571    1.2977479   -0.1182775    1.8694346   439061 
  929000    1.2474692  -0.12001502  -0.12001502    1.7511845    1.2946569  -0.12001502    1.8711995   439061 
  930000    1.2465854  -0.11980752  -0.11980752    1.7500663    1.2945828  -0.11980752    1.8698739   439061 
  931000    1.2479188  -0.12009766  -0.12009766    1.7517762    1.2935832  -0.12009766    1.8718739   439061 
  932000    1.2479096  -0.12100452  -0.12100452    1.7508556    1.2897208  -0.12100452    1.8718601   439061 
  933000    1.2474427  -0.12020669  -0.12020669    1.7509531    1.2923904  -0.12020669    1.8711598   439061 
  934000    1.2486564  -0.12174597  -0.12174597    1.7512344    1.2893121  -0.12174597    1.8729804   439061 
  935000    1.2482896  -0.12052177  -0.12052177    1.7519084    1.2936758  -0.12052177    1.8724302   439061 
  936000     1.246912  -0.12093664  -0.12093664    1.7494271    1.2915736  -0.12093664    1.8703637   439061 
  937000     1.246771  -0.12064538  -0.12064538    1.7495068    1.2914481  -0.12064538    1.8701522   439061 
  938000     1.246385  -0.11896061  -0.11896061    1.7506127    1.2956903  -0.11896061    1.8695733   439061 
  939000    1.2464247  -0.12055352  -0.12055352    1.7490793      1.29062  -0.12055352    1.8696328   439061 
  940000    1.2459064  -0.12127939  -0.12127939     1.747576    1.2890289  -0.12127939    1.8688553   439061 
  941000    1.2452599  -0.12076889  -0.12076889    1.7471167    1.2907567  -0.12076889    1.8678856   439061 
  942000    1.2451673  -0.12033162  -0.12033162     1.747415     1.292474  -0.12033162    1.8677466   439061 
  943000     1.244687  -0.12001364  -0.12001364    1.7470126    1.2939938  -0.12001364    1.8670263   439061 
  944000    1.2431997  -0.11874067  -0.11874067    1.7460546    1.2948393  -0.11874067    1.8647953   439061 
  945000    1.2449569  -0.12140862  -0.12140862    1.7460224    1.2891359  -0.12140862    1.8674311   439061 
  946000    1.2436783  -0.12052567  -0.12052567    1.7449876    1.2895492  -0.12052567    1.8655132   439061 
  947000    1.2444389  -0.12095172  -0.12095172    1.7457023    1.2894313  -0.12095172     1.866654   439061 
  948000    1.2434676   -0.1205559   -0.1205559    1.7446413    1.2924284   -0.1205559    1.8651972   439061 
  949000    1.2423998   -0.1203978   -0.1203978    1.7431977    1.2900194   -0.1203978    1.8635955   439061 
  950000    1.2424371  -0.11984751  -0.11984751    1.7438039     1.293446  -0.11984751    1.8636514   439061 
  951000    1.2424934  -0.11944252  -0.11944252    1.7442934    1.2940572  -0.11944252    1.8637359   439061 
  952000    1.2437134  -0.12161123  -0.12161123    1.7439546    1.2880576  -0.12161123    1.8655658   439061 
  953000    1.2421315  -0.12051645  -0.12051645    1.7426765    1.2907214  -0.12051645    1.8631929   439061 
  954000    1.2432686  -0.12193078  -0.12193078    1.7429678    1.2857059  -0.12193078    1.8648986   439061 
  955000    1.2424746  -0.12061692  -0.12061692    1.7430907    1.2895968  -0.12061692    1.8637076   439061 
  956000    1.2431201  -0.12169212  -0.12169212    1.7429838    1.2865713  -0.12169212    1.8646759   439061 
  957000    1.2435539  -0.12184464  -0.12184464     1.743482    1.2876799  -0.12184464    1.8653267   439061 
  958000     1.242931   -0.1208403   -0.1208403    1.7435519    1.2880704   -0.1208403    1.8643922   439061 
  959000     1.243917   -0.1226061   -0.1226061    1.7432651    1.2835251   -0.1226061    1.8658712   439061 
  960000     1.243514   -0.1216916   -0.1216916    1.7435751    1.2856137   -0.1216916    1.8652667   439061 
  961000    1.2420052  -0.12181466  -0.12181466    1.7411889    1.2857648  -0.12181466    1.8630035   439061 
  962000    1.2407243  -0.12062356  -0.12062356    1.7404587    1.2879986  -0.12062356    1.8610823   439061 
  963000    1.2416931  -0.12186141  -0.12186141    1.7406739    1.2842617  -0.12186141    1.8625353   439061 
  964000    1.2416496  -0.12107401  -0.12107401    1.7413961    1.2872821  -0.12107401    1.8624701   439061 
  965000    1.2425623  -0.12247634  -0.12247634    1.7413629    1.2839285  -0.12247634    1.8638393   439061 
  966000    1.2418549  -0.12229248  -0.12229248    1.7404857    1.2829391  -0.12229248    1.8627781   439061 
  967000     1.240453  -0.12124996  -0.12124996    1.7394253    1.2870104  -0.12124996    1.8606752   439061 
  968000    1.2394003  -0.11978989  -0.11978989    1.7393063    1.2906996  -0.11978989    1.8590962   439061 
  969000    1.2403665  -0.12288479  -0.12288479    1.7376607    1.2825157  -0.12288479    1.8605455   439061 
  970000    1.2399358  -0.12255791  -0.12255791    1.7373416    1.2819439  -0.12255791    1.8598995   439061 
  971000     1.239011  -0.12158543  -0.12158543    1.7369269    1.2866193  -0.12158543    1.8585123   439061 
  972000    1.2411434  -0.12448741  -0.12448741    1.7372234    1.2780713  -0.12448741    1.8617108   439061 
  973000    1.2394116  -0.12249546  -0.12249546    1.7366176    1.2834587  -0.12249546    1.8591131   439061 
  974000    1.2389577   -0.1217825   -0.1217825    1.7366499    1.2837473   -0.1217825    1.8584324   439061 
  975000    1.2386661  -0.12042586  -0.12042586     1.737569    1.2899067  -0.12042586    1.8579949   439061 
  976000    1.2401148  -0.12257666  -0.12257666    1.7375913    1.2835507  -0.12257666    1.8601679   439061 
  977000    1.2410186  -0.12292326  -0.12292326    1.7386005    1.2828419  -0.12292326    1.8615237   439061 
  978000    1.2392226  -0.12131128  -0.12131128    1.7375183    1.2862313  -0.12131128    1.8588296   439061 
  979000    1.2395919  -0.12186465  -0.12186465     1.737519    1.2841727  -0.12186465    1.8593836   439061 
  980000    1.2397704  -0.12194861  -0.12194861    1.7377027    1.2823705  -0.12194861    1.8596513   439061 
  981000    1.2390904  -0.12187641  -0.12187641    1.7367549    1.2826521  -0.12187641    1.8586313   439061 
  982000    1.2394967  -0.12152479  -0.12152479     1.737716    1.2859423  -0.12152479    1.8592408   439061 
  983000    1.2399708  -0.12333035  -0.12333035    1.7366216    1.2808101  -0.12333035    1.8599519   439061 
  984000    1.2368355  -0.12011872  -0.12011872    1.7351303     1.286891  -0.12011872     1.855249   439061 
  985000     1.238679  -0.12280316  -0.12280316    1.7352111    1.2814956  -0.12280316    1.8580142   439061 
  986000    1.2387241  -0.12278823  -0.12278823    1.7352937    1.2826249  -0.12278823     1.858082   439061 
  987000    1.2383568  -0.12292972  -0.12292972    1.7346012    1.2804293  -0.12292972    1.8575309   439061 
  988000    1.2383811  -0.12167192  -0.12167192    1.7358955    1.2817638  -0.12167192    1.8575674   439061 
  989000    1.2382154  -0.12245737  -0.12245737    1.7348615     1.281776  -0.12245737    1.8573189   439061 
  990000    1.2375727  -0.12217255  -0.12217255    1.7341822    1.2819534  -0.12217255    1.8563548   439061 
  991000    1.2362383  -0.12124353  -0.12124353    1.7331097    1.2839993  -0.12124353    1.8543532   439061 
  992000    1.2389801  -0.12390817  -0.12390817    1.7345577    1.2784349  -0.12390817    1.8584659   439061 
  993000      1.23798  -0.12378959  -0.12378959    1.7331762    1.2776521  -0.12378959    1.8569658   439061 
  994000    1.2366301  -0.12329503  -0.12329503    1.7316459    1.2803997  -0.12329503    1.8549409   439061 
  995000    1.2373323  -0.12289923  -0.12289923    1.7330949    1.2819862  -0.12289923    1.8559942   439061 
  996000    1.2376041  -0.12362592  -0.12362592     1.732776    1.2793015  -0.12362592    1.8564019   439061 
  997000    1.2357684  -0.12192034  -0.12192034     1.731728    1.2834424  -0.12192034    1.8536484   439061 
  998000    1.2365649  -0.12167495  -0.12167495    1.7331682    1.2836277  -0.12167495    1.8548431   439061 
  999000    1.2364995  -0.12304973  -0.12304973    1.7316953    1.2796957  -0.12304973     1.854745   439061 
 1000000    1.2359652  -0.12174148  -0.12174148    1.7322021    1.2835801  -0.12174148    1.8539436   439061 
 1001000      1.23651    -0.123769    -0.123769    1.7309918    1.2771462    -0.123769    1.8547608   439061 
 1002000     1.235556  -0.12217973  -0.12217973      1.73115    1.2836722  -0.12217973    1.8533297   439061 
 1003000    1.2345746  -0.12207245  -0.12207245    1.7297852    1.2829446  -0.12207245    1.8518577   439061 
 1004000    1.2362845  -0.12337502  -0.12337502    1.7310475     1.279539  -0.12337502    1.8544225   439061 
 1005000    1.2369094  -0.12392148  -0.12392148    1.7314383    1.2764746  -0.12392148    1.8553598   439061 
 1006000    1.2346898  -0.12178443  -0.12178443     1.730246    1.2831922  -0.12178443    1.8520304   439061 
 1007000    1.2352926  -0.12393379  -0.12393379    1.7290008    1.2785573  -0.12393379    1.8529346   439061 
 1008000    1.2337512  -0.12292322  -0.12292322    1.7276994    1.2781661  -0.12292322    1.8506227   439061 
 1009000    1.2336309  -0.12330543  -0.12330543    1.7271368    1.2765778  -0.12330543    1.8504422   439061 
 1010000    1.2341375  -0.12314541  -0.12314541    1.7280566    1.2788347  -0.12314541     1.851202   439061 
 1011000    1.2335576  -0.12201792  -0.12201792    1.7283143    1.2799713  -0.12201792    1.8503323   439061 
 1012000     1.232682  -0.12236948  -0.12236948    1.7266493    1.2793843  -0.12236948    1.8490188   439061 
 1013000     1.232814  -0.12338003  -0.12338003    1.7258368    1.2796972  -0.12338003    1.8492169   439061 
 1014000    1.2325397  -0.12271178  -0.12271178    1.7260936    1.2792365  -0.12271178    1.8488054   439061 
 1015000    1.2329963    -0.124413    -0.124413    1.7250773    1.2745265    -0.124413    1.8494903   439061 
 1016000    1.2322205  -0.12324248  -0.12324248     1.725084    1.2784692  -0.12324248    1.8483265   439061 
 1017000    1.2326211  -0.12265588  -0.12265588    1.7262716    1.2784836  -0.12265588    1.8489275   439061 
 1018000    1.2321571   -0.1240758   -0.1240758    1.7241557    1.2753177   -0.1240758    1.8482315   439061 
 1019000     1.232013  -0.12302269  -0.12302269    1.7249926    1.2773266  -0.12302269    1.8480153   439061 
 1020000    1.2320798  -0.12416576  -0.12416576    1.7239497    1.2761878  -0.12416576    1.8481155   439061 
 1021000    1.2321178  -0.12345927  -0.12345927    1.7247132    1.2777783  -0.12345927    1.8481725   439061 
 1022000    1.2322248  -0.12222828  -0.12222828    1.7261047    1.2819668  -0.12222828     1.848333   439061 
 1023000    1.2316428  -0.12258998  -0.12258998    1.7248701    1.2779537  -0.12258998    1.8474601   439061 
 1024000    1.2314119  -0.12289785  -0.12289785    1.7242157     1.278369  -0.12289785    1.8471136   439061 
 1025000    1.2311826  -0.12213687  -0.12213687    1.7246328    1.2799342  -0.12213687    1.8467696   439061 
 1026000    1.2304916  -0.12230018  -0.12230018    1.7234331    1.2801861  -0.12230018    1.8457333   439061 
 1027000    1.2307773  -0.12408304  -0.12408304    1.7220787    1.2738181  -0.12408304    1.8461618   439061 
 1028000    1.2307351  -0.12443643  -0.12443643     1.721662    1.2736163  -0.12443643    1.8460984   439061 
 1029000    1.2301435  -0.12280561  -0.12280561    1.7224054    1.2782313  -0.12280561     1.845211   439061 
 1030000    1.2298849  -0.12283301  -0.12283301    1.7219901    1.2756407  -0.12283301    1.8448231   439061 
 1031000    1.2301653   -0.1234659   -0.1234659    1.7217779    1.2761705   -0.1234659    1.8452438   439061 
 1032000    1.2305236  -0.12410171  -0.12410171    1.7216795    1.2753081  -0.12410171    1.8457812   439061 
 1033000     1.230934  -0.12450991  -0.12450991    1.7218869    1.2729967  -0.12450991    1.8463968   439061 
 1034000    1.2291665  -0.12221936  -0.12221936    1.7215262    1.2797195  -0.12221936    1.8437456   439061 
 1035000    1.2291589  -0.12294492  -0.12294492    1.7207893    1.2772976  -0.12294492    1.8437342   439061 
 1036000    1.2296158  -0.12400995  -0.12400995    1.7204095     1.274434  -0.12400995    1.8444195   439061 
 1037000    1.2283841  -0.12268934  -0.12268934    1.7198827    1.2775907  -0.12268934     1.842572   439061 
 1038000     1.229016  -0.12480281  -0.12480281    1.7187171    1.2710453  -0.12480281    1.8435199   439061 
 1039000    1.2291645  -0.12523449  -0.12523449    1.7185081    1.2693945  -0.12523449    1.8437426   439061 
 1040000    1.2294852  -0.12496961  -0.12496961     1.719254    1.2723871  -0.12496961    1.8442236   439061 
 1041000    1.2282024   -0.1243618   -0.1243618    1.7179376    1.2715942   -0.1243618    1.8422994   439061 
 1042000    1.2276345  -0.12372235  -0.12372235    1.7177252    1.2729091  -0.12372235    1.8414476   439061 
 1043000    1.2277922  -0.12377343  -0.12377343    1.7179107    1.2722455  -0.12377343    1.8416841   439061 
 1044000    1.2284233  -0.12456673  -0.12456673     1.718064     1.272027  -0.12456673    1.8426308   439061 
 1045000    1.2282268  -0.12520781  -0.12520781    1.7171282     1.270201  -0.12520781    1.8423361   439061 
 1046000     1.228362  -0.12535387  -0.12535387     1.717185    1.2695251  -0.12535387    1.8425388   439061 
 1047000    1.2266417  -0.12518482  -0.12518482    1.7147735    1.2696795  -0.12518482    1.8399583   439061 
 1048000    1.2257484  -0.12430475  -0.12430475    1.7143137    1.2722287  -0.12430475    1.8386185   439061 
 1049000    1.2249613  -0.12356259  -0.12356259    1.7138751    1.2723028  -0.12356259    1.8374377   439061 
 1050000    1.2260224  -0.12446548  -0.12446548    1.7145639    1.2724049  -0.12446548    1.8390294   439061 
 1051000    1.2255006  -0.12440662  -0.12440662    1.7138401    1.2701139  -0.12440662    1.8382467   439061 
 1052000    1.2258687  -0.12507028  -0.12507028    1.7137285    1.2716145  -0.12507028    1.8387988   439061 
 1053000    1.2261108  -0.12514309  -0.12514309     1.714019    1.2709139  -0.12514309    1.8391621   439061 
 1054000    1.2250934  -0.12399543  -0.12399543    1.7136404    1.2728608  -0.12399543    1.8376359   439061 
 1055000    1.2254162  -0.12581667  -0.12581667    1.7123034    1.2668965  -0.12581667      1.83812   439061 
 1056000    1.2245468  -0.12385434  -0.12385434    1.7129617     1.272221  -0.12385434     1.836816   439061 
 1057000    1.2264342  -0.12594726  -0.12594726    1.7136999    1.2679105  -0.12594726    1.8396471   439061 
 1058000     1.226168  -0.12549536  -0.12549536    1.7137524    1.2696215  -0.12549536    1.8392478   439061 
 1059000    1.2247428  -0.12425357  -0.12425357    1.7128564    1.2716635  -0.12425357      1.83711   439061 
 1060000    1.2255249  -0.12490756  -0.12490756    1.7133756     1.271042  -0.12490756    1.8382832   439061 
 1061000    1.2248286  -0.12484788  -0.12484788    1.7123908    1.2710303  -0.12484788    1.8372387   439061 
 1062000    1.2241995  -0.12360643  -0.12360643    1.7126887    1.2746561  -0.12360643    1.8362951   439061 
 1063000    1.2256296  -0.12583442  -0.12583442    1.7126059    1.2671351  -0.12583442    1.8384403   439061 
 1064000     1.224277  -0.12400452  -0.12400452    1.7124068    1.2720735  -0.12400452    1.8364114   439061 
 1065000     1.225578   -0.1249211   -0.1249211    1.7134417    1.2691875   -0.1249211    1.8383628   439061 
 1066000    1.2252612  -0.12414276  -0.12414276    1.7137448     1.271436  -0.12414276    1.8378876   439061 
 1067000    1.2257566  -0.12372573  -0.12372573    1.7149049    1.2730321  -0.12372573    1.8386306   439061 
 1068000     1.225748  -0.12498088  -0.12498088    1.7136369    1.2702957  -0.12498088    1.8386178   439061 
 1069000    1.2248699  -0.12548123  -0.12548123    1.7118194    1.2693519  -0.12548123    1.8373006   439061 
 1070000     1.224431  -0.12543679  -0.12543679    1.7112055    1.2684712  -0.12543679    1.8366423   439061 
 1071000    1.2246199  -0.12524987  -0.12524987    1.7116758    1.2683114  -0.12524987    1.8369257   439061 
 1072000    1.2251645  -0.12601223  -0.12601223    1.7117303    1.2676829  -0.12601223    1.8377425   439061 
 1073000     1.224801  -0.12573165  -0.12573165    1.7114656    1.2660154  -0.12573165    1.8371973   439061 
 1074000    1.2236458  -0.12434987  -0.12434987    1.7111147    1.2697126  -0.12434987    1.8354646   439061 
 1075000    1.2232983  -0.12481246  -0.12481246    1.7101309    1.2691429  -0.12481246    1.8349433   439061 
 1076000    1.2227182  -0.12507871  -0.12507871    1.7089944    1.2677234  -0.12507871    1.8340731   439061 
 1077000    1.2233311  -0.12559493  -0.12559493    1.7093975    1.2657909  -0.12559493    1.8349925   439061 
 1078000    1.2221355  -0.12360786  -0.12360786    1.7095912    1.2702291  -0.12360786     1.833199   439061 
 1079000    1.2216338  -0.12507789  -0.12507789    1.7073687    1.2700613  -0.12507789    1.8324466   439061 
 1080000    1.2223345  -0.12469847  -0.12469847    1.7087991    1.2685703  -0.12469847    1.8334976   439061 
 1081000    1.2230997  -0.12706377  -0.12706377    1.7075816    1.2604329  -0.12706377    1.8346454   439061 
 1082000    1.2216045  -0.12352476  -0.12352476    1.7088778     1.272883  -0.12352476    1.8324026   439061 
 1083000    1.2217065  -0.12443735  -0.12443735    1.7081182    1.2692168  -0.12443735    1.8325556   439061 
 1084000     1.221515  -0.12401641  -0.12401641     1.708252    1.2703703  -0.12401641    1.8322684   439061 
 1085000    1.2234046  -0.12619778  -0.12619778     1.708905    1.2650185  -0.12619778    1.8351028   439061 
 1086000    1.2226451  -0.12576471  -0.12576471    1.7081988    1.2642392  -0.12576471    1.8339635   439061 
 1087000    1.2218708  -0.12513922  -0.12513922    1.7076628    1.2675905  -0.12513922     1.832802   439061 
 1088000     1.222647  -0.12660035  -0.12660035     1.707366    1.2633728  -0.12660035    1.8339663   439061 
 1089000    1.2221956  -0.12583971  -0.12583971    1.7074495    1.2644295  -0.12583971    1.8332892   439061 
 1090000    1.2220335  -0.12608659  -0.12608659    1.7069595    1.2657285  -0.12608659    1.8330461   439061 
 1091000    1.2215961  -0.12539886  -0.12539886    1.7069912    1.2668444  -0.12539886      1.83239   439061 
 1092000    1.2214133  -0.12578532  -0.12578532    1.7063304    1.2660938  -0.12578532    1.8321157   439061 
 1093000    1.2218385  -0.12642566  -0.12642566    1.7063279    1.2636305  -0.12642566    1.8327535   439061 
 1094000    1.2217179  -0.12616997  -0.12616997    1.7064027    1.2630224  -0.12616997    1.8325727   439061 
 1095000    1.2221362  -0.12589212  -0.12589212     1.707308    1.2626307  -0.12589212    1.8332001   439061 
 1096000    1.2208534  -0.12505905  -0.12505905    1.7062169     1.267892  -0.12505905     1.831276   439061 
 1097000    1.2203829  -0.12485006  -0.12485006    1.7057201    1.2672616  -0.12485006    1.8305702   439061 
 1098000    1.2209514   -0.1256522   -0.1256522    1.7057708     1.266216   -0.1256522     1.831423   439061 
 1099000     1.220603  -0.12571382  -0.12571382    1.7051866    1.2663053  -0.12571382    1.8309004   439061 
 1100000    1.2216782  -0.12685116  -0.12685116    1.7056619    1.2618387  -0.12685116    1.8325131   439061 
 1101000    1.2210399   -0.1247234   -0.1247234    1.7068323    1.2674004   -0.1247234    1.8315557   439061 
 1102000    1.2205924  -0.12491048  -0.12491048     1.705974    1.2662925  -0.12491048    1.8308844   439061 
 1103000    1.2211786  -0.12749594  -0.12749594    1.7042678    1.2610485  -0.12749594    1.8317638   439061 
 1104000    1.2199535  -0.12545788  -0.12545788    1.7044683    1.2658707  -0.12545788    1.8299262   439061 
 1105000    1.2194237  -0.12518848  -0.12518848    1.7039429    1.2661032  -0.12518848    1.8291314   439061 
 1106000    1.2201227  -0.12571524  -0.12571524    1.7044646    1.2644829  -0.12571524    1.8301798   439061 
 1107000    1.2189968   -0.1257117   -0.1257117    1.7027794     1.264182   -0.1257117    1.8284911   439061 
 1108000    1.2195876  -0.12680984  -0.12680984    1.7025674    1.2605308  -0.12680984    1.8293772   439061 
 1109000    1.2186362  -0.12521454  -0.12521454    1.7027356    1.2650767  -0.12521454    1.8279501   439061 
 1110000     1.218293  -0.12476779  -0.12476779    1.7026676    1.2665129  -0.12476779    1.8274354   439061 
 1111000    1.2179095  -0.12509868  -0.12509868    1.7017613    1.2657167  -0.12509868      1.82686   439061 
 1112000    1.2193338  -0.12682013  -0.12682013    1.7021764    1.2599846  -0.12682013    1.8289965   439061 
 1113000    1.2185171  -0.12588578  -0.12588578    1.7018857    1.2625141  -0.12588578    1.8277715   439061 
 1114000    1.2187017  -0.12564886  -0.12564886    1.7023995    1.2651916  -0.12564886    1.8280484   439061 
 1115000    1.2194771   -0.1272422   -0.1272422    1.7019692    1.2609565   -0.1272422    1.8292114   439061 
 1116000    1.2186297  -0.12586602  -0.12586602    1.7020744    1.2646715  -0.12586602    1.8279404   439061 
 1117000    1.2179361  -0.12604361  -0.12604361    1.7008564    1.2645039  -0.12604361       1.8269   439061 
 1118000    1.2178114  -0.12589071  -0.12589071    1.7008222    1.2639666  -0.12589071    1.8267129   439061 
 1119000    1.2170343  -0.12601762  -0.12601762    1.6995297     1.263298  -0.12601762    1.8255473   439061 
 1120000    1.2167731  -0.12684352  -0.12684352    1.6983119    1.2611816  -0.12684352    1.8251555   439061 
 1121000    1.2167986  -0.12669906  -0.12669906    1.6984946    1.2605782  -0.12669906    1.8251937   439061 
 1122000    1.2173266  -0.12691821  -0.12691821    1.6990675    1.2617327  -0.12691821    1.8259857   439061 
 1123000    1.2159803   -0.1252294   -0.1252294    1.6987369    1.2642245   -0.1252294    1.8239663   439061 
 1124000    1.2172137  -0.12779218  -0.12779218    1.6980241    1.2571371  -0.12779218    1.8258163   439061 
 1125000     1.216192  -0.12619596  -0.12619596    1.6980879    1.2621671  -0.12619596    1.8242838   439061 
 1126000    1.2159087  -0.12598414  -0.12598414    1.6978748    1.2624961  -0.12598414    1.8238589   439061 
 1127000    1.2168607   -0.1263336   -0.1263336    1.6989533    1.2620145   -0.1263336    1.8252869   439061 
 1128000    1.2169247  -0.12591641  -0.12591641    1.6994664    1.2637347  -0.12591641    1.8253828   439061 
 1129000     1.217833  -0.12761537  -0.12761537    1.6991299    1.2570429  -0.12761537    1.8267453   439061 
 1130000    1.2162876   -0.1261021   -0.1261021    1.6983252    1.2603828   -0.1261021    1.8244273   439061 
 1131000    1.2173973  -0.12703363  -0.12703363    1.6990581    1.2598113  -0.12703363    1.8260918   439061 
 1132000    1.2167937  -0.12763048  -0.12763048    1.6975559    1.2572302  -0.12763048    1.8251864   439061 
 1133000    1.2185877  -0.12823679  -0.12823679    1.6996407    1.2569066  -0.12823679    1.8278775   439061 
 1134000    1.2175403  -0.12791723  -0.12791723     1.698389    1.2587067  -0.12791723    1.8263062   439061 
 1135000    1.2162316  -0.12568745  -0.12568745    1.6986558    1.2617882  -0.12568745    1.8243433   439061 
 1136000    1.2173742  -0.12769232  -0.12769232    1.6983648    1.2588762  -0.12769232    1.8260572   439061 
 1137000    1.2152874  -0.12597585  -0.12597585    1.6969511    1.2620609  -0.12597585    1.8229269   439061 
 1138000     1.215212  -0.12647038  -0.12647038    1.6963435     1.261655  -0.12647038    1.8228139   439061 
 1139000        1.216  -0.12785293  -0.12785293     1.696143    1.2570458  -0.12785293    1.8239959   439061 
 1140000    1.2155194  -0.12817522  -0.12817522    1.6950998    1.2547755  -0.12817522     1.823275   439061 
 1141000    1.2130757  -0.12604765  -0.12604765    1.6935617    1.2613316  -0.12604765    1.8196094   439061 
 1142000    1.2142629  -0.12738238  -0.12738238    1.6940078    1.2582738  -0.12738238    1.8213901   439061 
 1143000    1.2135659  -0.12731895  -0.12731895    1.6930257    1.2567393  -0.12731895    1.8203447   439061 
 1144000    1.2143694  -0.12757039  -0.12757039    1.6939795     1.256598  -0.12757039    1.8215499   439061 
 1145000    1.2135112  -0.12770527  -0.12770527    1.6925574    1.2566106  -0.12770527    1.8202627   439061 
 1146000    1.2141681  -0.12816193  -0.12816193    1.6930861     1.254381  -0.12816193    1.8212481   439061 
 1147000    1.2142781  -0.12772314  -0.12772314    1.6936899     1.257887  -0.12772314    1.8214131   439061 
 1148000    1.2127622   -0.1271323   -0.1271323    1.6920069    1.2581627   -0.1271323    1.8191392   439061 
 1149000    1.2116845  -0.12758503  -0.12758503    1.6899376    1.2556966  -0.12758503    1.8175226   439061 
 1150000    1.2121728  -0.12773654  -0.12773654    1.6905186    1.2534251  -0.12773654    1.8182551   439061 
 1151000    1.2128697   -0.1287233   -0.1287233     1.690577    1.2528507   -0.1287233    1.8193003   439061 
 1152000    1.2123656  -0.12765046  -0.12765046    1.6908938    1.2550829  -0.12765046    1.8185443   439061 
 1153000    1.2117744  -0.12743484  -0.12743484    1.6902227    1.2558455  -0.12743484    1.8176575   439061 
 1154000     1.212363  -0.12857035  -0.12857035      1.68997    1.2533621  -0.12857035    1.8185404   439061 
 1155000    1.2110724   -0.1277073   -0.1277073    1.6888972    1.2537245   -0.1277073    1.8166045   439061 
 1156000    1.2108846  -0.12667407  -0.12667407    1.6896487    1.2573955  -0.12667407    1.8163227   439061 
 1157000    1.2120915   -0.1277133   -0.1277133    1.6904198    1.2566738   -0.1277133     1.818133   439061 
 1158000    1.2123359  -0.12775159  -0.12775159    1.6907481    1.2557905  -0.12775159    1.8184997   439061 
 1159000    1.2113873  -0.12735389  -0.12735389    1.6897229    1.2549399  -0.12735389    1.8170768   439061 
 1160000    1.2118691  -0.12798027  -0.12798027    1.6898193    1.2539245  -0.12798027    1.8177995   439061 
 1161000    1.2109531  -0.12705894  -0.12705894    1.6893665    1.2565516  -0.12705894    1.8164255   439061 
 1162000    1.2110069  -0.12789102  -0.12789102    1.6886153    1.2543942  -0.12789102    1.8165063   439061 
 1163000    1.2106439   -0.1276752   -0.1276752    1.6882866     1.254881   -0.1276752    1.8159618   439061 
 1164000    1.2111277  -0.12870228  -0.12870228    1.6879852    1.2529419  -0.12870228    1.8166874   439061 
 1165000    1.2104993  -0.12778355  -0.12778355    1.6879613    1.2542831  -0.12778355    1.8157448   439061 
 1166000    1.2112689   -0.1276986   -0.1276986    1.6892007    1.2566153   -0.1276986    1.8168993   439061 
 1167000    1.2103533  -0.12726302  -0.12726302    1.6882628    1.2558997  -0.12726302    1.8155258   439061 
 1168000    1.2109045  -0.12868922  -0.12868922    1.6876634     1.251137  -0.12868922    1.8163526   439061 
 1169000    1.2098464  -0.12771442  -0.12771442    1.6870511    1.2548097  -0.12771442    1.8147655   439061 
 1170000    1.2103619  -0.12865919  -0.12865919    1.6868795    1.2523908  -0.12865919    1.8155387   439061 
 1171000    1.2090774  -0.12665546  -0.12665546    1.6869565    1.2558586  -0.12665546    1.8136119   439061 
 1172000    1.2105408  -0.12896282  -0.12896282    1.6868442    1.2512802  -0.12896282     1.815807   439061 
 1173000    1.2118794  -0.12922297  -0.12922297    1.6885921    1.2498547  -0.12922297     1.817815   439061 
 1174000    1.2106675   -0.1274242   -0.1274242    1.6885729    1.2577289   -0.1274242    1.8159971   439061 
 1175000     1.210977  -0.12816348  -0.12816348    1.6882979    1.2530794  -0.12816348    1.8164614   439061 
 1176000    1.2098661  -0.12731696  -0.12731696     1.687478    1.2557217  -0.12731696     1.814795   439061 
 1177000    1.2084153  -0.12737095  -0.12737095    1.6852479    1.2546125  -0.12737095    1.8126189   439061 
 1178000    1.2090902  -0.12787961  -0.12787961    1.6857516    1.2546599  -0.12787961    1.8136312   439061 
 1179000    1.2096643  -0.12965668  -0.12965668    1.6848357    1.2486837  -0.12965668    1.8144924   439061 
 1180000    1.2092803  -0.12783999  -0.12783999    1.6860763    1.2543237  -0.12783999    1.8139163   439061 
 1181000    1.2101081  -0.12836077  -0.12836077    1.6867973    1.2531229  -0.12836077     1.815158   439061 
 1182000    1.2099327  -0.12812378  -0.12812378    1.6867711    1.2551594  -0.12812378    1.8148949   439061 
 1183000    1.2107231  -0.12846305  -0.12846305    1.6876175    1.2524388  -0.12846305    1.8160805   439061 
 1184000    1.2097295   -0.1278677   -0.1278677    1.6867224    1.2534826   -0.1278677    1.8145901   439061 
 1185000    1.2106078  -0.12850872  -0.12850872    1.6873989    1.2519028  -0.12850872    1.8159076   439061 
 1186000    1.2104533  -0.12948992  -0.12948992    1.6861859    1.2494233  -0.12948992    1.8156758   439061 
 1187000    1.2089307  -0.12845247  -0.12845247    1.6849395    1.2510238  -0.12845247     1.813392   439061 
 1188000    1.2084135  -0.12744998  -0.12744998    1.6851661    1.2527196  -0.12744998    1.8126161   439061 
 1189000    1.2083797  -0.12789121  -0.12789121    1.6846742    1.2540884  -0.12789121    1.8125654   439061 
 1190000     1.208098  -0.12822097  -0.12822097    1.6839219    1.2529563  -0.12822097    1.8121429   439061 
 1191000    1.2069401  -0.12754336  -0.12754336    1.6828626    1.2542858  -0.12754336     1.810406   439061 
 1192000    1.2084001  -0.12978182  -0.12978182    1.6828143     1.249038  -0.12978182    1.8125961   439061 
 1193000    1.2074513  -0.12820282  -0.12820282    1.6829701    1.2513625  -0.12820282    1.8111729   439061 
 1194000     1.207305  -0.12845155  -0.12845155    1.6825018    1.2498893  -0.12845155    1.8109534   439061 
 1195000    1.2083443   -0.1270848   -0.1270848    1.6854275    1.2547032   -0.1270848    1.8125123   439061 
 1196000    1.2075746  -0.12806389  -0.12806389    1.6832939    1.2526986  -0.12806389    1.8113578   439061 
 1197000    1.2079173  -0.12845972  -0.12845972    1.6834121    1.2527676  -0.12845972    1.8118719   439061 
 1198000    1.2082291  -0.12910512  -0.12910512    1.6832344    1.2490904  -0.12910512    1.8123395   439061 
 1199000    1.2064861  -0.12676223  -0.12676223    1.6829627    1.2546659  -0.12676223     1.809725   439061 
 1200000     1.206538  -0.12780302  -0.12780302    1.6819999    1.2516681  -0.12780302    1.8098029   439061 
 1201000    1.2065007  -0.12820187  -0.12820187     1.681545    1.2511763  -0.12820187    1.8097469   439061 
 1202000    1.2072048  -0.12865198  -0.12865198    1.6821512    1.2512883  -0.12865198    1.8108031   439061 
 1203000    1.2075293  -0.12948873  -0.12948873    1.6818012    1.2474727  -0.12948873    1.8112899   439061 
 1204000    1.2068776  -0.12845913  -0.12845913    1.6818532    1.2504443  -0.12845913    1.8103123   439061 
 1205000    1.2079007   -0.1287992   -0.1287992    1.6830477    1.2508759   -0.1287992    1.8118469   439061 
 1206000    1.2073086  -0.12883039  -0.12883039    1.6821284    1.2492834  -0.12883039    1.8109588   439061 
 1207000    1.2064363  -0.12824927  -0.12824927    1.6814011    1.2520707  -0.12824927    1.8096503   439061 
 1208000    1.2078649  -0.12899264  -0.12899264    1.6828006    1.2518489  -0.12899264    1.8117932   439061 
 1209000    1.2063826   -0.1267788   -0.1267788    1.6827909    1.2558818   -0.1267788    1.8095697   439061 
 1210000    1.2065855  -0.12945754  -0.12945754    1.6804165    1.2468588  -0.12945754    1.8098741   439061 
 1211000    1.2056711  -0.12856251  -0.12856251    1.6799401    1.2487513  -0.12856251    1.8085026   439061 
 1212000    1.2049269  -0.12843115  -0.12843115    1.6789551    1.2469101  -0.12843115    1.8073863   439061 
 1213000    1.2058435  -0.12924567  -0.12924567    1.6795155    1.2494722  -0.12924567    1.8087612   439061 
 1214000    1.2056477   -0.1294869   -0.1294869    1.6789805     1.248386   -0.1294869    1.8084674   439061 
 1215000    1.2051776  -0.12903478  -0.12903478    1.6787275    1.2489963  -0.12903478    1.8077623   439061 
 1216000    1.2050656  -0.12963097  -0.12963097    1.6779633    1.2471402  -0.12963097    1.8075943   439061 
 1217000    1.2049348  -0.12868079  -0.12868079    1.6787173    1.2514468  -0.12868079    1.8073981   439061 
 1218000    1.2044196  -0.12815225  -0.12815225     1.678473    1.2504713  -0.12815225    1.8066252   439061 
 1219000    1.2052239  -0.12899593  -0.12899593    1.6788358    1.2490446  -0.12899593    1.8078317   439061 
 1220000     1.205591  -0.12920411  -0.12920411    1.6791783    1.2474272  -0.12920411    1.8083824   439061 
 1221000    1.2063717  -0.12942741  -0.12942741     1.680126    1.2492848  -0.12942741    1.8095534   439061 
 1222000    1.2067367  -0.13053266  -0.13053266    1.6795682    1.2446562  -0.13053266    1.8101009   439061 
 1223000    1.2049498  -0.12886693  -0.12886693    1.6785536    1.2491462  -0.12886693    1.8074206   439061 
 1224000    1.2047895  -0.12931492  -0.12931492    1.6778652    1.2475567  -0.12931492    1.8071801   439061 
 1225000    1.2052459  -0.12926857  -0.12926857    1.6785962    1.2476774  -0.12926857    1.8078647   439061 
 1226000    1.2046592  -0.12802825  -0.12802825    1.6789564    1.2500616  -0.12802825    1.8069847   439061 
 1227000    1.2040112  -0.12778867  -0.12778867     1.678224    1.2489801  -0.12778867    1.8060127   439061 
 1228000     1.203995  -0.12853065  -0.12853065    1.6774577    1.2497455  -0.12853065    1.8059883   439061 
 1229000    1.2042673  -0.12880089  -0.12880089    1.6775959    1.2493861  -0.12880089    1.8063968   439061 
 1230000    1.2037975  -0.12904317  -0.12904317     1.676649    1.2478814  -0.12904317    1.8056922   439061 
 1231000    1.2047962  -0.12896783  -0.12896783    1.6782224    1.2478371  -0.12896783    1.8071902   439061 
 1232000    1.2051833  -0.12937462  -0.12937462    1.6783962    1.2459233  -0.12937462    1.8077708   439061 
 1233000     1.205236  -0.12959466  -0.12959466    1.6782553    1.2453264  -0.12959466    1.8078499   439061 
 1234000    1.2042803  -0.12926627  -0.12926627    1.6771501    1.2479946  -0.12926627    1.8064164   439061 
 1235000    1.2038388  -0.12922517  -0.12922517    1.6765289    1.2477132  -0.12922517    1.8057541   439061 
 1236000    1.2038607  -0.13084137  -0.13084137    1.6749455    1.2423694  -0.13084137    1.8057869   439061 
 1237000    1.2024258  -0.12879033  -0.12879033    1.6748442    1.2472431  -0.12879033    1.8036345   439061 
 1238000    1.2031366  -0.12998239  -0.12998239    1.6747184    1.2437443  -0.12998239    1.8047008   439061 
 1239000    1.2034973  -0.13063631  -0.13063631    1.6746055    1.2424392  -0.13063631    1.8052418   439061 
 1240000    1.2024388  -0.12992991  -0.12992991    1.6737241    1.2452414  -0.12992991     1.803654   439061 
 1241000    1.2022071  -0.13002131  -0.13002131    1.6732852     1.243889  -0.13002131    1.8033065   439061 
 1242000    1.2014274  -0.12926264  -0.12926264    1.6728744    1.2455184  -0.12926264     1.802137   439061 
 1243000    1.2016497  -0.12964384  -0.12964384    1.6728266    1.2459169  -0.12964384    1.8024704   439061 
 1244000    1.2023731  -0.13083233  -0.13083233    1.6727232    1.2438261  -0.13083233    1.8035555   439061 
 1245000     1.201545  -0.12866283  -0.12866283    1.6736505    1.2488861  -0.12866283    1.8023134   439061 
 1246000    1.2017148  -0.12872282  -0.12872282    1.6738452    1.2488988  -0.12872282    1.8025681   439061 
 1247000    1.2025707  -0.12959655  -0.12959655    1.6742554     1.244975  -0.12959655    1.8038519   439061 
 1248000    1.2033353  -0.13142427  -0.13142427    1.6735746    1.2418387  -0.13142427    1.8049989   439061 
 1249000     1.201572  -0.12958662  -0.12958662    1.6727673    1.2456134  -0.12958662    1.8023539   439061 
 1250000    1.2002038  -0.12809136  -0.12809136    1.6722102    1.2500879  -0.12809136    1.8003015   439061 
 1251000    1.2004556  -0.12876641  -0.12876641    1.6719128    1.2459414  -0.12876641    1.8006792   439061 
 1252000    1.2011298  -0.12944592  -0.12944592    1.6722447    1.2451353  -0.12944592    1.8016907   439061 
 1253000    1.2005984  -0.12878867  -0.12878867    1.6721048    1.2466499  -0.12878867    1.8008935   439061 
 1254000    1.2014183  -0.13025196  -0.13025196    1.6718713    1.2446036  -0.13025196    1.8021233   439061 
 1255000     1.201377  -0.13010282  -0.13010282    1.6719586    1.2439544  -0.13010282    1.8020614   439061 
 1256000    1.2013292  -0.12961143  -0.12961143    1.6723783    1.2453716  -0.12961143    1.8019897   439061 
 1257000    1.2013303  -0.13002738  -0.13002738     1.671964    1.2426936  -0.13002738    1.8019914   439061 
 1258000    1.2016837  -0.13180965  -0.13180965    1.6707119    1.2382603  -0.13180965    1.8025215   439061 
 1259000    1.2001538  -0.12796218  -0.12796218    1.6722645    1.2487387  -0.12796218    1.8002267   439061 
 1260000    1.2017518  -0.13071574  -0.13071574    1.6719079    1.2418945  -0.13071574    1.8026237   439061 
 1261000    1.2008771  -0.13069887  -0.13069887    1.6706127    1.2403505  -0.13069887    1.8013116   439061 
 1262000    1.2005983  -0.13076301  -0.13076301    1.6701304    1.2431696  -0.13076301    1.8008934   439061 
 1263000    1.2001514  -0.12959794  -0.12959794    1.6706251    1.2449797  -0.12959794     1.800223   439061 
 1264000      1.20032   -0.1307744   -0.1307744    1.6697015      1.24086   -0.1307744    1.8004759   439061 
 1265000    1.2003019  -0.13089794  -0.13089794    1.6695508     1.241243  -0.13089794    1.8004487   439061 
 1266000     1.200106  -0.13023233  -0.13023233    1.6699225    1.2430885  -0.13023233    1.8001549   439061 
 1267000     1.199721  -0.13047411  -0.13047411    1.6691032    1.2431026  -0.13047411    1.7995773   439061 
 1268000    1.1995382  -0.12951025  -0.12951025    1.6697929    1.2451029  -0.12951025    1.7993032   439061 
 1269000    1.2000535  -0.13099839  -0.13099839    1.6690778    1.2401214  -0.13099839    1.8000762   439061 
 1270000    1.1982771  -0.12990312  -0.12990312    1.6675085    1.2424664  -0.12990312    1.7974116   439061 
 1271000    1.2002094  -0.13205548  -0.13205548    1.6682545    1.2364905  -0.13205548      1.80031   439061 
 1272000    1.1991441  -0.12890262  -0.12890262    1.6698094     1.245282  -0.12890262    1.7987121   439061 
 1273000    1.2000949  -0.13059377  -0.13059377    1.6695445       1.2406  -0.13059377    1.8001383   439061 
 1274000    1.1998525  -0.13100536  -0.13100536    1.6687693    1.2400245  -0.13100536    1.7997746   439061 
 1275000    1.1982234  -0.12960347  -0.12960347    1.6677276    1.2422415  -0.12960347    1.7973311   439061 
 1276000    1.1983238  -0.12851292  -0.12851292    1.6689687    1.2450343  -0.12851292    1.7974816   439061 
 1277000    1.1998646   -0.1309559   -0.1309559    1.6688368    1.2398793   -0.1309559    1.7997927   439061 
 1278000    1.1989864  -0.12979547  -0.12979547      1.66868    1.2433823  -0.12979547    1.7984754   439061 
 1279000     1.199212  -0.13037845  -0.13037845    1.6684354    1.2417017  -0.13037845    1.7988139   439061 
 1280000     1.198544  -0.12974789  -0.12974789     1.668064    1.2425895  -0.12974789    1.7978119   439061 
 1281000    1.1990237  -0.12989106  -0.12989106    1.6686404    1.2453732  -0.12989106    1.7985314   439061 
 1282000    1.1988989  -0.13069638  -0.13069638    1.6676479    1.2395135  -0.13069638    1.7983443   439061 
 1283000    1.1996276    -0.130855    -0.130855    1.6685824     1.241197    -0.130855    1.7994374   439061 
 1284000    1.1983584  -0.12956756  -0.12956756    1.6679659    1.2429797  -0.12956756    1.7975335   439061 
 1285000    1.1984038  -0.13082249  -0.13082249    1.6667791    1.2391218  -0.13082249    1.7976016   439061 
 1286000    1.1982265  -0.13042057  -0.13042057    1.6669151    1.2426038  -0.13042057    1.7973357   439061 
 1287000    1.1982666  -0.13122616  -0.13122616    1.6661696    1.2394045  -0.13122616    1.7973958   439061 
 1288000    1.1975411  -0.13048482  -0.13048482    1.6658227    1.2407943  -0.13048482    1.7963075   439061 
 1289000    1.1978628  -0.13240387  -0.13240387    1.6643863    1.2363996  -0.13240387    1.7967902   439061 
 1290000    1.1972302  -0.12998465  -0.12998465    1.6658566    1.2410268  -0.12998465    1.7958413   439061 
 1291000    1.1973884  -0.13018336  -0.13018336    1.6658951    1.2406259  -0.13018336    1.7960785   439061 
 1292000    1.1964891  -0.13031565  -0.13031565     1.664414    1.2430808  -0.13031565    1.7947296   439061 
 1293000    1.1955467  -0.12960704  -0.12960704    1.6637089    1.2434054  -0.12960704     1.793316   439061 
 1294000    1.1970921   -0.1317638   -0.1317638    1.6638703    1.2369415   -0.1317638    1.7956341   439061 
 1295000    1.1963069  -0.13092328  -0.13092328     1.663533    1.2408718  -0.13092328    1.7944563   439061 
 1296000    1.1973689  -0.13185786  -0.13185786    1.6641915     1.237004  -0.13185786    1.7960493   439061 
 1297000    1.1957345   -0.1307385   -0.1307385    1.6628591    1.2383049   -0.1307385    1.7935976   439061 
 1298000    1.1975706  -0.13219191  -0.13219191    1.6641599    1.2370123  -0.13219191    1.7963519   439061 
 1299000    1.1970744  -0.13175645  -0.13175645    1.6638511    1.2376768  -0.13175645    1.7956076   439061 
 1300000    1.1965986  -0.13108773  -0.13108773    1.6638061    1.2368649  -0.13108773    1.7948938   439061 
 1301000    1.1958432  -0.13114585  -0.13114585    1.6626149    1.2383979  -0.13114585    1.7937607   439061 
 1302000    1.1944561  -0.12964213  -0.12964213    1.6620379    1.2414617  -0.12964213    1.7916801   439061 
 1303000    1.1932889   -0.1287413   -0.1287413    1.6611879    1.2440517   -0.1287413    1.7899292   439061 
 1304000    1.1951689  -0.13106416  -0.13106416    1.6616851    1.2378758  -0.13106416    1.7927492   439061 
 1305000    1.1950961  -0.13148371  -0.13148371    1.6611564    1.2364007  -0.13148371    1.7926401   439061 
 1306000    1.1938618  -0.12974031  -0.12974031    1.6610483    1.2418781  -0.12974031    1.7907886   439061 
 1307000    1.1943244  -0.13020381  -0.13020381    1.6612787    1.2399896  -0.13020381    1.7914825   439061 
 1308000    1.1946356  -0.13017144  -0.13017144    1.6617779    1.2414876  -0.13017144    1.7919493   439061 
 1309000    1.1951437  -0.13183889  -0.13183889    1.6608726    1.2360219  -0.13183889    1.7927115   439061 
 1310000    1.1952868  -0.13183646  -0.13183646    1.6610896    1.2342199  -0.13183646    1.7929261   439061 
 1311000    1.1950251  -0.13130591  -0.13130591    1.6612277    1.2366741  -0.13130591    1.7925336   439061 
 1312000    1.1957742  -0.13100292  -0.13100292    1.6626543    1.2374435  -0.13100292    1.7936572   439061 
 1313000    1.1941632  -0.12973942  -0.12973942    1.6615013    1.2410016  -0.12973942    1.7912407   439061 
 1314000    1.1954336  -0.13088114  -0.13088114    1.6622651    1.2382959  -0.13088114    1.7931463   439061 
 1315000    1.1942241  -0.12867624  -0.12867624    1.6626558    1.2422951  -0.12867624     1.791332   439061 
 1316000    1.1941292   -0.1310871   -0.1310871    1.6601026     1.237873   -0.1310871    1.7911897   439061 
 1317000    1.1935847   -0.1297915   -0.1297915    1.6605815    1.2400432   -0.1297915     1.790373   439061 
 1318000    1.1939692  -0.13075256  -0.13075256    1.6601972    1.2376192  -0.13075256    1.7909498   439061 
 1319000     1.194281  -0.13059493  -0.13059493    1.6608225    1.2397153  -0.13059493    1.7914174   439061 
 1320000    1.1941129   -0.1314083   -0.1314083     1.659757    1.2366672   -0.1314083    1.7911653   439061 
 1321000    1.1937531  -0.13124528  -0.13124528    1.6593803    1.2356604  -0.13124528    1.7906256   439061 
 1322000    1.1930263  -0.13021248  -0.13021248    1.6593229    1.2392168  -0.13021248    1.7895353   439061 
 1323000      1.19378  -0.13272394  -0.13272394    1.6579419    1.2319752  -0.13272394    1.7906659   439061 
 1324000    1.1932197  -0.13169036  -0.13169036    1.6581352    1.2342377  -0.13169036    1.7898255   439061 
 1325000    1.1932556  -0.13070443  -0.13070443    1.6591748    1.2382374  -0.13070443    1.7898793   439061 
 1326000    1.1920618  -0.12944364  -0.12944364    1.6586451    1.2413031  -0.12944364    1.7880887   439061 
 1327000    1.1921238  -0.13057802  -0.13057802    1.6576037    1.2377116  -0.13057802    1.7881817   439061 
 1328000    1.1925155  -0.13076721  -0.13076721     1.658002    1.2361533  -0.13076721    1.7887692   439061 
 1329000    1.1927419  -0.13182824  -0.13182824    1.6572805    1.2355774  -0.13182824    1.7891088   439061 
 1330000    1.1925501  -0.13164552  -0.13164552    1.6571755    1.2344911  -0.13164552     1.788821   439061 
 1331000    1.1934843  -0.13237624  -0.13237624    1.6578461    1.2335424  -0.13237624    1.7902224   439061 
 1332000    1.1920646  -0.13078935  -0.13078935    1.6573034    1.2376961  -0.13078935    1.7880928   439061 
 1333000    1.1926747  -0.13228216  -0.13228216    1.6567258    1.2331536  -0.13228216     1.789008   439061 
 1334000     1.192353  -0.13224182  -0.13224182    1.6562837    1.2338731  -0.13224182    1.7885255   439061 
 1335000    1.1913268  -0.13290344  -0.13290344    1.6540826    1.2306437  -0.13290344    1.7869861   439061 
 1336000    1.1914384  -0.13328252  -0.13328252    1.6538711       1.2304  -0.13328252    1.7871536   439061 
 1337000    1.1906261  -0.13187419  -0.13187419    1.6540608     1.233917  -0.13187419     1.785935   439061 
 1338000    1.1896721  -0.13088806  -0.13088806    1.6536161    1.2354363  -0.13088806    1.7845041   439061 
 1339000    1.1896368  -0.13002892  -0.13002892    1.6544222     1.237915  -0.13002892    1.7844512   439061 
 1340000    1.1908692  -0.13073945  -0.13073945    1.6555603    1.2370089  -0.13073945    1.7862997   439061 
 1341000    1.1916408  -0.13132285  -0.13132285    1.6561343    1.2354395  -0.13132285    1.7874571   439061 
 1342000    1.1921056   -0.1313454   -0.1313454    1.6568089     1.234783   -0.1313454    1.7881543   439061 
 1343000    1.1925969  -0.13290324  -0.13290324    1.6559881    1.2321703  -0.13290324    1.7888913   439061 
 1344000    1.1916158  -0.13281715  -0.13281715    1.6546025    1.2312108  -0.13281715    1.7874197   439061 
 1345000    1.1904859  -0.13128466  -0.13128466    1.6544401    1.2339552  -0.13128466    1.7857247   439061 
 1346000    1.1921565  -0.13281148  -0.13281148    1.6554191    1.2332504  -0.13281148    1.7882306   439061 
 1347000    1.1898736  -0.12983715  -0.12983715    1.6549692    1.2400703  -0.12983715    1.7848063   439061 
 1348000    1.1907148  -0.13124984  -0.13124984    1.6548182     1.235921  -0.13124984    1.7860681   439061 
 1349000     1.190184  -0.13070579  -0.13070579    1.6545662      1.23564  -0.13070579     1.785272   439061 
 1350000    1.1897072  -0.13049456  -0.13049456    1.6540622    1.2380636  -0.13049456    1.7845567   439061 
 1351000    1.1915317  -0.13274248  -0.13274248     1.654551    1.2297297  -0.13274248    1.7872935   439061 
 1352000    1.1899515  -0.13151614  -0.13151614     1.653407    1.2340346  -0.13151614    1.7849232   439061 
 1353000     1.188274  -0.13086318  -0.13086318    1.6515437    1.2352922  -0.13086318    1.7824069   439061 
 1354000    1.1891787   -0.1319023   -0.1319023    1.6518616    1.2327324   -0.1319023    1.7837639   439061 
 1355000    1.1897196  -0.13256894  -0.13256894    1.6520064    1.2315789  -0.13256894    1.7845753   439061 
 1356000    1.1886098  -0.13158674  -0.13158674    1.6513239    1.2341363  -0.13158674    1.7829107   439061 
 1357000    1.1887131  -0.13240632  -0.13240632    1.6506593    1.2312464  -0.13240632    1.7830656   439061 
 1358000    1.1892278  -0.13273584  -0.13273584    1.6511019    1.2308493  -0.13273584    1.7838377   439061 
 1359000    1.1900604  -0.13353452  -0.13353452     1.651552    1.2295376  -0.13353452    1.7850865   439061 
 1360000    1.1901171  -0.13341598  -0.13341598    1.6517556    1.2277623  -0.13341598    1.7851716   439061 
 1361000     1.189101   -0.1322057   -0.1322057    1.6514418    1.2325124   -0.1322057    1.7836475   439061 
 1362000    1.1896269  -0.13289568  -0.13289568    1.6515406    1.2307222  -0.13289568    1.7844363   439061 
 1363000     1.187975  -0.13087642  -0.13087642     1.651082    1.2365536  -0.13087642    1.7819584   439061 
 1364000    1.1897855  -0.13405515  -0.13405515     1.650619    1.2257821  -0.13405515    1.7846741   439061 
 1365000     1.188427  -0.13243124  -0.13243124    1.6502052    1.2310539  -0.13243124    1.7826364   439061 
 1366000    1.1895926  -0.13266554  -0.13266554    1.6517193    1.2297614  -0.13266554    1.7843848   439061 
 1367000    1.1880675  -0.13149397  -0.13149397    1.6506033    1.2340289  -0.13149397    1.7820973   439061 
 1368000    1.1880969   -0.1317624   -0.1317624    1.6503789     1.231604   -0.1317624    1.7821413   439061 
 1369000    1.1897129  -0.13271994  -0.13271994    1.6518453    1.2313168  -0.13271994    1.7845652   439061 
 1370000    1.1889077  -0.13200779  -0.13200779    1.6513497    1.2330887  -0.13200779    1.7833575   439061 
 1371000    1.1898743  -0.13304803  -0.13304803    1.6517593    1.2297616  -0.13304803    1.7848073   439061 
 1372000    1.1886097  -0.13204598  -0.13204598    1.6508646    1.2321848  -0.13204598    1.7829105   439061 
 1373000    1.1874685  -0.13029307  -0.13029307    1.6509056    1.2360001  -0.13029307    1.7811987   439061 
 1374000    1.1891259  -0.13347731  -0.13347731    1.6502074    1.2283229  -0.13347731    1.7836848   439061 
 1375000    1.1879417  -0.13223924  -0.13223924    1.6496692    1.2302484  -0.13223924    1.7819084   439061 
 1376000    1.1884386  -0.13178564  -0.13178564    1.6508683    1.2340114  -0.13178564    1.7826539   439061 
 1377000    1.1865339  -0.12975063  -0.12975063    1.6500462    1.2384351  -0.12975063    1.7797969   439061 
 1378000    1.1886022    -0.132727    -0.132727    1.6501723    1.2308196    -0.132727    1.7828993   439061 
 1379000    1.1882629  -0.13222753  -0.13222753    1.6501627    1.2311033  -0.13222753    1.7823903   439061 
 1380000    1.1870173  -0.13254216  -0.13254216    1.6479798    1.2289476  -0.13254216    1.7805219   439061 
 1381000    1.1866335  -0.13214436  -0.13214436    1.6478018    1.2314745  -0.13214436    1.7799462   439061 
 1382000    1.1865262  -0.13199484  -0.13199484    1.6477904    1.2297575  -0.13199484    1.7797852   439061 
 1383000    1.1868772  -0.13238877  -0.13238877     1.647923    1.2305453  -0.13238877    1.7803118   439061 
 1384000    1.1871731   -0.1330525   -0.1330525    1.6477031    1.2276109   -0.1330525    1.7807556   439061 
 1385000     1.186737  -0.13169662  -0.13169662    1.6484048    1.2320955  -0.13169662    1.7801014   439061 
 1386000    1.1876987  -0.13242271  -0.13242271    1.6491212    1.2309626  -0.13242271    1.7815439   439061 
 1387000    1.1876842   -0.1327261   -0.1327261    1.6487962    1.2307645   -0.1327261    1.7815223   439061 
 1388000     1.186875  -0.13207928  -0.13207928    1.6482292    1.2296774  -0.13207928    1.7803085   439061 
 1389000    1.1875358  -0.13323497  -0.13323497    1.6480647    1.2281748  -0.13323497    1.7812996   439061 
 1390000    1.1854162  -0.13138658  -0.13138658    1.6467337    1.2328568  -0.13138658    1.7781203   439061 
 1391000    1.1867559  -0.13272681  -0.13272681     1.647403    1.2297289  -0.13272681    1.7801298   439061 
 1392000    1.1871292  -0.13427611  -0.13427611    1.6464136    1.2243435  -0.13427611    1.7806897   439061 
 1393000    1.1859696  -0.13260449  -0.13260449    1.6463459    1.2315337  -0.13260449    1.7789504   439061 
 1394000    1.1865901  -0.13310219  -0.13310219     1.646779    1.2279876  -0.13310219    1.7798812   439061 
 1395000    1.1866818  -0.13259449  -0.13259449    1.6474242    1.2315237  -0.13259449    1.7800187   439061 
 1396000    1.1865491  -0.13310587  -0.13310587    1.6467138    1.2284882  -0.13310587    1.7798197   439061 
 1397000    1.1858479   -0.1326619   -0.1326619    1.6461059    1.2295233   -0.1326619    1.7787678   439061 
 1398000    1.1854238  -0.13255068  -0.13255068     1.645581    1.2285016  -0.13255068    1.7781316   439061 
 1399000    1.1858073  -0.13298957  -0.13298957    1.6457173    1.2280438  -0.13298957    1.7787069   439061 
 1400000    1.1875202  -0.13383159  -0.13383159    1.6474447    1.2254294  -0.13383159    1.7812763   439061 
 1401000     1.186144  -0.13395795  -0.13395795     1.645254    1.2260601  -0.13395795    1.7792119   439061 
 1402000    1.1845697  -0.13175541  -0.13175541     1.645095    1.2302028  -0.13175541    1.7768505   439061 
 1403000    1.1859649  -0.13368553  -0.13368553    1.6452577    1.2252789  -0.13368553    1.7789432   439061 
 1404000     1.185611  -0.13298458  -0.13298458    1.6454279    1.2283999  -0.13298458    1.7784125   439061 
 1405000    1.1851214  -0.13294475  -0.13294475    1.6447333    1.2296307  -0.13294475     1.777678   439061 
 1406000    1.1837549   -0.1321492   -0.1321492    1.6434791    1.2296012   -0.1321492    1.7756283   439061 
 1407000    1.1834129  -0.13269523  -0.13269523    1.6424201    1.2270894  -0.13269523    1.7751153   439061 
 1408000    1.1849053  -0.13278212  -0.13278212    1.6445717    1.2281678  -0.13278212    1.7773539   439061 
 1409000    1.1848156  -0.13262167  -0.13262167    1.6445976    1.2294437  -0.13262167    1.7772193   439061 
 1410000    1.1851356  -0.13270551  -0.13270551    1.6449938     1.229212  -0.13270551    1.7776993   439061 
 1411000    1.1861207  -0.13429526  -0.13429526    1.6448818    1.2241924  -0.13429526     1.779177   439061 
 1412000    1.1850548  -0.13297706  -0.13297706     1.644601    1.2290092  -0.13297706    1.7775781   439061 
 1413000    1.1852861  -0.13363949  -0.13363949    1.6442856    1.2259827  -0.13363949     1.777925   439061 
 1414000    1.1842654  -0.13380015  -0.13380015    1.6425939    1.2246819  -0.13380015    1.7763941   439061 
 1415000    1.1845738  -0.13291201  -0.13291201    1.6439447    1.2269724  -0.13291201    1.7768567   439061 
 1416000    1.1849426  -0.13383676  -0.13383676    1.6435732    1.2255807  -0.13383676    1.7774099   439061 
 1417000    1.1848574  -0.13245553  -0.13245553    1.6448265    1.2294735  -0.13245553    1.7772821   439061 
 1418000    1.1837012  -0.13185629  -0.13185629    1.6436915     1.229749  -0.13185629    1.7755478   439061 
 1419000    1.1839767  -0.13167993  -0.13167993    1.6442811    1.2302581  -0.13167993     1.775961   439061 
 1420000    1.1851064  -0.13263913  -0.13263913    1.6450164    1.2293567  -0.13263913    1.7776555   439061 
 1421000    1.1852303  -0.13442308  -0.13442308    1.6434184    1.2234727  -0.13442308    1.7778415   439061 
 1422000    1.1843876  -0.13328027  -0.13328027    1.6432971    1.2259234  -0.13328027    1.7765773   439061 
 1423000    1.1840086  -0.13286544  -0.13286544    1.6431434    1.2263074  -0.13286544    1.7760088   439061 
 1424000      1.18392  -0.13363052  -0.13363052    1.6422455    1.2244928  -0.13363052     1.775876   439061 
 1425000    1.1832577  -0.13261569  -0.13261569    1.6422668    1.2287892  -0.13261569    1.7748825   439061 
 1426000    1.1838378  -0.13376992  -0.13376992    1.6419827    1.2251311  -0.13376992    1.7757526   439061 
 1427000    1.1841761  -0.13411124  -0.13411124    1.6421488     1.224922  -0.13411124    1.7762601   439061 
 1428000    1.1825827  -0.13199822  -0.13199822    1.6418717    1.2310702  -0.13199822      1.77387   439061 
 1429000    1.1839347  -0.13461531  -0.13461531    1.6412827    1.2225462  -0.13461531     1.775898   439061 
 1430000    1.1843957  -0.13484854  -0.13484854    1.6417409    1.2215353  -0.13484854    1.7765895   439061 
 1431000    1.1838908  -0.13336949  -0.13336949    1.6424627    1.2272337  -0.13336949    1.7758321   439061 
 1432000    1.1835711  -0.13337643  -0.13337643    1.6419762    1.2273915  -0.13337643    1.7753527   439061 
 1433000    1.1831952  -0.13343522  -0.13343522    1.6413536    1.2283027  -0.13343522    1.7747888   439061 
 1434000    1.1826684  -0.13275102  -0.13275102    1.6412476     1.228082  -0.13275102    1.7739986   439061 
 1435000    1.1820006  -0.13225191  -0.13225191    1.6407449    1.2280888  -0.13225191    1.7729968   439061 
 1436000    1.1829935  -0.13389794  -0.13389794    1.6405883    1.2246786  -0.13389794    1.7744863   439061 
 1437000    1.1829248  -0.13386692  -0.13386692    1.6405162    1.2243438  -0.13386692    1.7743831   439061 
 1438000    1.1815932  -0.13251703  -0.13251703    1.6398687     1.226906  -0.13251703    1.7723857   439061 
 1439000    1.1822082   -0.1329259   -0.1329259    1.6403824    1.2281278   -0.1329259    1.7733082   439061 
 1440000    1.1831777  -0.13326939  -0.13326939    1.6414931    1.2271545  -0.13326939    1.7747625   439061 
 1441000    1.1831735  -0.13376012  -0.13376012    1.6409961    1.2235284  -0.13376012    1.7747562   439061 
 1442000    1.1833617  -0.13293358  -0.13293358    1.6421049    1.2272671  -0.13293358    1.7750385   439061 
 1443000    1.1840767  -0.13400996  -0.13400996     1.642101    1.2233683  -0.13400996     1.776111   439061 
 1444000    1.1832656  -0.13415984  -0.13415984    1.6407345    1.2241355  -0.13415984    1.7748944   439061 
 1445000    1.1817888  -0.13363221  -0.13363221     1.639047    1.2254555  -0.13363221    1.7726792   439061 
 1446000    1.1809774   -0.1330682   -0.1330682    1.6383939    1.2249388   -0.1330682    1.7714621   439061 
 1447000    1.1813524  -0.13300354  -0.13300354    1.6390211    1.2261904  -0.13300354    1.7720246   439061 
 1448000    1.1823802  -0.13456722  -0.13456722    1.6389991    1.2241572  -0.13456722    1.7735663   439061 
 1449000    1.1812481  -0.13393427  -0.13393427    1.6379338     1.222321  -0.13393427    1.7718681   439061 
 1450000    1.1815869  -0.13366162  -0.13366162    1.6387148    1.2241325  -0.13366162    1.7723764   439061 
 1451000    1.1813302  -0.13325074  -0.13325074    1.6387405    1.2263942  -0.13325074    1.7719912   439061 
 1452000    1.1816507  -0.13501278  -0.13501278    1.6374592    1.2200907  -0.13501278     1.772472   439061 
 1453000    1.1810499  -0.13367923  -0.13367923    1.6378915    1.2250659  -0.13367923    1.7715707   439061 
 1454000    1.1814573  -0.13305197  -0.13305197      1.63913    1.2271617  -0.13305197    1.7721819   439061 
 1455000    1.1803767  -0.13224689  -0.13224689    1.6383141    1.2281694  -0.13224689     1.770561   439061 
 1456000    1.1817593  -0.13380361  -0.13380361    1.6388314    1.2219588  -0.13380361     1.772635   439061 
 1457000    1.1819255  -0.13345466  -0.13345466    1.6394295    1.2229124  -0.13345466    1.7728842   439061 
 1458000    1.1824521  -0.13462691  -0.13462691    1.6390472     1.222517  -0.13462691    1.7736741   439061 
 1459000    1.1809327  -0.13173971  -0.13173971    1.6396553    1.2283255  -0.13173971    1.7713951   439061 
 1460000    1.1817962  -0.13318658  -0.13318658    1.6395036    1.2253916  -0.13318658    1.7726902   439061 
 1461000    1.1815922  -0.13270242  -0.13270242    1.6396818    1.2255806  -0.13270242    1.7723842   439061 
 1462000    1.1823142  -0.13317696  -0.13317696    1.6402904    1.2246738  -0.13317696    1.7734673   439061 
 1463000    1.1823014  -0.13417486  -0.13417486    1.6392732    1.2222483  -0.13417486     1.773448   439061 
 1464000    1.1809177  -0.13290257  -0.13290257    1.6384699    1.2250923  -0.13290257    1.7713725   439061 
 1465000     1.179926  -0.13329429  -0.13329429    1.6365906    1.2234931  -0.13329429    1.7698849   439061 
 1466000    1.1802376   -0.1341572   -0.1341572    1.6361951    1.2226769   -0.1341572    1.7703523   439061 
 1467000    1.1809597  -0.13515829  -0.13515829    1.6362772    1.2191716  -0.13515829    1.7714355   439061 
 1468000    1.1791561  -0.13322531  -0.13322531    1.6355048    1.2246196  -0.13322531    1.7687301   439061 
 1469000    1.1806666  -0.13472476  -0.13472476    1.6362711    1.2222772  -0.13472476    1.7709959   439061 
 1470000    1.1799905  -0.13440161  -0.13440161    1.6355801    1.2221455  -0.13440161    1.7699817   439061 
 1471000    1.1803837  -0.13503619  -0.13503619    1.6355353     1.220938  -0.13503619    1.7705715   439061 
 1472000    1.1794935  -0.13487656  -0.13487656    1.6343596    1.2218583  -0.13487656    1.7692362   439061 
 1473000    1.1789859  -0.13431534  -0.13431534    1.6341595    1.2225663  -0.13431534    1.7684748   439061 
 1474000    1.1797169  -0.13508185  -0.13508185    1.6344895    1.2187936  -0.13508185    1.7695713   439061 
 1475000    1.1788324  -0.13364165  -0.13364165     1.634603     1.221031  -0.13364165    1.7682446   439061 
 1476000    1.1803231  -0.13467754  -0.13467754     1.635803    1.2206407  -0.13467754    1.7704806   439061 
 1477000     1.179418  -0.13436514  -0.13436514    1.6347578     1.221533  -0.13436514     1.769123   439061 
 1478000    1.1784854   -0.1338077   -0.1338077    1.6339164      1.22279   -0.1338077    1.7677241   439061 
 1479000    1.1784243  -0.13453941  -0.13453941    1.6330931    1.2201187  -0.13453941    1.7676325   439061 
 1480000    1.1779269   -0.1334642   -0.1334642    1.6334221    1.2220399   -0.1334642    1.7668863   439061 
 1481000    1.1787836  -0.13476115  -0.13476115    1.6334102     1.220377  -0.13476115    1.7681713   439061 
 1482000    1.1789434  -0.13572958  -0.13572958    1.6326815    1.2177228  -0.13572958    1.7684111   439061 
 1483000    1.1778997  -0.13382943  -0.13382943    1.6330161    1.2221992  -0.13382943    1.7668455   439061 
 1484000     1.178533  -0.13278447  -0.13278447     1.635011     1.224327  -0.13278447    1.7677955   439061 
 1485000    1.1792113  -0.13391641  -0.13391641    1.6348965    1.2224186  -0.13391641    1.7688129   439061 
 1486000    1.1792372  -0.13464611  -0.13464611    1.6342057    1.2196508  -0.13464611    1.7688518   439061 
 1487000    1.1787539  -0.13458233  -0.13458233    1.6335445    1.2202163  -0.13458233    1.7681268   439061 
 1488000    1.1781108  -0.13324352  -0.13324352    1.6339187     1.222107  -0.13324352    1.7671622   439061 
 1489000    1.1784807  -0.13358588  -0.13358588    1.6341312    1.2238367  -0.13358588    1.7677171   439061 
 1490000     1.178872   -0.1337567   -0.1337567    1.6345473    1.2234875   -0.1337567     1.768304   439061 
 1491000    1.1806329  -0.13545265  -0.13545265    1.6354927    1.2191201  -0.13545265    1.7709454   439061 
 1492000     1.179132  -0.13487439  -0.13487439    1.6338196    1.2203601  -0.13487439     1.768694   439061 
 1493000    1.1788375   -0.1343807   -0.1343807    1.6338716     1.219169   -0.1343807    1.7682523   439061 
 1494000    1.1779675  -0.13437062  -0.13437062    1.6325766    1.2212257  -0.13437062    1.7669472   439061 
 1495000    1.1785889  -0.13538234  -0.13538234    1.6324971    1.2186525  -0.13538234    1.7678794   439061 
 1496000    1.1782968  -0.13505281  -0.13505281    1.6323883     1.219852  -0.13505281    1.7674412   439061 
 1497000     1.177495  -0.13449747  -0.13449747     1.631741    1.2191661  -0.13449747    1.7662385   439061 
 1498000    1.1787619  -0.13657645  -0.13657645    1.6315624    1.2143488  -0.13657645    1.7681388   439061 
 1499000    1.1770515  -0.13609786  -0.13609786    1.6294754    1.2143881  -0.13609786    1.7655733   439061 
 1500000    1.1770087  -0.13553054  -0.13553054    1.6299784    1.2178928  -0.13553054     1.765509   439061 
 1501000     1.175957  -0.13428699  -0.13428699    1.6296444    1.2201156  -0.13428699    1.7639314   439061 
 1502000    1.1766268  -0.13602798  -0.13602798    1.6289082    1.2153318  -0.13602798    1.7649362   439061 
 1503000    1.1755811  -0.13346001  -0.13346001    1.6299077     1.222793  -0.13346001    1.7633677   439061 
 1504000    1.1765638   -0.1339887   -0.1339887    1.6308529    1.2215047   -0.1339887    1.7648416   439061 
 1505000    1.1767584  -0.13453715  -0.13453715    1.6305965    1.2201306  -0.13453715    1.7651336   439061 
 1506000    1.1767796   -0.1354324   -0.1354324     1.629733     1.218405   -0.1354324    1.7651654   439061 
 1507000    1.1764263   -0.1342101   -0.1342101    1.6304254    1.2207943   -0.1342101    1.7646355   439061 
 1508000    1.1772554  -0.13446326  -0.13446326    1.6314158    1.2198634  -0.13446326    1.7658791   439061 
 1509000    1.1770558  -0.13548325  -0.13548325    1.6300964    1.2187018  -0.13548325    1.7655797   439061 
 1510000    1.1765117  -0.13326134  -0.13326134    1.6315022    1.2244427  -0.13326134    1.7647635   439061 
 1511000    1.1777128  -0.13583935  -0.13583935    1.6307259     1.217634  -0.13583935    1.7665652   439061 
 1512000    1.1769561  -0.13449754  -0.13449754    1.6309326    1.2189743  -0.13449754    1.7654302   439061 
 1513000    1.1776166  -0.13572419  -0.13572419    1.6306966    1.2168318  -0.13572419    1.7664208   439061 
 1514000    1.1763578  -0.13453605  -0.13453605    1.6299966    1.2193097  -0.13453605    1.7645326   439061 
 1515000    1.1767416  -0.13631388  -0.13631388    1.6287946    1.2138344  -0.13631388    1.7651084   439061 
 1516000    1.1754489  -0.13333886  -0.13333886    1.6298305    1.2226453  -0.13333886    1.7631694   439061 
 1517000    1.1756105  -0.13417123  -0.13417123    1.6292406    1.2200622  -0.13417123    1.7634118   439061 
 1518000    1.1772425  -0.13536201  -0.13536201    1.6304976    1.2185573  -0.13536201    1.7658597   439061 
 1519000    1.1770316  -0.13480548  -0.13480548    1.6307379    1.2183803  -0.13480548    1.7655434   439061 
 1520000    1.1751997  -0.13396219  -0.13396219    1.6288333    1.2196531  -0.13396219    1.7627955   439061 
 1521000    1.1770301  -0.13573865  -0.13573865    1.6298024    1.2171794  -0.13573865    1.7655411   439061 
 1522000    1.1769174  -0.13554428  -0.13554428    1.6298278    1.2163156  -0.13554428    1.7653721   439061 
 1523000    1.1755589  -0.13453803  -0.13453803    1.6287963    1.2187959  -0.13453803    1.7633343   439061 
 1524000    1.1754742  -0.13474235  -0.13474235    1.6284649     1.218364  -0.13474235    1.7632072   439061 
 1525000    1.1759773  -0.13462017  -0.13462017    1.6293418    1.2199446  -0.13462017     1.763962   439061 
 1526000    1.1760912  -0.13536909  -0.13536909    1.6287637    1.2165103  -0.13536909    1.7641328   439061 
 1527000    1.1758875  -0.13563409  -0.13563409    1.6281932    1.2171373  -0.13563409    1.7638273   439061 
 1528000    1.1764933  -0.13521231  -0.13521231    1.6295237    1.2173337  -0.13521231     1.764736   439061 
 1529000    1.1762934  -0.13508193  -0.13508193    1.6293541    1.2176712  -0.13508193     1.764436   439061 
 1530000    1.1767163  -0.13578857  -0.13578857    1.6292818    1.2162167  -0.13578857    1.7650704   439061 
 1531000    1.1755732  -0.13546767  -0.13546767    1.6278881    1.2158201  -0.13546767    1.7633558   439061 
 1532000    1.1751537  -0.13487954  -0.13487954     1.627847    1.2188488  -0.13487954    1.7627266   439061 
 1533000    1.1753358   -0.1356283   -0.1356283    1.6273714    1.2152085   -0.1356283    1.7629997   439061 
 1534000    1.1753845  -0.13464505  -0.13464505    1.6284277     1.218387  -0.13464505    1.7630728   439061 
 1535000    1.1758752  -0.13529495  -0.13529495    1.6285138    1.2167377  -0.13529495    1.7638088   439061 
 1536000     1.175598  -0.13491361  -0.13491361    1.6284793    1.2175348  -0.13491361    1.7633929   439061 
 1537000    1.1758905  -0.13578437  -0.13578437    1.6280474    1.2158331  -0.13578437    1.7638317   439061 
 1538000    1.1757929  -0.13387913  -0.13387913    1.6298062    1.2202263  -0.13387913    1.7636853   439061 
 1539000    1.1760608  -0.13569572  -0.13569572    1.6283915    1.2158944  -0.13569572    1.7640872   439061 
 1540000    1.1753759  -0.13506419  -0.13506419    1.6279956     1.218721  -0.13506419    1.7630598   439061 
 1541000    1.1750882  -0.13506348  -0.13506348    1.6275648    1.2184181  -0.13506348    1.7626283   439061 
 1542000    1.1751768  -0.13543314  -0.13543314    1.6273281    1.2166381  -0.13543314    1.7627612   439061 
 1543000     1.174937  -0.13571326  -0.13571326    1.6266882     1.214734  -0.13571326    1.7624015   439061 
 1544000    1.1738718  -0.13429803  -0.13429803    1.6265057    1.2187156  -0.13429803    1.7608037   439061 
 1545000    1.1749375  -0.13493796  -0.13493796    1.6274643    1.2199768  -0.13493796    1.7624022   439061 
 1546000    1.1747883  -0.13527609  -0.13527609    1.6269024    1.2164446  -0.13527609    1.7621785   439061 
 1547000    1.1740028  -0.13425242  -0.13425242    1.6267478    1.2191695  -0.13425242    1.7610002   439061 
 1548000    1.1743756  -0.13478878  -0.13478878    1.6267706    1.2183213  -0.13478878    1.7615594   439061 
 1549000    1.1748271  -0.13593076  -0.13593076    1.6263059    1.2137622  -0.13593076    1.7622367   439061 
 1550000    1.1737457  -0.13463178  -0.13463178    1.6259828    1.2183416  -0.13463178    1.7606146   439061 
 1551000    1.1752327  -0.13641477  -0.13641477    1.6264302    1.2139491  -0.13641477     1.762845   439061 
 1552000      1.17442  -0.13496316  -0.13496316    1.6266629    1.2158546  -0.13496316    1.7616261   439061 
 1553000    1.1747799     -0.13569     -0.13569    1.6264758    1.2169258     -0.13569    1.7621658   439061 
 1554000    1.1755315  -0.13646876  -0.13646876    1.6268244    1.2150723  -0.13646876    1.7632932   439061 
 1555000    1.1749428  -0.13542191  -0.13542191    1.6269883    1.2153005  -0.13542191    1.7624102   439061 
 1556000    1.1746301  -0.13539126  -0.13539126    1.6265498    1.2167024  -0.13539126    1.7619411   439061 
 1557000    1.1738416  -0.13418322  -0.13418322    1.6265752    1.2189019  -0.13418322    1.7607584   439061 
 1558000    1.1752716  -0.13615141  -0.13615141    1.6267519    1.2152639  -0.13615141    1.7629033   439061 
 1559000    1.1746978  -0.13552268  -0.13552268      1.62652    1.2162387  -0.13552268    1.7620426   439061 
 1560000    1.1742391  -0.13558588  -0.13558588    1.6257688    1.2159847  -0.13558588    1.7613546   439061 
 1561000    1.1740672  -0.13529483  -0.13529483     1.625802    1.2146884  -0.13529483    1.7610968   439061 
 1562000    1.1741211  -0.13455259  -0.13455259     1.626625    1.2187035  -0.13455259    1.7611776   439061 
 1563000    1.1738291  -0.13638062  -0.13638062     1.624359     1.213491  -0.13638062    1.7607396   439061 
 1564000    1.1748936  -0.13673548  -0.13673548    1.6256009    1.2131962  -0.13673548    1.7623364   439061 
 1565000    1.1742177  -0.13661147  -0.13661147     1.624711    1.2132869  -0.13661147    1.7613225   439061 
 1566000    1.1730347  -0.13554566  -0.13554566    1.6240025    1.2145372  -0.13554566    1.7595481   439061 
 1567000     1.172649  -0.13452309  -0.13452309    1.6244463    1.2170945  -0.13452309    1.7589694   439061 
 1568000    1.1736091  -0.13641561  -0.13641561    1.6239941    1.2139131  -0.13641561    1.7604097   439061 
 1569000     1.173491  -0.13614364  -0.13614364    1.6240889    1.2138562  -0.13614364    1.7602325   439061 
 1570000    1.1737653  -0.13573761  -0.13573761    1.6249063    1.2147245  -0.13573761    1.7606439   439061 
 1571000    1.1738419  -0.13656189  -0.13656189    1.6241969    1.2125752  -0.13656189    1.7607588   439061 
 1572000    1.1733556  -0.13643196  -0.13643196    1.6235975    1.2127036  -0.13643196    1.7600294   439061 
 1573000    1.1727951  -0.13561694  -0.13561694    1.6235717    1.2132027  -0.13561694    1.7591886   439061 
 1574000    1.1725608  -0.13605634  -0.13605634    1.6227808    1.2144827  -0.13605634    1.7588372   439061 
 1575000    1.1719614  -0.13605002  -0.13605002     1.621888    1.2139338  -0.13605002     1.757938   439061 
 1576000    1.1721727  -0.13543962  -0.13543962    1.6228154    1.2163571  -0.13543962     1.758255   439061 
 1577000    1.1724791  -0.13645366  -0.13645366     1.622261    1.2144436  -0.13645366    1.7587146   439061 
 1578000    1.1710065  -0.13388052  -0.13388052    1.6226252     1.219986  -0.13388052    1.7565057   439061 
 1579000    1.1709075  -0.13473473  -0.13473473    1.6216225    1.2153968  -0.13473473    1.7563572   439061 
 1580000    1.1727851  -0.13685702  -0.13685702    1.6223167    1.2107086  -0.13685702    1.7591737   439061 
 1581000    1.1737159  -0.13740528  -0.13740528    1.6231645    1.2095969  -0.13740528    1.7605698   439061 
 1582000    1.1731152  -0.13763282  -0.13763282     1.622036    1.2085009  -0.13763282    1.7596688   439061 
 1583000    1.1734017  -0.13576083  -0.13576083    1.6243377    1.2170228  -0.13576083    1.7600985   439061 
 1584000    1.1723475  -0.13599437  -0.13599437    1.6225228    1.2146013  -0.13599437    1.7585172   439061 
 1585000    1.1724793  -0.13584688  -0.13584688    1.6228681    1.2138668  -0.13584688     1.758715   439061 
 1586000    1.1730103  -0.13571401  -0.13571401    1.6237974    1.2136002  -0.13571401    1.7595115   439061 
 1587000    1.1721292  -0.13519049  -0.13519049    1.6229994    1.2141318  -0.13519049    1.7581899   439061 
 1588000    1.1716789  -0.13457144  -0.13457144    1.6229429    1.2170061  -0.13457144    1.7575143   439061 
 1589000    1.1707547  -0.13328599  -0.13328599     1.622842    1.2191265  -0.13328599     1.756128   439061 
 1590000     1.172353  -0.13555731  -0.13555731    1.6229681    1.2144161  -0.13555731    1.7585254   439061 
 1591000    1.1715111  -0.13423607  -0.13423607    1.6230266    1.2187451  -0.13423607    1.7572626   439061 
 1592000    1.1730462  -0.13591365  -0.13591365    1.6236517    1.2134429  -0.13591365    1.7595653   439061 
 1593000    1.1714897  -0.13477162  -0.13477162    1.6224589    1.2172688  -0.13477162    1.7572305   439061 
 1594000    1.1710855   -0.1342648   -0.1342648    1.6223595     1.218422   -0.1342648    1.7566243   439061 
 1595000    1.1709427  -0.13468639  -0.13468639    1.6217237    1.2171232  -0.13468639      1.75641   439061 
 1596000    1.1722823  -0.13635219  -0.13635219    1.6220672    1.2141081  -0.13635219    1.7584194   439061 
 1597000    1.1706091   -0.1348694   -0.1348694    1.6210402    1.2166449   -0.1348694    1.7559096   439061 
 1598000    1.1718003  -0.13687227  -0.13687227    1.6208242    1.2116583  -0.13687227    1.7576965   439061 
 1599000    1.1720812  -0.13714147  -0.13714147    1.6209763    1.2086525  -0.13714147    1.7581178   439061 
 1600000    1.1713257  -0.13657273  -0.13657273    1.6204117    1.2120011  -0.13657273    1.7569845   439061 
 1601000    1.1703353   -0.1347431   -0.1347431    1.6207558    1.2168818   -0.1347431    1.7554989   439061 
 1602000    1.1714867  -0.13663351  -0.13663351    1.6205925    1.2100877  -0.13663351     1.757226   439061 
 1603000    1.1714495  -0.13617495  -0.13617495    1.6209953    1.2128499  -0.13617495    1.7571702   439061 
 1604000    1.1715005  -0.13597704  -0.13597704    1.6212696    1.2127126  -0.13597704    1.7572467   439061 
 1605000    1.1708486  -0.13517535  -0.13517535    1.6210935    1.2158432  -0.13517535    1.7562688   439061 
 1606000    1.1722325  -0.13554879  -0.13554879     1.622796     1.214851  -0.13554879    1.7583448   439061 
 1607000    1.1711213  -0.13472112  -0.13472112    1.6219569    1.2192158  -0.13472112     1.756678   439061 
 1608000    1.1704912  -0.13471367  -0.13471367    1.6210191    1.2160851  -0.13471367    1.7557328   439061 
 1609000    1.1705355  -0.13407814  -0.13407814    1.6217211    1.2174841  -0.13407814    1.7557992   439061 
 1610000    1.1713901  -0.13518623  -0.13518623    1.6218949    1.2133387  -0.13518623    1.7570811   439061 
 1611000    1.1719107  -0.13678641  -0.13678641    1.6210756    1.2098817  -0.13678641    1.7578621   439061 
 1612000    1.1715928  -0.13585648  -0.13585648    1.6215287    1.2139741  -0.13585648    1.7573851   439061 
 1613000     1.171993  -0.13627008  -0.13627008    1.6217154    1.2114468  -0.13627008    1.7579855   439061 
 1614000     1.171979  -0.13607654  -0.13607654    1.6218879    1.2113661  -0.13607654    1.7579645   439061 
 1615000    1.1718591  -0.13552786  -0.13552786    1.6222568    1.2157545  -0.13552786    1.7577846   439061 
 1616000    1.1720091  -0.13626632  -0.13626632    1.6217433    1.2142599  -0.13626632    1.7580096   439061 
 1617000    1.1717977  -0.13628092  -0.13628092    1.6214116    1.2124297  -0.13628092    1.7576925   439061 
 1618000    1.1723253  -0.13611557  -0.13611557    1.6223684    1.2119885  -0.13611557    1.7584839   439061 
 1619000    1.1714734  -0.13531367  -0.13531367    1.6218925    1.2152949  -0.13531367    1.7572061   439061 
 1620000    1.1714075   -0.1356482   -0.1356482     1.621459     1.213305   -0.1356482    1.7571072   439061 
 1621000    1.1730759  -0.13671759  -0.13671759    1.6228922    1.2117187  -0.13671759    1.7596098   439061 
 1622000    1.1726678  -0.13658343  -0.13658343    1.6224142    1.2130084  -0.13658343    1.7589977   439061 
 1623000    1.1717487  -0.13642077  -0.13642077    1.6211983    1.2114147  -0.13642077    1.7576191   439061 
 1624000    1.1720849  -0.13596663  -0.13596663    1.6221568    1.2132361  -0.13596663    1.7581234   439061 
 1625000     1.172326  -0.13685863  -0.13685863    1.6216263    1.2120572  -0.13685863     1.758485   439061 
 1626000    1.1708698  -0.13495464  -0.13495464    1.6213461    1.2149605  -0.13495464    1.7563008   439061 
 1627000    1.1707461  -0.13526216  -0.13526216     1.620853    1.2148358  -0.13526216    1.7561151   439061 
 1628000    1.1706669  -0.13607581  -0.13607581    1.6199205    1.2132688  -0.13607581    1.7559963   439061 
 1629000    1.1722599  -0.13767734  -0.13767734    1.6207086    1.2080019  -0.13767734    1.7583859   439061 
 1630000    1.1705737  -0.13496185  -0.13496185    1.6208947    1.2149738  -0.13496185    1.7558566   439061 
 1631000    1.1721448  -0.13763395  -0.13763395    1.6205792    1.2068931  -0.13763395    1.7582132   439061 
 1632000     1.171351  -0.13584808  -0.13584808    1.6211744     1.214761  -0.13584808    1.7570225   439061 
 1633000    1.1703569  -0.13506119  -0.13506119    1.6204702    1.2149946  -0.13506119    1.7555314   439061 
 1634000    1.1695704  -0.13517094  -0.13517094    1.6191807    1.2129785  -0.13517094    1.7543517   439061 
 1635000    1.1708751  -0.13697172  -0.13697172    1.6193369    1.2103785  -0.13697172    1.7563086   439061 
 1636000    1.1694487  -0.13490258  -0.13490258    1.6192664    1.2144967  -0.13490258     1.754169   439061 
 1637000    1.1691929  -0.13557701  -0.13557701    1.6182084     1.215012  -0.13557701    1.7537854   439061 
 1638000    1.1693239     -0.13533     -0.13533    1.6186519    1.2137381     -0.13533    1.7539819   439061 
 1639000    1.1696325  -0.13592598  -0.13592598    1.6185188    1.2105967  -0.13592598    1.7544448   439061 
 1640000    1.1694541  -0.13623558  -0.13623558    1.6179415    1.2111148  -0.13623558    1.7541771   439061 
 1641000    1.1701361  -0.13643984  -0.13643984    1.6187603    1.2107731  -0.13643984    1.7552002   439061 
 1642000    1.1696414  -0.13640742  -0.13640742    1.6180507    1.2119624  -0.13640742    1.7544581   439061 
 1643000    1.1704709   -0.1382794   -0.1382794     1.617423       1.2062   -0.1382794    1.7557024   439061 
 1644000    1.1690541  -0.13597824  -0.13597824     1.617599    1.2131702  -0.13597824    1.7535772   439061 
 1645000    1.1697168  -0.13734659  -0.13734659    1.6172246    1.2068639  -0.13734659    1.7545712   439061 
 1646000    1.1692612    -0.136143    -0.136143    1.6177448    1.2099946    -0.136143    1.7538878   439061 
 1647000    1.1695972  -0.13664928  -0.13664928    1.6177426    1.2094014  -0.13664928    1.7543919   439061 
 1648000    1.1687848  -0.13597795  -0.13597795    1.6171952    1.2118763  -0.13597795    1.7531731   439061 
 1649000    1.1672833   -0.1358999   -0.1358999    1.6150211    1.2111562   -0.1358999     1.750921   439061 
 1650000     1.167698  -0.13647195  -0.13647195    1.6150711    1.2104131  -0.13647195     1.751543   439061 
 1651000    1.1679824  -0.13594404  -0.13594404    1.6160255    1.2131826  -0.13594404    1.7519696   439061 
 1652000    1.1676337  -0.13506233  -0.13506233    1.6163843     1.212413  -0.13506233    1.7514466   439061 
 1653000    1.1676871  -0.13667713  -0.13667713    1.6148495    1.2083004  -0.13667713    1.7515266   439061 
 1654000    1.1688204  -0.13724213  -0.13724213    1.6159844    1.2085707  -0.13724213    1.7532266   439061 
 1655000    1.1676985  -0.13623927  -0.13623927    1.6153045    1.2101591  -0.13623927    1.7515438   439061 
 1656000    1.1690117  -0.13755027  -0.13755027    1.6159633    1.2092367  -0.13755027    1.7535135   439061 
 1657000    1.1673472  -0.13553196  -0.13553196    1.6154848     1.213133  -0.13553196    1.7510168   439061 
 1658000    1.1677511  -0.13572774  -0.13572774    1.6158949    1.2142305  -0.13572774    1.7516227   439061 
 1659000    1.1681191  -0.13627185  -0.13627185    1.6159028    1.2112953  -0.13627185    1.7521747   439061 
 1660000    1.1677253  -0.13661799  -0.13661799    1.6149659    1.2097563  -0.13661799    1.7515839   439061 
 1661000    1.1683797  -0.13716595  -0.13716595    1.6153996    1.2066681  -0.13716595    1.7525656   439061 
 1662000    1.1665743  -0.13698731  -0.13698731    1.6128702    1.2079875  -0.13698731    1.7498575   439061 
 1663000    1.1677394  -0.13704057  -0.13704057    1.6145646    1.2077669  -0.13704057    1.7516052   439061 
 1664000    1.1683071  -0.13722435  -0.13722435    1.6152322    1.2076636  -0.13722435    1.7524566   439061 
 1665000    1.1677129  -0.13574871  -0.13574871    1.6158166    1.2115654  -0.13574871    1.7515654   439061 
 1666000    1.1678158  -0.13768473  -0.13768473     1.614035      1.20689  -0.13768473    1.7517198   439061 
 1667000    1.1673325  -0.13699355  -0.13699355    1.6140012    1.2093801  -0.13699355    1.7509947   439061 
 1668000    1.1669327  -0.13698879  -0.13698879    1.6134062    1.2073307  -0.13698879     1.750395   439061 
 1669000    1.1675123  -0.13746539  -0.13746539    1.6137991    1.2071717  -0.13746539    1.7512645   439061 
 1670000    1.1669112   -0.1363857   -0.1363857    1.6139772    1.2122544   -0.1363857    1.7503629   439061 
 1671000    1.1669675   -0.1372524   -0.1372524    1.6131949    1.2073088   -0.1372524    1.7504472   439061 
 1672000    1.1661056  -0.13618877  -0.13618877    1.6129657    1.2109677  -0.13618877    1.7491545   439061 
 1673000    1.1669918  -0.13729353  -0.13729353    1.6131902    1.2074578  -0.13729353    1.7504837   439061 
 1674000    1.1667556  -0.13691332  -0.13691332    1.6132161    1.2067914  -0.13691332    1.7501294   439061 
 1675000    1.1680491  -0.13799655  -0.13799655    1.6140731    1.2041251  -0.13799655    1.7520697   439061 
 1676000    1.1675841  -0.13798098  -0.13798098    1.6133912    1.2070409  -0.13798098    1.7513722   439061 
 1677000    1.1666254  -0.13689606  -0.13689606    1.6130381    1.2082499  -0.13689606    1.7499341   439061 
 1678000    1.1651347   -0.1360516   -0.1360516    1.6116465    1.2095188   -0.1360516    1.7476981   439061 
 1679000     1.165212  -0.13655252  -0.13655252    1.6112614    1.2096103  -0.13655252    1.7478139   439061 
 1680000    1.1647178  -0.13647088  -0.13647088    1.6106019    1.2111359  -0.13647088    1.7470728   439061 
 1681000    1.1645126  -0.13596025  -0.13596025    1.6108046    1.2097334  -0.13596025    1.7467649   439061 
 1682000    1.1643017  -0.13564696  -0.13564696    1.6108016     1.211832  -0.13564696    1.7464486   439061 
 1683000    1.1669558  -0.13773697  -0.13773697    1.6126927    1.2048866  -0.13773697    1.7504297   439061 
 1684000    1.1652229  -0.13555808  -0.13555808    1.6122723     1.210911  -0.13555808    1.7478304   439061 
 1685000     1.166687  -0.13775281  -0.13775281    1.6122736    1.2062767  -0.13775281    1.7500264   439061 
 1686000    1.1657937  -0.13664654  -0.13664654      1.61204    1.2078334  -0.13664654    1.7486866   439061 
 1687000    1.1666037  -0.13825959  -0.13825959    1.6116419    1.2052548  -0.13825959    1.7499015   439061 
 1688000    1.1654615  -0.13644099  -0.13644099    1.6117473    1.2094257  -0.13644099    1.7481883   439061 
 1689000    1.1655344  -0.13677238  -0.13677238    1.6115253     1.205834  -0.13677238    1.7482977   439061 
 1690000    1.1656109  -0.13605825  -0.13605825    1.6123542    1.2103251  -0.13605825    1.7484124   439061 
 1691000    1.1665607  -0.13686893  -0.13686893    1.6129681    1.2089038  -0.13686893     1.749837   439061 
 1692000     1.167366  -0.13763491  -0.13763491    1.6134101    1.2063297  -0.13763491     1.751045   439061 
 1693000    1.1648636  -0.13605477  -0.13605477    1.6112367    1.2094739  -0.13605477    1.7472915   439061 
 1694000    1.1650195  -0.13641771  -0.13641771    1.6111075    1.2103148  -0.13641771    1.7475253   439061 
 1695000    1.1657859  -0.13843291  -0.13843291    1.6102419    1.2018086  -0.13843291    1.7486748   439061 
 1696000    1.1650426   -0.1368572   -0.1368572    1.6107027    1.2088524   -0.1368572    1.7475599   439061 
 1697000    1.1654589  -0.13676794  -0.13676794    1.6114164    1.2070884  -0.13676794    1.7481843   439061 
 1698000    1.1663212  -0.13713998  -0.13713998    1.6123379    1.2071265  -0.13713998    1.7494778   439061 
 1699000    1.1664746  -0.13799907  -0.13799907    1.6117088    1.2044388  -0.13799907    1.7497079   439061 
 1700000     1.165744  -0.13742679  -0.13742679    1.6111853    1.2060687  -0.13742679     1.748612   439061 
 1701000    1.1650685  -0.13704259  -0.13704259    1.6105562    1.2083001  -0.13704259    1.7475988   439061 
 1702000    1.1662577  -0.13815547  -0.13815547    1.6112271    1.2053261  -0.13815547    1.7493826   439061 
 1703000    1.1643028  -0.13679065  -0.13679065    1.6096595    1.2070675  -0.13679065    1.7464502   439061 
 1704000    1.1642346  -0.13713089  -0.13713089     1.609217     1.206228  -0.13713089    1.7463479   439061 
 1705000    1.1641375  -0.13704112  -0.13704112    1.6091611    1.2077075  -0.13704112    1.7462022   439061 
 1706000     1.164456  -0.13752882  -0.13752882    1.6091512    1.2059603  -0.13752882      1.74668   439061 
 1707000    1.1641933  -0.13762247  -0.13762247    1.6086635    1.2047259  -0.13762247     1.746286   439061 
 1708000    1.1637728  -0.13818953  -0.13818953    1.6074658    1.2030372  -0.13818953    1.7456553   439061 
 1709000    1.1648236  -0.13770564  -0.13770564    1.6095258    1.2046888  -0.13770564    1.7472315   439061 
 1710000    1.1641363  -0.13816406  -0.13816406    1.6080364    1.2030499  -0.13816406    1.7462005   439061 
 1711000    1.1639475  -0.13746708  -0.13746708    1.6084502    1.2060366  -0.13746708    1.7459172   439061 
 1712000    1.1643072  -0.13684781  -0.13684781     1.609609    1.2074611  -0.13684781    1.7464568   439061 
 1713000    1.1646846  -0.13785152  -0.13785152    1.6091715    1.2059804  -0.13785152     1.747023   439061 
 1714000       1.1649  -0.13843038  -0.13843038    1.6089157    1.2043541  -0.13843038     1.747346   439061 
 1715000     1.163027  -0.13685452  -0.13685452     1.607682    1.2063089  -0.13685452    1.7445365   439061 
 1716000    1.1637862  -0.13766236  -0.13766236     1.608013    1.2048756  -0.13766236    1.7456753   439061 
 1717000    1.1643848  -0.13762065  -0.13762065    1.6089525    1.2060377  -0.13762065    1.7465732   439061 
 1718000    1.1638555   -0.1380305   -0.1380305    1.6077488    1.2038172   -0.1380305    1.7457792   439061 
 1719000    1.1638433  -0.13675785  -0.13675785    1.6090032    1.2066433  -0.13675785     1.745761   439061 
 1720000    1.1635137  -0.13612033  -0.13612033    1.6091463    1.2100213  -0.13612033    1.7452666   439061 
 1721000    1.1644448  -0.13842764  -0.13842764    1.6082356    1.2032829  -0.13842764    1.7466632   439061 
 1722000    1.1639414  -0.13820554  -0.13820554    1.6077027     1.204308  -0.13820554    1.7459082   439061 
 1723000    1.1636933  -0.13660193  -0.13660193     1.608934    1.2079154  -0.13660193     1.745536   439061 
 1724000    1.1639804  -0.13782558  -0.13782558     1.608141    1.2056873  -0.13782558    1.7459666   439061 
 1725000    1.1646749  -0.13795085  -0.13795085    1.6090576    1.2053648  -0.13795085    1.7470084   439061 
 1726000    1.1642278  -0.13764675  -0.13764675     1.608691    1.2049572  -0.13764675    1.7463377   439061 
 1727000    1.1644803   -0.1376969   -0.1376969    1.6090196    1.2047705   -0.1376969    1.7467165   439061 
 1728000    1.1629193  -0.13789755  -0.13789755    1.6064774    1.2038294  -0.13789755     1.744375   439061 
 1729000    1.1632285  -0.13803078  -0.13803078     1.606808    1.2048988  -0.13803078    1.7448388   439061 
 1730000    1.1625806  -0.13811109  -0.13811109    1.6057559    1.2039998  -0.13811109    1.7438669   439061 
 1731000    1.1633509  -0.13893027  -0.13893027    1.6060922     1.200999  -0.13893027    1.7450224   439061 
 1732000    1.1629014     -0.13794     -0.13794    1.6064082    1.2032254     -0.13794    1.7443482   439061 
 1733000    1.1637153  -0.13780629  -0.13780629    1.6077627    1.2032249  -0.13780629     1.745569   439061 
 1734000    1.1634437  -0.13731231  -0.13731231    1.6078493    1.2054462  -0.13731231    1.7451616   439061 
 1735000    1.1636373  -0.13806581  -0.13806581    1.6073861     1.204935  -0.13806581    1.7454519   439061 
 1736000    1.1635071  -0.13907408  -0.13907408    1.6061826    1.2014252  -0.13907408    1.7452567   439061 
 1737000    1.1631492  -0.13911105  -0.13911105    1.6056088     1.201014  -0.13911105    1.7447199   439061 
 1738000    1.1626985  -0.13934024  -0.13934024    1.6047036    1.1997281  -0.13934024    1.7440438   439061 
 1739000    1.1614905  -0.13776979  -0.13776979     1.604462      1.20368  -0.13776979    1.7422318   439061 
 1740000    1.1617699  -0.13840291  -0.13840291    1.6042479    1.2026232  -0.13840291    1.7426508   439061 
 1741000    1.1619948  -0.13720173  -0.13720173    1.6057865    1.2068519  -0.13720173    1.7429882   439061 
 1742000    1.1623676  -0.13839814  -0.13839814    1.6051493    1.2016546  -0.13839814    1.7435474   439061 
 1743000     1.161773  -0.13788821  -0.13788821    1.6047673    1.2042729  -0.13788821    1.7426555   439061 
 1744000    1.1623045  -0.13839556  -0.13839556    1.6050572    1.2018604  -0.13839556    1.7434527   439061 
 1745000    1.1608168  -0.13747675  -0.13747675    1.6037445    1.2056777  -0.13747675    1.7412212   439061 
 1746000     1.161199  -0.13768347  -0.13768347    1.6041111    1.2051912  -0.13768347    1.7417946   439061 
 1747000    1.1623898   -0.1386652   -0.1386652    1.6049155    1.2009869   -0.1386652    1.7435807   439061 
 1748000     1.162811  -0.13733777  -0.13733777    1.6068748    1.2054464  -0.13733777    1.7442126   439061 
 1749000    1.1625984  -0.13708104  -0.13708104    1.6068125    1.2044442  -0.13708104    1.7438936   439061 
 1750000    1.1632905  -0.13808588  -0.13808588    1.6068458    1.2027977  -0.13808588    1.7449317   439061 
 1751000    1.1619027  -0.13647417  -0.13647417    1.6063759    1.2056294  -0.13647417      1.74285   439061 
 1752000    1.1632603   -0.1392468   -0.1392468    1.6056397    1.2003546   -0.1392468    1.7448865   439061 
 1753000      1.16267  -0.13871566  -0.13871566    1.6052854    1.1994314  -0.13871566    1.7440011   439061 
 1754000    1.1622001  -0.13711448  -0.13711448    1.6061818    1.2057141  -0.13711448    1.7432962   439061 
 1755000    1.1618531  -0.13650496  -0.13650496    1.6062707    1.2056847  -0.13650496    1.7427756   439061 
 1756000    1.1636002  -0.13879087  -0.13879087    1.6066055    1.1999893  -0.13879087    1.7453964   439061 
 1757000    1.1623158  -0.13839628  -0.13839628    1.6050735     1.201902  -0.13839628    1.7434698   439061 
 1758000     1.161702  -0.13774645  -0.13774645    1.6048026    1.2030184  -0.13774645    1.7425491   439061 
 1759000    1.1614429  -0.13801584  -0.13801584    1.6041445    1.2027761  -0.13801584    1.7421604   439061 
 1760000    1.1622432  -0.13922795  -0.13922795    1.6041329     1.199181  -0.13922795    1.7433609   439061 
 1761000    1.1624991  -0.13857355  -0.13857355    1.6051711    1.2023881  -0.13857355    1.7437446   439061 
 1762000    1.1624268  -0.13778694  -0.13778694    1.6058493    1.2032365  -0.13778694    1.7436363   439061 
 1763000    1.1611843  -0.13676565  -0.13676565    1.6050068    1.2068047  -0.13676565    1.7417725   439061 
 1764000    1.1612603  -0.13778539  -0.13778539     1.604101    1.2016802  -0.13778539    1.7418864   439061 
 1765000     1.162959  -0.13915103  -0.13915103    1.6052835    1.2018675  -0.13915103    1.7444345   439061 
 1766000    1.1623171  -0.13948956  -0.13948956    1.6039822    1.1995492  -0.13948956    1.7434718   439061 
 1767000     1.160663  -0.13689966  -0.13689966    1.6040909    1.2058684  -0.13689966    1.7409905   439061 
 1768000    1.1612181  -0.13724402  -0.13724402    1.6045791    1.2053033  -0.13724402    1.7418231   439061 
 1769000    1.1623839  -0.13820792  -0.13820792    1.6053639    1.2030408  -0.13820792    1.7435718   439061 
 1770000    1.1623143  -0.13758929  -0.13758929    1.6058782    1.2049016  -0.13758929    1.7434675   439061 
 1771000    1.1628172  -0.13900134  -0.13900134    1.6052205    1.2012772  -0.13900134    1.7442218   439061 
 1772000    1.1616059  -0.13753123  -0.13753123    1.6048737    1.2055232  -0.13753123    1.7424049   439061 
 1773000    1.1625652  -0.13870578  -0.13870578    1.6051381    1.2003884  -0.13870578    1.7438439   439061 
 1774000    1.1615009  -0.13801853  -0.13801853    1.6042289    1.2007828  -0.13801853    1.7422474   439061 
 1775000    1.1618799  -0.13773925  -0.13773925    1.6050767    1.2031061  -0.13773925    1.7428159   439061 
 1776000    1.1625312  -0.13803954  -0.13803954    1.6057533    1.2028975  -0.13803954    1.7437928   439061 
 1777000    1.1629443  -0.13892432  -0.13892432    1.6054881    1.1992466  -0.13892432    1.7444124   439061 
 1778000     1.163012  -0.13941815  -0.13941815    1.6050959    1.2001414  -0.13941815     1.744514   439061 
 1779000    1.1626063  -0.13845243  -0.13845243    1.6054531    1.2010051  -0.13845243    1.7439055   439061 
 1780000    1.1615407  -0.13833443  -0.13833443    1.6039726    1.2021996  -0.13833443     1.742307   439061 
 1781000    1.1622137  -0.13925199  -0.13925199    1.6040646    1.2003199  -0.13925199    1.7433166   439061 
 1782000    1.1609868  -0.13643562  -0.13643562    1.6050406     1.207033  -0.13643562    1.7414762   439061 
 1783000    1.1615009  -0.13784222  -0.13784222    1.6044052    1.2020518  -0.13784222    1.7422474   439061 
 1784000    1.1625345  -0.13848656  -0.13848656    1.6053112    1.2032507  -0.13848656    1.7437978   439061 
 1785000    1.1618409  -0.13755613  -0.13755613    1.6052013    1.2030085  -0.13755613    1.7427574   439061 
 1786000    1.1607104  -0.13674644  -0.13674644    1.6043152    1.2058742  -0.13674644    1.7410616   439061 
 1787000    1.1613207  -0.13763943  -0.13763943    1.6043377    1.2042462  -0.13763943    1.7419771   439061 
 1788000    1.1617235  -0.13804666  -0.13804666    1.6045346    1.2032429  -0.13804666    1.7425813   439061 
 1789000    1.1606863  -0.13755074  -0.13755074    1.6034748    1.2042058  -0.13755074    1.7410255   439061 
 1790000    1.1613869  -0.13955321  -0.13955321    1.6025231    1.2000786  -0.13955321    1.7420763   439061 
 1791000    1.1612956  -0.13938077  -0.13938077    1.6025587    1.1977974  -0.13938077    1.7419395   439061 
 1792000    1.1598549  -0.13739839  -0.13739839      1.60238    1.2025179  -0.13739839    1.7397784   439061 
 1793000    1.1608781  -0.13832664  -0.13832664    1.6029865    1.2023555  -0.13832664    1.7413131   439061 
 1794000    1.1608512   -0.1377328   -0.1377328      1.60354    1.2053282   -0.1377328    1.7412728   439061 
 1795000    1.1608315  -0.13685724  -0.13685724     1.604386    1.2051978  -0.13685724    1.7412432   439061 
 1796000    1.1612832  -0.13802994  -0.13802994    1.6038909    1.2020987  -0.13802994    1.7419208   439061 
 1797000    1.1608204  -0.13843637  -0.13843637    1.6027902      1.20224  -0.13843637    1.7412266   439061 
 1798000    1.1605809  -0.13747554  -0.13747554    1.6033918    1.2035036  -0.13747554    1.7408674   439061 
 1799000     1.159951  -0.13669339  -0.13669339    1.6032291    1.2062153  -0.13669339    1.7399225   439061 
 1800000    1.1618009  -0.13844637  -0.13844637    1.6042511    1.1994823  -0.13844637    1.7426974   439061 
 1801000     1.160385  -0.13804768  -0.13804768    1.6025259    1.2017452  -0.13804768    1.7405735   439061 
 1802000    1.1613338  -0.13730955  -0.13730955    1.6046871    1.2047222  -0.13730955    1.7419967   439061 
 1803000    1.1593805  -0.13640792  -0.13640792    1.6026589    1.2048411  -0.13640792    1.7390668   439061 
 1804000    1.1601663  -0.13819814  -0.13819814    1.6020473    1.2006381  -0.13819814    1.7402455   439061 
 1805000     1.161332  -0.13871556  -0.13871556    1.6032785    1.2011028  -0.13871556    1.7419941   439061 
 1806000    1.1611294  -0.13840366  -0.13840366    1.6032864    1.2016751  -0.13840366    1.7416901   439061 
 1807000    1.1610124   -0.1384767   -0.1384767    1.6030379    1.1993219   -0.1384767    1.7415146   439061 
 1808000    1.1621547  -0.13844842  -0.13844842    1.6047796    1.1998105  -0.13844842     1.743228   439061 
 1809000    1.1624428  -0.14018183  -0.14018183    1.6034784     1.196576  -0.14018183    1.7436603   439061 
 1810000    1.1624374  -0.13891458  -0.13891458    1.6047375    1.1991378  -0.13891458    1.7436521   439061 
 1811000    1.1619733  -0.13839075  -0.13839075    1.6045653    1.2014934  -0.13839075     1.742956   439061 
 1812000    1.1609993  -0.13800891  -0.13800891     1.603486    1.2020707  -0.13800891    1.7414949   439061 
 1813000    1.1600839  -0.13690603  -0.13690603    1.6032158      1.20443  -0.13690603    1.7401219   439061 
 1814000       1.1614  -0.13874019  -0.13874019    1.6033558    1.2007277  -0.13874019     1.742096   439061 
 1815000    1.1613366  -0.13899174  -0.13899174    1.6030092    1.1998136  -0.13899174     1.742001   439061 
 1816000    1.1607788  -0.13752042  -0.13752042    1.6036439    1.2040413  -0.13752042    1.7411643   439061 
 1817000    1.1613179  -0.13860546  -0.13860546    1.6033674    1.1998282  -0.13860546    1.7419729   439061 
 1818000    1.1606666  -0.13818585  -0.13818585    1.6028101    1.2009439  -0.13818585     1.740996   439061 
 1819000    1.1605775  -0.13827693  -0.13827693    1.6025853    1.2012594  -0.13827693    1.7408623   439061 
 1820000    1.1600911  -0.13805748  -0.13805748    1.6020752    1.2017013  -0.13805748    1.7401326   439061 
 1821000    1.1600069  -0.13915845  -0.13915845    1.6008479     1.197487  -0.13915845    1.7400064   439061 
 1822000    1.1606194  -0.13955775  -0.13955775    1.6013675     1.200116  -0.13955775    1.7409252   439061 
 1823000    1.1594624  -0.13833877  -0.13833877    1.6008508    1.2001386  -0.13833877    1.7391896   439061 
 1824000    1.1602183  -0.13900594  -0.13900594    1.6013175    1.1989256  -0.13900594    1.7403235   439061 
 1825000    1.1588414  -0.13775828  -0.13775828    1.6004999    1.2016152  -0.13775828    1.7382581   439061 
 1826000    1.1596246  -0.13937474  -0.13937474    1.6000582    1.1990648  -0.13937474    1.7394329   439061 
 1827000    1.1576566  -0.13804777  -0.13804777    1.5984332    1.2004748  -0.13804777    1.7364809   439061 
 1828000    1.1589888  -0.13773289  -0.13773289    1.6007464    1.2015379  -0.13773289    1.7384792   439061 
 1829000    1.1596639  -0.13774358  -0.13774358    1.6017483    1.2029757  -0.13774358    1.7394919   439061 
 1830000    1.1603206  -0.13904413  -0.13904413    1.6014328    1.2001527  -0.13904413    1.7404769   439061 
 1831000    1.1601475  -0.13850204  -0.13850204    1.6017153    1.2006512  -0.13850204    1.7402173   439061 
 1832000    1.1593092  -0.13877765  -0.13877765    1.6001822    1.1993285  -0.13877765    1.7389599   439061 
 1833000    1.1582778  -0.13602317  -0.13602317    1.6013895    1.2077993  -0.13602317    1.7374127   439061 
 1834000    1.1592284  -0.13819536  -0.13819536    1.6006433    1.2024985  -0.13819536    1.7388387   439061 
 1835000    1.1587363  -0.13762895  -0.13762895    1.6004716     1.202003  -0.13762895    1.7381005   439061 
 1836000    1.1591856   -0.1390055   -0.1390055    1.5997689    1.1981788   -0.1390055    1.7387744   439061 
 1837000    1.1597147  -0.14039711  -0.14039711     1.599171     1.196505  -0.14039711    1.7395681   439061 
 1838000    1.1592635  -0.13842341  -0.13842341    1.6004678     1.199997  -0.13842341    1.7388913   439061 
 1839000    1.1585751  -0.13960554  -0.13960554    1.5982532    1.1968925  -0.13960554    1.7378587   439061 
 1840000    1.1587302  -0.13908227  -0.13908227    1.5990091    1.1985196  -0.13908227    1.7380914   439061 
 1841000     1.158721  -0.13986041  -0.13986041    1.5982172    1.1963173  -0.13986041    1.7380776   439061 
 1842000    1.1567228  -0.13795943  -0.13795943    1.5971209    1.2000075  -0.13795943    1.7350803   439061 
 1843000    1.1582783  -0.13992422  -0.13992422    1.5974893    1.1953237  -0.13992422    1.7374135   439061 
 1844000    1.1571368  -0.13738334  -0.13738334    1.5983179    1.2012393  -0.13738334    1.7357012   439061 
 1845000    1.1578792  -0.13904602  -0.13904602    1.5977689    1.1994283  -0.13904602    1.7368149   439061 
 1846000    1.1571937  -0.13831857  -0.13831857     1.597468     1.201098  -0.13831857    1.7357866   439061 
 1847000    1.1570637  -0.13787411  -0.13787411    1.5977175    1.2018853  -0.13787411    1.7355916   439061 
 1848000    1.1580585  -0.13993541  -0.13993541    1.5971484    1.1962491  -0.13993541    1.7370838   439061 
 1849000     1.157021  -0.13848789  -0.13848789    1.5970397    1.1985461  -0.13848789    1.7355276   439061 
 1850000    1.1564984  -0.13845805  -0.13845805    1.5962856    1.2002048  -0.13845805    1.7347437   439061 
 1851000     1.156522  -0.13894712  -0.13894712    1.5958319    1.1983338  -0.13894712    1.7347791   439061 
 1852000    1.1555239   -0.1382534   -0.1382534    1.5950284    1.1993988   -0.1382534    1.7332818   439061 
 1853000    1.1571082   -0.1398444   -0.1398444    1.5958139    1.1970603   -0.1398444    1.7356584   439061 
 1854000    1.1560764  -0.13831518  -0.13831518    1.5957955     1.198493  -0.13831518    1.7341107   439061 
 1855000    1.1558381  -0.13724024  -0.13724024     1.596513    1.2031237  -0.13724024    1.7337532   439061 
 1856000    1.1569338  -0.13908621  -0.13908621    1.5963106     1.198946  -0.13908621    1.7353968   439061 
 1857000    1.1565907  -0.13889766  -0.13889766    1.5959845    1.1981238  -0.13889766    1.7348821   439061 
 1858000    1.1567093  -0.14016321  -0.14016321    1.5948967    1.1943317  -0.14016321    1.7350599   439061 
 1859000    1.1571986  -0.14002362  -0.14002362    1.5957703    1.1953687  -0.14002362    1.7357939   439061 
 1860000    1.1563681  -0.13823902  -0.13823902    1.5963092    1.1995068  -0.13823902    1.7345482   439061 
 1861000    1.1568502  -0.13961039  -0.13961039     1.595661    1.1968319  -0.13961039    1.7352714   439061 
 1862000    1.1574815  -0.14066483  -0.14066483    1.5955534    1.1926475  -0.14066483    1.7362183   439061 
 1863000    1.1567213  -0.13916602  -0.13916602    1.5959119      1.19759  -0.13916602     1.735078   439061 
 1864000    1.1566359  -0.13923305  -0.13923305    1.5957169    1.1979416  -0.13923305    1.7349499   439061 
 1865000    1.1560836  -0.13980511  -0.13980511    1.5943164    1.1950579  -0.13980511    1.7341215   439061 
 1866000    1.1558989   -0.1390093   -0.1390093    1.5948352    1.1989317   -0.1390093    1.7338445   439061 
 1867000    1.1556309  -0.13901686  -0.13901686    1.5944255    1.1979431  -0.13901686    1.7334423   439061 
 1868000    1.1544152  -0.13846205  -0.13846205    1.5931568    1.1978303  -0.13846205    1.7316189   439061 
 1869000    1.1555541  -0.13878776  -0.13878776    1.5945395    1.1993853  -0.13878776    1.7333273   439061 
 1870000     1.156638  -0.13999167  -0.13999167    1.5949614    1.1954138  -0.13999167     1.734953   439061 
 1871000    1.1564358  -0.14029701  -0.14029701    1.5943527    1.1934111  -0.14029701    1.7346497   439061 
 1872000    1.1538087  -0.13833683  -0.13833683    1.5923723    1.1981275  -0.13833683    1.7307091   439061 
 1873000    1.1546721   -0.1402105   -0.1402105    1.5917937    1.1944882   -0.1402105    1.7320042   439061 
 1874000    1.1532462  -0.13955005  -0.13955005    1.5903153    1.1948772  -0.13955005    1.7298653   439061 
 1875000    1.1545747  -0.14052245  -0.14052245    1.5913357    1.1934494  -0.14052245    1.7318582   439061 
 1876000    1.1537112  -0.13891546  -0.13891546    1.5916474     1.197314  -0.13891546    1.7305628   439061 
 1877000    1.1537665  -0.14055512  -0.14055512    1.5900907    1.1929062  -0.14055512    1.7306458   439061 
 1878000    1.1540104  -0.14072974  -0.14072974     1.590282    1.1937139  -0.14072974    1.7310117   439061 
 1879000    1.1530589   -0.1386129   -0.1386129    1.5909715    1.1970397   -0.1386129    1.7295844   439061 
 1880000    1.1534529  -0.13946408  -0.13946408    1.5907113     1.195291  -0.13946408    1.7301754   439061 
 1881000    1.1527379  -0.13895067  -0.13895067    1.5901522    1.1968675  -0.13895067    1.7291028   439061 
 1882000    1.1531125  -0.13878979  -0.13878979     1.590875    1.1969114  -0.13878979    1.7296648   439061 
 1883000    1.1545877  -0.14066759  -0.14066759    1.5912101    1.1910555  -0.14066759    1.7318777   439061 
 1884000    1.1551016  -0.14095994  -0.14095994    1.5916886    1.1917027  -0.14095994    1.7326485   439061 
 1885000    1.1537075  -0.13971169  -0.13971169    1.5908455    1.1947433  -0.13971169    1.7305572   439061 
 1886000    1.1538643  -0.14013745  -0.14013745    1.5906551    1.1939729  -0.14013745    1.7307925   439061 
 1887000    1.1535266  -0.13995935  -0.13995935    1.5903267    1.1924681  -0.13995935     1.730286   439061 
 1888000    1.1528309  -0.13882467  -0.13882467    1.5904177    1.1969541  -0.13882467    1.7292424   439061 
 1889000    1.1534394  -0.14008239  -0.14008239    1.5900728    1.1931363  -0.14008239    1.7301552   439061 
 1890000    1.1531968  -0.13912235  -0.13912235     1.590669    1.1959702  -0.13912235    1.7297913   439061 
 1891000    1.1538216  -0.14012209  -0.14012209    1.5906064    1.1936885  -0.14012209    1.7307285   439061 
 1892000    1.1541304  -0.13996939  -0.13996939    1.5912223    1.1936236  -0.13996939    1.7311916   439061 
 1893000    1.1531183  -0.13949541  -0.13949541     1.590178     1.194761  -0.13949541    1.7296734   439061 
 1894000    1.1544209  -0.14074521  -0.14074521    1.5908822     1.191903  -0.14074521    1.7316274   439061 
 1895000    1.1543711  -0.13978855  -0.13978855    1.5917641    1.1955923  -0.13978855    1.7315527   439061 
 1896000    1.1530354  -0.13833451  -0.13833451    1.5912147    1.1984494  -0.13833451    1.7295492   439061 
 1897000    1.1542976  -0.14028224  -0.14028224    1.5911602    1.1933328  -0.14028224    1.7314425   439061 
 1898000     1.152537  -0.13864793  -0.13864793    1.5901537    1.1973818  -0.13864793    1.7288016   439061 
 1899000     1.154174  -0.14079073  -0.14079073    1.5904664    1.1910207  -0.14079073    1.7312571   439061 
 1900000     1.153493  -0.14054924  -0.14054924    1.5896864    1.1933814  -0.14054924    1.7302356   439061 
 1901000    1.1537334  -0.14000173  -0.14000173    1.5905944    1.1947608  -0.14000173    1.7305961   439061 
 1902000    1.1543519  -0.14009675  -0.14009675    1.5914272    1.1934623  -0.14009675     1.731524   439061 
 1903000    1.1544472  -0.14046094  -0.14046094    1.5912059    1.1926823  -0.14046094    1.7316669   439061 
 1904000    1.1543252   -0.1396043   -0.1396043    1.5918796    1.1951106   -0.1396043    1.7314839   439061 
 1905000    1.1541628  -0.13953388  -0.13953388    1.5917064    1.1933375  -0.13953388    1.7312403   439061 
 1906000    1.1542666  -0.14028588  -0.14028588    1.5911101    1.1938705  -0.14028588     1.731396   439061 
 1907000    1.1535261  -0.13955533  -0.13955533    1.5907298    1.1955291  -0.13955533    1.7302852   439061 
 1908000    1.1530489   -0.1391976   -0.1391976    1.5903718    1.1949767   -0.1391976    1.7295694   439061 
 1909000    1.1537222  -0.14089018  -0.14089018    1.5896892    1.1926791  -0.14089018    1.7305794   439061 
 1910000    1.1539322  -0.13990942  -0.13990942     1.590985    1.1940313  -0.13990942    1.7308944   439061 
 1911000    1.1538545  -0.14045329  -0.14045329    1.5903245     1.193346  -0.14045329    1.7307778   439061 
 1912000    1.1537225  -0.14005855  -0.14005855    1.5905212    1.1950898  -0.14005855    1.7305797   439061 
 1913000    1.1537543  -0.14093708  -0.14093708    1.5896904    1.1917183  -0.14093708    1.7306275   439061 
 1914000    1.1532456  -0.14091874  -0.14091874    1.5889458    1.1916149  -0.14091874    1.7298645   439061 
 1915000    1.1529847  -0.13930654  -0.13930654    1.5901665    1.1944264  -0.13930654    1.7294731   439061 
 1916000    1.1522111  -0.13897946  -0.13897946    1.5893332    1.1964024  -0.13897946    1.7283127   439061 
 1917000    1.1537537  -0.14020706  -0.14020706    1.5904195    1.1924915  -0.14020706    1.7306266   439061 
 1918000    1.1535205  -0.13985443  -0.13985443    1.5904224    1.1948816  -0.13985443    1.7302768   439061 
 1919000    1.1530929  -0.13924577  -0.13924577    1.5903897     1.195315  -0.13924577    1.7296354   439061 
 1920000    1.1551215  -0.14168343  -0.14168343    1.5909948    1.1891466  -0.14168343    1.7326782   439061 
 1921000    1.1531751  -0.14104575  -0.14104575     1.588713    1.1910483  -0.14104575    1.7297588   439061 
 1922000    1.1528784  -0.14037637  -0.14037637    1.5889373    1.1939406  -0.14037637    1.7293136   439061 
 1923000     1.154032  -0.14084139  -0.14084139    1.5902027    1.1916787  -0.14084139    1.7310441   439061 
 1924000    1.1528501   -0.1402895   -0.1402895    1.5889817    1.1920985   -0.1402895    1.7292712   439061 
 1925000    1.1518217  -0.13866892  -0.13866892    1.5890597    1.1966567  -0.13866892    1.7277286   439061 
 1926000    1.1530484  -0.14050253  -0.14050253    1.5890661    1.1910385  -0.14050253    1.7295686   439061 
 1927000    1.1545022  -0.14144442  -0.14144442    1.5903049    1.1903176  -0.14144442    1.7317493   439061 
 1928000    1.1533649   -0.1396811   -0.1396811    1.5903623    1.1949684   -0.1396811    1.7300434   439061 
 1929000    1.1531007  -0.14010556  -0.14010556    1.5895416    1.1934552  -0.14010556    1.7296472   439061 
 1930000    1.1528135  -0.14070485  -0.14070485    1.5885114    1.1910647  -0.14070485    1.7292163   439061 
 1931000    1.1527929  -0.14109877  -0.14109877    1.5880867    1.1911312  -0.14109877    1.7291854   439061 
 1932000    1.1523971  -0.13914872  -0.13914872    1.5894429    1.1946757  -0.13914872    1.7285917   439061 
 1933000    1.1534298   -0.1412404   -0.1412404    1.5889004    1.1897029   -0.1412404    1.7301408   439061 
 1934000    1.1523012  -0.14069931  -0.14069931    1.5877486    1.1903476  -0.14069931    1.7284479   439061 
 1935000     1.153897  -0.14110512  -0.14110512    1.5897364    1.1920335  -0.14110512    1.7308415   439061 
 1936000    1.1525562   -0.1399898   -0.1399898    1.5888406    1.1932152   -0.1399898    1.7288304   439061 
 1937000    1.1523647  -0.14046024  -0.14046024    1.5880829    1.1924041  -0.14046024    1.7285432   439061 
 1938000    1.1527279  -0.14054774  -0.14054774    1.5885402    1.1879236  -0.14054774    1.7290879   439061 
 1939000     1.151706  -0.13954145  -0.13954145    1.5880135    1.1937943  -0.13954145     1.727555   439061 
 1940000     1.152328  -0.13907706  -0.13907706     1.589411    1.1960485  -0.13907706    1.7284881   439061 
 1941000    1.1533245  -0.14005014  -0.14005014    1.5899327    1.1921675  -0.14005014    1.7299829   439061 
 1942000    1.1523872  -0.14020531  -0.14020531    1.5883715    1.1928338  -0.14020531    1.7285768   439061 
 1943000    1.1524577  -0.14064985  -0.14064985    1.5880328     1.193425  -0.14064985    1.7286827   439061 
 1944000     1.150835  -0.13956475  -0.13956475    1.5866838    1.1924838  -0.13956475    1.7262485   439061 
 1945000    1.1518333  -0.14100238  -0.14100238    1.5867436    1.1897751  -0.14100238     1.727746   439061 
 1946000    1.1529227  -0.14101735  -0.14101735    1.5883627    1.1923766  -0.14101735    1.7293801   439061 
 1947000    1.1519594  -0.13949867  -0.13949867    1.5884365    1.1934514  -0.13949867    1.7279352   439061 
 1948000    1.1522774  -0.14037379  -0.14037379    1.5880384    1.1932626  -0.14037379    1.7284122   439061 
 1949000     1.152419   -0.1408433   -0.1408433    1.5877813    1.1922231   -0.1408433    1.7286246   439061 
 1950000     1.151818  -0.13972951  -0.13972951    1.5879935    1.1944943  -0.13972951     1.727723   439061 
 1951000    1.1514026  -0.13948518  -0.13948518    1.5876148    1.1930457  -0.13948518       1.7271   439061 
 1952000    1.1516977  -0.14031708  -0.14031708    1.5872255    1.1915954  -0.14031708    1.7275426   439061 
 1953000    1.1517441  -0.13954678  -0.13954678    1.5880654    1.1943666  -0.13954678    1.7276122   439061 
 1954000    1.1514766   -0.1391902   -0.1391902    1.5880208    1.1965844   -0.1391902     1.727211   439061 
 1955000    1.1518907  -0.13989351  -0.13989351    1.5879386    1.1916753  -0.13989351    1.7278322   439061 
 1956000    1.1519864   -0.1396665   -0.1396665    1.5883092    1.1932166   -0.1396665    1.7279757   439061 
 1957000    1.1520844  -0.14012616  -0.14012616    1.5879964     1.193354  -0.14012616    1.7281226   439061 
 1958000    1.1518928   -0.1412389   -0.1412389    1.5865963    1.1902398   -0.1412389    1.7278352   439061 
 1959000    1.1514252  -0.14053813  -0.14053813    1.5865957     1.192595  -0.14053813    1.7271338   439061 
 1960000    1.1506669  -0.14046216  -0.14046216    1.5855342    1.1921097  -0.14046216    1.7259964   439061 
 1961000    1.1506992  -0.14055976  -0.14055976    1.5854851    1.1915941  -0.14055976    1.7260449   439061 
 1962000    1.1506071  -0.13992152  -0.13992152    1.5859852    1.1926989  -0.13992152    1.7259067   439061 
 1963000    1.1501683  -0.13958981  -0.13958981    1.5856587    1.1933287  -0.13958981    1.7252485   439061 
 1964000    1.1498548  -0.13909398  -0.13909398    1.5856843    1.1934568  -0.13909398    1.7247783   439061 
 1965000    1.1518651  -0.14129796  -0.14129796    1.5864957    1.1890233  -0.14129796    1.7277936   439061 
 1966000    1.1506988  -0.13914286  -0.13914286    1.5869014    1.1941669  -0.13914286    1.7260443   439061 
 1967000    1.1522269  -0.14006435  -0.14006435     1.588272    1.1928114  -0.14006435    1.7283364   439061 
 1968000    1.1518044  -0.14029083  -0.14029083    1.5874118    1.1916654  -0.14029083    1.7277027   439061 
 1969000    1.1529898  -0.14236661  -0.14236661    1.5871141    1.1854672  -0.14236661    1.7294807   439061 
 1970000    1.1516866  -0.14036132  -0.14036132    1.5871646    1.1906946  -0.14036132    1.7275259   439061 
 1971000    1.1511258  -0.14023727  -0.14023727    1.5864474    1.1931352  -0.14023727    1.7266847   439061 
 1972000    1.1508881  -0.13991375  -0.13991375    1.5864145    1.1942444  -0.13991375    1.7263282   439061 
 1973000    1.1508251  -0.14013425  -0.14013425    1.5860994    1.1918251  -0.14013425    1.7262337   439061 
 1974000    1.1515733   -0.1406867   -0.1406867    1.5866693    1.1904166   -0.1406867     1.727356   439061 
 1975000    1.1514995  -0.14116293  -0.14116293    1.5860824    1.1868212  -0.14116293    1.7272453   439061 
 1976000    1.1510808  -0.14008423  -0.14008423     1.586533    1.1925976  -0.14008423    1.7266173   439061 
 1977000    1.1508654  -0.13934374  -0.13934374    1.5869504    1.1952471  -0.13934374    1.7262941   439061 
 1978000    1.1511308  -0.14002385  -0.14002385    1.5866684    1.1937771  -0.14002385    1.7266922   439061 
 1979000    1.1518929   -0.1400551   -0.1400551    1.5877803     1.192924   -0.1400551    1.7278354   439061 
 1980000    1.1529968  -0.14133902  -0.14133902    1.5881522    1.1881743  -0.14133902    1.7294912   439061 
 1981000    1.1514309  -0.14045685  -0.14045685    1.5866855    1.1915986  -0.14045685    1.7271424   439061 
 1982000    1.1510443  -0.13981247  -0.13981247      1.58675    1.1926318  -0.13981247    1.7265625   439061 
 1983000     1.152158  -0.14064411  -0.14064411    1.5875889    1.1921926  -0.14064411     1.728233   439061 
 1984000    1.1509888  -0.13971252  -0.13971252    1.5867668    1.1930777  -0.13971252    1.7264793   439061 
 1985000    1.1514708   -0.1408224   -0.1408224    1.5863798    1.1896085   -0.1408224    1.7272022   439061 
 1986000    1.1515042  -0.14063424  -0.14063424    1.5866181    1.1916077  -0.14063424    1.7272523   439061 
 1987000    1.1516763  -0.14131146  -0.14131146     1.586199    1.1888938  -0.14131146    1.7275105   439061 
 1988000    1.1511559  -0.14159236  -0.14159236    1.5851376     1.187761  -0.14159236    1.7267299   439061 
 1989000    1.1510453  -0.14087041  -0.14087041    1.5856936    1.1884342  -0.14087041     1.726564   439061 
 1990000    1.1509135  -0.14026513  -0.14026513    1.5861013    1.1920887  -0.14026513    1.7263664   439061 
 1991000    1.1507361  -0.14017891  -0.14017891    1.5859213    1.1935615  -0.14017891    1.7261003   439061 
 1992000    1.1507127  -0.14009896  -0.14009896    1.5859662    1.1915975  -0.14009896    1.7260652   439061 
 1993000     1.150869  -0.13986605  -0.13986605    1.5864336     1.192568  -0.13986605    1.7262996   439061 
 1994000    1.1503145  -0.13863482  -0.13863482     1.586833    1.1960747  -0.13863482    1.7254678   439061 
 1995000    1.1511618  -0.14093215  -0.14093215    1.5858066    1.1893662  -0.14093215    1.7267387   439061 
 1996000    1.1510453  -0.13936713  -0.13936713    1.5871969    1.1964752  -0.13936713     1.726564   439061 
 1997000    1.1517574  -0.14037889  -0.14037889    1.5872533    1.1910137  -0.14037889    1.7276322   439061 
 1998000    1.1506205  -0.13927605  -0.13927605    1.5866508    1.1937386  -0.13927605    1.7259269   439061 
 1999000    1.1514591  -0.13904476  -0.13904476      1.58814    1.1944858  -0.13904476    1.7271847   439061 
 2000000    1.1511489  -0.14056206  -0.14056206    1.5861574    1.1896159  -0.14056206    1.7267195   439061 
 2001000    1.1508289  -0.14000671  -0.14000671    1.5862328      1.19146  -0.14000671    1.7262395   439061 
 2002000    1.1512212    -0.140973    -0.140973    1.5858549    1.1897851    -0.140973    1.7268279   439061 
 2003000    1.1508633  -0.14112402  -0.14112402    1.5851669    1.1886102  -0.14112402     1.726291   439061 
 2004000    1.1498292  -0.13941341  -0.13941341    1.5853264    1.1940053  -0.13941341    1.7247399   439061 
 2005000    1.1508411  -0.14119375  -0.14119375     1.585064    1.1882369  -0.14119375    1.7262578   439061 
 2006000    1.1510949  -0.14125332  -0.14125332     1.585385    1.1889617  -0.14125332    1.7266383   439061 
 2007000    1.1501284  -0.14026343  -0.14026343    1.5849253    1.1926646  -0.14026343    1.7251887   439061 
 2008000    1.1508724  -0.14035931  -0.14035931    1.5859453    1.1899936  -0.14035931    1.7263046   439061 
 2009000    1.1506956  -0.14019753  -0.14019753    1.5858419     1.191739  -0.14019753    1.7260394   439061 
 2010000    1.1515446  -0.14065971  -0.14065971    1.5866533    1.1898852  -0.14065971     1.727313   439061 
 2011000    1.1516088  -0.14093408  -0.14093408    1.5864751    1.1915928  -0.14093408    1.7274092   439061 
 2012000    1.1508595  -0.14064667  -0.14064667    1.5856386    1.1889643  -0.14064667    1.7262853   439061 
 2013000    1.1510417  -0.14102384  -0.14102384    1.5855347    1.1888937  -0.14102384    1.7265586   439061 
 2014000    1.1504363  -0.14032387  -0.14032387    1.5853267    1.1902243  -0.14032387    1.7256505   439061 
 2015000    1.1509253  -0.14028017  -0.14028017    1.5861038    1.1912714  -0.14028017     1.726384   439061 
 2016000    1.1493868   -0.1394089   -0.1394089    1.5846674    1.1937471   -0.1394089    1.7240763   439061 
 2017000    1.1488534  -0.14029877  -0.14029877    1.5829774    1.1908796  -0.14029877    1.7232762   439061 
 2018000    1.1482364  -0.13975098  -0.13975098    1.5825997    1.1914484  -0.13975098    1.7223507   439061 
 2019000    1.1490565  -0.13985145  -0.13985145    1.5837294    1.1928325  -0.13985145    1.7235809   439061 
 2020000    1.1508541  -0.14251914  -0.14251914    1.5837581    1.1851316  -0.14251914    1.7262772   439061 
 2021000    1.1489016  -0.13977016  -0.13977016    1.5835783    1.1929859  -0.13977016    1.7233485   439061 
 2022000    1.1493732  -0.14038811  -0.14038811    1.5836678    1.1908016  -0.14038811    1.7240559   439061 
 2023000    1.1501261  -0.14050733  -0.14050733    1.5846779    1.1901861  -0.14050733    1.7251852   439061 
 2024000     1.149851  -0.14005954  -0.14005954     1.584713    1.1908283  -0.14005954    1.7247726   439061 
 2025000    1.1501329  -0.13918116  -0.13918116    1.5860143     1.193846  -0.13918116    1.7251955   439061 
 2026000    1.1512336  -0.14103914  -0.14103914    1.5858074    1.1902049  -0.14103914    1.7268465   439061 
 2027000    1.1507792  -0.14109939  -0.14109939    1.5850654    1.1903825  -0.14109939    1.7261648   439061 
 2028000    1.1506971  -0.14036864  -0.14036864     1.585673    1.1890594  -0.14036864    1.7260417   439061 
 2029000    1.1506577  -0.14063129  -0.14063129    1.5853513    1.1909287  -0.14063129    1.7259826   439061 
 2030000    1.1499922  -0.14045472  -0.14045472    1.5845296    1.1909404  -0.14045472    1.7249844   439061 
 2031000    1.1491377  -0.13968821  -0.13968821    1.5840144    1.1951342  -0.13968821    1.7237026   439061 
 2032000    1.1493242  -0.14005607  -0.14005607    1.5839263    1.1909162  -0.14005607    1.7239823   439061 
 2033000    1.1495149  -0.14052779  -0.14052779    1.5837407    1.1920464  -0.14052779    1.7242685   439061 
 2034000    1.1503654  -0.14104562  -0.14104562    1.5844986     1.189582  -0.14104562    1.7255442   439061 
 2035000    1.1493784  -0.13969574  -0.13969574    1.5843679     1.192394  -0.13969574    1.7240636   439061 
 2036000    1.1490016  -0.14038143  -0.14038143    1.5831171      1.19057  -0.14038143    1.7234985   439061 
 2037000    1.1491173  -0.13919497  -0.13919497    1.5844771    1.1928525  -0.13919497    1.7236721   439061 
 2038000    1.1504576  -0.14091306  -0.14091306    1.5847694    1.1885673  -0.14091306    1.7256824   439061 
 2039000     1.149525  -0.13991336  -0.13991336    1.5843703    1.1921569  -0.13991336    1.7242836   439061 
 2040000    1.1495284  -0.14042984  -0.14042984    1.5838589     1.192093  -0.14042984    1.7242887   439061 
 2041000    1.1489077  -0.14070163  -0.14070163    1.5826559    1.1889587  -0.14070163    1.7233576   439061 
 2042000    1.1482276    -0.139892    -0.139892    1.5824455    1.1920267    -0.139892    1.7223375   439061 
 2043000    1.1486714   -0.1397254   -0.1397254    1.5832778    1.1925069   -0.1397254    1.7230032   439061 
 2044000    1.1474813  -0.14080568  -0.14080568    1.5804123    1.1880463  -0.14080568     1.721218   439061 
 2045000    1.1482997  -0.14136648  -0.14136648    1.5810791     1.187091  -0.14136648    1.7224456   439061 
 2046000    1.1483179  -0.14051865  -0.14051865    1.5819543    1.1881911  -0.14051865     1.722473   439061 
 2047000    1.1484183  -0.14162238  -0.14162238    1.5810012    1.1852967  -0.14162238    1.7226236   439061 
 2048000    1.1478531  -0.14025156  -0.14025156    1.5815242    1.1903448  -0.14025156    1.7217757   439061 
 2049000     1.148411  -0.14053806  -0.14053806    1.5820746    1.1906237  -0.14053806    1.7226126   439061 
 2050000    1.1481872   -0.1403662   -0.1403662    1.5819106    1.1911497   -0.1403662    1.7222768   439061 
 2051000    1.1490483   -0.1408446   -0.1408446     1.582724    1.1882059   -0.1408446    1.7235686   439061 
 2052000    1.1498201  -0.14155529  -0.14155529    1.5831709    1.1873038  -0.14155529    1.7247262   439061 
 2053000    1.1477857  -0.13906221  -0.13906221    1.5826124    1.1924528  -0.13906221    1.7216746   439061 
 2054000     1.149387  -0.14189003  -0.14189003    1.5821865    1.1875398  -0.14189003    1.7240765   439061 
 2055000    1.1491167  -0.14188027  -0.14188027    1.5817908    1.1847188  -0.14188027    1.7236711   439061 
 2056000    1.1504695  -0.14289655  -0.14289655    1.5828038    1.1824842  -0.14289655    1.7257003   439061 
 2057000    1.1484625  -0.14044496  -0.14044496    1.5822449    1.1896866  -0.14044496    1.7226898   439061 
 2058000    1.1476848  -0.13923764  -0.13923764    1.5822857    1.1932416  -0.13923764    1.7215233   439061 
 2059000    1.1483441  -0.14044946  -0.14044946    1.5820628    1.1896027  -0.14044946    1.7225122   439061 
 2060000    1.1481262  -0.14096224  -0.14096224    1.5812232    1.1868999  -0.14096224    1.7221854   439061 
 2061000    1.1490765  -0.14151969  -0.14151969    1.5820911     1.186538  -0.14151969    1.7236108   439061 
 2062000    1.1485616   -0.1407336   -0.1407336    1.5821049    1.1889841   -0.1407336    1.7228385   439061 
 2063000    1.1482593  -0.14014113  -0.14014113    1.5822438    1.1908548  -0.14014113     1.722385   439061 
 2064000    1.1497376  -0.14197717  -0.14197717    1.5826254    1.1859538  -0.14197717    1.7246025   439061 
 2065000    1.1483589  -0.14127363  -0.14127363    1.5812608    1.1882085  -0.14127363    1.7225344   439061 
 2066000    1.1484861  -0.14212032  -0.14212032    1.5806049    1.1851187  -0.14212032    1.7227252   439061 
 2067000    1.1482475  -0.14105521  -0.14105521    1.5813122     1.188144  -0.14105521    1.7223674   439061 
 2068000    1.1484093  -0.14112233  -0.14112233    1.5814876    1.1872611  -0.14112233      1.72261   439061 
 2069000    1.1478365  -0.14004308  -0.14004308    1.5817077    1.1900045  -0.14004308    1.7217508   439061 
 2070000    1.1478256  -0.13995775  -0.13995775    1.5817767    1.1908019  -0.13995775    1.7217345   439061 
 2071000    1.1482182  -0.14177527  -0.14177527    1.5805481    1.1860884  -0.14177527    1.7223233   439061 
 2072000    1.1475195  -0.14116706  -0.14116706    1.5801083    1.1866278  -0.14116706    1.7212754   439061 
 2073000    1.1487013   -0.1415127   -0.1415127    1.5815354    1.1878532   -0.1415127    1.7230481   439061 
 2074000    1.1478002  -0.14103677  -0.14103677    1.5806597    1.1871901  -0.14103677    1.7216964   439061 
 2075000      1.14768  -0.13996308  -0.13996308     1.581553    1.1916309  -0.13996308     1.721516   439061 
 2076000    1.1470632  -0.14025757  -0.14025757    1.5803334    1.1911133  -0.14025757    1.7205909   439061 
 2077000    1.1487389  -0.14239282  -0.14239282    1.5807115    1.1840241  -0.14239282    1.7231044   439061 
 2078000    1.1477643  -0.14053496  -0.14053496    1.5811076    1.1881804  -0.14053496    1.7216425   439061 
 2079000    1.1481693  -0.14095083  -0.14095083    1.5812993    1.1876397  -0.14095083    1.7222501   439061 
 2080000    1.1485596  -0.14163994  -0.14163994    1.5811956    1.1874953  -0.14163994    1.7228355   439061 
 2081000     1.148336  -0.14153997  -0.14153997    1.5809601    1.1876045  -0.14153997    1.7225001   439061 
 2082000    1.1477152  -0.14125403  -0.14125403    1.5803148    1.1859283  -0.14125403    1.7215688   439061 
 2083000    1.1468654  -0.14113139  -0.14113139    1.5791627    1.1881036  -0.14113139    1.7202941   439061 
 2084000    1.1469761  -0.14100963  -0.14100963    1.5794506    1.1857243  -0.14100963    1.7204602   439061 
 2085000    1.1472031  -0.14151723  -0.14151723    1.5792834    1.1853693  -0.14151723    1.7208007   439061 
 2086000    1.1470031  -0.14117674  -0.14117674     1.579324     1.186688  -0.14117674    1.7205008   439061 
 2087000    1.1460453  -0.14074725  -0.14074725    1.5783168    1.1871208  -0.14074725    1.7190641   439061 
 2088000    1.1460343  -0.14030082  -0.14030082    1.5787466    1.1884257  -0.14030082    1.7190475   439061 
 2089000     1.147591   -0.1413323   -0.1413323    1.5800502    1.1855875   -0.1413323    1.7213825   439061 
 2090000    1.1473675  -0.14127776  -0.14127776    1.5797695    1.1871505  -0.14127776    1.7210473   439061 
 2091000    1.1470727  -0.14096953  -0.14096953    1.5796356    1.1877841  -0.14096953    1.7206052   439061 
 2092000    1.1465363  -0.13970342  -0.13970342    1.5800972    1.1901915  -0.13970342    1.7198006   439061 
 2093000    1.1472141  -0.14150552  -0.14150552    1.5793116    1.1864255  -0.14150552    1.7208172   439061 
 2094000    1.1471956  -0.14268503  -0.14268503    1.5781045    1.1819457  -0.14268503    1.7207895   439061 
 2095000    1.1460093  -0.14075488  -0.14075488    1.5782551    1.1885679  -0.14075488      1.71901   439061 
 2096000    1.1468087  -0.14205123  -0.14205123    1.5781579    1.1852067  -0.14205123    1.7202091   439061 
 2097000     1.145785  -0.14073715  -0.14073715    1.5779364    1.1874633  -0.14073715    1.7186736   439061 
 2098000    1.1461382  -0.14047071  -0.14047071    1.5787327    1.1879624  -0.14047071    1.7192034   439061 
 2099000    1.1456692  -0.14076005  -0.14076005    1.5777399    1.1882936  -0.14076005    1.7184999   439061 
 2100000    1.1461726  -0.14044326  -0.14044326    1.5788118    1.1905609  -0.14044326     1.719255   439061 
 2101000    1.1467169  -0.14056612  -0.14056612    1.5795054    1.1872387  -0.14056612    1.7200715   439061 
 2102000    1.1473635    -0.141659    -0.141659    1.5793823    1.1864852    -0.141659    1.7210413   439061 
 2103000    1.1463053   -0.1409105   -0.1409105    1.5785435    1.1886781   -0.1409105     1.719454   439061 
 2104000    1.1471673  -0.14138399  -0.14138399     1.579363     1.187475  -0.14138399     1.720747   439061 
 2105000    1.1463902  -0.14014433  -0.14014433    1.5794371    1.1919565  -0.14014433    1.7195814   439061 
 2106000    1.1451732  -0.14015447  -0.14015447    1.5776014    1.1892594  -0.14015447    1.7177559   439061 
 2107000    1.1449111  -0.13931925  -0.13931925    1.5780435    1.1933762  -0.13931925    1.7173627   439061 
 2108000    1.1455543  -0.14112217  -0.14112217    1.5772053    1.1867938  -0.14112217    1.7183275   439061 
 2109000    1.1455081  -0.14071594  -0.14071594    1.5775423    1.1866969  -0.14071594    1.7182583   439061 
 2110000    1.1453637  -0.14083072  -0.14083072    1.5772109    1.1871439  -0.14083072    1.7180416   439061 
 2111000    1.1457997  -0.14122484  -0.14122484    1.5774708    1.1857147  -0.14122484    1.7186956   439061 
 2112000     1.146511  -0.14247612  -0.14247612    1.5772864    1.1842326  -0.14247612    1.7197626   439061 
 2113000    1.1457137   -0.1408159   -0.1408159    1.5777508    1.1868216   -0.1408159    1.7185667   439061 
 2114000     1.146063  -0.14094737  -0.14094737    1.5781433    1.1879122  -0.14094737    1.7190906   439061 
 2115000    1.1465459  -0.14093754  -0.14093754    1.5788773    1.1856052  -0.14093754    1.7198149   439061 
 2116000    1.1458723   -0.1405833   -0.1405833    1.5782213    1.1884386   -0.1405833    1.7188046   439061 
 2117000    1.1453848   -0.1412383   -0.1412383     1.576835    1.1866943   -0.1412383    1.7180733   439061 
 2118000    1.1458901  -0.14158784  -0.14158784    1.5772433    1.1837489  -0.14158784    1.7188312   439061 
 2119000     1.145877  -0.14048503  -0.14048503    1.5783265    1.1876825  -0.14048503    1.7188115   439061 
 2120000    1.1467186   -0.1412975   -0.1412975    1.5787765    1.1864134   -0.1412975     1.720074   439061 
 2121000    1.1466855  -0.14068216  -0.14068216    1.5793422    1.1889538  -0.14068216    1.7200243   439061 
 2122000    1.1471052  -0.14199441  -0.14199441    1.5786595    1.1841228  -0.14199441    1.7206539   439061 
 2123000     1.146393  -0.14114241  -0.14114241    1.5784431    1.1881946  -0.14114241    1.7195856   439061 
 2124000    1.1454509   -0.1407359   -0.1407359    1.5774366    1.1882349   -0.1407359    1.7181725   439061 
 2125000    1.1452616   -0.1415395   -0.1415395    1.5763489    1.1856341   -0.1415395    1.7178885   439061 
 2126000    1.1453201  -0.14039752  -0.14039752    1.5775787    1.1866967  -0.14039752    1.7179762   439061 
 2127000    1.1447149  -0.14067144  -0.14067144    1.5763971    1.1884474  -0.14067144    1.7170685   439061 
 2128000    1.1451756  -0.14117825  -0.14117825    1.5765812    1.1860221  -0.14117825    1.7177595   439061 
 2129000    1.1454099  -0.14216366  -0.14216366    1.5759473    1.1828902  -0.14216366     1.718111   439061 
 2130000    1.1449221  -0.14200653  -0.14200653    1.5753727    1.1842836  -0.14200653    1.7173793   439061 
 2131000    1.1435323  -0.13978248  -0.13978248    1.5755121    1.1899122  -0.13978248    1.7152946   439061 
 2132000    1.1444726  -0.14079838  -0.14079838    1.5759066     1.185255  -0.14079838    1.7167049   439061 
 2133000    1.1445403  -0.14156967  -0.14156967    1.5752369    1.1852999  -0.14156967    1.7168066   439061 
 2134000     1.143025  -0.14001851  -0.14001851    1.5745151    1.1895643  -0.14001851    1.7145336   439061 
 2135000    1.1442196  -0.14156471  -0.14156471    1.5747608    1.1840526  -0.14156471    1.7163255   439061 
 2136000    1.1439206  -0.14106293  -0.14106293     1.574814    1.1868741  -0.14106293    1.7158769   439061 
 2137000    1.1451329  -0.14218221  -0.14218221    1.5755133    1.1835647  -0.14218221    1.7176955   439061 
 2138000    1.1436942  -0.14192767  -0.14192767    1.5736097    1.1855387  -0.14192767    1.7155374   439061 
 2139000    1.1430564  -0.14123952  -0.14123952    1.5733411    1.1858731  -0.14123952    1.7145806   439061 
 2140000    1.1432074  -0.14138949  -0.14138949    1.5734178    1.1849404  -0.14138949    1.7148073   439061 
 2141000    1.1429184  -0.14054396  -0.14054396    1.5738297    1.1883809  -0.14054396    1.7143736   439061 
 2142000     1.144616  -0.14262662  -0.14262662    1.5742935    1.1827044  -0.14262662    1.7169201   439061 
 2143000    1.1433055  -0.14114335  -0.14114335     1.573811    1.1863279  -0.14114335    1.7149544   439061 
 2144000    1.1442335  -0.14139526  -0.14139526    1.5749511    1.1841949  -0.14139526    1.7163463   439061 
 2145000    1.1445824  -0.14176465  -0.14176465    1.5751051    1.1837433  -0.14176465    1.7168697   439061 
 2146000    1.1440455  -0.14061437  -0.14061437      1.57545    1.1872224  -0.14061437    1.7160643   439061 
 2147000    1.1451004  -0.14059917  -0.14059917    1.5770476    1.1874711  -0.14059917    1.7176467   439061 
 2148000    1.1443398  -0.14059246  -0.14059246    1.5759133    1.1871614  -0.14059246    1.7165057   439061 
 2149000    1.1445345  -0.14076648  -0.14076648    1.5760313    1.1887445  -0.14076648    1.7167978   439061 
 2150000     1.145142  -0.14216665  -0.14216665    1.5755424    1.1855368  -0.14216665    1.7177091   439061 
 2151000    1.1451191  -0.14176903  -0.14176903    1.5759058    1.1844833  -0.14176903    1.7176748   439061 
 2152000     1.145465  -0.14243916  -0.14243916    1.5757544    1.1831876  -0.14243916    1.7181935   439061 
 2153000    1.1435899  -0.14070931  -0.14070931    1.5746717    1.1842288  -0.14070931     1.715381   439061 
 2154000    1.1444189  -0.14142665  -0.14142665    1.5751978    1.1844451  -0.14142665    1.7166245   439061 
 2155000    1.1448674  -0.14131159  -0.14131159    1.5759856    1.1864579  -0.14131159    1.7172972   439061 
 2156000    1.1446154  -0.14039553  -0.14039553    1.5765237    1.1885624  -0.14039553    1.7169192   439061 
 2157000    1.1461878  -0.14130743  -0.14130743    1.5779704    1.1869926  -0.14130743    1.7192778   439061 
 2158000    1.1455916  -0.14089383  -0.14089383    1.5774896    1.1853983  -0.14089383    1.7183834   439061 
 2159000    1.1449494  -0.14080417  -0.14080417     1.576616    1.1873892  -0.14080417    1.7174202   439061 
 2160000    1.1454184  -0.14185758  -0.14185758    1.5762661    1.1829073  -0.14185758    1.7181237   439061 
 2161000    1.1437361  -0.14030462  -0.14030462    1.5752956    1.1878907  -0.14030462    1.7156003   439061 
 2162000    1.1441125  -0.14103791  -0.14103791     1.575127    1.1868885  -0.14103791    1.7161649   439061 
 2163000     1.145118  -0.14209969  -0.14209969    1.5755734    1.1827558  -0.14209969    1.7176731   439061 
 2164000    1.1449841  -0.14265184  -0.14265184    1.5748204    1.1816409  -0.14265184    1.7174723   439061 
 2165000    1.1449664  -0.14301622  -0.14301622    1.5744294    1.1798791  -0.14301622    1.7174456   439061 
 2166000    1.1424871  -0.13951386  -0.13951386    1.5742128    1.1897029  -0.13951386    1.7137267   439061 
 2167000    1.1446645  -0.14205665  -0.14205665    1.5749362    1.1823248  -0.14205665    1.7169929   439061 
 2168000    1.1438921  -0.14054746  -0.14054746    1.5752868    1.1892344  -0.14054746    1.7158342   439061 
 2169000    1.1452586  -0.14139174  -0.14139174    1.5764923    1.1853694  -0.14139174     1.717884   439061 
 2170000    1.1469038  -0.14288931  -0.14288931    1.5774625    1.1825168  -0.14288931    1.7203518   439061 
 2171000    1.1446978   -0.1412528   -0.1412528      1.57579    1.1861957   -0.1412528    1.7170428   439061 
 2172000     1.145048  -0.14087669  -0.14087669    1.5766914     1.187593  -0.14087669    1.7175681   439061 
 2173000    1.1460934  -0.14128346  -0.14128346    1.5778527    1.1866189  -0.14128346    1.7191362   439061 
 2174000    1.1444915  -0.14103758  -0.14103758    1.5756958     1.186129  -0.14103758    1.7167333   439061 
 2175000    1.1439788   -0.1404033   -0.1404033     1.575561    1.1862448   -0.1404033    1.7159643   439061 
 2176000    1.1446738  -0.14113968  -0.14113968    1.5758672    1.1864125  -0.14113968    1.7170068   439061 
 2177000    1.1454562  -0.14212749  -0.14212749    1.5760529    1.1843239  -0.14212749    1.7181804   439061 
 2178000    1.1445487  -0.14122149  -0.14122149    1.5755976     1.186678  -0.14122149    1.7168191   439061 
 2179000    1.1455668  -0.14184518  -0.14184518    1.5765011    1.1836561  -0.14184518    1.7183462   439061 
 2180000    1.1451007  -0.14155061  -0.14155061    1.5760966    1.1837569  -0.14155061    1.7176472   439061 
 2181000    1.1450655  -0.14176933  -0.14176933     1.575825    1.1848404  -0.14176933    1.7175943   439061 
 2182000    1.1447346  -0.14177641  -0.14177641    1.5753216    1.1856454  -0.14177641     1.717098   439061 
 2183000    1.1436252  -0.14050564  -0.14050564    1.5749282     1.187103  -0.14050564    1.7154338   439061 
 2184000     1.144973  -0.14214241  -0.14214241    1.5753132    1.1832582  -0.14214241    1.7174556   439061 
 2185000    1.1456453  -0.14192471  -0.14192471    1.5765393     1.184234  -0.14192471     1.718464   439061 
 2186000    1.1453871  -0.14277122  -0.14277122    1.5753055    1.1815068  -0.14277122    1.7180767   439061 
 2187000    1.1462601  -0.14277149  -0.14277149    1.5766147    1.1826108  -0.14277149    1.7193862   439061 
 2188000     1.144818  -0.14170777  -0.14170777    1.5755153     1.186129  -0.14170777     1.717223   439061 
 2189000    1.1445466  -0.14285141  -0.14285141    1.5739646    1.1818498  -0.14285141     1.716816   439061 
 2190000    1.1439336  -0.14126506  -0.14126506    1.5746314    1.1859879  -0.14126506    1.7158965   439061 
 2191000    1.1435086  -0.14122456  -0.14122456    1.5740345    1.1844092  -0.14122456     1.715259   439061 
 2192000      1.14441   -0.1428188   -0.1428188    1.5737924    1.1816443   -0.1428188    1.7166112   439061 
 2193000    1.1442999  -0.14272659  -0.14272659    1.5737193    1.1824279  -0.14272659    1.7164459   439061 
 2194000    1.1450086  -0.14208245  -0.14208245    1.5754266    1.1832848  -0.14208245     1.717509   439061 
 2195000    1.1450361  -0.14205809  -0.14205809    1.5754922    1.1831616  -0.14205809    1.7175503   439061 
 2196000    1.1437857  -0.14088059  -0.14088059    1.5747941    1.1878452  -0.14088059    1.7156746   439061 
 2197000    1.1440109  -0.14218092  -0.14218092    1.5738315    1.1818766  -0.14218092    1.7160125   439061 
 2198000    1.1441113  -0.14164044  -0.14164044    1.5745226    1.1850926  -0.14164044     1.716163   439061 
 2199000    1.1424456  -0.13970889  -0.13970889    1.5739555    1.1888695  -0.13970889    1.7136644   439061 
 2200000    1.1438596  -0.14203011  -0.14203011    1.5737555    1.1833858  -0.14203011    1.7157856   439061 
 2201000    1.1440956  -0.14220312  -0.14220312    1.5739363    1.1834843  -0.14220312    1.7161394   439061 
 2202000    1.1420014  -0.13966409  -0.13966409    1.5733341    1.1900415  -0.13966409    1.7129982   439061 
 2203000    1.1446086  -0.14283147  -0.14283147    1.5740775    1.1817223  -0.14283147    1.7169089   439061 
 2204000    1.1438365  -0.14186415  -0.14186415    1.5738867    1.1834682  -0.14186415    1.7157508   439061 
 2205000    1.1441161  -0.14180269  -0.14180269    1.5743676    1.1841272  -0.14180269    1.7161703   439061 
 2206000    1.1440381  -0.14117113  -0.14117113    1.5748821    1.1863248  -0.14117113    1.7160533   439061 
 2207000    1.1459901   -0.1429981   -0.1429981    1.5759831    1.1821545   -0.1429981    1.7189812   439061 
 2208000     1.144136  -0.14077472  -0.14077472    1.5754254    1.1863902  -0.14077472    1.7162001   439061 
 2209000    1.1454722  -0.14221164  -0.14221164    1.5759928    1.1852921  -0.14221164    1.7182044   439061 
 2210000    1.1453942  -0.14167505  -0.14167505    1.5764124    1.1854373  -0.14167505    1.7180874   439061 
 2211000    1.1448358  -0.14215626  -0.14215626    1.5750936    1.1814038  -0.14215626    1.7172498   439061 
 2212000    1.1446787  -0.14212417  -0.14212417    1.5748899    1.1807556  -0.14212417    1.7170141   439061 
 2213000    1.1433373  -0.14077378  -0.14077378    1.5742282    1.1868866  -0.14077378     1.715002   439061 
 2214000    1.1444021  -0.14184955  -0.14184955    1.5747497    1.1836646  -0.14184955    1.7165992   439061 
 2215000    1.1440664  -0.14101244  -0.14101244    1.5750833      1.18654  -0.14101244    1.7160957   439061 
 2216000    1.1436042  -0.14107205  -0.14107205    1.5743303    1.1841012  -0.14107205    1.7154024   439061 
 2217000    1.1441465  -0.14121769  -0.14121769    1.5749982    1.1867133  -0.14121769    1.7162159   439061 
 2218000    1.1433386  -0.14068471  -0.14068471    1.5743192    1.1874104  -0.14068471    1.7150039   439061 
 2219000    1.1420153   -0.1402868   -0.1402868    1.5727322    1.1888131   -0.1402868     1.713019   439061 
 2220000    1.1424283  -0.14057767  -0.14057767    1.5730609    1.1869913  -0.14057767    1.7136386   439061 
 2221000    1.1436479  -0.14193028  -0.14193028    1.5735377    1.1835255  -0.14193028     1.715468   439061 
 2222000    1.1429058  -0.14051877  -0.14051877     1.573836      1.18611  -0.14051877    1.7143548   439061 
 2223000    1.1443895  -0.14175137  -0.14175137    1.5748289    1.1851613  -0.14175137    1.7165803   439061 
 2224000    1.1438203  -0.14122329  -0.14122329    1.5745032    1.1867671  -0.14122329    1.7157265   439061 
 2225000    1.1436312  -0.14303326  -0.14303326    1.5724096    1.1811982  -0.14303326    1.7154429   439061 
 2226000    1.1427434  -0.14099242  -0.14099242    1.5731188    1.1863348  -0.14099242    1.7141113   439061 
 2227000    1.1433348  -0.14218021  -0.14218021    1.5728181    1.1823903  -0.14218021    1.7149983   439061 
 2228000    1.1428667  -0.14129148  -0.14129148    1.5730046    1.1843717  -0.14129148    1.7142961   439061 
 2229000    1.1424251  -0.14279604  -0.14279604    1.5708377    1.1796373  -0.14279604    1.7136338   439061 
 2230000    1.1414172  -0.14097425  -0.14097425    1.5711477    1.1841176  -0.14097425     1.712122   439061 
 2231000    1.1413473  -0.14143658  -0.14143658    1.5705805    1.1849503  -0.14143658    1.7120171   439061 
 2232000    1.1406352  -0.14151357  -0.14151357    1.5694353    1.1829712  -0.14151357    1.7109488   439061 
 2233000    1.1416554  -0.14271589  -0.14271589    1.5697633     1.181623  -0.14271589    1.7124791   439061 
 2234000    1.1418034  -0.14260918  -0.14260918     1.570092    1.1816772  -0.14260918    1.7127012   439061 
 2235000    1.1422645   -0.1434244   -0.1434244    1.5699685    1.1797954   -0.1434244    1.7133929   439061 
 2236000    1.1416091  -0.14188305  -0.14188305    1.5705267    1.1831207  -0.14188305    1.7124097   439061 
 2237000    1.1416578   -0.1411609   -0.1411609     1.571322    1.1851811   -0.1411609    1.7124829   439061 
 2238000     1.143233  -0.14280315  -0.14280315    1.5720424    1.1797098  -0.14280315    1.7148455   439061 
 2239000    1.1418244  -0.14181009  -0.14181009    1.5709227    1.1844896  -0.14181009    1.7127328   439061 
 2240000    1.1407717  -0.14110911  -0.14110911    1.5700445    1.1840033  -0.14110911    1.7111536   439061 
 2241000    1.1416567  -0.14171747  -0.14171747    1.5707637    1.1826069  -0.14171747    1.7124811   439061 
 2242000    1.1418741  -0.14184573  -0.14184573    1.5709616    1.1831327  -0.14184573    1.7128073   439061 
 2243000     1.141731  -0.14239847  -0.14239847    1.5701941    1.1809955  -0.14239847    1.7125926   439061 
 2244000    1.1412012  -0.14236514  -0.14236514    1.5694327     1.181175  -0.14236514    1.7117978   439061 
 2245000    1.1417058  -0.14245112  -0.14245112    1.5701037    1.1806861  -0.14245112    1.7125548   439061 
 2246000    1.1414677   -0.1416678   -0.1416678    1.5705299    1.1839099   -0.1416678    1.7121977   439061 
 2247000      1.14176  -0.14256508  -0.14256508     1.570071    1.1804731  -0.14256508    1.7126361   439061 
 2248000    1.1420631  -0.14339193  -0.14339193    1.5696988    1.1787029  -0.14339193    1.7130907   439061 
 2249000     1.141806  -0.14309784  -0.14309784    1.5696073    1.1795413  -0.14309784    1.7127052   439061 
 2250000    1.1407141  -0.14204899  -0.14204899    1.5690183    1.1838324  -0.14204899    1.7110673   439061 
 2251000    1.1398523  -0.14226285  -0.14226285    1.5675117    1.1813682  -0.14226285    1.7097746   439061 
 2252000    1.1403316  -0.14266091  -0.14266091    1.5678326    1.1802037  -0.14266091    1.7104935   439061 
 2253000    1.1403493    -0.142413    -0.142413    1.5681071    1.1805523    -0.142413    1.7105201   439061 
 2254000    1.1406507  -0.14206134  -0.14206134    1.5689109     1.181705  -0.14206134    1.7109722   439061 
 2255000    1.1412828  -0.14353182  -0.14353182    1.5683884    1.1784513  -0.14353182    1.7119203   439061 
 2256000    1.1395907  -0.14203537  -0.14203537    1.5673468    1.1809125  -0.14203537    1.7093821   439061 
 2257000    1.1404396  -0.14322717  -0.14322717    1.5674283     1.179467  -0.14322717    1.7106555   439061 
 2258000    1.1401729  -0.14258306  -0.14258306    1.5676723    1.1832847  -0.14258306    1.7102554   439061 
 2259000    1.1392002  -0.14149297  -0.14149297    1.5673034    1.1817593  -0.14149297    1.7087964   439061 
 2260000    1.1407977  -0.14281519  -0.14281519    1.5683774     1.178718  -0.14281519    1.7111926   439061 
 2261000    1.1394149  -0.14212974  -0.14212974    1.5669888    1.1814383  -0.14212974    1.7091185   439061 
 2262000    1.1387747  -0.14148719  -0.14148719    1.5666709    1.1820004  -0.14148719    1.7081581   439061 
 2263000    1.1405755  -0.14262291  -0.14262291    1.5682364    1.1778662  -0.14262291    1.7108593   439061 
 2264000    1.1396902  -0.14208976  -0.14208976    1.5674416    1.1832678  -0.14208976    1.7095314   439061 
 2265000    1.1400766  -0.14297722  -0.14297722    1.5671338    1.1796202  -0.14297722     1.710111   439061 
 2266000    1.1388355  -0.14135925  -0.14135925      1.56689    1.1840391  -0.14135925    1.7082493   439061 
 2267000    1.1400997  -0.14160825  -0.14160825    1.5685375    1.1835006  -0.14160825    1.7101457   439061 
 2268000     1.141507  -0.14368671  -0.14368671    1.5685699    1.1761931  -0.14368671    1.7122566   439061 
 2269000    1.1411931  -0.14233436  -0.14233436    1.5694514    1.1830956  -0.14233436    1.7117858   439061 
 2270000    1.1411322  -0.14232214  -0.14232214    1.5693722    1.1816349  -0.14232214    1.7116943   439061 
 2271000    1.1404385  -0.14272959  -0.14272959    1.5679242    1.1799367  -0.14272959    1.7106538   439061 
 2272000    1.1408893  -0.14246979  -0.14246979    1.5688603    1.1800681  -0.14246979    1.7113301   439061 
 2273000    1.1399309  -0.14199317  -0.14199317    1.5678993    1.1816628  -0.14199317    1.7098925   439061 
 2274000    1.1393906  -0.14176659  -0.14176659    1.5673154    1.1824827  -0.14176659     1.709082   439061 
 2275000    1.1392534   -0.1418089   -0.1418089    1.5670673    1.1823194   -0.1418089    1.7088762   439061 
 2276000    1.1393073  -0.14124021  -0.14124021    1.5677168    1.1842467  -0.14124021     1.708957   439061 
 2277000    1.1398401  -0.14220491  -0.14220491    1.5675514    1.1806074  -0.14220491    1.7097563   439061 
 2278000    1.1403731  -0.14299974  -0.14299974     1.567556    1.1790815  -0.14299974    1.7105557   439061 
 2279000     1.140243   -0.1418608   -0.1418608    1.5684998    1.1826005   -0.1418608    1.7103606   439061 
 2280000    1.1408568    -0.142215    -0.142215    1.5690663    1.1801934    -0.142215    1.7112813   439061 
 2281000    1.1411555  -0.14330373  -0.14330373    1.5684257    1.1787561  -0.14330373    1.7117294   439061 
 2282000    1.1415039  -0.14326959  -0.14326959    1.5689823    1.1799636  -0.14326959    1.7122519   439061 
 2283000    1.1405362  -0.14221559  -0.14221559    1.5685849    1.1812127  -0.14221559    1.7108005   439061 
 2284000    1.1397543  -0.14180881  -0.14180881    1.5678187     1.182643  -0.14180881    1.7096275   439061 
 2285000    1.1408381  -0.14236085  -0.14236085    1.5688925    1.1811045  -0.14236085    1.7112533   439061 
 2286000    1.1413195  -0.14359374  -0.14359374    1.5683815    1.1800919  -0.14359374    1.7119753   439061 
 2287000    1.1398183  -0.14214639  -0.14214639    1.5675771    1.1783071  -0.14214639    1.7097235   439061 
 2288000    1.1394035  -0.14194049  -0.14194049    1.5671608    1.1818849  -0.14194049    1.7091013   439061 
 2289000    1.1400586  -0.14303224  -0.14303224    1.5670518    1.1794999  -0.14303224    1.7100841   439061 
 2290000    1.1400285  -0.14218347  -0.14218347    1.5678554     1.180949  -0.14218347    1.7100389   439061 
 2291000    1.1399103  -0.14211624  -0.14211624    1.5677453    1.1813411  -0.14211624    1.7098615   439061 
 2292000    1.1394906  -0.14238008  -0.14238008     1.566852    1.1803244  -0.14238008    1.7092321   439061 
 2293000    1.1402531  -0.14269464  -0.14269464    1.5676811    1.1806453  -0.14269464    1.7103757   439061 
 2294000    1.1404856  -0.14213457  -0.14213457    1.5685899    1.1814911  -0.14213457    1.7107245   439061 
 2295000    1.1407524   -0.1429404   -0.1429404    1.5681843    1.1799305   -0.1429404    1.7111247   439061 
 2296000    1.1410735  -0.14411803  -0.14411803    1.5674883    1.1755609  -0.14411803    1.7116063   439061 
 2297000    1.1402332  -0.14154699  -0.14154699    1.5687989    1.1834169  -0.14154699    1.7103459   439061 
 2298000     1.140442  -0.14308124  -0.14308124    1.5675778    1.1770887  -0.14308124    1.7106591   439061 
 2299000    1.1402627  -0.14229695  -0.14229695    1.5680932    1.1803967  -0.14229695    1.7103901   439061 
 2300000    1.1408961  -0.14331138  -0.14331138    1.5680288    1.1794278  -0.14331138    1.7113402   439061 
 2301000    1.1408456  -0.14192657  -0.14192657    1.5693379    1.1822679  -0.14192657    1.7112644   439061 
 2302000    1.1407913  -0.14116308  -0.14116308      1.57002    1.1845038  -0.14116308    1.7111831   439061 
 2303000    1.1415161  -0.14296256  -0.14296256    1.5693077    1.1789292  -0.14296256    1.7122703   439061 
 2304000    1.1404521  -0.14109238  -0.14109238    1.5695819    1.1836139  -0.14109238    1.7106743   439061 
 2305000    1.1408183  -0.14257732  -0.14257732    1.5686462      1.18021  -0.14257732    1.7112235   439061 
 2306000    1.1407689  -0.14250299  -0.14250299    1.5686464    1.1811098  -0.14250299    1.7111494   439061 
 2307000    1.1401317  -0.14289621  -0.14289621    1.5672975    1.1782843  -0.14289621    1.7101937   439061 
 2308000    1.1397416   -0.1425272   -0.1425272    1.5670813    1.1796423   -0.1425272    1.7096085   439061 
 2309000    1.1398569  -0.14230399  -0.14230399    1.5674774     1.181877  -0.14230399    1.7097814   439061 
 2310000      1.14131   -0.1427763   -0.1427763    1.5691848    1.1787857   -0.1427763    1.7119611   439061 
 2311000    1.1400201  -0.14126607  -0.14126607    1.5687602    1.1842883  -0.14126607    1.7100263   439061 
 2312000     1.141127  -0.14350573  -0.14350573    1.5681809     1.177223  -0.14350573    1.7116867   439061 
 2313000    1.1412931  -0.14350433  -0.14350433    1.5684314     1.178744  -0.14350433    1.7119357   439061 
 2314000    1.1402372  -0.14289944  -0.14289944    1.5674525    1.1793059  -0.14289944    1.7103519   439061 
 2315000    1.1396367  -0.14196953  -0.14196953    1.5674816    1.1824026  -0.14196953    1.7094511   439061 
 2316000    1.1409987  -0.14377385  -0.14377385    1.5677203    1.1773434  -0.14377385    1.7114941   439061 
 2317000    1.1392353  -0.14274545  -0.14274545    1.5661036    1.1796753  -0.14274545    1.7088491   439061 
 2318000    1.1396178  -0.14341269  -0.14341269    1.5660101    1.1775062  -0.14341269    1.7094228   439061 
 2319000      1.13838  -0.14229775  -0.14229775    1.5652683    1.1795374  -0.14229775    1.7075661   439061 
 2320000    1.1388877  -0.14208171  -0.14208171    1.5662459    1.1802211  -0.14208171    1.7083276   439061 
 2321000    1.1391322  -0.14150505  -0.14150505    1.5671894    1.1813472  -0.14150505    1.7086944   439061 
 2322000    1.1404165  -0.14284521  -0.14284521    1.5677756    1.1802745  -0.14284521    1.7106208   439061 
 2323000    1.1396053  -0.14215898  -0.14215898    1.5672452    1.1800674  -0.14215898    1.7094041   439061 
 2324000    1.1413097  -0.14251412  -0.14251412    1.5694465    1.1806299  -0.14251412    1.7119606   439061 
 2325000     1.140684  -0.14099884  -0.14099884    1.5700232    1.1851345  -0.14099884    1.7110221   439061 
 2326000    1.1414876   -0.1427572   -0.1427572    1.5694702     1.182286   -0.1427572    1.7122274   439061 
 2327000    1.1410393   -0.1420789   -0.1420789    1.5694761    1.1831517   -0.1420789     1.711555   439061 
 2328000    1.1409038  -0.14237928  -0.14237928    1.5689726    1.1799525  -0.14237928    1.7113519   439061 
 2329000     1.141402  -0.14345909  -0.14345909      1.56864    1.1787251  -0.14345909    1.7120991   439061 
 2330000    1.1399076  -0.14163212  -0.14163212    1.5682254    1.1810275  -0.14163212    1.7098575   439061 
 2331000      1.14116  -0.14344487  -0.14344487    1.5682912    1.1788765  -0.14344487    1.7117361   439061 
 2332000    1.1402142  -0.14099857  -0.14099857    1.5693188    1.1843828  -0.14099857    1.7103174   439061 
 2333000    1.1409602  -0.14231805  -0.14231805    1.5691184    1.1799351  -0.14231805    1.7114365   439061 
 2334000    1.1413114   -0.1425481   -0.1425481    1.5694152    1.1819374   -0.1425481    1.7119633   439061 
 2335000    1.1415652  -0.14217264  -0.14217264    1.5701712    1.1807482  -0.14217264    1.7123439   439061 
 2336000    1.1407206  -0.14160972  -0.14160972    1.5694672    1.1809972  -0.14160972     1.711077   439061 
 2337000    1.1405766    -0.141492    -0.141492    1.5693689    1.1834481    -0.141492    1.7108609   439061 
 2338000     1.141745  -0.14273247  -0.14273247    1.5698811    1.1795216  -0.14273247    1.7126135   439061 
 2339000    1.1415655  -0.14183658  -0.14183658    1.5705078    1.1822393  -0.14183658    1.7123444   439061 
 2340000     1.141119   -0.1421005   -0.1421005     1.569574    1.1804872   -0.1421005    1.7116745   439061 
 2341000    1.1413896  -0.14284931  -0.14284931    1.5692312    1.1796011  -0.14284931    1.7120805   439061 
 2342000    1.1401555  -0.14136554  -0.14136554    1.5688638    1.1852973  -0.14136554    1.7102293   439061 
 2343000    1.1399041  -0.14095938  -0.14095938    1.5688929     1.184431  -0.14095938    1.7098523   439061 
 2344000    1.1391895  -0.14155151  -0.14155151    1.5672288    1.1820673  -0.14155151    1.7087803   439061 
 2345000    1.1398177  -0.14140192  -0.14140192    1.5683208    1.1828289  -0.14140192    1.7097227   439061 
 2346000     1.140206  -0.14234894  -0.14234894    1.5679562     1.179329  -0.14234894    1.7103052   439061 
 2347000    1.1397285  -0.14190816  -0.14190816    1.5676807     1.179869  -0.14190816    1.7095889   439061 
 2348000     1.139718  -0.14285942  -0.14285942    1.5667137    1.1791388  -0.14285942    1.7095731   439061 
 2349000    1.1401835  -0.14298687  -0.14298687    1.5672845    1.1797916  -0.14298687    1.7102714   439061 
 2350000    1.1398776  -0.14138953  -0.14138953     1.568423    1.1830549  -0.14138953    1.7098125   439061 
 2351000    1.1403989  -0.14196289  -0.14196289    1.5686316    1.1819722  -0.14196289    1.7105945   439061 
 2352000    1.1409982  -0.14296868  -0.14296868    1.5685248    1.1789138  -0.14296868    1.7114934   439061 
 2353000      1.14126  -0.14204064  -0.14204064    1.5698455     1.182326  -0.14204064    1.7118861   439061 
 2354000    1.1405998  -0.14161459  -0.14161459    1.5692813    1.1826666  -0.14161459    1.7108959   439061 
 2355000    1.1418521  -0.14300347  -0.14300347    1.5697707    1.1793255  -0.14300347    1.7127742   439061 
 2356000    1.1419051  -0.14260301  -0.14260301    1.5702507    1.1824393  -0.14260301    1.7128537   439061 
 2357000    1.1415366  -0.14217608  -0.14217608    1.5701249    1.1814512  -0.14217608    1.7123009   439061 
 2358000     1.141771  -0.14288376  -0.14288376    1.5697689    1.1801616  -0.14288376    1.7126527   439061 
 2359000    1.1423384  -0.14405154  -0.14405154    1.5694522    1.1771925  -0.14405154    1.7135037   439061 
 2360000    1.1413448   -0.1443525   -0.1443525    1.5676608    1.1759226   -0.1443525    1.7120133   439061 
 2361000    1.1400243  -0.14345584  -0.14345584    1.5665767    1.1767411  -0.14345584    1.7100325   439061 
 2362000    1.1407227  -0.14273731  -0.14273731    1.5683428    1.1809597  -0.14273731    1.7110801   439061 
 2363000    1.1404328  -0.14211094  -0.14211094    1.5685344    1.1822108  -0.14211094    1.7106453   439061 
 2364000    1.1395405  -0.14126112  -0.14126112    1.5680457    1.1825559  -0.14126112    1.7093069   439061 
 2365000    1.1404679  -0.14190361  -0.14190361    1.5687943    1.1817374  -0.14190361    1.7106979   439061 
 2366000    1.1409607  -0.14253072  -0.14253072    1.5689064    1.1803469  -0.14253072    1.7114371   439061 
 2367000    1.1405263  -0.14180806  -0.14180806    1.5689776     1.182252  -0.14180806    1.7107856   439061 
 2368000    1.1405494  -0.14186771  -0.14186771    1.5689526    1.1831386  -0.14186771    1.7108203   439061 
 2369000    1.1405766  -0.14237715  -0.14237715    1.5684839    1.1823393  -0.14237715    1.7108611   439061 
 2370000    1.1401507   -0.1424137   -0.1424137    1.5678085    1.1794198   -0.1424137    1.7102222   439061 
 2371000    1.1403115  -0.14138113  -0.14138113    1.5690822    1.1836317  -0.14138113    1.7104634   439061 
 2372000     1.141324  -0.14282129  -0.14282129    1.5691608    1.1797493  -0.14282129    1.7119821   439061 
 2373000    1.1412246  -0.14288026  -0.14288026    1.5689528    1.1786439  -0.14288026    1.7118331   439061 
 2374000    1.1396953  -0.14150842  -0.14150842    1.5680307     1.183954  -0.14150842    1.7095391   439061 
 2375000    1.1394825  -0.14126313  -0.14126313    1.5679568    1.1838646  -0.14126313    1.7092199   439061 
 2376000    1.1401732  -0.14196948  -0.14196948    1.5682865    1.1816797  -0.14196948    1.7102559   439061 
 2377000    1.1418849  -0.14405956  -0.14405956     1.568764    1.1752475  -0.14405956    1.7128235   439061 
 2378000    1.1401917  -0.14176583  -0.14176583    1.5685178    1.1827097  -0.14176583    1.7102836   439061 
 2379000    1.1418169   -0.1437879   -0.1437879    1.5689336    1.1755014   -0.1437879    1.7127215   439061 
 2380000    1.1410107  -0.14292545  -0.14292545    1.5685867    1.1807443  -0.14292545    1.7115122   439061 
 2381000     1.141935  -0.14374366  -0.14374366    1.5691549    1.1774447  -0.14374366    1.7128986   439061 
 2382000     1.140412  -0.14250486  -0.14250486    1.5681093    1.1799156  -0.14250486    1.7106142   439061 
 2383000    1.1402883  -0.14258551  -0.14258551    1.5678431    1.1804944  -0.14258551    1.7104286   439061 
 2384000    1.1399244  -0.14198273  -0.14198273       1.5679    1.1825143  -0.14198273    1.7098827   439061 
 2385000     1.139927  -0.14173136  -0.14173136    1.5681553    1.1816086  -0.14173136    1.7098867   439061 
 2386000    1.1403292  -0.14195896  -0.14195896     1.568531    1.1823663  -0.14195896    1.7104899   439061 
 2387000    1.1411399  -0.14307513  -0.14307513    1.5686308    1.1783035  -0.14307513     1.711706   439061 
 2388000    1.1406175  -0.14178782  -0.14178782    1.5691346    1.1826953  -0.14178782    1.7109224   439061 
 2389000    1.1416113   -0.1431793   -0.1431793    1.5692337    1.1789507   -0.1431793     1.712413   439061 
 2390000    1.1415853  -0.14332266  -0.14332266    1.5690514     1.178215  -0.14332266    1.7123741   439061 
 2391000    1.1403767  -0.14216988  -0.14216988    1.5683913    1.1805225  -0.14216988    1.7105612   439061 
 2392000    1.1397483  -0.14199625  -0.14199625    1.5676222    1.1814043  -0.14199625    1.7096185   439061 
 2393000     1.139537  -0.14206606  -0.14206606    1.5672355    1.1799528  -0.14206606    1.7093015   439061 
 2394000    1.1408768  -0.14299393  -0.14299393    1.5683174    1.1809334  -0.14299393    1.7113113   439061 
 2395000    1.1406725  -0.14318383  -0.14318383     1.567821    1.1785468  -0.14318383    1.7110048   439061 
 2396000    1.1402768  -0.14227552  -0.14227552    1.5681358    1.1806448  -0.14227552    1.7104113   439061 
 2397000    1.1387841  -0.14123768  -0.14123768    1.5669346    1.1825314  -0.14123768    1.7081723   439061 
 2398000    1.1404941  -0.14325234  -0.14325234     1.567485    1.1782581  -0.14325234    1.7107373   439061 
 2399000    1.1387152  -0.14242223  -0.14242223    1.5656466    1.1791409  -0.14242223    1.7080688   439061 
 2400000    1.1399401  -0.14353468  -0.14353468    1.5663716     1.176638  -0.14353468    1.7099063   439061 
 2401000    1.1397189  -0.14238358  -0.14238358    1.5671908    1.1797908  -0.14238358    1.7095744   439061 
 2402000     1.139768  -0.14243192  -0.14243192    1.5672162    1.1802797  -0.14243192    1.7096481   439061 
 2403000    1.1400944  -0.14239204  -0.14239204    1.5677456    1.1805404  -0.14239204    1.7101376   439061 
 2404000    1.1394714    -0.142655    -0.142655    1.5665482    1.1797932    -0.142655    1.7092032   439061 
 2405000    1.1390571  -0.14280642  -0.14280642    1.5657754     1.178108  -0.14280642    1.7085818   439061 
 2406000    1.1393927  -0.14271042  -0.14271042    1.5663747     1.180134  -0.14271042    1.7090852   439061 
 2407000    1.1396669  -0.14227093  -0.14227093    1.5672255    1.1795187  -0.14227093    1.7094964   439061 
 2408000    1.1385278  -0.14045617  -0.14045617    1.5673317    1.1860012  -0.14045617    1.7077878   439061 
 2409000     1.140287   -0.1426326   -0.1426326     1.567794    1.1789831   -0.1426326    1.7104266   439061 
 2410000    1.1410513  -0.14272519  -0.14272519    1.5688479    1.1806175  -0.14272519    1.7115731   439061 
 2411000    1.1409551  -0.14297015  -0.14297015    1.5684587    1.1787334  -0.14297015    1.7114288   439061 
 2412000    1.1409545  -0.14343759  -0.14343759    1.5679902    1.1784281  -0.14343759    1.7114278   439061 
 2413000    1.1395328  -0.14197181  -0.14197181    1.5673235    1.1799129  -0.14197181    1.7092953   439061 
 2414000    1.1397998  -0.14244527  -0.14244527    1.5672505    1.1797425  -0.14244527    1.7096958   439061 
 2415000    1.1398289  -0.14291232  -0.14291232    1.5668271    1.1804221  -0.14291232    1.7097394   439061 
 2416000    1.1387455  -0.14166815  -0.14166815    1.5664462    1.1812675  -0.14166815    1.7081144   439061 
 2417000    1.1395504  -0.14269672  -0.14269672    1.5666251    1.1766634  -0.14269672    1.7093218   439061 
 2418000    1.1396462   -0.1418675   -0.1418675    1.5675979    1.1811818   -0.1418675    1.7094654   439061 
 2419000    1.1400805  -0.14197614  -0.14197614    1.5681407    1.1807356  -0.14197614    1.7101168   439061 
 2420000    1.1408828  -0.14320054  -0.14320054    1.5681198    1.1775926  -0.14320054    1.7113203   439061 
 2421000    1.1406061  -0.14255458  -0.14255458    1.5683506    1.1803969  -0.14255458    1.7109052   439061 
 2422000    1.1404875  -0.14279828  -0.14279828     1.567929      1.17895  -0.14279828    1.7107273   439061 
 2423000    1.1397485  -0.14238079  -0.14238079    1.5672381    1.1808332  -0.14238079    1.7096189   439061 
 2424000      1.14034  -0.14271001  -0.14271001     1.567796    1.1788198  -0.14271001     1.710506   439061 
 2425000    1.1407541  -0.14166589  -0.14166589    1.5694614    1.1820597  -0.14166589    1.7111273   439061 
 2426000    1.1393953  -0.14102157  -0.14102157    1.5680676    1.1855495  -0.14102157    1.7090891   439061 
 2427000     1.138966  -0.14183412  -0.14183412     1.566611    1.1809052  -0.14183412    1.7084451   439061 
 2428000    1.1405433  -0.14334253  -0.14334253    1.5674684    1.1796635  -0.14334253     1.710811   439061 
 2429000    1.1422211  -0.14403493  -0.14403493    1.5692928    1.1769757  -0.14403493    1.7133277   439061 
 2430000    1.1403601  -0.14269252  -0.14269252    1.5678438    1.1802717  -0.14269252    1.7105363   439061 
 2431000    1.1404735  -0.14167177  -0.14167177    1.5690346    1.1824514  -0.14167177    1.7107063   439061 
 2432000     1.141235  -0.14250858  -0.14250858      1.56934    1.1790374  -0.14250858    1.7118486   439061 
 2433000     1.140165  -0.14203558  -0.14203558     1.568208    1.1800704  -0.14203558    1.7102436   439061 
 2434000    1.1404567  -0.14212313  -0.14212313    1.5685581    1.1804991  -0.14212313    1.7106812   439061 
 2435000    1.1407526  -0.14120767  -0.14120767    1.5699173    1.1870186  -0.14120767     1.711125   439061 
 2436000    1.1395513  -0.14061172  -0.14061172    1.5687113    1.1861512  -0.14061172     1.709323   439061 
 2437000    1.1393362  -0.14109568  -0.14109568    1.5679048    1.1832096  -0.14109568    1.7090005   439061 
 2438000    1.1397248  -0.14181608  -0.14181608    1.5677672    1.1830557  -0.14181608    1.7095833   439061 
 2439000    1.1393745  -0.14157391  -0.14157391     1.567484    1.1822571  -0.14157391    1.7090579   439061 
 2440000    1.1397553  -0.14204762  -0.14204762    1.5675815    1.1802751  -0.14204762    1.7096291   439061 
 2441000    1.1404621  -0.14339146  -0.14339146    1.5672977    1.1782903  -0.14339146    1.7106892   439061 
 2442000    1.1408484    -0.143291    -0.143291    1.5679777    1.1761226    -0.143291    1.7112687   439061 
 2443000    1.1384103  -0.14133612  -0.14133612    1.5662754    1.1842282  -0.14133612    1.7076115   439061 
 2444000    1.1392558  -0.14271204  -0.14271204    1.5661678    1.1774706  -0.14271204    1.7088799   439061 
 2445000    1.1387451  -0.14053778  -0.14053778    1.5675759    1.1876832  -0.14053778    1.7081137   439061 
 2446000     1.140519    -0.143285    -0.143285    1.5674896    1.1779291    -0.143285    1.7107746   439061 
 2447000    1.1396664  -0.14294715  -0.14294715    1.5665485    1.1797057  -0.14294715    1.7094956   439061 
 2448000    1.1398046  -0.14292985  -0.14292985    1.5667732    1.1782215  -0.14292985    1.7097031   439061 
 2449000    1.1394315  -0.14329138  -0.14329138     1.565852    1.1787572  -0.14329138    1.7091434   439061 
 2450000    1.1386763  -0.14220773  -0.14220773    1.5658029    1.1804488  -0.14220773    1.7080106   439061 
 2451000    1.1387274  -0.14314568  -0.14314568    1.5649415    1.1783379  -0.14314568    1.7080871   439061 
 2452000    1.1376257  -0.14270194  -0.14270194    1.5637328    1.1777881  -0.14270194    1.7064347   439061 
 2453000    1.1396174   -0.1438222   -0.1438222       1.5656    1.1775791   -0.1438222    1.7094222   439061 
 2454000    1.1391636  -0.14255093  -0.14255093    1.5661906    1.1782413  -0.14255093    1.7087415   439061 
 2455000    1.1381434  -0.14172097  -0.14172097    1.5654903    1.1820468  -0.14172097    1.7072112   439061 
 2456000    1.1386658   -0.1410888   -0.1410888     1.566906    1.1843915   -0.1410888    1.7079948   439061 
 2457000     1.139871  -0.14279714  -0.14279714    1.5670054    1.1790838  -0.14279714    1.7098026   439061 
 2458000    1.1405279  -0.14343123  -0.14343123    1.5673568    1.1777802  -0.14343123     1.710788   439061 
 2459000    1.1414042  -0.14395249  -0.14395249    1.5681499    1.1774144  -0.14395249    1.7121024   439061 
 2460000    1.1399572  -0.14201097  -0.14201097    1.5679209    1.1826015  -0.14201097    1.7099319   439061 
 2461000    1.1414622  -0.14361911  -0.14361911    1.5685703    1.1761404  -0.14361911    1.7121894   439061 
 2462000    1.1396328  -0.14214786  -0.14214786    1.5672974    1.1816608  -0.14214786    1.7094453   439061 
 2463000    1.1403372  -0.14323623  -0.14323623    1.5672657    1.1768312  -0.14323623    1.7105019   439061 
 2464000    1.1397005  -0.14221941  -0.14221941    1.5673274    1.1814284  -0.14221941    1.7095468   439061 
 2465000    1.1405776  -0.14300048  -0.14300048     1.567862    1.1782299  -0.14300048    1.7108625   439061 
 2466000    1.1391732  -0.14186257  -0.14186257    1.5668933    1.1826119  -0.14186257    1.7087559   439061 
 2467000    1.1387927  -0.14168946  -0.14168946    1.5664957    1.1815718  -0.14168946    1.7081852   439061 
 2468000    1.1394358  -0.14292467  -0.14292467    1.5662251    1.1781808  -0.14292467    1.7091498   439061 
 2469000    1.1390972    -0.143204    -0.143204    1.5654379    1.1790432    -0.143204    1.7086419   439061 
 2470000    1.1390181  -0.14189532  -0.14189532     1.566628    1.1819339  -0.14189532    1.7085233   439061 
 2471000    1.1392339  -0.14251032  -0.14251032    1.5663367    1.1808816  -0.14251032     1.708847   439061 
 2472000    1.1401637  -0.14291499  -0.14291499    1.5673267    1.1804362  -0.14291499    1.7102417   439061 
 2473000    1.1395375  -0.14281304  -0.14281304    1.5664893    1.1780882  -0.14281304    1.7093024   439061 
 2474000    1.1387763  -0.14162363  -0.14162363    1.5665369     1.181494  -0.14162363    1.7081606   439061 
 2475000    1.1392097  -0.14226021  -0.14226021    1.5665505     1.182541  -0.14226021    1.7088107   439061 
 2476000    1.1397822  -0.14238248  -0.14238248    1.5672869    1.1806242  -0.14238248    1.7096694   439061 
 2477000    1.1389568  -0.14246507  -0.14246507    1.5659662    1.1791368  -0.14246507    1.7084313   439061 
 2478000    1.1385769  -0.14233825  -0.14233825    1.5655232    1.1799801  -0.14233825    1.7078615   439061 
 2479000    1.1384477  -0.14248698  -0.14248698    1.5651806    1.1804923  -0.14248698    1.7076676   439061 
 2480000    1.1392751  -0.14307355  -0.14307355    1.5658352    1.1773442  -0.14307355    1.7089087   439061 
 2481000    1.1387147  -0.14233924  -0.14233924     1.565729    1.1804137  -0.14233924    1.7080682   439061 
 2482000    1.1378282  -0.14176648  -0.14176648     1.564972    1.1805902  -0.14176648    1.7067385   439061 
 2483000     1.137927  -0.14201083  -0.14201083    1.5648758    1.1811587  -0.14201083    1.7068866   439061 
 2484000    1.1384938  -0.14342508  -0.14342508    1.5643118    1.1776323  -0.14342508    1.7077368   439061 
 2485000    1.1372594  -0.14172746  -0.14172746    1.5641577    1.1817503  -0.14172746    1.7058852   439061 
 2486000     1.137828  -0.14253353  -0.14253353    1.5642046    1.1785932  -0.14253353    1.7067382   439061 
 2487000    1.1395049  -0.14458813  -0.14458813    1.5646653    1.1742512  -0.14458813    1.7092534   439061 
 2488000    1.1384969  -0.14351158  -0.14351158    1.5642299    1.1774794  -0.14351158    1.7077415   439061 
 2489000    1.1377583  -0.14257131  -0.14257131    1.5640622     1.179553  -0.14257131    1.7066335   439061 
 2490000    1.1383803  -0.14382968  -0.14382968    1.5637369    1.1759948  -0.14382968    1.7075666   439061 
 2491000    1.1373365  -0.14184248  -0.14184248    1.5641584    1.1816091  -0.14184248    1.7060009   439061 
 2492000    1.1385652  -0.14323473  -0.14323473    1.5646092    1.1766735  -0.14323473     1.707844   439061 
 2493000    1.1370644  -0.14090509  -0.14090509    1.5646877    1.1822533  -0.14090509    1.7055928   439061 
 2494000    1.1388424   -0.1428697   -0.1428697      1.56539    1.1786847   -0.1428697    1.7082597   439061 
 2495000    1.1384206   -0.1417177   -0.1417177    1.5659093    1.1803181   -0.1417177     1.707627   439061 
 2496000    1.1393319  -0.14376453  -0.14376453    1.5652295    1.1767172  -0.14376453     1.708994   439061 
 2497000    1.1381877   -0.1427871   -0.1427871    1.5644906    1.1795703   -0.1427871    1.7072777   439061 
 2498000    1.1378092  -0.14230344  -0.14230344    1.5644065    1.1798824  -0.14230344    1.7067099   439061 
 2499000    1.1382112  -0.14274441  -0.14274441    1.5645685    1.1781694  -0.14274441     1.707313   439061 
 2500000     1.137335  -0.14306304  -0.14306304    1.5629356    1.1784341  -0.14306304    1.7059986   439061 
 2501000    1.1379113  -0.14442811  -0.14442811     1.562435    1.1724801  -0.14442811    1.7068631   439061 
 2502000    1.1371836  -0.14217042  -0.14217042    1.5636012    1.1795335  -0.14217042    1.7057716   439061 
 2503000    1.1371124  -0.14206998  -0.14206998    1.5635948    1.1799051  -0.14206998    1.7056647   439061 
 2504000    1.1382233  -0.14241551  -0.14241551    1.5649156    1.1806399  -0.14241551    1.7073311   439061 
 2505000    1.1380016  -0.14241803  -0.14241803    1.5645805     1.180421  -0.14241803    1.7069986   439061 
 2506000    1.1385269  -0.14331737  -0.14331737    1.5644691    1.1784046  -0.14331737    1.7077864   439061 
 2507000     1.137455  -0.14173724  -0.14173724    1.5644414    1.1817485  -0.14173724    1.7061787   439061 
 2508000    1.1386812  -0.14307984  -0.14307984    1.5649381    1.1767815  -0.14307984    1.7080179   439061 
 2509000    1.1375712  -0.14190114  -0.14190114    1.5644518    1.1835042  -0.14190114    1.7063529   439061 
 2510000    1.1370667   -0.1419991   -0.1419991     1.563597    1.1788439   -0.1419991    1.7055961   439061 
 2511000    1.1383627  -0.14336472  -0.14336472    1.5641754    1.1775965  -0.14336472    1.7075401   439061 
 2512000    1.1380055  -0.14359399  -0.14359399    1.5634103    1.1751579  -0.14359399    1.7070043   439061 
 2513000    1.1369009  -0.14146201  -0.14146201    1.5638854    1.1837668  -0.14146201    1.7053474   439061 
 2514000     1.137936  -0.14286051  -0.14286051    1.5640396    1.1771371  -0.14286051    1.7069001   439061 
 2515000    1.1382254   -0.1425962   -0.1425962     1.564738    1.1799277   -0.1425962    1.7073342   439061 
 2516000    1.1370575  -0.14170395  -0.14170395    1.5638785    1.1813384  -0.14170395    1.7055824   439061 
 2517000    1.1379393   -0.1436068   -0.1436068    1.5632983    1.1764624   -0.1436068    1.7069051   439061 
 2518000    1.1383932  -0.14318966  -0.14318966    1.5643963    1.1780986  -0.14318966     1.707586   439061 
 2519000     1.137672  -0.14262085  -0.14262085    1.5638832    1.1791778  -0.14262085    1.7065041   439061 
 2520000    1.1380206  -0.14278619  -0.14278619    1.5642408    1.1783954  -0.14278619     1.707027   439061 
 2521000    1.1385712  -0.14326539  -0.14326539    1.5645876    1.1773194  -0.14326539     1.707853   439061 
 2522000    1.1379326  -0.14189508  -0.14189508        1.565    1.1812463  -0.14189508     1.706895   439061 
 2523000    1.1387405  -0.14363611  -0.14363611    1.5644708    1.1769381  -0.14363611    1.7081069   439061 
 2524000    1.1383151  -0.14252941  -0.14252941    1.5649394    1.1798481  -0.14252941    1.7074688   439061 
 2525000    1.1374876  -0.14221751  -0.14221751      1.56401    1.1794582  -0.14221751    1.7062275   439061 
 2526000    1.1386823  -0.14441193  -0.14441193    1.5636077    1.1748446  -0.14441193    1.7080196   439061 
 2527000    1.1373066  -0.14332422  -0.14332422    1.5626318     1.175791  -0.14332422     1.705956   439061 
 2528000    1.1372327  -0.14282141  -0.14282141    1.5630237    1.1795001  -0.14282141    1.7058451   439061 
 2529000    1.1379391  -0.14351644  -0.14351644    1.5633883    1.1761862  -0.14351644    1.7069047   439061 
 2530000    1.1363304  -0.14187153  -0.14187153    1.5626203     1.179309  -0.14187153    1.7044918   439061 
 2531000    1.1370458  -0.14269786  -0.14269786     1.562867    1.1798507  -0.14269786    1.7055649   439061 
 2532000    1.1374882  -0.14305908  -0.14305908    1.5631693    1.1784559  -0.14305908    1.7062284   439061 
 2533000    1.1377247  -0.14301369  -0.14301369    1.5635694    1.1778923  -0.14301369    1.7065831   439061 
 2534000    1.1371791  -0.14291175  -0.14291175     1.562853    1.1776607  -0.14291175    1.7057647   439061 
 2535000    1.1385163  -0.14365643  -0.14365643    1.5641141    1.1767202  -0.14365643    1.7077706   439061 
 2536000    1.1373123  -0.14282213  -0.14282213    1.5631424    1.1774511  -0.14282213    1.7059646   439061 
 2537000    1.1371064  -0.14195699  -0.14195699    1.5636987    1.1781163  -0.14195699    1.7056557   439061 
 2538000     1.138381  -0.14371369  -0.14371369    1.5638539    1.1760794  -0.14371369    1.7075676   439061 
 2539000    1.1381048  -0.14253446  -0.14253446    1.5646188    1.1773817  -0.14253446    1.7071533   439061 
 2540000    1.1383307  -0.14424769  -0.14424769    1.5632445    1.1739049  -0.14424769    1.7074922   439061 
 2541000    1.1379567  -0.14232621  -0.14232621    1.5646049    1.1792023  -0.14232621    1.7069311   439061 
 2542000    1.1383796  -0.14350911  -0.14350911    1.5640564    1.1745986  -0.14350911    1.7075655   439061 
 2543000    1.1371776  -0.14163344  -0.14163344     1.564129     1.182181  -0.14163344    1.7057625   439061 
 2544000    1.1380856  -0.14265509  -0.14265509    1.5644694     1.177195  -0.14265509    1.7071245   439061 
 2545000    1.1380537  -0.14376962  -0.14376962     1.563307     1.175414  -0.14376962    1.7070766   439061 
 2546000    1.1379546  -0.14377864  -0.14377864    1.5631493    1.1760787  -0.14377864     1.706928   439061 
 2547000    1.1364905  -0.14184586  -0.14184586    1.5628861    1.1782413  -0.14184586    1.7047319   439061 
 2548000    1.1354013  -0.14120827  -0.14120827    1.5618898    1.1815001  -0.14120827     1.703098   439061 
 2549000    1.1367124  -0.14266205  -0.14266205    1.5624026      1.17564  -0.14266205    1.7050647   439061 
 2550000     1.136382  -0.14336504  -0.14336504    1.5612041    1.1763892  -0.14336504    1.7045692   439061 
 2551000    1.1358838  -0.14207748  -0.14207748    1.5617443    1.1796396  -0.14207748    1.7038218   439061 
 2552000    1.1352043  -0.14167356  -0.14167356    1.5611291    1.1789316  -0.14167356    1.7028026   439061 
 2553000    1.1364606  -0.14284426  -0.14284426    1.5618427    1.1778964  -0.14284426     1.704687   439061 
 2554000    1.1368603   -0.1429232   -0.1429232    1.5623633    1.1790567   -0.1429232    1.7052865   439061 
 2555000    1.1378872  -0.14234812  -0.14234812    1.5644787    1.1805824  -0.14234812    1.7068268   439061 
 2556000    1.1376338  -0.14313546  -0.14313546    1.5633114    1.1767021  -0.14313546    1.7064469   439061 
 2557000    1.1370802  -0.14175788  -0.14175788    1.5638585    1.1816155  -0.14175788    1.7056164   439061 
 2558000    1.1366398  -0.14248152  -0.14248152    1.5624742    1.1786161  -0.14248152    1.7049558   439061 
 2559000    1.1377241  -0.14393465  -0.14393465    1.5626477     1.176103  -0.14393465    1.7065823   439061 
 2560000    1.1377047   -0.1428537   -0.1428537    1.5636994    1.1778879   -0.1428537    1.7065531   439061 
 2561000    1.1369414  -0.14162251  -0.14162251    1.5637858    1.1832895  -0.14162251    1.7054083   439061 
 2562000    1.1380282  -0.14383043  -0.14383043    1.5632079    1.1750793  -0.14383043    1.7070384   439061 
 2563000    1.1383341   -0.1438342   -0.1438342     1.563663    1.1754127   -0.1438342    1.7074972   439061 
 2564000    1.1384553  -0.14391556  -0.14391556    1.5637635    1.1752899  -0.14391556     1.707679   439061 
 2565000    1.1368787  -0.14304817  -0.14304817    1.5622659    1.1767774  -0.14304817    1.7053141   439061 
 2566000    1.1380456  -0.14345707  -0.14345707    1.5636074    1.1763533  -0.14345707    1.7070645   439061 
 2567000    1.1382347  -0.14336685  -0.14336685    1.5639813    1.1781476  -0.14336685    1.7073482   439061 
 2568000    1.1376997  -0.14263352  -0.14263352    1.5639122    1.1788679  -0.14263352    1.7065457   439061 
 2569000    1.1366042  -0.14141245  -0.14141245    1.5634899    1.1813861  -0.14141245    1.7049024   439061 
 2570000    1.1375734  -0.14320034  -0.14320034    1.5631559    1.1763155  -0.14320034    1.7063562   439061 
 2571000    1.1369907  -0.14325551  -0.14325551    1.5622267    1.1765586  -0.14325551    1.7054822   439061 
 2572000    1.1377421  -0.14355556  -0.14355556    1.5630537    1.1779891  -0.14355556    1.7066093   439061 
 2573000    1.1382129   -0.1451982   -0.1451982    1.5621173    1.1733674   -0.1451982    1.7073155   439061 
 2574000     1.136618  -0.14359986  -0.14359986    1.5613233    1.1760683  -0.14359986    1.7049232   439061 
 2575000    1.1356499  -0.14280888  -0.14280888    1.5606622    1.1788497  -0.14280888     1.703471   439061 
 2576000    1.1362142   -0.1435122   -0.1435122    1.5608052    1.1744832   -0.1435122    1.7043174   439061 
 2577000    1.1358533  -0.14378218  -0.14378218    1.5599939    1.1737744  -0.14378218     1.703776   439061 
 2578000    1.1363072  -0.14341382  -0.14341382    1.5610431    1.1752476  -0.14341382    1.7044569   439061 
 2579000    1.1351127  -0.14181386  -0.14181386    1.5608513    1.1810402  -0.14181386    1.7026651   439061 
 2580000    1.1368249  -0.14387178  -0.14387178    1.5613617    1.1757239  -0.14387178    1.7052335   439061 
 2581000    1.1366953  -0.14246022  -0.14246022    1.5625789    1.1791216  -0.14246022    1.7050391   439061 
 2582000    1.1365054  -0.14407178  -0.14407178    1.5606825    1.1736942  -0.14407178    1.7047542   439061 
 2583000    1.1367994  -0.14311025  -0.14311025    1.5620849    1.1771484  -0.14311025    1.7051952   439061 
 2584000    1.1372192  -0.14348301  -0.14348301    1.5623418    1.1749202  -0.14348301    1.7058248   439061 
 2585000    1.1374921   -0.1431482   -0.1431482     1.563086    1.1763031   -0.1431482    1.7062342   439061 
 2586000    1.1369383  -0.14225194  -0.14225194    1.5631517    1.1791861  -0.14225194    1.7054036   439061 
 2587000    1.1373358  -0.14197514  -0.14197514    1.5640247    1.1808596  -0.14197514    1.7059998   439061 
 2588000    1.1375525   -0.1439079   -0.1439079    1.5624169     1.174343   -0.1439079    1.7063248   439061 
 2589000    1.1380146  -0.14314983  -0.14314983    1.5638682    1.1773395  -0.14314983     1.707018   439061 
 2590000    1.1371737  -0.14237313  -0.14237313    1.5633835    1.1782108  -0.14237313    1.7057566   439061 
 2591000    1.1378072  -0.14323043  -0.14323043    1.5634765    1.1782151  -0.14323043    1.7067069   439061 
 2592000    1.1371762  -0.14335605  -0.14335605    1.5624043    1.1769282  -0.14335605    1.7057604   439061 
 2593000    1.1373893  -0.14379948  -0.14379948    1.5622806    1.1752619  -0.14379948      1.70608   439061 
 2594000    1.1367838  -0.14365213  -0.14365213    1.5615197    1.1731399  -0.14365213    1.7051718   439061 
 2595000     1.136283  -0.14382148  -0.14382148    1.5605991    1.1749329  -0.14382148    1.7044206   439061 
 2596000    1.1367526  -0.14358637  -0.14358637    1.5615386    1.1766954  -0.14358637     1.705125   439061 
 2597000    1.1365667  -0.14370369  -0.14370369    1.5611425    1.1733461  -0.14370369    1.7048462   439061 
 2598000    1.1366096  -0.14343931  -0.14343931    1.5614712    1.1755087  -0.14343931    1.7049105   439061 
 2599000    1.1372719  -0.14364883  -0.14364883    1.5622551    1.1756132  -0.14364883    1.7059039   439061 
 2600000    1.1370795  -0.14260078  -0.14260078    1.5630145     1.178632  -0.14260078    1.7056153   439061 
 2601000    1.1372288  -0.14291529  -0.14291529     1.562924    1.1788427  -0.14291529    1.7058393   439061 
 2602000    1.1372677  -0.14386826  -0.14386826    1.5620294    1.1757319  -0.14386826    1.7058976   439061 
 2603000    1.1373436  -0.14372567  -0.14372567    1.5622859    1.1765445  -0.14372567    1.7060116   439061 
 2604000    1.1367861  -0.14256601  -0.14256601    1.5626093     1.179447  -0.14256601    1.7051753   439061 
 2605000    1.1372411  -0.14296459  -0.14296459    1.5628932    1.1794381  -0.14296459    1.7058578   439061 
 2606000    1.1368541  -0.14227006  -0.14227006    1.5630072    1.1792139  -0.14227006    1.7052773   439061 
 2607000    1.1377133  -0.14376799  -0.14376799    1.5627981    1.1749803  -0.14376799    1.7065661   439061 
 2608000    1.1371104   -0.1436263   -0.1436263    1.5620354    1.1746188   -0.1436263    1.7056617   439061 
 2609000    1.1372938  -0.14455317  -0.14455317    1.5613837     1.173488  -0.14455317    1.7059369   439061 
 2610000    1.1366079  -0.14363244  -0.14363244    1.5612755    1.1760963  -0.14363244     1.704908   439061 
 2611000     1.135799  -0.14250302  -0.14250302    1.5611915    1.1791266  -0.14250302    1.7036945   439061 
 2612000    1.1367836  -0.14355631  -0.14355631    1.5616153       1.1744  -0.14355631    1.7051716   439061 
 2613000    1.1364469  -0.14227629  -0.14227629    1.5623902    1.1797662  -0.14227629    1.7046665   439061 
 2614000    1.1367652  -0.14297065  -0.14297065    1.5621733    1.1772239  -0.14297065    1.7051439   439061 
 2615000    1.1373513  -0.14440035  -0.14440035    1.5616227    1.1735765  -0.14440035    1.7060231   439061 
 2616000    1.1377896  -0.14357625  -0.14357625    1.5631043    1.1751265  -0.14357625    1.7066805   439061 
 2617000     1.137106  -0.14301273  -0.14301273    1.5626423    1.1775281  -0.14301273    1.7056551   439061 
 2618000    1.1367271   -0.1424232   -0.1424232    1.5626636    1.1785862   -0.1424232    1.7050868   439061 
 2619000    1.1368962  -0.14271459  -0.14271459    1.5626258    1.1782896  -0.14271459    1.7053404   439061 
 2620000    1.1380472   -0.1448512   -0.1448512    1.5622158    1.1717822   -0.1448512     1.707067   439061 
 2621000     1.136034  -0.14298875  -0.14298875    1.5610584    1.1762299  -0.14298875    1.7040471   439061 
 2622000    1.1370105  -0.14308342  -0.14308342    1.5624284      1.17665  -0.14308342    1.7055118   439061 
 2623000    1.1363996  -0.14320888  -0.14320888    1.5613866    1.1777059  -0.14320888    1.7045955   439061 
 2624000    1.1376359  -0.14463191  -0.14463191    1.5618181    1.1720907  -0.14463191      1.70645   439061 
 2625000    1.1379073  -0.14353135  -0.14353135    1.5633257    1.1766129  -0.14353135     1.706857   439061 
 2626000    1.1384994  -0.14362969  -0.14362969    1.5641155    1.1749682  -0.14362969    1.7077452   439061 
 2627000    1.1375482  -0.14252615  -0.14252615    1.5637923      1.17848  -0.14252615    1.7063184   439061 
 2628000    1.1361162  -0.14124236  -0.14124236     1.562928    1.1821439  -0.14124236    1.7041704   439061 
 2629000    1.1372781  -0.14384147  -0.14384147    1.5620717     1.175666  -0.14384147    1.7059132   439061 
 2630000    1.1365804  -0.14258552  -0.14258552    1.5622812    1.1777684  -0.14258552    1.7048667   439061 
 2631000    1.1370328  -0.14255531  -0.14255531      1.56299    1.1770989  -0.14255531    1.7055453   439061 
 2632000    1.1358541  -0.14185775  -0.14185775    1.5619195    1.1797603  -0.14185775    1.7037772   439061 
 2633000    1.1367794  -0.14272945  -0.14272945    1.5624357    1.1788608  -0.14272945    1.7051652   439061 
 2634000    1.1381715  -0.14432312  -0.14432312    1.5629302    1.1757265  -0.14432312    1.7072533   439061 
 2635000    1.1361142  -0.14170772  -0.14170772    1.5624597     1.182152  -0.14170772    1.7041674   439061 
 2636000    1.1368774   -0.1448297   -0.1448297    1.5604825    1.1722272   -0.1448297    1.7053122   439061 
 2637000    1.1369417  -0.14356961  -0.14356961    1.5618391    1.1763015  -0.14356961    1.7054087   439061 
 2638000     1.137035  -0.14384559  -0.14384559    1.5617031    1.1748542  -0.14384559    1.7055487   439061 
 2639000     1.136619  -0.14353742  -0.14353742    1.5613873    1.1763344  -0.14353742    1.7049247   439061 
 2640000    1.1358306   -0.1424315   -0.1424315    1.5613105    1.1779583   -0.1424315    1.7037421   439061 
 2641000    1.1355201  -0.14246273  -0.14246273    1.5608136     1.179391  -0.14246273    1.7032763   439061 
 2642000    1.1367052  -0.14350326  -0.14350326    1.5615507     1.176888  -0.14350326    1.7050539   439061 
 2643000    1.1355658  -0.14265618  -0.14265618    1.5606887    1.1797089  -0.14265618    1.7033448   439061 
 2644000    1.1355178  -0.14347844  -0.14347844    1.5597944    1.1756271  -0.14347844    1.7032728   439061 
 2645000     1.135575  -0.14300939  -0.14300939    1.5603492    1.1768456  -0.14300939    1.7033586   439061 
 2646000     1.136128  -0.14261856  -0.14261856    1.5615696    1.1785659  -0.14261856    1.7041882   439061 
 2647000     1.136173  -0.14352772  -0.14352772    1.5607278    1.1761645  -0.14352772    1.7042556   439061 
 2648000    1.1381575  -0.14542237  -0.14542237    1.5618099    1.1708449  -0.14542237    1.7072323   439061 
 2649000    1.1372423  -0.14393072  -0.14393072    1.5619288    1.1744908  -0.14393072    1.7058596   439061 
 2650000     1.136701    -0.143292    -0.143292    1.5617556    1.1772422    -0.143292    1.7050476   439061 
 2651000    1.1372664  -0.14474134  -0.14474134    1.5611544    1.1708183  -0.14474134    1.7058957   439061 
 2652000     1.136772  -0.14276122  -0.14276122    1.5623929    1.1788084  -0.14276122    1.7051542   439061 
 2653000    1.1369704  -0.14440575  -0.14440575     1.561046    1.1726591  -0.14440575    1.7054517   439061 
 2654000    1.1357046  -0.14299534  -0.14299534    1.5605577    1.1783652  -0.14299534     1.703553   439061 
 2655000    1.1356919  -0.14249304  -0.14249304    1.5610409    1.1769128  -0.14249304    1.7035339   439061 
 2656000     1.136058  -0.14397006  -0.14397006    1.5601131    1.1745215  -0.14397006    1.7040831   439061 
 2657000    1.1362443  -0.14406791  -0.14406791    1.5602946    1.1728584  -0.14406791    1.7043625   439061 
 2658000    1.1360704  -0.14395339  -0.14395339    1.5601483     1.175826  -0.14395339    1.7041017   439061 
 2659000    1.1358955  -0.14271432  -0.14271432     1.561125    1.1762728  -0.14271432    1.7038393   439061 
 2660000     1.136296  -0.14350749  -0.14350749    1.5609326    1.1771474  -0.14350749    1.7044401   439061 
 2661000     1.135852  -0.14398257  -0.14398257    1.5597915    1.1738523  -0.14398257    1.7037741   439061 
 2662000    1.1354934  -0.14314373  -0.14314373    1.5600924    1.1782779  -0.14314373    1.7032361   439061 
 2663000    1.1353873  -0.14353562  -0.14353562    1.5595414    1.1751738  -0.14353562    1.7030771   439061 
 2664000    1.1348256  -0.14298369  -0.14298369    1.5592508    1.1769603  -0.14298369    1.7022345   439061 
 2665000    1.1346501  -0.14245292  -0.14245292    1.5595183    1.1774716  -0.14245292    1.7019712   439061 
 2666000    1.1351507  -0.14372907  -0.14372907    1.5589931    1.1730219  -0.14372907    1.7027222   439061 
 2667000     1.135453  -0.14385512  -0.14385512    1.5593205    1.1740305  -0.14385512    1.7031756   439061 
 2668000    1.1349663  -0.14266138  -0.14266138    1.5597842    1.1761237  -0.14266138    1.7024456   439061 
 2669000    1.1358197   -0.1421859   -0.1421859    1.5615397    1.1790178   -0.1421859    1.7037256   439061 
 2670000    1.1366791  -0.14367071  -0.14367071    1.5613441    1.1747236  -0.14367071    1.7050148   439061 
 2671000    1.1359097  -0.14285767  -0.14285767    1.5610029     1.176486  -0.14285767    1.7038606   439061 
 2672000    1.1347575  -0.14230923  -0.14230923    1.5598232     1.178277  -0.14230923    1.7021324   439061 
 2673000    1.1364636  -0.14332004  -0.14332004    1.5613715    1.1762701  -0.14332004    1.7046916   439061 
 2674000    1.1357207  -0.14274688  -0.14274688    1.5608303    1.1775733  -0.14274688    1.7035772   439061 
 2675000    1.1371974  -0.14314597  -0.14314597    1.5626462    1.1762464  -0.14314597    1.7057922   439061 
 2676000    1.1369659   -0.1428325   -0.1428325    1.5626124    1.1766831   -0.1428325    1.7054449   439061 
 2677000    1.1366879  -0.14308219  -0.14308219    1.5619458    1.1777737  -0.14308219     1.705028   439061 
 2678000    1.1373005  -0.14400554  -0.14400554    1.5619413    1.1759831  -0.14400554    1.7059468   439061 
 2679000    1.1359368  -0.14217184  -0.14217184    1.5617295    1.1806045  -0.14217184    1.7039013   439061 
 2680000    1.1357648  -0.14389653  -0.14389653    1.5597468    1.1723047  -0.14389653    1.7036434   439061 
 2681000    1.1354078  -0.14326066  -0.14326066    1.5598471    1.1761709  -0.14326066    1.7031078   439061 
 2682000    1.1360243  -0.14351517  -0.14351517    1.5605174    1.1751424  -0.14351517    1.7040326   439061 
 2683000    1.1358788  -0.14356411  -0.14356411    1.5602502    1.1755298  -0.14356411    1.7038143   439061 
 2684000    1.1360013  -0.14408246  -0.14408246    1.5599156    1.1745768  -0.14408246     1.703998   439061 
 2685000     1.135337  -0.14309181  -0.14309181    1.5599098    1.1768977  -0.14309181    1.7030016   439061 
 2686000    1.1353094  -0.14286992  -0.14286992    1.5600903    1.1771025  -0.14286992    1.7029602   439061 
 2687000    1.1359587  -0.14409893  -0.14409893    1.5598352    1.1749758  -0.14409893    1.7039341   439061 
 2688000    1.1356976  -0.14366834  -0.14366834    1.5598741    1.1752976  -0.14366834    1.7035425   439061 
 2689000    1.1362094  -0.14427534  -0.14427534    1.5600348    1.1737506  -0.14427534    1.7043101   439061 
 2690000    1.1358826   -0.1422744   -0.1422744    1.5615456    1.1798506   -0.1422744      1.70382   439061 
 2691000    1.1361022  -0.14456188  -0.14456188    1.5595875    1.1728734  -0.14456188    1.7041494   439061 
 2692000    1.1353571  -0.14374192  -0.14374192    1.5592899    1.1748822  -0.14374192    1.7030318   439061 
 2693000    1.1362813  -0.14423486  -0.14423486    1.5601832    1.1731963  -0.14423486     1.704418   439061 
 2694000    1.1362895  -0.14543478  -0.14543478    1.5589956     1.170045  -0.14543478    1.7044303   439061 
 2695000    1.1353066  -0.14362737  -0.14362737    1.5593286    1.1761782  -0.14362737     1.702956   439061 
 2696000    1.1346412  -0.14278316  -0.14278316    1.5591748     1.175862  -0.14278316     1.701958   439061 
 2697000      1.13512  -0.14404013  -0.14404013     1.558636    1.1749353  -0.14404013    1.7026761   439061 
 2698000    1.1356682  -0.14396321  -0.14396321    1.5595352    1.1753737  -0.14396321    1.7034984   439061 
 2699000    1.1348099  -0.14376837  -0.14376837    1.5584426     1.174012  -0.14376837    1.7022109   439061 
 2700000    1.1349343  -0.14500962  -0.14500962    1.5573879    1.1714211  -0.14500962    1.7023975   439061 
 2701000    1.1357361  -0.14492381  -0.14492381    1.5586764    1.1716249  -0.14492381    1.7036003   439061 
 2702000    1.1352101  -0.14423254  -0.14423254    1.5585788    1.1716446  -0.14423254    1.7028113   439061 
 2703000    1.1342892  -0.14336515  -0.14336515    1.5580647    1.1756284  -0.14336515    1.7014299   439061 
 2704000    1.1341557  -0.14345798  -0.14345798    1.5577717    1.1749104  -0.14345798    1.7012297   439061 
 2705000    1.1355621  -0.14401474  -0.14401474    1.5593245    1.1744826  -0.14401474    1.7033393   439061 
 2706000    1.1356989  -0.14443446  -0.14443446    1.5591101    1.1726144  -0.14443446    1.7035445   439061 
 2707000    1.1342648  -0.14280037  -0.14280037     1.558593    1.1779995  -0.14280037    1.7013933   439061 
 2708000    1.1345655  -0.14444424  -0.14444424    1.5574001    1.1731948  -0.14444424    1.7018443   439061 
 2709000    1.1349876  -0.14414739  -0.14414739    1.5583302    1.1737555  -0.14414739    1.7024776   439061 
 2710000    1.1350129  -0.14406756  -0.14406756    1.5584479    1.1746181  -0.14406756    1.7025154   439061 
 2711000    1.1360165  -0.14558349  -0.14558349    1.5584373    1.1719295  -0.14558349    1.7040208   439061 
 2712000    1.1344106  -0.14357421  -0.14357421    1.5580378    1.1751816  -0.14357421     1.701612   439061 
 2713000    1.1345588  -0.14343005  -0.14343005    1.5584043    1.1746876  -0.14343005    1.7018343   439061 
 2714000    1.1343506  -0.14248489  -0.14248489    1.5590372     1.178429  -0.14248489    1.7015221   439061 
 2715000    1.1355096  -0.14496093  -0.14496093    1.5582995     1.170597  -0.14496093    1.7032604   439061 
 2716000    1.1343267  -0.14353661  -0.14353661    1.5579495    1.1747839  -0.14353661    1.7014862   439061 
 2717000    1.1343329  -0.14392955  -0.14392955    1.5575659    1.1722848  -0.14392955    1.7014955   439061 
 2718000    1.1342423   -0.1438432   -0.1438432    1.5575164    1.1729232   -0.1438432    1.7013596   439061 
 2719000    1.1346205  -0.14352112  -0.14352112    1.5584057    1.1738665  -0.14352112    1.7019268   439061 
 2720000    1.1340052   -0.1434019   -0.1434019     1.557602    1.1742638   -0.1434019    1.7010039   439061 
 2721000    1.1339109  -0.14349748  -0.14349748     1.557365    1.1747918  -0.14349748    1.7008625   439061 
 2722000    1.1346602  -0.14224765  -0.14224765    1.5597387    1.1790385  -0.14224765    1.7019863   439061 
 2723000    1.1338971  -0.14224959  -0.14224959    1.5585922    1.1770217  -0.14224959    1.7008418   439061 
 2724000    1.1335097  -0.14368105  -0.14368105    1.5565796    1.1737615  -0.14368105    1.7002606   439061 
 2725000    1.1340104  -0.14461769  -0.14461769    1.5563941    1.1729143  -0.14461769    1.7010118   439061 
 2726000    1.1334537  -0.14353113  -0.14353113    1.5566455    1.1741355  -0.14353113    1.7001766   439061 
 2727000    1.1341659  -0.14599946  -0.14599946    1.5552455    1.1674579  -0.14599946     1.701245   439061 
 2728000    1.1324242  -0.14212864  -0.14212864    1.5565037    1.1766596  -0.14212864    1.6986324   439061 
 2729000    1.1326809  -0.14312993  -0.14312993    1.5558875    1.1766201  -0.14312993    1.6990174   439061 
 2730000     1.133814  -0.14316825  -0.14316825    1.5575489    1.1768855  -0.14316825    1.7007172   439061 
 2731000    1.1329962  -0.14184971  -0.14184971    1.5576406     1.179663  -0.14184971    1.6994904   439061 
 2732000    1.1349372  -0.14388359  -0.14388359    1.5585184    1.1742231  -0.14388359     1.702402   439061 
 2733000    1.1345927  -0.14414892  -0.14414892    1.5577363    1.1738235  -0.14414892    1.7018852   439061 
 2734000    1.1339841  -0.14369218  -0.14369218    1.5572801     1.173317  -0.14369218    1.7009722   439061 
 2735000    1.1333485  -0.14361746  -0.14361746    1.5564014    1.1740855  -0.14361746    1.7000189   439061 
 2736000    1.1333376  -0.14326764  -0.14326764    1.5567349    1.1734286  -0.14326764    1.7000026   439061 
 2737000    1.1353923  -0.14502562  -0.14502562    1.5580589     1.171115  -0.14502562    1.7030845   439061 
 2738000    1.1350266  -0.14542213  -0.14542213    1.5571139    1.1694566  -0.14542213     1.702536   439061 
 2739000    1.1330319  -0.14237476  -0.14237476    1.5571693    1.1776928  -0.14237476     1.699544   439061 
 2740000    1.1335314  -0.14357561  -0.14357561    1.5567176    1.1736053  -0.14357561    1.7002932   439061 
 2741000      1.13507   -0.1448138   -0.1448138    1.5577873    1.1713437   -0.1448138    1.7026011   439061 
 2742000     1.134594  -0.14432277  -0.14432277    1.5575644    1.1725075  -0.14432277    1.7018871   439061 
 2743000    1.1339895  -0.14300713  -0.14300713    1.5579732    1.1767431  -0.14300713    1.7009803   439061 
 2744000    1.1348859  -0.14354634  -0.14354634    1.5587786    1.1747264  -0.14354634    1.7023249   439061 
 2745000    1.1344221  -0.14424447  -0.14424447    1.5573848    1.1735749  -0.14424447    1.7016293   439061 
 2746000    1.1348106  -0.14321311  -0.14321311    1.5589989    1.1745385  -0.14321311     1.702212   439061 
 2747000      1.13528  -0.14378751  -0.14378751    1.5591286    1.1747639  -0.14378751    1.7029161   439061 
 2748000    1.1356168  -0.14372701  -0.14372701    1.5596943    1.1746658  -0.14372701    1.7034213   439061 
 2749000    1.1342753  -0.14445156  -0.14445156    1.5569575    1.1719194  -0.14445156    1.7014091   439061 
 2750000    1.1338357  -0.14392441  -0.14392441    1.5568252    1.1734368  -0.14392441    1.7007496   439061 
 2751000    1.1339703  -0.14389229  -0.14389229    1.5570593     1.173601  -0.14389229    1.7009516   439061 
 2752000    1.1341793   -0.1432155   -0.1432155    1.5580496    1.1746296   -0.1432155    1.7012651   439061 
 2753000    1.1341859  -0.14362624  -0.14362624    1.5576487    1.1733687  -0.14362624     1.701275   439061 
 2754000    1.1351816  -0.14517944  -0.14517944    1.5575891    1.1683015  -0.14517944    1.7027685   439061 
 2755000    1.1340461  -0.14400235  -0.14400235     1.557063    1.1733045  -0.14400235    1.7010653   439061 
 2756000    1.1341352  -0.14344063  -0.14344063    1.5577582    1.1754051  -0.14344063    1.7011989   439061 
 2757000    1.1354566   -0.1448828   -0.1448828    1.5582983     1.171571   -0.1448828    1.7031811   439061 
 2758000    1.1354714  -0.14545016  -0.14545016    1.5577531    1.1701005  -0.14545016    1.7032033   439061 
 2759000    1.1334621  -0.14219133  -0.14219133     1.557998    1.1775558  -0.14219133    1.7001893   439061 
 2760000    1.1344245  -0.14294524  -0.14294524    1.5586876     1.177221  -0.14294524    1.7016328   439061 
 2761000    1.1351319  -0.14446544  -0.14446544    1.5582285    1.1731607  -0.14446544     1.702694   439061 
 2762000    1.1336939  -0.14329426  -0.14329426    1.5572427    1.1739739  -0.14329426    1.7005369   439061 
 2763000    1.1339635  -0.14446087  -0.14446087    1.5564804    1.1711019  -0.14446087    1.7009413   439061 
 2764000    1.1338986  -0.14380692  -0.14380692    1.5570371      1.17377  -0.14380692    1.7008441   439061 
 2765000    1.1338662  -0.14360884  -0.14360884    1.5571866    1.1748427  -0.14360884    1.7007954   439061 
 2766000    1.1343038  -0.14516756  -0.14516756    1.5562842    1.1699348  -0.14516756    1.7014518   439061 
 2767000    1.1332921  -0.14321963  -0.14321963    1.5567147     1.175308  -0.14321963    1.6999344   439061 
 2768000    1.1330255  -0.14313879  -0.14313879    1.5563956    1.1751805  -0.14313879    1.6995344   439061 
 2769000    1.1337694  -0.14408751  -0.14408751    1.5565627    1.1731853  -0.14408751    1.7006502   439061 
 2770000    1.1333244  -0.14436825  -0.14436825    1.5556145    1.1704477  -0.14436825    1.6999828   439061 
 2771000    1.1339978  -0.14358962  -0.14358962    1.5574032    1.1742306  -0.14358962    1.7009928   439061 
 2772000    1.1341594  -0.14426001  -0.14426001    1.5569752    1.1733185  -0.14426001    1.7012352   439061 
 2773000    1.1344489  -0.14374179  -0.14374179    1.5579276    1.1726222  -0.14374179    1.7016694   439061 
 2774000     1.134286   -0.1440321   -0.1440321    1.5573931    1.1732184   -0.1440321    1.7014252   439061 
 2775000    1.1345007  -0.14489535  -0.14489535    1.5568518    1.1714271  -0.14489535    1.7017471   439061 
 2776000     1.134266  -0.14407142  -0.14407142    1.5573238    1.1723141  -0.14407142    1.7013952   439061 
 2777000    1.1343432  -0.14386004  -0.14386004    1.5576509    1.1732265  -0.14386004     1.701511   439061 
 2778000    1.1337971  -0.14286627  -0.14286627    1.5578255    1.1763242  -0.14286627    1.7006918   439061 
 2779000    1.1347324  -0.14490175  -0.14490175     1.557193    1.1694467  -0.14490175    1.7020948   439061 
 2780000    1.1337826  -0.14394999  -0.14394999    1.5567201    1.1726065  -0.14394999      1.70067   439061 
 2781000    1.1328591  -0.14309143  -0.14309143    1.5561934    1.1759579  -0.14309143    1.6992848   439061 
 2782000    1.1339796  -0.14453895  -0.14453895    1.5564265    1.1712548  -0.14453895    1.7009655   439061 
 2783000    1.1328046  -0.14389097  -0.14389097     1.555312     1.174377  -0.14389097     1.699203   439061 
 2784000    1.1340767   -0.1437636   -0.1437636    1.5573475    1.1740992   -0.1437636    1.7011111   439061 
 2785000    1.1332989  -0.14267991  -0.14267991    1.5572646    1.1764906  -0.14267991    1.6999445   439061 
 2786000    1.1343727  -0.14443492  -0.14443492    1.5571203    1.1730192  -0.14443492    1.7015552   439061 
 2787000    1.1332676  -0.14302935  -0.14302935    1.5568682    1.1758721  -0.14302935    1.6998976   439061 
 2788000    1.1322552  -0.14243311  -0.14243311    1.5559458    1.1773265  -0.14243311    1.6983789   439061 
 2789000    1.1337888  -0.14525578  -0.14525578    1.5554236    1.1690778  -0.14525578    1.7006794   439061 
 2790000    1.1328196  -0.14336125  -0.14336125    1.5558643    1.1758186  -0.14336125    1.6992255   439061 
 2791000    1.1332857  -0.14450682  -0.14450682    1.5554179    1.1720739  -0.14450682    1.6999247   439061 
 2792000    1.1328032  -0.14355973  -0.14355973    1.5556413     1.174363  -0.14355973     1.699201   439061 
 2793000    1.1328362  -0.14355179  -0.14355179    1.5556987    1.1749339  -0.14355179    1.6992505   439061 
 2794000    1.1332535  -0.14367115  -0.14367115    1.5562052    1.1719991  -0.14367115    1.6998763   439061 
 2795000    1.1339117  -0.14354814  -0.14354814    1.5573156     1.174437  -0.14354814    1.7008637   439061 
 2796000    1.1340424  -0.14398175  -0.14398175    1.5570779    1.1724633  -0.14398175    1.7010597   439061 
 2797000    1.1339599  -0.14387829  -0.14387829    1.5570577    1.1723741  -0.14387829     1.700936   439061 
 2798000    1.1331119  -0.14349753  -0.14349753    1.5561664     1.174501  -0.14349753     1.699664   439061 
 2799000    1.1334591   -0.1430423   -0.1430423    1.5571425    1.1767488   -0.1430423    1.7001848   439061 
 2800000    1.1341557  -0.14456688  -0.14456688    1.5566627     1.171815  -0.14456688    1.7012296   439061 
 2801000    1.1332969  -0.14331603  -0.14331603    1.5566255     1.175038  -0.14331603    1.6999415   439061 
 2802000    1.1343182  -0.14396205  -0.14396205    1.5575114    1.1733058  -0.14396205    1.7014734   439061 
 2803000    1.1326628    -0.142662    -0.142662    1.5563284    1.1772541    -0.142662    1.6989904   439061 
 2804000    1.1329267  -0.14373333  -0.14373333    1.5556529    1.1737096  -0.14373333    1.6993862   439061 
 2805000    1.1339957  -0.14538723  -0.14538723    1.5556025    1.1704789  -0.14538723    1.7009897   439061 
 2806000    1.1330446  -0.14453592  -0.14453592    1.5550271    1.1741355  -0.14453592     1.699563   439061 
 2807000    1.1329051  -0.14431279  -0.14431279    1.5550409    1.1707348  -0.14431279    1.6993537   439061 
 2808000     1.134139  -0.14530677  -0.14530677    1.5558979    1.1704117  -0.14530677    1.7012047   439061 
 2809000    1.1319179  -0.14337861  -0.14337861    1.5544944    1.1745735  -0.14337861     1.697873   439061 
 2810000    1.1329571  -0.14450528  -0.14450528    1.5549265    1.1730529  -0.14450528    1.6994318   439061 
 2811000    1.1326201  -0.14403867  -0.14403867    1.5548875    1.1736956  -0.14403867    1.6989262   439061 
 2812000    1.1327983  -0.14411552  -0.14411552    1.5550781     1.174112  -0.14411552    1.6991936   439061 
 2813000    1.1331152  -0.14361707  -0.14361707    1.5560519    1.1731766  -0.14361707    1.6996689   439061 
 2814000    1.1339752  -0.14446024  -0.14446024    1.5564987    1.1714364  -0.14446024     1.700959   439061 
 2815000    1.1336257   -0.1434202   -0.1434202    1.5570145    1.1752651   -0.1434202    1.7004347   439061 
 2816000     1.133779  -0.14490545  -0.14490545    1.5557591    1.1683908  -0.14490545    1.7006646   439061 
 2817000    1.1323434  -0.14258046  -0.14258046    1.5559307    1.1767276  -0.14258046    1.6985112   439061 
 2818000     1.133862  -0.14486781  -0.14486781    1.5559213    1.1695313  -0.14486781    1.7007891   439061 
 2819000    1.1326649  -0.14311234  -0.14311234    1.5558811    1.1746189  -0.14311234    1.6989935   439061 
 2820000    1.1323942  -0.14419579  -0.14419579    1.5543917    1.1708891  -0.14419579    1.6985875   439061 
 2821000    1.1335214  -0.14418828  -0.14418828      1.55609    1.1713329  -0.14418828    1.7002782   439061 
 2822000    1.1339665  -0.14429071  -0.14429071    1.5566551    1.1711088  -0.14429071    1.7009458   439061 
 2823000    1.1324689  -0.14310594  -0.14310594    1.5555935    1.1742619  -0.14310594    1.6986994   439061 
 2824000    1.1326046  -0.14384652  -0.14384652    1.5550565    1.1732545  -0.14384652     1.698903   439061 
 2825000    1.1329614  -0.14434114  -0.14434114    1.5550971    1.1720028  -0.14434114    1.6994383   439061 
 2826000    1.1323719  -0.14369285  -0.14369285    1.5548611    1.1733026  -0.14369285    1.6985539   439061 
 2827000    1.1318866  -0.14301586  -0.14301586    1.5548102    1.1738242  -0.14301586     1.697826   439061 
 2828000    1.1330851  -0.14473159  -0.14473159    1.5548921    1.1700098  -0.14473159    1.6996237   439061 
 2829000    1.1322395  -0.14441646  -0.14441646     1.553939    1.1727069  -0.14441646    1.6983554   439061 
 2830000    1.1320815  -0.14417294  -0.14417294    1.5539454     1.170393  -0.14417294    1.6981183   439061 
 2831000    1.1317419  -0.14376027  -0.14376027    1.5538487    1.1721503  -0.14376027    1.6976089   439061 
 2832000    1.1329251  -0.14431246  -0.14431246    1.5550713    1.1724031  -0.14431246    1.6993838   439061 
 2833000    1.1307623  -0.14250912  -0.14250912    1.5536304    1.1768458  -0.14250912    1.6961396   439061 
 2834000    1.1313191  -0.14433899  -0.14433899    1.5526357    1.1723814  -0.14433899    1.6969747   439061 
 2835000    1.1309672   -0.1438473   -0.1438473    1.5525996    1.1736334   -0.1438473    1.6964469   439061 
 2836000    1.1315164  -0.14454101  -0.14454101    1.5527298    1.1704745  -0.14454101    1.6972708   439061 
 2837000    1.1321786    -0.144131    -0.144131     1.554133    1.1727464    -0.144131     1.698264   439061 
 2838000    1.1319304  -0.14478774  -0.14478774     1.553104    1.1708209  -0.14478774    1.6978917   439061 
 2839000    1.1326652   -0.1446155   -0.1446155    1.5543785    1.1709239   -0.1446155     1.698994   439061 
 2840000    1.1326964  -0.14416313  -0.14416313    1.5548776    1.1721665  -0.14416313    1.6990407   439061 
 2841000    1.1320174  -0.14372777  -0.14372777    1.5542944     1.172698  -0.14372777    1.6980222   439061 
 2842000    1.1328938  -0.14506519  -0.14506519    1.5542717    1.1691215  -0.14506519    1.6993369   439061 
 2843000    1.1325375  -0.14412116  -0.14412116    1.5546812    1.1721441  -0.14412116    1.6988023   439061 
 2844000     1.133099  -0.14414155  -0.14414155     1.555503    1.1724986  -0.14414155    1.6996446   439061 
 2845000     1.132974  -0.14353409  -0.14353409     1.555923    1.1737954  -0.14353409    1.6994571   439061 
 2846000    1.1333201  -0.14555521  -0.14555521     1.554421    1.1681579  -0.14555521    1.6999762   439061 
 2847000    1.1323059  -0.14316717  -0.14316717    1.5552879    1.1736673  -0.14316717     1.698455   439061 
 2848000    1.1319411  -0.14406935  -0.14406935    1.5538384    1.1727425  -0.14406935    1.6979078   439061 
 2849000    1.1320471  -0.14423206  -0.14423206    1.5538348    1.1726927  -0.14423206    1.6980668   439061 
 2850000    1.1314339  -0.14391747  -0.14391747    1.5532296     1.171361  -0.14391747    1.6971471   439061 
 2851000    1.1323439  -0.14444501  -0.14444501     1.554067    1.1703494  -0.14444501    1.6985121   439061 
 2852000      1.13182  -0.14340064  -0.14340064    1.5543256    1.1738809  -0.14340064    1.6977262   439061 
 2853000    1.1316739  -0.14506869  -0.14506869    1.5524383     1.169712  -0.14506869     1.697507   439061 
 2854000    1.1315261  -0.14427042  -0.14427042    1.5530148    1.1712417  -0.14427042    1.6972852   439061 
 2855000    1.1315465    -0.144734    -0.144734    1.5525819    1.1690356    -0.144734    1.6973159   439061 
 2856000    1.1316026  -0.14425202  -0.14425202     1.553148    1.1727251  -0.14425202       1.6974   439061 
 2857000    1.1318807  -0.14425319  -0.14425319     1.553564    1.1712364  -0.14425319    1.6978172   439061 
 2858000    1.1313937  -0.14440037  -0.14440037    1.5526864     1.170434  -0.14440037    1.6970867   439061 
 2859000    1.1314234  -0.14379852  -0.14379852    1.5533327    1.1739423  -0.14379852    1.6971312   439061 
 2860000    1.1316338  -0.14496881  -0.14496881     1.552478    1.1713504  -0.14496881    1.6974468   439061 
 2861000    1.1305166  -0.14285994  -0.14285994    1.5529111    1.1751434  -0.14285994    1.6957711   439061 
 2862000    1.1317882  -0.14392337  -0.14392337     1.553755    1.1724432  -0.14392337    1.6976784   439061 
 2863000    1.1317632  -0.14468477  -0.14468477    1.5529561    1.1706469  -0.14468477    1.6976409   439061 
 2864000    1.1323806  -0.14443865  -0.14443865    1.5541284    1.1701806  -0.14443865     1.698567   439061 
 2865000    1.1322377  -0.14443473  -0.14443473     1.553918     1.170028  -0.14443473    1.6983527   439061 
 2866000    1.1331942  -0.14474855  -0.14474855    1.5550389    1.1702141  -0.14474855    1.6997875   439061 
 2867000    1.1327351   -0.1445302   -0.1445302    1.5545685    1.1719462   -0.1445302    1.6990987   439061 
 2868000    1.1325607  -0.14496839  -0.14496839    1.5538688    1.1690417  -0.14496839    1.6988372   439061 
 2869000    1.1330553  -0.14445729  -0.14445729    1.5551218    1.1716196  -0.14445729    1.6995791   439061 
 2870000    1.1330041  -0.14527178  -0.14527178    1.5542305    1.1680792  -0.14527178    1.6995023   439061 
 2871000    1.1329544  -0.14451642  -0.14451642    1.5549113    1.1698705  -0.14451642    1.6994277   439061 
 2872000    1.1321999  -0.14366112  -0.14366112    1.5546349    1.1732431  -0.14366112     1.698296   439061 
 2873000    1.1317278  -0.14375765  -0.14375765    1.5538301    1.1720544  -0.14375765    1.6975878   439061 
 2874000    1.1304078  -0.14265429  -0.14265429    1.5529536    1.1749935  -0.14265429    1.6956079   439061 
 2875000    1.1328813   -0.1466671   -0.1466671     1.552651    1.1658538   -0.1466671    1.6993181   439061 
 2876000    1.1300093  -0.14320314  -0.14320314     1.551807    1.1738038  -0.14320314    1.6950101   439061 
 2877000    1.1302433  -0.14430212  -0.14430212     1.551059    1.1704926  -0.14430212    1.6953611   439061 
 2878000    1.1303502  -0.14341021  -0.14341021    1.5521112    1.1724995  -0.14341021    1.6955214   439061 
 2879000    1.1303697   -0.1430111   -0.1430111    1.5525396    1.1743043   -0.1430111    1.6955507   439061 
 2880000    1.1316757  -0.14561007  -0.14561007    1.5518996    1.1674675  -0.14561007    1.6975097   439061 
 2881000    1.1303869  -0.14417314  -0.14417314    1.5514034    1.1719956  -0.14417314    1.6955765   439061 
 2882000    1.1309235  -0.14538631  -0.14538631    1.5509951     1.167899  -0.14538631    1.6963814   439061 
 2883000    1.1313868  -0.14397103  -0.14397103    1.5531052    1.1715465  -0.14397103    1.6970763   439061 
 2884000    1.1319957   -0.1449958   -0.1449958    1.5529939    1.1709427   -0.1449958    1.6979897   439061 
 2885000    1.1312769  -0.14428294  -0.14428294    1.5526285    1.1703623  -0.14428294    1.6969114   439061 
 2886000    1.1317638  -0.14428623  -0.14428623    1.5533556    1.1714464  -0.14428623    1.6976418   439061 
 2887000    1.1321054  -0.14392414  -0.14392414      1.55423    1.1722913  -0.14392414    1.6981542   439061 
 2888000    1.1325971  -0.14423005  -0.14423005    1.5546617    1.1702234  -0.14423005    1.6988918   439061 
 2889000    1.1329641  -0.14541266  -0.14541266    1.5540296    1.1664477  -0.14541266    1.6994423   439061 
 2890000    1.1318523  -0.14353061  -0.14353061     1.554244    1.1746438  -0.14353061    1.6977746   439061 
 2891000    1.1318455  -0.14337212  -0.14337212    1.5543923    1.1720831  -0.14337212    1.6977644   439061 
 2892000    1.1319359  -0.14269161  -0.14269161    1.5552084    1.1770006  -0.14269161       1.6979   439061 
 2893000    1.1311551  -0.14340538  -0.14340538    1.5533234    1.1739823  -0.14340538    1.6967288   439061 
 2894000    1.1313433  -0.14386787  -0.14386787    1.5531432    1.1726846  -0.14386787    1.6970111   439061 
 2895000     1.131211  -0.14370172  -0.14370172    1.5531109    1.1718733  -0.14370172    1.6968126   439061 
 2896000    1.1312916  -0.14444136  -0.14444136    1.5524922    1.1705751  -0.14444136    1.6969336   439061 
 2897000    1.1316846   -0.1443126   -0.1443126    1.5532104    1.1709602   -0.1443126     1.697523   439061 
 2898000    1.1318251  -0.14437815  -0.14437815    1.5533556    1.1710527  -0.14437815    1.6977338   439061 
 2899000    1.1315927  -0.14505791  -0.14505791    1.5523273    1.1677457  -0.14505791    1.6973852   439061 
 2900000    1.1315524  -0.14401354  -0.14401354    1.5533112    1.1721177  -0.14401354    1.6973248   439061 
 2901000     1.131692  -0.14511226  -0.14511226    1.5524218    1.1698474  -0.14511226    1.6975341   439061 
 2902000    1.1313817  -0.14411748  -0.14411748    1.5529511     1.171396  -0.14411748    1.6970686   439061 
 2903000       1.1312  -0.14508851  -0.14508851    1.5517077    1.1694223  -0.14508851    1.6967962   439061 
 2904000    1.1306193  -0.14426567  -0.14426567    1.5516595    1.1719028  -0.14426567    1.6959252   439061 
 2905000    1.1305264  -0.14426649  -0.14426649    1.5515193    1.1720619  -0.14426649    1.6957858   439061 
 2906000    1.1305552  -0.14467942  -0.14467942    1.5511495    1.1698077  -0.14467942    1.6958289   439061 
 2907000    1.1303778  -0.14469982  -0.14469982    1.5508631    1.1708031  -0.14469982    1.6955629   439061 
 2908000    1.1311988  -0.14550526  -0.14550526     1.551289    1.1688184  -0.14550526    1.6967943   439061 
 2909000    1.1308503  -0.14472488  -0.14472488    1.5515467    1.1700546  -0.14472488    1.6962716   439061 
 2910000    1.1300308  -0.14338638  -0.14338638     1.551656    1.1741372  -0.14338638    1.6950424   439061 
 2911000     1.130337  -0.14365963  -0.14365963    1.5518421    1.1721117  -0.14365963    1.6955017   439061 
 2912000    1.1316517  -0.14531262  -0.14531262    1.5521611    1.1683883  -0.14531262    1.6974737   439061 
 2913000    1.1319535  -0.14483327  -0.14483327    1.5530931    1.1670879  -0.14483327    1.6979263   439061 
 2914000    1.1319439  -0.14402911  -0.14402911    1.5538828    1.1733161  -0.14402911     1.697912   439061 
 2915000    1.1317975  -0.14453245  -0.14453245      1.55316    1.1686009  -0.14453245    1.6976924   439061 
 2916000    1.1313269  -0.14483208  -0.14483208    1.5521543    1.1699277  -0.14483208    1.6969864   439061 
 2917000    1.1305494  -0.14379814  -0.14379814    1.5520221    1.1734599  -0.14379814    1.6958203   439061 
 2918000    1.1299714  -0.14348496  -0.14348496    1.5514683    1.1735249  -0.14348496    1.6949533   439061 
 2919000    1.1315193  -0.14528049  -0.14528049    1.5519946    1.1685573  -0.14528049    1.6972751   439061 
 2920000    1.1312572  -0.14360447  -0.14360447    1.5532774    1.1737818  -0.14360447    1.6968819   439061 
 2921000     1.132595  -0.14482773  -0.14482773    1.5540609    1.1701181  -0.14482773    1.6988886   439061 
 2922000    1.1315237  -0.14368787  -0.14368787    1.5535938    1.1720407  -0.14368787    1.6972816   439061 
 2923000    1.1316174  -0.14343949  -0.14343949    1.5539827    1.1722064  -0.14343949    1.6974222   439061 
 2924000    1.1326881  -0.14572087  -0.14572087    1.5533074    1.1668399  -0.14572087    1.6990282   439061 
 2925000    1.1305885  -0.14268465  -0.14268465    1.5531942    1.1752428  -0.14268465    1.6958789   439061 
 2926000    1.1314737  -0.14401185  -0.14401185    1.5531948    1.1718375  -0.14401185    1.6972067   439061 
 2927000    1.1312455  -0.14453118  -0.14453118    1.5523333    1.1706498  -0.14453118    1.6968644   439061 
 2928000    1.1315419  -0.14490427  -0.14490427    1.5524047    1.1699157  -0.14490427     1.697309   439061 
 2929000    1.1306858  -0.14331655  -0.14331655    1.5527083     1.174436  -0.14331655    1.6960249   439061 
 2930000    1.1310694  -0.14407061  -0.14407061    1.5525297    1.1724431  -0.14407061    1.6966003   439061 
 2931000    1.1311814  -0.14390766  -0.14390766    1.5528606    1.1720944  -0.14390766    1.6967683   439061 
 2932000    1.1320615  -0.14426253  -0.14426253    1.5538258    1.1715544  -0.14426253    1.6980883   439061 
 2933000    1.1315518  -0.14494715  -0.14494715    1.5523767    1.1691892  -0.14494715    1.6973238   439061 
 2934000    1.1309508  -0.14336762  -0.14336762    1.5530548    1.1728682  -0.14336762    1.6964224   439061 
 2935000     1.131047  -0.14422793  -0.14422793    1.5523387    1.1722311  -0.14422793    1.6965666   439061 
 2936000    1.1306331  -0.14437878  -0.14437878    1.5515669    1.1713736  -0.14437878    1.6959457   439061 
 2937000    1.1312041   -0.1446443   -0.1446443     1.552158    1.1680476   -0.1446443    1.6968022   439061 
 2938000    1.1312358  -0.14527545  -0.14527545    1.5515743    1.1679617  -0.14527545    1.6968498   439061 
 2939000    1.1310129  -0.14469733  -0.14469733    1.5518182    1.1704446  -0.14469733    1.6965155   439061 
 2940000    1.1313811  -0.14468842  -0.14468842    1.5523794    1.1709973  -0.14468842    1.6970678   439061 
 2941000    1.1311707  -0.14502203  -0.14502203    1.5517301    1.1699826  -0.14502203    1.6967522   439061 
 2942000    1.1306604  -0.14442676  -0.14442676      1.55156     1.170963  -0.14442676    1.6959867   439061 
 2943000     1.130015   -0.1432888   -0.1432888    1.5517299     1.172872   -0.1432888    1.6950187   439061 
 2944000    1.1306167  -0.14468605  -0.14468605    1.5512352    1.1687005  -0.14468605    1.6959212   439061 
 2945000    1.1313938  -0.14418756  -0.14418756    1.5528993    1.1701316  -0.14418756    1.6970869   439061 
 2946000    1.1313624  -0.14454112  -0.14454112    1.5524986    1.1710555  -0.14454112    1.6970397   439061 
 2947000    1.1309393  -0.14509812  -0.14509812     1.551307    1.1704815  -0.14509812    1.6964051   439061 
 2948000    1.1311146   -0.1452231   -0.1452231     1.551445    1.1691736   -0.1452231    1.6966681   439061 
 2949000    1.1308452  -0.14380063  -0.14380063    1.5524633     1.171647  -0.14380063    1.6962639   439061 
 2950000    1.1321757  -0.14542711  -0.14542711    1.5528325     1.168763  -0.14542711    1.6982596   439061 
 2951000    1.1312777  -0.14506632  -0.14506632    1.5518463    1.1693836  -0.14506632    1.6969127   439061 
 2952000    1.1305007  -0.14361442  -0.14361442    1.5521327    1.1729379  -0.14361442    1.6957471   439061 
 2953000    1.1308832  -0.14449541  -0.14449541    1.5518256    1.1692668  -0.14449541     1.696321   439061 
 2954000    1.1315613  -0.14509002  -0.14509002    1.5522481    1.1685187  -0.14509002    1.6973381   439061 
 2955000    1.1310681  -0.14525158  -0.14525158    1.5513467    1.1682239  -0.14525158    1.6965983   439061 
 2956000    1.1309482  -0.14481948  -0.14481948     1.551599    1.1689448  -0.14481948    1.6964185   439061 
 2957000    1.1312548  -0.14403074  -0.14403074    1.5528476      1.17272  -0.14403074    1.6968784   439061 
 2958000    1.1310574  -0.14409319  -0.14409319     1.552489    1.1695674  -0.14409319    1.6965822   439061 
 2959000    1.1313913  -0.14473537  -0.14473537    1.5523478    1.1704419  -0.14473537    1.6970832   439061 
 2960000    1.1313202  -0.14438542  -0.14438542    1.5525911    1.1703247  -0.14438542    1.6969765   439061 
 2961000    1.1317453   -0.1458257   -0.1458257    1.5517884    1.1688479   -0.1458257    1.6976141   439061 
 2962000    1.1301342  -0.14301923  -0.14301923    1.5521782    1.1737786  -0.14301923    1.6951975   439061 
 2963000    1.1308034  -0.14450409  -0.14450409    1.5516971    1.1704258  -0.14450409    1.6962012   439061 
 2964000    1.1304221  -0.14323742  -0.14323742    1.5523919    1.1751431  -0.14323742    1.6956293   439061 
 2965000    1.1308528  -0.14480336  -0.14480336    1.5514719    1.1683872  -0.14480336    1.6962753   439061 
 2966000    1.1315614  -0.14445417  -0.14445417    1.5528841    1.1709795  -0.14445417    1.6973382   439061 
 2967000    1.1317495  -0.14527596  -0.14527596    1.5523445    1.1703523  -0.14527596    1.6976204   439061 
 2968000     1.131015  -0.14407706  -0.14407706    1.5524415    1.1711237  -0.14407706    1.6965186   439061 
 2969000    1.1297301  -0.14430164  -0.14430164    1.5502897     1.170652  -0.14430164    1.6945913   439061 
 2970000    1.1297727  -0.14386638  -0.14386638    1.5507888    1.1729753  -0.14386638    1.6946552   439061 
 2971000    1.1296745  -0.14463322  -0.14463322    1.5498747    1.1698383  -0.14463322    1.6945079   439061 
 2972000    1.1304224  -0.14482146  -0.14482146    1.5508083    1.1698332  -0.14482146    1.6956297   439061 
 2973000    1.1307188  -0.14529958  -0.14529958    1.5507748    1.1683808  -0.14529958    1.6960743   439061 
 2974000    1.1300008  -0.14464844  -0.14464844    1.5503489    1.1703582  -0.14464844    1.6949974   439061 
 2975000     1.130822  -0.14446423  -0.14446423    1.5517649    1.1714682  -0.14446423    1.6962291   439061 
 2976000    1.1318735  -0.14583354  -0.14583354    1.5519728    1.1663834  -0.14583354    1.6978063   439061 
 2977000    1.1314737  -0.14642197  -0.14642197    1.5507847    1.1658238  -0.14642197    1.6972067   439061 
 2978000    1.1306352  -0.14488777  -0.14488777    1.5510612    1.1693291  -0.14488777    1.6959489   439061 
 2979000     1.131465  -0.14542639  -0.14542639    1.5517672    1.1666935  -0.14542639    1.6971936   439061 
 2980000    1.1311706  -0.14473438  -0.14473438    1.5520177      1.16952  -0.14473438     1.696752   439061 
 2981000      1.13031  -0.14444588  -0.14444588    1.5510152     1.170808  -0.14444588    1.6954611   439061 
 2982000    1.1316865  -0.14571992  -0.14571992     1.551806    1.1669527  -0.14571992    1.6975259   439061 
 2983000    1.1324915   -0.1453586   -0.1453586    1.5533749     1.167249   -0.1453586    1.6987335   439061 
 2984000    1.1310134  -0.14446586  -0.14446586    1.5520504    1.1710541  -0.14446586    1.6965163   439061 
 2985000     1.130387  -0.14303364  -0.14303364    1.5525429    1.1741486  -0.14303364    1.6955766   439061 
 2986000    1.1310886    -0.144897    -0.144897     1.551732    1.1699925    -0.144897     1.696629   439061 
 2987000    1.1319207  -0.14537201  -0.14537201    1.5525051    1.1698696  -0.14537201    1.6978771   439061 
 2988000    1.1307347  -0.14491811  -0.14491811    1.5511801     1.168708  -0.14491811    1.6960982   439061 
 2989000    1.1307084  -0.14468566  -0.14468566     1.551373    1.1685186  -0.14468566    1.6960587   439061 
 2990000    1.1299881  -0.14405023  -0.14405023    1.5509281    1.1723072  -0.14405023    1.6949783   439061 
 2991000    1.1307747  -0.14494315  -0.14494315     1.551215    1.1681718  -0.14494315    1.6961581   439061 
 2992000    1.1306846  -0.14459385  -0.14459385    1.5514292    1.1678516  -0.14459385     1.696023   439061 
 2993000     1.130084  -0.14479673  -0.14479673    1.5503254    1.1675481  -0.14479673    1.6951221   439061 
 2994000     1.129723  -0.14398836  -0.14398836    1.5505923    1.1699956  -0.14398836    1.6945806   439061 
 2995000    1.1285896  -0.14390608  -0.14390608    1.5489744    1.1722833  -0.14390608    1.6928805   439061 
 2996000    1.1305273  -0.14497117  -0.14497117    1.5508159    1.1682199  -0.14497117     1.695787   439061 
 2997000    1.1297789  -0.14487208  -0.14487208    1.5497924    1.1694339  -0.14487208    1.6946644   439061 
 2998000    1.1302699  -0.14504654  -0.14504654    1.5503545    1.1689293  -0.14504654     1.695401   439061 
 2999000     1.130232  -0.14561536  -0.14561536    1.5497288    1.1680284  -0.14561536    1.6953441   439061 
 3000000    1.1287641  -0.14294689  -0.14294689    1.5501954    1.1726933  -0.14294689    1.6931423   439061 
Loop time of 6674.9 on 48 procs for 3000000 steps with 439061 atoms

Performance: 194160.200 tau/day, 449.445 timesteps/s
91.1% CPU use with 48 MPI tasks x 1 OpenMP threads

MPI task timing breakdown:
Section |  min time  |  avg time  |  max time  |%varavg|  %CPU | %total
-----------------------------------------------------------------------
Pair    | 2181.1     | 2399.7     | 2586.5     | 222.7 |  91.7 | 35.95
Bond    | 2.0283     | 2.1063     | 2.2506     |   2.9 | 100.0 |  0.03
Neigh   | 1598.2     | 1736.8     | 1817.5     | 152.4 |  99.4 | 26.02
Comm    | 747.9      | 1703.7     | 1984.6     | 845.2 |  86.8 | 25.52
Output  | 75.965     | 76.157     | 76.165     |   0.3 |  71.1 |  1.14
Modify  | 312.19     | 472.37     | 1380.7     |1584.1 |  89.8 |  7.08
Other   |            | 284.2      |            |       |       |  4.26

Nlocal:        9147.10 ave        9566 max        8741 min
Histogram: 4 5 5 3 6 3 10 6 5 1
Nghost:        4215.02 ave        4581 max        3340 min
Histogram: 12 0 0 0 0 0 0 0 8 28
Neighs:        52332.6 ave       54805 max       48270 min
Histogram: 1 3 1 2 4 8 8 10 8 3

Total # of neighbors = 2511967
Ave neighs/atom = 5.7212255
Ave special neighs/atom = 0.0000000
Neighbor list builds = 300000
Dangerous builds = 297000

write_data	data.lj
System init for write_data ...
Total wall time: 1:51:16
