LAMMPS (24 Dec 2020)
OMP_NUM_THREADS environment is not set. Defaulting to 1 thread. (src/comm.cpp:94)
  using 1 OpenMP thread(s) per MPI task
# Simple rigid body system
# needed variables:

units		lj
atom_style	full
dimension 	3
boundary	p p f
pair_style	lj/cut/opt 2.5


variable 	sigma		equal 1.0
variable 	epsilon 	equal 1.0


region		box block 0 80 0 80 0 80
create_box 	3 box
Created orthogonal box = (0.0000000 0.0000000 0.0000000) to (80.000000 80.000000 80.000000)
  2 by 4 by 4 MPI processor grid
lattice 	sc 1.0
Lattice spacing in x,y,z = 1.0000000 1.0000000 1.0000000

create_atoms 	1 region box
Created 512000 atoms
  create_atoms CPU = 0.012 seconds

mass		1 1.0
mass		2 1.0
mass		3 1.0


group		solvent type 1
512000 atoms in group solvent


velocity 	solvent create ${startTemp} 563435 loop geom
velocity 	solvent create 0.5 563435 loop geom

read_data	data.vac add append
Reading data file ...
  orthogonal box = (0.0000000 0.0000000 0.0000000) to (80.000000 80.000000 160.00000)
  2 by 2 by 8 MPI processor grid
Finding 1-2 1-3 1-4 neighbors ...
  special bond factors lj:    0        0        0       
  special bond factors coul:  0        0        0       
     0 = max # of 1-2 neighbors
     0 = max # of 1-3 neighbors
     0 = max # of 1-4 neighbors
     1 = max # of special neighbors
  special bonds CPU = 0.075 seconds
  read_data CPU = 0.085 seconds

neighbor 	0.4 bin

pair_coeff	1 1 1.0 1.0
pair_coeff	2 2 0.0 0.0
pair_coeff	3 3 0.0 0.0
pair_coeff	2 3 0.0 0.0
pair_coeff	1 2*3 0.0 0.0

pair_modify 	shift yes


balance 	1.05 shift z 10 1.05
Balancing ...
Neighbor list info ...
  update every 1 steps, delay 10 steps, check yes
  max neighbors/atom: 2000, page size: 100000
  master list distance cutoff = 2.9
  ghost atom cutoff = 2.9
  binsize = 1.45, bins = 56 56 111
  1 neighbor lists, perpetual/occasional/extra = 1 0 0
  (1) pair lj/cut/opt, perpetual
      attributes: half, newton on
      pair build: half/bin/newton
      stencil: half/bin/3d/newton
      bin: standard
 rebalancing time: 0.017 seconds
  iteration count = 5
  initial/final maximal load/proc = 32000.000 19200.000
  initial/final imbalance factor  = 2.0000000 1.2000000
  x cuts: 0.0000000 0.50000000 1.0000000
  y cuts: 0.0000000 0.50000000 1.0000000
  z cuts: 0.0000000 0.062500000 0.12890625 0.18750000 0.25781250 0.30859375 0.38671875 0.43750000 1.0000000


####################### WALLS ###########################


region	       low block  EDGE EDGE EDGE EDGE 0 2

region 	       top block  EDGE EDGE EDGE EDGE 159 160


delete_atoms   region low
WARNING: Ignoring 'compress yes' for molecular system (src/delete_atoms.cpp:125)
Deleted 19200 atoms, new total = 492800

delete_atoms   region top
WARNING: Ignoring 'compress yes' for molecular system (src/delete_atoms.cpp:125)
Deleted 0 atoms, new total = 492800


variable       epsilonWall equal 2*${epsilon}
variable       epsilonWall equal 2*1

variable       cutoffTop   equal   0.7147*${sigma}
variable       cutoffTop   equal   0.7147*1

variable       cutoffLow   equal   3*${sigma}
variable       cutoffLow   equal   3*1


fix            topWall all wall/lj93 zhi EDGE                ${epsilonWall} ${sigma} ${cutoffTop} units box
fix            topWall all wall/lj93 zhi EDGE                2 ${sigma} ${cutoffTop} units box
fix            topWall all wall/lj93 zhi EDGE                2 1 ${cutoffTop} units box
fix            topWall all wall/lj93 zhi EDGE                2 1 0.7147 units box

fix            lowWall all wall/lj93 zlo EDGE                ${epsilonWall} ${sigma} ${cutoffLow} units box
fix            lowWall all wall/lj93 zlo EDGE                2 ${sigma} ${cutoffLow} units box
fix            lowWall all wall/lj93 zlo EDGE                2 1 ${cutoffLow} units box
fix            lowWall all wall/lj93 zlo EDGE                2 1 3 units box


###################### COMPUTES ##########################

compute        bin1 solvent chunk/atom bin/1d z upper 1.0



######################	FIXES ############################


fix 		peclet solvent ave/chunk 1000 1 1000 bin1 density/number norm 		 none ave one file density.profile

fix 		2 solvent nve

## Thermostat


region		regthermo block EDGE EDGE EDGE EDGE 0 20

group 		thermo dynamic solvent region regthermo every 1000
dynamic group thermo defined

fix 		3 thermo langevin ${startTemp} ${temp} 10 156453
fix 		3 thermo langevin 0.5 ${temp} 10 156453
fix 		3 thermo langevin 0.5 .7 10 156453



#### Load balancing


fix 		bal all balance 1000 1.05 shift z 10 1.05


############### Diagnostics and computes ###################
#compute 	com cube	  rigid/local	1 mol x y z
#compute 	quat cube	  rigid/local	1 mol quatw quati quatj quatk

thermo 		1000
thermo_style 	custom step temp epair evdwl etotal press pe ke vol

dump		1 all custom 100000 dump.lammpstrj id mol type x y z
dump 		2 all image 10000 image.*.png type type
dump 		3 all movie 1000 movie.avi type type
#dump 		com cube local 1000 dump.*.xyz c_com[*]
#dump		quat cube      local 1000 dump.*.quat c_quat[*]


restart 	500000 restart.dat
timestep 	0.0025
timer 		full
New timer settings: style=full  mode=nosync  timeout=off


run		1000000
Per MPI rank memory allocation (min/avg/max) = 21.45 | 22.19 | 22.73 Mbytes
Step Temp E_pair E_vdwl TotEng Press PotEng KinEng Volume 
       0   0.49998514   -3.2974116   -3.2974116   -2.5474355    8.3319627   -3.2974116   0.74997619      1024000 
    1000    1.4278846   -4.8139824   -4.8139824   -2.6721599    3.6862039   -4.8139824    2.1418226      1024000 
    2000    1.3668785   -4.8634298   -4.8634298   -2.8131161    2.4666696   -4.8634298    2.0503136      1024000 
    3000    1.2648901    -4.838194    -4.838194   -2.9408627    1.6303085    -4.838194    1.8973313      1024000 
    4000    1.2136823    -4.849452    -4.849452   -3.0289322   0.71936029    -4.849452    1.8205198      1024000 
    5000    1.1415016   -4.7847384   -4.7847384   -3.0724895   0.08740259   -4.7847384    1.7122489      1024000 
    6000    1.0640639   -4.6836477   -4.6836477   -3.0875551   -0.2510279   -4.6836477    1.5960926      1024000 
    7000    1.0047059   -4.5970185   -4.5970185   -3.0899626  -0.35581201   -4.5970185    1.5070559      1024000 
    8000   0.99063901   -4.5759718   -4.5759718   -3.0900163  -0.24058394   -4.5759718    1.4859555      1024000 
    9000     1.003141   -4.6007365   -4.6007365   -3.0960281 -0.098815379   -4.6007365    1.5047084      1024000 
   10000    1.0093874   -4.6216255   -4.6216255   -3.1075474 -0.017131662   -4.6216255    1.5140781      1024000 
   11000     1.009362   -4.6342519   -4.6342519   -3.1202121   0.01561781   -4.6342519    1.5140399      1024000 
   12000    1.0077658   -4.6424211   -4.6424211   -3.1307755  0.029435845   -4.6424211    1.5116456      1024000 
   13000    1.0085574   -4.6524537   -4.6524537   -3.1396206  0.060676452   -4.6524537    1.5128331      1024000 
   14000    1.0128325   -4.6670766   -4.6670766    -3.147831  0.086308285   -4.6670766    1.5192457      1024000 
   15000     1.012366   -4.6736567   -4.6736567   -3.1551108  0.097700157   -4.6736567     1.518546      1024000 
   16000    1.0110708   -4.6780421   -4.6780421    -3.161439  0.095303679   -4.6780421    1.5166031      1024000 
   17000    1.0072155   -4.6781982   -4.6781982   -3.1673781  0.095293833   -4.6781982    1.5108201      1024000 
   18000    1.0066449   -4.6826325   -4.6826325   -3.1726683   0.10059247   -4.6826325    1.5099643      1024000 
   19000    1.0083874    -4.689804    -4.689804   -3.1772259   0.11293366    -4.689804     1.512578      1024000 
   20000    1.0099269   -4.6954242   -4.6954242   -3.1805369   0.12065034   -4.6954242    1.5148873      1024000 
   21000    1.0092405   -4.6972875   -4.6972875   -3.1834298   0.12735457   -4.6972875    1.5138577      1024000 
   22000    1.0099237   -4.7011861   -4.7011861   -3.1863036    0.1237795   -4.7011861    1.5148825      1024000 
   23000    1.0098311   -4.7039619   -4.7039619   -3.1892183   0.13244969   -4.7039619    1.5147436      1024000 
   24000    1.0155386   -4.7160389   -4.7160389   -3.1927341   0.24030407   -4.7160389    1.5233048      1024000 
   25000    1.0261407    -4.734639    -4.734639   -3.1954311   0.69172803    -4.734639    1.5392079      1024000 
   26000    1.0412399   -4.7595992   -4.7595992   -3.1977426      1.05885   -4.7595992    1.5618566      1024000 
   27000    1.0488969   -4.7729652   -4.7729652    -3.199623    1.5106876   -4.7729652    1.5733422      1024000 
   28000    1.0558137   -4.7857748   -4.7857748   -3.2020574    1.8435995   -4.7857748    1.5837174      1024000 
   29000    1.0377253   -4.7612374   -4.7612374   -3.2046527    1.4483145   -4.7612374    1.5565847      1024000 
   30000    1.0133306   -4.7262031   -4.7262031   -3.2062103    1.0458526   -4.7262031    1.5199927      1024000 
   31000   0.99849353   -4.7046693   -4.7046693    -3.206932   0.62882647   -4.7046693    1.4977373      1024000 
   32000   0.97024047   -4.6636556   -4.6636556   -3.2082979   0.34893356   -4.6636556    1.4553577      1024000 
   33000   0.93063743    -4.606073    -4.606073   -3.2101197   0.15017048    -4.606073    1.3959533      1024000 
   34000   0.89032459   -4.5472271   -4.5472271   -3.2117429 -0.0021550011   -4.5472271    1.3354842      1024000 
   35000   0.86094999   -4.5050042   -4.5050042   -3.2135818 -0.085520045   -4.5050042    1.2914224      1024000 
   36000   0.84486284   -4.4821056   -4.4821056   -3.2148139  -0.11024248   -4.4821056    1.2672917      1024000 
   37000   0.84075245   -4.4776701   -4.4776701    -3.216544  -0.10455835   -4.4776701    1.2611261      1024000 
   38000   0.84564975   -4.4865483   -4.4865483   -3.2180762 -0.071421733   -4.4865483    1.2684721      1024000 
   39000   0.85755894   -4.5057262   -4.5057262   -3.2193904 -0.028124938   -4.5057262    1.2863358      1024000 
   40000   0.86996551   -4.5258603   -4.5258603   -3.2209147  0.022861277   -4.5258603    1.3049456      1024000 
   41000    0.8812788   -4.5444041   -4.5444041   -3.2224885  0.064220017   -4.5444041    1.3219155      1024000 
   42000   0.88755186   -4.5551313   -4.5551313   -3.2238062  0.099817837   -4.5551313    1.3313251      1024000 
   43000   0.89001886   -4.5605287   -4.5605287   -3.2255031   0.10452305   -4.5605287    1.3350256      1024000 
   44000   0.88916177   -4.5608914   -4.5608914   -3.2271514  0.094959338   -4.5608914      1.33374      1024000 
   45000   0.88947977   -4.5628664   -4.5628664   -3.2286495  0.092816225   -4.5628664    1.3342169      1024000 
   46000   0.88904106   -4.5636949   -4.5636949    -3.230136  0.096281964   -4.5636949    1.3335589      1024000 
   47000    0.8910306   -4.5677425   -4.5677425   -3.2311993    0.1064027   -4.5677425    1.3365432      1024000 
   48000   0.89160375    -4.570419    -4.570419   -3.2330161   0.10993038    -4.570419    1.3374029      1024000 
   49000   0.89094382   -4.5708181   -4.5708181   -3.2344051   0.11178301   -4.5708181     1.336413      1024000 
   50000   0.88892821   -4.5695647   -4.5695647   -3.2361751  0.097692153   -4.5695647    1.3333896      1024000 
   51000   0.88599205   -4.5671804   -4.5671804   -3.2381951  0.089539798   -4.5671804    1.3289854      1024000 
   52000   0.88453764   -4.5663243   -4.5663243   -3.2395205  0.081072191   -4.5663243    1.3268038      1024000 
   53000   0.88255488   -4.5656076   -4.5656076   -3.2417779  0.084894693   -4.5656076    1.3238296      1024000 
   54000   0.88272087   -4.5681611   -4.5681611   -3.2440825  0.087721606   -4.5681611    1.3240786      1024000 
   55000   0.88594906   -4.5753882   -4.5753882   -3.2464673   0.10622043   -4.5753882    1.3289209      1024000 
   56000   0.89258573   -4.5879787   -4.5879787   -3.2491028   0.14035567   -4.5879787    1.3388759      1024000 
   57000   0.89874355   -4.6001676   -4.6001676    -3.252055    0.1838905   -4.6001676    1.3481126      1024000 
   58000   0.90588658   -4.6147453   -4.6147453   -3.2559182   0.23269805   -4.6147453    1.3588271      1024000 
   59000    0.9135877   -4.6315934   -4.6315934   -3.2612146   0.29419874   -4.6315934    1.3703788      1024000 
   60000   0.92280228    -4.651966    -4.651966   -3.2677654   0.37453816    -4.651966    1.3842006      1024000 
   61000   0.93006554   -4.6721187   -4.6721187   -3.2770232   0.45762556   -4.6721187    1.3950955      1024000 
   62000   0.93169368   -4.6866301   -4.6866301   -3.2890924   0.50508431   -4.6866301    1.3975377      1024000 
   63000   0.92309055    -4.689951    -4.689951    -3.305318   0.50435881    -4.689951     1.384633      1024000 
   64000   0.90850498   -4.6870569   -4.6870569   -3.3243022   0.44470633   -4.6870569    1.3627547      1024000 
   65000   0.88641609   -4.6716982   -4.6716982   -3.3420768    0.3457395   -4.6716982    1.3296214      1024000 
   66000    0.8643047   -4.6518323   -4.6518323   -3.3553778   0.31879531   -4.6518323    1.2964544      1024000 
   67000   0.84463029    -4.649839    -4.649839   -3.3828961   0.46337726    -4.649839    1.2669429      1024000 
   68000   0.83386678   -4.6687472   -4.6687472   -3.4179496   0.50355444   -4.6687472    1.2507976      1024000 
   69000   0.82883459   -4.6907807   -4.6907807   -3.4475314   0.49806887   -4.6907807    1.2432494      1024000 
   70000   0.82916444   -4.7136231   -4.7136231    -3.469879   0.48276899   -4.7136231    1.2437441      1024000 
   71000   0.83527042   -4.7398796   -4.7398796   -3.4869765   0.47416786   -4.7398796    1.2529031      1024000 
   72000   0.84126469   -4.7608383   -4.7608383   -3.4989438   0.50287476   -4.7608383    1.2618945      1024000 
   73000   0.84828493   -4.7798655   -4.7798655   -3.5074406   0.55077173   -4.7798655    1.2724248      1024000 
   74000   0.83835243   -4.7722188   -4.7722188   -3.5146927    0.4743005   -4.7722188    1.2575261      1024000 
   75000   0.81610636   -4.7441852   -4.7441852   -3.5200282   0.32668045   -4.7441852    1.2241571      1024000 
   76000   0.79272995   -4.7146072   -4.7146072   -3.5255147   0.22573914   -4.7146072    1.1890925      1024000 
   77000     0.771716    -4.689349    -4.689349   -3.5317773   0.15496474    -4.689349    1.1575716      1024000 
   78000   0.75420339   -4.6710307   -4.6710307   -3.5397279  0.098996658   -4.6710307    1.1313028      1024000 
   79000   0.73729299   -4.6535741   -4.6535741   -3.5476369  0.051395072   -4.6535741    1.1059372      1024000 
   80000   0.72490024   -4.6414133   -4.6414133   -3.5540652 -0.023551128   -4.6414133    1.0873482      1024000 
   81000   0.71492006    -4.630625    -4.630625    -3.558247  -0.10411859    -4.630625    1.0723779      1024000 
   82000   0.70541633   -4.6166814   -4.6166814   -3.5585591  -0.16766414   -4.6166814    1.0581223      1024000 
   83000   0.69749783   -4.6024019   -4.6024019   -3.5561572  -0.21205345   -4.6024019    1.0462446      1024000 
   84000   0.69144566   -4.5889921   -4.5889921   -3.5518257  -0.23493518   -4.5889921    1.0371664      1024000 
   85000   0.68943663   -4.5807925   -4.5807925   -3.5466397  -0.25010894   -4.5807925    1.0341528      1024000 
   86000   0.68779884   -4.5740562   -4.5740562     -3.54236  -0.24347228   -4.5740562    1.0316962      1024000 
   87000   0.69016746   -4.5735717   -4.5735717   -3.5383226  -0.22700947   -4.5735717    1.0352491      1024000 
   88000   0.69398356   -4.5768941   -4.5768941   -3.5359209  -0.19720179   -4.5768941    1.0409732      1024000 
   89000   0.70065854   -4.5867294   -4.5867294   -3.5357438  -0.15836606   -4.5867294    1.0509857      1024000 
   90000   0.70559367   -4.5973051   -4.5973051   -3.5389168  -0.11272458   -4.5973051    1.0583884      1024000 
   91000   0.71196204   -4.6116836   -4.6116836   -3.5437428  -0.06956658   -4.6116836    1.0679409      1024000 
   92000   0.71682707   -4.6240334   -4.6240334    -3.548795 -0.034594831   -4.6240334    1.0752384      1024000 
   93000   0.72206887   -4.6383047   -4.6383047   -3.5552036 -0.013338404   -4.6383047    1.0831011      1024000 
   94000   0.72446013   -4.6479463   -4.6479463   -3.5612584 -0.0023764381   -4.6479463     1.086688      1024000 
   95000   0.72719341   -4.6572698   -4.6572698   -3.5664819 -0.0023290524   -4.6572698    1.0907879      1024000 
   96000   0.72635577   -4.6598288   -4.6598288   -3.5702974 -0.0082978001   -4.6598288    1.0895314      1024000 
   97000   0.72520699   -4.6603522   -4.6603522   -3.5725439 -0.012698569   -4.6603522    1.0878083      1024000 
   98000   0.72320345   -4.6601152   -4.6601152   -3.5753123 -0.023886481   -4.6601152     1.084803      1024000 
   99000   0.71937357   -4.6559842   -4.6559842    -3.576926 -0.029021509   -4.6559842    1.0790582      1024000 
  100000   0.71761767   -4.6552306   -4.6552306   -3.5788062  -0.03398505   -4.6552306    1.0764243      1024000 
  101000    0.7159747   -4.6560376   -4.6560376   -3.5820778 -0.038355712   -4.6560376    1.0739599      1024000 
  102000   0.71461916   -4.6581868   -4.6581868   -3.5862602 -0.026804437   -4.6581868    1.0719266      1024000 
  103000   0.71568444   -4.6637323   -4.6637323   -3.5902078 -0.026604367   -4.6637323    1.0735245      1024000 
  104000   0.71818172   -4.6701913   -4.6701913   -3.5929209 -0.022490142   -4.6701913    1.0772704      1024000 
  105000   0.72096679   -4.6774525   -4.6774525   -3.5960045 -0.012059385   -4.6774525     1.081448      1024000 
  106000   0.72305722   -4.6837127   -4.6837127   -3.5991291 0.00065936538   -4.6837127    1.0845836      1024000 
  107000   0.72475528   -4.6893566   -4.6893566   -3.6022259 0.0085309875   -4.6893566    1.0871307      1024000 
  108000   0.72446788   -4.6919669   -4.6919669   -3.6052673  0.010395156   -4.6919669    1.0866996      1024000 
  109000   0.72408361   -4.6934263   -4.6934263   -3.6073031 0.0067319683   -4.6934263    1.0861232      1024000 
  110000   0.72163985   -4.6917696   -4.6917696    -3.609312 0.0012171415   -4.6917696    1.0824576      1024000 
  111000   0.71907803   -4.6907746   -4.6907746   -3.6121598 -0.0067464656   -4.6907746    1.0786149      1024000 
  112000   0.71722777   -4.6912841   -4.6912841   -3.6154446 -0.018342153   -4.6912841    1.0758395      1024000 
  113000   0.71485132   -4.6902075   -4.6902075   -3.6179327 -0.019315285   -4.6902075    1.0722748      1024000 
  114000   0.71442333   -4.6927011   -4.6927011   -3.6210683 -0.021976483   -4.6927011    1.0716328      1024000 
  115000   0.71493693    -4.696514    -4.696514   -3.6241108 -0.015062806    -4.696514    1.0724032      1024000 
  116000   0.71662379   -4.7018673   -4.7018673   -3.6269338 -0.012857853   -4.7018673    1.0749335      1024000 
  117000   0.71629428   -4.7030206   -4.7030206   -3.6285814 -0.0036555046   -4.7030206    1.0744392      1024000 
  118000   0.71778828   -4.7076892   -4.7076892   -3.6310089 -0.0048160692   -4.7076892    1.0766802      1024000 
  119000   0.71790667   -4.7104389   -4.7104389   -3.6335811 -0.00045930066   -4.7104389    1.0768578      1024000 
  120000   0.71841921   -4.7137211   -4.7137211   -3.6360945 -0.0012301258   -4.7137211    1.0776266      1024000 
  121000   0.71718404   -4.7145202   -4.7145202   -3.6387463  0.004074718   -4.7145202    1.0757739      1024000 
  122000   0.71601599   -4.7153897   -4.7153897   -3.6413679 0.00014135132   -4.7153897    1.0740218      1024000 
  123000   0.71479109   -4.7163471   -4.7163471   -3.6441627 -0.0057055946   -4.7163471    1.0721845      1024000 
  124000   0.71470689   -4.7182161   -4.7182161   -3.6461579 -0.0085344338   -4.7182161    1.0720582      1024000 
  125000    0.7135199   -4.7188876   -4.7188876   -3.6486099 -0.0087133916   -4.7188876    1.0702777      1024000 
  126000   0.71298244    -4.720302    -4.720302   -3.6508305 -0.0038722351    -4.720302    1.0694715      1024000 
  127000   0.71373066   -4.7240165   -4.7240165   -3.6534227 -0.0031596064   -4.7240165    1.0705938      1024000 
  128000   0.71422851   -4.7269211   -4.7269211   -3.6555806 -0.0040140701   -4.7269211    1.0713406      1024000 
  129000   0.71473109   -4.7298509   -4.7298509   -3.6577565 -0.0012065537   -4.7298509    1.0720945      1024000 
  130000   0.71549955   -4.7332429   -4.7332429   -3.6599958 0.0042802536   -4.7332429    1.0732471      1024000 
  131000   0.71555238   -4.7361638   -4.7361638   -3.6628374  0.001740454   -4.7361638    1.0733264      1024000 
  132000   0.71477322   -4.7374509   -4.7374509   -3.6652932 0.0018277667   -4.7374509    1.0721577      1024000 
  133000   0.71473399   -4.7402308   -4.7402308    -3.668132 -9.4960866e-05   -4.7402308    1.0720988      1024000 
  134000   0.71546487   -4.7444132   -4.7444132   -3.6712181 -0.0020628571   -4.7444132    1.0731951      1024000 
  135000   0.71274557   -4.7434832   -4.7434832    -3.674367 0.0032483413   -4.7434832    1.0691162      1024000 
  136000   0.71322664   -4.7469563   -4.7469563   -3.6771185 -0.002322105   -4.7469563    1.0698378      1024000 
  137000   0.71359972   -4.7500066   -4.7500066   -3.6796092 -0.0041378159   -4.7500066    1.0703974      1024000 
  138000   0.71234474   -4.7509546   -4.7509546   -3.6824397 0.0066704821   -4.7509546    1.0685149      1024000 
  139000   0.71271378    -4.754545    -4.754545   -3.6854765 0.00028656523    -4.754545    1.0690685      1024000 
  140000   0.71347448   -4.7585097   -4.7585097   -3.6883001 0.0023538146   -4.7585097    1.0702096      1024000 
  141000   0.71398882    -4.761868    -4.761868    -3.690887 0.0051529546    -4.761868    1.0709811      1024000 
  142000   0.71350628   -4.7631125   -4.7631125   -3.6928552 0.0088660706   -4.7631125    1.0702573      1024000 
  143000   0.71552507   -4.7687826   -4.7687826   -3.6954971 0.0054123823   -4.7687826    1.0732854      1024000 
  144000   0.71429333   -4.7702358   -4.7702358    -3.698798  0.014889612   -4.7702358    1.0714378      1024000 
  145000   0.71353445   -4.7722449   -4.7722449   -3.7019454  0.015304798   -4.7722449    1.0702995      1024000 
  146000     0.714025   -4.7764114   -4.7764114    -3.705376  0.010244087   -4.7764114    1.0710353      1024000 
  147000   0.71229488   -4.7770981   -4.7770981    -3.708658  0.014172764   -4.7770981    1.0684402      1024000 
  148000    0.7136009   -4.7814183   -4.7814183   -3.7110191  0.018194065   -4.7814183    1.0703992      1024000 
  149000   0.71331282   -4.7835723   -4.7835723   -3.7136052  0.019184001   -4.7835723    1.0699671      1024000 
  150000   0.71379769   -4.7877366   -4.7877366   -3.7170423  0.024643473   -4.7877366    1.0706944      1024000 
  151000   0.71289932   -4.7901139   -4.7901139   -3.7207671  0.025101335   -4.7901139    1.0693468      1024000 
  152000   0.71297508   -4.7933305   -4.7933305   -3.7238701  0.026555897   -4.7933305    1.0694604      1024000 
  153000    0.7145971    -4.798885    -4.798885   -3.7269915  0.027961227    -4.798885    1.0718935      1024000 
  154000    0.7148904   -4.8034235   -4.8034235   -3.7310901  0.028521288   -4.8034235    1.0723334      1024000 
  155000   0.71518248   -4.8063988   -4.8063988   -3.7336273  0.033596927   -4.8063988    1.0727715      1024000 
  156000   0.71542784   -4.8105396   -4.8105396      -3.7374   0.03707615   -4.8105396    1.0731396      1024000 
  157000   0.71501236   -4.8128401   -4.8128401   -3.7403237  0.040465863   -4.8128401    1.0725164      1024000 
  158000   0.71562586   -4.8166541   -4.8166541   -3.7432175  0.046518923   -4.8166541    1.0734366      1024000 
  159000   0.71554153   -4.8203796   -4.8203796   -3.7470695  0.049745421   -4.8203796    1.0733101      1024000 
  160000   0.71712658   -4.8259836   -4.8259836   -3.7502959  0.049505491   -4.8259836    1.0756877      1024000 
  161000   0.71674602   -4.8293563   -4.8293563   -3.7542395  0.051106424   -4.8293563    1.0751168      1024000 
  162000   0.71758059   -4.8343378   -4.8343378   -3.7579691  0.052963015   -4.8343378    1.0763687      1024000 
  163000   0.71582926   -4.8354186   -4.8354186   -3.7616769  0.057842048   -4.8354186    1.0737417      1024000 
  164000    0.7147911   -4.8378196   -4.8378196   -3.7656351  0.052582788   -4.8378196    1.0721845      1024000 
  165000   0.71308153   -4.8388825   -4.8388825   -3.7692624  0.043784917   -4.8388825    1.0696201      1024000 
  166000   0.71147114   -4.8401381   -4.8401381   -3.7729335  0.039571268   -4.8401381    1.0672045      1024000 
  167000   0.71029363   -4.8415184   -4.8415184   -3.7760801  0.031582427   -4.8415184    1.0654383      1024000 
  168000   0.70920142   -4.8428625   -4.8428625   -3.7790625  0.020171797   -4.8428625       1.0638      1024000 
  169000   0.70655572   -4.8421454   -4.8421454   -3.7823139  0.017183611   -4.8421454    1.0598314      1024000 
  170000    0.7054026   -4.8435876   -4.8435876   -3.7854858 0.0050140315   -4.8435876    1.0581017      1024000 
  171000   0.70367757   -4.8437515   -4.8437515   -3.7882373 -0.000766832   -4.8437515    1.0555142      1024000 
  172000   0.70272495   -4.8448675   -4.8448675   -3.7907822 -0.011473156   -4.8448675    1.0540853      1024000 
  173000   0.70070101   -4.8447855   -4.8447855   -3.7937361 -0.017790704   -4.8447855    1.0510494      1024000 
  174000   0.69973109   -4.8458373   -4.8458373   -3.7962428 -0.020802018   -4.8458373    1.0495945      1024000 
  175000   0.70012212    -4.848093    -4.848093   -3.7979119 -0.024768207    -4.848093     1.050181      1024000 
  176000    0.6990549   -4.8499636   -4.8499636   -3.8013834 -0.025971457   -4.8499636    1.0485802      1024000 
  177000   0.69896689   -4.8523842   -4.8523842    -3.803936 -0.029796928   -4.8523842    1.0484482      1024000 
  178000   0.69879807   -4.8547554   -4.8547554   -3.8065604 -0.032452152   -4.8547554     1.048195      1024000 
  179000   0.69897933   -4.8571527   -4.8571527   -3.8086859 -0.028300273   -4.8571527    1.0484669      1024000 
  180000   0.70007832   -4.8611664   -4.8611664   -3.8110511 -0.029010414   -4.8611664    1.0501153      1024000 
  181000   0.69909819   -4.8626769   -4.8626769   -3.8140317 -0.013712802   -4.8626769    1.0486452      1024000 
  182000   0.70205366   -4.8693945   -4.8693945   -3.8163162 -0.016366643   -4.8693945    1.0530783      1024000 
  183000     0.700382   -4.8711375   -4.8711375   -3.8205667 -0.0084326073   -4.8711375    1.0505709      1024000 
  184000   0.70265112   -4.8777808   -4.8777808   -3.8238063 -0.0051620973   -4.8777808    1.0539745      1024000 
  185000   0.70394024   -4.8828285   -4.8828285   -3.8269203 0.00067908686   -4.8828285    1.0559082      1024000 
  186000   0.70448129   -4.8871945   -4.8871945   -3.8304747 0.0056950699   -4.8871945    1.0567198      1024000 
  187000   0.70381122   -4.8897041   -4.8897041   -3.8339894  0.016317135   -4.8897041    1.0557147      1024000 
  188000   0.70562491   -4.8955517   -4.8955517   -3.8371165  0.025883753   -4.8955517    1.0584352      1024000 
  189000   0.70620033   -4.9006983   -4.9006983   -3.8413999  0.025972629   -4.9006983    1.0592984      1024000 
  190000   0.70514914   -4.9027337   -4.9027337   -3.8450122  0.033805357   -4.9027337    1.0577216      1024000 
  191000   0.70595765   -4.9074396   -4.9074396   -3.8485053  0.029828253   -4.9074396    1.0589343      1024000 
  192000   0.70423577   -4.9082986   -4.9082986   -3.8519471  0.038967594   -4.9082986    1.0563515      1024000 
  193000    0.7046393   -4.9126421   -4.9126421   -3.8556853  0.036151848   -4.9126421    1.0569568      1024000 
  194000   0.70454026   -4.9153978   -4.9153978   -3.8585895  0.034224214   -4.9153978    1.0568083      1024000 
  195000   0.70474029   -4.9194707   -4.9194707   -3.8623624  0.028206122   -4.9194707    1.0571083      1024000 
  196000   0.70337231   -4.9202042   -4.9202042   -3.8651479  0.022241025   -4.9202042    1.0550563      1024000 
  197000   0.70158561   -4.9208811   -4.9208811   -3.8685048  0.021668511   -4.9208811    1.0523763      1024000 
  198000   0.70070232   -4.9226142   -4.9226142   -3.8715629  0.018440783   -4.9226142    1.0510514      1024000 
  199000   0.70035768   -4.9247632   -4.9247632   -3.8742288 0.0098201463   -4.9247632    1.0505344      1024000 
  200000   0.69766685   -4.9248368   -4.9248368   -3.8783387 0.0060576033   -4.9248368    1.0464981      1024000 
  201000   0.69749927   -4.9279242   -4.9279242   -3.8816774 -0.0035488386   -4.9279242    1.0462468      1024000 
  202000   0.69588436   -4.9287747   -4.9287747   -3.8849503 -0.011016431   -4.9287747    1.0438244      1024000 
  203000   0.69546745    -4.930029    -4.930029   -3.8868299 -0.0094735089    -4.930029    1.0431991      1024000 
  204000   0.69486858   -4.9318297   -4.9318297    -3.889529 -0.017677621   -4.9318297    1.0423008      1024000 
  205000   0.69366808   -4.9324023   -4.9324023   -3.8919023 -0.019870215   -4.9324023       1.0405      1024000 
  206000   0.69329712   -4.9340812   -4.9340812   -3.8941376 -0.016333333   -4.9340812    1.0399436      1024000 
  207000   0.69362032   -4.9377848   -4.9377848   -3.8973565 -0.021939022   -4.9377848    1.0404284      1024000 
  208000   0.69335215    -4.939666    -4.939666   -3.8996399  -0.01697213    -4.939666    1.0400261      1024000 
  209000   0.69345875   -4.9428647   -4.9428647   -3.9026787  -0.01654876   -4.9428647     1.040186      1024000 
  210000   0.69357189   -4.9461797   -4.9461797    -3.905824 -0.016341381   -4.9461797    1.0403557      1024000 
  211000   0.69351971   -4.9487777   -4.9487777   -3.9085002 -0.0098968902   -4.9487777    1.0402775      1024000 
  212000   0.69382786   -4.9517872   -4.9517872   -3.9110475 -0.003963613   -4.9517872    1.0407397      1024000 
  213000   0.69468764   -4.9558748   -4.9558748   -3.9138454 -0.0022748071   -4.9558748    1.0420293      1024000 
  214000   0.69601888   -4.9604469   -4.9604469   -3.9164207 -0.0043917141   -4.9604469    1.0440262      1024000 
  215000   0.69474447   -4.9615008   -4.9615008   -3.9193862 0.0076957524   -4.9615008    1.0421146      1024000 
  216000     0.695772   -4.9661902   -4.9661902   -3.9225344 0.0092481047   -4.9661902    1.0436559      1024000 
  217000   0.69642006   -4.9689031   -4.9689031   -3.9242751   0.01806882   -4.9689031     1.044628      1024000 
  218000   0.69692742   -4.9720735   -4.9720735   -3.9266845  0.017828655   -4.9720735     1.045389      1024000 
  219000   0.69721961   -4.9757766   -4.9757766   -3.9299493  0.017911123   -4.9757766    1.0458273      1024000 
  220000   0.69746184   -4.9781595   -4.9781595   -3.9319689  0.022548279   -4.9781595    1.0461906      1024000 
  221000   0.69705244   -4.9806014   -4.9806014   -3.9350248  0.022249911   -4.9806014    1.0455765      1024000 
  222000   0.69697397   -4.9829066   -4.9829066   -3.9374478  0.019173291   -4.9829066    1.0454588      1024000 
  223000   0.69576865   -4.9842796   -4.9842796   -3.9406287  0.020900891   -4.9842796    1.0436509      1024000 
  224000   0.69528099   -4.9861287   -4.9861287   -3.9432093  0.015063157   -4.9861287    1.0429194      1024000 
  225000   0.69430414   -4.9873616   -4.9873616   -3.9459075   0.01434389   -4.9873616    1.0414541      1024000 
  226000   0.69357084     -4.98863     -4.98863   -3.9482759 0.0043052223     -4.98863    1.0403541      1024000 
  227000   0.69266441   -4.9892387   -4.9892387   -3.9502442 0.00086407173   -4.9892387    1.0389945      1024000 
  228000   0.69123731   -4.9895177   -4.9895177   -3.9526638 0.00041327045   -4.9895177    1.0368539      1024000 
  229000   0.69127427   -4.9920707   -4.9920707   -3.9551614 -0.0091875192   -4.9920707    1.0369093      1024000 
  230000   0.68901283   -4.9908336   -4.9908336   -3.9573165 -0.0058203748   -4.9908336    1.0335172      1024000 
  231000   0.69011171   -4.9947725   -4.9947725    -3.959607 -0.015737653   -4.9947725    1.0351655      1024000 
  232000   0.68826323   -4.9938168   -4.9938168    -3.961424 -0.016342005   -4.9938168    1.0323928      1024000 
  233000   0.68754819   -4.9950392   -4.9950392    -3.963719 -0.017908028   -4.9950392    1.0313202      1024000 
  234000   0.68771113   -4.9977934   -4.9977934   -3.9662288 -0.022547836   -4.9977934    1.0315646      1024000 
  235000   0.68682182   -4.9989714   -4.9989714   -3.9687407 -0.018956724   -4.9989714    1.0302306      1024000 
  236000    0.6865688   -5.0002761   -5.0002761    -3.970425 -0.015606524   -5.0002761    1.0298511      1024000 
  237000    0.6868146   -5.0024888   -5.0024888    -3.972269 -0.016214958   -5.0024888    1.0302198      1024000 
  238000   0.68643171   -5.0033716   -5.0033716   -3.9737261 -0.0092531618   -5.0033716    1.0296455      1024000 
  239000   0.68749365   -5.0067266   -5.0067266   -3.9754883 -0.0072357797   -5.0067266    1.0312384      1024000 
  240000   0.68977193   -5.0113066   -5.0113066   -3.9766508 -0.0073526291   -5.0113066    1.0346558      1024000 
  241000   0.68985164   -5.0139304   -5.0139304   -3.9791551 -0.00045921889   -5.0139304    1.0347754      1024000 
  242000   0.68769148   -5.0128056   -5.0128056   -3.9812705 0.0098594859   -5.0128056    1.0315351      1024000 
  243000   0.68952532   -5.0169629   -5.0169629    -3.982677 0.0066586488   -5.0169629    1.0342859      1024000 
  244000   0.68939604     -5.01909     -5.01909    -3.984998  0.010049492     -5.01909     1.034092      1024000 
  245000   0.69012916   -5.0226039   -5.0226039   -3.9874122  0.014709541   -5.0226039    1.0351916      1024000 
  246000   0.69083608   -5.0252109   -5.0252109   -3.9889589 0.0083065359   -5.0252109     1.036252      1024000 
  247000   0.69042406   -5.0264485   -5.0264485   -3.9908145  0.013458863   -5.0264485     1.035634      1024000 
  248000   0.68962851   -5.0272196   -5.0272196    -3.992779  0.012750547   -5.0272196    1.0344407      1024000 
  249000   0.68895597   -5.0283995   -5.0283995   -3.9949676  0.014053969   -5.0283995    1.0334319      1024000 
  250000   0.68874525   -5.0304767   -5.0304767   -3.9973609 0.0082702845   -5.0304767    1.0331158      1024000 
  251000   0.68771368   -5.0304144   -5.0304144    -3.998846 0.0071391198   -5.0304144    1.0315684      1024000 
  252000   0.68732456   -5.0317886   -5.0317886   -4.0008039 0.00085620295   -5.0317886    1.0309847      1024000 
  253000   0.68718238   -5.0335282   -5.0335282   -4.0027567 -0.00036732502   -5.0335282    1.0307715      1024000 
  254000   0.68600513   -5.0336587   -5.0336587   -4.0046531 0.00010927776   -5.0336587    1.0290056      1024000 
  255000   0.68539812   -5.0345264   -5.0345264   -4.0064313 -0.0067530294   -5.0345264    1.0280951      1024000 
  256000   0.68347758   -5.0329816   -5.0329816   -4.0077673 -0.0041129222   -5.0329816    1.0252143      1024000 
  257000    0.6837503   -5.0349248   -5.0349248   -4.0093015 -0.013680387   -5.0349248    1.0256234      1024000 
  258000   0.68381383   -5.0359549   -5.0359549   -4.0102362 -0.015098175   -5.0359549    1.0257187      1024000 
  259000   0.68250851    -5.036265    -5.036265   -4.0125043 -0.015939241    -5.036265    1.0237607      1024000 
  260000   0.68350604    -5.038974    -5.038974    -4.013717 -0.016758015    -5.038974     1.025257      1024000 
  261000   0.68319169   -5.0400457   -5.0400457   -4.0152602 -0.014480983   -5.0400457    1.0247855      1024000 
  262000   0.68203039   -5.0388689   -5.0388689   -4.0158254 -0.018102984   -5.0388689    1.0230435      1024000 
  263000   0.68269721   -5.0412904   -5.0412904   -4.0172467 -0.012268304   -5.0412904    1.0240437      1024000 
  264000   0.68232132   -5.0425561   -5.0425561   -4.0190762 -0.005342869   -5.0425561    1.0234799      1024000 
  265000   0.68231376   -5.0445655   -5.0445655   -4.0210969 -0.0038485657   -5.0445655    1.0234686      1024000 
  266000   0.68242126   -5.0462224   -5.0462224   -4.0225926 0.0014139558   -5.0462224    1.0236298      1024000 
  267000   0.68459924   -5.0508473   -5.0508473   -4.0239506 -0.00067378266   -5.0508473    1.0268968      1024000 
  268000   0.68482512   -5.0527691   -5.0527691   -4.0255335 0.0021546434   -5.0527691    1.0272356      1024000 
  269000   0.68454836   -5.0537559   -5.0537559   -4.0269355 0.0023218466   -5.0537559    1.0268205      1024000 
  270000   0.68409332   -5.0542092   -5.0542092   -4.0280713 0.0079466651   -5.0542092    1.0261379      1024000 
  271000   0.68479495   -5.0572813   -5.0572813   -4.0300909 0.0082305287   -5.0572813    1.0271903      1024000 
  272000   0.68533268   -5.0597396   -5.0597396   -4.0317427 0.0086299289   -5.0597396    1.0279969      1024000 
  273000   0.68454107   -5.0601917   -5.0601917   -4.0333822  0.013835344   -5.0601917    1.0268095      1024000 
  274000   0.68363851   -5.0606195   -5.0606195   -4.0351638  0.012849126   -5.0606195    1.0254557      1024000 
  275000   0.68433469   -5.0631847   -5.0631847   -4.0366847  0.010630309   -5.0631847    1.0264999      1024000 
  276000   0.68451675     -5.06459     -5.06459    -4.037817 0.0055143066     -5.06459     1.026773      1024000 
  277000   0.68409748   -5.0648107   -5.0648107   -4.0386665  0.009081161   -5.0648107    1.0261441      1024000 
  278000   0.68301491   -5.0644989   -5.0644989   -4.0399786 0.0067372487   -5.0644989    1.0245203      1024000 
  279000   0.68259377   -5.0660688   -5.0660688   -4.0421802 0.0032299874   -5.0660688    1.0238886      1024000 
  280000   0.68131326   -5.0655537   -5.0655537   -4.0435859 0.0031184898   -5.0655537    1.0219678      1024000 
  281000   0.68091399   -5.0666387   -5.0666387   -4.0452698 -0.0028973734   -5.0666387    1.0213689      1024000 
  282000   0.67999487   -5.0662997   -5.0662997   -4.0463095 -0.007188167   -5.0662997    1.0199902      1024000 
  283000   0.67958173   -5.0664382   -5.0664382   -4.0470677 -0.0064570219   -5.0664382    1.0193705      1024000 
  284000    0.6799456   -5.0672785   -5.0672785   -4.0473621 -0.0054801122   -5.0672785    1.0199163      1024000 
  285000    0.6793503   -5.0681108   -5.0681108   -4.0490874 -0.0096270386   -5.0681108    1.0190234      1024000 
  286000   0.67954887   -5.0693841   -5.0693841   -4.0500628 -0.012950412   -5.0693841    1.0193212      1024000 
  287000   0.67873304   -5.0690164   -5.0690164   -4.0509189 -0.011137471   -5.0690164    1.0180975      1024000 
  288000   0.67884143   -5.0698351   -5.0698351    -4.051575 -0.0075202819   -5.0698351    1.0182601      1024000 
  289000   0.67972878   -5.0733113   -5.0733113   -4.0537202 -0.011787336   -5.0733113    1.0195911      1024000 
  290000   0.67904938   -5.0732421   -5.0732421   -4.0546701 -0.0067979202   -5.0732421     1.018572      1024000 
  291000   0.67911637   -5.0743765   -5.0743765    -4.055704 -0.0043217738   -5.0743765    1.0186725      1024000 
  292000   0.67932189   -5.0761266   -5.0761266   -4.0571458 -0.0027590489   -5.0761266    1.0189808      1024000 
  293000   0.67987345   -5.0776069   -5.0776069   -4.0577988 -0.0020623997   -5.0776069    1.0198081      1024000 
  294000   0.67980033   -5.0784122   -5.0784122   -4.0587137 0.0027426219   -5.0784122    1.0196984      1024000 
  295000   0.68035222   -5.0799693   -5.0799693   -4.0594431 0.0091228665   -5.0799693    1.0205263      1024000 
  296000   0.68078284   -5.0819786   -5.0819786   -4.0608064  0.008368104   -5.0819786    1.0211722      1024000 
  297000   0.68068243   -5.0831885   -5.0831885    -4.062167  0.012428276   -5.0831885    1.0210216      1024000 
  298000   0.68103269    -5.084286    -5.084286    -4.062739  0.013545334    -5.084286     1.021547      1024000 
  299000   0.68102644   -5.0856316   -5.0856316    -4.064094 0.0089039066   -5.0856316    1.0215376      1024000 
  300000   0.68087247   -5.0863923   -5.0863923   -4.0650857  0.013284123   -5.0863923    1.0213066      1024000 
  301000   0.67948475    -5.085997    -5.085997   -4.0667719  0.017219076    -5.085997    1.0192251      1024000 
  302000   0.67968478   -5.0881683   -5.0881683   -4.0686432  0.011915025   -5.0881683    1.0195251      1024000 
  303000    0.6789009   -5.0888452   -5.0888452    -4.070496 0.0089405294   -5.0888452    1.0183493      1024000 
  304000    0.6793986   -5.0905262   -5.0905262   -4.0714303 0.0051758668   -5.0905262    1.0190958      1024000 
  305000   0.67843954   -5.0895116   -5.0895116   -4.0718543  0.002123335   -5.0895116    1.0176572      1024000 
  306000   0.67750424   -5.0898894   -5.0898894   -4.0736351 0.0012830935   -5.0898894    1.0162543      1024000 
  307000   0.67664488   -5.0901831   -5.0901831   -4.0752178  0.001474354   -5.0901831    1.0149653      1024000 
  308000   0.67624193   -5.0908683   -5.0908683   -4.0765074 -0.0018302275   -5.0908683    1.0143608      1024000 
  309000      0.67618   -5.0915707   -5.0915707   -4.0773028 -0.0034754123   -5.0915707    1.0142679      1024000 
  310000   0.67538765   -5.0917363   -5.0917363   -4.0786569 -0.0035892628   -5.0917363    1.0130794      1024000 
  311000   0.67527595   -5.0921331   -5.0921331   -4.0792212 -0.00098323051   -5.0921331    1.0129119      1024000 
  312000   0.67666875   -5.0945077   -5.0945077   -4.0795067 -0.0072206734   -5.0945077    1.0150011      1024000 
  313000   0.67684239    -5.095803    -5.095803   -4.0805415 -0.0089429573    -5.095803    1.0152615      1024000 
  314000   0.67608634     -5.09628     -5.09628   -4.0821525 -0.0032999638     -5.09628    1.0141274      1024000 
  315000   0.67672911   -5.0980868   -5.0980868   -4.0829952 -0.0034208692   -5.0980868    1.0150916      1024000 
  316000   0.67584761   -5.0982146   -5.0982146   -4.0844453 -0.00085462905   -5.0982146    1.0137694      1024000 
  317000   0.67565477   -5.0992473   -5.0992473   -4.0857672 0.0018706955   -5.0992473    1.0134801      1024000 
  318000   0.67561395   -5.1002081   -5.1002081   -4.0867892 0.0031556074   -5.1002081    1.0134189      1024000 
  319000   0.67538866   -5.1008731   -5.1008731   -4.0877921 0.0066306767   -5.1008731    1.0130809      1024000 
  320000   0.67550691   -5.1024787   -5.1024787   -4.0892204 0.0065507906   -5.1024787    1.0132583      1024000 
  321000   0.67685643   -5.1053984   -5.1053984   -4.0901158 0.0063653626   -5.1053984    1.0152826      1024000 
  322000   0.67777582   -5.1073653   -5.1073653   -4.0907036 0.0067008104   -5.1073653    1.0166617      1024000 
  323000   0.67525394   -5.1050446   -5.1050446   -4.0921657   0.01495677   -5.1050446    1.0128789      1024000 
  324000   0.67654778   -5.1073219   -5.1073219   -4.0925023  0.011431696   -5.1073219    1.0148196      1024000 
  325000   0.67548768   -5.1065418   -5.1065418   -4.0933123  0.015104638   -5.1065418    1.0132295      1024000 
  326000   0.67618648   -5.1085096   -5.1085096   -4.0942319  0.012911427   -5.1085096    1.0142777      1024000 
  327000   0.67634528   -5.1104956   -5.1104956   -4.0959798  0.012459506   -5.1104956    1.0145159      1024000 
  328000    0.6762776   -5.1114483   -5.1114483    -4.097034 0.0059844816   -5.1114483    1.0144143      1024000 
  329000   0.67489583   -5.1106498   -5.1106498   -4.0983081 0.0083341095   -5.1106498    1.0123417      1024000 
  330000    0.6749919   -5.1122399   -5.1122399   -4.0997541 0.0040620492   -5.1122399    1.0124858      1024000 
  331000   0.67472331   -5.1117465   -5.1117465   -4.0996636 0.0058155909   -5.1117465    1.0120829      1024000 
  332000   0.67588464   -5.1142331   -5.1142331   -4.1004082 -0.0028674666   -5.1142331    1.0138249      1024000 
  333000   0.67489161   -5.1139179   -5.1139179   -4.1015825 0.0014232785   -5.1139179    1.0123354      1024000 
  334000    0.6735153   -5.1121209   -5.1121209     -4.10185 0.0060772929   -5.1121209    1.0102709      1024000 
  335000   0.67409483   -5.1136687   -5.1136687   -4.1025285 -0.0022434792   -5.1136687    1.0111402      1024000 
  336000   0.67360917   -5.1139346   -5.1139346   -4.1035229 -0.0058518871   -5.1139346    1.0104117      1024000 
  337000   0.67319631   -5.1133447   -5.1133447   -4.1035523 -0.0018175406   -5.1133447    1.0097924      1024000 
  338000    0.6732357   -5.1143995   -5.1143995    -4.104548 -0.00050209016   -5.1143995    1.0098515      1024000 
  339000   0.67427096   -5.1175081   -5.1175081   -4.1061037 -0.0040579136   -5.1175081    1.0114044      1024000 
  340000   0.67293393   -5.1166262   -5.1166262   -4.1072273 -5.381909e-05   -5.1166262    1.0093988      1024000 
  341000   0.67298821   -5.1173918   -5.1173918   -4.1079115 0.0008568189   -5.1173918    1.0094803      1024000 
  342000   0.67226861    -5.117621    -5.117621   -4.1092202 0.0032964539    -5.117621    1.0084009      1024000 
  343000   0.67295606   -5.1197787   -5.1197787   -4.1103467 0.0022093654   -5.1197787     1.009432      1024000 
  344000   0.67283259   -5.1202164   -5.1202164   -4.1109696 0.0054110094   -5.1202164    1.0092468      1024000 
  345000   0.67346483   -5.1220987   -5.1220987   -4.1119035 0.0052594529   -5.1220987    1.0101952      1024000 
  346000   0.67239422   -5.1221244   -5.1221244   -4.1135351    0.0113267   -5.1221244    1.0085893      1024000 
  347000   0.67307945   -5.1241047   -5.1241047   -4.1144876  0.011317986   -5.1241047    1.0096171      1024000 
  348000   0.67397378   -5.1264236   -5.1264236    -4.115465 0.0043176703   -5.1264236    1.0109586      1024000 
  349000   0.67388136   -5.1274838   -5.1274838   -4.1166638 0.0072125657   -5.1274838      1.01082      1024000 
  350000   0.67323674   -5.1272201   -5.1272201    -4.117367  0.012796753   -5.1272201    1.0098531      1024000 
  351000   0.67297746   -5.1285449   -5.1285449   -4.1190807  0.011726488   -5.1285449    1.0094641      1024000 
  352000   0.67222805   -5.1278925   -5.1278925   -4.1195525  0.011508254   -5.1278925      1.00834      1024000 
  353000   0.67219003   -5.1292796   -5.1292796   -4.1209966 0.0089710829   -5.1292796     1.008283      1024000 
  354000   0.67167448   -5.1288304   -5.1288304   -4.1213207 0.0083729114   -5.1288304    1.0075097      1024000 
  355000   0.67201255   -5.1291475   -5.1291475   -4.1211307   0.01043946   -5.1291475    1.0080168      1024000 
  356000   0.67172443   -5.1295597   -5.1295597   -4.1219751  0.011775294   -5.1295597    1.0075846      1024000 
  357000   0.67120422   -5.1299832   -5.1299832   -4.1231789 0.0095862112   -5.1299832    1.0068043      1024000 
  358000   0.67243913   -5.1321723   -5.1321723   -4.1235156 0.0011564905   -5.1321723    1.0086567      1024000 
  359000   0.67091948   -5.1308029   -5.1308029   -4.1244258 0.0036095102   -5.1308029    1.0063772      1024000 
  360000   0.67001657   -5.1299266   -5.1299266   -4.1249038 0.0043804736   -5.1299266    1.0050228      1024000 
  361000   0.66925907   -5.1297021   -5.1297021   -4.1258155 0.0063084696   -5.1297021    1.0038866      1024000 
  362000   0.67036076   -5.1315057   -5.1315057   -4.1259666 0.0022364841   -5.1315057    1.0055391      1024000 
  363000   0.67034799   -5.1319343   -5.1319343   -4.1264143 0.00089417864   -5.1319343    1.0055199      1024000 
  364000   0.66893318   -5.1311639   -5.1311639   -4.1277662 -0.00098954333   -5.1311639    1.0033977      1024000 
  365000   0.66957711   -5.1323125   -5.1323125   -4.1279488 -0.00075549519   -5.1323125    1.0043636      1024000 
  366000   0.66941016    -5.131722    -5.131722   -4.1276088 0.0027282882    -5.131722    1.0041132      1024000 
  367000   0.67016515   -5.1329548   -5.1329548   -4.1277091 -0.00093224416   -5.1329548    1.0052457      1024000 
  368000   0.67120509   -5.1352779   -5.1352779   -4.1284723 -0.0035286207   -5.1352779    1.0068056      1024000 
  369000   0.67040095   -5.1350892   -5.1350892   -4.1294899 0.0033678091   -5.1350892    1.0055994      1024000 
  370000   0.67037774   -5.1354508   -5.1354508   -4.1298863 0.0065358201   -5.1354508    1.0055646      1024000 
  371000   0.67011313   -5.1363782   -5.1363782   -4.1312106 0.0047836758   -5.1363782    1.0051677      1024000 
  372000   0.67039054   -5.1373462   -5.1373462   -4.1317624 0.0037120867   -5.1373462    1.0055838      1024000 
  373000   0.67053072    -5.137872    -5.137872   -4.1320779 0.0071347682    -5.137872     1.005794      1024000 
  374000   0.66974739   -5.1378705   -5.1378705   -4.1332515  0.010360807   -5.1378705     1.004619      1024000 
  375000   0.67010637   -5.1386934   -5.1386934   -4.1335359  0.010524016   -5.1386934    1.0051575      1024000 
  376000   0.67116395   -5.1404451   -5.1404451   -4.1337012 0.0077436073   -5.1404451    1.0067439      1024000 
  377000   0.67066715   -5.1404848   -5.1404848   -4.1344862  0.011431108   -5.1404848    1.0059987      1024000 
  378000    0.6704032    -5.140757    -5.140757   -4.1351542  0.010904708    -5.140757    1.0056028      1024000 
  379000   0.66985071   -5.1402063   -5.1402063   -4.1354322  0.015459172   -5.1402063     1.004774      1024000 
  380000   0.66995116   -5.1408135   -5.1408135   -4.1358888 0.0075162691   -5.1408135    1.0049247      1024000 
  381000   0.66973829   -5.1412037   -5.1412037   -4.1365983 0.0075240715   -5.1412037    1.0046054      1024000 
  382000   0.66877179   -5.1398914   -5.1398914   -4.1367357  0.010478462   -5.1398914    1.0031557      1024000 
  383000   0.66997582   -5.1420516   -5.1420516   -4.1370899 0.0052277566   -5.1420516    1.0049617      1024000 
  384000   0.66894654   -5.1412777   -5.1412777   -4.1378599 0.0045372847   -5.1412777    1.0034178      1024000 
  385000   0.66949184   -5.1420318   -5.1420318   -4.1377961 0.0045191831   -5.1420318    1.0042357      1024000 
  386000   0.66886211   -5.1424425   -5.1424425   -4.1391513 0.0048469116   -5.1424425    1.0032911      1024000 
  387000   0.66832222   -5.1417926   -5.1417926   -4.1393113  0.005493794   -5.1417926    1.0024813      1024000 
  388000   0.66745623   -5.1414652   -5.1414652   -4.1402829 0.0061062074   -5.1414652    1.0011823      1024000 
  389000   0.66829475   -5.1430795   -5.1430795   -4.1406394 0.0046034527   -5.1430795    1.0024401      1024000 
  390000   0.66791013   -5.1429781   -5.1429781   -4.1411149 0.0081363086   -5.1429781    1.0018632      1024000 
  391000   0.66929602   -5.1453871   -5.1453871   -4.1414451 0.0028723827   -5.1453871     1.003942      1024000 
  392000   0.66912082   -5.1456418   -5.1456418   -4.1419626 0.0031250958   -5.1456418    1.0036792      1024000 
  393000   0.66903124   -5.1458281   -5.1458281   -4.1422833 0.0027851742   -5.1458281    1.0035448      1024000 
  394000   0.66873477    -5.145971    -5.145971   -4.1428708 0.0063879547    -5.145971    1.0031001      1024000 
  395000   0.66902177   -5.1474841   -5.1474841   -4.1439535  0.006860147   -5.1474841    1.0035306      1024000 
  396000   0.66864413   -5.1475977   -5.1475977   -4.1446335 0.0091554304   -5.1475977    1.0029642      1024000 
  397000   0.66808266   -5.1475515   -5.1475515   -4.1454295  0.013167612   -5.1475515     1.002122      1024000 
  398000   0.66874055   -5.1487941   -5.1487941   -4.1456853  0.009751109   -5.1487941    1.0031088      1024000 
  399000   0.66845606   -5.1491958   -5.1491958   -4.1465137   0.01486691   -5.1491958    1.0026821      1024000 
  400000    0.6685754   -5.1499757   -5.1499757   -4.1471147  0.015633034   -5.1499757    1.0028611      1024000 
  401000   0.66979808   -5.1528436   -5.1528436   -4.1481485  0.010038558   -5.1528436    1.0046951      1024000 
  402000   0.66857722   -5.1510918   -5.1510918    -4.148228  0.013479627   -5.1510918    1.0028638      1024000 
  403000   0.66927663   -5.1524103   -5.1524103   -4.1484974    0.0097434   -5.1524103    1.0039129      1024000 
  404000   0.66900357   -5.1518306   -5.1518306   -4.1483272 0.0093157246   -5.1518306    1.0035033      1024000 
  405000   0.66864167   -5.1527709   -5.1527709   -4.1498104  0.012439108   -5.1527709    1.0029605      1024000 
  406000    0.6686628   -5.1538179   -5.1538179   -4.1508257  0.013080694   -5.1538179    1.0029922      1024000 
  407000   0.66804293   -5.1539491   -5.1539491   -4.1518867   0.01199498   -5.1539491    1.0020624      1024000 
  408000   0.66774012   -5.1541377   -5.1541377   -4.1525295  0.010198172   -5.1541377    1.0016081      1024000 
  409000   0.66712563   -5.1521854   -5.1521854   -4.1514989  0.010125285   -5.1521854    1.0006864      1024000 
  410000   0.66744014   -5.1532731   -5.1532731   -4.1521149 0.0080181784   -5.1532731    1.0011582      1024000 
  411000   0.66700704   -5.1530325   -5.1530325    -4.152524  0.010199371   -5.1530325    1.0005085      1024000 
  412000   0.66731465   -5.1541122   -5.1541122   -4.1531422 0.0046019788   -5.1541122    1.0009699      1024000 
  413000   0.66783543   -5.1559094   -5.1559094   -4.1541583 0.0027957837   -5.1559094    1.0017511      1024000 
  414000   0.66722695   -5.1545428   -5.1545428   -4.1537044 0.0059754405   -5.1545428    1.0008384      1024000 
  415000   0.66697863   -5.1550112   -5.1550112   -4.1545453 0.0025781395   -5.1550112    1.0004659      1024000 
  416000   0.66718444   -5.1552642   -5.1552642   -4.1544895 0.0076501744   -5.1552642    1.0007746      1024000 
  417000   0.66778823   -5.1569722   -5.1569722   -4.1552919 0.0053878137   -5.1569722    1.0016803      1024000 
  418000   0.66715449   -5.1557392   -5.1557392   -4.1550095 0.0066173545   -5.1557392    1.0007297      1024000 
  419000   0.66648485   -5.1550219   -5.1550219   -4.1552966 0.0081830144   -5.1550219   0.99972525      1024000 
  420000   0.66667624   -5.1558983   -5.1558983    -4.155886  0.010402953   -5.1558983    1.0000123      1024000 
  421000   0.66698647   -5.1574096   -5.1574096   -4.1569319  0.007052157   -5.1574096    1.0004777      1024000 
  422000   0.66677044   -5.1569317   -5.1569317   -4.1567781  0.011704915   -5.1569317    1.0001536      1024000 
  423000   0.66580627    -5.155858    -5.155858   -4.1571506  0.014775306    -5.155858   0.99870738      1024000 
  424000   0.66814912   -5.1589666   -5.1589666   -4.1567449   0.01284919   -5.1589666    1.0022216      1024000 
  425000   0.66715669   -5.1578971   -5.1578971   -4.1571641  0.016875599   -5.1578971     1.000733      1024000 
  426000   0.66691868   -5.1584801   -5.1584801   -4.1581041  0.014328206   -5.1584801     1.000376      1024000 
  427000   0.66633232   -5.1584615   -5.1584615    -4.158965   0.01251113   -5.1584615   0.99949646      1024000 
  428000   0.66602643   -5.1580306   -5.1580306   -4.1589929  0.016119377   -5.1580306   0.99903762      1024000 
  429000   0.66770321   -5.1609758   -5.1609758    -4.159423  0.010131066   -5.1609758    1.0015528      1024000 
  430000   0.66615644   -5.1589009   -5.1589009   -4.1596682  0.018019989   -5.1589009   0.99923264      1024000 
  431000   0.66616125   -5.1596873   -5.1596873   -4.1604474  0.013788135   -5.1596873   0.99923985      1024000 
  432000   0.66685068   -5.1611302   -5.1611302   -4.1608563 0.0091101304   -5.1611302     1.000274      1024000 
  433000   0.66444065   -5.1569625   -5.1569625   -4.1603036  0.014834648   -5.1569625   0.99665895      1024000 
  434000   0.66574687   -5.1591194   -5.1591194   -4.1605011 0.0092706345   -5.1591194   0.99861827      1024000 
  435000   0.66483744   -5.1588531   -5.1588531    -4.161599  0.012402402   -5.1588531   0.99725414      1024000 
  436000   0.66585715    -5.161577    -5.161577   -4.1627933 0.0036699772    -5.161577    0.9987837      1024000 
  437000   0.66526709   -5.1613743   -5.1613743   -4.1634757 0.0033707201   -5.1613743   0.99789862      1024000 
  438000    0.6637084   -5.1595345   -5.1595345    -4.163974 0.0089625938   -5.1595345   0.99556058      1024000 
  439000   0.66384082   -5.1595638   -5.1595638   -4.1638046  0.010018629   -5.1595638   0.99575921      1024000 
  440000     0.664306    -5.160266    -5.160266   -4.1638091 0.0065955531    -5.160266   0.99645698      1024000 
  441000   0.66534392   -5.1611913   -5.1611913   -4.1631774 0.0062890721   -5.1611913   0.99801385      1024000 
  442000   0.66563793    -5.162232    -5.162232   -4.1637772 0.0045600381    -5.162232   0.99845486      1024000 
  443000   0.66497589   -5.1612824   -5.1612824   -4.1638206  0.010271125   -5.1612824   0.99746181      1024000 
  444000   0.66557859   -5.1617821   -5.1617821   -4.1634163  0.011197098   -5.1617821   0.99836586      1024000 
  445000   0.66623453   -5.1631011   -5.1631011   -4.1637513 0.0082749696   -5.1631011   0.99934977      1024000 
  446000   0.66595776   -5.1631679   -5.1631679   -4.1642333  0.012364286   -5.1631679   0.99893461      1024000 
  447000   0.66574286   -5.1639221   -5.1639221   -4.1653099  0.014351411   -5.1639221   0.99861226      1024000 
  448000   0.66565645   -5.1639812   -5.1639812   -4.1654986  0.014617736   -5.1639812   0.99848264      1024000 
  449000    0.6652217   -5.1639351   -5.1639351   -4.1661046  0.011436403   -5.1639351   0.99783053      1024000 
  450000   0.66620004    -5.165587    -5.165587    -4.166289  0.010035175    -5.165587   0.99929803      1024000 
  451000   0.66442386   -5.1630432   -5.1630432   -4.1664094  0.016149127   -5.1630432   0.99663377      1024000 
  452000   0.66565347    -5.164987    -5.164987   -4.1665088  0.013767641    -5.164987   0.99847818      1024000 
  453000    0.6644344   -5.1639316   -5.1639316    -4.167282  0.014188049   -5.1639316   0.99664958      1024000 
  454000   0.66490442   -5.1651621   -5.1651621   -4.1678075  0.015064125   -5.1651621    0.9973546      1024000 
  455000   0.66400891   -5.1641996   -5.1641996   -4.1681883  0.012496606   -5.1641996   0.99601134      1024000 
  456000   0.66508912   -5.1655056   -5.1655056   -4.1678739  0.010654708   -5.1655056   0.99763165      1024000 
  457000   0.66403039   -5.1643499   -5.1643499   -4.1683063  0.010747285   -5.1643499   0.99604356      1024000 
  458000   0.66374712   -5.1640399   -5.1640399   -4.1684212 0.0077816823   -5.1640399   0.99561865      1024000 
  459000   0.66512251   -5.1659599   -5.1659599   -4.1682781 0.0061861799   -5.1659599   0.99768175      1024000 
  460000   0.66470549   -5.1651501   -5.1651501   -4.1680939 0.0089827641   -5.1651501   0.99705622      1024000 
  461000   0.66334545   -5.1629277   -5.1629277   -4.1679115  0.013370816   -5.1629277   0.99501615      1024000 
  462000   0.66299488   -5.1625968   -5.1625968   -4.1681065  0.011383744   -5.1625968    0.9944903      1024000 
  463000   0.66374256   -5.1644468   -5.1644468    -4.168835 0.0071362042   -5.1644468   0.99561183      1024000 
  464000   0.66479515   -5.1662085   -5.1662085   -4.1690178 0.0052674093   -5.1662085    0.9971907      1024000 
  465000   0.66420748     -5.16591     -5.16591   -4.1696008 0.0075514087     -5.16591   0.99630919      1024000 
  466000   0.66449917   -5.1662115   -5.1662115   -4.1694648 0.0052770322   -5.1662115   0.99674673      1024000 
  467000     0.663441   -5.1651262   -5.1651262   -4.1699667 0.0056505513   -5.1651262   0.99515948      1024000 
  468000   0.66409273   -5.1658202   -5.1658202   -4.1696831 0.0066598317   -5.1658202   0.99613708      1024000 
  469000   0.66442026   -5.1662057   -5.1662057   -4.1695774 0.0098628081   -5.1662057   0.99662837      1024000 
  470000   0.66467564   -5.1666364   -5.1666364    -4.169625  0.014140958   -5.1666364   0.99701144      1024000 
  471000   0.66488345   -5.1673643   -5.1673643   -4.1700411  0.014124386   -5.1673643   0.99732315      1024000 
  472000   0.66442659    -5.167567    -5.167567   -4.1709292  0.014155765    -5.167567   0.99663787      1024000 
  473000   0.66545333    -5.169047    -5.169047    -4.170869  0.010233946    -5.169047   0.99817797      1024000 
  474000   0.66546882   -5.1695915   -5.1695915   -4.1713902  0.013140631   -5.1695915   0.99820121      1024000 
  475000   0.66532048   -5.1695568   -5.1695568   -4.1715781  0.015689832   -5.1695568    0.9979787      1024000 
  476000   0.66345737   -5.1668588   -5.1668588   -4.1716747  0.020067206   -5.1668588   0.99518404      1024000 
  477000   0.66541549   -5.1699271   -5.1699271   -4.1718058  0.012092042   -5.1699271   0.99812121      1024000 
  478000   0.66534925   -5.1703025   -5.1703025   -4.1722806  0.010237988   -5.1703025   0.99802185      1024000 
  479000   0.66514445   -5.1697234   -5.1697234   -4.1720087  0.011646277   -5.1697234   0.99771465      1024000 
  480000   0.66458381   -5.1690894   -5.1690894   -4.1722157  0.013061658   -5.1690894    0.9968737      1024000 
  481000   0.66299438   -5.1666318   -5.1666318   -4.1721423  0.016500535   -5.1666318   0.99448955      1024000 
  482000   0.66335093   -5.1677603   -5.1677603    -4.172736 0.0095912322   -5.1677603   0.99502437      1024000 
  483000   0.66481116   -5.1695257   -5.1695257    -4.172311 0.0095504285   -5.1695257   0.99721472      1024000 
  484000    0.6638542   -5.1688442   -5.1688442   -4.1730649 0.0081414597   -5.1688442   0.99577927      1024000 
  485000   0.66492108   -5.1704822   -5.1704822   -4.1731026 0.0054008261   -5.1704822   0.99737959      1024000 
  486000   0.66245833     -5.16669     -5.16669   -4.1730045 0.0087398168     -5.16669   0.99368548      1024000 
  487000   0.66317751   -5.1675163   -5.1675163    -4.172752 0.0069164516   -5.1675163   0.99476425      1024000 
  488000    0.6632648   -5.1675306   -5.1675306   -4.1726354  0.010769268   -5.1675306   0.99489518      1024000 
  489000   0.66361505   -5.1685252   -5.1685252   -4.1731047  0.012128381   -5.1685252   0.99542056      1024000 
  490000   0.66338435   -5.1679199   -5.1679199   -4.1728454   0.01208063   -5.1679199   0.99507451      1024000 
  491000    0.6632122   -5.1674902   -5.1674902   -4.1726739  0.012214533   -5.1674902   0.99481629      1024000 
  492000   0.66311356   -5.1679952   -5.1679952   -4.1733269  0.014165173   -5.1679952   0.99466833      1024000 
  493000   0.66371146   -5.1682997   -5.1682997   -4.1727345  0.014116897   -5.1682997   0.99556517      1024000 
  494000   0.66388978   -5.1685383   -5.1685383   -4.1727056  0.010640841   -5.1685383   0.99583265      1024000 
  495000   0.66280188   -5.1668817   -5.1668817   -4.1726809  0.015852169   -5.1668817    0.9942008      1024000 
  496000   0.66321831   -5.1675454   -5.1675454     -4.17272  0.014250696   -5.1675454   0.99482544      1024000 
  497000   0.66323873    -5.167858    -5.167858   -4.1730019  0.014429019    -5.167858   0.99485608      1024000 
  498000   0.66477988   -5.1695495   -5.1695495   -4.1723817  0.013922509   -5.1695495    0.9971678      1024000 
  499000   0.66450637   -5.1690024   -5.1690024   -4.1722448  0.017709928   -5.1690024   0.99675754      1024000 
  500000    0.6649996   -5.1690685   -5.1690685   -4.1715711  0.011733451   -5.1690685   0.99749738      1024000 
  501000   0.66393222   -5.1673615   -5.1673615   -4.1714652  0.017917536   -5.1673615   0.99589631      1024000 
  502000   0.66345578   -5.1669271   -5.1669271   -4.1717455  0.013705747   -5.1669271   0.99518165      1024000 
  503000   0.66336389    -5.167768    -5.167768   -4.1727241  0.012372407    -5.167768   0.99504381      1024000 
  504000   0.66346783   -5.1673809   -5.1673809   -4.1721812  0.012554496   -5.1673809   0.99519972      1024000 
  505000   0.66312944   -5.1668195   -5.1668195   -4.1721273  0.013914908   -5.1668195   0.99469214      1024000 
  506000   0.66326022   -5.1667583   -5.1667583     -4.17187 0.0095205191   -5.1667583   0.99488832      1024000 
  507000   0.66288806   -5.1658906   -5.1658906   -4.1715605  0.010274243   -5.1658906   0.99433008      1024000 
  508000   0.66288735   -5.1654463   -5.1654463   -4.1711173  0.013704373   -5.1654463     0.994329      1024000 
  509000   0.66223889   -5.1648534   -5.1648534    -4.171497   0.01024361   -5.1648534   0.99335632      1024000 
  510000   0.66251592   -5.1653623   -5.1653623   -4.1715905 0.0066169085   -5.1653623   0.99377186      1024000 
  511000   0.66198434   -5.1640901   -5.1640901   -4.1711156 0.0088048578   -5.1640901   0.99297449      1024000 
  512000   0.66238488   -5.1642917   -5.1642917   -4.1707164  0.006241416   -5.1642917    0.9935753      1024000 
  513000   0.66153979   -5.1627016   -5.1627016   -4.1703939 0.0066380736   -5.1627016   0.99230767      1024000 
  514000   0.66170598   -5.1639424   -5.1639424   -4.1713854 0.0056714757   -5.1639424   0.99255696      1024000 
  515000   0.66155732   -5.1639807   -5.1639807   -4.1716467   0.01023382   -5.1639807   0.99233397      1024000 
  516000   0.66192954   -5.1644179   -5.1644179   -4.1715257 0.0089152975   -5.1644179   0.99289229      1024000 
  517000   0.66255197   -5.1652669   -5.1652669   -4.1714409  0.011613863   -5.1652669   0.99382594      1024000 
  518000   0.66184445   -5.1642854   -5.1642854   -4.1715207  0.012681037   -5.1642854   0.99276466      1024000 
  519000   0.66330215   -5.1657633   -5.1657633   -4.1708121   0.00842395   -5.1657633    0.9949512      1024000 
  520000   0.66242815   -5.1646699   -5.1646699   -4.1710297  0.015284458   -5.1646699   0.99364021      1024000 
  521000   0.66285183   -5.1649956   -5.1649956   -4.1707199   0.01631877   -5.1649956   0.99427573      1024000 
  522000   0.66298007   -5.1651904   -5.1651904   -4.1707223  0.019814584   -5.1651904   0.99446809      1024000 
  523000   0.66289481   -5.1651597   -5.1651597   -4.1708195  0.023537259   -5.1651597   0.99434019      1024000 
  524000   0.66301172   -5.1651138   -5.1651138   -4.1705983  0.017991161   -5.1651138   0.99451556      1024000 
  525000   0.66204073   -5.1640034   -5.1640034   -4.1709443  0.020525793   -5.1640034   0.99305908      1024000 
  526000   0.66302233   -5.1652415   -5.1652415     -4.17071  0.017043378   -5.1652415   0.99453147      1024000 
  527000   0.66240366   -5.1647107   -5.1647107   -4.1711072   0.01535724   -5.1647107   0.99360347      1024000 
  528000   0.66201655   -5.1639486   -5.1639486   -4.1709258  0.013845155   -5.1639486   0.99302281      1024000 
  529000   0.66189045   -5.1639259   -5.1639259   -4.1710923   0.01338855   -5.1639259   0.99283366      1024000 
  530000   0.66019103   -5.1609877   -5.1609877   -4.1707032  0.010305749   -5.1609877   0.99028454      1024000 
  531000   0.66252153    -5.163591    -5.163591   -4.1698107  0.001558694    -5.163591   0.99378028      1024000 
  532000    0.6604144   -5.1599956   -5.1599956   -4.1693761  0.010100358   -5.1599956   0.99061959      1024000 
  533000     0.662467   -5.1624436   -5.1624436   -4.1687451 0.0026594567   -5.1624436   0.99369849      1024000 
  534000   0.66130461   -5.1608519   -5.1608519    -4.168897  0.006636966   -5.1608519    0.9919549      1024000 
  535000   0.66176402   -5.1610141   -5.1610141   -4.1683701 0.0047549598   -5.1610141   0.99264401      1024000 
  536000   0.66215215   -5.1609521   -5.1609521   -4.1677259 0.0034345223   -5.1609521   0.99322621      1024000 
  537000   0.66022847    -5.158295    -5.158295   -4.1679543  0.011721351    -5.158295   0.99034069      1024000 
  538000   0.66246493   -5.1611915   -5.1611915   -4.1674962 0.0027766175   -5.1611915   0.99369539      1024000 
  539000   0.66189958   -5.1591613   -5.1591613    -4.166314 0.0087616904   -5.1591613   0.99284736      1024000 
  540000   0.66249289   -5.1595774   -5.1595774   -4.1658401 0.0052427834   -5.1595774   0.99373732      1024000 
  541000   0.66181782    -5.157877    -5.157877   -4.1651522 0.0095993204    -5.157877   0.99272471      1024000 
  542000   0.66282145     -5.15926     -5.15926   -4.1650299 0.0096563067     -5.15926   0.99423016      1024000 
  543000   0.66294772   -5.1589947   -5.1589947   -4.1645751  0.011401801   -5.1589947   0.99441956      1024000 
  544000   0.66327826   -5.1586267   -5.1586267   -4.1637113  0.011227309   -5.1586267   0.99491537      1024000 
  545000   0.66243486   -5.1569181   -5.1569181   -4.1632679  0.015864142   -5.1569181   0.99365028      1024000 
  546000   0.66269619   -5.1566924   -5.1566924   -4.1626501  0.012671537   -5.1566924   0.99404226      1024000 
  547000   0.66229457   -5.1557256   -5.1557256   -4.1622858  0.015620373   -5.1557256   0.99343983      1024000 
  548000   0.66204811   -5.1559804   -5.1559804   -4.1629103  0.013000441   -5.1559804   0.99307015      1024000 
  549000     0.662224   -5.1567764   -5.1567764   -4.1634424  0.010587915   -5.1567764   0.99333398      1024000 
  550000   0.66150489   -5.1556757   -5.1556757   -4.1634204  0.011126123   -5.1556757   0.99225532      1024000 
  551000   0.66218832   -5.1562814   -5.1562814   -4.1630009 0.0048122358   -5.1562814   0.99328047      1024000 
  552000   0.66197852   -5.1558338   -5.1558338    -4.162868 0.0078206558   -5.1558338   0.99296577      1024000 
  553000   0.66197988    -5.155223    -5.155223   -4.1622552  0.010956842    -5.155223   0.99296781      1024000 
  554000   0.66206433   -5.1543848   -5.1543848   -4.1612903 0.0077758974   -5.1543848   0.99309449      1024000 
  555000   0.66316041   -5.1564826   -5.1564826    -4.161744 0.0014445829   -5.1564826   0.99473859      1024000 
  556000     0.661688   -5.1536624   -5.1536624   -4.1611325 0.0076577987   -5.1536624   0.99252998      1024000 
  557000   0.66231012   -5.1546212   -5.1546212    -4.161158 0.0024402666   -5.1546212   0.99346316      1024000 
  558000    0.6623131   -5.1539632   -5.1539632   -4.1604955 0.0043149769   -5.1539632   0.99346764      1024000 
  559000   0.66151408   -5.1522168   -5.1522168   -4.1599477 0.0034953889   -5.1522168    0.9922691      1024000 
  560000   0.66152331   -5.1521769   -5.1521769   -4.1598939 0.0064992167   -5.1521769   0.99228295      1024000 
  561000   0.66224932   -5.1529772   -5.1529772   -4.1596052 0.0042068061   -5.1529772   0.99337196      1024000 
  562000   0.66197375   -5.1522485   -5.1522485   -4.1592899 0.0086801696   -5.1522485    0.9929586      1024000 
  563000   0.66243787   -5.1524964   -5.1524964   -4.1588416 0.0075751342   -5.1524964   0.99365478      1024000 
  564000   0.66287404   -5.1524287   -5.1524287   -4.1581196  0.005589442   -5.1524287   0.99430905      1024000 
  565000   0.66259267   -5.1514859   -5.1514859   -4.1575989 0.0079648079   -5.1514859   0.99388699      1024000 
  566000    0.6615716   -5.1496845   -5.1496845   -4.1573291  0.013681339   -5.1496845   0.99235538      1024000 
  567000   0.66210067   -5.1508073   -5.1508073   -4.1576583  0.012876377   -5.1508073   0.99314899      1024000 
  568000   0.66254138   -5.1504029   -5.1504029   -4.1565929  0.012432654   -5.1504029   0.99381005      1024000 
  569000   0.66271418   -5.1497825   -5.1497825   -4.1557133  0.012450251   -5.1497825   0.99406925      1024000 
  570000   0.66213954   -5.1488457   -5.1488457   -4.1556384  0.014419464   -5.1488457   0.99320729      1024000 
  571000   0.66201931   -5.1483755   -5.1483755   -4.1553485  0.014516766   -5.1483755   0.99302696      1024000 
  572000    0.6623762    -5.149276    -5.149276   -4.1557137  0.011590388    -5.149276   0.99356229      1024000 
  573000   0.66234421   -5.1486613   -5.1486613    -4.155147  0.013843228   -5.1486613   0.99351429      1024000 
  574000   0.66285264   -5.1490708   -5.1490708   -4.1547938 0.0078368444   -5.1490708   0.99427694      1024000 
  575000   0.66191797    -5.147388    -5.147388    -4.154513  0.010035192    -5.147388   0.99287493      1024000 
  576000   0.66281232   -5.1484383   -5.1484383   -4.1542219 0.0055300416   -5.1484383   0.99421647      1024000 
  577000   0.66209675   -5.1465159   -5.1465159   -4.1533728 0.0082224027   -5.1465159   0.99314311      1024000 
  578000   0.66262042   -5.1473539   -5.1473539   -4.1534253 0.0091234009   -5.1473539   0.99392862      1024000 
  579000   0.66133329   -5.1449259   -5.1449259    -4.152928  0.011627965   -5.1449259   0.99199792      1024000 
  580000   0.66187389   -5.1456775   -5.1456775   -4.1528686 0.0073498271   -5.1456775   0.99280883      1024000 
  581000   0.66233138   -5.1458974   -5.1458974   -4.1524023  0.004823748   -5.1458974   0.99349506      1024000 
  582000   0.66237695   -5.1451789   -5.1451789   -4.1516155 0.0044222041   -5.1451789   0.99356341      1024000 
  583000   0.66258579   -5.1444545   -5.1444545   -4.1505779 0.0069905356   -5.1444545   0.99387666      1024000 
  584000   0.66222549   -5.1439728   -5.1439728   -4.1506366 0.0093064627   -5.1439728   0.99333621      1024000 
  585000   0.66311736    -5.145428    -5.145428    -4.150754 0.0022459779    -5.145428   0.99467402      1024000 
  586000   0.66145759   -5.1427101   -5.1427101   -4.1505257   0.00592642   -5.1427101   0.99218438      1024000 
  587000   0.66151307   -5.1426831   -5.1426831   -4.1504155   0.01052519   -5.1426831   0.99226758      1024000 
  588000   0.66187837   -5.1425491   -5.1425491   -4.1497335 0.0052280316   -5.1425491   0.99281554      1024000 
  589000   0.66254708   -5.1428236   -5.1428236    -4.149005 0.0063634977   -5.1428236    0.9938186      1024000 
  590000   0.66163297   -5.1412903   -5.1412903   -4.1488428  0.008270929   -5.1412903   0.99244745      1024000 
  591000    0.6623886   -5.1425601   -5.1425601   -4.1489792  0.010042057   -5.1425601   0.99358088      1024000 
  592000   0.66190731   -5.1406956   -5.1406956   -4.1478366  0.010370975   -5.1406956   0.99285895      1024000 
  593000   0.66222174   -5.1406583   -5.1406583   -4.1473277   0.01440463   -5.1406583   0.99333059      1024000 
  594000   0.66251697   -5.1412675   -5.1412675    -4.147494 0.0051318877   -5.1412675   0.99377344      1024000 
  595000   0.66286015   -5.1405879   -5.1405879   -4.1462997  0.011950954   -5.1405879   0.99428821      1024000 
  596000     0.663334   -5.1404804   -5.1404804   -4.1454814 0.0082096165   -5.1404804   0.99499898      1024000 
  597000   0.66242345   -5.1389199   -5.1389199   -4.1452868  0.010780092   -5.1389199   0.99363316      1024000 
  598000   0.66080865   -5.1364882   -5.1364882   -4.1452772  0.011601693   -5.1364882   0.99121096      1024000 
  599000   0.66195494   -5.1378544   -5.1378544    -4.144924  0.012828046   -5.1378544   0.99293039      1024000 
  600000   0.66180615     -5.13733     -5.13733   -4.1446227  0.013085653     -5.13733   0.99270721      1024000 
  601000   0.66266223   -5.1378171   -5.1378171   -4.1438258  0.013620369   -5.1378171   0.99399133      1024000 
  602000   0.66194048   -5.1366528   -5.1366528   -4.1437441   0.01276774   -5.1366528   0.99290871      1024000 
  603000   0.66202636   -5.1353668   -5.1353668   -4.1423293  0.012563949   -5.1353668   0.99303753      1024000 
  604000   0.66196973   -5.1356142   -5.1356142   -4.1426616 0.0078827212   -5.1356142   0.99295258      1024000 
  605000    0.6616872   -5.1343049   -5.1343049   -4.1417761  0.010888663   -5.1343049   0.99252878      1024000 
  606000   0.66217363   -5.1348615   -5.1348615   -4.1416031 0.0036408736   -5.1348615   0.99325843      1024000 
  607000   0.66222929   -5.1337783   -5.1337783   -4.1404363  0.005675155   -5.1337783   0.99334192      1024000 
  608000   0.66172079   -5.1324831   -5.1324831   -4.1399039 0.0074960697   -5.1324831   0.99257918      1024000 
  609000   0.66201526   -5.1317295   -5.1317295   -4.1387086  0.010515213   -5.1317295   0.99302087      1024000 
  610000   0.66216304   -5.1310852   -5.1310852   -4.1378426 0.0086703637   -5.1310852   0.99324255      1024000 
  611000   0.66228189   -5.1307216   -5.1307216   -4.1373008   0.01079697   -5.1307216   0.99342082      1024000 
  612000   0.66246953   -5.1299674   -5.1299674   -4.1362652   0.01160322   -5.1299674   0.99370228      1024000 
  613000   0.66362393   -5.1313772   -5.1313772   -4.1359433 0.0042496833   -5.1313772   0.99543388      1024000 
  614000   0.66210101   -5.1273489   -5.1273489   -4.1341994 0.0091093866   -5.1273489    0.9931495      1024000 
  615000   0.66131654   -5.1251422   -5.1251422   -4.1331694  0.011046751   -5.1251422    0.9919728      1024000 
  616000   0.66315011   -5.1270662   -5.1270662   -4.1323431 0.0056381218   -5.1270662   0.99472314      1024000 
  617000   0.66072048   -5.1230809   -5.1230809   -4.1320022  0.010767435   -5.1230809   0.99107871      1024000 
  618000   0.66176723   -5.1240489   -5.1240489   -4.1314001 0.0091047907   -5.1240489   0.99264884      1024000 
  619000   0.66114626   -5.1226385   -5.1226385   -4.1309212 0.0085082388   -5.1226385   0.99171737      1024000 
  620000   0.66122757   -5.1229621   -5.1229621   -4.1311227 0.0072851992   -5.1229621   0.99183934      1024000 
  621000   0.66127424   -5.1221176   -5.1221176   -4.1302082 0.0050565998   -5.1221176   0.99190935      1024000 
  622000   0.66184016   -5.1220402   -5.1220402    -4.129282 0.00031472465   -5.1220402   0.99275822      1024000 
  623000   0.66095864   -5.1193423   -5.1193423   -4.1279064 0.0049238617   -5.1193423   0.99143595      1024000 
  624000   0.66162357   -5.1191258   -5.1191258   -4.1266925  0.003614664   -5.1191258   0.99243333      1024000 
  625000   0.66057682    -5.116485    -5.116485   -4.1256218  0.010643377    -5.116485   0.99086322      1024000 
  626000   0.66241533   -5.1182688   -5.1182688   -4.1246478 0.0074412076   -5.1182688   0.99362098      1024000 
  627000   0.66213466   -5.1172558   -5.1172558   -4.1240558  0.010138545   -5.1172558   0.99319998      1024000 
  628000   0.66266926   -5.1167804   -5.1167804   -4.1227785   0.01201975   -5.1167804   0.99400187      1024000 
  629000   0.66385737   -5.1178692   -5.1178692   -4.1220851 0.0080065986   -5.1178692   0.99578404      1024000 
  630000   0.66383532   -5.1170751   -5.1170751   -4.1213241 0.0095295768   -5.1170751   0.99575096      1024000 
  631000    0.6628745    -5.115003    -5.115003   -4.1206932 0.0074998589    -5.115003   0.99430973      1024000 
  632000   0.66326047   -5.1147272   -5.1147272   -4.1198385 0.0074401282   -5.1147272   0.99488868      1024000 
  633000    0.6620065   -5.1131155   -5.1131155   -4.1201078 0.0073577856   -5.1131155   0.99300774      1024000 
  634000   0.66183998   -5.1112855   -5.1112855   -4.1185275 0.0091083047   -5.1112855   0.99275796      1024000 
  635000   0.66324317   -5.1123131   -5.1123131   -4.1174504  0.005825153   -5.1123131   0.99486274      1024000 
  636000    0.6635425   -5.1123358   -5.1123358    -4.117024 0.0080464155   -5.1123358   0.99531174      1024000 
  637000   0.66287098   -5.1105004   -5.1105004   -4.1161959  0.010191946   -5.1105004   0.99430445      1024000 
  638000   0.66308439   -5.1099611   -5.1099611   -4.1153366 0.0073898502   -5.1099611   0.99462456      1024000 
  639000   0.66199308    -5.108788    -5.108788   -4.1158004 0.0093294195    -5.108788    0.9929876      1024000 
  640000   0.66223808   -5.1078583   -5.1078583   -4.1145032 0.0042436328   -5.1078583    0.9933551      1024000 
  641000   0.66141505   -5.1059625   -5.1059625   -4.1138419 0.0059601821   -5.1059625   0.99212056      1024000 
  642000   0.66197707   -5.1054194   -5.1054194   -4.1124558 0.0058343046   -5.1054194    0.9929636      1024000 
  643000   0.66185283   -5.1042233   -5.1042233   -4.1114461 0.0034813367   -5.1042233   0.99277724      1024000 
  644000   0.66235287   -5.1033731   -5.1033731   -4.1098458 0.0041161524   -5.1033731   0.99352729      1024000 
  645000   0.66141789   -5.1006592   -5.1006592   -4.1085343  0.014846811   -5.1006592   0.99212483      1024000 
  646000   0.66232457   -5.1019316   -5.1019316   -4.1084467 0.0084742228   -5.1019316   0.99348483      1024000 
  647000   0.66237533   -5.1001305   -5.1001305   -4.1065695  0.011410805   -5.1001305   0.99356098      1024000 
  648000   0.66268874     -5.09958     -5.09958   -4.1055489 0.0062298901     -5.09958   0.99403109      1024000 
  649000   0.66186123   -5.0979529   -5.0979529   -4.1051631 0.0097780772   -5.0979529   0.99278983      1024000 
  650000   0.66242501   -5.0975873   -5.0975873   -4.1039518 0.0053325009   -5.0975873   0.99363551      1024000 
  651000   0.66294364   -5.0978046   -5.0978046   -4.1033912 0.0078471719   -5.0978046   0.99441344      1024000 
  652000   0.66155055   -5.0939241   -5.0939241   -4.1016003  0.012625085   -5.0939241   0.99232381      1024000 
  653000   0.66339405   -5.0958982   -5.0958982   -4.1008092 0.0036576127   -5.0958982   0.99508905      1024000 
  654000   0.66348334   -5.0951223   -5.0951223   -4.0998993 0.0034869343   -5.0951223   0.99522299      1024000 
  655000   0.66348155   -5.0941149   -5.0941149   -4.0988946 0.0056895117   -5.0941149    0.9952203      1024000 
  656000   0.66212368   -5.0921039   -5.0921039   -4.0989204 0.0076243912   -5.0921039    0.9931835      1024000 
  657000   0.66162496   -5.0906571   -5.0906571   -4.0982216 0.0053773824   -5.0906571   0.99243542      1024000 
  658000   0.66180745   -5.0892193   -5.0892193   -4.0965102 0.0090740412   -5.0892193   0.99270916      1024000 
  659000   0.66208507   -5.0890121   -5.0890121   -4.0958865 0.0055793004   -5.0890121   0.99312559      1024000 
  660000   0.66159179     -5.08831     -5.08831   -4.0959243 0.0085918598     -5.08831   0.99238568      1024000 
  661000   0.66172586   -5.0879143   -5.0879143   -4.0953275 0.0040961416   -5.0879143   0.99258678      1024000 
  662000   0.66215363   -5.0867527   -5.0867527   -4.0935243 0.0084346121   -5.0867527   0.99322842      1024000 
  663000   0.66332714   -5.0872865   -5.0872865   -4.0922978 0.0070924933   -5.0872865   0.99498869      1024000 
  664000   0.66256152   -5.0852551   -5.0852551   -4.0914148 0.0083314259   -5.0852551   0.99384027      1024000 
  665000   0.66358335   -5.0857011   -5.0857011   -4.0903281 0.0063618177   -5.0857011     0.995373      1024000 
  666000   0.66362265   -5.0845266   -5.0845266   -4.0890947 0.0039498266   -5.0845266   0.99543195      1024000 
  667000   0.66370159   -5.0832141   -5.0832141   -4.0876637 0.0087072971   -5.0832141   0.99555036      1024000 
  668000   0.66338097   -5.0824139   -5.0824139   -4.0873445 0.0098714953   -5.0824139   0.99506944      1024000 
  669000   0.66422344   -5.0821525   -5.0821525   -4.0858194  0.004245433   -5.0821525   0.99633314      1024000 
  670000   0.66272983    -5.079437    -5.079437   -4.0853442 0.0068808003    -5.079437   0.99409273      1024000 
  671000   0.66360516   -5.0801444   -5.0801444   -4.0847387 0.0046305262   -5.0801444   0.99540571      1024000 
  672000   0.66298688   -5.0780274   -5.0780274   -4.0835491  0.010764887   -5.0780274    0.9944783      1024000 
  673000   0.66303761   -5.0769031   -5.0769031   -4.0823487  0.010270625   -5.0769031    0.9945544      1024000 
  674000   0.66406668   -5.0776605   -5.0776605   -4.0815625 0.0038000404   -5.0776605     0.996098      1024000 
  675000   0.66301622    -5.075196    -5.075196   -4.0806737 0.0088970274    -5.075196   0.99452231      1024000 
  676000   0.66305539   -5.0743893   -5.0743893   -4.0798082 0.0063909945   -5.0743893   0.99458107      1024000 
  677000   0.66274397   -5.0735928   -5.0735928   -4.0794788   0.00486355   -5.0735928   0.99411394      1024000 
  678000   0.66231906   -5.0728342   -5.0728342   -4.0793577 0.0046592736   -5.0728342   0.99347658      1024000 
  679000   0.66163351   -5.0700963   -5.0700963   -4.0776481 0.0078313272   -5.0700963   0.99244824      1024000 
  680000   0.66291939   -5.0706523   -5.0706523   -4.0762752 0.0058306014   -5.0706523   0.99437707      1024000 
  681000   0.66228106   -5.0691827   -5.0691827   -4.0757631 0.0037602242   -5.0691827   0.99341958      1024000 
  682000   0.66232559   -5.0681508   -5.0681508   -4.0746645 0.0012262362   -5.0681508   0.99348638      1024000 
  683000   0.66292051   -5.0678052   -5.0678052   -4.0734265 0.0070952195   -5.0678052   0.99437874      1024000 
  684000   0.66269494   -5.0668468   -5.0668468   -4.0728064 0.0066335315   -5.0668468   0.99404039      1024000 
  685000   0.66323039   -5.0667991   -5.0667991   -4.0719555 0.0045481427   -5.0667991   0.99484356      1024000 
  686000   0.66364154   -5.0663525   -5.0663525   -4.0708923 0.0013790722   -5.0663525    0.9954603      1024000 
  687000    0.6637723   -5.0646012   -5.0646012   -4.0689448 0.0060918871   -5.0646012   0.99565644      1024000 
  688000   0.66264825   -5.0619091   -5.0619091   -4.0679388 0.0092333797   -5.0619091   0.99397036      1024000 
  689000    0.6637735   -5.0624348   -5.0624348   -4.0667765 0.0069450304   -5.0624348   0.99565823      1024000 
  690000    0.6637049    -5.061318    -5.061318   -4.0657626 0.0080019007    -5.061318   0.99555534      1024000 
  691000    0.6630795   -5.0595687   -5.0595687   -4.0649514 0.0096500505   -5.0595687   0.99461723      1024000 
  692000   0.66324156   -5.0592983   -5.0592983    -4.064438 0.0062007302   -5.0592983   0.99486032      1024000 
  693000   0.66322869   -5.0579302   -5.0579302   -4.0630892 0.0075948653   -5.0579302   0.99484102      1024000 
  694000   0.66375993   -5.0579576   -5.0579576   -4.0623198 0.0056541163   -5.0579576   0.99563788      1024000 
  695000   0.66328589   -5.0568212   -5.0568212   -4.0618944 0.0099905653   -5.0568212   0.99492681      1024000 
  696000   0.66347915   -5.0560403   -5.0560403   -4.0608236 0.0085641865   -5.0560403   0.99521671      1024000 
  697000   0.66257692   -5.0534871   -5.0534871   -4.0596237 0.0075081748   -5.0534871   0.99386336      1024000 
  698000   0.66330066   -5.0532002   -5.0532002   -4.0582512 0.0070038142   -5.0532002   0.99494898      1024000 
  699000   0.66350831   -5.0528514   -5.0528514    -4.057591 0.0033404727   -5.0528514   0.99526044      1024000 
  700000   0.66329485   -5.0513956   -5.0513956   -4.0564553 0.0084170825   -5.0513956   0.99494026      1024000 
  701000   0.66338825   -5.0497415   -5.0497415   -4.0546612 0.0087521813   -5.0497415   0.99508036      1024000 
  702000   0.66359886   -5.0490482   -5.0490482   -4.0536519 0.0090822554   -5.0490482   0.99539628      1024000 
  703000   0.66421287     -5.04936     -5.04936   -4.0530427  0.010405281     -5.04936   0.99631729      1024000 
  704000   0.66367144   -5.0469283   -5.0469283   -4.0514231   0.01281473   -5.0469283   0.99550514      1024000 
  705000   0.66410363    -5.046222    -5.046222   -4.0500686 0.0088729228    -5.046222   0.99615342      1024000 
  706000   0.66404367   -5.0450885   -5.0450885    -4.049025  0.010849764   -5.0450885   0.99606349      1024000 
  707000   0.66464435   -5.0446929   -5.0446929   -4.0477284 0.0099600599   -5.0446929   0.99696451      1024000 
  708000   0.66338717   -5.0419174   -5.0419174   -4.0468387  0.014689858   -5.0419174   0.99507873      1024000 
  709000   0.66436238   -5.0421903   -5.0421903   -4.0456488  0.013064827   -5.0421903   0.99654154      1024000 
  710000   0.66419754   -5.0402087   -5.0402087   -4.0439144  0.012091143   -5.0402087   0.99629429      1024000 
  711000   0.66435073   -5.0388332   -5.0388332   -4.0423092  0.015503808   -5.0388332   0.99652408      1024000 
  712000    0.6640942   -5.0382391   -5.0382391   -4.0420998 0.0095450281   -5.0382391   0.99613928      1024000 
  713000   0.66382696   -5.0360041   -5.0360041   -4.0402657 0.0094795382   -5.0360041   0.99573841      1024000 
  714000   0.66340727   -5.0342736   -5.0342736   -4.0391647  0.010292407   -5.0342736   0.99510888      1024000 
  715000   0.66324561   -5.0329503   -5.0329503   -4.0380839  0.010659381   -5.0329503    0.9948664      1024000 
  716000   0.66376037   -5.0328018   -5.0328018   -4.0371633 0.0026780409   -5.0328018   0.99563854      1024000 
  717000    0.6643174   -5.0317896   -5.0317896   -4.0353155 0.0039235007   -5.0317896   0.99647408      1024000 
  718000   0.66296586   -5.0280052   -5.0280052   -4.0335584 0.0058635634   -5.0280052   0.99444677      1024000 
  719000    0.6639484   -5.0270473   -5.0270473   -4.0311267 0.0075705022   -5.0270473   0.99592058      1024000 
  720000   0.66425938   -5.0263988   -5.0263988   -4.0300117 0.0039025669   -5.0263988   0.99638704      1024000 
  721000   0.66390667   -5.0244764   -5.0244764   -4.0286184 0.0072872787   -5.0244764   0.99585799      1024000 
  722000   0.66399811   -5.0236375   -5.0236375   -4.0276423 0.0050237635   -5.0236375   0.99599515      1024000 
  723000    0.6636789   -5.0225085   -5.0225085   -4.0269921 0.0030155272   -5.0225085   0.99551634      1024000 
  724000    0.6636825    -5.020178    -5.020178   -4.0246563  0.001933423    -5.020178   0.99552173      1024000 
  725000   0.66386604   -5.0189605   -5.0189605   -4.0231634 0.0011830123   -5.0189605   0.99579704      1024000 
  726000   0.66327947   -5.0168247   -5.0168247   -4.0219075 0.0063182417   -5.0168247   0.99491718      1024000 
  727000   0.66403118   -5.0163668   -5.0163668   -4.0203221 0.0063237841   -5.0163668   0.99604474      1024000 
  728000   0.66332059   -5.0141369   -5.0141369    -4.019158 0.0047236811   -5.0141369   0.99497887      1024000 
  729000    0.6655824    -5.015745    -5.015745   -4.0173734 0.0056615808    -5.015745   0.99837157      1024000 
  730000   0.66526063   -5.0130244   -5.0130244   -4.0151355  0.013402158   -5.0130244   0.99788893      1024000 
  731000   0.66489964   -5.0119176   -5.0119176   -4.0145701  0.011887113   -5.0119176   0.99734744      1024000 
  732000    0.6643393   -5.0090208   -5.0090208   -4.0125139  0.015627597   -5.0090208   0.99650693      1024000 
  733000   0.66492518   -5.0082131   -5.0082131   -4.0108273  0.012712582   -5.0082131   0.99738575      1024000 
  734000    0.6657539   -5.0077375   -5.0077375   -4.0091087  0.010698064   -5.0077375   0.99862883      1024000 
  735000   0.66562996   -5.0061169   -5.0061169    -4.007674  0.011626746   -5.0061169   0.99844291      1024000 
  736000   0.66501476   -5.0041543   -5.0041543   -4.0066342  0.010660657   -5.0041543   0.99752011      1024000 
  737000   0.66475015   -5.0033006   -5.0033006   -4.0061774 0.0080663875   -5.0033006    0.9971232      1024000 
  738000   0.66411109   -5.0005223   -5.0005223   -4.0043577  0.010167724   -5.0005223   0.99616462      1024000 
  739000   0.66474391   -4.9994322   -4.9994322   -4.0023184     0.010618   -4.9994322   0.99711385      1024000 
  740000   0.66512468   -4.9981612   -4.9981612   -4.0004762 0.0073962056   -4.9981612   0.99768499      1024000 
  741000   0.66498975    -4.996954    -4.996954   -3.9994714  0.009463538    -4.996954   0.99748259      1024000 
  742000    0.6657155    -4.996605    -4.996605   -3.9980337 0.0082514628    -4.996605   0.99857123      1024000 
  743000   0.66496991   -4.9937789   -4.9937789    -3.996326 0.0082663257   -4.9937789   0.99745284      1024000 
  744000   0.66504168   -4.9932012   -4.9932012   -3.9956407 0.0076227186   -4.9932012   0.99756049      1024000 
  745000   0.66500844   -4.9911847   -4.9911847   -3.9936741 0.0097648724   -4.9911847   0.99751064      1024000 
  746000   0.66538395   -4.9898569   -4.9898569    -3.991783 0.0083985682   -4.9898569   0.99807391      1024000 
  747000   0.66535287   -4.9891162   -4.9891162   -3.9910889 0.0023791579   -4.9891162   0.99802728      1024000 
  748000   0.66525776   -4.9877041   -4.9877041   -3.9898195  0.001351044   -4.9877041   0.99788462      1024000 
  749000   0.66572508   -4.9873034   -4.9873034   -3.9887178 -0.0050335373   -4.9873034    0.9985856      1024000 
  750000   0.66384609   -4.9834529   -4.9834529   -3.9876858 0.00010133484   -4.9834529   0.99576712      1024000 
  751000   0.66373488   -4.9817513   -4.9817513    -3.986151 0.0035201567   -4.9817513    0.9956003      1024000 
  752000   0.66482676   -4.9822317   -4.9822317   -3.9849936 0.0011031029   -4.9822317   0.99723812      1024000 
  753000   0.66550895   -4.9815229   -4.9815229   -3.9832615 4.7813959e-05   -4.9815229    0.9982614      1024000 
  754000   0.66562616   -4.9809505   -4.9809505   -3.9825133 0.0018606384   -4.9809505   0.99843721      1024000 
  755000   0.66515702   -4.9786139   -4.9786139   -3.9808804 0.0068977619   -4.9786139   0.99773351      1024000 
  756000   0.66640253    -4.979453    -4.979453   -3.9798512 0.0034079138    -4.979453   0.99960176      1024000 
  757000   0.66627723   -4.9781279   -4.9781279   -3.9787141 0.0065347783   -4.9781279   0.99941382      1024000 
  758000   0.66672641    -4.976807    -4.976807   -3.9767194 0.0095052829    -4.976807    1.0000876      1024000 
  759000   0.66731808   -4.9766935   -4.9766935   -3.9757184 0.0064204484   -4.9766935    1.0009751      1024000 
  760000   0.66680248   -4.9745133   -4.9745133   -3.9743116  0.011913549   -4.9745133    1.0002017      1024000 
  761000   0.66743254   -4.9746912   -4.9746912   -3.9735444 0.0063633255   -4.9746912    1.0011468      1024000 
  762000   0.66704667   -4.9724792   -4.9724792   -3.9719113  0.011420403   -4.9724792     1.000568      1024000 
  763000    0.6679647   -4.9730883   -4.9730883   -3.9711433 0.0085278168   -4.9730883     1.001945      1024000 
  764000   0.66774032   -4.9722229   -4.9722229   -3.9706144   0.01116135   -4.9722229    1.0016084      1024000 
  765000   0.66798208   -4.9722321   -4.9722321    -3.970261 0.0064491705   -4.9722321    1.0019711      1024000 
  766000   0.66705863   -4.9692696   -4.9692696   -3.9686837 0.0070466914   -4.9692696    1.0005859      1024000 
  767000    0.6676247     -4.96848     -4.96848    -3.967045 0.0081006272     -4.96848     1.001435      1024000 
  768000   0.66688816   -4.9663336   -4.9663336   -3.9660034  0.011311902   -4.9663336    1.0003302      1024000 
  769000   0.66724256    -4.966276    -4.966276   -3.9654142 0.0078023908    -4.966276    1.0008618      1024000 
  770000   0.66703916   -4.9658078   -4.9658078   -3.9652511 0.0035687495   -4.9658078    1.0005567      1024000 
  771000     0.665492   -4.9627447   -4.9627447   -3.9645087 0.0083583009   -4.9627447   0.99823598      1024000 
  772000   0.66604667   -4.9618717   -4.9618717   -3.9628037 0.0094753331   -4.9618717   0.99906798      1024000 
  773000    0.6663087   -4.9614663   -4.9614663   -3.9620053 0.0079110376   -4.9614663   0.99946103      1024000 
  774000   0.66777701   -4.9624653   -4.9624653   -3.9608018 0.0034414406   -4.9624653    1.0016635      1024000 
  775000   0.66744203   -4.9606783   -4.9606783   -3.9595173  0.010385585   -4.9606783     1.001161      1024000 
  776000   0.66856763   -4.9606497   -4.9606497   -3.9578003 0.0081330198   -4.9606497    1.0028494      1024000 
  777000   0.66805885   -4.9585757   -4.9585757   -3.9564894  0.010271044   -4.9585757    1.0020862      1024000 
  778000   0.66820892   -4.9582777   -4.9582777   -3.9559663 0.0060050816   -4.9582777    1.0023113      1024000 
  779000   0.66829125   -4.9573855   -4.9573855   -3.9549507 0.0050829775   -4.9573855    1.0024348      1024000 
  780000   0.66814324   -4.9570698   -4.9570698    -3.954857 0.0013188512   -4.9570698    1.0022128      1024000 
  781000   0.66800165   -4.9557648   -4.9557648   -3.9537644 0.0028839237   -4.9557648    1.0020004      1024000 
  782000   0.66823297   -4.9557134   -4.9557134    -3.953366 0.0037361635   -4.9557134    1.0023474      1024000 
  783000   0.66803187   -4.9549577   -4.9549577   -3.9529119 0.0049283566   -4.9549577    1.0020458      1024000 
  784000   0.66781462   -4.9538217   -4.9538217   -3.9521018 0.0042469732   -4.9538217    1.0017199      1024000 
  785000   0.66812145   -4.9530066   -4.9530066   -3.9508264 0.0029015835   -4.9530066    1.0021801      1024000 
  786000   0.66820002   -4.9530142   -4.9530142   -3.9507162 0.0023223939   -4.9530142     1.002298      1024000 
  787000   0.66838925   -4.9526098   -4.9526098   -3.9500279 -0.00071937275   -4.9526098    1.0025818      1024000 
  788000   0.66810812   -4.9515513   -4.9515513   -3.9493912 0.0060423346   -4.9515513    1.0021602      1024000 
  789000   0.66902789   -4.9521179   -4.9521179   -3.9485781 0.0049055924   -4.9521179    1.0035398      1024000 
  790000   0.66888468   -4.9510026   -4.9510026   -3.9476776 0.0038629991   -4.9510026     1.003325      1024000 
  791000   0.66844196     -4.95023     -4.95023   -3.9475691 0.0033949287     -4.95023    1.0026609      1024000 
  792000   0.66944483   -4.9507182   -4.9507182    -3.946553 0.0018382927   -4.9507182    1.0041652      1024000 
  793000   0.66842102   -4.9490057   -4.9490057   -3.9463762 0.0031290708   -4.9490057    1.0026295      1024000 
  794000   0.66946265   -4.9494937   -4.9494937   -3.9453018 0.0040183375   -4.9494937    1.0041919      1024000 
  795000   0.66956216   -4.9494391   -4.9494391   -3.9450979 0.0028921325   -4.9494391    1.0043412      1024000 
  796000   0.66919578   -4.9487143   -4.9487143   -3.9449227 0.0092453212   -4.9487143    1.0037916      1024000 
  797000   0.66837064   -4.9476152   -4.9476152   -3.9450613 0.0062561916   -4.9476152    1.0025539      1024000 
  798000   0.66886176   -4.9481865   -4.9481865   -3.9448959 0.0058102945   -4.9481865    1.0032906      1024000 
  799000   0.66916134   -4.9480481   -4.9480481   -3.9443081  0.011258765   -4.9480481      1.00374      1024000 
  800000   0.67017639   -4.9491795   -4.9491795   -3.9439169 0.0063373259   -4.9491795    1.0052625      1024000 
  801000   0.67037947   -4.9485866   -4.9485866   -3.9430194 0.0024553848   -4.9485866    1.0055672      1024000 
  802000   0.66983071   -4.9475916   -4.9475916   -3.9428476 0.0068920486   -4.9475916     1.004744      1024000 
  803000   0.66920191   -4.9468912   -4.9468912   -3.9430904 0.0063797231   -4.9468912    1.0038008      1024000 
  804000   0.67028391   -4.9477294   -4.9477294   -3.9423055 0.0018402148   -4.9477294    1.0054238      1024000 
  805000   0.66955844   -4.9456408   -4.9456408   -3.9413052  0.009728639   -4.9456408    1.0043356      1024000 
  806000   0.67003471    -4.947365    -4.947365    -3.942315 0.0035639967    -4.947365      1.00505      1024000 
  807000   0.66925399   -4.9460086   -4.9460086   -3.9421296 0.0039999833   -4.9460086    1.0038789      1024000 
  808000   0.66976249   -4.9470088   -4.9470088   -3.9423671 0.0054189273   -4.9470088    1.0046417      1024000 
  809000    0.6699128   -4.9457958   -4.9457958   -3.9409286 0.0054718364   -4.9457958    1.0048672      1024000 
  810000   0.67087301   -4.9459969   -4.9459969   -3.9396894 0.0078950907   -4.9459969    1.0063075      1024000 
  811000   0.67090733   -4.9458502   -4.9458502   -3.9394912 0.0058230596   -4.9458502    1.0063589      1024000 
  812000   0.67081281   -4.9450867   -4.9450867   -3.9388695 0.0075585138   -4.9450867    1.0062172      1024000 
  813000    0.6700997   -4.9438484   -4.9438484   -3.9387009 0.0082306713   -4.9438484    1.0051475      1024000 
  814000   0.67059547   -4.9447428   -4.9447428   -3.9388516 0.0020581675   -4.9447428    1.0058912      1024000 
  815000   0.67146626   -4.9455457   -4.9455457   -3.9383483  0.003897198   -4.9455457    1.0071973      1024000 
  816000   0.67154016   -4.9453741   -4.9453741   -3.9380659 0.0061326109   -4.9453741    1.0073082      1024000 
  817000   0.67124858   -4.9439376   -4.9439376   -3.9370667 0.0066444941   -4.9439376    1.0068708      1024000 
  818000   0.67194011   -4.9437248   -4.9437248   -3.9358167  0.005524184   -4.9437248    1.0079081      1024000 
  819000   0.67134619    -4.942632    -4.942632   -3.9356148  0.010811462    -4.942632    1.0070172      1024000 
  820000   0.67271913   -4.9436854   -4.9436854   -3.9346087 0.0085520915   -4.9436854    1.0090767      1024000 
  821000   0.67261969   -4.9424201   -4.9424201   -3.9334926 0.0070766836   -4.9424201    1.0089275      1024000 
  822000    0.6720318    -4.941536    -4.941536   -3.9334903 0.0082274727    -4.941536    1.0080456      1024000 
  823000   0.67052066   -4.9400033   -4.9400033   -3.9342243  0.010011523   -4.9400033    1.0057789      1024000 
  824000   0.67156556   -4.9414271   -4.9414271   -3.9340808 0.0074968208   -4.9414271    1.0073463      1024000 
  825000    0.6711953   -4.9407176   -4.9407176   -3.9339267 0.0036225513   -4.9407176    1.0067909      1024000 
  826000   0.67208064   -4.9414141   -4.9414141   -3.9332952 0.0018097038   -4.9414141    1.0081189      1024000 
  827000    0.6720045   -4.9404979   -4.9404979   -3.9324932 0.0036946549   -4.9404979    1.0080047      1024000 
  828000   0.67083747   -4.9380678   -4.9380678   -3.9318136 0.0041736538   -4.9380678    1.0062542      1024000 
  829000    0.6701335   -4.9376888   -4.9376888   -3.9324906 0.0014110967   -4.9376888    1.0051982      1024000 
  830000   0.67145055   -4.9391671   -4.9391671   -3.9319933 -0.000977682   -4.9391671    1.0071738      1024000 
  831000   0.67114221   -4.9377771   -4.9377771   -3.9310658 0.0060653654   -4.9377771    1.0067113      1024000 
  832000    0.6721021   -4.9379612   -4.9379612   -3.9298101 0.0044982776   -4.9379612    1.0081511      1024000 
  833000   0.67200191   -4.9369785   -4.9369785   -3.9289777  0.002188888   -4.9369785    1.0080008      1024000 
  834000   0.67192726   -4.9372612   -4.9372612   -3.9293724  0.003985877   -4.9372612    1.0078888      1024000 
  835000   0.67281937   -4.9380704   -4.9380704   -3.9288433 0.0044551042   -4.9380704     1.009227      1024000 
  836000    0.6723516   -4.9359161   -4.9359161   -3.9273908  0.011852993   -4.9359161    1.0085254      1024000 
  837000   0.67360969   -4.9377354   -4.9377354   -3.9273229 0.0053189924   -4.9377354    1.0104125      1024000 
  838000   0.67213137   -4.9359861   -4.9359861   -3.9277911 0.0057290794   -4.9359861     1.008195      1024000 
  839000    0.6721687    -4.936145    -4.936145    -3.927894 0.0047229507    -4.936145     1.008251      1024000 
  840000   0.67219366   -4.9352323   -4.9352323   -3.9269439 0.0085425609   -4.9352323    1.0082884      1024000 
  841000    0.6726699   -4.9371399   -4.9371399   -3.9281371 0.0050599323   -4.9371399    1.0090028      1024000 
  842000   0.67260047   -4.9370104   -4.9370104   -3.9281118 0.0058737181   -4.9370104    1.0088987      1024000 
  843000   0.67296737   -4.9379284   -4.9379284   -3.9284794 0.0014858326   -4.9379284     1.009449      1024000 
  844000   0.67237974   -4.9364307   -4.9364307   -3.9278631 0.0051369384   -4.9364307    1.0085676      1024000 
  845000   0.67337348   -4.9371266   -4.9371266   -3.9270684 0.0021443026   -4.9371266    1.0100582      1024000 
  846000   0.67284827   -4.9364017   -4.9364017   -3.9271313 0.0094987051   -4.9364017    1.0092704      1024000 
  847000    0.6727798   -4.9358183   -4.9358183   -3.9266507 0.0065979916   -4.9358183    1.0091676      1024000 
  848000   0.67314613   -4.9359754   -4.9359754   -3.9262583  0.007466897   -4.9359754    1.0097171      1024000 
  849000   0.67191969    -4.933785    -4.933785   -3.9259075  0.010209803    -4.933785    1.0078775      1024000 
  850000   0.67428434   -4.9368476   -4.9368476   -3.9254231 0.0064707214   -4.9368476    1.0114245      1024000 
  851000   0.67392242   -4.9359272   -4.9359272   -3.9250456 0.0062608669   -4.9359272    1.0108816      1024000 
  852000    0.6743592   -4.9360801   -4.9360801   -3.9245433 0.0081031314   -4.9360801    1.0115367      1024000 
  853000   0.67410273    -4.935422    -4.935422   -3.9242699  0.011234368    -4.935422     1.011152      1024000 
  854000    0.6738451   -4.9354347   -4.9354347   -3.9246691 0.0093561123   -4.9354347    1.0107656      1024000 
  855000   0.67407033   -4.9351402   -4.9351402   -3.9240368 0.0072378962   -4.9351402    1.0111034      1024000 
  856000    0.6733672   -4.9330626   -4.9330626   -3.9230139  0.010228071   -4.9330626    1.0100488      1024000 
  857000   0.67430495   -4.9340136   -4.9340136   -3.9225582  0.010274918   -4.9340136    1.0114554      1024000 
  858000   0.67383316   -4.9332863   -4.9332863   -3.9225386 0.0075840967   -4.9332863    1.0107477      1024000 
  859000   0.67329374   -4.9322988   -4.9322988   -3.9223602 0.0069229104   -4.9322988    1.0099386      1024000 
  860000   0.67348993   -4.9331241   -4.9331241   -3.9228912 0.0043526638   -4.9331241    1.0102329      1024000 
  861000   0.67309775    -4.932734    -4.932734   -3.9230894 0.0039097094    -4.932734    1.0096446      1024000 
  862000   0.67403714   -4.9326411   -4.9326411   -3.9215874  0.001532772   -4.9326411    1.0110537      1024000 
  863000   0.67440329    -4.933296    -4.933296   -3.9216931 0.0003292624    -4.933296    1.0116029      1024000 
  864000    0.6734276    -4.930975    -4.930975   -3.9208357 0.0051300137    -4.930975    1.0101393      1024000 
  865000   0.67426613   -4.9328781   -4.9328781    -3.921481 0.00058879302   -4.9328781    1.0113971      1024000 
  866000   0.67423299   -4.9328182   -4.9328182   -3.9214708 -0.0032489517   -4.9328182    1.0113474      1024000 
  867000   0.67312392   -4.9306519   -4.9306519   -3.9209681 -5.2376425e-05   -4.9306519    1.0096838      1024000 
  868000   0.67332414   -4.9315467   -4.9315467   -3.9215625 0.00042499594   -4.9315467    1.0099842      1024000 
  869000   0.67338531   -4.9306948   -4.9306948   -3.9206188 0.0011959037   -4.9306948    1.0100759      1024000 
  870000   0.67366035    -4.931291    -4.931291   -3.9208025 0.0010525939    -4.931291    1.0104885      1024000 
  871000    0.6734267   -4.9306391   -4.9306391   -3.9205011 0.0049027944   -4.9306391     1.010138      1024000 
  872000    0.6734223   -4.9304035   -4.9304035   -3.9202721 0.0067481663   -4.9304035    1.0101314      1024000 
  873000   0.67359012   -4.9298577   -4.9298577   -3.9194746 0.0087174914   -4.9298577    1.0103831      1024000 
  874000   0.67472672   -4.9306201   -4.9306201   -3.9185321 0.0033600486   -4.9306201     1.012088      1024000 
  875000   0.67477656   -4.9299979   -4.9299979   -3.9178351 0.0074514668   -4.9299979    1.0121628      1024000 
  876000   0.67449525   -4.9302147   -4.9302147   -3.9184739 0.0057914183   -4.9302147    1.0117408      1024000 
  877000   0.67476231   -4.9306104   -4.9306104   -3.9184689 0.0081349134   -4.9306104    1.0121414      1024000 
  878000   0.67497824   -4.9297157   -4.9297157   -3.9172504 0.0085722632   -4.9297157    1.0124653      1024000 
  879000   0.67614436   -4.9311586   -4.9311586   -3.9169441 0.0074563366   -4.9311586    1.0142145      1024000 
  880000    0.6761722   -4.9311163   -4.9311163   -3.9168601 0.0075174683   -4.9311163    1.0142562      1024000 
  881000   0.67622946   -4.9310789   -4.9310789   -3.9167368 0.0074020173   -4.9310789    1.0143421      1024000 
  882000   0.67431694   -4.9287104   -4.9287104    -3.917237  0.012772037   -4.9287104    1.0114734      1024000 
  883000   0.67620124   -4.9304039   -4.9304039   -3.9161041 0.0051035688   -4.9304039    1.0142998      1024000 
  884000   0.67575772   -4.9293475   -4.9293475    -3.915713  0.010362227   -4.9293475    1.0136345      1024000 
  885000    0.6755081   -4.9288197   -4.9288197   -3.9155596 0.0081356768   -4.9288197    1.0132601      1024000 
  886000   0.67590966   -4.9287866   -4.9287866   -3.9149241 0.0058106172   -4.9287866    1.0138624      1024000 
  887000   0.67573806   -4.9280265   -4.9280265   -3.9144215 0.0039281434   -4.9280265     1.013605      1024000 
  888000   0.67605354   -4.9284184   -4.9284184   -3.9143402 0.0076343536   -4.9284184    1.0140783      1024000 
  889000   0.67584361    -4.927088    -4.927088   -3.9133246  0.010231133    -4.927088    1.0137634      1024000 
  890000   0.67621807   -4.9273884   -4.9273884   -3.9130634 0.0054687425   -4.9273884     1.014325      1024000 
  891000   0.67628184   -4.9268634   -4.9268634   -3.9124427 0.0085079628   -4.9268634    1.0144207      1024000 
  892000   0.67663774   -4.9267299   -4.9267299   -3.9117753  0.003181477   -4.9267299    1.0149545      1024000 
  893000   0.67590519   -4.9259155   -4.9259155   -3.9120598 0.0057021248   -4.9259155    1.0138557      1024000 
  894000   0.67521384   -4.9235957   -4.9235957    -3.910777 0.0044162372   -4.9235957    1.0128187      1024000 
  895000   0.67569407   -4.9243493   -4.9243493   -3.9108103 0.0027647073   -4.9243493     1.013539      1024000 
  896000    0.6757857   -4.9237188   -4.9237188   -3.9100423 -0.00024787694   -4.9237188    1.0136765      1024000 
  897000   0.67539845   -4.9229153   -4.9229153   -3.9098197 0.00081140044   -4.9229153    1.0130956      1024000 
  898000   0.67565589   -4.9225047   -4.9225047   -3.9090229 0.0019638084   -4.9225047    1.0134818      1024000 
  899000   0.67518018   -4.9210343   -4.9210343   -3.9082661 0.0045591201   -4.9210343    1.0127682      1024000 
  900000   0.67631941   -4.9227121   -4.9227121   -3.9082351 -0.0032776817   -4.9227121     1.014477      1024000 
  901000   0.67577036   -4.9208318   -4.9208318   -3.9071783 -0.00048316124   -4.9208318    1.0136535      1024000 
  902000     0.676979   -4.9224141   -4.9224141   -3.9069477 -0.0021495911   -4.9224141    1.0154664      1024000 
  903000   0.67699641   -4.9220817   -4.9220817   -3.9065892 0.00062304913   -4.9220817    1.0154926      1024000 
  904000   0.67670203   -4.9212622   -4.9212622   -3.9062112 -0.00049591138   -4.9212622     1.015051      1024000 
  905000   0.67640222   -4.9200905   -4.9200905   -3.9054893 0.0044135921   -4.9200905    1.0146013      1024000 
  906000   0.67664189   -4.9196032   -4.9196032   -3.9046424 0.0063034389   -4.9196032    1.0149608      1024000 
  907000   0.67778403   -4.9208761   -4.9208761   -3.9042021 0.0051733243   -4.9208761     1.016674      1024000 
  908000   0.67709415   -4.9201217   -4.9201217   -3.9044825 0.0043890756   -4.9201217    1.0156392      1024000 
  909000   0.67748874   -4.9206006   -4.9206006   -3.9043696 0.0047914395   -4.9206006     1.016231      1024000 
  910000   0.67675908   -4.9193814   -4.9193814   -3.9042448 0.0047906502   -4.9193814    1.0151366      1024000 
  911000   0.67732215     -4.91959     -4.91959   -3.9036089 0.0094379337     -4.91959    1.0159812      1024000 
  912000   0.67797766    -4.920265    -4.920265   -3.9033006 0.0085740725    -4.920265    1.0169644      1024000 
  913000   0.67756175   -4.9196509   -4.9196509   -3.9033103  0.009939086   -4.9196509    1.0163406      1024000 
  914000   0.67761779   -4.9198601   -4.9198601   -3.9034354  0.010209781   -4.9198601    1.0164246      1024000 
  915000   0.67716456   -4.9185739   -4.9185739   -3.9028291 0.0093470663   -4.9185739    1.0157448      1024000 
  916000   0.67834929   -4.9206207   -4.9206207   -3.9030988 -0.00077647809   -4.9206207    1.0175219      1024000 
  917000   0.67820797   -4.9204143   -4.9204143   -3.9031044 0.0037461558   -4.9204143    1.0173099      1024000 
  918000   0.67762994   -4.9183892   -4.9183892   -3.9019463 0.0049949913   -4.9183892    1.0164429      1024000 
  919000    0.6781072   -4.9183871   -4.9183871   -3.9012283 0.0073477431   -4.9183871    1.0171587      1024000 
  920000   0.67839428   -4.9175433   -4.9175433    -3.899954 0.0065520809   -4.9175433    1.0175894      1024000 
  921000    0.6774976   -4.9165864   -4.9165864   -3.9003421 0.0087883511   -4.9165864    1.0162443      1024000 
  922000   0.67808017   -4.9177049   -4.9177049   -3.9005868 0.0049613723   -4.9177049    1.0171182      1024000 
  923000   0.67919182   -4.9186297   -4.9186297    -3.899844 0.0058379043   -4.9186297    1.0187857      1024000 
  924000   0.67943092   -4.9183473   -4.9183473    -3.899203 0.0047925896   -4.9183473    1.0191443      1024000 
  925000     0.679342   -4.9178069   -4.9178069   -3.8987959 0.0088830762   -4.9178069    1.0190109      1024000 
  926000   0.67883815   -4.9165261   -4.9165261   -3.8982709 0.0041362607   -4.9165261    1.0182552      1024000 
  927000   0.67895612   -4.9153541   -4.9153541    -3.896922 0.0053303455   -4.9153541    1.0184321      1024000 
  928000   0.67870433   -4.9142412   -4.9142412   -3.8961867 0.0052174929   -4.9142412    1.0180544      1024000 
  929000   0.67870171   -4.9138686   -4.9138686   -3.8958181 0.0068642657   -4.9138686    1.0180505      1024000 
  930000   0.67894911   -4.9142602   -4.9142602   -3.8958386 0.0037505407   -4.9142602    1.0184216      1024000 
  931000   0.67930408   -4.9148458   -4.9148458   -3.8958918 0.0025961711   -4.9148458     1.018954      1024000 
  932000   0.67938548   -4.9144959   -4.9144959   -3.8954198 0.0045843107   -4.9144959    1.0190761      1024000 
  933000   0.67968701    -4.914614    -4.914614   -3.8950855 0.0075063235    -4.914614    1.0195285      1024000 
  934000   0.67979688   -4.9129965   -4.9129965   -3.8933032 0.0060368316   -4.9129965    1.0196932      1024000 
  935000   0.67973576     -4.91249     -4.91249   -3.8928885 0.0066725233     -4.91249    1.0196016      1024000 
  936000   0.67909258   -4.9109709   -4.9109709   -3.8923341 0.0085114555   -4.9109709    1.0186368      1024000 
  937000   0.67958786   -4.9111996   -4.9111996   -3.8918199   0.00537836   -4.9111996    1.0193797      1024000 
  938000   0.67941996   -4.9103353   -4.9103353   -3.8912075 0.0051346564   -4.9103353    1.0191279      1024000 
  939000   0.67885952   -4.9095726   -4.9095726   -3.8912854 0.0066967726   -4.9095726    1.0182872      1024000 
  940000   0.67978855   -4.9105767   -4.9105767   -3.8908959 0.0036461787   -4.9105767    1.0196808      1024000 
  941000   0.67996508    -4.910068    -4.910068   -3.8901224 6.2890897e-05    -4.910068    1.0199456      1024000 
  942000   0.68095174   -4.9108341   -4.9108341   -3.8894086 -0.00098646227   -4.9108341    1.0214255      1024000 
  943000   0.67973435   -4.9095945   -4.9095945    -3.889995 0.0013285421   -4.9095945    1.0195995      1024000 
  944000   0.67948024   -4.9085881   -4.9085881   -3.8893698 0.0045392379   -4.9085881    1.0192183      1024000 
  945000   0.67936697   -4.9082217   -4.9082217   -3.8891733 0.0037419681   -4.9082217    1.0190484      1024000 
  946000   0.68028202   -4.9091586   -4.9091586   -3.8887376 0.0014836127   -4.9091586     1.020421      1024000 
  947000   0.67935889   -4.9076645   -4.9076645   -3.8886282  0.001635553   -4.9076645    1.0190363      1024000 
  948000   0.68097456    -4.909108    -4.909108   -3.8876483 -0.0042555444    -4.909108    1.0214598      1024000 
  949000   0.68012525   -4.9074603   -4.9074603   -3.8872745 0.0035777854   -4.9074603    1.0201858      1024000 
  950000    0.6809356   -4.9081871   -4.9081871   -3.8867858 0.0040485564   -4.9081871    1.0214013      1024000 
  951000    0.6815853   -4.9091246   -4.9091246   -3.8867487 0.0025149249   -4.9091246    1.0223759      1024000 
  952000    0.6814039   -4.9089912   -4.9089912   -3.8868874 0.0043028826   -4.9089912    1.0221038      1024000 
  953000   0.68122808   -4.9084881   -4.9084881    -3.886648  0.004422682   -4.9084881    1.0218401      1024000 
  954000   0.68083966   -4.9078781   -4.9078781   -3.8866207 0.0087090524   -4.9078781    1.0212574      1024000 
  955000   0.68192163   -4.9089683   -4.9089683    -3.886088  0.006602808   -4.9089683    1.0228804      1024000 
  956000   0.68144122   -4.9083026   -4.9083026   -3.8861428 0.0049526336   -4.9083026    1.0221598      1024000 
  957000    0.6810871   -4.9071334   -4.9071334   -3.8855048 0.0082397335   -4.9071334    1.0216286      1024000 
  958000   0.68148078   -4.9072004   -4.9072004   -3.8849813 0.0045422689   -4.9072004    1.0222191      1024000 
  959000   0.68223748   -4.9089363   -4.9089363   -3.8855822 0.0041946043   -4.9089363    1.0233541      1024000 
  960000   0.68221053   -4.9079654   -4.9079654   -3.8846517  0.010113893   -4.9079654    1.0233137      1024000 
  961000   0.68185898   -4.9074833   -4.9074833   -3.8846969 0.0068609989   -4.9074833    1.0227864      1024000 
  962000   0.68228138   -4.9074404   -4.9074404   -3.8840204  0.011449471   -4.9074404      1.02342      1024000 
  963000   0.68328893   -4.9077318   -4.9077318   -3.8828005 0.0065457841   -4.9077318    1.0249313      1024000 
  964000   0.68229319    -4.905539    -4.905539   -3.8821013 0.0078774983    -4.905539    1.0234377      1024000 
  965000   0.68260534   -4.9058834   -4.9058834   -3.8819774  0.010358795   -4.9058834    1.0239059      1024000 
  966000   0.68236615   -4.9045376   -4.9045376   -3.8809904 0.0059375995   -4.9045376    1.0235472      1024000 
  967000   0.68193133   -4.9040666   -4.9040666   -3.8811716 0.0064832028   -4.9040666    1.0228949      1024000 
  968000   0.68287562   -4.9048998   -4.9048998   -3.8805884 0.0047418193   -4.9048998    1.0243114      1024000 
  969000    0.6821379   -4.9040629   -4.9040629   -3.8808581 0.0059018109   -4.9040629    1.0232048      1024000 
  970000   0.68252095   -4.9036983   -4.9036983    -3.879919 0.0010485559   -4.9036983    1.0237793      1024000 
  971000   0.68248582   -4.9037567   -4.9037567     -3.88003 0.0047014655   -4.9037567    1.0237267      1024000 
  972000   0.68116663   -4.9015797   -4.9015797   -3.8798318 0.0042167231   -4.9015797    1.0217479      1024000 
  973000   0.68257596   -4.9022835   -4.9022835   -3.8784216 0.0052915756   -4.9022835    1.0238619      1024000 
  974000   0.68256019   -4.9019123   -4.9019123   -3.8780741 0.0026563951   -4.9019123    1.0238382      1024000 
  975000   0.68255491   -4.9022234   -4.9022234   -3.8783931 8.4389579e-05   -4.9022234    1.0238303      1024000 
  976000   0.68202202   -4.9005719   -4.9005719   -3.8775409 -0.0001828786   -4.9005719     1.023031      1024000 
  977000   0.68237032   -4.9001077   -4.9001077   -3.8765543 0.0020722804   -4.9001077    1.0235534      1024000 
  978000   0.68306677   -4.9009609   -4.9009609   -3.8763629 -0.0012599701   -4.9009609    1.0245981      1024000 
  979000   0.68153665   -4.8977943   -4.8977943   -3.8754914 0.0019356514   -4.8977943    1.0223029      1024000 
  980000   0.68251654   -4.8994408   -4.8994408   -3.8756681 0.0002007193   -4.8994408    1.0237727      1024000 
  981000   0.68319011   -4.9000017   -4.9000017   -3.8752186 0.0003830348   -4.9000017    1.0247831      1024000 
  982000    0.6828744   -4.8995066   -4.8995066   -3.8751971 0.0053364109   -4.8995066    1.0243095      1024000 
  983000   0.68254916   -4.8992505   -4.8992505   -3.8754288 0.0024243287   -4.8992505    1.0238217      1024000 
  984000    0.6828983   -4.8987835   -4.8987835   -3.8744381 0.0022805007   -4.8987835    1.0243454      1024000 
  985000   0.68246636   -4.8977204   -4.8977204   -3.8740229 0.0056976617   -4.8977204    1.0236975      1024000 
  986000   0.68222332   -4.8982473   -4.8982473   -3.8749144  0.007030869   -4.8982473    1.0233329      1024000 
  987000    0.6833114   -4.8998651   -4.8998651   -3.8749001 0.0049041802   -4.8998651     1.024965      1024000 
  988000   0.68328943   -4.8993114   -4.8993114   -3.8743794 0.0027011135   -4.8993114    1.0249321      1024000 
  989000   0.68273901   -4.8985406   -4.8985406   -3.8744342 0.0040938438   -4.8985406    1.0241064      1024000 
  990000   0.68387388   -4.9001827   -4.9001827    -3.874374 -7.0927971e-05   -4.9001827    1.0258087      1024000 
  991000   0.68280024   -4.8981854   -4.8981854   -3.8739871 0.0030810911   -4.8981854    1.0241983      1024000 
  992000   0.68297038   -4.8969953   -4.8969953   -3.8725418 0.0085948639   -4.8969953    1.0244535      1024000 
  993000   0.68424922   -4.8982809   -4.8982809   -3.8719092 0.0054350087   -4.8982809    1.0263718      1024000 
  994000   0.68428845   -4.8976044   -4.8976044   -3.8711738 0.0069768317   -4.8976044    1.0264306      1024000 
  995000   0.68517291   -4.8978057   -4.8978057   -3.8700484   0.01322206   -4.8978057    1.0277573      1024000 
  996000   0.68540843   -4.8978482   -4.8978482   -3.8697377  0.011926356   -4.8978482    1.0281106      1024000 
  997000   0.68509421   -4.8965074   -4.8965074   -3.8688682  0.014643202   -4.8965074    1.0276392      1024000 
  998000   0.68530782   -4.8967344   -4.8967344   -3.8687748   0.01235086   -4.8967344    1.0279596      1024000 
  999000   0.68542636   -4.8965856   -4.8965856   -3.8684482 0.0084476282   -4.8965856    1.0281375      1024000 
 1000000   0.68497119   -4.8959487   -4.8959487    -3.868494 0.0073255392   -4.8959487    1.0274547      1024000 
Loop time of 8345.9 on 32 procs for 1000000 steps with 492800 atoms

Performance: 25880.974 tau/day, 119.819 timesteps/s
99.7% CPU use with 32 MPI tasks x 1 OpenMP threads

MPI task timing breakdown:
Section |  min time  |  avg time  |  max time  |%varavg|  %CPU | %total
-----------------------------------------------------------------------
Pair    | 4153.5     | 5257.3     | 5836.1     | 602.4 |  99.7 | 62.99
Bond    | 0.63018    | 0.64895    | 0.6727     |   1.3 | 100.0 |  0.01
Neigh   | 981.64     | 1198.6     | 1296.8     | 237.4 |  99.8 | 14.36
Comm    | 494.25     | 1204.6     | 2390.6     |1425.1 |  99.5 | 14.43
Output  | 22.111     | 22.289     | 22.297     |   0.7 |  98.2 |  0.27
Modify  | 155.9      | 280.02     | 711.24     |1244.1 |  99.3 |  3.36
Other   |            | 382.4      |            |       |       |  4.58

Nlocal:        15400.0 ave       15901 max       15084 min
Histogram: 4 7 5 8 0 0 1 0 3 4
Nghost:        13257.6 ave       14683 max        9512 min
Histogram: 8 0 0 0 0 0 0 0 0 24
Neighs:        599578.0 ave      627086 max      538051 min
Histogram: 2 2 0 0 0 3 1 13 7 4

Total # of neighbors = 19186494
Ave neighs/atom = 38.933632
Ave special neighs/atom = 0.0000000
Neighbor list builds = 56533
Dangerous builds = 65
Total wall time: 2:19:06
