LAMMPS (29 Oct 2020)
  using 1 OpenMP thread(s) per MPI task
# Simple rigid body system

variable       	r equal 4

units		lj
atom_style	full
dimension 	3
boundary	p p f
pair_style	lj/cut/opt 2.5


variable 	sigma		equal 1.0
variable 	epsilon 	equal 1.0


region		box block 0 160 0 160 0 160
create_box 	3 box
Created orthogonal box = (0.0000000 0.0000000 0.0000000) to (160.00000 160.00000 160.00000)
  4 by 8 by 8 MPI processor grid
lattice 	sc 1.0
Lattice spacing in x,y,z = 1.0000000 1.0000000 1.0000000

create_atoms 	1 region box
Created 4096000 atoms
  create_atoms CPU = 0.215 seconds

mass		1 1.0
mass		2 1.0
mass		3 1.0


group		solvent type 1
4096000 atoms in group solvent


velocity 	solvent create 1.0 563435 loop geom

read_data	data.vac add append
Reading data file ...
  orthogonal box = (0.0000000 0.0000000 0.0000000) to (160.00000 160.00000 320.00000)
  4 by 4 by 16 MPI processor grid
Finding 1-2 1-3 1-4 neighbors ...
  special bond factors lj:    0.0      0.0      0.0     
  special bond factors coul:  0.0      0.0      0.0     
     0 = max # of 1-2 neighbors
     0 = max # of 1-3 neighbors
     0 = max # of 1-4 neighbors
     1 = max # of special neighbors
  special bonds CPU = 39.241 seconds
  read_data CPU = 39.262 seconds

neighbor 	0.4 bin

pair_coeff	1 1 1.0 1.0
pair_coeff	2 2 0.0 0.0
pair_coeff	3 3 0.0 0.0
pair_coeff	2 3 0.0 0.0
pair_coeff	1 2*3 0.0 0.0

pair_modify 	shift yes


balance 	1.05 shift z 10 1.05
Balancing ...
Neighbor list info ...
  update every 1 steps, delay 10 steps, check yes
  max neighbors/atom: 2000, page size: 100000
  master list distance cutoff = 2.9
  ghost atom cutoff = 2.9
  binsize = 1.45, bins = 111 111 221
  1 neighbor lists, perpetual/occasional/extra = 1 0 0
  (1) pair lj/cut/opt, perpetual
      attributes: half, newton on
      pair build: half/bin/newton
      stencil: half/bin/3d/newton
      bin: standard
 rebalancing time: 0.041 seconds
  iteration count = 5
  initial/final maximal load/proc = 32000.000 22400.000
  initial/final imbalance factor  = 2.0000000 1.4000000
  x cuts: 0.0000000 0.25 0.5 0.75 1.0000000
  y cuts: 0.0000000 0.25 0.5 0.75 1.0000000
  z cuts: 0.0000000 0.03125 0.064453125 0.09375 0.12890625 0.15429688 0.19335938 0.21875 0.2578125 0.27929688 0.32226562 0.34765625 0.38671875 0.41601562 0.45117188 0.46875 1.0000000


####################### WALLS ###########################


region	       low block  EDGE EDGE EDGE EDGE 0 1

region 	       top block  EDGE EDGE EDGE EDGE 159 160

delete_atoms   region low
WARNING: Ignoring 'compress yes' for molecular system (src/delete_atoms.cpp:125)
Deleted 51200 atoms, new total = 4044800


variable       epsilonWall equal 2*${epsilon}
variable       epsilonWall equal 2*1

variable       cutoffTop   equal   0.7147*${sigma}
variable       cutoffTop   equal   0.7147*1

variable       cutoffLow   equal   3*${sigma}
variable       cutoffLow   equal   3*1


fix            topWall all wall/lj93 zhi EDGE                ${epsilonWall} ${sigma} ${cutoffTop} units box
fix            topWall all wall/lj93 zhi EDGE                2 ${sigma} ${cutoffTop} units box
fix            topWall all wall/lj93 zhi EDGE                2 1 ${cutoffTop} units box
fix            topWall all wall/lj93 zhi EDGE                2 1 0.7147 units box

fix            lowWall all wall/lj93 zlo EDGE                ${epsilonWall} ${sigma} ${cutoffLow} units box
fix            lowWall all wall/lj93 zlo EDGE                2 ${sigma} ${cutoffLow} units box
fix            lowWall all wall/lj93 zlo EDGE                2 1 ${cutoffLow} units box
fix            lowWall all wall/lj93 zlo EDGE                2 1 3 units box



######################	FIXES ############################

fix 		2 solvent nve



## Thermostat


region		regthermo block EDGE EDGE EDGE EDGE 0 20

group 		thermo dynamic solvent region regthermo every 1000
dynamic group thermo defined

fix 		3 thermo langevin 1.0 1.0 10 156453



#### Load balancing


fix 		bal all balance 1000 1.05 shift z 10 1.05


############### Diagnostics and computes ###################
#compute 	com cube	  rigid/local	1 mol x y z
#compute 	quat cube	  rigid/local	1 mol quatw quati quatj quatk

thermo 		1000
thermo_style 	custom step temp epair evdwl etotal press pe ke vol

dump		1 all custom 100000 dump.lammpstrj id mol type x y z
dump 		2 all image 10000 image.*.png type type
dump 		3 all movie 100 movie.avi type type
#dump 		com cube local 1000 dump.*.xyz c_com[*]
#dump		quat cube      local 1000 dump.*.quat c_quat[*]


restart 	100000 restart.dat
timestep 	0.0025
timer 		full
New timer settings: style=full  mode=nosync  timeout=off


run		1000000
Setting up Verlet run ...
  Unit style    : lj
  Current step  : 0
  Time step     : 0.0025
Per MPI rank memory allocation (min/avg/max) = 20.29 | 22.81 | 30.08 Mbytes
Step Temp E_pair E_vdwl TotEng Press PotEng KinEng Volume 
       0   0.99995227   -3.3139444   -3.3139444   -1.8140164    8.8028552   -3.3139444     1.499928      8192000 
    1000    1.7057328   -4.4202016   -4.4202016    -1.861603    5.9546569   -4.4202016    2.5585985      8192000 
    2000    1.7147989   -4.4895151   -4.4895151   -1.9173174     5.156967   -4.4895151    2.5721977      8192000 
    3000    1.7260707   -4.5561458   -4.5561458   -1.9670404    4.3755392   -4.5561458    2.5891054      8192000 
    4000    1.7170536   -4.5862462   -4.5862462   -2.0106665    3.7084778   -4.5862462    2.5755797      8192000 
    5000    1.7108887   -4.6153639   -4.6153639   -2.0490314     3.068413   -4.6153639    2.5663325      8192000 
    6000     1.714786    -4.652112    -4.652112   -2.0799336    2.4117659    -4.652112    2.5721784      8192000 
    7000     1.721916    -4.680371    -4.680371   -2.0974976    1.7706818    -4.680371    2.5828734      8192000 
    8000    1.7166353   -4.6750119   -4.6750119   -2.1000595     1.224363   -4.6750119    2.5749524      8192000 
    9000    1.6940801   -4.6335291   -4.6335291   -2.0924097   0.80229804   -4.6335291    2.5411195      8192000 
   10000    1.6607454   -4.5696107   -4.5696107   -2.0784932   0.49217585   -4.5696107    2.4911175      8192000 
   11000    1.6222555   -4.4949157   -4.4949157    -2.061533   0.28130243   -4.4949157    2.4333827      8192000 
   12000    1.5853865   -4.4222182   -4.4222182    -2.044139   0.14424188   -4.4222182    2.3780792      8192000 
   13000     1.554506   -4.3589433   -4.3589433   -2.0271848  0.076531979   -4.3589433    2.3317584      8192000 
   14000    1.5383017    -4.318908    -4.318908    -2.011456  0.081365939    -4.318908     2.307452      8192000 
   15000    1.5401814   -4.3074562   -4.3074562   -1.9971847   0.13939778   -4.3074562    2.3102715      8192000 
   16000    1.5482357   -4.3073827   -4.3073827   -1.9850297   0.20592327   -4.3073827     2.322353      8192000 
   17000    1.5541506   -4.3062735   -4.3062735   -1.9750482   0.24611867   -4.3062735    2.3312253      8192000 
   18000     1.556403   -4.3012603   -4.3012603   -1.9666564   0.26661289   -4.3012603    2.3346039      8192000 
   19000    1.5573756   -4.2960398   -4.2960398    -1.959977   0.27322088   -4.2960398    2.3360629      8192000 
   20000    1.5587591   -4.2924657   -4.2924657   -1.9543277   0.27859187   -4.2924657     2.338138      8192000 
   21000    1.5591418   -4.2885143   -4.2885143   -1.9498022   0.29134311   -4.2885143    2.3387121      8192000 
   22000    1.5599039   -4.2857531   -4.2857531   -1.9458979   0.30003605   -4.2857531    2.3398552      8192000 
   23000    1.5598208    -4.282568    -4.282568   -1.9428373   0.30997133    -4.282568    2.3397307      8192000 
   24000     1.560824   -4.2811236   -4.2811236   -1.9398882   0.31470237   -4.2811236    2.3412354      8192000 
   25000    1.5617472   -4.2800147   -4.2800147   -1.9373944   0.32146638   -4.2800147    2.3426203      8192000 
   26000    1.5634374   -4.2805241   -4.2805241   -1.9353686   0.33144604   -4.2805241    2.3451555      8192000 
   27000    1.5654436   -4.2815784   -4.2815784   -1.9334136   0.34838416   -4.2815784    2.3481649      8192000 
   28000    1.5681131   -4.2838716   -4.2838716   -1.9317026    0.3626142   -4.2838716     2.352169      8192000 
   29000    1.5696621   -4.2842465   -4.2842465   -1.9297539   0.37932622   -4.2842465    2.3544926      8192000 
   30000    1.5711251    -4.284898    -4.284898    -1.928211   0.38710316    -4.284898     2.356687      8192000 
   31000    1.5722339   -4.2849342   -4.2849342   -1.9265839   0.40005364   -4.2849342    2.3583503      8192000 
   32000    1.5725602   -4.2840524   -4.2840524   -1.9252126   0.40846023   -4.2840524    2.3588397      8192000 
   33000    1.5730514   -4.2836341   -4.2836341   -1.9240575   0.42830486   -4.2836341    2.3595765      8192000 
   34000    1.5743364   -4.2853171   -4.2853171    -1.923813   0.60241431   -4.2853171    2.3615041      8192000 
   35000    1.5638416   -4.2684679   -4.2684679    -1.922706    1.0615563   -4.2684679    2.3457619      8192000 
   36000    1.5487404   -4.2445291   -4.2445291    -1.921419    1.5553258   -4.2445291    2.3231101      8192000 
   37000    1.5328379   -4.2194162   -4.2194162   -1.9201599    2.0560476   -4.2194162    2.2992563      8192000 
   38000    1.5229051   -4.2035249   -4.2035249   -1.9191678    2.5172145   -4.2035249    2.2843571      8192000 
   39000    1.5163157   -4.1922589   -4.1922589    -1.917786    2.9512553   -4.1922589    2.2744729      8192000 
   40000    1.5214365   -4.1989795   -4.1989795   -1.9168253    3.0040681   -4.1989795    2.2821542      8192000 
   41000     1.533051   -4.2151581   -4.2151581   -1.9155823    2.7070148   -4.2151581    2.2995759      8192000 
   42000     1.541952   -4.2274092   -4.2274092   -1.9144818    2.4318867   -4.2274092    2.3129274      8192000 
   43000    1.5455047   -4.2315535   -4.2315535   -1.9132971    2.1462762   -4.2315535    2.3182564      8192000 
   44000     1.542501   -4.2254293   -4.2254293   -1.9116785    1.8563176   -4.2254293    2.3137509      8192000 
   45000    1.5283444   -4.2029814   -4.2029814   -1.9104653    1.6201199   -4.2029814    2.2925161      8192000 
   46000    1.5059991   -4.1683476   -4.1683476   -1.9093496    1.4211702   -4.1683476    2.2589981      8192000 
   47000     1.482966   -4.1325986   -4.1325986   -1.9081501    1.2316811   -4.1325986    2.2244485      8192000 
   48000    1.4563388    -4.091752    -4.091752   -1.9072443    1.0529323    -4.091752    2.1845077      8192000 
   49000    1.4242541   -4.0427667   -4.0427667    -1.906386    0.8978187   -4.0427667    2.1363807      8192000 
   50000     1.391176   -3.9922075   -3.9922075    -1.905444   0.73945109   -3.9922075    2.0867635      8192000 
   51000    1.3576032   -3.9407124   -3.9407124    -1.904308   0.60342927   -3.9407124    2.0364044      8192000 
   52000    1.3259691   -3.8923668   -3.8923668   -1.9034136   0.51246438   -3.8923668    1.9889531      8192000 
   53000    1.2990647   -3.8510938   -3.8510938   -1.9024973   0.47496192   -3.8510938    1.9485965      8192000 
   54000    1.2764739   -3.8162286   -3.8162286   -1.9015183   0.47802397   -3.8162286    1.9147103      8192000 
   55000    1.2574135   -3.7867641   -3.7867641   -1.9006442   0.47741817   -3.7867641    1.8861199      8192000 
   56000    1.2431169   -3.7645192   -3.7645192   -1.8998443   0.45231201   -3.7645192    1.8646749      8192000 
   57000    1.2295917   -3.7431814   -3.7431814   -1.8987942   0.41711609   -3.7431814    1.8443872      8192000 
   58000    1.2171955   -3.7237592   -3.7237592   -1.8979663   0.37290401   -3.7237592    1.8257928      8192000 
   59000    1.2054642   -3.7052865   -3.7052865   -1.8970907   0.33462893   -3.7052865    1.8081958      8192000 
   60000    1.1951708   -3.6887047   -3.6887047    -1.895949   0.31102954   -3.6887047    1.7927557      8192000 
   61000    1.1878554    -3.676878    -3.676878   -1.8950953   0.29588141    -3.676878    1.7817827      8192000 
   62000     1.180164   -3.6643155   -3.6643155   -1.8940699   0.29580284   -3.6643155    1.7702456      8192000 
   63000    1.1737837   -3.6538423   -3.6538423   -1.8931672   0.29711049   -3.6538423    1.7606751      8192000 
   64000    1.1678744   -3.6440767   -3.6440767   -1.8922655   0.29854892   -3.6440767    1.7518111      8192000 
   65000    1.1631055   -3.6362022   -3.6362022   -1.8915443    0.3019326   -3.6362022    1.7446579      8192000 
   66000    1.1591633   -3.6292887   -3.6292887   -1.8905442    0.3103302   -3.6292887    1.7387445      8192000 
   67000    1.1572564   -3.6258017   -3.6258017   -1.8899176   0.32354221   -3.6258017    1.7358841      8192000 
   68000    1.1564245   -3.6238292   -3.6238292   -1.8891929   0.34706929   -3.6238292    1.7346363      8192000 
   69000    1.1566027   -3.6236938   -3.6236938   -1.8887902   0.37240908   -3.6236938    1.7349036      8192000 
   70000    1.1577565   -3.6259567   -3.6259567   -1.8893224   0.40212062   -3.6259567    1.7366343      8192000 
   71000      1.15684   -3.6265771   -3.6265771   -1.8913176   0.41449003   -3.6265771    1.7352595      8192000 
   72000    1.1485694   -3.6181771   -3.6181771   -1.8953235   0.37248248   -3.6181771    1.7228536      8192000 
   73000    1.1337544   -3.6020067   -3.6020067   -1.9013754   0.31692144   -3.6020067    1.7006312      8192000 
   74000    1.1197921   -3.5898305   -3.5898305   -1.9101427   0.26852592   -3.5898305    1.6796878      8192000 
   75000    1.1070577   -3.5826145   -3.5826145   -1.9220283   0.23453693   -3.5826145    1.6605862      8192000 
   76000    1.0952096   -3.5806908   -3.5806908   -1.9378769   0.21293248   -3.5806908    1.6428139      8192000 
   77000    1.0831037    -3.583117    -3.583117   -1.9584619   0.20374581    -3.583117    1.6246551      8192000 
   78000    1.0707606   -3.5887741   -3.5887741   -1.9826336   0.20331324   -3.5887741    1.6061405      8192000 
   79000    1.0581814   -3.5959967   -3.5959967   -2.0087251   0.20996145   -3.5959967    1.5872716      8192000 
   80000    1.0439535   -3.6010685   -3.6010685   -2.0351386   0.21392595   -3.6010685    1.5659299      8192000 
   81000     1.031508   -3.6059884   -3.6059884   -2.0587267   0.20065463   -3.6059884    1.5472616      8192000 
   82000    1.0191674   -3.6071072   -3.6071072   -2.0783564   0.17690499   -3.6071072    1.5287508      8192000 
   83000     1.008398   -3.6058385   -3.6058385   -2.0932419   0.14694761   -3.6058385    1.5125966      8192000 
   84000   0.99834998   -3.6011523   -3.6011523   -2.1036277   0.11962934   -3.6011523    1.4975246      8192000 
   85000   0.99070724   -3.5963894   -3.5963894   -2.1103289  0.097377094   -3.5963894    1.4860605      8192000 
   86000   0.98530623    -3.592079    -3.592079   -2.1141201  0.083126054    -3.592079     1.477959      8192000 
   87000   0.98199759   -3.5884262   -3.5884262   -2.1154302  0.075141868   -3.5884262     1.472996      8192000 
   88000   0.98038368   -3.5859762   -3.5859762   -2.1154011  0.072875726   -3.5859762    1.4705752      8192000 
   89000   0.97983736   -3.5838237   -3.5838237    -2.114068  0.071887404   -3.5838237    1.4697557      8192000 
   90000   0.97964974   -3.5821045   -3.5821045   -2.1126303  0.074510227   -3.5821045    1.4694743      8192000 
   91000   0.97968853   -3.5802809   -3.5802809   -2.1107484  0.077116542   -3.5802809    1.4695324      8192000 
   92000   0.98015005   -3.5789922   -3.5789922   -2.1087675  0.078841986   -3.5789922    1.4702247      8192000 
   93000   0.98054446   -3.5775201   -3.5775201   -2.1067038  0.082361235   -3.5775201    1.4708163      8192000 
   94000   0.98138763   -3.5769806   -3.5769806   -2.1048995  0.083814843   -3.5769806    1.4720811      8192000 
   95000   0.98226197   -3.5766872   -3.5766872   -2.1032946  0.085316295   -3.5766872    1.4733926      8192000 
   96000   0.98298063   -3.5763057   -3.5763057   -2.1018352   0.08651187   -3.5763057    1.4744706      8192000 
   97000   0.98409311    -3.576611    -3.576611   -2.1004717  0.089711038    -3.576611    1.4761393      8192000 
   98000   0.98497294   -3.5764628   -3.5764628   -2.0990038  0.090769751   -3.5764628     1.477459      8192000 
   99000   0.98505203   -3.5756476   -3.5756476   -2.0980699  0.091494706   -3.5756476    1.4775777      8192000 
  100000   0.98602721   -3.5761506   -3.5761506   -2.0971101  0.094089988   -3.5761506    1.4790405      8192000 
  101000    0.9863781   -3.5754253   -3.5754253   -2.0958585  0.094853293   -3.5754253    1.4795668      8192000 
  102000   0.98712402   -3.5757864   -3.5757864   -2.0951008  0.097554015   -3.5757864    1.4806857      8192000 
  103000   0.98782911   -3.5757503   -3.5757503    -2.094007   0.10088908   -3.5757503    1.4817433      8192000 
  104000   0.98810455   -3.5754699   -3.5754699   -2.0933134    0.1059087   -3.5754699    1.4821565      8192000 
  105000   0.98903628   -3.5761571   -3.5761571    -2.092603   0.10661438   -3.5761571    1.4835541      8192000 
  106000   0.98964067   -3.5766954   -3.5766954   -2.0922348   0.10678941   -3.5766954    1.4844606      8192000 
  107000   0.99019098   -3.5768897   -3.5768897   -2.0916035   0.11320398   -3.5768897    1.4852861      8192000 
  108000   0.99086949   -3.5771714   -3.5771714   -2.0908675   0.11535348   -3.5771714    1.4863039      8192000 
  109000   0.99207064   -3.5787119   -3.5787119   -2.0906063    0.1195162   -3.5787119    1.4881056      8192000 
  110000   0.99255344   -3.5796802   -3.5796802   -2.0908504    0.1214616   -3.5796802    1.4888298      8192000 
  111000   0.99300044   -3.5799191   -3.5799191   -2.0904188   0.12769419   -3.5799191    1.4895003      8192000 
  112000    0.9936771   -3.5808941   -3.5808941   -2.0903789   0.13108287   -3.5808941    1.4905153      8192000 
  113000    0.9946542   -3.5821129   -3.5821129   -2.0901319   0.13183676   -3.5821129    1.4919809      8192000 
  114000   0.99495222   -3.5823466   -3.5823466   -2.0899187   0.13744442   -3.5823466     1.492428      8192000 
  115000   0.99595909   -3.5836104   -3.5836104   -2.0896722   0.14136557   -3.5836104    1.4939383      8192000 
  116000   0.99662901   -3.5843536   -3.5843536   -2.0894105   0.14646002   -3.5843536    1.4949431      8192000 
  117000   0.99800278   -3.5862808   -3.5862808    -2.089277    0.1485296   -3.5862808    1.4970038      8192000 
  118000   0.99910922   -3.5876534   -3.5876534   -2.0889899   0.15418753   -3.5876534    1.4986635      8192000 
  119000     1.000646   -3.5895965   -3.5895965   -2.0886279   0.15947374   -3.5895965    1.5009686      8192000 
  120000    1.0018027   -3.5910308   -3.5910308   -2.0883272   0.16535924   -3.5910308    1.5027036      8192000 
  121000    1.0031779   -3.5923848   -3.5923848   -2.0876183   0.17195153   -3.5923848    1.5047665      8192000 
  122000    1.0043053   -3.5937028   -3.5937028   -2.0872452   0.17768671   -3.5937028    1.5064576      8192000 
  123000    1.0050739   -3.5943604   -3.5943604   -2.0867498   0.17891516   -3.5943604    1.5076105      8192000 
  124000    1.0054637   -3.5943237   -3.5943237   -2.0861285   0.17997359   -3.5943237    1.5081952      8192000 
  125000    1.0051644   -3.5933456   -3.5933456   -2.0855993   0.17809824   -3.5933456    1.5077463      8192000 
  126000    1.0043753    -3.591055    -3.591055   -2.0844924   0.17529544    -3.591055    1.5065625      8192000 
  127000    1.0027573   -3.5881329   -3.5881329   -2.0839973   0.17036481   -3.5881329    1.5041356      8192000 
  128000     1.000933    -3.584837    -3.584837   -2.0834379   0.16418446    -3.584837    1.5013991      8192000 
  129000   0.99938273   -3.5820103   -3.5820103   -2.0829366   0.15489259   -3.5820103    1.4990737      8192000 
  130000   0.99667205   -3.5772164   -3.5772164   -2.0822087   0.14680952   -3.5772164    1.4950077      8192000 
  131000    0.9938271   -3.5723393   -3.5723393    -2.081599    0.1356797   -3.5723393    1.4907403      8192000 
  132000   0.99067426   -3.5669637   -3.5669637   -2.0809527   0.12346654   -3.5669637     1.486011      8192000 
  133000   0.98754763   -3.5612211   -3.5612211      -2.0799   0.11425636   -3.5612211    1.4813211      8192000 
  134000   0.98425474   -3.5558265   -3.5558265   -2.0794448   0.10289989   -3.5558265    1.4763817      8192000 
  135000   0.98120885   -3.5505047   -3.5505047   -2.0786918  0.093654023   -3.5505047    1.4718129      8192000 
  136000    0.9787503   -3.5460007   -3.5460007   -2.0778756  0.084826077   -3.5460007    1.4681251      8192000 
  137000   0.97625732   -3.5416534   -3.5416534   -2.0772678   0.07866247   -3.5416534    1.4643856      8192000 
  138000   0.97494606   -3.5390932   -3.5390932   -2.0766745  0.071807267   -3.5390932    1.4624187      8192000 
  139000   0.97380742   -3.5370146   -3.5370146   -2.0763038  0.068287611   -3.5370146    1.4607108      8192000 
  140000   0.97320868   -3.5356963   -3.5356963   -2.0758836  0.065321285   -3.5356963    1.4598127      8192000 
  141000   0.97237202   -3.5340303   -3.5340303   -2.0754726  0.064914839   -3.5340303    1.4585577      8192000 
  142000   0.97227468   -3.5333949   -3.5333949   -2.0749833  0.065186213   -3.5333949    1.4584117      8192000 
  143000   0.97323225   -3.5346259   -3.5346259   -2.0747779  0.066747234   -3.5346259     1.459848      8192000 
  144000    0.9740812     -3.53591     -3.53591   -2.0747885  0.069029757     -3.53591    1.4611214      8192000 
  145000   0.97471691   -3.5370533   -3.5370533   -2.0749783  0.073142694   -3.5370533     1.462075      8192000 
  146000   0.97614708   -3.5390819   -3.5390819   -2.0748616  0.078379553   -3.5390819    1.4642203      8192000 
  147000   0.97758209   -3.5414494   -3.5414494   -2.0750766  0.084542528   -3.5414494    1.4663728      8192000 
  148000   0.97887238   -3.5436413   -3.5436413   -2.0753331  0.091288652   -3.5436413    1.4683082      8192000 
  149000   0.98016951   -3.5468226   -3.5468226   -2.0765687  0.096617173   -3.5468226    1.4702539      8192000 
  150000    0.9812147   -3.5494782   -3.5494782   -2.0776565   0.10309208   -3.5494782    1.4718217      8192000 
  151000   0.98259688   -3.5528653   -3.5528653   -2.0789703   0.10552751   -3.5528653     1.473895      8192000 
  152000   0.98374177   -3.5563034   -3.5563034   -2.0806911    0.1129512   -3.5563034    1.4756123      8192000 
  153000   0.98424755   -3.5587309   -3.5587309   -2.0823599   0.11235643   -3.5587309     1.476371      8192000 
  154000   0.98462405   -3.5609286   -3.5609286   -2.0839929   0.11708609   -3.5609286    1.4769357      8192000 
  155000   0.98505628   -3.5633076   -3.5633076   -2.0857235   0.11914711   -3.5633076    1.4775841      8192000 
  156000   0.98467865   -3.5645668   -3.5645668   -2.0875492   0.12032776   -3.5645668    1.4770176      8192000 
  157000   0.98437058   -3.5655248   -3.5655248   -2.0889693   0.12078735   -3.5655248    1.4765555      8192000 
  158000    0.9838185   -3.5659023   -3.5659023   -2.0901749     0.118414   -3.5659023    1.4757274      8192000 
  159000   0.98319475   -3.5660109   -3.5660109   -2.0912191   0.11698123   -3.5660109    1.4747918      8192000 
  160000   0.98231617   -3.5654107   -3.5654107   -2.0919368   0.11531599   -3.5654107    1.4734739      8192000 
  161000   0.98092079   -3.5638127   -3.5638127   -2.0924318   0.11193813   -3.5638127    1.4713808      8192000 
  162000   0.97961293   -3.5621092   -3.5621092   -2.0926902   0.10801573   -3.5621092     1.469419      8192000 
  163000   0.97839779   -3.5606514   -3.5606514   -2.0930551   0.10275404   -3.5606514    1.4675963      8192000 
  164000   0.97677736   -3.5584752   -3.5584752   -2.0933095  0.099793715   -3.5584752    1.4651657      8192000 
  165000   0.97532624   -3.5564063   -3.5564063   -2.0934173  0.095343006   -3.5564063     1.462989      8192000 
  166000   0.97403374   -3.5543607   -3.5543607   -2.0933104  0.093677514   -3.5543607    1.4610502      8192000 
  167000   0.97271175    -3.551842    -3.551842   -2.0927748  0.088410293    -3.551842    1.4590673      8192000 
  168000   0.97126887   -3.5495172   -3.5495172   -2.0926143  0.085520067   -3.5495172    1.4569029      8192000 
  169000   0.97032759   -3.5474677   -3.5474677   -2.0919767  0.081522941   -3.5474677     1.455491      8192000 
  170000   0.96910394   -3.5451192   -3.5451192   -2.0914636  0.079835371   -3.5451192    1.4536556      8192000 
  171000   0.96826097   -3.5431689   -3.5431689   -2.0907778  0.079387971   -3.5431689    1.4523911      8192000 
  172000    0.9679281   -3.5415064   -3.5415064   -2.0896146  0.076729457   -3.5415064    1.4518918      8192000 
  173000   0.96728865   -3.5398425   -3.5398425   -2.0889099  0.073948618   -3.5398425    1.4509326      8192000 
  174000   0.96679347   -3.5382564   -3.5382564   -2.0880666  0.076312388   -3.5382564    1.4501898      8192000 
  175000    0.9665338   -3.5370062   -3.5370062   -2.0872059  0.075027145   -3.5370062    1.4498003      8192000 
  176000   0.96631296   -3.5356281   -3.5356281   -2.0861591  0.074999048   -3.5356281    1.4494691      8192000 
  177000   0.96595533   -3.5340744   -3.5340744   -2.0851418     0.077294   -3.5340744    1.4489326      8192000 
  178000   0.96635612   -3.5337572   -3.5337572   -2.0842233   0.07625023   -3.5337572    1.4495338      8192000 
  179000   0.96632165    -3.532886    -3.532886   -2.0834039  0.076070548    -3.532886    1.4494821      8192000 
  180000   0.96674947   -3.5327543   -3.5327543   -2.0826304  0.074836477   -3.5327543    1.4501238      8192000 
  181000    0.9661065   -3.5309053   -3.5309053   -2.0817459  0.078542968   -3.5309053    1.4491594      8192000 
  182000   0.96690445   -3.5313081   -3.5313081   -2.0809518  0.077658508   -3.5313081    1.4503563      8192000 
  183000   0.96669432   -3.5304221   -3.5304221   -2.0803809  0.079238831   -3.5304221    1.4500411      8192000 
  184000   0.96672547   -3.5297572   -3.5297572   -2.0796693  0.078794144   -3.5297572    1.4500879      8192000 
  185000   0.96663338   -3.5290464   -3.5290464   -2.0790967  0.079449165   -3.5290464    1.4499497      8192000 
  186000   0.96669505   -3.5285781   -3.5285781   -2.0785359  0.080716509   -3.5285781    1.4500422      8192000 
  187000   0.96729999   -3.5289351   -3.5289351   -2.0779855  0.078956204   -3.5289351    1.4509496      8192000 
  188000   0.96665395   -3.5274129   -3.5274129   -2.0774323  0.080458655   -3.5274129    1.4499806      8192000 
  189000   0.96627437   -3.5264949   -3.5264949   -2.0770837  0.080681824   -3.5264949    1.4494112      8192000 
  190000   0.96609986    -3.525844    -3.525844   -2.0766946  0.080810455    -3.525844    1.4491494      8192000 
  191000   0.96641714    -3.525823    -3.525823   -2.0761976  0.080676961    -3.525823    1.4496254      8192000 
  192000   0.96611117   -3.5251212   -3.5251212   -2.0759548  0.079848551   -3.5251212    1.4491664      8192000 
  193000   0.96609864   -3.5249066   -3.5249066    -2.075759  0.076741316   -3.5249066    1.4491476      8192000 
  194000   0.96519943   -3.5236595   -3.5236595   -2.0758608  0.076300066   -3.5236595    1.4477988      8192000 
  195000   0.96463957   -3.5223396   -3.5223396   -2.0753806  0.076191993   -3.5223396     1.446959      8192000 
  196000   0.96401269   -3.5213156   -3.5213156   -2.0752969  0.075137096   -3.5213156    1.4460187      8192000 
  197000   0.96426954   -3.5212294   -3.5212294   -2.0748254  0.073148063   -3.5212294     1.446404      8192000 
  198000   0.96358038    -3.520031    -3.520031   -2.0746608  0.071958445    -3.520031    1.4453702      8192000 
  199000   0.96254591   -3.5184751   -3.5184751   -2.0746566  0.071809859   -3.5184751    1.4438185      8192000 
  200000   0.96152575    -3.517165    -3.517165   -2.0748768  0.070715564    -3.517165    1.4422883      8192000 
  201000   0.96158564   -3.5168336   -3.5168336   -2.0744555  0.069464185   -3.5168336    1.4423781      8192000 
  202000   0.96101903   -3.5157666   -3.5157666   -2.0742384  0.067680003   -3.5157666    1.4415282      8192000 
  203000   0.96074012   -3.5152851   -3.5152851   -2.0741752  0.065763742   -3.5152851    1.4411098      8192000 
  204000    0.9598778   -3.5140573   -3.5140573    -2.074241  0.064763831   -3.5140573    1.4398163      8192000 
  205000   0.95922193   -3.5132233   -3.5132233   -2.0743907  0.063252003   -3.5132233    1.4388325      8192000 
  206000   0.95928879   -3.5132122   -3.5132122   -2.0742794  0.061614518   -3.5132122    1.4389328      8192000 
  207000   0.95891621   -3.5126171   -3.5126171   -2.0742431  0.060256842   -3.5126171     1.438374      8192000 
  208000   0.95827622   -3.5117422   -3.5117422   -2.0743282    0.0627801   -3.5117422     1.437414      8192000 
  209000    0.9581987   -3.5115068   -3.5115068   -2.0742091  0.060801663   -3.5115068    1.4372977      8192000 
  210000   0.95806486   -3.5111138   -3.5111138   -2.0740169  0.060736492   -3.5111138    1.4370969      8192000 
  211000   0.95755354   -3.5103772   -3.5103772   -2.0740473  0.061849643   -3.5103772      1.43633      8192000 
  212000    0.9578731   -3.5108201   -3.5108201   -2.0740108  0.060607638   -3.5108201    1.4368093      8192000 
  213000     0.957364   -3.5099334   -3.5099334   -2.0738878  0.062191181   -3.5099334    1.4360456      8192000 
  214000   0.95751385   -3.5101522   -3.5101522   -2.0738818  0.060435428   -3.5101522    1.4362704      8192000 
  215000   0.95702665   -3.5093451   -3.5093451   -2.0738055  0.060678687   -3.5093451    1.4355396      8192000 
  216000   0.95709203   -3.5095662   -3.5095662   -2.0739285  0.063046552   -3.5095662    1.4356377      8192000 
  217000   0.95748591   -3.5101756   -3.5101756   -2.0739471  0.062632368   -3.5101756    1.4362285      8192000 
  218000   0.95711859   -3.5093767   -3.5093767   -2.0736992  0.061130553   -3.5093767    1.4356775      8192000 
  219000   0.95770956   -3.5100973   -3.5100973   -2.0735333  0.063954877   -3.5100973     1.436564      8192000 
  220000   0.95823284   -3.5107512   -3.5107512   -2.0734023  0.063143369   -3.5107512    1.4373489      8192000 
  221000   0.95803637   -3.5101501   -3.5101501   -2.0730959  0.065299631   -3.5101501    1.4370542      8192000 
  222000   0.95780013   -3.5098593   -3.5098593   -2.0731595  0.065810374   -3.5098593    1.4366998      8192000 
  223000   0.95815754   -3.5103973   -3.5103973   -2.0731614  0.062746635   -3.5103973     1.437236      8192000 
  224000   0.95817232   -3.5103508   -3.5103508   -2.0730927  0.066105134   -3.5103508    1.4372581      8192000 
  225000   0.95803993   -3.5097525   -3.5097525    -2.072693  0.065502162   -3.5097525    1.4370595      8192000 
  226000   0.95826523   -3.5098396   -3.5098396   -2.0724421  0.065311582   -3.5098396    1.4373975      8192000 
  227000   0.95832373   -3.5101441   -3.5101441   -2.0726588   0.06453244   -3.5101441    1.4374852      8192000 
  228000   0.95788155   -3.5097339   -3.5097339   -2.0729119  0.064290614   -3.5097339     1.436822      8192000 
  229000   0.95778386   -3.5097154   -3.5097154     -2.07304  0.062005614   -3.5097154    1.4366754      8192000 
  230000   0.95753169   -3.5091809   -3.5091809   -2.0728837   0.06349811   -3.5091809    1.4362972      8192000 
  231000    0.9571251   -3.5086938   -3.5086938   -2.0730065  0.060944014   -3.5086938    1.4356873      8192000 
  232000   0.95687186   -3.5083103   -3.5083103   -2.0730029   0.06154699   -3.5083103    1.4353074      8192000 
  233000   0.95657711   -3.5077112   -3.5077112   -2.0728459  0.062366801   -3.5077112    1.4348653      8192000 
  234000   0.95612911   -3.5070398   -3.5070398   -2.0728465  0.060722454   -3.5070398    1.4341933      8192000 
  235000   0.95610576   -3.5068195   -3.5068195   -2.0726612  0.059590651   -3.5068195    1.4341583      8192000 
  236000   0.95618263   -3.5068793   -3.5068793   -2.0726057   0.06179632   -3.5068793    1.4342736      8192000 
  237000   0.95603814   -3.5066714   -3.5066714   -2.0726146   0.06019042   -3.5066714    1.4340569      8192000 
  238000   0.95564626    -3.506027    -3.506027    -2.072558  0.060176509    -3.506027     1.433469      8192000 
  239000   0.95584867   -3.5060703   -3.5060703   -2.0722976  0.060221906   -3.5060703    1.4337727      8192000 
  240000   0.95540968   -3.5052391   -3.5052391    -2.072125  0.061835797   -3.5052391    1.4331142      8192000 
  241000   0.95554155   -3.5054849   -3.5054849   -2.0721729  0.061065937   -3.5054849     1.433312      8192000 
  242000   0.95584494   -3.5057604   -3.5057604   -2.0719933  0.058320536   -3.5057604    1.4337671      8192000 
  243000   0.95561499   -3.5053053   -3.5053053   -2.0718832  0.058590041   -3.5053053    1.4334221      8192000 
  244000   0.95571234   -3.5056018   -3.5056018   -2.0720336  0.058201407   -3.5056018    1.4335682      8192000 
  245000    0.9555628   -3.5054445   -3.5054445   -2.0721007  0.058933167   -3.5054445    1.4333438      8192000 
  246000   0.95605393   -3.5062534   -3.5062534   -2.0721729  0.059111485   -3.5062534    1.4340805      8192000 
  247000   0.95587217   -3.5055641   -3.5055641   -2.0717562  0.060822562   -3.5055641    1.4338079      8192000 
  248000   0.95560919   -3.5051505   -3.5051505    -2.071737  0.060828037   -3.5051505    1.4334134      8192000 
  249000   0.95639086   -3.5066409   -3.5066409    -2.072055  0.061841162   -3.5066409    1.4345859      8192000 
  250000   0.95613255   -3.5061687   -3.5061687   -2.0719702  0.063125609   -3.5061687    1.4341985      8192000 
  251000   0.95654467   -3.5067873   -3.5067873   -2.0719707  0.061823006   -3.5067873    1.4348167      8192000 
  252000    0.9572767   -3.5073393   -3.5073393   -2.0714246  0.064235446   -3.5073393    1.4359147      8192000 
  253000   0.95703448     -3.50719     -3.50719   -2.0716386  0.063975489     -3.50719    1.4355514      8192000 
  254000   0.95778811    -3.507976    -3.507976   -2.0712941  0.064389253    -3.507976    1.4366818      8192000 
  255000   0.95829064   -3.5084799   -3.5084799   -2.0710443  0.067338962   -3.5084799    1.4374356      8192000 
  256000   0.95860306    -3.509019    -3.509019   -2.0711147  0.068425805    -3.509019    1.4379042      8192000 
  257000   0.95951572   -3.5104776   -3.5104776   -2.0712043  0.070199191   -3.5104776    1.4392732      8192000 
  258000   0.96015436    -3.511505    -3.511505   -2.0712738   0.07124223    -3.511505    1.4402312      8192000 
  259000   0.96114406   -3.5128661   -3.5128661   -2.0711503  0.075878811   -3.5128661    1.4417157      8192000 
  260000    0.9620853   -3.5143572   -3.5143572   -2.0712296  0.079503108   -3.5143572    1.4431276      8192000 
  261000   0.96365583   -3.5162807   -3.5162807   -2.0707973   0.08811082   -3.5162807    1.4454834      8192000 
  262000    0.9654291   -3.5186863   -3.5186863    -2.070543  0.093833122   -3.5186863    1.4481433      8192000 
  263000   0.96721023   -3.5216445   -3.5216445   -2.0708295   0.10342298   -3.5216445     1.450815      8192000 
  264000   0.97004388   -3.5256491   -3.5256491   -2.0705836   0.11208113   -3.5256491    1.4550655      8192000 
  265000   0.97238016    -3.529233    -3.529233   -2.0706632   0.12277761    -3.529233    1.4585699      8192000 
  266000   0.97576524   -3.5338746   -3.5338746   -2.0702271     0.132532   -3.5338746    1.4636475      8192000 
  267000   0.97785988   -3.5370106   -3.5370106   -2.0702211   0.14466001   -3.5370106    1.4667895      8192000 
  268000   0.98032675   -3.5406306   -3.5406306   -2.0701408   0.15603818   -3.5406306    1.4704898      8192000 
  269000     0.983157   -3.5444607   -3.5444607   -2.0697255   0.16471021   -3.5444607    1.4747351      8192000 
  270000   0.98545211   -3.5480661   -3.5480661   -2.0698883   0.17362229   -3.5480661    1.4781778      8192000 
  271000   0.98764775   -3.5512146   -3.5512146   -2.0697434   0.18073628   -3.5512146    1.4814713      8192000 
  272000   0.98972783   -3.5540947   -3.5540947   -2.0695033   0.18623618   -3.5540947    1.4845914      8192000 
  273000   0.99107105   -3.5563691   -3.5563691   -2.0697629   0.19165713   -3.5563691    1.4866062      8192000 
  274000   0.99224468   -3.5580465   -3.5580465   -2.0696798   0.19565145   -3.5580465    1.4883666      8192000 
  275000   0.99310137   -3.5592448   -3.5592448   -2.0695931   0.19641355   -3.5592448    1.4896517      8192000 
  276000   0.99376356   -3.5600128   -3.5600128   -2.0693678   0.19404278   -3.5600128     1.490645      8192000 
  277000   0.99412593   -3.5603622   -3.5603622   -2.0691737    0.1906246   -3.5603622    1.4911885      8192000 
  278000   0.99334107   -3.5589191   -3.5589191   -2.0689078   0.18932534   -3.5589191    1.4900112      8192000 
  279000   0.99230187   -3.5572891   -3.5572891   -2.0688367   0.18373775   -3.5572891    1.4884524      8192000 
  280000   0.99037324   -3.5540031   -3.5540031   -2.0684436   0.17602531   -3.5540031    1.4855595      8192000 
  281000   0.98856237   -3.5514483   -3.5514483   -2.0686051    0.1688805   -3.5514483    1.4828432      8192000 
  282000   0.98663363   -3.5484817   -3.5484817   -2.0685316   0.15851251   -3.5484817    1.4799501      8192000 
  283000     0.984609   -3.5451859   -3.5451859   -2.0682728   0.15125418   -3.5451859    1.4769131      8192000 
  284000   0.98224708     -3.54167     -3.54167   -2.0682997   0.14266171     -3.54167    1.4733702      8192000 
  285000   0.97972163   -3.5379191   -3.5379191    -2.068337   0.13352391   -3.5379191    1.4695821      8192000 
  286000   0.97744825    -3.534331    -3.534331    -2.068159   0.12600216    -3.534331     1.466172      8192000 
  287000   0.97539726   -3.5311533   -3.5311533   -2.0680577   0.11626765   -3.5311533    1.4630955      8192000 
  288000   0.97340546   -3.5282278   -3.5282278   -2.0681199   0.10834536   -3.5282278    1.4601078      8192000 
  289000   0.97125891   -3.5251689   -3.5251689   -2.0682809  0.098933324   -3.5251689     1.456888      8192000 
  290000   0.96905088   -3.5218634   -3.5218634   -2.0682875  0.093898506   -3.5218634     1.453576      8192000 
  291000   0.96707749   -3.5186598   -3.5186598   -2.0680439  0.086577788   -3.5186598    1.4506159      8192000 
  292000   0.96551855   -3.5162829   -3.5162829   -2.0680054  0.080068089   -3.5162829    1.4482775      8192000 
  293000   0.96402304   -3.5139006   -3.5139006   -2.0678665  0.076116442   -3.5139006    1.4460342      8192000 
  294000   0.96232337   -3.5112037   -3.5112037    -2.067719  0.069297387   -3.5112037    1.4434847      8192000 
  295000   0.96085944   -3.5088614   -3.5088614   -2.0675726  0.065218016   -3.5088614    1.4412888      8192000 
  296000   0.95986589   -3.5072119   -3.5072119   -2.0674135  0.061865145   -3.5072119    1.4397985      8192000 
  297000   0.95845007    -3.505132    -3.505132   -2.0674572  0.058670663    -3.505132    1.4376748      8192000 
  298000   0.95762099   -3.5040042   -3.5040042    -2.067573  0.057004028   -3.5040042    1.4364311      8192000 
  299000   0.95701384   -3.5030477   -3.5030477   -2.0675273  0.056043328   -3.5030477    1.4355204      8192000 
  300000   0.95651151   -3.5022395   -3.5022395   -2.0674725  0.053934929   -3.5022395    1.4347669      8192000 
  301000   0.95602292   -3.5015508   -3.5015508   -2.0675167  0.052302218   -3.5015508     1.434034      8192000 
  302000    0.9562425   -3.5017468   -3.5017468   -2.0673835  0.053063407   -3.5017468    1.4343634      8192000 
  303000   0.95564738   -3.5010098   -3.5010098   -2.0675391  0.050876563   -3.5010098    1.4334707      8192000 
  304000   0.95579072   -3.5012636   -3.5012636   -2.0675779  0.051557992   -3.5012636    1.4336857      8192000 
  305000   0.95588517   -3.5011581   -3.5011581   -2.0673307  0.051959037   -3.5011581    1.4338274      8192000 
  306000   0.95607494     -3.50135     -3.50135    -2.067238  0.054125244     -3.50135    1.4341121      8192000 
  307000   0.95647792   -3.5016446   -3.5016446   -2.0669281  0.054647965   -3.5016446    1.4347165      8192000 
  308000   0.95657674   -3.5017499   -3.5017499   -2.0668851  0.057237143   -3.5017499    1.4348648      8192000 
  309000   0.95662745   -3.5016973   -3.5016973   -2.0667565   0.05812919   -3.5016973    1.4349408      8192000 
  310000    0.9573353   -3.5027927   -3.5027927   -2.0667901  0.058927777   -3.5027927    1.4360026      8192000 
  311000   0.95787268   -3.5034279   -3.5034279   -2.0666192  0.058456614   -3.5034279    1.4368087      8192000 
  312000   0.95795547   -3.5035608   -3.5035608    -2.066628  0.060011395   -3.5035608    1.4369328      8192000 
  313000   0.95841621    -3.504255    -3.504255    -2.066631  0.059186468    -3.504255     1.437624      8192000 
  314000   0.95846688   -3.5042811   -3.5042811   -2.0665811  0.064110715   -3.5042811       1.4377      8192000 
  315000   0.95885268   -3.5048269   -3.5048269   -2.0665482  0.063583246   -3.5048269    1.4382787      8192000 
  316000   0.95952309   -3.5059527   -3.5059527   -2.0666684  0.063712343   -3.5059527    1.4392843      8192000 
  317000   0.95947524   -3.5059922   -3.5059922   -2.0667797  0.065277922   -3.5059922    1.4392125      8192000 
  318000   0.96002457   -3.5067289   -3.5067289   -2.0666924  0.064202922   -3.5067289    1.4400365      8192000 
  319000   0.96006301   -3.5067981   -3.5067981   -2.0667039  0.067141958   -3.5067981    1.4400942      8192000 
  320000   0.95961543   -3.5063701   -3.5063701   -2.0669473  0.066579234   -3.5063701    1.4394228      8192000 
  321000   0.96002186   -3.5069905   -3.5069905   -2.0669581  0.065020405   -3.5069905    1.4400324      8192000 
  322000   0.96025533   -3.5073368   -3.5073368   -2.0669541  0.064222289   -3.5073368    1.4403826      8192000 
  323000   0.96008057    -3.507385    -3.507385   -2.0672646  0.065043053    -3.507385    1.4401205      8192000 
  324000   0.95979042    -3.507293    -3.507293   -2.0676078  0.063696965    -3.507293    1.4396853      8192000 
  325000   0.95976983   -3.5069831   -3.5069831   -2.0673287  0.065830859   -3.5069831    1.4396544      8192000 
  326000   0.95947261   -3.5065556   -3.5065556   -2.0673471  0.064343383   -3.5065556    1.4392086      8192000 
  327000   0.95941333   -3.5067482   -3.5067482   -2.0676285  0.063977124   -3.5067482    1.4391196      8192000 
  328000   0.95918202   -3.5064195   -3.5064195   -2.0676468  0.062921566   -3.5064195    1.4387727      8192000 
  329000   0.95890799   -3.5062539   -3.5062539   -2.0678923  0.062242421   -3.5062539    1.4383616      8192000 
  330000   0.95872055   -3.5061613   -3.5061613   -2.0680808  0.063377549   -3.5061613    1.4380805      8192000 
  331000   0.95849137   -3.5063345   -3.5063345   -2.0685978  0.059867931   -3.5063345    1.4377367      8192000 
  332000    0.9580779   -3.5060383   -3.5060383   -2.0689218  0.060403777   -3.5060383    1.4371165      8192000 
  333000   0.95777317   -3.5059423   -3.5059423   -2.0692829  0.059883175   -3.5059423    1.4366594      8192000 
  334000    0.9579368    -3.506643    -3.506643   -2.0697382  0.058603499    -3.506643    1.4369048      8192000 
  335000   0.95769552    -3.506655    -3.506655   -2.0701121  0.058516718    -3.506655    1.4365429      8192000 
  336000   0.95724038   -3.5066025   -3.5066025   -2.0707422  0.058296248   -3.5066025    1.4358602      8192000 
  337000    0.9570703   -3.5066794   -3.5066794   -2.0710743  0.057605297   -3.5066794    1.4356051      8192000 
  338000   0.95720318   -3.5071481   -3.5071481   -2.0713437  0.056825246   -3.5071481    1.4358044      8192000 
  339000   0.95698886   -3.5074144   -3.5074144   -2.0719315  0.057775122   -3.5074144    1.4354829      8192000 
  340000     0.956867   -3.5075206   -3.5075206   -2.0722205  0.057785075   -3.5075206    1.4353001      8192000 
  341000   0.95718024   -3.5081657   -3.5081657   -2.0723957  0.059540107   -3.5081657      1.43577      8192000 
  342000   0.95764672   -3.5092784   -3.5092784   -2.0728086  0.059078925   -3.5092784    1.4364697      8192000 
  343000     0.957435   -3.5096594   -3.5096594   -2.0735073  0.058691272   -3.5096594    1.4361521      8192000 
  344000   0.95775731   -3.5102417   -3.5102417   -2.0736061  0.058494053   -3.5102417    1.4366356      8192000 
  345000   0.95802537   -3.5109638   -3.5109638   -2.0739261  0.058584063   -3.5109638    1.4370377      8192000 
  346000   0.95758449    -3.510614    -3.510614   -2.0742376  0.060612131    -3.510614    1.4363764      8192000 
  347000   0.95791601   -3.5112248   -3.5112248   -2.0743511  0.061343579   -3.5112248    1.4368737      8192000 
  348000   0.95791205   -3.5117625   -3.5117625   -2.0748948   0.06298419   -3.5117625    1.4368677      8192000 
  349000   0.95839725    -3.512738    -3.512738   -2.0751424  0.064049591    -3.512738    1.4375955      8192000 
  350000   0.95863377   -3.5132048   -3.5132048   -2.0752545  0.063565943   -3.5132048    1.4379503      8192000 
  351000   0.95890975   -3.5138438   -3.5138438   -2.0754795  0.064780909   -3.5138438    1.4383643      8192000 
  352000   0.95950236   -3.5148955   -3.5148955   -2.0756423  0.064959298   -3.5148955    1.4392532      8192000 
  353000   0.95976168   -3.5155823   -3.5155823   -2.0759402  0.064123418   -3.5155823    1.4396422      8192000 
  354000   0.95888808   -3.5146766   -3.5146766   -2.0763449  0.065786509   -3.5146766    1.4383318      8192000 
  355000   0.95953332   -3.5158659   -3.5158659   -2.0765663  0.063708215   -3.5158659    1.4392996      8192000 
  356000   0.95938465    -3.515854    -3.515854   -2.0767774  0.067199147    -3.515854    1.4390766      8192000 
  357000   0.95895749   -3.5154386   -3.5154386   -2.0770028  0.067065472   -3.5154386    1.4384359      8192000 
  358000   0.95937972   -3.5161065   -3.5161065   -2.0770373  0.067024605   -3.5161065    1.4390692      8192000 
  359000    0.9593773   -3.5157859   -3.5157859   -2.0767203    0.0679158   -3.5157859    1.4390656      8192000 
  360000   0.95976394   -3.5164311   -3.5164311   -2.0767855  0.066824879   -3.5164311    1.4396456      8192000 
  361000    0.9594178   -3.5162537   -3.5162537   -2.0771274  0.064986383   -3.5162537    1.4391263      8192000 
  362000   0.95923258   -3.5161392   -3.5161392   -2.0772907  0.065660515   -3.5161392    1.4388485      8192000 
  363000   0.95880099   -3.5157229   -3.5157229   -2.0775217  0.063922441   -3.5157229    1.4382011      8192000 
  364000   0.95911339   -3.5161329   -3.5161329   -2.0774632  0.063332988   -3.5161329    1.4386697      8192000 
  365000   0.95828323   -3.5147891   -3.5147891   -2.0773646  0.066028258   -3.5147891    1.4374245      8192000 
  366000   0.95803724   -3.5146099   -3.5146099   -2.0775544  0.064036882   -3.5146099    1.4370555      8192000 
  367000   0.95823325   -3.5147244   -3.5147244   -2.0773749  0.061881232   -3.5147244    1.4373495      8192000 
  368000   0.95799399   -3.5143545   -3.5143545   -2.0773638  0.062550272   -3.5143545    1.4369906      8192000 
  369000   0.95780813    -3.514157    -3.514157   -2.0774451  0.060735423    -3.514157    1.4367118      8192000 
  370000   0.95739459   -3.5136672   -3.5136672   -2.0775757  0.059767676   -3.5136672    1.4360915      8192000 
  371000   0.95736354   -3.5135307   -3.5135307   -2.0774857  0.060733258   -3.5135307     1.436045      8192000 
  372000   0.95726578   -3.5132279   -3.5132279   -2.0773296  0.059627586   -3.5132279    1.4358983      8192000 
  373000   0.95735257   -3.5134106   -3.5134106   -2.0773821  0.058771764   -3.5134106    1.4360285      8192000 
  374000    0.9572882   -3.5135563   -3.5135563   -2.0776244  0.059905754   -3.5135563    1.4359319      8192000 
  375000   0.95730999   -3.5132495   -3.5132495   -2.0772848  0.058455729   -3.5132495    1.4359646      8192000 
  376000   0.95707327   -3.5131219   -3.5131219   -2.0775123  0.059595263   -3.5131219    1.4356095      8192000 
  377000   0.95714173   -3.5130668   -3.5130668   -2.0773545  0.058987245   -3.5130668    1.4357122      8192000 
  378000   0.95690052   -3.5125631   -3.5125631   -2.0772127  0.060328854   -3.5125631    1.4353504      8192000 
  379000   0.95699787   -3.5126485   -3.5126485   -2.0771521  0.059383621   -3.5126485    1.4354964      8192000 
  380000    0.9571547   -3.5126934   -3.5126934   -2.0769617  0.060546602   -3.5126934    1.4357317      8192000 
  381000   0.95749432   -3.5133147   -3.5133147   -2.0770735  0.060816633   -3.5133147    1.4362411      8192000 
  382000   0.95756318   -3.5132798   -3.5132798   -2.0769354  0.062087242   -3.5132798    1.4363444      8192000 
  383000    0.9580915   -3.5140301   -3.5140301   -2.0768932  0.059311749   -3.5140301    1.4371369      8192000 
  384000   0.95776024   -3.5133722   -3.5133722   -2.0767322  0.061687997   -3.5133722      1.43664      8192000 
  385000   0.95772205   -3.5134136   -3.5134136   -2.0768309  0.065201203   -3.5134136    1.4365827      8192000 
  386000   0.95813479   -3.5142695   -3.5142695   -2.0770677  0.063159404   -3.5142695    1.4372018      8192000 
  387000   0.95822238   -3.5141608   -3.5141608   -2.0768275  0.063039441   -3.5141608    1.4373332      8192000 
  388000   0.95852677    -3.514592    -3.514592   -2.0768022  0.062800505    -3.514592    1.4377898      8192000 
  389000   0.95849972   -3.5144248   -3.5144248   -2.0766756  0.062765573   -3.5144248    1.4377492      8192000 
  390000   0.95840145   -3.5140738   -3.5140738   -2.0764719  0.064731717   -3.5140738    1.4376018      8192000 
  391000   0.95874361   -3.5143743   -3.5143743   -2.0762592  0.065796951   -3.5143743    1.4381151      8192000 
  392000   0.95860631   -3.5141575   -3.5141575   -2.0762484  0.063870338   -3.5141575    1.4379091      8192000 
  393000   0.95862462   -3.5143841   -3.5143841   -2.0764475  0.064326556   -3.5143841    1.4379366      8192000 
  394000   0.95892611   -3.5151105   -3.5151105   -2.0767217  0.063495328   -3.5151105    1.4383888      8192000 
  395000   0.95848065   -3.5143038   -3.5143038   -2.0765832  0.064795528   -3.5143038    1.4377206      8192000 
  396000    0.9584703   -3.5140454   -3.5140454   -2.0763403  0.065391897   -3.5140454    1.4377051      8192000 
  397000   0.95832469   -3.5139171   -3.5139171   -2.0764304  0.063898124   -3.5139171    1.4374867      8192000 
  398000   0.95846403   -3.5140411   -3.5140411   -2.0763454  0.063247127   -3.5140411    1.4376957      8192000 
  399000   0.95842621   -3.5139979   -3.5139979    -2.076359  0.062788942   -3.5139979     1.437639      8192000 
  400000   0.95802488   -3.5133886   -3.5133886   -2.0763516    0.0638044   -3.5133886     1.437037      8192000 
  401000   0.95806578   -3.5135726   -3.5135726   -2.0764742  0.063182682   -3.5135726    1.4370983      8192000 
  402000   0.95766954   -3.5129197   -3.5129197   -2.0764157  0.061602191   -3.5129197     1.436504      8192000 
  403000   0.95748787   -3.5128312   -3.5128312   -2.0765997  0.061337896   -3.5128312    1.4362314      8192000 
  404000   0.95752803    -3.512816    -3.512816   -2.0765244  0.060934882    -3.512816    1.4362917      8192000 
  405000   0.95732504   -3.5124119   -3.5124119   -2.0764247  0.060481323   -3.5124119    1.4359872      8192000 
  406000   0.95734201   -3.5124396   -3.5124396   -2.0764269  0.060281875   -3.5124396    1.4360127      8192000 
  407000   0.95767284   -3.5128374   -3.5128374   -2.0763285  0.057593227   -3.5128374    1.4365089      8192000 
  408000   0.95738735   -3.5123535   -3.5123535   -2.0762728  0.058634016   -3.5123535    1.4360807      8192000 
  409000   0.95703743   -3.5117711   -3.5117711   -2.0762153  0.060623328   -3.5117711    1.4355558      8192000 
  410000   0.95687487   -3.5115243   -3.5115243   -2.0762123    0.0592733   -3.5115243     1.435312      8192000 
  411000   0.95675345   -3.5113991   -3.5113991   -2.0762692  0.057978496   -3.5113991    1.4351298      8192000 
  412000   0.95692656   -3.5116765   -3.5116765   -2.0762871  0.059154752   -3.5116765    1.4353895      8192000 
  413000   0.95656085   -3.5110216   -3.5110216   -2.0761807  0.058644236   -3.5110216    1.4348409      8192000 
  414000   0.95612935   -3.5106451   -3.5106451   -2.0764514  0.059810268   -3.5106451    1.4341937      8192000 
  415000   0.95654681   -3.5112719   -3.5112719   -2.0764521  0.059905739   -3.5112719    1.4348199      8192000 
  416000   0.95638511   -3.5111684   -3.5111684   -2.0765911  0.058705069   -3.5111684    1.4345773      8192000 
  417000   0.95665886   -3.5116147   -3.5116147   -2.0766267  0.057793967   -3.5116147    1.4349879      8192000 
  418000   0.95645613   -3.5111933   -3.5111933   -2.0765094  0.060577983   -3.5111933    1.4346838      8192000 
  419000   0.95700265   -3.5122329   -3.5122329   -2.0767293  0.059702717   -3.5122329    1.4355036      8192000 
  420000   0.95663646   -3.5116804   -3.5116804    -2.076726  0.061443075   -3.5116804    1.4349543      8192000 
  421000   0.95654503   -3.5115263   -3.5115263   -2.0767092  0.060586524   -3.5115263    1.4348172      8192000 
  422000   0.95700052   -3.5121396   -3.5121396   -2.0766392  0.060185841   -3.5121396    1.4355004      8192000 
  423000   0.95667126    -3.511809    -3.511809   -2.0768024  0.061402564    -3.511809    1.4350065      8192000 
  424000   0.95778938   -3.5131366   -3.5131366   -2.0764529  0.060952336   -3.5131366    1.4366837      8192000 
  425000   0.95761991   -3.5130489   -3.5130489   -2.0766194  0.062633409   -3.5130489    1.4364295      8192000 
  426000   0.95711995   -3.5125513   -3.5125513   -2.0768717  0.062012401   -3.5125513    1.4356796      8192000 
  427000    0.9574206   -3.5131756   -3.5131756    -2.077045  0.061148112   -3.5131756    1.4361305      8192000 
  428000   0.95829144   -3.5146051   -3.5146051   -2.0771683  0.059361667   -3.5146051    1.4374368      8192000 
  429000   0.95797287   -3.5137868   -3.5137868   -2.0768279  0.061724856   -3.5137868    1.4369589      8192000 
  430000   0.95731173   -3.5126362   -3.5126362   -2.0766689  0.065726252   -3.5126362    1.4359672      8192000 
  431000   0.95784398   -3.5133458   -3.5133458   -2.0765802   0.06294369   -3.5133458    1.4367656      8192000 
  432000   0.95796344   -3.5138054   -3.5138054   -2.0768605  0.064142758   -3.5138054    1.4369448      8192000 
  433000   0.95794256   -3.5136038   -3.5136038   -2.0766903  0.062599932   -3.5136038    1.4369135      8192000 
  434000   0.95779539   -3.5135396   -3.5135396   -2.0768469  0.061555386   -3.5135396    1.4366927      8192000 
  435000   0.95787636   -3.5136967   -3.5136967   -2.0768826  0.061040385   -3.5136967    1.4368142      8192000 
  436000   0.95766229   -3.5134816   -3.5134816   -2.0769886  0.061393764   -3.5134816    1.4364931      8192000 
  437000   0.95756013   -3.5130108   -3.5130108   -2.0766709  0.061537248   -3.5130108    1.4363398      8192000 
  438000   0.95723869   -3.5127342   -3.5127342   -2.0768765  0.061811227   -3.5127342    1.4358577      8192000 
  439000   0.95697456   -3.5123952   -3.5123952   -2.0769337  0.060608443   -3.5123952    1.4354615      8192000 
  440000   0.95701217   -3.5124839   -3.5124839    -2.076966  0.060362224   -3.5124839    1.4355179      8192000 
  441000   0.95676817   -3.5122044   -3.5122044   -2.0770525  0.058453031   -3.5122044    1.4351519      8192000 
  442000   0.95672927    -3.511872    -3.511872   -2.0767784  0.057600579    -3.511872    1.4350936      8192000 
  443000   0.95642827   -3.5117916   -3.5117916   -2.0771495  0.060208024   -3.5117916     1.434642      8192000 
  444000   0.95599716   -3.5111325   -3.5111325   -2.0771371  0.059759224   -3.5111325    1.4339954      8192000 
  445000   0.95635555   -3.5114491   -3.5114491   -2.0769161  0.060038989   -3.5114491     1.434533      8192000 
  446000   0.95644107   -3.5114735   -3.5114735   -2.0768123  0.061026826   -3.5114735    1.4346612      8192000 
  447000   0.95631384   -3.5113796   -3.5113796   -2.0769092  0.058947342   -3.5113796    1.4344704      8192000 
  448000   0.95562669   -3.5105344   -3.5105344   -2.0770947  0.058510566   -3.5105344    1.4334397      8192000 
  449000   0.95609027   -3.5111928   -3.5111928   -2.0770577  0.057512609   -3.5111928    1.4341351      8192000 
  450000   0.95603373   -3.5110346   -3.5110346   -2.0769843  0.058614324   -3.5110346    1.4340502      8192000 
  451000   0.95590005   -3.5106876   -3.5106876   -2.0768378  0.056472637   -3.5106876    1.4338497      8192000 
  452000   0.95622155    -3.511381    -3.511381    -2.077049  0.057729172    -3.511381     1.434332      8192000 
  453000   0.95665232   -3.5117218   -3.5117218   -2.0767437  0.057705991   -3.5117218    1.4349781      8192000 
  454000   0.95637331   -3.5113806   -3.5113806    -2.076821  0.058193003   -3.5113806    1.4345596      8192000 
  455000    0.9562942   -3.5109456   -3.5109456   -2.0765046  0.059680123   -3.5109456    1.4344409      8192000 
  456000    0.9569566   -3.5116883   -3.5116883   -2.0762537  0.057496981   -3.5116883    1.4354345      8192000 
  457000   0.95669031   -3.5112464   -3.5112464   -2.0762113  0.057574054   -3.5112464    1.4350351      8192000 
  458000   0.95667413   -3.5112419   -3.5112419    -2.076231  0.060120883   -3.5112419    1.4350108      8192000 
  459000   0.95714374   -3.5118291   -3.5118291   -2.0761138  0.061410632   -3.5118291    1.4357153      8192000 
  460000   0.95733448   -3.5120763   -3.5120763   -2.0760749  0.062353201   -3.5120763    1.4360014      8192000 
  461000   0.95781838   -3.5127137   -3.5127137   -2.0759865  0.064033039   -3.5127137    1.4367272      8192000 
  462000   0.95752175   -3.5122201   -3.5122201   -2.0759378  0.061613562   -3.5122201    1.4362823      8192000 
  463000   0.95797029   -3.5128136   -3.5128136   -2.0758585  0.064194654   -3.5128136    1.4369551      8192000 
  464000   0.95850925    -3.513544    -3.513544   -2.0757805  0.062763462    -3.513544    1.4377635      8192000 
  465000   0.95844753   -3.5137046   -3.5137046   -2.0760337  0.065408195   -3.5137046    1.4376709      8192000 
  466000   0.95868172   -3.5139772   -3.5139772   -2.0759549  0.067039765   -3.5139772    1.4380222      8192000 
  467000   0.95932677   -3.5146894   -3.5146894   -2.0756996  0.067549692   -3.5146894    1.4389898      8192000 
  468000   0.96003617   -3.5155092   -3.5155092   -2.0754553  0.069226637   -3.5155092    1.4400539      8192000 
  469000    0.9603265   -3.5161804   -3.5161804    -2.075691  0.070205827   -3.5161804    1.4404894      8192000 
  470000   0.96086054   -3.5167077   -3.5167077   -2.0754173  0.072965752   -3.5167077    1.4412905      8192000 
  471000   0.96176304   -3.5178791   -3.5178791   -2.0752349  0.074480438   -3.5178791    1.4426442      8192000 
  472000   0.96220041   -3.5185194   -3.5185194   -2.0752191  0.076246197   -3.5185194    1.4433003      8192000 
  473000   0.96287402   -3.5196961   -3.5196961   -2.0753854   0.07955339   -3.5196961    1.4443107      8192000 
  474000    0.9637553   -3.5207753   -3.5207753   -2.0751427  0.082986383   -3.5207753    1.4456326      8192000 
  475000   0.96479147   -3.5224417   -3.5224417   -2.0752549  0.084100094   -3.5224417    1.4471868      8192000 
  476000   0.96561024   -3.5236149   -3.5236149   -2.0751999  0.087237494   -3.5236149     1.448415      8192000 
  477000   0.96664973   -3.5252686   -3.5252686   -2.0752944  0.090497595   -3.5252686    1.4499742      8192000 
  478000   0.96768864   -3.5265935   -3.5265935   -2.0750609  0.091823855   -3.5265935    1.4515326      8192000 
  479000   0.96855102   -3.5278694   -3.5278694   -2.0750433  0.098975161   -3.5278694    1.4528262      8192000 
  480000   0.97003559   -3.5298947   -3.5298947   -2.0748417   0.10101857   -3.5298947     1.455053      8192000 
  481000   0.97054922   -3.5307856   -3.5307856   -2.0749621   0.10623008   -3.5307856    1.4558235      8192000 
  482000   0.97169703   -3.5325245   -3.5325245   -2.0749793   0.10875035   -3.5325245    1.4575452      8192000 
  483000   0.97261154   -3.5337978   -3.5337978   -2.0748809   0.10920373   -3.5337978    1.4589169      8192000 
  484000   0.97328797   -3.5347656   -3.5347656    -2.074834   0.11403974   -3.5347656    1.4599316      8192000 
  485000   0.97398024   -3.5356059   -3.5356059   -2.0746359   0.11542474   -3.5356059      1.46097      8192000 
  486000   0.97488353   -3.5371491   -3.5371491   -2.0748241   0.11745293   -3.5371491    1.4623249      8192000 
  487000   0.97473436   -3.5369255   -3.5369255   -2.0748243    0.1189538   -3.5369255    1.4621012      8192000 
  488000   0.97567015   -3.5383825   -3.5383825   -2.0748776   0.12102843   -3.5383825    1.4635049      8192000 
  489000    0.9758518     -3.53878     -3.53878   -2.0750027   0.12033299     -3.53878    1.4637773      8192000 
  490000   0.97546828   -3.5381968   -3.5381968   -2.0749947   0.12079034   -3.5381968    1.4632021      8192000 
  491000   0.97569728   -3.5384969   -3.5384969   -2.0749514    0.1176613   -3.5384969    1.4635456      8192000 
  492000   0.97548784   -3.5385273   -3.5385273   -2.0752959   0.12178231   -3.5385273    1.4632314      8192000 
  493000   0.97568432   -3.5386617   -3.5386617   -2.0751356   0.11714828   -3.5386617    1.4635261      8192000 
  494000   0.97507643   -3.5378566   -3.5378566   -2.0752424   0.11431425   -3.5378566    1.4626143      8192000 
  495000   0.97464617   -3.5372245   -3.5372245   -2.0752556   0.11364639   -3.5372245    1.4619689      8192000 
  496000   0.97385993   -3.5358341   -3.5358341   -2.0750446   0.11220469   -3.5358341    1.4607895      8192000 
  497000   0.97281916   -3.5340906   -3.5340906   -2.0748623   0.10914905   -3.5340906    1.4592284      8192000 
  498000   0.97228344   -3.5331702   -3.5331702   -2.0747454   0.10711605   -3.5331702    1.4584248      8192000 
  499000   0.97124499   -3.5320784   -3.5320784   -2.0752113   0.10239935   -3.5320784    1.4568671      8192000 
  500000    0.9702245   -3.5304566   -3.5304566   -2.0751202  0.099740845   -3.5304566    1.4553364      8192000 
  501000   0.96950349   -3.5292956   -3.5292956   -2.0750407  0.098195702   -3.5292956    1.4542549      8192000 
  502000   0.96858141   -3.5280188   -3.5280188   -2.0751471  0.091771098   -3.5280188    1.4528718      8192000 
  503000   0.96748575   -3.5263691   -3.5263691   -2.0751408  0.089118565   -3.5263691    1.4512283      8192000 
  504000   0.96640297    -3.524668    -3.524668   -2.0750639   0.08555563    -3.524668    1.4496041      8192000 
  505000   0.96549514   -3.5230979   -3.5230979   -2.0748556  0.082999772   -3.5230979    1.4482423      8192000 
  506000   0.96441836    -3.521564    -3.521564   -2.0749368  0.079732658    -3.521564    1.4466272      8192000 
  507000   0.96367013   -3.5203661   -3.5203661   -2.0748612   0.07584681   -3.5203661    1.4455048      8192000 
  508000    0.9626817   -3.5189767   -3.5189767   -2.0749545  0.073329574   -3.5189767    1.4440222      8192000 
  509000   0.96209531   -3.5182023   -3.5182023   -2.0750597  0.071591156   -3.5182023    1.4431426      8192000 
  510000   0.96118959   -3.5168052   -3.5168052   -2.0750212  0.070430741   -3.5168052     1.441784      8192000 
  511000    0.9608569   -3.5160101   -3.5160101   -2.0747251  0.067284992   -3.5160101     1.441285      8192000 
  512000   0.96032966    -3.514797    -3.514797   -2.0743029  0.066296089    -3.514797    1.4404941      8192000 
  513000   0.95965453   -3.5138154   -3.5138154   -2.0743339  0.065173689   -3.5138154    1.4394814      8192000 
  514000   0.95937763   -3.5135069   -3.5135069   -2.0744409  0.061488498   -3.5135069    1.4390661      8192000 
  515000   0.95804586   -3.5118381   -3.5118381   -2.0747697  0.061999049   -3.5118381    1.4370684      8192000 
  516000   0.95818437   -3.5121093   -3.5121093   -2.0748331  0.058570941   -3.5121093    1.4372762      8192000 
  517000   0.95797451   -3.5116788   -3.5116788   -2.0747174  0.057898765   -3.5116788    1.4369614      8192000 
  518000   0.95767488   -3.5112596   -3.5112596   -2.0747477  0.058189426   -3.5112596     1.436512      8192000 
  519000   0.95815261   -3.5119199   -3.5119199   -2.0746914  0.058124201   -3.5119199    1.4372286      8192000 
  520000   0.95768073    -3.511073    -3.511073   -2.0745523  0.058354917    -3.511073    1.4365207      8192000 
  521000   0.95733431   -3.5106403   -3.5106403   -2.0746392  0.056085263   -3.5106403    1.4360011      8192000 
  522000   0.95713057    -3.510238    -3.510238   -2.0745425  0.055150706    -3.510238    1.4356955      8192000 
  523000   0.95723124   -3.5102543   -3.5102543   -2.0744078  0.059130532   -3.5102543    1.4358465      8192000 
  524000    0.9575272   -3.5109268   -3.5109268   -2.0746363  0.056435831   -3.5109268    1.4362904      8192000 
  525000   0.95765802    -3.511017    -3.511017   -2.0745304  0.056679176    -3.511017    1.4364867      8192000 
  526000    0.9574405    -3.510819    -3.510819   -2.0746586  0.057461355    -3.510819    1.4361604      8192000 
  527000   0.95808385   -3.5113941   -3.5113941   -2.0742687  0.057944831   -3.5113941    1.4371254      8192000 
  528000   0.95815323    -3.511658    -3.511658   -2.0744285  0.057260238    -3.511658    1.4372295      8192000 
  529000   0.95818979   -3.5118587   -3.5118587   -2.0745744   0.05964005   -3.5118587    1.4372843      8192000 
  530000    0.9588751   -3.5128125   -3.5128125   -2.0745002  0.060192271   -3.5128125    1.4383123      8192000 
  531000   0.95868914    -3.512897    -3.512897   -2.0748636  0.060141275    -3.512897    1.4380334      8192000 
  532000   0.95897654   -3.5135014   -3.5135014   -2.0750369  0.060839409   -3.5135014    1.4384644      8192000 
  533000   0.95886404   -3.5132831   -3.5132831   -2.0749874  0.059668997   -3.5132831    1.4382957      8192000 
  534000      0.95908    -3.513687    -3.513687   -2.0750674  0.060160905    -3.513687    1.4386196      8192000 
  535000   0.95903758   -3.5135841   -3.5135841   -2.0750281  0.061517521   -3.5135841     1.438556      8192000 
  536000   0.95927014   -3.5135365   -3.5135365   -2.0746317  0.063597824   -3.5135365    1.4389049      8192000 
  537000   0.95991754   -3.5146704   -3.5146704   -2.0747945  0.061741208   -3.5146704     1.439876      8192000 
  538000   0.95973304   -3.5144983   -3.5144983   -2.0748991  0.063549786   -3.5144983    1.4395992      8192000 
  539000   0.95962859   -3.5147169   -3.5147169   -2.0752744  0.062901503   -3.5147169    1.4394425      8192000 
  540000   0.95983568   -3.5150697   -3.5150697   -2.0753165  0.063739093   -3.5150697    1.4397532      8192000 
  541000   0.95980239   -3.5152461   -3.5152461   -2.0755429  0.063618477   -3.5152461    1.4397032      8192000 
  542000   0.95905952   -3.5145074   -3.5145074   -2.0759185  0.061450719   -3.5145074    1.4385889      8192000 
  543000   0.95913303   -3.5148017   -3.5148017   -2.0761025   0.06422353   -3.5148017    1.4386992      8192000 
  544000   0.95956224   -3.5156527   -3.5156527   -2.0763097  0.059981335   -3.5156527     1.439343      8192000 
  545000   0.95960389   -3.5159707   -3.5159707   -2.0765652  0.061885217   -3.5159707    1.4394055      8192000 
  546000   0.95963086   -3.5161103   -3.5161103   -2.0766644  0.060456832   -3.5161103    1.4394459      8192000 
  547000   0.95905555   -3.5157951   -3.5157951   -2.0772121  0.060975566   -3.5157951     1.438583      8192000 
  548000   0.95867079   -3.5151864   -3.5151864   -2.0771805  0.061550606   -3.5151864    1.4380058      8192000 
  549000   0.95825639   -3.5149025   -3.5149025   -2.0775183  0.061773777   -3.5149025    1.4373842      8192000 
  550000   0.95824656   -3.5150916   -3.5150916   -2.0777221  0.059496538   -3.5150916    1.4373695      8192000 
  551000   0.95842299   -3.5156249   -3.5156249   -2.0779907  0.057732503   -3.5156249    1.4376341      8192000 
  552000   0.95848587   -3.5159673   -3.5159673   -2.0782389  0.057886933   -3.5159673    1.4377284      8192000 
  553000   0.95837387   -3.5159429   -3.5159429   -2.0783825  0.059273276   -3.5159429    1.4375604      8192000 
  554000    0.9581809    -3.516204    -3.516204    -2.078933  0.058621493    -3.516204     1.437271      8192000 
  555000   0.95807379   -3.5158641   -3.5158641   -2.0787537  0.058078478   -3.5158641    1.4371103      8192000 
  556000   0.95775106   -3.5158584   -3.5158584   -2.0792321   0.06088514   -3.5158584    1.4366262      8192000 
  557000   0.95820803   -3.5165052   -3.5165052   -2.0791935  0.059676609   -3.5165052    1.4373117      8192000 
  558000   0.95835722    -3.516847    -3.516847   -2.0793115  0.059270104    -3.516847    1.4375355      8192000 
  559000   0.95781251   -3.5161996   -3.5161996   -2.0794812  0.060204255   -3.5161996    1.4367184      8192000 
  560000   0.95847244   -3.5169976   -3.5169976   -2.0792893  0.057635837   -3.5169976    1.4377083      8192000 
  561000   0.95811924   -3.5167912   -3.5167912   -2.0796127   0.05857379   -3.5167912    1.4371785      8192000 
  562000   0.95784001   -3.5165851   -3.5165851   -2.0798255  0.060557583   -3.5165851    1.4367597      8192000 
  563000   0.95825175   -3.5172388   -3.5172388   -2.0798615  0.058626273   -3.5172388    1.4373773      8192000 
  564000   0.95803668   -3.5172115   -3.5172115   -2.0801569  0.058616714   -3.5172115    1.4370547      8192000 
  565000   0.95857719   -3.5180178   -3.5180178   -2.0801523  0.056698572   -3.5180178    1.4378654      8192000 
  566000   0.95854017   -3.5182094   -3.5182094   -2.0803995  0.058151619   -3.5182094    1.4378099      8192000 
  567000    0.9577634   -3.5171611   -3.5171611   -2.0805164  0.060614862   -3.5171611    1.4366447      8192000 
  568000   0.95805754   -3.5176439   -3.5176439    -2.080558  0.059248488   -3.5176439     1.437086      8192000 
  569000   0.95814498   -3.5176947   -3.5176947   -2.0804776  0.061079638   -3.5176947    1.4372171      8192000 
  570000   0.95840196    -3.518148    -3.518148   -2.0805454  0.059196956    -3.518148    1.4376026      8192000 
  571000   0.95825556   -3.5179247   -3.5179247   -2.0805417   0.06117696   -3.5179247     1.437383      8192000 
  572000   0.95878663   -3.5190584   -3.5190584   -2.0808788  0.060458008   -3.5190584    1.4381796      8192000 
  573000   0.95846508   -3.5184318   -3.5184318   -2.0807345  0.060986851   -3.5184318    1.4376973      8192000 
  574000   0.95886723   -3.5188937   -3.5188937   -2.0805932  0.063266464   -3.5188937    1.4383005      8192000 
  575000   0.95919814   -3.5193903   -3.5193903   -2.0805934  0.060992832   -3.5193903    1.4387969      8192000 
  576000   0.95862729   -3.5184925   -3.5184925   -2.0805519  0.061190988   -3.5184925    1.4379406      8192000 
  577000   0.95858806   -3.5186913   -3.5186913   -2.0808095  0.062735596   -3.5186913    1.4378817      8192000 
  578000   0.95868305   -3.5189923   -3.5189923   -2.0809681  0.062523928   -3.5189923    1.4380242      8192000 
  579000   0.95893203   -3.5192614   -3.5192614   -2.0808637   0.06096659   -3.5192614    1.4383977      8192000 
  580000   0.95850493   -3.5184292   -3.5184292   -2.0806722  0.058922542   -3.5184292     1.437757      8192000 
  581000   0.95823296   -3.5179419   -3.5179419   -2.0805928  0.059860603   -3.5179419    1.4373491      8192000 
  582000   0.95831161   -3.5183389   -3.5183389   -2.0808719  0.060444151   -3.5183389    1.4374671      8192000 
  583000    0.9587118   -3.5188738   -3.5188738   -2.0808064  0.061064516   -3.5188738    1.4380674      8192000 
  584000   0.95865529   -3.5185995   -3.5185995   -2.0806169  0.060683591   -3.5185995    1.4379826      8192000 
  585000   0.95824718   -3.5180921   -3.5180921   -2.0807217  0.061592753   -3.5180921    1.4373704      8192000 
  586000   0.95866952   -3.5186669   -3.5186669   -2.0806629  0.060041372   -3.5186669    1.4380039      8192000 
  587000   0.95775829   -3.5171044   -3.5171044   -2.0804673  0.060194007   -3.5171044    1.4366371      8192000 
  588000   0.95791155   -3.5176109   -3.5176109   -2.0807439  0.057290401   -3.5176109     1.436867      8192000 
  589000   0.95770006   -3.5172313   -3.5172313   -2.0806816  0.059089906   -3.5172313    1.4365497      8192000 
  590000   0.95797629   -3.5176331   -3.5176331    -2.080669  0.058825654   -3.5176331    1.4369641      8192000 
  591000   0.95820352   -3.5178708   -3.5178708   -2.0805659  0.060070429   -3.5178708    1.4373049      8192000 
  592000    0.9575335   -3.5170608   -3.5170608   -2.0807609  0.059535565   -3.5170608    1.4362999      8192000 
  593000    0.9581849    -3.517708    -3.517708    -2.080431   0.05988897    -3.517708     1.437277      8192000 
  594000   0.95833711   -3.5173989   -3.5173989   -2.0798936  0.058628886   -3.5173989    1.4375053      8192000 
  595000   0.95801371   -3.5168618   -3.5168618   -2.0798416  0.060136481   -3.5168618    1.4370202      8192000 
  596000   0.95822219   -3.5175282   -3.5175282   -2.0801953  0.059936935   -3.5175282    1.4373329      8192000 
  597000   0.95791169   -3.5170505   -3.5170505   -2.0801833  0.059371451   -3.5170505    1.4368672      8192000 
  598000   0.95796268   -3.5170721   -3.5170721   -2.0801284  0.059793407   -3.5170721    1.4369437      8192000 
  599000   0.95765644    -3.516789    -3.516789   -2.0803047  0.061089611    -3.516789    1.4364843      8192000 
  600000   0.95790486   -3.5170554   -3.5170554   -2.0801985   0.05885006   -3.5170554    1.4368569      8192000 
  601000   0.95772967   -3.5167939   -3.5167939   -2.0801997  0.061213546   -3.5167939    1.4365941      8192000 
  602000   0.95801978   -3.5171894   -3.5171894   -2.0801601  0.060117705   -3.5171894    1.4370293      8192000 
  603000   0.95816609    -3.517476    -3.517476   -2.0802273   0.05773069    -3.517476    1.4372488      8192000 
  604000   0.95775623   -3.5169514   -3.5169514   -2.0803174  0.059689329   -3.5169514     1.436634      8192000 
  605000   0.95776936   -3.5171786   -3.5171786   -2.0805249   0.05880248   -3.5171786    1.4366537      8192000 
  606000   0.95722641   -3.5164045   -3.5164045   -2.0805652  0.058669152   -3.5164045    1.4358393      8192000 
  607000   0.95791675   -3.5173796   -3.5173796   -2.0805048  0.059543756   -3.5173796    1.4368748      8192000 
  608000   0.95808273   -3.5176246   -3.5176246   -2.0805009   0.05889974   -3.5176246    1.4371237      8192000 
  609000   0.95819845   -3.5180244   -3.5180244   -2.0807271  0.058980807   -3.5180244    1.4372973      8192000 
  610000    0.9585117   -3.5180666   -3.5180666   -2.0802994  0.060181048   -3.5180666    1.4377672      8192000 
  611000   0.95825013   -3.5177727   -3.5177727   -2.0803978  0.060163208   -3.5177727    1.4373748      8192000 
  612000   0.95848776   -3.5182978   -3.5182978   -2.0805665  0.060028253   -3.5182978    1.4377313      8192000 
  613000   0.95886575   -3.5188685   -3.5188685   -2.0805702  0.059521362   -3.5188685    1.4382983      8192000 
  614000   0.95856684   -3.5185092   -3.5185092   -2.0806593  0.061292904   -3.5185092    1.4378499      8192000 
  615000   0.95874583   -3.5186995   -3.5186995   -2.0805811  0.061324096   -3.5186995    1.4381184      8192000 
  616000   0.95866722   -3.5185141   -3.5185141   -2.0805136  0.061106423   -3.5185141    1.4380005      8192000 
  617000   0.95841134   -3.5181128   -3.5181128   -2.0804962  0.062497882   -3.5181128    1.4376167      8192000 
  618000   0.95871316   -3.5184935   -3.5184935   -2.0804241  0.062124663   -3.5184935    1.4380694      8192000 
  619000   0.95860883   -3.5185818   -3.5185818   -2.0806689  0.061993606   -3.5185818    1.4379129      8192000 
  620000   0.95909206   -3.5191143   -3.5191143   -2.0804766  0.064772415   -3.5191143    1.4386377      8192000 
  621000   0.95969237   -3.5200444   -3.5200444   -2.0805062  0.063086778   -3.5200444    1.4395382      8192000 
  622000   0.95942521   -3.5199757   -3.5199757   -2.0808383  0.063460279   -3.5199757    1.4391375      8192000 
  623000   0.95950316    -3.519993    -3.519993   -2.0807387  0.063812775    -3.519993    1.4392544      8192000 
  624000   0.95961871   -3.5198897   -3.5198897    -2.080462  0.065046621   -3.5198897    1.4394277      8192000 
  625000   0.95994436   -3.5205631   -3.5205631   -2.0806469  0.063939436   -3.5205631    1.4399162      8192000 
  626000   0.95992722   -3.5207638   -3.5207638   -2.0808733  0.067885329   -3.5207638    1.4398905      8192000 
  627000   0.95983331   -3.5205142   -3.5205142   -2.0807646  0.068199644   -3.5205142    1.4397496      8192000 
  628000   0.96077254   -3.5218966   -3.5218966   -2.0807381  0.065964363   -3.5218966    1.4411584      8192000 
  629000   0.96007497    -3.520787    -3.520787   -2.0806749  0.067721618    -3.520787    1.4401121      8192000 
  630000   0.96080815   -3.5218662   -3.5218662   -2.0806544  0.068447858   -3.5218662    1.4412119      8192000 
  631000   0.96152247   -3.5228963   -3.5228963   -2.0806129  0.068449486   -3.5228963    1.4422834      8192000 
  632000   0.96127561   -3.5223545   -3.5223545   -2.0804414  0.068801105   -3.5223545    1.4419131      8192000 
  633000   0.96145539   -3.5227444   -3.5227444   -2.0805617  0.071887182   -3.5227444    1.4421827      8192000 
  634000   0.96170375   -3.5232871   -3.5232871   -2.0807318  0.073219607   -3.5232871    1.4425553      8192000 
  635000   0.96192608   -3.5236746   -3.5236746   -2.0807859  0.074111258   -3.5236746    1.4428888      8192000 
  636000   0.96290687   -3.5250837   -3.5250837   -2.0807237   0.07557262   -3.5250837      1.44436      8192000 
  637000    0.9629587    -3.524935    -3.524935   -2.0804973  0.075332884    -3.524935    1.4444377      8192000 
  638000   0.96338124   -3.5256126   -3.5256126   -2.0805411  0.077859886   -3.5256126    1.4450715      8192000 
  639000   0.96430798   -3.5269159   -3.5269159   -2.0804543  0.079439044   -3.5269159    1.4464616      8192000 
  640000   0.96468873   -3.5273794   -3.5273794   -2.0803466  0.080642994   -3.5273794    1.4470327      8192000 
  641000   0.96532879   -3.5282175   -3.5282175   -2.0802247  0.082609355   -3.5282175    1.4479928      8192000 
  642000   0.96595837   -3.5292049   -3.5292049   -2.0802677  0.083652932   -3.5292049    1.4489372      8192000 
  643000   0.96640513   -3.5299714   -3.5299714   -2.0803641  0.085020499   -3.5299714    1.4496073      8192000 
  644000   0.96693267   -3.5306927   -3.5306927    -2.080294  0.088156323   -3.5306927    1.4503987      8192000 
  645000   0.96746895   -3.5315058   -3.5315058   -2.0803028  0.087997704   -3.5315058    1.4512031      8192000 
  646000    0.9680542    -3.532299    -3.532299   -2.0802181  0.090875631    -3.532299    1.4520809      8192000 
  647000    0.9684111   -3.5330404   -3.5330404   -2.0804242  0.091948236   -3.5330404    1.4526163      8192000 
  648000   0.96922421   -3.5340654   -3.5340654   -2.0802295  0.093487025   -3.5340654     1.453836      8192000 
  649000   0.96923899   -3.5338783   -3.5338783   -2.0800202  0.094904022   -3.5338783    1.4538581      8192000 
  650000     0.969306   -3.5341347   -3.5341347   -2.0801761  0.096598346   -3.5341347    1.4539586      8192000 
  651000   0.96977122   -3.5350223   -3.5350223   -2.0803658  0.095578988   -3.5350223    1.4546565      8192000 
  652000   0.97004498   -3.5353891   -3.5353891    -2.080322   0.09691701   -3.5353891    1.4550671      8192000 
  653000    0.9703664   -3.5358829   -3.5358829   -2.0803337   0.09916525   -3.5358829    1.4555492      8192000 
  654000   0.97003655   -3.5354965   -3.5354965    -2.080442  0.096818448   -3.5354965    1.4550545      8192000 
  655000   0.97017502   -3.5356618   -3.5356618   -2.0803997  0.098306615   -3.5356618    1.4552622      8192000 
  656000   0.96990472   -3.5353172   -3.5353172   -2.0804605  0.098060838   -3.5353172    1.4548567      8192000 
  657000   0.97010091   -3.5353709   -3.5353709   -2.0802199  0.099135525   -3.5353709     1.455151      8192000 
  658000   0.97035302    -3.535391    -3.535391   -2.0798618  0.097132774    -3.535391    1.4555292      8192000 
  659000   0.97016549   -3.5352387   -3.5352387   -2.0799908  0.094258703   -3.5352387    1.4552479      8192000 
  660000   0.96950344   -3.5345846   -3.5345846   -2.0803298  0.095374249   -3.5345846    1.4542548      8192000 
  661000   0.96966844   -3.5348536   -3.5348536   -2.0803513   0.08974217   -3.5348536    1.4545023      8192000 
  662000   0.96844638   -3.5328915   -3.5328915   -2.0802223  0.093164103   -3.5328915    1.4526692      8192000 
  663000   0.96817241   -3.5324296   -3.5324296   -2.0801713  0.089374189   -3.5324296    1.4522583      8192000 
  664000   0.96781587   -3.5318661   -3.5318661   -2.0801426  0.089063967   -3.5318661    1.4517234      8192000 
  665000   0.96734022   -3.5312428   -3.5312428   -2.0802328  0.086237409   -3.5312428      1.45101      8192000 
  666000   0.96672822   -3.5301334   -3.5301334   -2.0800415  0.084458343   -3.5301334     1.450092      8192000 
  667000   0.96625951   -3.5294848   -3.5294848   -2.0800959  0.083443541   -3.5294848    1.4493889      8192000 
  668000   0.96516534   -3.5278155   -3.5278155   -2.0800679  0.082136003   -3.5278155    1.4477477      8192000 
  669000   0.96507362   -3.5277637   -3.5277637   -2.0801537  0.077773041   -3.5277637    1.4476101      8192000 
  670000   0.96430705   -3.5266775   -3.5266775   -2.0802173  0.076922039   -3.5266775    1.4464602      8192000 
  671000   0.96364477    -3.525891    -3.525891   -2.0804242  0.074163855    -3.525891    1.4454668      8192000 
  672000   0.96322602   -3.5252238   -3.5252238   -2.0803851  0.072570845   -3.5252238    1.4448387      8192000 
  673000    0.9629685   -3.5246271   -3.5246271   -2.0801747   0.07158553   -3.5246271    1.4444524      8192000 
  674000   0.96258499   -3.5240984   -3.5240984   -2.0802213  0.070271446   -3.5240984    1.4438771      8192000 
  675000   0.96202464   -3.5230447   -3.5230447   -2.0800081  0.071440632   -3.5230447    1.4430366      8192000 
  676000   0.96183702   -3.5227744   -3.5227744   -2.0800192  0.069606791   -3.5227744    1.4427552      8192000 
  677000   0.96099711   -3.5216455   -3.5216455   -2.0801502   0.06824238   -3.5216455    1.4414953      8192000 
  678000   0.96076427   -3.5215289   -3.5215289   -2.0803828  0.065776558   -3.5215289     1.441146      8192000 
  679000   0.96049432   -3.5208641   -3.5208641    -2.080123  0.065060444   -3.5208641    1.4407411      8192000 
  680000   0.96062262   -3.5206425   -3.5206425   -2.0797089  0.063127737   -3.5206425    1.4409336      8192000 
  681000   0.96022408   -3.5201694   -3.5201694   -2.0798336  0.065197048   -3.5201694    1.4403358      8192000 
  682000   0.95981986   -3.5194914   -3.5194914    -2.079762  0.064075251   -3.5194914    1.4397294      8192000 
  683000   0.95971357   -3.5193356   -3.5193356   -2.0797656  0.063281875   -3.5193356      1.43957      8192000 
  684000   0.96048189   -3.5202456   -3.5202456   -2.0795231  0.060962735   -3.5202456    1.4407225      8192000 
  685000   0.96048106   -3.5201422   -3.5201422   -2.0794209  0.063023832   -3.5201422    1.4407212      8192000 
  686000    0.9597592   -3.5189376   -3.5189376   -2.0792991  0.064074936   -3.5189376    1.4396384      8192000 
  687000   0.95958704   -3.5187637   -3.5187637   -2.0793834  0.064508406   -3.5187637    1.4393802      8192000 
  688000   0.96005345   -3.5196235   -3.5196235   -2.0795437   0.06164969   -3.5196235    1.4400798      8192000 
  689000   0.95991866   -3.5194314   -3.5194314   -2.0795537  0.062068906   -3.5194314    1.4398776      8192000 
  690000   0.95980303   -3.5195953   -3.5195953   -2.0798911  0.061166744   -3.5195953    1.4397042      8192000 
  691000   0.95960749   -3.5195308   -3.5195308     -2.08012  0.060407167   -3.5195308    1.4394109      8192000 
  692000   0.95915996   -3.5189082   -3.5189082   -2.0801686  0.061717841   -3.5189082    1.4387396      8192000 
  693000   0.95928586   -3.5194137   -3.5194137   -2.0804852  0.063056741   -3.5194137    1.4389284      8192000 
  694000   0.95880599   -3.5187257   -3.5187257   -2.0805171  0.061786745   -3.5187257    1.4382086      8192000 
  695000   0.95906026   -3.5192535   -3.5192535   -2.0806634  0.059056479   -3.5192535      1.43859      8192000 
  696000   0.95897492   -3.5191782   -3.5191782   -2.0807162  0.060649035   -3.5191782     1.438462      8192000 
  697000   0.95916055   -3.5195832   -3.5195832   -2.0808428  0.060400792   -3.5195832    1.4387405      8192000 
  698000   0.95913116   -3.5196646   -3.5196646   -2.0809682  0.059446732   -3.5196646    1.4386964      8192000 
  699000   0.95924072   -3.5198695   -3.5198695   -2.0810088  0.061388627   -3.5198695    1.4388607      8192000 
  700000      0.95955   -3.5204572   -3.5204572   -2.0811325  0.060525688   -3.5204572    1.4393247      8192000 
  701000   0.95947906   -3.5206193   -3.5206193   -2.0814011  0.060885185   -3.5206193    1.4392182      8192000 
  702000   0.95890139   -3.5202836   -3.5202836   -2.0819318  0.059975629   -3.5202836    1.4383517      8192000 
  703000    0.9585056    -3.519941    -3.519941   -2.0821829  0.059483596    -3.519941     1.437758      8192000 
  704000   0.95874093   -3.5201146   -3.5201146   -2.0820036  0.062280868   -3.5201146     1.438111      8192000 
  705000   0.95923441   -3.5209138   -3.5209138   -2.0820626  0.058180689   -3.5209138    1.4388513      8192000 
  706000   0.95904915   -3.5206037   -3.5206037   -2.0820303  0.057102687   -3.5206037    1.4385734      8192000 
  707000   0.95924647   -3.5210161   -3.5210161   -2.0821467  0.057874228   -3.5210161    1.4388694      8192000 
  708000   0.95877825   -3.5204425   -3.5204425   -2.0822755  0.060166972   -3.5204425     1.438167      8192000 
  709000   0.95856261   -3.5205626   -3.5205626   -2.0827191   0.05920774   -3.5205626    1.4378436      8192000 
  710000   0.95859611   -3.5207312   -3.5207312   -2.0828374  0.060516832   -3.5207312    1.4378938      8192000 
  711000   0.95885898    -3.521098    -3.521098   -2.0828099  0.060274827    -3.521098    1.4382881      8192000 
  712000   0.95870912   -3.5209889   -3.5209889   -2.0829256  0.059873943   -3.5209889    1.4380633      8192000 
  713000   0.95905695   -3.5215136   -3.5215136   -2.0829285  0.060366799   -3.5215136    1.4385851      8192000 
  714000   0.95896107   -3.5216975   -3.5216975   -2.0832562  0.058459294   -3.5216975    1.4384412      8192000 
  715000    0.9584196   -3.5210183   -3.5210183   -2.0833893  0.058768486   -3.5210183     1.437629      8192000 
  716000   0.95831428    -3.521134    -3.521134   -2.0836629  0.059063029    -3.521134    1.4374711      8192000 
  717000   0.95864569   -3.5216741   -3.5216741   -2.0837059   0.05706605   -3.5216741    1.4379682      8192000 
  718000   0.95844863    -3.521434    -3.521434   -2.0837615  0.057882816    -3.521434    1.4376726      8192000 
  719000   0.95760493   -3.5202247   -3.5202247   -2.0838176  0.060717525   -3.5202247     1.436407      8192000 
  720000   0.95816183   -3.5211656   -3.5211656   -2.0839232  0.060329732   -3.5211656    1.4372424      8192000 
  721000   0.95885125   -3.5221827   -3.5221827   -2.0839062  0.058178879   -3.5221827    1.4382765      8192000 
  722000   0.95817056   -3.5211094   -3.5211094   -2.0838539  0.059996295   -3.5211094    1.4372555      8192000 
  723000   0.95879499   -3.5222484   -3.5222484   -2.0840563  0.059201699   -3.5222484    1.4381921      8192000 
  724000   0.95839704   -3.5217622   -3.5217622    -2.084167  0.059002746   -3.5217622    1.4375952      8192000 
  725000   0.95870465   -3.5219804   -3.5219804   -2.0839237  0.061507698   -3.5219804    1.4380566      8192000 
  726000   0.95912059   -3.5224186   -3.5224186    -2.083738  0.059135721   -3.5224186    1.4386805      8192000 
  727000   0.95884447   -3.5221064   -3.5221064     -2.08384  0.059713834   -3.5221064    1.4382663      8192000 
  728000   0.95933106   -3.5229373   -3.5229373   -2.0839411  0.058954238   -3.5229373    1.4389962      8192000 
  729000   0.95882967   -3.5222567   -3.5222567   -2.0840125  0.060523724   -3.5222567    1.4382441      8192000 
  730000   0.95868158   -3.5219867   -3.5219867   -2.0839647  0.060019393   -3.5219867     1.438022      8192000 
  731000    0.9588958   -3.5224827   -3.5224827   -2.0841394  0.058578441   -3.5224827    1.4383433      8192000 
  732000   0.95888813   -3.5228175   -3.5228175   -2.0844857  0.061554307   -3.5228175    1.4383318      8192000 
  733000   0.95940873   -3.5236135   -3.5236135   -2.0845008  0.061249956   -3.5236135    1.4391127      8192000 
  734000   0.95923264   -3.5232907   -3.5232907   -2.0844421   0.06262354   -3.5232907    1.4388486      8192000 
  735000   0.95962901   -3.5237125   -3.5237125   -2.0842693  0.060563365   -3.5237125    1.4394432      8192000 
  736000   0.95912438   -3.5230302   -3.5230302    -2.084344  0.061891663   -3.5230302    1.4386862      8192000 
  737000   0.95924538   -3.5231289   -3.5231289   -2.0842612  0.060646305   -3.5231289    1.4388677      8192000 
  738000   0.95910703   -3.5229154   -3.5229154   -2.0842552  0.061551549   -3.5229154    1.4386602      8192000 
  739000    0.9589191   -3.5229659   -3.5229659   -2.0845876  0.061730949   -3.5229659    1.4383783      8192000 
  740000   0.95892051   -3.5228199   -3.5228199   -2.0844395  0.061315528   -3.5228199    1.4383804      8192000 
  741000   0.95897255   -3.5229944   -3.5229944   -2.0845359  0.061871396   -3.5229944    1.4384585      8192000 
  742000   0.95860706   -3.5223856   -3.5223856   -2.0844754  0.063771995   -3.5223856    1.4379102      8192000 
  743000   0.95977237   -3.5240947   -3.5240947   -2.0844365  0.060970334   -3.5240947    1.4396582      8192000 
  744000   0.95915657   -3.5235206   -3.5235206   -2.0847861  0.060979807   -3.5235206    1.4387345      8192000 
  745000   0.95903183   -3.5233355   -3.5233355   -2.0847881  0.062114651   -3.5233355    1.4385474      8192000 
  746000   0.95973434   -3.5241808   -3.5241808   -2.0845797  0.060637344   -3.5241808    1.4396012      8192000 
  747000   0.95945247   -3.5237898   -3.5237898   -2.0846115  0.059938041   -3.5237898    1.4391783      8192000 
  748000   0.95841639   -3.5220384   -3.5220384   -2.0844142  0.062321035   -3.5220384    1.4376242      8192000 
  749000    0.9590567   -3.5229984   -3.5229984   -2.0844137   0.05992863   -3.5229984    1.4385847      8192000 
  750000   0.95869334   -3.5224106   -3.5224106    -2.084371  0.063771477   -3.5224106    1.4380397      8192000 
  751000   0.95900418   -3.5230391   -3.5230391   -2.0845332  0.061690656   -3.5230391    1.4385059      8192000 
  752000   0.95860788   -3.5225538   -3.5225538   -2.0846423  0.058629335   -3.5225538    1.4379115      8192000 
  753000   0.95873947    -3.522853    -3.522853   -2.0847442  0.060392003    -3.522853    1.4381089      8192000 
  754000    0.9590193   -3.5232562   -3.5232562   -2.0847276  0.059584627   -3.5232562    1.4385286      8192000 
  755000   0.95876155   -3.5228519   -3.5228519   -2.0847099  0.057584071   -3.5228519     1.438142      8192000 
  756000   0.95901109   -3.5229232   -3.5229232   -2.0844069  0.060804688   -3.5229232    1.4385163      8192000 
  757000   0.95964436   -3.5238526   -3.5238526   -2.0843864  0.058661362   -3.5238526    1.4394662      8192000 
  758000   0.95910742   -3.5230197   -3.5230197   -2.0843589  0.061608465   -3.5230197    1.4386608      8192000 
  759000   0.95922364   -3.5234343   -3.5234343   -2.0845992  0.060343435   -3.5234343    1.4388351      8192000 
  760000   0.95901613   -3.5229094   -3.5229094   -2.0843856  0.061559049   -3.5229094    1.4385238      8192000 
  761000   0.95922628   -3.5232618   -3.5232618   -2.0844228  0.060564955   -3.5232618    1.4388391      8192000 
  762000   0.95923613   -3.5231513   -3.5231513   -2.0842974  0.062571003   -3.5231513    1.4388538      8192000 
  763000   0.95909042    -3.522902    -3.522902   -2.0842667  0.062507944    -3.522902    1.4386353      8192000 
  764000   0.95923431   -3.5231756   -3.5231756   -2.0843245  0.061453226   -3.5231756    1.4388511      8192000 
  765000   0.95972176   -3.5238487   -3.5238487   -2.0842664  0.060276087   -3.5238487    1.4395823      8192000 
  766000   0.95947814   -3.5234727   -3.5234727   -2.0842559  0.059879716   -3.5234727    1.4392169      8192000 
  767000   0.95976712    -3.523889    -3.523889   -2.0842387  0.061151902    -3.523889    1.4396503      8192000 
  768000   0.95984099   -3.5238975   -3.5238975   -2.0841364  0.063862689   -3.5238975    1.4397611      8192000 
  769000    0.9604386   -3.5246017   -3.5246017   -2.0839441   0.06268716   -3.5246017    1.4406575      8192000 
  770000   0.96013367   -3.5243669   -3.5243669   -2.0841668  0.066337601   -3.5243669    1.4402001      8192000 
  771000   0.96064357   -3.5250374   -3.5250374   -2.0840724  0.064056899   -3.5250374     1.440965      8192000 
  772000   0.96072151   -3.5251489   -3.5251489    -2.084067  0.067616228   -3.5251489    1.4410819      8192000 
  773000   0.96133994   -3.5259873   -3.5259873   -2.0839777  0.067466786   -3.5259873    1.4420095      8192000 
  774000   0.96148735   -3.5262412   -3.5262412   -2.0840105  0.068621285   -3.5262412    1.4422307      8192000 
  775000   0.96141655   -3.5262236   -3.5262236   -2.0840992  0.068641147   -3.5262236    1.4421245      8192000 
  776000   0.96194912   -3.5270171   -3.5270171   -2.0840937  0.069171462   -3.5270171    1.4429233      8192000 
  777000   0.96179685   -3.5268567   -3.5268567   -2.0841618  0.072936799   -3.5268567    1.4426949      8192000 
  778000   0.96209376    -3.527389    -3.527389   -2.0842487  0.071534228    -3.527389    1.4431403      8192000 
  779000   0.96285548   -3.5286461   -3.5286461   -2.0843633  0.072082136   -3.5286461    1.4442829      8192000 
  780000   0.96299893    -3.528715    -3.528715    -2.084217  0.071143483    -3.528715     1.444498      8192000 
  781000   0.96363371   -3.5296807   -3.5296807   -2.0842305  0.074032286   -3.5296807    1.4454502      8192000 
  782000   0.96339896   -3.5292392   -3.5292392   -2.0841411  0.077462794   -3.5292392    1.4450981      8192000 
  783000   0.96407398   -3.5303943   -3.5303943   -2.0842837  0.077111437   -3.5303943    1.4461106      8192000 
  784000    0.9642797   -3.5307654   -3.5307654   -2.0843462  0.076070456   -3.5307654    1.4464192      8192000 
  785000   0.96430719   -3.5311769   -3.5311769   -2.0847164  0.077566693   -3.5311769    1.4464604      8192000 
  786000   0.96500476   -3.5321559   -3.5321559   -2.0846491  0.078359815   -3.5321559    1.4475068      8192000 
  787000   0.96524733   -3.5324912   -3.5324912   -2.0846205  0.079749671   -3.5324912    1.4478706      8192000 
  788000   0.96540645   -3.5326449   -3.5326449   -2.0845356  0.080665532   -3.5326449    1.4481093      8192000 
  789000   0.96528486   -3.5326787   -3.5326787   -2.0847518  0.082208167   -3.5326787    1.4479269      8192000 
  790000   0.96572156   -3.5331817   -3.5331817   -2.0845998  0.081947127   -3.5331817     1.448582      8192000 
  791000   0.96577921   -3.5333256   -3.5333256   -2.0846572  0.083769928   -3.5333256    1.4486685      8192000 
  792000   0.96642665   -3.5340509   -3.5340509   -2.0844113  0.083027893   -3.5340509    1.4496396      8192000 
  793000   0.96716052   -3.5349276   -3.5349276   -2.0841872  0.083072565   -3.5349276    1.4507404      8192000 
  794000   0.96702304   -3.5347552   -3.5347552    -2.084221  0.083000049   -3.5347552    1.4505342      8192000 
  795000   0.96690946   -3.5347705   -3.5347705   -2.0844066  0.086134163   -3.5347705    1.4503638      8192000 
  796000   0.96707938   -3.5352353   -3.5352353   -2.0846166  0.084923347   -3.5352353    1.4506187      8192000 
  797000   0.96708867    -3.535177    -3.535177   -2.0845443  0.086272089    -3.535177    1.4506326      8192000 
  798000   0.96742113   -3.5357144   -3.5357144   -2.0845831  0.083252788   -3.5357144    1.4511313      8192000 
  799000   0.96706215   -3.5351385   -3.5351385   -2.0845456  0.083084999   -3.5351385    1.4505929      8192000 
  800000   0.96693321   -3.5349226   -3.5349226   -2.0845232  0.083486503   -3.5349226    1.4503995      8192000 
  801000   0.96752162   -3.5360229   -3.5360229   -2.0847408  0.083876145   -3.5360229    1.4512821      8192000 
  802000   0.96699808   -3.5351863   -3.5351863   -2.0846895  0.085045322   -3.5351863    1.4504968      8192000 
  803000   0.96721877   -3.5352601   -3.5352601   -2.0844323  0.083613306   -3.5352601    1.4508278      8192000 
  804000   0.96678112   -3.5345122   -3.5345122   -2.0843409  0.085542721   -3.5345122    1.4501713      8192000 
  805000   0.96700648   -3.5350306   -3.5350306   -2.0845212  0.083364343   -3.5350306    1.4505094      8192000 
  806000   0.96661328   -3.5345436   -3.5345436   -2.0846241  0.084041913   -3.5345436    1.4499196      8192000 
  807000   0.96677583   -3.5347995   -3.5347995   -2.0846362   0.08105451   -3.5347995    1.4501634      8192000 
  808000   0.96639133   -3.5342441   -3.5342441   -2.0846575  0.082165451   -3.5342441    1.4495866      8192000 
  809000   0.96606381   -3.5337947   -3.5337947   -2.0846994  0.083481699   -3.5337947    1.4490954      8192000 
  810000   0.96601369   -3.5339084   -3.5339084   -2.0848883  0.082347138   -3.5339084    1.4490202      8192000 
  811000   0.96547492   -3.5328711   -3.5328711    -2.084659  0.079743623   -3.5328711     1.448212      8192000 
  812000    0.9653024   -3.5324893   -3.5324893   -2.0845361  0.078903023   -3.5324893    1.4479532      8192000 
  813000    0.9649377   -3.5320915   -3.5320915   -2.0846853  0.078811645   -3.5320915    1.4474062      8192000 
  814000   0.96497165   -3.5321247   -3.5321247   -2.0846676  0.078697266   -3.5321247    1.4474571      8192000 
  815000   0.96497786   -3.5323127   -3.5323127   -2.0848463  0.076426215   -3.5323127    1.4474664      8192000 
  816000    0.9647916   -3.5322105   -3.5322105   -2.0850235  0.073617093   -3.5322105     1.447187      8192000 
  817000   0.96430234   -3.5312993   -3.5312993   -2.0848462  0.073111797   -3.5312993    1.4464532      8192000 
  818000   0.96399324   -3.5305254   -3.5305254   -2.0845359  0.072913539   -3.5305254    1.4459895      8192000 
  819000   0.96368458   -3.5303141   -3.5303141   -2.0847876  0.072785229   -3.5303141    1.4455265      8192000 
  820000   0.96323374   -3.5295363   -3.5295363    -2.084686  0.073627747   -3.5295363    1.4448502      8192000 
  821000   0.96258326   -3.5288377   -3.5288377   -2.0849632  0.072888094   -3.5288377    1.4438745      8192000 
  822000   0.96265885   -3.5286729   -3.5286729    -2.084685  0.071202014   -3.5286729    1.4439879      8192000 
  823000   0.96223741   -3.5280142   -3.5280142   -2.0846584  0.070477478   -3.5280142    1.4433558      8192000 
  824000   0.96175553    -3.526958    -3.526958   -2.0843251  0.069002319    -3.526958    1.4426329      8192000 
  825000   0.96155283   -3.5269664   -3.5269664   -2.0846375  0.068216295   -3.5269664    1.4423289      8192000 
  826000   0.96123641   -3.5264823   -3.5264823    -2.084628  0.065320756   -3.5264823    1.4418543      8192000 
  827000   0.96109948   -3.5260732   -3.5260732   -2.0844244  0.065873146   -3.5260732    1.4416489      8192000 
  828000   0.96116161   -3.5260974   -3.5260974   -2.0843554  0.065313003   -3.5260974    1.4417421      8192000 
  829000   0.96101289   -3.5260671   -3.5260671   -2.0845481  0.063692407   -3.5260671     1.441519      8192000 
  830000   0.96061236   -3.5254847   -3.5254847   -2.0845666  0.063321875   -3.5254847    1.4409182      8192000 
  831000   0.96081214   -3.5258239   -3.5258239    -2.084606  0.063390941   -3.5258239    1.4412179      8192000 
  832000   0.96053919    -3.525217    -3.525217   -2.0844086  0.063289582    -3.525217    1.4408084      8192000 
  833000   0.96037761   -3.5251631   -3.5251631   -2.0845971  0.062878997   -3.5251631    1.4405661      8192000 
  834000   0.96019077   -3.5250281   -3.5250281   -2.0847423  0.063587316   -3.5250281    1.4402858      8192000 
  835000   0.95992439   -3.5247156   -3.5247156   -2.0848294  0.063591533   -3.5247156    1.4398862      8192000 
  836000   0.95985193   -3.5246008   -3.5246008   -2.0848232  0.062260576   -3.5246008    1.4397775      8192000 
  837000   0.95977798   -3.5246257   -3.5246257   -2.0849591  0.060702967   -3.5246257    1.4396666      8192000 
  838000   0.95977197    -3.524874    -3.524874   -2.0852164  0.060894096    -3.524874    1.4396576      8192000 
  839000   0.95955731   -3.5245239   -3.5245239   -2.0851883  0.062254053   -3.5245239    1.4393356      8192000 
  840000   0.95991666    -3.525055    -3.525055   -2.0851804  0.060588283    -3.525055    1.4398746      8192000 
  841000   0.95966971   -3.5246312   -3.5246312    -2.085127  0.059977135   -3.5246312    1.4395042      8192000 
  842000   0.95968318    -3.524698    -3.524698   -2.0851736  0.060995951    -3.524698    1.4395244      8192000 
  843000   0.95968928   -3.5245545   -3.5245545   -2.0850209  0.060544246   -3.5245545    1.4395336      8192000 
  844000   0.95970088   -3.5247158   -3.5247158   -2.0851649  0.059966793   -3.5247158     1.439551      8192000 
  845000   0.95967426   -3.5248964   -3.5248964   -2.0853854  0.060764975   -3.5248964     1.439511      8192000 
  846000   0.95937685   -3.5245442   -3.5245442   -2.0854793  0.062745421   -3.5245442    1.4390649      8192000 
  847000   0.95999199   -3.5252827   -3.5252827   -2.0852951  0.060867807   -3.5252827    1.4399876      8192000 
  848000   0.95956028   -3.5248344   -3.5248344   -2.0854943  0.062827042   -3.5248344    1.4393401      8192000 
  849000   0.95975103   -3.5250067   -3.5250067   -2.0853805  0.060861799   -3.5250067    1.4396262      8192000 
  850000   0.95966878   -3.5248354   -3.5248354   -2.0853325  0.061296555   -3.5248354    1.4395028      8192000 
  851000   0.95930646   -3.5246105   -3.5246105   -2.0856511  0.063002342   -3.5246105    1.4389593      8192000 
  852000   0.95973109   -3.5253872   -3.5253872   -2.0857909  0.060957192   -3.5253872    1.4395963      8192000 
  853000   0.96001025   -3.5257799   -3.5257799   -2.0857649  0.059893249   -3.5257799     1.440015      8192000 
  854000   0.95957811   -3.5253636   -3.5253636   -2.0859968  0.059444797   -3.5253636    1.4393668      8192000 
  855000   0.95940322   -3.5251996   -3.5251996   -2.0860951  0.060726397   -3.5251996    1.4391045      8192000 
  856000   0.95985779   -3.5260666   -3.5260666   -2.0862802  0.059995676   -3.5260666    1.4397863      8192000 
  857000   0.95975423   -3.5259355   -3.5259355   -2.0863045   0.06065159   -3.5259355     1.439631      8192000 
  858000   0.95976636   -3.5260401   -3.5260401   -2.0863909  0.058939201   -3.5260401    1.4396492      8192000 
  859000   0.95959474   -3.5257278   -3.5257278    -2.086336  0.061142961   -3.5257278    1.4393918      8192000 
  860000   0.95973962   -3.5261597   -3.5261597   -2.0865506  0.059710186   -3.5261597    1.4396091      8192000 
  861000   0.95942383   -3.5256998   -3.5256998   -2.0865644  0.059735268   -3.5256998    1.4391354      8192000 
  862000   0.95966393     -3.52629     -3.52629   -2.0867944  0.060565739     -3.52629    1.4394955      8192000 
  863000   0.95921069   -3.5258351   -3.5258351   -2.0870194  0.060147236   -3.5258351    1.4388157      8192000 
  864000   0.95933621   -3.5259154   -3.5259154   -2.0869115  0.060233881   -3.5259154     1.439004      8192000 
  865000   0.95890438   -3.5254514   -3.5254514   -2.0870952  0.060139439   -3.5254514    1.4383562      8192000 
  866000   0.95902365   -3.5258588   -3.5258588   -2.0873237  0.059046693   -3.5258588    1.4385351      8192000 
  867000   0.95930091   -3.5261232   -3.5261232   -2.0871722  0.058330276   -3.5261232     1.438951      8192000 
  868000   0.95828052   -3.5245998   -3.5245998   -2.0871793  0.061021662   -3.5245998    1.4374204      8192000 
  869000   0.95950901   -3.5263388   -3.5263388   -2.0870756  0.060569091   -3.5263388    1.4392632      8192000 
  870000   0.95954266   -3.5263731   -3.5263731   -2.0870594  0.059964639   -3.5263731    1.4393136      8192000 
  871000   0.95904113   -3.5255359   -3.5255359   -2.0869746  0.061404684   -3.5255359    1.4385613      8192000 
  872000   0.95963538   -3.5266339   -3.5266339   -2.0871812  0.058445685   -3.5266339    1.4394527      8192000 
  873000   0.95911002   -3.5260075   -3.5260075   -2.0873428  0.058045805   -3.5260075    1.4386647      8192000 
  874000   0.95907776   -3.5259064   -3.5259064   -2.0872901  0.061589866   -3.5259064    1.4386163      8192000 
  875000   0.95917929   -3.5263496   -3.5263496    -2.087581   0.05933382   -3.5263496    1.4387686      8192000 
  876000   0.95937081   -3.5266178   -3.5266178    -2.087562  0.060578878   -3.5266178    1.4390559      8192000 
  877000   0.95927059   -3.5264318   -3.5264318   -2.0875263   0.06133966   -3.5264318    1.4389055      8192000 
  878000   0.95963691   -3.5269069   -3.5269069   -2.0874519  0.060569661   -3.5269069     1.439455      8192000 
  879000   0.95949495   -3.5268161   -3.5268161    -2.087574  0.059991276   -3.5268161    1.4392421      8192000 
  880000   0.95899252   -3.5261375   -3.5261375   -2.0876491  0.060152451   -3.5261375    1.4384884      8192000 
  881000   0.95925745   -3.5262598   -3.5262598    -2.087374  0.060713678   -3.5262598    1.4388858      8192000 
  882000   0.95886836   -3.5256878   -3.5256878   -2.0873856  0.061173037   -3.5256878    1.4383022      8192000 
  883000   0.95912665   -3.5260427   -3.5260427    -2.087353  0.061634656   -3.5260427    1.4386896      8192000 
  884000   0.95943906   -3.5265402   -3.5265402   -2.0873819  0.060853497   -3.5265402    1.4391582      8192000 
  885000    0.9592313   -3.5263171   -3.5263171   -2.0874705  0.061241505   -3.5263171    1.4388466      8192000 
  886000   0.95955335   -3.5269197   -3.5269197     -2.08759  0.060113177   -3.5269197    1.4393297      8192000 
  887000   0.95959685   -3.5268572   -3.5268572   -2.0874623  0.061953592   -3.5268572    1.4393949      8192000 
  888000   0.95923364   -3.5262018   -3.5262018   -2.0873517  0.060837117   -3.5262018    1.4388501      8192000 
  889000   0.95963961   -3.5269722   -3.5269722   -2.0875132  0.060560736   -3.5269722    1.4394591      8192000 
  890000   0.95955499    -3.526847    -3.526847   -2.0875149   0.06097986    -3.526847    1.4393321      8192000 
  891000   0.95953505   -3.5267491   -3.5267491   -2.0874469  0.061664029   -3.5267491    1.4393022      8192000 
  892000   0.95925025   -3.5265778   -3.5265778   -2.0877028  0.064314388   -3.5265778     1.438875      8192000 
  893000   0.95891121   -3.5260392   -3.5260392   -2.0876728   0.06260467   -3.5260392    1.4383665      8192000 
  894000   0.95948422    -3.526961    -3.526961   -2.0877351  0.060816513    -3.526961     1.439226      8192000 
  895000   0.95994841   -3.5275313   -3.5275313   -2.0876091  0.061708058   -3.5275313    1.4399223      8192000 
  896000   0.95993038   -3.5272913   -3.5272913    -2.087396  0.063776107   -3.5272913    1.4398952      8192000 
  897000   0.96018003   -3.5276019   -3.5276019   -2.0873322  0.061852352   -3.5276019    1.4402697      8192000 
  898000   0.96059218   -3.5282595   -3.5282595   -2.0873716  0.063333717   -3.5282595    1.4408879      8192000 
  899000   0.96014956   -3.5276853   -3.5276853   -2.0874613  0.062270533   -3.5276853     1.440224      8192000 
  900000   0.96054403    -3.528411    -3.528411   -2.0875953   0.06210509    -3.528411    1.4408157      8192000 
  901000   0.96068036   -3.5288282   -3.5288282    -2.087808  0.060940795   -3.5288282    1.4410202      8192000 
  902000   0.95986796   -3.5274922   -3.5274922   -2.0876906  0.064742687   -3.5274922    1.4398016      8192000 
  903000    0.9601506   -3.5279044   -3.5279044   -2.0876788  0.062673978   -3.5279044    1.4402255      8192000 
  904000   0.96082761   -3.5287075   -3.5287075   -2.0874664  0.062402793   -3.5287075    1.4412411      8192000 
  905000   0.96085071   -3.5287209   -3.5287209   -2.0874452  0.065603164   -3.5287209    1.4412757      8192000 
  906000   0.96087248   -3.5291187   -3.5291187   -2.0878103   0.06421649   -3.5291187    1.4413084      8192000 
  907000   0.96107578   -3.5291687   -3.5291687   -2.0875554  0.064781403   -3.5291687    1.4416133      8192000 
  908000   0.96181115   -3.5302283   -3.5302283   -2.0875119  0.063429854   -3.5302283    1.4427164      8192000 
  909000   0.96166603   -3.5302941   -3.5302941   -2.0877954  0.067685801   -3.5302941    1.4424987      8192000 
  910000   0.96187809   -3.5306872   -3.5306872   -2.0878705  0.066492459   -3.5306872    1.4428168      8192000 
  911000   0.96169337   -3.5306738   -3.5306738   -2.0881341  0.067269534   -3.5306738    1.4425397      8192000 
  912000   0.96171401   -3.5306722   -3.5306722   -2.0881016  0.067682332   -3.5306722    1.4425707      8192000 
  913000   0.96203941   -3.5312688   -3.5312688     -2.08821  0.068593039   -3.5312688    1.4430588      8192000 
  914000   0.96193274   -3.5309456   -3.5309456   -2.0880468  0.070325136   -3.5309456    1.4428988      8192000 
  915000   0.96257831    -3.531899    -3.531899   -2.0880318  0.068469774    -3.531899    1.4438671      8192000 
  916000   0.96264329   -3.5320176   -3.5320176    -2.088053  0.070424318   -3.5320176    1.4439646      8192000 
  917000   0.96289616   -3.5323634   -3.5323634   -2.0880195  0.070112276   -3.5323634    1.4443439      8192000 
  918000   0.96308683   -3.5325971   -3.5325971   -2.0879672  0.070797565   -3.5325971    1.4446299      8192000 
  919000   0.96341638   -3.5329581   -3.5329581   -2.0878339   0.07027013   -3.5329581    1.4451242      8192000 
  920000   0.96271969   -3.5319669   -3.5319669   -2.0878877  0.072474854   -3.5319669    1.4440792      8192000 
  921000   0.96283164   -3.5323778   -3.5323778   -2.0881307  0.072954252   -3.5323778    1.4442471      8192000 
  922000    0.9636937   -3.5335025   -3.5335025   -2.0879623  0.072636112   -3.5335025    1.4455402      8192000 
  923000   0.96367392   -3.5334855   -3.5334855    -2.087975  0.073253313   -3.5334855    1.4455105      8192000 
  924000   0.96351651   -3.5332649   -3.5332649   -2.0879905  0.072788222   -3.5332649    1.4452744      8192000 
  925000   0.96401959   -3.5340506   -3.5340506   -2.0880215  0.073204962   -3.5340506     1.446029      8192000 
  926000   0.96390963   -3.5340437   -3.5340437   -2.0881796  0.074610599   -3.5340437    1.4458641      8192000 
  927000   0.96422245     -3.53444     -3.53444   -2.0881067  0.075220536     -3.53444    1.4463333      8192000 
  928000   0.96403357   -3.5342909   -3.5342909   -2.0882409  0.075362027   -3.5342909      1.44605      8192000 
  929000   0.96451205   -3.5346482   -3.5346482   -2.0878805   0.07645365   -3.5346482    1.4467677      8192000 
  930000   0.96461725   -3.5346491   -3.5346491   -2.0877236  0.077320045   -3.5346491    1.4469255      8192000 
  931000   0.96511374   -3.5354446   -3.5354446   -2.0877744  0.075919675   -3.5354446    1.4476703      8192000 
  932000   0.96464494   -3.5347317   -3.5347317   -2.0877646  0.077561541   -3.5347317    1.4469671      8192000 
  933000   0.96493244   -3.5352148   -3.5352148   -2.0878165  0.075950027   -3.5352148    1.4473983      8192000 
  934000   0.96554409   -3.5360239   -3.5360239   -2.0877082  0.077570817   -3.5360239    1.4483158      8192000 
  935000   0.96516786   -3.5355951   -3.5355951   -2.0878436  0.078479493   -3.5355951    1.4477514      8192000 
  936000   0.96532174   -3.5360131   -3.5360131   -2.0880308  0.078130268   -3.5360131    1.4479822      8192000 
  937000   0.96543332   -3.5360093   -3.5360093   -2.0878597  0.076781658   -3.5360093    1.4481496      8192000 
  938000   0.96534137   -3.5357214   -3.5357214   -2.0877097  0.076636677   -3.5357214    1.4480117      8192000 
  939000   0.96479011   -3.5351436   -3.5351436   -2.0879587  0.078048407   -3.5351436    1.4471848      8192000 
  940000    0.9647969   -3.5351728   -3.5351728   -2.0879779  0.077033831   -3.5351728     1.447195      8192000 
  941000   0.96521547   -3.5356736   -3.5356736   -2.0878508   0.07563583   -3.5356736    1.4478229      8192000 
  942000   0.96524726   -3.5355234   -3.5355234   -2.0876529  0.074155592   -3.5355234    1.4478705      8192000 
  943000   0.96505011   -3.5354758   -3.5354758    -2.087901  0.077068887   -3.5354758    1.4475748      8192000 
  944000   0.96474206   -3.5349141   -3.5349141   -2.0878014  0.077291324   -3.5349141    1.4471127      8192000 
  945000   0.96468968   -3.5348984   -3.5348984   -2.0878643  0.075546815   -3.5348984    1.4470342      8192000 
  946000   0.96507997   -3.5353363   -3.5353363   -2.0877167  0.077113058   -3.5353363    1.4476196      8192000 
  947000   0.96444271   -3.5343681   -3.5343681   -2.0877044  0.077802068   -3.5343681    1.4466637      8192000 
  948000   0.96433773   -3.5343544   -3.5343544   -2.0878481  0.073874704   -3.5343544    1.4465062      8192000 
  949000   0.96449008   -3.5343736   -3.5343736   -2.0876388  0.075350589   -3.5343736    1.4467348      8192000 
  950000   0.96417846   -3.5338493   -3.5338493    -2.087582  0.074356641   -3.5338493    1.4462673      8192000 
  951000   0.96383006   -3.5333331   -3.5333331   -2.0875884  0.074436998   -3.5333331    1.4457447      8192000 
  952000   0.96326685   -3.5327928   -3.5327928   -2.0878929  0.073773971   -3.5327928    1.4448999      8192000 
  953000   0.96321267   -3.5325946   -3.5325946   -2.0877759  0.071972726   -3.5325946    1.4448187      8192000 
  954000   0.96243409    -3.531575    -3.531575   -2.0879242  0.073252787    -3.531575    1.4436508      8192000 
  955000   0.96296322   -3.5323717   -3.5323717   -2.0879273  0.071211515   -3.5323717    1.4444445      8192000 
  956000   0.96241129   -3.5314582   -3.5314582   -2.0878416  0.071391245   -3.5314582    1.4436166      8192000 
  957000   0.96251862   -3.5316457   -3.5316457   -2.0878682   0.06907544   -3.5316457    1.4437776      8192000 
  958000   0.96235658   -3.5314317   -3.5314317   -2.0878972  0.069081409   -3.5314317    1.4435345      8192000 
  959000    0.9623879   -3.5314697   -3.5314697   -2.0878882  0.068724562   -3.5314697    1.4435815      8192000 
  960000   0.96226857    -3.531175    -3.531175   -2.0877725  0.069172971    -3.531175    1.4434025      8192000 
  961000   0.96209156   -3.5310153   -3.5310153   -2.0878783  0.068683239   -3.5310153     1.443137      8192000 
  962000   0.96227995   -3.5311954   -3.5311954   -2.0877759  0.065818001   -3.5311954    1.4434196      8192000 
  963000   0.96174268   -3.5305696   -3.5305696   -2.0879559  0.064848732   -3.5305696    1.4426137      8192000 
  964000    0.9620817   -3.5308103   -3.5308103   -2.0876881  0.067889269   -3.5308103    1.4431222      8192000 
  965000   0.96137673   -3.5296221   -3.5296221   -2.0875573  0.066325359   -3.5296221    1.4420647      8192000 
  966000   0.96183824   -3.5302184   -3.5302184   -2.0874614  0.064914701   -3.5302184     1.442757      8192000 
  967000   0.96135357   -3.5293659   -3.5293659   -2.0873359  0.066882453   -3.5293659      1.44203      8192000 
  968000   0.96121129   -3.5291858   -3.5291858   -2.0873692  0.065804684   -3.5291858    1.4418166      8192000 
  969000   0.96168946   -3.5300379   -3.5300379    -2.087504  0.064483934   -3.5300379    1.4425338      8192000 
  970000   0.96152739   -3.5298538   -3.5298538   -2.0875631  0.063466945   -3.5298538    1.4422907      8192000 
  971000   0.96135803   -3.5296664   -3.5296664   -2.0876297  0.063251909   -3.5296664    1.4420367      8192000 
  972000   0.96098374   -3.5291947   -3.5291947   -2.0877195  0.063151725   -3.5291947    1.4414753      8192000 
  973000   0.96066278   -3.5289004   -3.5289004   -2.0879066  0.062002851   -3.5289004    1.4409938      8192000 
  974000   0.96101204   -3.5294711   -3.5294711   -2.0879533  0.063887175   -3.5294711    1.4415177      8192000 
  975000   0.96047573   -3.5286814   -3.5286814   -2.0879682  0.065620928   -3.5286814    1.4407132      8192000 
  976000   0.96078804   -3.5293694   -3.5293694   -2.0881877  0.062695077   -3.5293694    1.4411817      8192000 
  977000   0.96078383   -3.5294853   -3.5294853   -2.0883099  0.061418672   -3.5294853    1.4411754      8192000 
  978000   0.96046045   -3.5287815   -3.5287815   -2.0880912  0.063095406   -3.5287815    1.4406903      8192000 
  979000   0.96089142   -3.5296017   -3.5296017    -2.088265   0.06303702   -3.5296017    1.4413368      8192000 
  980000   0.96027501   -3.5289064   -3.5289064   -2.0884942  0.062760572   -3.5289064    1.4404122      8192000 
  981000   0.96036585   -3.5290422   -3.5290422   -2.0884938  0.059740119   -3.5290422    1.4405484      8192000 
  982000   0.95979716   -3.5281965   -3.5281965   -2.0885011  0.061163715   -3.5281965    1.4396954      8192000 
  983000   0.95977696   -3.5279509   -3.5279509   -2.0882858   0.06144238   -3.5279509    1.4396651      8192000 
  984000   0.95942679   -3.5277723   -3.5277723   -2.0886325  0.062626931   -3.5277723    1.4391398      8192000 
  985000   0.96038758   -3.5291834   -3.5291834   -2.0886024  0.059241844   -3.5291834     1.440581      8192000 
  986000   0.95989789   -3.5282714   -3.5282714   -2.0884249  0.059969365   -3.5282714    1.4398465      8192000 
  987000   0.95994088   -3.5282954   -3.5282954   -2.0883844  0.060779167   -3.5282954     1.439911      8192000 
  988000   0.95974996   -3.5281697   -3.5281697   -2.0885451  0.061671604   -3.5281697    1.4396246      8192000 
  989000   0.95959363   -3.5280267   -3.5280267   -2.0886367  0.061325921   -3.5280267    1.4393901      8192000 
  990000   0.96017059   -3.5289238   -3.5289238   -2.0886683  0.062022655   -3.5289238    1.4402555      8192000 
  991000   0.96007731   -3.5289691   -3.5289691   -2.0888535  0.060097379   -3.5289691    1.4401156      8192000 
  992000   0.96021919    -3.529165    -3.529165   -2.0888365   0.06252333    -3.529165    1.4403284      8192000 
  993000   0.96022772   -3.5292254   -3.5292254   -2.0888842  0.060098815   -3.5292254    1.4403412      8192000 
  994000   0.96043711   -3.5293525   -3.5293525   -2.0886972  0.061153169   -3.5293525    1.4406553      8192000 
  995000   0.96064321   -3.5295855   -3.5295855   -2.0886211  0.060724406   -3.5295855    1.4409645      8192000 
  996000   0.96048863   -3.5295986   -3.5295986    -2.088866  0.060999981   -3.5295986    1.4407326      8192000 
  997000    0.9602138   -3.5292831   -3.5292831   -2.0889628  0.061042054   -3.5292831    1.4403203      8192000 
  998000   0.95979107    -3.528826    -3.528826   -2.0891397  0.060775044    -3.528826    1.4396863      8192000 
  999000   0.95954103   -3.5286635   -3.5286635   -2.0893523  0.060654151   -3.5286635    1.4393112      8192000 
 1000000   0.95966665   -3.5286763   -3.5286763   -2.0891767  0.061112493   -3.5286763    1.4394996      8192000 
Loop time of 22090.8 on 256 procs for 1000000 steps with 4044800 atoms

Performance: 9777.824 tau/day, 45.268 timesteps/s
99.4% CPU use with 256 MPI tasks x 1 OpenMP threads

MPI task timing breakdown:
Section |  min time  |  avg time  |  max time  |%varavg|  %CPU | %total
-----------------------------------------------------------------------
Pair    | 2357.2     | 6093       | 10399      |1736.5 |  99.4 | 27.58
Bond    | 0.37385    | 0.59749    | 1.4785     |  21.2 | 100.0 |  0.00
Neigh   | 811.74     | 1657.2     | 2525.8     | 721.7 | 100.0 |  7.50
Comm    | 2250.2     | 7173.3     | 11737      |1919.6 |  99.0 | 32.47
Output  | 5973.9     | 6194.5     | 6594.1     | 201.6 |  99.6 | 28.04
Modify  | 158.43     | 331.47     | 1325.2     |1090.2 |  99.6 |  1.50
Other   |            | 640.8      |            |       |       |  2.90

Nlocal:        15800.0 ave       24290 max       12548 min
Histogram: 8 9 217 12 7 2 0 0 0 1
Nghost:        11477.6 ave       13124 max        6645 min
Histogram: 3 1 24 25 11 7 4 19 54 108
Neighs:       464318.0 ave      537197 max      101784 min
Histogram: 8 4 2 1 3 3 4 22 95 114

Total # of neighbors = 1.1886541e+08
Ave neighs/atom = 29.387216
Ave special neighs/atom = 0.0000000
Neighbor list builds = 72643
Dangerous builds = 3260
Total wall time: 6:08:52
