LAMMPS (24 Dec 2020)
OMP_NUM_THREADS environment is not set. Defaulting to 1 thread. (src/comm.cpp:94)
  using 1 OpenMP thread(s) per MPI task
# Simple rigid body system
# needed variables:

#variable	startTemp equal 0.5
#variable 	temp 	  equal 0.8

units		lj
atom_style	full
dimension 	3
boundary	p p f
pair_style	lj/cut/opt 2.5


variable 	sigma		equal 1.0
variable 	epsilon 	equal 1.0


region		box block 0 160 0 160 0 160
create_box 	3 box
Created orthogonal box = (0.0000000 0.0000000 0.0000000) to (160.00000 160.00000 160.00000)
  4 by 6 by 8 MPI processor grid
lattice 	sc 1.0
Lattice spacing in x,y,z = 1.0000000 1.0000000 1.0000000

create_atoms 	1 region box
Created 4096000 atoms
  create_atoms CPU = 0.151 seconds

mass		1 1.0
mass		2 1.0
mass		3 1.0


group		solvent type 1
4096000 atoms in group solvent


velocity 	solvent create ${startTemp} 563435 loop geom
velocity 	solvent create 0.5 563435 loop geom

read_data	data.vac add append
Reading data file ...
  orthogonal box = (0.0000000 0.0000000 0.0000000) to (160.00000 160.00000 320.00000)
  6 by 4 by 8 MPI processor grid
Finding 1-2 1-3 1-4 neighbors ...
  special bond factors lj:    0        0        0       
  special bond factors coul:  0        0        0       
     0 = max # of 1-2 neighbors
     0 = max # of 1-3 neighbors
     0 = max # of 1-4 neighbors
     1 = max # of special neighbors
  special bonds CPU = 1.395 seconds
  read_data CPU = 1.425 seconds

neighbor 	0.4 bin

pair_coeff	1 1 1.0 1.0
pair_coeff	2 2 0.0 0.0
pair_coeff	3 3 0.0 0.0
pair_coeff	2 3 0.0 0.0
pair_coeff	1 2*3 0.0 0.0

pair_modify 	shift yes


balance 	1.05 shift z 10 1.05
Balancing ...
Neighbor list info ...
  update every 1 steps, delay 10 steps, check yes
  max neighbors/atom: 2000, page size: 100000
  master list distance cutoff = 2.9
  ghost atom cutoff = 2.9
  binsize = 1.45, bins = 111 111 221
  1 neighbor lists, perpetual/occasional/extra = 1 0 0
  (1) pair lj/cut/opt, perpetual
      attributes: half, newton on
      pair build: half/bin/newton
      stencil: half/bin/3d/newton
      bin: standard
 rebalancing time: 0.047 seconds
  iteration count = 5
  initial/final maximal load/proc = 43200.000 27000.000
  initial/final imbalance factor  = 2.0250000 1.2656250
  x cuts: 0.0000000 0.16666667 0.33333333 0.50000000 0.66666667 0.83333333 1.0000000
  y cuts: 0.0000000 0.25000000 0.50000000 0.75000000 1.0000000
  z cuts: 0.0000000 0.062500000 0.12890625 0.18750000 0.25781250 0.30859375 0.38671875 0.43750000 1.0000000


####################### WALLS ###########################


region	       low block  EDGE EDGE EDGE EDGE 0 2

region 	       top block  EDGE EDGE EDGE EDGE 159 160


delete_atoms   region low
WARNING: Ignoring 'compress yes' for molecular system (src/delete_atoms.cpp:125)
Deleted 76800 atoms, new total = 4019200

delete_atoms   region top
WARNING: Ignoring 'compress yes' for molecular system (src/delete_atoms.cpp:125)
Deleted 25600 atoms, new total = 3993600


variable       epsilonWall equal 2*${epsilon}
variable       epsilonWall equal 2*1

variable       cutoffTop   equal   0.7147*${sigma}
variable       cutoffTop   equal   0.7147*1

variable       cutoffLow   equal   3*${sigma}
variable       cutoffLow   equal   3*1


fix            topWall all wall/lj93 zhi EDGE                ${epsilonWall} ${sigma} ${cutoffTop} units box
fix            topWall all wall/lj93 zhi EDGE                2 ${sigma} ${cutoffTop} units box
fix            topWall all wall/lj93 zhi EDGE                2 1 ${cutoffTop} units box
fix            topWall all wall/lj93 zhi EDGE                2 1 0.7147 units box

fix            lowWall all wall/lj93 zlo EDGE                ${epsilonWall} ${sigma} ${cutoffLow} units box
fix            lowWall all wall/lj93 zlo EDGE                2 ${sigma} ${cutoffLow} units box
fix            lowWall all wall/lj93 zlo EDGE                2 1 ${cutoffLow} units box
fix            lowWall all wall/lj93 zlo EDGE                2 1 3 units box


###################### COMPUTES ##########################

compute        bin1 solvent chunk/atom bin/1d z upper 1.0



######################	FIXES ############################


fix 		peclet solvent ave/chunk 1000 1 1000 bin1 density/number norm 		 none ave one file density.profile

fix 		2 solvent nve

## Thermostat


#region		regthermo block EDGE EDGE EDGE EDGE 0 20

#group 		thermo dynamic solvent region regthermo every 1000

fix 		3 all langevin ${startTemp} ${temp} 10 156453
fix 		3 all langevin 0.5 ${temp} 10 156453
fix 		3 all langevin 0.5 .7 10 156453



#### Load balancing


fix 		bal all balance 1000 1.05 shift z 10 1.05


############### Diagnostics and computes ###################
#compute 	com cube	  rigid/local	1 mol x y z
#compute 	quat cube	  rigid/local	1 mol quatw quati quatj quatk

thermo 		1000
thermo_style 	custom step temp epair evdwl etotal press pe ke vol

dump		1 all custom 100000 dump.lammpstrj id mol type x y z
dump 		2 all image 10000 image.*.png type type
dump 		3 all movie 1000 movie.avi type type
#dump 		com cube local 1000 dump.*.xyz c_com[*]
#dump		quat cube      local 1000 dump.*.quat c_quat[*]


restart 	500000 restart.dat
timestep 	0.0025
timer 		full
New timer settings: style=full  mode=nosync  timeout=off


run		1000000
Per MPI rank memory allocation (min/avg/max) = 21.58 | 28.12 | 30.30 Mbytes
Step Temp E_pair E_vdwl TotEng Press PotEng KinEng Volume 
       0   0.49997217   -3.3137429   -3.3137429   -2.5637849    8.4475947   -3.3137429   0.74995807      8192000 
    1000    1.2323443   -4.9608523   -4.9608523   -3.1123363    4.2626974   -4.9608523    1.8485159      8192000 
    2000    1.0581512   -5.1810273   -5.1810273   -3.5938009    3.1776218   -5.1810273    1.5872264      8192000 
    3000   0.92127187   -5.3396869   -5.3396869   -3.9577794    2.3471654   -5.3396869    1.3819075      8192000 
    4000   0.80763591   -5.4403397   -5.4403397   -4.2288861     1.752771   -5.4403397    1.2114536      8192000 
    5000   0.72241889    -5.508272    -5.508272   -4.4246439    1.3204399    -5.508272    1.0836281      8192000 
    6000   0.66350917   -5.5624915   -5.5624915    -4.567228   0.96820965   -5.5624915    0.9952635      8192000 
    7000   0.62119397   -5.6033255   -5.6033255   -4.6715348   0.68782569   -5.6033255   0.93179072      8192000 
    8000   0.58815327   -5.6302809   -5.6302809   -4.7480512   0.47623053   -5.6302809   0.88222969      8192000 
    9000   0.56330761   -5.6478704   -5.6478704   -4.8029092   0.33002536   -5.6478704   0.84496121      8192000 
   10000   0.54515038   -5.6594132   -5.6594132   -4.8416879   0.24133974   -5.6594132   0.81772536      8192000 
   11000   0.53260572   -5.6678623   -5.6678623   -4.8689539   0.18334765   -5.6678623   0.79890839      8192000 
   12000   0.52235868   -5.6712026   -5.6712026   -4.8876647   0.13657208   -5.6712026   0.78353782      8192000 
   13000    0.5147279   -5.6718907   -5.6718907   -4.8997991  0.095350702   -5.6718907   0.77209166      8192000 
   14000   0.50924089   -5.6703754   -5.6703754   -4.9065143  0.063520285   -5.6703754   0.76386114      8192000 
   15000   0.50574644   -5.6683669   -5.6683669   -4.9097474  0.036234271   -5.6683669   0.75861947      8192000 
   16000   0.50271676   -5.6650668   -5.6650668   -4.9109918  0.015025466   -5.6650668   0.75407496      8192000 
   17000   0.50113494   -5.6621329   -5.6621329   -4.9104306 -0.0029829908   -5.6621329   0.75170222      8192000 
   18000    0.5002914   -5.6588189   -5.6588189    -4.908382 -0.014859327   -5.6588189   0.75043691      8192000 
   19000   0.50014558   -5.6560251   -5.6560251   -4.9058069 -0.022024538   -5.6560251   0.75021818      8192000 
   20000   0.50028089   -5.6532139   -5.6532139   -4.9027928 -0.024011253   -5.6532139   0.75042115      8192000 
   21000   0.50122138   -5.6517019   -5.6517019     -4.89987 -0.024787375   -5.6517019   0.75183189      8192000 
   22000   0.50181996   -5.6506194   -5.6506194   -4.8978897 -0.024064534   -5.6506194   0.75272975      8192000 
   23000   0.50216454   -5.6494082   -5.6494082   -4.8961616 -0.020311538   -5.6494082   0.75324662      8192000 
   24000   0.50307775   -5.6492906   -5.6492906   -4.8946742 -0.018146639   -5.6492906   0.75461643      8192000 
   25000   0.50392525   -5.6491343   -5.6491343   -4.8932466 -0.015380187   -5.6491343   0.75588769      8192000 
   26000   0.50396393   -5.6488051   -5.6488051   -4.8928594 -0.012958011   -5.6488051   0.75594571      8192000 
   27000   0.50451632   -5.6488285   -5.6488285   -4.8920542 -0.010217094   -5.6488285   0.75677429      8192000 
   28000   0.50514706   -5.6491503   -5.6491503   -4.8914299 -0.0096463391   -5.6491503    0.7577204      8192000 
   29000   0.50549251   -5.6493593   -5.6493593   -4.8911207 -0.0085750804   -5.6493593   0.75823857      8192000 
   30000    0.5059133   -5.6490753   -5.6490753   -4.8902056 -0.0065345565   -5.6490753   0.75886976      8192000 
   31000   0.50618907   -5.6496111   -5.6496111   -4.8903277 -0.0053052126   -5.6496111   0.75928341      8192000 
   32000   0.50609762   -5.6493291   -5.6493291   -4.8901829 -0.0049979237   -5.6493291   0.75914623      8192000 
   33000   0.50644397   -5.6499281   -5.6499281   -4.8902623 -0.0064247951   -5.6499281   0.75966577      8192000 
   34000   0.50649323   -5.6501986   -5.6501986   -4.8904589 -0.006759561   -5.6501986   0.75973965      8192000 
   35000   0.50669497   -5.6495642   -5.6495642   -4.8895219 -0.0062280045   -5.6495642   0.76004227      8192000 
   36000   0.50694065   -5.6499003   -5.6499003   -4.8894895 -0.0069285481   -5.6499003   0.76041078      8192000 
   37000   0.50719031   -5.6497013   -5.6497013    -4.888916 -0.0065993607   -5.6497013   0.76078528      8192000 
   38000    0.5074518   -5.6502465   -5.6502465    -4.889069 -0.0074789702   -5.6502465   0.76117751      8192000 
   39000   0.50757721   -5.6503122   -5.6503122   -4.8889466 -0.0074020535   -5.6503122   0.76136563      8192000 
   40000   0.50802849   -5.6501102   -5.6501102   -4.8880676 -0.0052324115   -5.6501102   0.76204254      8192000 
   41000   0.50805633   -5.6505928   -5.6505928   -4.8885085 -0.0076086447   -5.6505928   0.76208431      8192000 
   42000   0.50822215   -5.6504007   -5.6504007   -4.8880676 -0.0067179778   -5.6504007   0.76233304      8192000 
   43000    0.5086056   -5.6505476   -5.6505476   -4.8876394 -0.0074608257   -5.6505476   0.76290821      8192000 
   44000   0.50897437   -5.6506814   -5.6506814   -4.8872201 -0.0079192912   -5.6506814   0.76346137      8192000 
   45000   0.50876568   -5.6503841   -5.6503841   -4.8872357 -0.0077002638   -5.6503841   0.76314833      8192000 
   46000   0.50911287   -5.6511688   -5.6511688   -4.8874997 -0.010680188   -5.6511688   0.76366911      8192000 
   47000   0.50883153    -5.650934    -5.650934   -4.8876868 -0.0090781225    -5.650934   0.76324711      8192000 
   48000   0.50940448   -5.6515484   -5.6515484   -4.8874419 -0.010030425   -5.6515484   0.76410653      8192000 
   49000   0.50946699   -5.6519157   -5.6519157   -4.8877154 -0.011675817   -5.6519157   0.76420029      8192000 
   50000   0.50955786   -5.6517211   -5.6517211   -4.8873845 -0.010119234   -5.6517211   0.76433661      8192000 
   51000   0.51001006   -5.6522965   -5.6522965   -4.8872816 -0.012843795   -5.6522965    0.7650149      8192000 
   52000     0.510356      -5.6523      -5.6523   -4.8867662 -0.012655085      -5.6523   0.76553381      8192000 
   53000   0.51040367    -5.652368    -5.652368   -4.8867627  -0.01222627    -5.652368   0.76560531      8192000 
   54000    0.5106675   -5.6528155   -5.6528155   -4.8868144 -0.013691011   -5.6528155   0.76600105      8192000 
   55000   0.51083352   -5.6526297   -5.6526297   -4.8863796  -0.01325931   -5.6526297   0.76625008      8192000 
   56000   0.51088716   -5.6527487   -5.6527487   -4.8864182  -0.01467679   -5.6527487   0.76633054      8192000 
   57000   0.51098928   -5.6525649   -5.6525649   -4.8860812 -0.014304583   -5.6525649   0.76648373      8192000 
   58000      0.51146    -5.652411    -5.652411   -4.8852212 -0.012562456    -5.652411    0.7671898      8192000 
   59000   0.51156165   -5.6526499   -5.6526499   -4.8853076 -0.012860579   -5.6526499   0.76734229      8192000 
   60000   0.51159837    -5.652783    -5.652783   -4.8853856 -0.014025421    -5.652783   0.76739736      8192000 
   61000    0.5116507   -5.6530703   -5.6530703   -4.8855944 -0.015352617   -5.6530703   0.76747585      8192000 
   62000   0.51214624   -5.6538272   -5.6538272    -4.885608 -0.016964434   -5.6538272   0.76821917      8192000 
   63000   0.51232496   -5.6536587   -5.6536587   -4.8851715 -0.015170946   -5.6536587   0.76848724      8192000 
   64000   0.51227931   -5.6537421   -5.6537421   -4.8853233  -0.01551857   -5.6537421   0.76841877      8192000 
   65000   0.51290755   -5.6546713   -5.6546713   -4.8853102 -0.016700243   -5.6546713   0.76936113      8192000 
   66000   0.51307012   -5.6545312   -5.6545312   -4.8849262 -0.016247335   -5.6545312   0.76960498      8192000 
   67000   0.51319432   -5.6546507   -5.6546507   -4.8848594 -0.015483183   -5.6546507   0.76979129      8192000 
   68000    0.5134815   -5.6545331   -5.6545331   -4.8843111  -0.01571782   -5.6545331   0.77022205      8192000 
   69000   0.51434704   -5.6551905   -5.6551905   -4.8836701 -0.016530566   -5.6551905   0.77152037      8192000 
   70000    0.5142587   -5.6551822   -5.6551822   -4.8837944 -0.016462081   -5.6551822   0.77138786      8192000 
   71000    0.5138584   -5.6546946   -5.6546946   -4.8839072 -0.015285688   -5.6546946    0.7707874      8192000 
   72000   0.51449425   -5.6555261   -5.6555261   -4.8837849 -0.017544943   -5.6555261   0.77174118      8192000 
   73000   0.51452197   -5.6552004   -5.6552004   -4.8834176 -0.016909883   -5.6552004   0.77178277      8192000 
   74000   0.51486765   -5.6553755   -5.6553755   -4.8830742 -0.016860801   -5.6553755   0.77230128      8192000 
   75000   0.51482148   -5.6555402   -5.6555402   -4.8833082  -0.01774106   -5.6555402   0.77223203      8192000 
   76000   0.51551989   -5.6563352   -5.6563352   -4.8830555 -0.018700079   -5.6563352   0.77327964      8192000 
   77000   0.51585448   -5.6571159   -5.6571159   -4.8833344 -0.019039207   -5.6571159   0.77378152      8192000 
   78000   0.51562581   -5.6569947   -5.6569947   -4.8835562 -0.018599201   -5.6569947   0.77343852      8192000 
   79000   0.51580284   -5.6569919   -5.6569919   -4.8832878 -0.017981332   -5.6569919   0.77370407      8192000 
   80000   0.51619689   -5.6576293   -5.6576293   -4.8833342 -0.019217228   -5.6576293   0.77429514      8192000 
   81000   0.51562831   -5.6570757   -5.6570757   -4.8836334 -0.018224433   -5.6570757   0.77344227      8192000 
   82000   0.51610318   -5.6574901   -5.6574901   -4.8833356 -0.019233554   -5.6574901   0.77415457      8192000 
   83000   0.51671722   -5.6584689   -5.6584689   -4.8833933 -0.020239855   -5.6584689   0.77507564      8192000 
   84000   0.51702256   -5.6586198   -5.6586198   -4.8830861 -0.020914386   -5.6586198   0.77553364      8192000 
   85000   0.51669661   -5.6582494   -5.6582494   -4.8832047 -0.019386147   -5.6582494   0.77504472      8192000 
   86000   0.51748865   -5.6592112   -5.6592112   -4.8829784 -0.020460358   -5.6592112   0.77623279      8192000 
   87000   0.51734657   -5.6588553   -5.6588553   -4.8828356  -0.01909168   -5.6588553   0.77601965      8192000 
   88000   0.51766023   -5.6589843   -5.6589843   -4.8824942  -0.01919253   -5.6589843   0.77649016      8192000 
   89000   0.51796637    -5.659017    -5.659017   -4.8820676 -0.019614976    -5.659017   0.77694936      8192000 
   90000   0.51805058    -5.659446    -5.659446   -4.8823703  -0.02128493    -5.659446   0.77707568      8192000 
   91000   0.51865343   -5.6600513   -5.6600513   -4.8820713 -0.021264727   -5.6600513   0.77797995      8192000 
   92000   0.51853061   -5.6599153   -5.6599153   -4.8821195  -0.02092501   -5.6599153   0.77779572      8192000 
   93000   0.51864029    -5.660082    -5.660082   -4.8821218 -0.021543504    -5.660082   0.77796023      8192000 
   94000   0.51871747   -5.6602136   -5.6602136   -4.8821376  -0.02183198   -5.6602136   0.77807601      8192000 
   95000   0.51903297   -5.6607795   -5.6607795   -4.8822302 -0.024014925   -5.6607795   0.77854927      8192000 
   96000   0.51901611   -5.6608794   -5.6608794   -4.8823554 -0.022705636   -5.6608794   0.77852397      8192000 
   97000   0.51951436    -5.661232    -5.661232   -4.8819606 -0.022409554    -5.661232   0.77927134      8192000 
   98000   0.51956598   -5.6613336   -5.6613336   -4.8819848 -0.021434226   -5.6613336   0.77934877      8192000 
   99000   0.51999522   -5.6613222   -5.6613222   -4.8813295 -0.020875149   -5.6613222   0.77999263      8192000 
  100000   0.52033582   -5.6619804   -5.6619804   -4.8814769 -0.021499954   -5.6619804   0.78050353      8192000 
  101000   0.52032591   -5.6620264   -5.6620264   -4.8815377 -0.021230612   -5.6620264   0.78048867      8192000 
  102000   0.52012105   -5.6623213   -5.6623213   -4.8821399 -0.022331313   -5.6623213   0.78018138      8192000 
  103000   0.52029417   -5.6627725   -5.6627725   -4.8823314 -0.023934613   -5.6627725   0.78044106      8192000 
  104000   0.52079742   -5.6630816   -5.6630816   -4.8818857 -0.023079608   -5.6630816   0.78119593      8192000 
  105000   0.52107897   -5.6632607   -5.6632607   -4.8816424 -0.022638748   -5.6632607   0.78161826      8192000 
  106000   0.52147248   -5.6631401   -5.6631401   -4.8809315 -0.022431899   -5.6631401   0.78220852      8192000 
  107000   0.52178364   -5.6637945   -5.6637945   -4.8811192  -0.02306055   -5.6637945   0.78267526      8192000 
  108000   0.52169721   -5.6636488   -5.6636488   -4.8811032 -0.022220176   -5.6636488   0.78254562      8192000 
  109000   0.52180961   -5.6643716   -5.6643716   -4.8816574 -0.022544343   -5.6643716   0.78271422      8192000 
  110000   0.52192397   -5.6648177   -5.6648177   -4.8819319 -0.022838286   -5.6648177   0.78288576      8192000 
  111000    0.5221918   -5.6651519   -5.6651519   -4.8818644 -0.024325304   -5.6651519    0.7832875      8192000 
  112000   0.52232323   -5.6656449   -5.6656449   -4.8821602 -0.024657413   -5.6656449   0.78348466      8192000 
  113000   0.52277408   -5.6661505   -5.6661505   -4.8819896 -0.023880456   -5.6661505   0.78416092      8192000 
  114000    0.5226482   -5.6658128   -5.6658128   -4.8818407 -0.023321372   -5.6658128    0.7839721      8192000 
  115000   0.52268464   -5.6658187   -5.6658187   -4.8817919 -0.022511746   -5.6658187   0.78402677      8192000 
  116000   0.52332481   -5.6662995   -5.6662995   -4.8813125 -0.022952581   -5.6662995   0.78498703      8192000 
  117000   0.52327185   -5.6665295   -5.6665295   -4.8816219 -0.023155897   -5.6665295   0.78490758      8192000 
  118000    0.5237518   -5.6665336   -5.6665336   -4.8809061 -0.023068843   -5.6665336    0.7856275      8192000 
  119000   0.52369561   -5.6662333   -5.6662333   -4.8806901 -0.021539956   -5.6662333   0.78554321      8192000 
  120000   0.52378029    -5.666655    -5.666655   -4.8809847 -0.023224506    -5.666655   0.78567023      8192000 
  121000   0.52432164   -5.6675713   -5.6675713    -4.881089 -0.024879087   -5.6675713   0.78648226      8192000 
  122000   0.52421097   -5.6677137   -5.6677137   -4.8813974 -0.025058466   -5.6677137   0.78631626      8192000 
  123000   0.52489446   -5.6679183   -5.6679183   -4.8805768 -0.024211488   -5.6679183   0.78734149      8192000 
  124000   0.52511733   -5.6681361   -5.6681361   -4.8804603 -0.023825445   -5.6681361   0.78767579      8192000 
  125000   0.52497335   -5.6681357   -5.6681357   -4.8806759 -0.022286265   -5.6681357   0.78745982      8192000 
  126000   0.52500285   -5.6683555   -5.6683555   -4.8808515 -0.023524504   -5.6683555   0.78750407      8192000 
  127000   0.52536407   -5.6687455   -5.6687455   -4.8806996 -0.024858117   -5.6687455   0.78804591      8192000 
  128000   0.52550779   -5.6686159   -5.6686159   -4.8803544 -0.024325057   -5.6686159   0.78826149      8192000 
  129000   0.52573374   -5.6690439   -5.6690439   -4.8804435 -0.025421813   -5.6690439   0.78860041      8192000 
  130000   0.52558319   -5.6690345   -5.6690345   -4.8806599 -0.024889322   -5.6690345   0.78837459      8192000 
  131000   0.52578497   -5.6691427   -5.6691427   -4.8804654 -0.025427123   -5.6691427   0.78867726      8192000 
  132000   0.52616728   -5.6694406   -5.6694406   -4.8801899 -0.025383751   -5.6694406   0.78925072      8192000 
  133000   0.52639028   -5.6697513   -5.6697513    -4.880166 -0.025728231   -5.6697513   0.78958522      8192000 
  134000   0.52670306    -5.670466    -5.670466   -4.8804117  -0.02775197    -5.670466   0.79005438      8192000 
  135000   0.52690464   -5.6706619   -5.6706619   -4.8803051 -0.027845901   -5.6706619   0.79035676      8192000 
  136000   0.52716727   -5.6706795   -5.6706795   -4.8799288 -0.026670464   -5.6706795   0.79075071      8192000 
  137000   0.52743252   -5.6715292   -5.6715292   -4.8803806 -0.028421899   -5.6715292   0.79114858      8192000 
  138000   0.52741663   -5.6714731   -5.6714731   -4.8803484 -0.026772979   -5.6714731   0.79112474      8192000 
  139000   0.52762655   -5.6712439   -5.6712439   -4.8798043  -0.02573261   -5.6712439   0.79143963      8192000 
  140000   0.52784794   -5.6714957   -5.6714957   -4.8797239 -0.025513973   -5.6714957   0.79177171      8192000 
  141000   0.52797127    -5.671601    -5.671601   -4.8796443 -0.025742199    -5.671601    0.7919567      8192000 
  142000   0.52802224   -5.6718015   -5.6718015   -4.8797684 -0.025679308   -5.6718015   0.79203316      8192000 
  143000   0.52831894   -5.6721581   -5.6721581   -4.8796799 -0.025655238   -5.6721581   0.79247821      8192000 
  144000   0.52855455    -5.672432    -5.672432   -4.8796004 -0.026166894    -5.672432   0.79283162      8192000 
  145000   0.52873601   -5.6724902   -5.6724902   -4.8793863 -0.024971693   -5.6724902   0.79310382      8192000 
  146000   0.52889837   -5.6728804   -5.6728804   -4.8795331 -0.026385222   -5.6728804   0.79334736      8192000 
  147000   0.52936622    -5.673115    -5.673115   -4.8790658 -0.025471942    -5.673115   0.79404913      8192000 
  148000   0.52932204   -5.6729371   -5.6729371   -4.8789542 -0.024261039   -5.6729371   0.79398287      8192000 
  149000    0.5300177   -5.6737591   -5.6737591   -4.8787327 -0.025841937   -5.6737591   0.79502635      8192000 
  150000   0.53001819    -5.673783    -5.673783   -4.8787559 -0.026381833    -5.673783   0.79502709      8192000 
  151000   0.53004654   -5.6737198   -5.6737198   -4.8786502 -0.026229354   -5.6737198   0.79506961      8192000 
  152000   0.53010386   -5.6739653   -5.6739653   -4.8788097 -0.025874045   -5.6739653   0.79515559      8192000 
  153000   0.53057096    -5.674625    -5.674625   -4.8787688 -0.027988478    -5.674625   0.79585624      8192000 
  154000   0.53063517   -5.6744467   -5.6744467   -4.8784942 -0.027577058   -5.6744467   0.79595256      8192000 
  155000   0.53110651    -5.674337    -5.674337   -4.8776774 -0.025504946    -5.674337   0.79665957      8192000 
  156000   0.53120897   -5.6745679   -5.6745679   -4.8777546 -0.025009742   -5.6745679   0.79681325      8192000 
  157000   0.53123377   -5.6746643   -5.6746643   -4.8778138 -0.025189942   -5.6746643   0.79685045      8192000 
  158000   0.53157684   -5.6753035   -5.6753035   -4.8779385  -0.02856138   -5.6753035   0.79736506      8192000 
  159000   0.53177876   -5.6753371   -5.6753371   -4.8776692 -0.028331671   -5.6753371   0.79766794      8192000 
  160000   0.53168439   -5.6750607   -5.6750607   -4.8775343 -0.026950808   -5.6750607   0.79752638      8192000 
  161000   0.53208798   -5.6754482   -5.6754482   -4.8773164 -0.028930248   -5.6754482   0.79813177      8192000 
  162000   0.53234048   -5.6757032   -5.6757032   -4.8771926 -0.028929001   -5.6757032   0.79851052      8192000 
  163000   0.53281809   -5.6762485   -5.6762485   -4.8770216 -0.030232297   -5.6762485   0.79922693      8192000 
  164000   0.53263758   -5.6756629   -5.6756629   -4.8767067  -0.02775225   -5.6756629   0.79895617      8192000 
  165000   0.53269416   -5.6753378   -5.6753378   -4.8762967 -0.025827697   -5.6753378   0.79904103      8192000 
  166000   0.53345186   -5.6764772   -5.6764772   -4.8762996 -0.027561073   -5.6764772   0.80017758      8192000 
  167000   0.53361296   -5.6772555   -5.6772555   -4.8768363 -0.028623215   -5.6772555   0.80041925      8192000 
  168000   0.53386629   -5.6772289   -5.6772289   -4.8764296 -0.028561753   -5.6772289   0.80079923      8192000 
  169000   0.53375346   -5.6771935   -5.6771935   -4.8765635 -0.028115485   -5.6771935   0.80062998      8192000 
  170000   0.53373036   -5.6774104   -5.6774104    -4.876815 -0.027369787   -5.6774104   0.80059534      8192000 
  171000   0.53432286   -5.6778125   -5.6778125   -4.8763284  -0.02882697   -5.6778125   0.80148409      8192000 
  172000    0.5343132   -5.6776928   -5.6776928   -4.8762232 -0.028567517   -5.6776928    0.8014696      8192000 
  173000   0.53452699   -5.6781509   -5.6781509   -4.8763607 -0.028392812   -5.6781509   0.80179028      8192000 
  174000   0.53490247   -5.6783136   -5.6783136   -4.8759601 -0.027944777   -5.6783136   0.80235351      8192000 
  175000   0.53493463   -5.6780187   -5.6780187    -4.875617 -0.027233058   -5.6780187   0.80240175      8192000 
  176000   0.53532176   -5.6787134   -5.6787134   -4.8757309 -0.028876318   -5.6787134   0.80298243      8192000 
  177000   0.53526411    -5.678655    -5.678655    -4.875759 -0.029082563    -5.678655   0.80289596      8192000 
  178000   0.53537149   -5.6787574   -5.6787574   -4.8757004 -0.028373539   -5.6787574   0.80305703      8192000 
  179000   0.53553833   -5.6788788   -5.6788788   -4.8755715 -0.028305122   -5.6788788   0.80330729      8192000 
  180000   0.53572047   -5.6789671   -5.6789671   -4.8753866 -0.028030645   -5.6789671   0.80358051      8192000 
  181000    0.5359902   -5.6794388   -5.6794388   -4.8754537 -0.028621409   -5.6794388   0.80398509      8192000 
  182000   0.53615682   -5.6795044   -5.6795044   -4.8752694 -0.028846398   -5.6795044   0.80423502      8192000 
  183000   0.53618786   -5.6794517   -5.6794517   -4.8751701 -0.027886372   -5.6794517   0.80428159      8192000 
  184000   0.53614393    -5.679651    -5.679651   -4.8754353 -0.027673239    -5.679651   0.80421569      8192000 
  185000   0.53670052   -5.6801404   -5.6801404   -4.8750898 -0.028007117   -5.6801404   0.80505058      8192000 
  186000   0.53712653   -5.6803754   -5.6803754   -4.8746858 -0.028213805   -5.6803754   0.80568959      8192000 
  187000   0.53721702   -5.6806655   -5.6806655   -4.8748402 -0.027346839   -5.6806655   0.80582534      8192000 
  188000   0.53733046   -5.6805386   -5.6805386   -4.8745431 -0.026541503   -5.6805386   0.80599548      8192000 
  189000   0.53777941   -5.6810218   -5.6810218   -4.8743529 -0.027475177   -5.6810218   0.80666891      8192000 
  190000    0.5382092   -5.6820853   -5.6820853   -4.8747717 -0.029321215   -5.6820853    0.8073136      8192000 
  191000   0.53780943   -5.6813233   -5.6813233   -4.8746094 -0.026802227   -5.6813233   0.80671394      8192000 
  192000   0.53818067   -5.6819645   -5.6819645   -4.8746937 -0.028067362   -5.6819645    0.8072708      8192000 
  193000   0.53893758   -5.6821776   -5.6821776   -4.8737714 -0.027648334   -5.6821776   0.80840617      8192000 
  194000   0.53873533   -5.6818584   -5.6818584   -4.8737557 -0.026607474   -5.6818584   0.80810279      8192000 
  195000   0.53897015   -5.6822273   -5.6822273   -4.8737723 -0.027513229   -5.6822273   0.80845502      8192000 
  196000   0.53905344   -5.6822317   -5.6822317   -4.8736517 -0.027609932   -5.6822317   0.80857996      8192000 
  197000   0.53895557   -5.6822193   -5.6822193   -4.8737862 -0.026675026   -5.6822193   0.80843316      8192000 
  198000   0.53928546   -5.6827898   -5.6827898   -4.8738618 -0.028165876   -5.6827898   0.80892799      8192000 
  199000   0.53973908    -5.682789    -5.682789   -4.8731806 -0.027382262    -5.682789   0.80960842      8192000 
  200000    0.5397788   -5.6831562   -5.6831562   -4.8734882 -0.027602286   -5.6831562     0.809668      8192000 
  201000   0.54011487   -5.6835076   -5.6835076   -4.8733355 -0.026976362   -5.6835076   0.81017211      8192000 
  202000   0.54024332   -5.6834831   -5.6834831   -4.8731183 -0.025630073   -5.6834831   0.81036477      8192000 
  203000   0.54060095   -5.6839272   -5.6839272    -4.873026 -0.027612387   -5.6839272   0.81090122      8192000 
  204000   0.54040707   -5.6837207   -5.6837207   -4.8731103 -0.025818865   -5.6837207    0.8106104      8192000 
  205000   0.54091116    -5.684237    -5.684237   -4.8728704 -0.027169255    -5.684237   0.81136654      8192000 
  206000   0.54106219   -5.6842034   -5.6842034   -4.8726103 -0.027042646   -5.6842034   0.81159309      8192000 
  207000   0.54125071    -5.684924    -5.684924   -4.8730482 -0.028773819    -5.684924   0.81187586      8192000 
  208000   0.54128321    -5.684895    -5.684895   -4.8729704 -0.027584437    -5.684895   0.81192461      8192000 
  209000   0.54142816   -5.6851682   -5.6851682   -4.8730262  -0.02710035   -5.6851682   0.81214204      8192000 
  210000   0.54192365   -5.6855255   -5.6855255   -4.8726402 -0.027482166   -5.6855255   0.81288528      8192000 
  211000   0.54161634   -5.6851801   -5.6851801   -4.8727558 -0.025549071   -5.6851801    0.8124243      8192000 
  212000   0.54193007   -5.6856058   -5.6856058   -4.8727109 -0.026753526   -5.6856058    0.8128949      8192000 
  213000    0.5424413   -5.6860868   -5.6860868    -4.872425 -0.026790926   -5.6860868   0.81366175      8192000 
  214000   0.54271046   -5.6863532   -5.6863532   -4.8722877 -0.027990837   -5.6863532   0.81406549      8192000 
  215000   0.54277785    -5.686241    -5.686241   -4.8720744 -0.028218367    -5.686241   0.81416657      8192000 
  216000   0.54288199   -5.6859625   -5.6859625   -4.8716398 -0.028539553   -5.6859625   0.81432279      8192000 
  217000   0.54312834   -5.6866101   -5.6866101   -4.8719178 -0.029266191   -5.6866101   0.81469231      8192000 
  218000   0.54346423   -5.6865116   -5.6865116   -4.8713154 -0.028990424   -5.6865116   0.81519614      8192000 
  219000   0.54319497   -5.6858771   -5.6858771   -4.8710849 -0.026880987   -5.6858771   0.81479225      8192000 
  220000    0.5437529   -5.6864587   -5.6864587   -4.8708296 -0.027206455   -5.6864587   0.81562915      8192000 
  221000   0.54410808   -5.6864399   -5.6864399    -4.870278 -0.027259046   -5.6864399   0.81616191      8192000 
  222000   0.54419649   -5.6864683   -5.6864683   -4.8701738 -0.026354949   -5.6864683   0.81629453      8192000 
  223000   0.54432666   -5.6864959   -5.6864959   -4.8700061 -0.025785849   -5.6864959   0.81648979      8192000 
  224000   0.54460565   -5.6866525   -5.6866525   -4.8697443 -0.026289636   -5.6866525   0.81690827      8192000 
  225000   0.54479395   -5.6868787   -5.6868787   -4.8696879  -0.02623362   -5.6868787   0.81719072      8192000 
  226000   0.54529279   -5.6872964   -5.6872964   -4.8693574 -0.025728982   -5.6872964   0.81793898      8192000 
  227000   0.54530028   -5.6873334   -5.6873334   -4.8693832 -0.026195437   -5.6873334   0.81795021      8192000 
  228000   0.54548106   -5.6875156   -5.6875156   -4.8692943 -0.025900807   -5.6875156   0.81822139      8192000 
  229000   0.54573458   -5.6875778   -5.6875778   -4.8689761 -0.025602732   -5.6875778   0.81860166      8192000 
  230000   0.54607933   -5.6879596   -5.6879596   -4.8688408 -0.024585492   -5.6879596    0.8191188      8192000 
  231000   0.54615142   -5.6880073   -5.6880073   -4.8687803 -0.025530989   -5.6880073   0.81922692      8192000 
  232000   0.54622119   -5.6877126   -5.6877126    -4.868381 -0.023724023   -5.6877126   0.81933158      8192000 
  233000    0.5464593   -5.6883011   -5.6883011   -4.8686124 -0.025030144   -5.6883011   0.81968875      8192000 
  234000   0.54636478   -5.6884215   -5.6884215   -4.8688745 -0.024383224   -5.6884215   0.81954696      8192000 
  235000   0.54692588   -5.6889257   -5.6889257    -4.868537 -0.024871455   -5.6889257   0.82038862      8192000 
  236000   0.54706656   -5.6890382   -5.6890382   -4.8684385 -0.024635758   -5.6890382   0.82059964      8192000 
  237000   0.54706693   -5.6887389   -5.6887389   -4.8681387 -0.024074757   -5.6887389   0.82060019      8192000 
  238000   0.54715932   -5.6888541   -5.6888541   -4.8681154 -0.024217686   -5.6888541   0.82073878      8192000 
  239000   0.54759587   -5.6898251   -5.6898251   -4.8684315   -0.0263403   -5.6898251    0.8213936      8192000 
  240000   0.54800053   -5.6901292   -5.6901292   -4.8681286 -0.025774609   -5.6901292    0.8220006      8192000 
  241000    0.5482111   -5.6898749   -5.6898749   -4.8675585 -0.025186514   -5.6898749   0.82231645      8192000 
  242000   0.54817463   -5.6897044   -5.6897044   -4.8674426 -0.026129201   -5.6897044   0.82226173      8192000 
  243000   0.54830927   -5.6895669   -5.6895669   -4.8671032 -0.025107755   -5.6895669    0.8224637      8192000 
  244000   0.54846503   -5.6897211   -5.6897211   -4.8670237 -0.024583078   -5.6897211   0.82269734      8192000 
  245000   0.54877485   -5.6898648   -5.6898648   -4.8667028 -0.024935066   -5.6898648   0.82316207      8192000 
  246000   0.54897036   -5.6902014   -5.6902014   -4.8667461 -0.025995705   -5.6902014   0.82345533      8192000 
  247000   0.54892391   -5.6895888   -5.6895888   -4.8662032 -0.023509766   -5.6895888   0.82338566      8192000 
  248000   0.54912579   -5.6902576   -5.6902576   -4.8665691 -0.024658837   -5.6902576   0.82368848      8192000 
  249000   0.54919965   -5.6903542   -5.6903542   -4.8665549 -0.025383405   -5.6903542   0.82379927      8192000 
  250000   0.54937213   -5.6901329   -5.6901329   -4.8660749 -0.024411399   -5.6901329   0.82405799      8192000 
  251000   0.54958232   -5.6904537   -5.6904537   -4.8660805 -0.025949304   -5.6904537   0.82437327      8192000 
  252000   0.54969416   -5.6903624   -5.6903624   -4.8658214 -0.026607386   -5.6903624   0.82454104      8192000 
  253000   0.54994452   -5.6906068   -5.6906068   -4.8656902 -0.026432066   -5.6906068   0.82491658      8192000 
  254000   0.54997837     -5.69083     -5.69083   -4.8658627 -0.026645671     -5.69083   0.82496735      8192000 
  255000   0.55039366   -5.6908022   -5.6908022   -4.8652119  -0.02669127   -5.6908022   0.82559028      8192000 
  256000    0.5505742   -5.6903409   -5.6903409   -4.8644798  -0.02442341   -5.6903409    0.8258611      8192000 
  257000   0.55097399   -5.6905337   -5.6905337    -4.864073 -0.024890567   -5.6905337   0.82646077      8192000 
  258000   0.55105189   -5.6903438   -5.6903438   -4.8637661 -0.024200446   -5.6903438   0.82657762      8192000 
  259000   0.55129165    -5.690404    -5.690404   -4.8634667 -0.023205756    -5.690404   0.82693727      8192000 
  260000    0.5515372   -5.6907659   -5.6907659   -4.8634603 -0.024032986   -5.6907659    0.8273056      8192000 
  261000   0.55186259   -5.6909219   -5.6909219   -4.8631283 -0.023699779   -5.6909219   0.82779368      8192000 
  262000   0.55209875   -5.6908301   -5.6908301   -4.8626822 -0.023258386   -5.6908301   0.82814791      8192000 
  263000   0.55205141   -5.6909424   -5.6909424   -4.8628655 -0.024598028   -5.6909424   0.82807691      8192000 
  264000   0.55213101   -5.6910472   -5.6910472   -4.8628509 -0.025245194   -5.6910472    0.8281963      8192000 
  265000   0.55266063   -5.6912802   -5.6912802   -4.8622894 -0.025203643   -5.6912802   0.82899074      8192000 
  266000   0.55273413   -5.6909449   -5.6909449   -4.8618439 -0.021930097   -5.6909449   0.82910098      8192000 
  267000   0.55292965   -5.6909459   -5.6909459   -4.8615516 -0.022824112   -5.6909459   0.82939426      8192000 
  268000    0.5534035   -5.6911949   -5.6911949   -4.8610899  -0.02360598   -5.6911949   0.83010504      8192000 
  269000    0.5537804   -5.6912707   -5.6912707   -4.8606003 -0.024325415   -5.6912707   0.83067039      8192000 
  270000    0.5538854   -5.6903831   -5.6903831   -4.8595553 -0.021760673   -5.6903831   0.83082788      8192000 
  271000   0.55404209   -5.6906664   -5.6906664   -4.8596034 -0.023407967   -5.6906664   0.83106293      8192000 
  272000    0.5540677   -5.6906795   -5.6906795   -4.8595781  -0.02311105   -5.6906795   0.83110134      8192000 
  273000   0.55418202   -5.6907981   -5.6907981   -4.8595253   -0.0226265   -5.6907981   0.83127282      8192000 
  274000   0.55407644   -5.6907913   -5.6907913   -4.8596768 -0.021954107   -5.6907913   0.83111446      8192000 
  275000   0.55442259    -5.690785    -5.690785   -4.8591513 -0.021716184    -5.690785   0.83163368      8192000 
  276000   0.55506801   -5.6913435   -5.6913435   -4.8587417 -0.023538886   -5.6913435   0.83260181      8192000 
  277000   0.55473574    -5.691217    -5.691217   -4.8591136 -0.023731955    -5.691217   0.83210341      8192000 
  278000   0.55531175    -5.691859    -5.691859   -4.8588916 -0.024231483    -5.691859   0.83296742      8192000 
  279000   0.55556064   -5.6916754   -5.6916754   -4.8583347 -0.023061974   -5.6916754   0.83334076      8192000 
  280000   0.55584939    -5.691587    -5.691587   -4.8578131 -0.022954111    -5.691587   0.83377388      8192000 
  281000   0.55586254   -5.6916174   -5.6916174   -4.8578238 -0.022304924   -5.6916174    0.8337936      8192000 
  282000   0.55600288   -5.6915016   -5.6915016   -4.8574975 -0.022380747   -5.6915016   0.83400411      8192000 
  283000   0.55595432   -5.6911473   -5.6911473    -4.857216 -0.020593414   -5.6911473   0.83393127      8192000 
  284000   0.55673236   -5.6916862   -5.6916862   -4.8565879 -0.023594952   -5.6916862   0.83509834      8192000 
  285000   0.55688329   -5.6918423   -5.6918423   -4.8565175  -0.02261044   -5.6918423   0.83532472      8192000 
  286000    0.5569566   -5.6921424   -5.6921424   -4.8567077 -0.023106878   -5.6921424   0.83543468      8192000 
  287000   0.55666554   -5.6919339   -5.6919339   -4.8569357 -0.022578029   -5.6919339   0.83499811      8192000 
  288000   0.55714064    -5.692143    -5.692143   -4.8564323 -0.022446503    -5.692143   0.83571075      8192000 
  289000   0.55721053   -5.6923479   -5.6923479   -4.8565323 -0.023321938   -5.6923479   0.83581559      8192000 
  290000   0.55735989   -5.6922648   -5.6922648   -4.8562252 -0.022831973   -5.6922648   0.83603963      8192000 
  291000    0.5574937   -5.6917954   -5.6917954    -4.855555 -0.020846674   -5.6917954   0.83624034      8192000 
  292000   0.55769334   -5.6921095   -5.6921095   -4.8555697 -0.021952797   -5.6921095    0.8365398      8192000 
  293000   0.55805454   -5.6921194   -5.6921194   -4.8550378 -0.021136179   -5.6921194   0.83708161      8192000 
  294000   0.55837509   -5.6926642   -5.6926642   -4.8551018 -0.020873306   -5.6926642   0.83756242      8192000 
  295000    0.5585697   -5.6928537   -5.6928537   -4.8549994 -0.021967218   -5.6928537   0.83785434      8192000 
  296000   0.55874354   -5.6929147   -5.6929147   -4.8547996 -0.021285518   -5.6929147   0.83811511      8192000 
  297000   0.55903953   -5.6925389   -5.6925389   -4.8539798 -0.020080406   -5.6925389   0.83855908      8192000 
  298000    0.5596024   -5.6927161   -5.6927161   -4.8533127 -0.019391643   -5.6927161   0.83940339      8192000 
  299000   0.55950501   -5.6920898   -5.6920898   -4.8528325 -0.019688361   -5.6920898    0.8392573      8192000 
  300000   0.56013566    -5.692644    -5.692644   -4.8524407 -0.021357629    -5.692644   0.84020328      8192000 
  301000   0.55994485   -5.6920695   -5.6920695   -4.8521524 -0.019909117   -5.6920695   0.83991706      8192000 
  302000   0.56013843   -5.6916688   -5.6916688   -4.8514613 -0.018321134   -5.6916688   0.84020744      8192000 
  303000    0.5601449   -5.6919524   -5.6919524   -4.8517352  -0.02001192   -5.6919524   0.84021714      8192000 
  304000   0.56034495   -5.6919982   -5.6919982    -4.851481 -0.020142235   -5.6919982   0.84051722      8192000 
  305000   0.56056316   -5.6922231   -5.6922231   -4.8513786 -0.020158746   -5.6922231   0.84084452      8192000 
  306000   0.56074844   -5.6921118   -5.6921118   -4.8509893 -0.019538011   -5.6921118   0.84112245      8192000 
  307000   0.56120687    -5.692303    -5.692303   -4.8504929 -0.020031399    -5.692303   0.84181009      8192000 
  308000   0.56103279   -5.6918695   -5.6918695   -4.8503205 -0.018486601   -5.6918695   0.84154898      8192000 
  309000   0.56118629   -5.6920795   -5.6920795   -4.8503003 -0.019143784   -5.6920795   0.84177923      8192000 
  310000    0.5615469   -5.6917714   -5.6917714   -4.8494513 -0.018362996   -5.6917714   0.84232013      8192000 
  311000   0.56222306   -5.6924804   -5.6924804    -4.849146 -0.019601175   -5.6924804   0.84333437      8192000 
  312000   0.56212113   -5.6922254   -5.6922254   -4.8490439 -0.018002586   -5.6922254   0.84318149      8192000 
  313000   0.56216635   -5.6916747   -5.6916747   -4.8484254 -0.017382013   -5.6916747   0.84324931      8192000 
  314000   0.56236464   -5.6914067   -5.6914067   -4.8478599 -0.016758607   -5.6914067   0.84354675      8192000 
  315000   0.56247773   -5.6914955   -5.6914955   -4.8477791  -0.01801214   -5.6914955   0.84371639      8192000 
  316000   0.56261303   -5.6914358   -5.6914358   -4.8475164 -0.017654106   -5.6914358   0.84391933      8192000 
  317000   0.56279383   -5.6918433   -5.6918433   -4.8476528 -0.020029863   -5.6918433   0.84419054      8192000 
  318000   0.56310563   -5.6917429   -5.6917429   -4.8470847 -0.018427649   -5.6917429   0.84465824      8192000 
  319000   0.56300217   -5.6917643   -5.6917643   -4.8472613 -0.019848343   -5.6917643   0.84450304      8192000 
  320000   0.56323732   -5.6917298   -5.6917298   -4.8468741 -0.018580903   -5.6917298   0.84485576      8192000 
  321000   0.56359817   -5.6918826   -5.6918826   -4.8464855 -0.020563763   -5.6918826   0.84539704      8192000 
  322000    0.5639451   -5.6916084   -5.6916084   -4.8456909 -0.019755716   -5.6916084   0.84591743      8192000 
  323000   0.56425867   -5.6913566   -5.6913566   -4.8449688 -0.018468774   -5.6913566   0.84638779      8192000 
  324000   0.56430573   -5.6917266   -5.6917266   -4.8452682 -0.019727951   -5.6917266   0.84645838      8192000 
  325000   0.56441102   -5.6915879   -5.6915879   -4.8449715  -0.01888014   -5.6915879   0.84661631      8192000 
  326000   0.56449014   -5.6911535   -5.6911535   -4.8444185 -0.016858721   -5.6911535     0.846735      8192000 
  327000   0.56518846   -5.6914289   -5.6914289   -4.8436464 -0.018709387   -5.6914289   0.84778248      8192000 
  328000   0.56511876   -5.6910799   -5.6910799    -4.843402  -0.01850141   -5.6910799   0.84767793      8192000 
  329000   0.56550623   -5.6915258   -5.6915258   -4.8432666 -0.019523729   -5.6915258   0.84825913      8192000 
  330000   0.56546234   -5.6915113   -5.6915113    -4.843318 -0.018964338   -5.6915113    0.8481933      8192000 
  331000   0.56558832   -5.6913677   -5.6913677   -4.8429854 -0.018647773   -5.6913677   0.84838227      8192000 
  332000   0.56571731    -5.691331    -5.691331   -4.8427553 -0.018879369    -5.691331   0.84857576      8192000 
  333000   0.56587409   -5.6912592   -5.6912592   -4.8424483 -0.019030124   -5.6912592   0.84881092      8192000 
  334000   0.56609056   -5.6909329   -5.6909329   -4.8417972 -0.019440549   -5.6909329   0.84913563      8192000 
  335000   0.56650854   -5.6906198   -5.6906198   -4.8408572 -0.018763797   -5.6906198    0.8497626      8192000 
  336000    0.5667618   -5.6905783   -5.6905783   -4.8404359  -0.01748693   -5.6905783   0.85014249      8192000 
  337000   0.56697864   -5.6908742   -5.6908742   -4.8404064 -0.018451116   -5.6908742   0.85046775      8192000 
  338000   0.56683389   -5.6904428   -5.6904428   -4.8401921 -0.018068707   -5.6904428   0.85025062      8192000 
  339000   0.56696152   -5.6900262   -5.6900262   -4.8395841 -0.017952098   -5.6900262   0.85044206      8192000 
  340000   0.56745232   -5.6903317   -5.6903317   -4.8391535 -0.018881755   -5.6903317   0.85117826      8192000 
  341000   0.56752136   -5.6901747   -5.6901747   -4.8388928 -0.019742244   -5.6901747   0.85128182      8192000 
  342000    0.5677022   -5.6899037   -5.6899037   -4.8383506 -0.018775023   -5.6899037   0.85155309      8192000 
  343000   0.56803564   -5.6895077   -5.6895077   -4.8374545  -0.01770121   -5.6895077   0.85205324      8192000 
  344000   0.56824466   -5.6897637   -5.6897637   -4.8373969 -0.016231756   -5.6897637   0.85236678      8192000 
  345000   0.56810536   -5.6891832   -5.6891832   -4.8370254 -0.015324976   -5.6891832   0.85215782      8192000 
  346000   0.56872162   -5.6896285   -5.6896285   -4.8365463 -0.017068173   -5.6896285   0.85308221      8192000 
  347000   0.56847014   -5.6890167   -5.6890167   -4.8363117 -0.015767814   -5.6890167     0.852705      8192000 
  348000   0.56887378   -5.6894525   -5.6894525   -4.8361421 -0.017848868   -5.6894525   0.85331046      8192000 
  349000   0.56931317   -5.6895397   -5.6895397   -4.8355702 -0.017007127   -5.6895397   0.85396953      8192000 
  350000   0.56928648   -5.6888629   -5.6888629   -4.8349334 -0.014876835   -5.6888629   0.85392951      8192000 
  351000    0.5698929   -5.6895093   -5.6895093   -4.8346702 -0.016957276   -5.6895093   0.85483914      8192000 
  352000   0.56971742   -5.6880018   -5.6880018   -4.8334259 -0.014699701   -5.6880018   0.85457591      8192000 
  353000   0.57018119   -5.6882113   -5.6882113   -4.8329397 -0.016169847   -5.6882113   0.85527158      8192000 
  354000   0.57096558   -5.6884498   -5.6884498   -4.8320017 -0.015357332   -5.6884498   0.85644815      8192000 
  355000   0.57053067   -5.6878724   -5.6878724   -4.8320766 -0.013925413   -5.6878724    0.8557958      8192000 
  356000   0.57056661   -5.6879133   -5.6879133   -4.8320636 -0.014688181   -5.6879133   0.85584971      8192000 
  357000   0.57091622   -5.6881968   -5.6881968   -4.8318227 -0.015180321   -5.6881968   0.85637411      8192000 
  358000   0.57108871   -5.6880766   -5.6880766   -4.8314438  -0.01542955   -5.6880766   0.85663285      8192000 
  359000   0.57109156   -5.6874517   -5.6874517   -4.8308145  -0.01431456   -5.6874517   0.85663713      8192000 
  360000   0.57152798   -5.6876924   -5.6876924   -4.8304007 -0.015734952   -5.6876924   0.85729176      8192000 
  361000   0.57203904   -5.6874941   -5.6874941   -4.8294357 -0.014078747   -5.6874941   0.85805834      8192000 
  362000   0.57200569   -5.6868328   -5.6868328   -4.8288244 -0.012508382   -5.6868328   0.85800833      8192000 
  363000    0.5724714   -5.6876816   -5.6876816   -4.8289747 -0.014516054   -5.6876816   0.85870689      8192000 
  364000   0.57214003   -5.6872361   -5.6872361   -4.8290263 -0.012711986   -5.6872361   0.85820983      8192000 
  365000   0.57211541   -5.6871437   -5.6871437   -4.8289708 -0.013269227   -5.6871437    0.8581729      8192000 
  366000   0.57275322   -5.6873216   -5.6873216    -4.828192 -0.013660131   -5.6873216   0.85912962      8192000 
  367000   0.57308022   -5.6868735   -5.6868735   -4.8272534 -0.011893455   -5.6868735   0.85962012      8192000 
  368000   0.57318029   -5.6866263   -5.6866263   -4.8268561 -0.010442883   -5.6866263   0.85977022      8192000 
  369000   0.57341013   -5.6871914   -5.6871914   -4.8270765 -0.011565274   -5.6871914   0.86011497      8192000 
  370000   0.57343157   -5.6869514   -5.6869514   -4.8268043 -0.011775457   -5.6869514   0.86014714      8192000 
  371000    0.5733235   -5.6868621   -5.6868621    -4.826877 -0.011651749   -5.6868621   0.85998503      8192000 
  372000   0.57360738   -5.6866921   -5.6866921   -4.8262813 -0.011804437   -5.6866921   0.86041086      8192000 
  373000   0.57355933   -5.6868462   -5.6868462   -4.8265074 -0.011784583   -5.6868462   0.86033878      8192000 
  374000    0.5743602    -5.687271    -5.687271   -4.8257309 -0.012610345    -5.687271   0.86154008      8192000 
  375000    0.5744818   -5.6866593   -5.6866593   -4.8249368 -0.011204571   -5.6866593   0.86172249      8192000 
  376000   0.57501658    -5.686639    -5.686639   -4.8241143 -0.010959712    -5.686639   0.86252466      8192000 
  377000   0.57464726   -5.6860459   -5.6860459   -4.8240752 -0.0093314582   -5.6860459   0.86197067      8192000 
  378000   0.57517686   -5.6861229   -5.6861229   -4.8233579 -0.0097010075   -5.6861229   0.86276507      8192000 
  379000   0.57541031   -5.6857377   -5.6857377   -4.8226225 -0.0094728966   -5.6857377   0.86311524      8192000 
  380000   0.57550596   -5.6854293   -5.6854293   -4.8221706 -0.0083334748   -5.6854293   0.86325872      8192000 
  381000   0.57564657   -5.6855178   -5.6855178   -4.8220482 -0.0077689312   -5.6855178   0.86346964      8192000 
  382000    0.5761752   -5.6852334   -5.6852334   -4.8209708 -0.0073659279   -5.6852334   0.86426258      8192000 
  383000   0.57603484   -5.6852567   -5.6852567   -4.8212047 -0.0079625525   -5.6852567   0.86405204      8192000 
  384000   0.57601493   -5.6852747   -5.6852747   -4.8212525 -0.0082592518   -5.6852747   0.86402218      8192000 
  385000   0.57635928   -5.6853224   -5.6853224   -4.8207837 -0.0088763519   -5.6853224    0.8645387      8192000 
  386000   0.57612693   -5.6849341   -5.6849341   -4.8207439 -0.0086145654   -5.6849341   0.86419018      8192000 
  387000   0.57655596   -5.6846989   -5.6846989   -4.8198652 -0.0079557767   -5.6846989   0.86483372      8192000 
  388000   0.57686979   -5.6845411   -5.6845411   -4.8192367 -0.0087054439   -5.6845411   0.86530446      8192000 
  389000   0.57704856   -5.6838724   -5.6838724   -4.8182997  -0.00752908   -5.6838724   0.86557262      8192000 
  390000   0.57728159   -5.6835779   -5.6835779   -4.8176558 -0.0070440976   -5.6835779   0.86592217      8192000 
  391000   0.57765399   -5.6841156   -5.6841156   -4.8176348 -0.0079966814   -5.6841156   0.86648077      8192000 
  392000    0.5775428    -5.683518    -5.683518    -4.817204 -0.0077531549    -5.683518   0.86631398      8192000 
  393000   0.57792732   -5.6836565   -5.6836565   -4.8167658 -0.0090284016   -5.6836565   0.86689076      8192000 
  394000    0.5778557   -5.6829708   -5.6829708   -4.8161874 -0.0065461408   -5.6829708   0.86678334      8192000 
  395000   0.57825486   -5.6831093   -5.6831093   -4.8157272 -0.0082201883   -5.6831093   0.86738208      8192000 
  396000   0.57866005    -5.682309    -5.682309   -4.8143192 -0.0060139596    -5.682309   0.86798986      8192000 
  397000   0.57867095   -5.6817449   -5.6817449   -4.8137387 -0.0050183573   -5.6817449   0.86800621      8192000 
  398000   0.57922818   -5.6823378   -5.6823378   -4.8134957 -0.0078180842   -5.6823378   0.86884206      8192000 
  399000   0.57899282   -5.6815832   -5.6815832   -4.8130942 -0.0067643047   -5.6815832   0.86848901      8192000 
  400000   0.57929117   -5.6816415   -5.6816415    -4.812705 -0.0075657355   -5.6816415   0.86893653      8192000 
  401000   0.57894414   -5.6804918   -5.6804918   -4.8120758 -0.0045722157   -5.6804918     0.868416      8192000 
  402000   0.57954668   -5.6809945   -5.6809945   -4.8116747 -0.0058687136   -5.6809945    0.8693198      8192000 
  403000    0.5796179   -5.6805265   -5.6805265   -4.8110999 -0.005563024   -5.6805265   0.86942663      8192000 
  404000   0.58003836   -5.6806808   -5.6806808   -4.8106235 -0.0062337331   -5.6806808   0.87005732      8192000 
  405000   0.58011751   -5.6804255   -5.6804255   -4.8102494 -0.0055712681   -5.6804255   0.87017605      8192000 
  406000   0.58047266   -5.6802155   -5.6802155   -4.8095067 -0.0045705528   -5.6802155   0.87070877      8192000 
  407000   0.58085184   -5.6798031   -5.6798031   -4.8085256 -0.0039589126   -5.6798031   0.87127755      8192000 
  408000    0.5806263   -5.6787651   -5.6787651   -4.8078259 -0.0018491582   -5.6787651   0.87093923      8192000 
  409000   0.58132544   -5.6790817   -5.6790817   -4.8070937 -0.0033103131   -5.6790817   0.87198794      8192000 
  410000   0.58143811   -5.6786543   -5.6786543   -4.8064974 -0.0046334222   -5.6786543   0.87215694      8192000 
  411000    0.5811853    -5.678445    -5.678445   -4.8066673 -0.0029285154    -5.678445   0.87177773      8192000 
  412000   0.58136769   -5.6779555   -5.6779555   -4.8059042 -0.0026887809   -5.6779555   0.87205131      8192000 
  413000   0.58201376   -5.6782029   -5.6782029   -4.8051824 -0.003259544   -5.6782029   0.87302042      8192000 
  414000   0.58218857   -5.6776684   -5.6776684   -4.8043857 -0.0028992771   -5.6776684   0.87328264      8192000 
  415000   0.58192869   -5.6768712   -5.6768712   -4.8039784 -0.0018246573   -5.6768712   0.87289282      8192000 
  416000   0.58249412   -5.6770201   -5.6770201   -4.8032792 -0.0023766804   -5.6770201   0.87374096      8192000 
  417000   0.58303966   -5.6772477   -5.6772477   -4.8026884 -0.0030598473   -5.6772477   0.87455926      8192000 
  418000   0.58302481   -5.6769487   -5.6769487   -4.8024117 -0.0029899466   -5.6769487   0.87453699      8192000 
  419000   0.58308266    -5.675869    -5.675869   -4.8012452 -0.0018129165    -5.675869   0.87462378      8192000 
  420000   0.58351558   -5.6758894   -5.6758894   -4.8006163 -0.002753912   -5.6758894   0.87527315      8192000 
  421000   0.58354152   -5.6755348   -5.6755348   -4.8002227 -0.0013634665   -5.6755348   0.87531205      8192000 
  422000   0.58368467   -5.6750141   -5.6750141   -4.7994873 -0.00043850323   -5.6750141   0.87552678      8192000 
  423000    0.5836423   -5.6749493   -5.6749493   -4.7994861 -0.0015708077   -5.6749493   0.87546323      8192000 
  424000   0.58417753   -5.6747254   -5.6747254   -4.7984593 -0.0011536185   -5.6747254   0.87626607      8192000 
  425000   0.58464233   -5.6744401   -5.6744401   -4.7974768 -0.0015075135   -5.6744401   0.87696328      8192000 
  426000   0.58414849   -5.6735896   -5.6735896   -4.7973671 -0.0011229305   -5.6735896   0.87622252      8192000 
  427000   0.58446741   -5.6734321   -5.6734321   -4.7967313 -0.0015672893   -5.6734321    0.8767009      8192000 
  428000   0.58477314   -5.6731037   -5.6731037   -4.7959442 -0.00078419091   -5.6731037   0.87715949      8192000 
  429000   0.58511039   -5.6728629   -5.6728629   -4.7951975 -2.2204349e-05   -5.6728629   0.87766537      8192000 
  430000   0.58518311   -5.6733474   -5.6733474    -4.795573 -0.0029229467   -5.6733474   0.87777444      8192000 
  431000   0.58512899   -5.6724557   -5.6724557   -4.7947625 -0.00047485334   -5.6724557   0.87769326      8192000 
  432000    0.5854742   -5.6719758   -5.6719758   -4.7937647 -0.00011104885   -5.6719758   0.87821108      8192000 
  433000   0.58564189   -5.6718265   -5.6718265   -4.7933639 -0.00028135434   -5.6718265   0.87846261      8192000 
  434000   0.58601275   -5.6718218   -5.6718218   -4.7928029 -0.001034206   -5.6718218   0.87901891      8192000 
  435000   0.58612919   -5.6718778   -5.6718778   -4.7926842 -0.0019499442   -5.6718778   0.87919357      8192000 
  436000   0.58612943   -5.6710932   -5.6710932   -4.7918993 0.0001002134   -5.6710932   0.87919393      8192000 
  437000   0.58669342   -5.6713991   -5.6713991   -4.7913592 -0.00077394562   -5.6713991   0.88003991      8192000 
  438000   0.58673488   -5.6708252   -5.6708252   -4.7907231 0.00066534374   -5.6708252   0.88010211      8192000 
  439000   0.58681319   -5.6703043   -5.6703043   -4.7900847 0.0013976233   -5.6703043   0.88021956      8192000 
  440000   0.58710664   -5.6696728   -5.6696728    -4.789013 0.0028593072   -5.6696728   0.88065974      8192000 
  441000   0.58723008   -5.6696641   -5.6696641   -4.7888192 0.0020452909   -5.6696641    0.8808449      8192000 
  442000   0.58733158   -5.6697304   -5.6697304   -4.7887332 0.00067701261   -5.6697304   0.88099715      8192000 
  443000   0.58747491    -5.669309    -5.669309   -4.7880968 0.0010729061    -5.669309   0.88121215      8192000 
  444000   0.58776953   -5.6686739   -5.6686739   -4.7870198 0.0028336065   -5.6686739   0.88165407      8192000 
  445000    0.5878468   -5.6682363   -5.6682363   -4.7864663 0.0029828733   -5.6682363   0.88176998      8192000 
  446000   0.58809885   -5.6680326   -5.6680326   -4.7858845 0.0040657609   -5.6680326   0.88214805      8192000 
  447000   0.58853494   -5.6677674   -5.6677674   -4.7849652 0.0047042377   -5.6677674   0.88280219      8192000 
  448000   0.58866491   -5.6679742   -5.6679742   -4.7849771  0.003461336   -5.6679742   0.88299715      8192000 
  449000   0.58891508    -5.667351    -5.667351   -4.7839786 0.0039553723    -5.667351    0.8833724      8192000 
  450000   0.58894698   -5.6668831   -5.6668831   -4.7834629 0.0045688315   -5.6668831   0.88342025      8192000 
  451000    0.5892422   -5.6670152   -5.6670152   -4.7831521 0.0045002469   -5.6670152   0.88386308      8192000 
  452000   0.58963014   -5.6669645   -5.6669645   -4.7825195 0.0040720322   -5.6669645   0.88444499      8192000 
  453000    0.5895024   -5.6658261   -5.6658261   -4.7815727  0.005157498   -5.6658261   0.88425337      8192000 
  454000   0.58955498   -5.6652787   -5.6652787   -4.7809464 0.0044815882   -5.6652787   0.88433225      8192000 
  455000   0.59000594   -5.6647914   -5.6647914   -4.7797827  0.005994084   -5.6647914   0.88500868      8192000 
  456000   0.59028876   -5.6640835   -5.6640835   -4.7786506 0.0071431687   -5.6640835   0.88543291      8192000 
  457000   0.59078385   -5.6640695   -5.6640695   -4.7778939 0.0061656332   -5.6640695   0.88617555      8192000 
  458000   0.59107033   -5.6635316   -5.6635316   -4.7769263 0.0067746057   -5.6635316   0.88660527      8192000 
  459000   0.59133891   -5.6630677   -5.6630677   -4.7760596 0.0067519296   -5.6630677   0.88700814      8192000 
  460000   0.59185776    -5.662869    -5.662869   -4.7750826 0.0065352239    -5.662869   0.88778642      8192000 
  461000   0.59151392   -5.6618209   -5.6618209   -4.7745502 0.0079237416   -5.6618209   0.88727066      8192000 
  462000   0.59190726   -5.6617583   -5.6617583   -4.7738977 0.0082732861   -5.6617583   0.88786066      8192000 
  463000   0.59207671   -5.6617131   -5.6617131   -4.7735983 0.0070149042   -5.6617131   0.88811484      8192000 
  464000   0.59216428   -5.6617626   -5.6617626   -4.7735164 0.0061662072   -5.6617626    0.8882462      8192000 
  465000   0.59230392   -5.6604479   -5.6604479   -4.7719923 0.0089773561   -5.6604479   0.88845566      8192000 
  466000   0.59243263   -5.6603424   -5.6603424   -4.7716937 0.0089820515   -5.6603424   0.88864873      8192000 
  467000    0.5924662   -5.6602773   -5.6602773   -4.7715782 0.0077040332   -5.6602773   0.88869907      8192000 
  468000   0.59265485   -5.6598272   -5.6598272   -4.7708451 0.0073770128   -5.6598272   0.88898206      8192000 
  469000   0.59311546    -5.659436    -5.659436    -4.769763 0.0076309215    -5.659436   0.88967297      8192000 
  470000   0.59315003   -5.6581459   -5.6581459   -4.7684211  0.011231569   -5.6581459   0.88972483      8192000 
  471000   0.59342142   -5.6585476   -5.6585476   -4.7684157 0.0085616544   -5.6585476    0.8901319      8192000 
  472000   0.59314017   -5.6581293   -5.6581293   -4.7684193 0.0081556752   -5.6581293   0.88971003      8192000 
  473000   0.59352349   -5.6580186   -5.6580186   -4.7677336 0.0079498497   -5.6580186   0.89028501      8192000 
  474000   0.59346357   -5.6572326   -5.6572326   -4.7670374  0.010192973   -5.6572326   0.89019513      8192000 
  475000   0.59404809   -5.6573491   -5.6573491   -4.7662772 0.0087869441   -5.6573491   0.89107191      8192000 
  476000    0.5940782    -5.656429    -5.656429   -4.7653119  0.009430298    -5.656429   0.89111708      8192000 
  477000   0.59434083   -5.6557645   -5.6557645   -4.7642535 0.0097012707   -5.6557645   0.89151102      8192000 
  478000   0.59479558   -5.6558627   -5.6558627   -4.7636695 0.0087238046   -5.6558627   0.89219314      8192000 
  479000   0.59489072   -5.6558783   -5.6558783   -4.7635424 0.0086587282   -5.6558783   0.89233586      8192000 
  480000   0.59486706    -5.654921    -5.654921   -4.7626207    0.0113141    -5.654921   0.89230037      8192000 
  481000   0.59502055   -5.6548494   -5.6548494   -4.7623188   0.00993985   -5.6548494    0.8925306      8192000 
  482000   0.59547246   -5.6538103   -5.6538103   -4.7606019  0.012384191   -5.6538103   0.89320846      8192000 
  483000   0.59591935   -5.6536394   -5.6536394   -4.7597606  0.011839043   -5.6536394    0.8938788      8192000 
  484000   0.59570612   -5.6526757   -5.6526757   -4.7591167  0.013854315   -5.6526757   0.89355895      8192000 
  485000   0.59613931    -5.652371    -5.652371   -4.7581622  0.012764844    -5.652371   0.89420874      8192000 
  486000   0.59633212   -5.6525429   -5.6525429   -4.7580449  0.011034517   -5.6525429   0.89449796      8192000 
  487000   0.59641933   -5.6521755   -5.6521755   -4.7575467   0.01072003   -5.6521755   0.89462877      8192000 
  488000   0.59662606   -5.6513329   -5.6513329    -4.756394  0.013015626   -5.6513329   0.89493887      8192000 
  489000   0.59668282   -5.6501234   -5.6501234   -4.7550994  0.014635945   -5.6501234     0.895024      8192000 
  490000   0.59708448   -5.6502637   -5.6502637   -4.7546372   0.01243772   -5.6502637    0.8956265      8192000 
  491000   0.59745755   -5.6500078   -5.6500078   -4.7538217  0.013205071   -5.6500078    0.8961861      8192000 
  492000   0.59725376   -5.6493394   -5.6493394    -4.753459  0.013235458   -5.6493394   0.89588042      8192000 
  493000   0.59748267    -5.649081    -5.649081   -4.7528573  0.012393088    -5.649081   0.89622378      8192000 
  494000   0.59774328   -5.6478913   -5.6478913   -4.7512766   0.01518232   -5.6478913   0.89661469      8192000 
  495000   0.59789657   -5.6476047   -5.6476047   -4.7507601  0.014759415   -5.6476047   0.89684463      8192000 
  496000   0.59832071   -5.6469117   -5.6469117   -4.7494309  0.015300179   -5.6469117   0.89748085      8192000 
  497000   0.59845709   -5.6465239   -5.6465239   -4.7488385     0.014119   -5.6465239   0.89768541      8192000 
  498000    0.5985604   -5.6458167   -5.6458167   -4.7479764  0.014479752   -5.6458167   0.89784037      8192000 
  499000   0.59894448   -5.6453992   -5.6453992   -4.7469827  0.016002051   -5.6453992   0.89841649      8192000 
  500000   0.59920368   -5.6449912   -5.6449912   -4.7461859  0.013684567   -5.6449912   0.89880529      8192000 
  501000   0.59955463   -5.6448106   -5.6448106   -4.7454789  0.013518448   -5.6448106   0.89933172      8192000 
  502000   0.59950403   -5.6437112   -5.6437112   -4.7444554  0.016191444   -5.6437112   0.89925583      8192000 
  503000    0.5998678   -5.6437544   -5.6437544   -4.7439529  0.015379544   -5.6437544   0.89980148      8192000 
  504000   0.59976041   -5.6427729   -5.6427729   -4.7431325  0.017347277   -5.6427729   0.89964039      8192000 
  505000   0.60016511   -5.6425215   -5.6425215   -4.7422741  0.016823191   -5.6425215   0.90024744      8192000 
  506000   0.60050622   -5.6414516   -5.6414516   -4.7406925  0.018201369   -5.6414516    0.9007591      8192000 
  507000   0.60088117   -5.6411347   -5.6411347   -4.7398132  0.016472076   -5.6411347   0.90132153      8192000 
  508000   0.60034482   -5.6402944   -5.6402944   -4.7397774  0.016906884   -5.6402944     0.900517      8192000 
  509000    0.6008223   -5.6402151   -5.6402151   -4.7389819  0.016933724   -5.6402151   0.90123322      8192000 
  510000   0.60072742   -5.6394845   -5.6394845   -4.7383937  0.017212855   -5.6394845    0.9010909      8192000 
  511000   0.60125939    -5.639767    -5.639767   -4.7378781  0.015494656    -5.639767   0.90188886      8192000 
  512000   0.60120059   -5.6387454   -5.6387454   -4.7369447  0.016308695   -5.6387454   0.90180066      8192000 
  513000   0.60127782   -5.6383365   -5.6383365     -4.73642  0.015963996   -5.6383365    0.9019165      8192000 
  514000      0.60184   -5.6379422   -5.6379422   -4.7351824   0.01608774   -5.6379422   0.90275977      8192000 
  515000   0.60198752   -5.6369751   -5.6369751    -4.733994  0.018882026   -5.6369751   0.90298105      8192000 
  516000   0.60192077   -5.6366774   -5.6366774   -4.7337965  0.018590113   -5.6366774   0.90288093      8192000 
  517000   0.60217974   -5.6365552   -5.6365552   -4.7332859  0.018111404   -5.6365552   0.90326939      8192000 
  518000   0.60242865   -5.6361133   -5.6361133   -4.7324706  0.017436519   -5.6361133   0.90364275      8192000 
  519000   0.60267803   -5.6351202   -5.6351202   -4.7311034   0.01867244   -5.6351202   0.90401682      8192000 
  520000    0.6027768   -5.6345905   -5.6345905   -4.7304255  0.018885392   -5.6345905   0.90416497      8192000 
  521000   0.60318206   -5.6337507   -5.6337507   -4.7289779  0.018729573   -5.6337507   0.90477286      8192000 
  522000   0.60346349    -5.633139    -5.633139    -4.727944  0.020186497    -5.633139   0.90519501      8192000 
  523000   0.60374724     -5.63261     -5.63261   -4.7269894  0.020128951     -5.63261   0.90562063      8192000 
  524000   0.60371422   -5.6315652   -5.6315652   -4.7259941  0.021339637   -5.6315652    0.9055711      8192000 
  525000   0.60389236     -5.63086     -5.63086   -4.7250216  0.021453931     -5.63086   0.90583832      8192000 
  526000   0.60408171   -5.6306161   -5.6306161   -4.7244938   0.02120474   -5.6306161   0.90612234      8192000 
  527000    0.6044718    -5.629956    -5.629956   -4.7232485  0.021688112    -5.629956   0.90670748      8192000 
  528000   0.60460478    -5.629565    -5.629565    -4.722658  0.020967097    -5.629565   0.90690695      8192000 
  529000   0.60472899   -5.6288066   -5.6288066   -4.7217133  0.022298915   -5.6288066   0.90709326      8192000 
  530000   0.60480835   -5.6283907   -5.6283907   -4.7211784  0.021820809   -5.6283907   0.90721229      8192000 
  531000   0.60507909   -5.6281278   -5.6281278   -4.7205093  0.022368965   -5.6281278   0.90761841      8192000 
  532000   0.60506773   -5.6272247   -5.6272247   -4.7196233  0.022717083   -5.6272247   0.90760136      8192000 
  533000   0.60480754   -5.6261893   -5.6261893   -4.7189783  0.022058806   -5.6261893   0.90721108      8192000 
  534000   0.60539149   -5.6257999   -5.6257999   -4.7177129  0.021638968   -5.6257999   0.90808701      8192000 
  535000   0.60559637   -5.6249179   -5.6249179   -4.7165235  0.023104585   -5.6249179   0.90839433      8192000 
  536000   0.60599525   -5.6246838   -5.6246838   -4.7156912  0.022077298   -5.6246838   0.90899265      8192000 
  537000   0.60598427   -5.6239211   -5.6239211    -4.714945  0.022608057   -5.6239211   0.90897618      8192000 
  538000   0.60621462   -5.6236616   -5.6236616   -4.7143399  0.021744092   -5.6236616    0.9093217      8192000 
  539000   0.60664497   -5.6234085   -5.6234085   -4.7134412  0.020605752   -5.6234085   0.90996723      8192000 
  540000   0.60663524   -5.6225019   -5.6225019   -4.7125493  0.022525562   -5.6225019   0.90995263      8192000 
  541000   0.60712885   -5.6217998   -5.6217998   -4.7111067   0.02336206   -5.6217998   0.91069305      8192000 
  542000   0.60696634   -5.6209087   -5.6209087   -4.7104594  0.024469369   -5.6209087   0.91044928      8192000 
  543000   0.60697402    -5.620481    -5.620481   -4.7100202  0.024899817    -5.620481    0.9104608      8192000 
  544000   0.60741376   -5.6201788   -5.6201788   -4.7090584  0.024595148   -5.6201788   0.91112042      8192000 
  545000   0.60770143    -5.619675    -5.619675   -4.7081231  0.024696409    -5.619675   0.91155192      8192000 
  546000   0.60796764   -5.6192248   -5.6192248   -4.7072736  0.023297444   -5.6192248   0.91195123      8192000 
  547000   0.60800848   -5.6182347   -5.6182347   -4.7062223  0.025174276   -5.6182347   0.91201249      8192000 
  548000   0.60822569   -5.6171489   -5.6171489   -4.7048106  0.026136811   -5.6171489    0.9123383      8192000 
  549000   0.60833455   -5.6160555   -5.6160555   -4.7035539  0.027367084   -5.6160555    0.9125016      8192000 
  550000   0.60903595   -5.6155763   -5.6155763   -4.7020226   0.02644383   -5.6155763    0.9135537      8192000 
  551000    0.6094209   -5.6155996   -5.6155996   -4.7014685  0.026058046   -5.6155996   0.91413113      8192000 
  552000    0.6089788   -5.6142176   -5.6142176   -4.7007496  0.027371637   -5.6142176   0.91346798      8192000 
  553000   0.60930046   -5.6135102   -5.6135102   -4.6995598  0.028071459   -5.6135102   0.91395046      8192000 
  554000   0.60925364   -5.6126493   -5.6126493   -4.6987691  0.029820728   -5.6126493   0.91388023      8192000 
  555000   0.60960614   -5.6124304   -5.6124304   -4.6980215  0.028067705   -5.6124304   0.91440898      8192000 
  556000   0.60976972   -5.6120838   -5.6120838   -4.6974294  0.027075373   -5.6120838   0.91465435      8192000 
  557000   0.60993018   -5.6111274   -5.6111274   -4.6962324  0.027819414   -5.6111274   0.91489504      8192000 
  558000   0.61025392   -5.6102988   -5.6102988   -4.6949181   0.02821513   -5.6102988   0.91538066      8192000 
  559000   0.61049321   -5.6099005   -5.6099005   -4.6941609  0.028517999   -5.6099005   0.91573958      8192000 
  560000   0.61057523   -5.6086491   -5.6086491   -4.6927864  0.030396324   -5.6086491   0.91586262      8192000 
  561000   0.61096884   -5.6080875   -5.6080875   -4.6916345  0.029713718   -5.6080875   0.91645303      8192000 
  562000   0.61155565   -5.6074116   -5.6074116   -4.6900784  0.030281949   -5.6074116   0.91733324      8192000 
  563000   0.61190047    -5.606629    -5.606629   -4.6887785  0.030410097    -5.606629   0.91785047      8192000 
  564000   0.61194641   -5.6058521   -5.6058521   -4.6879328  0.030629386   -5.6058521   0.91791938      8192000 
  565000   0.61222106   -5.6052541   -5.6052541   -4.6869227  0.030827627   -5.6052541   0.91833137      8192000 
  566000   0.61227365   -5.6048687   -5.6048687   -4.6864584  0.030358071   -5.6048687   0.91841024      8192000 
  567000   0.61235503   -5.6029458   -5.6029458   -4.6844135  0.035071074   -5.6029458   0.91853232      8192000 
  568000   0.61269283   -5.6024991   -5.6024991   -4.6834601  0.034439331   -5.6024991   0.91903902      8192000 
  569000   0.61296481   -5.6025519   -5.6025519   -4.6831049  0.032657555   -5.6025519   0.91944698      8192000 
  570000   0.61314797   -5.6016661   -5.6016661   -4.6819444  0.033151199   -5.6016661   0.91972172      8192000 
  571000   0.61284003   -5.6006218   -5.6006218    -4.681362  0.033707269   -5.6006218   0.91925981      8192000 
  572000   0.61318549   -5.6004093   -5.6004093   -4.6806313  0.033666714   -5.6004093     0.919778      8192000 
  573000   0.61327003   -5.5998663   -5.5998663   -4.6799615  0.033921934   -5.5998663   0.91990482      8192000 
  574000   0.61314811    -5.598844    -5.598844    -4.679122  0.034329631    -5.598844   0.91972194      8192000 
  575000   0.61348874   -5.5982646   -5.5982646   -4.6780317  0.034991583   -5.5982646   0.92023288      8192000 
  576000     0.613605   -5.5974203   -5.5974203    -4.677013  0.035569057   -5.5974203   0.92040727      8192000 
  577000   0.61384448   -5.5963551   -5.5963551   -4.6755886  0.036122695   -5.5963551    0.9207665      8192000 
  578000   0.61432786   -5.5956907   -5.5956907   -4.6741991  0.036251311   -5.5956907   0.92149156      8192000 
  579000   0.61464952   -5.5953312   -5.5953312   -4.6733571  0.034366685   -5.5953312   0.92197406      8192000 
  580000   0.61479849    -5.594626    -5.594626   -4.6724285  0.034893512    -5.594626    0.9221975      8192000 
  581000   0.61476594    -5.593379    -5.593379   -4.6712304  0.036884628    -5.593379   0.92214867      8192000 
  582000   0.61536978   -5.5929626   -5.5929626   -4.6699082  0.036089218   -5.5929626   0.92305444      8192000 
  583000   0.61513908   -5.5926073   -5.5926073   -4.6698989  0.034641068   -5.5926073   0.92270839      8192000 
  584000   0.61514273   -5.5916495   -5.5916495   -4.6689356  0.035974959   -5.5916495   0.92271386      8192000 
  585000   0.61544601   -5.5911939   -5.5911939   -4.6680251  0.035707289   -5.5911939   0.92316878      8192000 
  586000   0.61541732   -5.5898532   -5.5898532   -4.6667275  0.037380581   -5.5898532   0.92312575      8192000 
  587000   0.61568593   -5.5890855   -5.5890855   -4.6655569  0.036304646   -5.5890855   0.92352867      8192000 
  588000   0.61616478   -5.5886308   -5.5886308   -4.6643838  0.035944504   -5.5886308   0.92424694      8192000 
  589000   0.61617735    -5.587613    -5.587613   -4.6633472  0.036168608    -5.587613    0.9242658      8192000 
  590000   0.61631876   -5.5864209   -5.5864209    -4.661943  0.036750695   -5.5864209   0.92447791      8192000 
  591000   0.61634561   -5.5853554   -5.5853554   -4.6608372  0.036540347   -5.5853554   0.92451819      8192000 
  592000   0.61661528   -5.5843851   -5.5843851   -4.6594624  0.037838853   -5.5843851   0.92492269      8192000 
  593000   0.61697599   -5.5838974   -5.5838974   -4.6584336   0.03776578   -5.5838974   0.92546375      8192000 
  594000   0.61720145   -5.5826655   -5.5826655   -4.6568636  0.039580527   -5.5826655   0.92580194      8192000 
  595000   0.61726271   -5.5819367   -5.5819367   -4.6560429  0.038018035   -5.5819367   0.92589383      8192000 
  596000   0.61764066   -5.5809939   -5.5809939   -4.6545331  0.037946326   -5.5809939   0.92646076      8192000 
  597000   0.61787336   -5.5803039   -5.5803039   -4.6534941  0.038262284   -5.5803039    0.9268098      8192000 
  598000   0.61771114   -5.5788242   -5.5788242   -4.6522577  0.038905173   -5.5788242   0.92656647      8192000 
  599000   0.61814796   -5.5779055   -5.5779055   -4.6506838  0.039653261   -5.5779055    0.9272217      8192000 
  600000   0.61892434   -5.5776784   -5.5776784   -4.6492921  0.038465703   -5.5776784   0.92838627      8192000 
  601000   0.61896385   -5.5766614   -5.5766614   -4.6482159  0.039758362   -5.5766614   0.92844554      8192000 
  602000   0.61857104   -5.5753364   -5.5753364   -4.6474801  0.041060043   -5.5753364   0.92785633      8192000 
  603000   0.61964741   -5.5752001   -5.5752001   -4.6457292  0.039997823   -5.5752001   0.92947088      8192000 
  604000   0.61963436   -5.5743641   -5.5743641   -4.6449128  0.039848029   -5.5743641   0.92945131      8192000 
  605000   0.61947358   -5.5733996   -5.5733996   -4.6441894  0.040168398   -5.5733996   0.92921014      8192000 
  606000    0.6196046   -5.5722482   -5.5722482   -4.6428415  0.042087791   -5.5722482   0.92940667      8192000 
  607000   0.61970214   -5.5715932   -5.5715932   -4.6420402   0.04023034   -5.5715932   0.92955297      8192000 
  608000   0.61959096   -5.5698129   -5.5698129   -4.6404267  0.042645463   -5.5698129   0.92938621      8192000 
  609000   0.61985076   -5.5689228   -5.5689228   -4.6391469    0.0409365   -5.5689228    0.9297759      8192000 
  610000   0.62066876    -5.568859    -5.568859   -4.6378561   0.03990489    -5.568859   0.93100291      8192000 
  611000    0.6208224    -5.568284    -5.568284   -4.6370506  0.040641683    -5.568284   0.93123337      8192000 
  612000   0.62107265   -5.5669481   -5.5669481   -4.6353394  0.042267527   -5.5669481   0.93160875      8192000 
  613000   0.62073515   -5.5657452   -5.5657452   -4.6346427  0.042515194   -5.5657452   0.93110249      8192000 
  614000   0.62124761   -5.5650677   -5.5650677   -4.6331965  0.040883662   -5.5650677   0.93187117      8192000 
  615000   0.62099507   -5.5643372   -5.5643372   -4.6328448   0.04118875   -5.5643372   0.93149237      8192000 
  616000   0.62132508   -5.5628761   -5.5628761   -4.6308887  0.043023635   -5.5628761   0.93198739      8192000 
  617000    0.6215272   -5.5622699   -5.5622699   -4.6299794  0.041931246   -5.5622699   0.93229056      8192000 
  618000   0.62198874   -5.5610228   -5.5610228   -4.6280399  0.043750405   -5.5610228   0.93298287      8192000 
  619000   0.62221065   -5.5604643   -5.5604643   -4.6271486  0.043819001   -5.5604643   0.93331574      8192000 
  620000   0.62230379   -5.5592435   -5.5592435    -4.625788  0.042994227   -5.5592435   0.93345546      8192000 
  621000    0.6226582   -5.5585516   -5.5585516   -4.6245645   0.04403125   -5.5585516   0.93398707      8192000 
  622000   0.62264944   -5.5580776   -5.5580776   -4.6241036  0.043830189   -5.5580776   0.93397393      8192000 
  623000   0.62314358   -5.5569839   -5.5569839   -4.6222687  0.044500489   -5.5569839   0.93471514      8192000 
  624000   0.62319399   -5.5561379   -5.5561379   -4.6213471  0.044261969   -5.5561379   0.93479076      8192000 
  625000   0.62318549   -5.5550213   -5.5550213   -4.6202433  0.044439154   -5.5550213     0.934778      8192000 
  626000   0.62347752    -5.554059    -5.554059    -4.618843  0.045521216    -5.554059   0.93521604      8192000 
  627000   0.62368134   -5.5528695   -5.5528695   -4.6173477  0.045232253   -5.5528695   0.93552177      8192000 
  628000   0.62399089   -5.5519424   -5.5519424   -4.6159563  0.046128785   -5.5519424   0.93598611      8192000 
  629000   0.62430055   -5.5504989   -5.5504989   -4.6140483   0.04734441   -5.5504989   0.93645059      8192000 
  630000   0.62446052    -5.549398    -5.549398   -4.6127075  0.048482749    -5.549398   0.93669054      8192000 
  631000    0.6244889    -5.548042    -5.548042   -4.6113089  0.048707861    -5.548042   0.93673312      8192000 
  632000   0.62492333   -5.5474247   -5.5474247     -4.61004  0.048292919   -5.5474247   0.93738476      8192000 
  633000   0.62490412   -5.5463391   -5.5463391   -4.6089832  0.049667967   -5.5463391   0.93735594      8192000 
  634000   0.62495233   -5.5451567   -5.5451567   -4.6077284  0.049911722   -5.5451567   0.93742827      8192000 
  635000    0.6251352    -5.544441    -5.544441   -4.6067384  0.048787076    -5.544441   0.93770257      8192000 
  636000   0.62509318    -5.543503    -5.543503   -4.6058635   0.04859848    -5.543503   0.93763953      8192000 
  637000   0.62582768   -5.5428823   -5.5428823    -4.604141  0.047195016   -5.5428823   0.93874128      8192000 
  638000   0.62587493   -5.5414297   -5.5414297   -4.6026175  0.050000985   -5.5414297   0.93881216      8192000 
  639000   0.62604534   -5.5396772   -5.5396772   -4.6006095  0.052433473   -5.5396772   0.93906777      8192000 
  640000   0.62644323   -5.5391216   -5.5391216    -4.599457  0.051348484   -5.5391216   0.93966461      8192000 
  641000   0.62632923   -5.5378741   -5.5378741   -4.5983805  0.051665715   -5.5378741   0.93949361      8192000 
  642000   0.62696338   -5.5371206   -5.5371206   -4.5966757  0.050525923   -5.5371206   0.94044483      8192000 
  643000   0.62689719   -5.5361932   -5.5361932   -4.5958477  0.050320047   -5.5361932   0.94034554      8192000 
  644000   0.62693664   -5.5350296   -5.5350296   -4.5946248  0.050628815   -5.5350296   0.94040473      8192000 
  645000   0.62705755   -5.5343098   -5.5343098   -4.5937237  0.048753651   -5.5343098   0.94058609      8192000 
  646000   0.62709998   -5.5325211   -5.5325211   -4.5918714  0.051324126   -5.5325211   0.94064974      8192000 
  647000   0.62762648   -5.5315401   -5.5315401   -4.5901006  0.051127491   -5.5315401   0.94143949      8192000 
  648000   0.62752003   -5.5304461   -5.5304461   -4.5891663  0.050366302   -5.5304461   0.94127981      8192000 
  649000   0.62756308   -5.5293447   -5.5293447   -4.5880003  0.050616097   -5.5293447   0.94134439      8192000 
  650000   0.62767823   -5.5281468   -5.5281468   -4.5866297  0.050391748   -5.5281468   0.94151711      8192000 
  651000   0.62823902   -5.5271193   -5.5271193    -4.584761  0.050179556   -5.5271193   0.94235829      8192000 
  652000   0.62850503   -5.5256845   -5.5256845   -4.5829272  0.051274942   -5.5256845    0.9427573      8192000 
  653000   0.62833496   -5.5240525   -5.5240525   -4.5815503  0.052288598   -5.5240525   0.94250221      8192000 
  654000   0.62856357    -5.523059    -5.523059   -4.5802139  0.052754704    -5.523059   0.94284511      8192000 
  655000   0.62882203   -5.5219846   -5.5219846   -4.5787518  0.052584258   -5.5219846    0.9432328      8192000 
  656000   0.62917655   -5.5215498   -5.5215498   -4.5777852  0.050864436   -5.5215498   0.94376459      8192000 
  657000   0.62896578   -5.5198838   -5.5198838   -4.5764353   0.05111489   -5.5198838   0.94344843      8192000 
  658000   0.62913511   -5.5185953   -5.5185953   -4.5748928  0.051838178   -5.5185953   0.94370243      8192000 
  659000   0.62936101   -5.5170345   -5.5170345   -4.5729932  0.053533201   -5.5170345   0.94404128      8192000 
  660000   0.62997404     -5.51645     -5.51645   -4.5714892   0.05256278     -5.51645   0.94496082      8192000 
  661000   0.63016867   -5.5153851   -5.5153851   -4.5701323  0.053514425   -5.5153851   0.94525276      8192000 
  662000   0.63036566   -5.5139205   -5.5139205   -4.5683722   0.05409074   -5.5139205   0.94554826      8192000 
  663000    0.6307445   -5.5129838   -5.5129838   -4.5668672  0.054775932   -5.5129838   0.94611652      8192000 
  664000   0.63080054   -5.5112144   -5.5112144   -4.5650138  0.056150572   -5.5112144   0.94620057      8192000 
  665000   0.63100648   -5.5101726   -5.5101726   -4.5636631  0.057525616   -5.5101726   0.94650949      8192000 
  666000   0.63135302   -5.5089753   -5.5089753    -4.561946  0.057506286   -5.5089753    0.9470293      8192000 
  667000   0.63172607   -5.5078537   -5.5078537   -4.5602648  0.056468637   -5.5078537   0.94758887      8192000 
  668000   0.63157246   -5.5063631   -5.5063631   -4.5590047   0.05733184   -5.5063631   0.94735845      8192000 
  669000   0.63165527   -5.5053952   -5.5053952   -4.5579125  0.057339656   -5.5053952   0.94748267      8192000 
  670000   0.63163981   -5.5043665   -5.5043665    -4.556907  0.057028137   -5.5043665   0.94745948      8192000 
  671000   0.63183399   -5.5030024   -5.5030024   -4.5552517  0.059363792   -5.5030024   0.94775075      8192000 
  672000   0.63191653   -5.5018962   -5.5018962   -4.5540216  0.060579594   -5.5018962   0.94787456      8192000 
  673000   0.63274223    -5.501218    -5.501218   -4.5521049  0.058337605    -5.501218   0.94911311      8192000 
  674000    0.6326453   -5.4997112   -5.4997112   -4.5507435   0.05730723   -5.4997112   0.94896771      8192000 
  675000   0.63276165   -5.4980256   -5.4980256   -4.5488833  0.060451302   -5.4980256   0.94914223      8192000 
  676000   0.63310104   -5.4966443   -5.4966443    -4.546993   0.05994147   -5.4966443   0.94965132      8192000 
  677000   0.63354197   -5.4953669   -5.4953669   -4.5450542  0.059098626   -5.4953669   0.95031272      8192000 
  678000   0.63347221   -5.4936821   -5.4936821    -4.543474  0.061026314   -5.4936821   0.95020808      8192000 
  679000   0.63381122   -5.4923622   -5.4923622   -4.5416456  0.061856368   -5.4923622   0.95071659      8192000 
  680000   0.63416931   -5.4913017   -5.4913017   -4.5400479  0.061111605   -5.4913017   0.95125373      8192000 
  681000   0.63405875    -5.489758    -5.489758   -4.5386702  0.062057302    -5.489758   0.95108789      8192000 
  682000   0.63439558   -5.4886894   -5.4886894   -4.5370962  0.061489055   -5.4886894   0.95159313      8192000 
  683000   0.63408021   -5.4874191   -5.4874191    -4.536299  0.061182511   -5.4874191   0.95112008      8192000 
  684000   0.63472438   -5.4861297   -5.4861297   -4.5340434  0.061748791   -5.4861297   0.95208633      8192000 
  685000   0.63542572   -5.4850993   -5.4850993    -4.531961  0.061600076   -5.4850993   0.95313835      8192000 
  686000    0.6352202   -5.4828921   -5.4828921   -4.5300621  0.064073721   -5.4828921   0.95283007      8192000 
  687000   0.63563254   -5.4818768   -5.4818768   -4.5284282  0.063317068   -5.4818768   0.95344858      8192000 
  688000    0.6358265   -5.4810131   -5.4810131   -4.5272736  0.061854788   -5.4810131   0.95373951      8192000 
  689000   0.63577847   -5.4790617   -5.4790617   -4.5253942  0.063473364   -5.4790617   0.95366747      8192000 
  690000   0.63566213   -5.4779911   -5.4779911   -4.5244981  0.062838927   -5.4779911   0.95349295      8192000 
  691000   0.63566565   -5.4767586   -5.4767586   -4.5232604  0.063019409   -5.4767586   0.95349823      8192000 
  692000   0.63627753    -5.475422    -5.475422    -4.521006  0.062202376    -5.475422   0.95441606      8192000 
  693000   0.63599491   -5.4733232   -5.4733232    -4.519331  0.064581155   -5.4733232   0.95399212      8192000 
  694000    0.6364015   -5.4723402   -5.4723402   -4.5177381  0.064562502   -5.4723402   0.95460201      8192000 
  695000    0.6367785   -5.4714233   -5.4714233   -4.5162558  0.064406286   -5.4714233   0.95516752      8192000 
  696000   0.63687493   -5.4699376   -5.4699376   -4.5146254  0.064085232   -5.4699376   0.95531216      8192000 
  697000   0.63714467   -5.4685442   -5.4685442   -4.5128275  0.063976044   -5.4685442   0.95571676      8192000 
  698000   0.63741242   -5.4671538   -5.4671538   -4.5110355  0.062743305   -5.4671538   0.95611838      8192000 
  699000   0.63757453   -5.4655607   -5.4655607   -4.5091991  0.065021909   -5.4655607   0.95636156      8192000 
  700000   0.63763351   -5.4638385   -5.4638385   -4.5073885  0.065440885   -5.4638385   0.95645003      8192000 
  701000   0.63818041   -5.4630259   -5.4630259   -4.5057556  0.065368066   -5.4630259   0.95727037      8192000 
  702000   0.63802636   -5.4617738   -5.4617738   -4.5047345  0.064579175   -5.4617738    0.9570393      8192000 
  703000   0.63800903   -5.4602159   -5.4602159   -4.5032026   0.06566896   -5.4602159   0.95701331      8192000 
  704000   0.63788516   -5.4584665   -5.4584665    -4.501639  0.067568259   -5.4584665   0.95682749      8192000 
  705000    0.6385125   -5.4574554   -5.4574554   -4.4996869  0.066608912   -5.4574554   0.95776851      8192000 
  706000   0.63883284   -5.4560727   -5.4560727   -4.4978237  0.066526379   -5.4560727   0.95824902      8192000 
  707000   0.63899056   -5.4546466   -5.4546466    -4.496161  0.065632765   -5.4546466    0.9584856      8192000 
  708000   0.63842519   -5.4526802   -5.4526802   -4.4950427  0.065988459   -5.4526802   0.95763754      8192000 
  709000   0.63885394   -5.4518544   -5.4518544   -4.4935737  0.063641978   -5.4518544   0.95828068      8192000 
  710000   0.63946524   -5.4501375   -5.4501375   -4.4909399  0.064316646   -5.4501375   0.95919761      8192000 
  711000   0.63950433   -5.4484501   -5.4484501   -4.4891938  0.066655939   -5.4484501   0.95925626      8192000 
  712000   0.63969134   -5.4472167   -5.4472167     -4.48768  0.066418857   -5.4472167   0.95953677      8192000 
  713000   0.64018191   -5.4455541   -5.4455541   -4.4852815  0.067506994   -5.4455541   0.96027263      8192000 
  714000   0.64027054   -5.4441014   -5.4441014   -4.4836958  0.067298827   -5.4441014   0.96040557      8192000 
  715000   0.64077536   -5.4423406   -5.4423406   -4.4811778  0.069074494   -5.4423406   0.96116279      8192000 
  716000   0.64093071   -5.4402138   -5.4402138   -4.4788179  0.069580017   -5.4402138   0.96139582      8192000 
  717000   0.64099372   -5.4386647   -5.4386647   -4.4771743  0.069998351   -5.4386647   0.96149034      8192000 
  718000    0.6414012   -5.4372364   -5.4372364   -4.4751348  0.069650368   -5.4372364   0.96210156      8192000 
  719000   0.64115002   -5.4354377   -5.4354377   -4.4737129  0.070315094   -5.4354377   0.96172479      8192000 
  720000   0.64150085   -5.4346134   -5.4346134   -4.4723624  0.069127046   -5.4346134   0.96225103      8192000 
  721000   0.64136572   -5.4327642   -5.4327642   -4.4707159  0.069564302   -5.4327642   0.96204833      8192000 
  722000   0.64185953   -5.4311218   -5.4311218   -4.4683328  0.069928732   -5.4311218   0.96278906      8192000 
  723000   0.64215644   -5.4296458   -5.4296458   -4.4664114  0.070018171   -5.4296458   0.96323442      8192000 
  724000   0.64211733    -5.428006    -5.428006   -4.4648302  0.070146359    -5.428006   0.96317575      8192000 
  725000   0.64202964   -5.4261747   -5.4261747   -4.4631304  0.070878819   -5.4261747   0.96304422      8192000 
  726000   0.64263601   -5.4249815   -5.4249815   -4.4610277  0.071648783   -5.4249815   0.96395378      8192000 
  727000   0.64321991   -5.4232543   -5.4232543   -4.4584247  0.071927341   -5.4232543   0.96482962      8192000 
  728000    0.6431918   -5.4212952   -5.4212952   -4.4565078  0.072653918   -5.4212952   0.96478745      8192000 
  729000    0.6435852   -5.4196019   -5.4196019   -4.4542244  0.072947466   -5.4196019   0.96537756      8192000 
  730000   0.64325276   -5.4177139   -5.4177139    -4.452835  0.072613783   -5.4177139   0.96487889      8192000 
  731000   0.64358999   -5.4163963   -5.4163963   -4.4510116  0.072000027   -5.4163963   0.96538475      8192000 
  732000   0.64388765   -5.4150437   -5.4150437   -4.4492125  0.071122345   -5.4150437   0.96583124      8192000 
  733000   0.64400563   -5.4136276   -5.4136276   -4.4476194  0.070518456   -5.4136276   0.96600821      8192000 
  734000   0.64415476   -5.4122609   -5.4122609    -4.446029  0.069414758   -5.4122609    0.9662319      8192000 
  735000   0.64439075   -5.4102496   -5.4102496   -4.4436638  0.070965036   -5.4102496   0.96658588      8192000 
  736000    0.6446166   -5.4087508   -5.4087508   -4.4418261  0.071835507   -5.4087508   0.96692466      8192000 
  737000    0.6447287   -5.4068784   -5.4068784   -4.4397856  0.072610643   -5.4068784   0.96709282      8192000 
  738000   0.64455767   -5.4054499   -5.4054499   -4.4386137  0.071981981   -5.4054499   0.96683627      8192000 
  739000   0.64500241   -5.4037947   -5.4037947   -4.4362913  0.072527868   -5.4037947   0.96750337      8192000 
  740000   0.64506415   -5.4017334   -5.4017334   -4.4341374  0.073029372   -5.4017334   0.96759598      8192000 
  741000   0.64569088   -5.3999099   -5.3999099   -4.4313738  0.073274445   -5.3999099   0.96853608      8192000 
  742000   0.64566007   -5.3980551   -5.3980551   -4.4295652  0.074106123   -5.3980551   0.96848986      8192000 
  743000   0.64554667   -5.3962793   -5.3962793   -4.4279595  0.074486105   -5.3962793   0.96831977      8192000 
  744000   0.64569979   -5.3946113   -5.3946113   -4.4260618  0.074996448   -5.3946113   0.96854944      8192000 
  745000   0.64616859   -5.3932942   -5.3932942   -4.4240415  0.074324908   -5.3932942   0.96925264      8192000 
  746000   0.64700045   -5.3914645   -5.3914645   -4.4209641  0.075186304   -5.3914645   0.97050043      8192000 
  747000   0.64682407   -5.3893924   -5.3893924   -4.4191565   0.07589476   -5.3893924   0.97023586      8192000 
  748000   0.64680133   -5.3878487   -5.3878487    -4.417647  0.075621181   -5.3878487   0.97020175      8192000 
  749000   0.64713022   -5.3861395   -5.3861395   -4.4154444  0.076095844   -5.3861395   0.97069508      8192000 
  750000   0.64760963   -5.3848914   -5.3848914   -4.4134772  0.076121442   -5.3848914    0.9714142      8192000 
  751000   0.64794527   -5.3833498   -5.3833498   -4.4114322   0.07636815   -5.3833498   0.97191766      8192000 
  752000   0.64782783   -5.3811781   -5.3811781   -4.4094366  0.077124448   -5.3811781    0.9717415      8192000 
  753000    0.6474091   -5.3794594   -5.3794594    -4.408346  0.076515185   -5.3794594   0.97111341      8192000 
  754000   0.64779281   -5.3780647   -5.3780647   -4.4063757  0.075627381   -5.3780647   0.97168897      8192000 
  755000   0.64824158   -5.3764985   -5.3764985   -4.4041364  0.076212496   -5.3764985   0.97236212      8192000 
  756000   0.64879943   -5.3747062   -5.3747062   -4.4015073  0.076636777   -5.3747062    0.9731989      8192000 
  757000   0.64920934   -5.3726908   -5.3726908   -4.3988771  0.078900951   -5.3726908   0.97381377      8192000 
  758000   0.64929397   -5.3702853   -5.3702853   -4.3963446  0.080838677   -5.3702853   0.97394071      8192000 
  759000    0.6491238   -5.3687958   -5.3687958   -4.3951104  0.078637676   -5.3687958   0.97368545      8192000 
  760000   0.64981188   -5.3676213   -5.3676213   -4.3929037  0.077334397   -5.3676213   0.97471758      8192000 
  761000   0.64964268   -5.3653735   -5.3653735   -4.3909098   0.07939308   -5.3653735   0.97446378      8192000 
  762000   0.64983964   -5.3634861   -5.3634861   -4.3887269  0.079211809   -5.3634861   0.97475921      8192000 
  763000    0.6498178   -5.3613727   -5.3613727   -4.3866463  0.079023637   -5.3613727   0.97472646      8192000 
  764000   0.65019188     -5.35945     -5.35945   -4.3841625  0.079664017     -5.35945   0.97528758      8192000 
  765000   0.65057413   -5.3579199   -5.3579199   -4.3820589  0.079726479   -5.3579199   0.97586095      8192000 
  766000   0.65038278   -5.3559016   -5.3559016   -4.3803276  0.080991977   -5.3559016   0.97557393      8192000 
  767000   0.65048955   -5.3545346   -5.3545346   -4.3788005  0.079026003   -5.3545346   0.97573409      8192000 
  768000   0.65083373   -5.3523466   -5.3523466   -4.3760963  0.079580392   -5.3523466   0.97625036      8192000 
  769000   0.65113848   -5.3507321   -5.3507321   -4.3740246  0.079709868   -5.3507321   0.97670748      8192000 
  770000   0.65087909   -5.3491594   -5.3491594    -4.372841  0.078180515   -5.3491594    0.9763184      8192000 
  771000   0.65094197     -5.34708     -5.34708   -4.3706672  0.079240942     -5.34708   0.97641271      8192000 
  772000   0.65132833   -5.3452701   -5.3452701   -4.3682779  0.079101238   -5.3452701   0.97699225      8192000 
  773000   0.65113904   -5.3428867   -5.3428867   -4.3661784  0.080409665   -5.3428867   0.97670832      8192000 
  774000   0.65148997   -5.3416199   -5.3416199   -4.3643852   0.07968245   -5.3416199   0.97723471      8192000 
  775000   0.65150031   -5.3394087   -5.3394087   -4.3621585  0.080092679   -5.3394087   0.97725022      8192000 
  776000   0.65240212   -5.3377209   -5.3377209   -4.3591179  0.079999624   -5.3377209   0.97860294      8192000 
  777000   0.65245888   -5.3354688   -5.3354688   -4.3567807  0.080889973   -5.3354688   0.97868808      8192000 
  778000    0.6526704   -5.3333001   -5.3333001   -4.3542948  0.081763903   -5.3333001   0.97900536      8192000 
  779000   0.65288393   -5.3312888   -5.3312888   -4.3519632  0.081128163   -5.3312888   0.97932566      8192000 
  780000   0.65347989   -5.3298384   -5.3298384   -4.3496188  0.080706762   -5.3298384   0.98021959      8192000 
  781000   0.65327866   -5.3276158   -5.3276158   -4.3476981  0.080874782   -5.3276158   0.97991774      8192000 
  782000   0.65314286   -5.3257326   -5.3257326   -4.3460185   0.08051004   -5.3257326   0.97971404      8192000 
  783000   0.65357762   -5.3240834   -5.3240834   -4.3437172  0.081258885   -5.3240834   0.98036619      8192000 
  784000   0.65353353   -5.3219168   -5.3219168   -4.3416168  0.082068994   -5.3219168   0.98030005      8192000 
  785000   0.65436037   -5.3202395   -5.3202395   -4.3386992  0.082233137   -5.3202395   0.98154031      8192000 
  786000   0.65425907   -5.3179152   -5.3179152   -4.3365268  0.082080081   -5.3179152   0.98138836      8192000 
  787000   0.65433425   -5.3161823   -5.3161823   -4.3346812  0.081759411   -5.3161823   0.98150113      8192000 
  788000   0.65505306   -5.3144837   -5.3144837   -4.3319043  0.084139031   -5.3144837   0.98257935      8192000 
  789000   0.65521007   -5.3124431   -5.3124431   -4.3296283  0.083649236   -5.3124431   0.98281486      8192000 
  790000   0.65513678   -5.3101933   -5.3101933   -4.3274884   0.08393165   -5.3101933   0.98270492      8192000 
  791000   0.65538038   -5.3084189   -5.3084189   -4.3253486   0.08238207   -5.3084189   0.98307032      8192000 
  792000   0.65512547    -5.306455    -5.306455   -4.3237671  0.083043519    -5.306455   0.98268796      8192000 
  793000   0.65581965   -5.3047936   -5.3047936   -4.3210644  0.081491067   -5.3047936   0.98372923      8192000 
  794000   0.65565871   -5.3026932   -5.3026932   -4.3192054  0.083338504   -5.3026932   0.98348782      8192000 
  795000   0.65574693   -5.3009114   -5.3009114   -4.3172912  0.081937474   -5.3009114   0.98362015      8192000 
  796000   0.65591811   -5.2985293   -5.2985293   -4.3146523  0.082348098   -5.2985293   0.98387692      8192000 
  797000   0.65584664   -5.2959903   -5.2959903   -4.3122206  0.084036205   -5.2959903   0.98376971      8192000 
  798000   0.65583954   -5.2938023   -5.2938023   -4.3100432  0.084761638   -5.2938023   0.98375907      8192000 
  799000   0.65677499   -5.2923023   -5.2923023   -4.3071401  0.083313461   -5.2923023   0.98516224      8192000 
  800000   0.65691324   -5.2900838   -5.2900838   -4.3047142  0.085170789   -5.2900838   0.98536961      8192000 
  801000    0.6574606   -5.2878517   -5.2878517    -4.301661  0.085680165   -5.2878517   0.98619065      8192000 
  802000     0.657814   -5.2855653   -5.2855653   -4.2988445  0.086679278   -5.2855653   0.98672075      8192000 
  803000   0.65782538   -5.2831806   -5.2831806   -4.2964427  0.087926459   -5.2831806   0.98673783      8192000 
  804000   0.65793857   -5.2813861   -5.2813861   -4.2944785  0.087045086   -5.2813861   0.98690761      8192000 
  805000   0.65786712   -5.2790846   -5.2790846   -4.2922842  0.086959109   -5.2790846   0.98680044      8192000 
  806000   0.65834064   -5.2777833   -5.2777833   -4.2902726  0.085621716   -5.2777833   0.98751071      8192000 
  807000   0.65834979   -5.2760791   -5.2760791   -4.2885547  0.085636688   -5.2760791   0.98752444      8192000 
  808000   0.65799698   -5.2736727   -5.2736727   -4.2866775  0.085962875   -5.2736727   0.98699522      8192000 
  809000   0.65868387   -5.2722931   -5.2722931   -4.2842675   0.08506285   -5.2722931   0.98802556      8192000 
  810000   0.65890852   -5.2699135   -5.2699135   -4.2815509  0.086494425   -5.2699135   0.98836254      8192000 
  811000   0.65897828   -5.2677213   -5.2677213   -4.2792541  0.087551309   -5.2677213   0.98846718      8192000 
  812000     0.659361   -5.2655279   -5.2655279   -4.2764866  0.087430943   -5.2655279   0.98904126      8192000 
  813000    0.6595802   -5.2631906   -5.2631906   -4.2738206  0.088776831   -5.2631906   0.98937005      8192000 
  814000   0.66015564   -5.2614583   -5.2614583   -4.2712251  0.087327088   -5.2614583   0.99023321      8192000 
  815000   0.65996625   -5.2593013   -5.2593013   -4.2693521  0.087484865   -5.2593013   0.98994913      8192000 
  816000   0.65950985   -5.2566942   -5.2566942   -4.2674296  0.088430895   -5.2566942   0.98926453      8192000 
  817000   0.65999333   -5.2552152   -5.2552152   -4.2652255  0.087465433   -5.2552152   0.98998975      8192000 
  818000   0.66043098   -5.2531184   -5.2531184   -4.2624722  0.087455029   -5.2531184   0.99064622      8192000 
  819000   0.66077826   -5.2515524   -5.2515524   -4.2603852  0.086402009   -5.2515524   0.99116715      8192000 
  820000   0.66059125   -5.2490182   -5.2490182   -4.2581316  0.088593956   -5.2490182   0.99088663      8192000 
  821000   0.66103477   -5.2472652   -5.2472652   -4.2557133  0.087311866   -5.2472652    0.9915519      8192000 
  822000   0.66104447   -5.2450456   -5.2450456   -4.2534791  0.086788877   -5.2450456   0.99156646      8192000 
  823000   0.66178274   -5.2431118   -5.2431118   -4.2504379  0.086081731   -5.2431118   0.99267386      8192000 
  824000   0.66165705   -5.2403598   -5.2403598   -4.2478745  0.087283402   -5.2403598   0.99248532      8192000 
  825000   0.66201406   -5.2380829   -5.2380829    -4.245062  0.088114396   -5.2380829   0.99302084      8192000 
  826000   0.66151665   -5.2355428   -5.2355428   -4.2432681  0.086702757   -5.2355428   0.99227472      8192000 
  827000   0.66206882   -5.2339373   -5.2339373   -4.2408343  0.085822061   -5.2339373   0.99310298      8192000 
  828000   0.66221867   -5.2314202   -5.2314202   -4.2380925  0.087567362   -5.2314202   0.99332775      8192000 
  829000   0.66240811   -5.2289248   -5.2289248   -4.2353129  0.088556738   -5.2289248   0.99361192      8192000 
  830000    0.6631675   -5.2273613   -5.2273613   -4.2326103  0.088607687   -5.2273613     0.994751      8192000 
  831000   0.66280178   -5.2243201   -5.2243201   -4.2301177  0.089529246   -5.2243201   0.99420242      8192000 
  832000   0.66312189   -5.2225834   -5.2225834   -4.2279009  0.089444261   -5.2225834   0.99468258      8192000 
  833000   0.66313966   -5.2202372   -5.2202372   -4.2255279  0.090524478   -5.2202372   0.99470923      8192000 
  834000   0.66324885   -5.2179314   -5.2179314   -4.2230584  0.089588142   -5.2179314   0.99487302      8192000 
  835000   0.66395937   -5.2160419   -5.2160419   -4.2201031  0.088608002   -5.2160419   0.99593881      8192000 
  836000   0.66360772   -5.2133873   -5.2133873    -4.217976  0.089958712   -5.2133873   0.99541134      8192000 
  837000   0.66446403   -5.2117825   -5.2117825   -4.2150867  0.089419983   -5.2117825    0.9966958      8192000 
  838000   0.66483656   -5.2096397   -5.2096397   -4.2123851  0.088827772   -5.2096397   0.99725458      8192000 
  839000   0.66449882   -5.2071423   -5.2071423   -4.2103943  0.089642532   -5.2071423   0.99674799      8192000 
  840000   0.66465867   -5.2052515   -5.2052515   -4.2082638  0.088061903   -5.2052515   0.99698776      8192000 
  841000    0.6653891   -5.2033079   -5.2033079   -4.2052245  0.088922616   -5.2033079    0.9980834      8192000 
  842000   0.66552593   -5.2010495   -5.2010495   -4.2027608  0.090132439   -5.2010495   0.99828865      8192000 
  843000   0.66563264   -5.1985595   -5.1985595   -4.2001108   0.09086308   -5.1985595   0.99844871      8192000 
  844000   0.66573145   -5.1964622   -5.1964622   -4.1978653  0.090970257   -5.1964622   0.99859693      8192000 
  845000   0.66590445   -5.1941332   -5.1941332   -4.1952768  0.090294917   -5.1941332   0.99885643      8192000 
  846000   0.66579877   -5.1918489   -5.1918489    -4.193151  0.090332023   -5.1918489   0.99869791      8192000 
  847000   0.66611065   -5.1896579   -5.1896579   -4.1904922  0.089987276   -5.1896579   0.99916573      8192000 
  848000   0.66635442   -5.1873427   -5.1873427   -4.1878113  0.091535431   -5.1873427   0.99953138      8192000 
  849000   0.66682269   -5.1856033   -5.1856033   -4.1853695  0.090323034   -5.1856033    1.0002338      8192000 
  850000   0.66673678   -5.1829131   -5.1829131   -4.1828081  0.091350859   -5.1829131    1.0001049      8192000 
  851000   0.66683959   -5.1802764   -5.1802764   -4.1800172  0.092294272   -5.1802764    1.0002591      8192000 
  852000   0.66738556   -5.1782648   -5.1782648   -4.1771867  0.091031254   -5.1782648    1.0010781      8192000 
  853000    0.6678446   -5.1761247   -5.1761247    -4.174358   0.09098661   -5.1761247    1.0017666      8192000 
  854000   0.66744996   -5.1729697   -5.1729697    -4.171795  0.092885189   -5.1729697    1.0011747      8192000 
  855000   0.66781826   -5.1716089   -5.1716089   -4.1698817   0.08823458   -5.1716089    1.0017271      8192000 
  856000   0.66752192   -5.1687164   -5.1687164   -4.1674338  0.089387932   -5.1687164    1.0012826      8192000 
  857000     0.667586    -5.166438    -5.166438   -4.1650593  0.090876482    -5.166438    1.0013788      8192000 
  858000   0.66802619   -5.1646892   -5.1646892   -4.1626502  0.089572536   -5.1646892     1.002039      8192000 
  859000   0.66823949   -5.1624402   -5.1624402   -4.1600812  0.088960571   -5.1624402     1.002359      8192000 
  860000   0.66867948   -5.1601665   -5.1601665   -4.1571476  0.090754378   -5.1601665     1.003019      8192000 
  861000   0.66883425   -5.1578058   -5.1578058   -4.1545547  0.090010431   -5.1578058    1.0032511      8192000 
  862000   0.66882248   -5.1553835   -5.1553835     -4.15215  0.091540948   -5.1553835    1.0032335      8192000 
  863000   0.66904748   -5.1535032   -5.1535032   -4.1499322  0.090729119   -5.1535032     1.003571      8192000 
  864000   0.66920929   -5.1511481   -5.1511481   -4.1473344  0.090938817   -5.1511481    1.0038137      8192000 
  865000    0.6695668   -5.1495161   -5.1495161   -4.1451662   0.09018051   -5.1495161    1.0043499      8192000 
  866000   0.66956276   -5.1469103   -5.1469103   -4.1425664  0.091792581   -5.1469103    1.0043439      8192000 
  867000    0.6699116   -5.1450855   -5.1450855   -4.1402184  0.089396592   -5.1450855    1.0048672      8192000 
  868000   0.66995604   -5.1426724   -5.1426724   -4.1377386  0.090426919   -5.1426724    1.0049338      8192000 
  869000   0.66994896   -5.1401779   -5.1401779   -4.1352547  0.090740949   -5.1401779    1.0049232      8192000 
  870000   0.66992384   -5.1382176   -5.1382176   -4.1333321  0.090193968   -5.1382176    1.0048855      8192000 
  871000   0.67032032   -5.1354207   -5.1354207   -4.1299404  0.092400663   -5.1354207    1.0054802      8192000 
  872000   0.67094328   -5.1341416   -5.1341416   -4.1277269  0.089440447   -5.1341416    1.0064147      8192000 
  873000   0.67117524   -5.1315451   -5.1315451   -4.1247825  0.091350521   -5.1315451    1.0067626      8192000 
  874000   0.67141615   -5.1297772   -5.1297772   -4.1226532  0.090467846   -5.1297772     1.007124      8192000 
  875000   0.67118255   -5.1271916   -5.1271916    -4.120418  0.090795435   -5.1271916    1.0067736      8192000 
  876000    0.6718433   -5.1252439   -5.1252439   -4.1174792  0.089661503   -5.1252439    1.0077647      8192000 
  877000   0.67201894   -5.1227216   -5.1227216   -4.1146935  0.091234681   -5.1227216    1.0080282      8192000 
  878000    0.6719844   -5.1205614   -5.1205614   -4.1125851  0.090434021   -5.1205614    1.0079763      8192000 
  879000   0.67237357   -5.1191425   -5.1191425   -4.1105824    0.0900642   -5.1191425    1.0085601      8192000 
  880000   0.67253146    -5.116491    -5.116491   -4.1076941  0.090178039    -5.116491    1.0087969      8192000 
  881000   0.67289394   -5.1143737   -5.1143737   -4.1050331  0.091186525   -5.1143737    1.0093407      8192000 
  882000   0.67302528   -5.1121087   -5.1121087    -4.102571   0.09140504   -5.1121087    1.0095377      8192000 
  883000   0.67348595   -5.1097826   -5.1097826   -4.0995539  0.090090245   -5.1097826    1.0102287      8192000 
  884000   0.67353121   -5.1073861   -5.1073861   -4.0970895  0.090530211   -5.1073861    1.0102966      8192000 
  885000   0.67307208   -5.1046797   -5.1046797   -4.0950718  0.091842758   -5.1046797    1.0096079      8192000 
  886000   0.67362031   -5.1032428   -5.1032428   -4.0928126  0.089847788   -5.1032428    1.0104302      8192000 
  887000   0.67398931   -5.1011103   -5.1011103   -4.0901266  0.090158074   -5.1011103    1.0109837      8192000 
  888000   0.67399581   -5.0994076   -5.0994076   -4.0884141  0.088453062   -5.0994076    1.0109935      8192000 
  889000   0.67456214   -5.0972588   -5.0972588   -4.0854158  0.088831786   -5.0972588     1.011843      8192000 
  890000   0.67425594   -5.0944337   -5.0944337   -4.0830501  0.090932646   -5.0944337    1.0113837      8192000 
  891000   0.67467061   -5.0927651   -5.0927651   -4.0807594  0.088716249   -5.0927651    1.0120057      8192000 
  892000   0.67482445   -5.0903503   -5.0903503   -4.0781139   0.09028514   -5.0903503    1.0122364      8192000 
  893000   0.67551762   -5.0887152   -5.0887152    -4.075439  0.087941843   -5.0887152    1.0132762      8192000 
  894000   0.67560526   -5.0861944   -5.0861944   -4.0727867  0.090630845   -5.0861944    1.0134076      8192000 
  895000   0.67582345   -5.0840395   -5.0840395   -4.0703046  0.091003991   -5.0840395    1.0137349      8192000 
  896000   0.67605358   -5.0819297   -5.0819297   -4.0678496  0.091713115   -5.0819297    1.0140801      8192000 
  897000   0.67644899   -5.0801957   -5.0801957   -4.0655225  0.089572276   -5.0801957    1.0146732      8192000 
  898000   0.67643451   -5.0781458   -5.0781458   -4.0634943  0.089212176   -5.0781458    1.0146515      8192000 
  899000   0.67653805   -5.0764755   -5.0764755   -4.0616686  0.087811027   -5.0764755    1.0148068      8192000 
  900000   0.67625842   -5.0740893   -5.0740893   -4.0597019  0.087642409   -5.0740893    1.0143874      8192000 
  901000   0.67659701     -5.07194     -5.07194   -4.0570447  0.087718034     -5.07194    1.0148953      8192000 
  902000   0.67655365   -5.0695726   -5.0695726   -4.0547424  0.087210027   -5.0695726    1.0148302      8192000 
  903000   0.67693881   -5.0679419   -5.0679419   -4.0525339  0.086652561   -5.0679419     1.015408      8192000 
  904000   0.67722633   -5.0655669   -5.0655669   -4.0497276  0.087484581   -5.0655669    1.0158392      8192000 
  905000   0.67769539   -5.0634172   -5.0634172   -4.0468743  0.087973692   -5.0634172    1.0165428      8192000 
  906000   0.67785274   -5.0614822   -5.0614822   -4.0447033  0.086875066   -5.0614822    1.0167789      8192000 
  907000   0.67802307   -5.0592735   -5.0592735   -4.0422392   0.08786656   -5.0592735    1.0170343      8192000 
  908000    0.6783163   -5.0571926   -5.0571926   -4.0397184  0.087041084   -5.0571926    1.0174742      8192000 
  909000   0.67844197   -5.0548003   -5.0548003   -4.0371376  0.087417603   -5.0548003    1.0176627      8192000 
  910000   0.67935356   -5.0528495   -5.0528495   -4.0338194  0.087494543   -5.0528495    1.0190301      8192000 
  911000   0.67912096   -5.0506781   -5.0506781   -4.0319969  0.087195343   -5.0506781    1.0186812      8192000 
  912000   0.67925655   -5.0481764   -5.0481764   -4.0292918  0.087518646   -5.0481764    1.0188846      8192000 
  913000   0.67930438   -5.0465816   -5.0465816   -4.0276253  0.086111373   -5.0465816    1.0189563      8192000 
  914000   0.67973686   -5.0445168   -5.0445168   -4.0249117  0.086937609   -5.0445168     1.019605      8192000 
  915000   0.68015162   -5.0428382   -5.0428382   -4.0226111  0.086049356   -5.0428382    1.0202272      8192000 
  916000   0.67991186   -5.0410707   -5.0410707   -4.0212032  0.085214524   -5.0410707    1.0198675      8192000 
  917000    0.6801931   -5.0396464   -5.0396464    -4.019357  0.083911366   -5.0396464    1.0202894      8192000 
  918000   0.68045024   -5.0369251   -5.0369251     -4.01625  0.085555268   -5.0369251    1.0206751      8192000 
  919000   0.68050212   -5.0354564   -5.0354564   -4.0147035  0.083686403   -5.0354564    1.0207529      8192000 
  920000   0.68075339   -5.0332053   -5.0332053   -4.0120755  0.084030865   -5.0332053    1.0211298      8192000 
  921000   0.68092174   -5.0311232   -5.0311232   -4.0097409  0.085084636   -5.0311232    1.0213824      8192000 
  922000   0.68089485    -5.029459    -5.029459    -4.008117  0.084312164    -5.029459     1.021342      8192000 
  923000   0.68137807   -5.0280419   -5.0280419   -4.0059751  0.082723799   -5.0280419    1.0220668      8192000 
  924000   0.68157543    -5.025969    -5.025969   -4.0036061  0.081926553    -5.025969    1.0223629      8192000 
  925000   0.68204112     -5.02397     -5.02397   -4.0009086  0.082886431     -5.02397    1.0230614      8192000 
  926000    0.6820599    -5.022087    -5.022087   -3.9989974  0.082661115    -5.022087    1.0230896      8192000 
  927000   0.68238873   -5.0212112   -5.0212112   -3.9976284  0.079989478   -5.0212112    1.0235828      8192000 
  928000   0.68252472   -5.0186273   -5.0186273   -3.9948405  0.080855344   -5.0186273    1.0237868      8192000 
  929000   0.68269711   -5.0165479   -5.0165479   -3.9925025  0.082480855   -5.0165479    1.0240454      8192000 
  930000    0.6832318   -5.0146045   -5.0146045   -3.9897571  0.082572355   -5.0146045    1.0248474      8192000 
  931000   0.68337579   -5.0130626   -5.0130626   -3.9879991  0.081531017   -5.0130626    1.0250634      8192000 
  932000    0.6840154   -5.0120555   -5.0120555   -3.9860327  0.081281891   -5.0120555    1.0260228      8192000 
  933000   0.68378102    -5.010224    -5.010224   -3.9845528  0.080159842    -5.010224    1.0256713      8192000 
  934000   0.68415795   -5.0083146   -5.0083146   -3.9820779  0.080252459   -5.0083146    1.0262367      8192000 
  935000   0.68429283   -5.0062171   -5.0062171   -3.9797781  0.080644815   -5.0062171     1.026439      8192000 
  936000   0.68427314   -5.0049573   -5.0049573   -3.9785479   0.07846319   -5.0049573    1.0264094      8192000 
  937000   0.68406291   -5.0033572   -5.0033572   -3.9772631  0.078653222   -5.0033572    1.0260941      8192000 
  938000   0.68454015   -5.0015465   -5.0015465   -3.9747365  0.078488653   -5.0015465      1.02681      8192000 
  939000   0.68476815   -5.0000722   -5.0000722   -3.9729202  0.077656896   -5.0000722     1.027152      8192000 
  940000   0.68510363   -4.9983738   -4.9983738   -3.9707186  0.077562446   -4.9983738    1.0276552      8192000 
  941000   0.68534748    -4.996667    -4.996667    -3.968646  0.076518568    -4.996667     1.028021      8192000 
  942000   0.68500719   -4.9941054   -4.9941054   -3.9665949  0.079024221   -4.9941054    1.0275105      8192000 
  943000   0.68575529   -4.9932989   -4.9932989   -3.9646662  0.075141836   -4.9932989    1.0286327      8192000 
  944000   0.68631996   -4.9917163   -4.9917163   -3.9622366   0.07531704   -4.9917163    1.0294797      8192000 
  945000   0.68656098   -4.9894202   -4.9894202    -3.959579  0.077408093   -4.9894202    1.0298412      8192000 
  946000   0.68667605   -4.9877705   -4.9877705   -3.9577567  0.077180188   -4.9877705    1.0300138      8192000 
  947000    0.6868695     -4.98632     -4.98632    -3.956016  0.074753825     -4.98632     1.030304      8192000 
  948000   0.68721376   -4.9845905   -4.9845905   -3.9537701  0.075646667   -4.9845905    1.0308204      8192000 
  949000   0.68712504   -4.9831612   -4.9831612   -3.9524739  0.075910867   -4.9831612    1.0306873      8192000 
  950000   0.68704861   -4.9814866   -4.9814866   -3.9509139  0.074588608   -4.9814866    1.0305727      8192000 
  951000   0.68717766   -4.9798829   -4.9798829   -3.9491166  0.073744357   -4.9798829    1.0307662      8192000 
  952000   0.68782729   -4.9789242   -4.9789242   -3.9471835   0.07129961   -4.9789242    1.0317407      8192000 
  953000   0.68782046   -4.9771612   -4.9771612   -3.9454308  0.072417676   -4.9771612    1.0317304      8192000 
  954000   0.68834113   -4.9756378   -4.9756378   -3.9431263  0.072351272   -4.9756378    1.0325114      8192000 
  955000   0.68865418   -4.9742656   -4.9742656   -3.9412846  0.070319136   -4.9742656     1.032981      8192000 
  956000    0.6885568   -4.9721365   -4.9721365   -3.9393016  0.071914388   -4.9721365    1.0328349      8192000 
  957000   0.68879319   -4.9706072   -4.9706072   -3.9374177  0.071539211   -4.9706072    1.0331895      8192000 
  958000   0.68879247   -4.9690863   -4.9690863   -3.9358978  0.071012256   -4.9690863    1.0331884      8192000 
  959000   0.68906651   -4.9670826   -4.9670826   -3.9334831  0.072426944   -4.9670826    1.0335995      8192000 
  960000   0.68948624   -4.9666324   -4.9666324   -3.9324033  0.069831839   -4.9666324    1.0342291      8192000 
  961000   0.68998063   -4.9652058   -4.9652058   -3.9302352  0.068892476   -4.9652058    1.0349707      8192000 
  962000   0.68988532   -4.9632345   -4.9632345   -3.9284068  0.070071339   -4.9632345    1.0348277      8192000 
  963000   0.69072828   -4.9623893   -4.9623893   -3.9262972  0.068979927   -4.9623893    1.0360922      8192000 
  964000   0.69040947   -4.9605199   -4.9605199   -3.9249059  0.070208472   -4.9605199    1.0356139      8192000 
  965000   0.69035694   -4.9593232   -4.9593232    -3.923788  0.067687972   -4.9593232    1.0355351      8192000 
  966000   0.69106931    -4.958519    -4.958519   -3.9219153  0.066377665    -4.958519    1.0366037      8192000 
  967000   0.69102015   -4.9572777   -4.9572777   -3.9207477   0.06670566   -4.9572777      1.03653      8192000 
  968000   0.69132147   -4.9563901   -4.9563901   -3.9194081   0.06562365   -4.9563901    1.0369819      8192000 
  969000   0.69147763   -4.9544546   -4.9544546   -3.9172385  0.067435812   -4.9544546    1.0372162      8192000 
  970000   0.69192355   -4.9539837   -4.9539837   -3.9160986   0.06558934   -4.9539837    1.0378851      8192000 
  971000   0.69212292   -4.9528756   -4.9528756   -3.9146915  0.063980539   -4.9528756    1.0381841      8192000 
  972000   0.69219379   -4.9512332   -4.9512332   -3.9129428  0.064118925   -4.9512332    1.0382904      8192000 
  973000   0.69301789   -4.9505422   -4.9505422   -3.9110156  0.062893879   -4.9505422    1.0395266      8192000 
  974000   0.69239498   -4.9480392   -4.9480392   -3.9094469  0.064386801   -4.9480392    1.0385922      8192000 
  975000   0.69335574   -4.9478904   -4.9478904   -3.9078571   0.06098746   -4.9478904    1.0400334      8192000 
  976000    0.6929302    -4.945536    -4.945536   -3.9061409  0.064328948    -4.945536     1.039395      8192000 
  977000   0.69304736   -4.9442746   -4.9442746   -3.9047038  0.063751777   -4.9442746    1.0395708      8192000 
  978000   0.69382753   -4.9429699   -4.9429699   -3.9022289  0.063853463   -4.9429699     1.040741      8192000 
  979000   0.69407453   -4.9417212   -4.9417212   -3.9006096  0.062718751   -4.9417212    1.0411115      8192000 
  980000   0.69399057    -4.939786    -4.939786   -3.8988004  0.063311588    -4.939786    1.0409856      8192000 
  981000   0.69444028   -4.9394348   -4.9394348   -3.8977746  0.059297613   -4.9394348    1.0416602      8192000 
  982000   0.69427905   -4.9375287   -4.9375287   -3.8961103  0.060728601   -4.9375287    1.0414183      8192000 
  983000   0.69477534   -4.9364401   -4.9364401   -3.8942774  0.058913561   -4.9364401    1.0421628      8192000 
  984000   0.69505759   -4.9358602   -4.9358602    -3.893274  0.056927629   -4.9358602    1.0425861      8192000 
  985000   0.69511212   -4.9338415   -4.9338415   -3.8911736  0.058386602   -4.9338415    1.0426679      8192000 
  986000   0.69514529   -4.9323221   -4.9323221   -3.8896044  0.058674102   -4.9323221    1.0427177      8192000 
  987000    0.6953345   -4.9310684   -4.9310684   -3.8880669  0.059098442   -4.9310684    1.0430015      8192000 
  988000   0.69578598   -4.9304732   -4.9304732   -3.8867945  0.056860212   -4.9304732    1.0436787      8192000 
  989000    0.6957825   -4.9289432   -4.9289432   -3.8852697  0.056781762   -4.9289432    1.0436735      8192000 
  990000   0.69604889   -4.9280466   -4.9280466   -3.8839735  0.056222266   -4.9280466    1.0440731      8192000 
  991000   0.69636915   -4.9263545   -4.9263545   -3.8818011  0.056695762   -4.9263545    1.0445535      8192000 
  992000   0.69649789   -4.9259148   -4.9259148   -3.8811682   0.05583064   -4.9259148    1.0447466      8192000 
  993000   0.69652903   -4.9247189   -4.9247189   -3.8799256   0.05545225   -4.9247189    1.0447933      8192000 
  994000   0.69710366   -4.9237729   -4.9237729   -3.8781176  0.054429955   -4.9237729    1.0456552      8192000 
  995000   0.69701658   -4.9227405   -4.9227405   -3.8772159  0.053927616   -4.9227405    1.0455246      8192000 
  996000   0.69694069   -4.9215743   -4.9215743   -3.8761636  0.051314081   -4.9215743    1.0454108      8192000 
  997000   0.69733755   -4.9203189   -4.9203189   -3.8743129  0.053328721   -4.9203189    1.0460061      8192000 
  998000   0.69739142   -4.9189478   -4.9189478   -3.8728609  0.053467486   -4.9189478    1.0460869      8192000 
  999000   0.69790008    -4.917943    -4.917943   -3.8710931  0.052624084    -4.917943    1.0468499      8192000 
 1000000   0.69809147    -4.916549    -4.916549   -3.8694121   0.05330466    -4.916549    1.0471369      8192000 
Loop time of 15483.9 on 192 procs for 1000000 steps with 3993600 atoms

Performance: 13950.018 tau/day, 64.583 timesteps/s
99.4% CPU use with 192 MPI tasks x 1 OpenMP threads

MPI task timing breakdown:
Section |  min time  |  avg time  |  max time  |%varavg|  %CPU | %total
-----------------------------------------------------------------------
Pair    | 8318       | 9060.4     | 9803       | 328.6 |  99.5 | 58.52
Bond    | 0.79922    | 0.90708    | 1.0002     |   3.3 | 100.0 |  0.01
Neigh   | 1780.4     | 1947.3     | 2082.3     | 151.1 |  99.6 | 12.58
Comm    | 1703.5     | 2480.3     | 3140.6     | 558.3 |  99.2 | 16.02
Output  | 58.93      | 59.412     | 59.42      |   0.5 |  98.7 |  0.38
Modify  | 1171.6     | 1223.9     | 1330.2     |  85.4 |  99.1 |  7.90
Other   |            | 711.6      |            |       |       |  4.60

Nlocal:        20800.0 ave       21460 max       20229 min
Histogram: 2 1 3 8 150 20 3 2 1 2
Nghost:        14205.5 ave       15208 max       11385 min
Histogram: 47 1 0 0 0 0 0 0 0 144
Neighs:        817303.0 ave      831484 max      735031 min
Histogram: 2 5 7 6 2 2 0 0 31 137

Total # of neighbors = 1.569221e+08
Ave neighs/atom = 39.293394
Ave special neighs/atom = 0.0000000
Neighbor list builds = 54751
Dangerous builds = 0
write_data	data.lj
System init for write_data ...
WARNING: Not all mixed pair coeffs generated from mixing. Use write_data with 'pair ij' option to store all pair coeffs. (src/write_data.cpp:312)
Total wall time: 4:18:12
