LAMMPS (29 Oct 2020)
  using 1 OpenMP thread(s) per MPI task
# Simple rigid body system
# needed variables:

#variable	startTemp equal 0.5
#variable 	temp 	  equal 0.8

units		lj
atom_style	full
dimension 	3
boundary	p p f
pair_style	lj/cut/opt 2.5

variable 	sigma		equal 1.0
variable 	epsilon 	equal 1.0

region		box block 0 80 0 80 0 160
create_box 	3 box
Created orthogonal box = (0.0000000 0.0000000 0.0000000) to (80.000000 80.000000 160.00000)
  2 by 4 by 8 MPI processor grid



lattice 	sc 0.66
Lattice spacing in x,y,z = 1.1485556 1.1485556 1.1485556
region		fluid block EDGE EDGE EDGE EDGE 2 100 units box
create_atoms 	1 region fluid
Created 421400 atoms
  create_atoms CPU = 0.008 seconds

lattice 	sc 0.045
Lattice spacing in x,y,z = 2.8114422 2.8114422 2.8114422
region		gas block EDGE EDGE EDGE EDGE 101 158 units box
create_atoms    1 region gas
Created 17661 atoms
  create_atoms CPU = 0.005 seconds

group		solvent type 1
439061 atoms in group solvent

mass		1 1.0
mass		2 1.0
mass		3 1.0



neighbor 	0.4 bin

pair_coeff	1 1 1.0 1.0
pair_coeff	2 2 0.0 0.0
pair_coeff	3 3 0.0 0.0
pair_coeff	2 3 0.0 0.0
pair_coeff	1 2*3 0.0 0.0

pair_modify 	shift yes

delete_atoms	overlap 0.5 solvent solvent
System init for delete_atoms ...
Neighbor list info ...
  update every 1 steps, delay 10 steps, check yes
  max neighbors/atom: 2000, page size: 100000
  master list distance cutoff = 2.9
  ghost atom cutoff = 2.9
  binsize = 1.45, bins = 56 56 111
  2 neighbor lists, perpetual/occasional/extra = 1 1 0
  (1) command delete_atoms, occasional
      attributes: full, newton on
      pair build: full/bin
      stencil: full/bin/3d
      bin: standard
  (2) pair lj/cut/opt, perpetual
      attributes: half, newton on
      pair build: half/bin/newton
      stencil: half/bin/3d/newton
      bin: standard
WARNING: Ignoring 'compress yes' for molecular system (src/delete_atoms.cpp:125)
Deleted 0 atoms, new total = 439061

velocity 	solvent create ${startTemp} 563435 loop geom
velocity 	solvent create .80 563435 loop geom

balance 	1.05 shift z 10 1.05
Balancing ...
Neighbor list info ...
  update every 1 steps, delay 10 steps, check yes
  max neighbors/atom: 2000, page size: 100000
  master list distance cutoff = 2.9
  ghost atom cutoff = 2.9
  binsize = 1.45, bins = 56 56 111
  1 neighbor lists, perpetual/occasional/extra = 1 0 0
  (1) pair lj/cut/opt, perpetual
      attributes: half, newton on
      pair build: half/bin/newton
      stencil: half/bin/3d/newton
      bin: standard
 rebalancing time: 0.035 seconds
  iteration count = 5
  initial/final maximal load/proc = 11340.000 8190.0000
  initial/final imbalance factor  = 1.6529822 1.1938204
  x cuts: 0.0000000 0.5 1.0000000
  y cuts: 0.0000000 0.25 0.5 0.75 1.0000000
  z cuts: 0.0000000 0.08984375 0.17578125 0.25390625 0.3359375 0.4140625 0.50390625 0.58203125 1.0000000


####################### WALLS ###########################


variable       epsilonWall equal 2*${epsilon}
variable       epsilonWall equal 2*1

variable       cutoffTop   equal   0.7147*${sigma}
variable       cutoffTop   equal   0.7147*1

variable       cutoffLow   equal   3*${sigma}
variable       cutoffLow   equal   3*1


fix            topWall all wall/lj93 zhi EDGE                ${epsilonWall} ${sigma} ${cutoffTop} units box
fix            topWall all wall/lj93 zhi EDGE                2 ${sigma} ${cutoffTop} units box
fix            topWall all wall/lj93 zhi EDGE                2 1 ${cutoffTop} units box
fix            topWall all wall/lj93 zhi EDGE                2 1 0.7147 units box

fix            lowWall all wall/lj93 zlo EDGE                ${epsilonWall} ${sigma} ${cutoffLow} units box
fix            lowWall all wall/lj93 zlo EDGE                2 ${sigma} ${cutoffLow} units box
fix            lowWall all wall/lj93 zlo EDGE                2 1 ${cutoffLow} units box
fix            lowWall all wall/lj93 zlo EDGE                2 1 3 units box


###################### COMPUTES ##########################

compute        bin1 solvent chunk/atom bin/1d z upper 1.0


######################	FIXES ############################


fix 		peclet solvent ave/chunk 1000 1 1000 bin1 density/number norm 		 none ave one file density.profile

fix 		 temp solvent ave/chunk 1000 1 1000 bin1 temp norm 		 none ave one file temp.profile

fix 		2 solvent nve


## Thermostat


region		regthermo block EDGE EDGE EDGE EDGE 0 20 units box

group 		thermo dynamic solvent region regthermo every 1000
dynamic group thermo defined

fix 		3 thermo langevin ${startTemp} ${temp} 10 156453
fix 		3 thermo langevin .80 ${temp} 10 156453
fix 		3 thermo langevin .80 .80 10 156453



#### Load balancing


fix 		bal all balance 1000 1.05 shift z 10 1.05


############### Diagnostics and computes ###################
#compute 	com cube	  rigid/local	1 mol x y z
#compute 	quat cube	  rigid/local	1 mol quatw quati quatj quatk

thermo 		1000
thermo_style 	custom step temp epair evdwl etotal press pe ke atoms

dump		1 all custom 100000 dump.lammpstrj id mol type x y z
dump 		2 all image 10000 image.*.png type type
dump 		3 all movie 1000 movie.avi type type

#dump 		com cube local 1000 dump.*.xyz c_com[*]
#dump		quat cube      local 1000 dump.*.quat c_quat[*]


restart 	1000000 restart.dat
timestep 	0.005
timer 		full
New timer settings: style=full  mode=nosync  timeout=off

run		5000000
Per MPI rank memory allocation (min/avg/max) = 11.32 | 15.17 | 18.40 Mbytes
Step Temp E_pair E_vdwl TotEng Press PotEng KinEng Atoms 
       0          0.8   -1.2273921   -1.2273921 -0.027394786    3.9748695   -1.2273921    1.1999973   439061 
    1000    1.8614906   -3.3091268   -3.3091268   -0.5168973    1.9023741   -3.3091268    2.7922295   439061 
    2000    1.7357448   -3.3051183   -3.3051183  -0.70150697    1.0561532   -3.3051183    2.6036113   439061 
    3000    1.5515813   -3.1947967   -3.1947967  -0.86742998   0.71216698   -3.1947967    2.3273667   439061 
    4000    1.4580327   -3.1760707   -3.1760707  -0.98902661   0.55481775   -3.1760707    2.1870441   439061 
    5000    1.4027548    -3.155003    -3.155003   -1.0508756   0.43932634    -3.155003    2.1041274   439061 
    6000    1.3636183   -3.1218224   -3.1218224   -1.0763996   0.32993465   -3.1218224    2.0454228   439061 
    7000    1.3339663   -3.0858758   -3.0858758   -1.0849309   0.29108792   -3.0858758    2.0009449   439061 
    8000    1.3211119   -3.0687922   -3.0687922   -1.0871288    0.2954893   -3.0687922    1.9816633   439061 
    9000    1.3240132   -3.0748063   -3.0748063    -1.088791   0.35204801   -3.0748063    1.9860153   439061 
   10000    1.3379597   -3.0996685   -3.0996685   -1.0927336   0.39903321   -3.0996685     2.006935   439061 
   11000    1.3474133    -3.118499    -3.118499   -1.0973836   0.43015367    -3.118499    2.0211153   439061 
   12000    1.3471542   -3.1251669   -3.1251669   -1.1044402   0.43242469   -3.1251669    2.0207266   439061 
   13000    1.3387238   -3.1192102   -3.1192102   -1.1111291   0.42217797   -3.1192102    2.0080812   439061 
   14000    1.3260291   -3.1054282   -3.1054282   -1.1163891   0.40280781   -3.1054282    1.9890391   439061 
   15000    1.3067181   -3.0815573   -3.0815573   -1.1214845   0.36831862   -3.0815573    1.9600727   439061 
   16000    1.2837996    -3.049792    -3.049792   -1.1240969   0.32858601    -3.049792    1.9256951   439061 
   17000    1.2620668   -3.0211925   -3.0211925   -1.1280966    0.2954544   -3.0211925    1.8930959   439061 
   18000    1.2452909   -3.0000291   -3.0000291   -1.1320971   0.28837505   -3.0000291    1.8679321   439061 
   19000    1.2356809   -2.9963484   -2.9963484   -1.1428313   0.30282392   -2.9963484    1.8535171   439061 
   20000     1.226366   -3.0047203   -3.0047203   -1.1651756   0.32129662   -3.0047203    1.8395448   439061 
   21000    1.2104302   -3.0103893   -3.0103893   -1.1947482    0.3313443   -3.0103893    1.8156412   439061 
   22000    1.1953543   -3.0151176   -3.0151176   -1.2220903   0.31211689   -3.0151176    1.7930273   439061 
   23000     1.182678   -3.0166989   -3.0166989   -1.2426859   0.30275392   -3.0166989     1.774013   439061 
   24000     1.175992   -3.0246541   -3.0246541   -1.2606702   0.29870588   -3.0246541     1.763984   439061 
   25000     1.169854   -3.0319851   -3.0319851   -1.2772081   0.30356984   -3.0319851     1.754777   439061 
   26000    1.1664246   -3.0449903   -3.0449903   -1.2953575   0.30115659   -3.0449903    1.7496328   439061 
   27000    1.1608098   -3.0530397   -3.0530397    -1.311829   0.29963893   -3.0530397    1.7412107   439061 
   28000    1.1569843   -3.0619216   -3.0619216   -1.3264491   0.29127483   -3.0619216    1.7354725   439061 
   29000    1.1494394   -3.0671099   -3.0671099   -1.3429546   0.28741002   -3.0671099    1.7241552   439061 
   30000    1.1412828   -3.0676689   -3.0676689   -1.3557485   0.27472708   -3.0676689    1.7119204   439061 
   31000    1.1333494   -3.0673341   -3.0673341   -1.3673138   0.26486829   -3.0673341    1.7000203   439061 
   32000    1.1239632   -3.0624931   -3.0624931   -1.3765522   0.24731959   -3.0624931    1.6859409   439061 
   33000    1.1151277   -3.0572465   -3.0572465   -1.3845588    0.2301966   -3.0572465    1.6726877   439061 
   34000    1.1057179   -3.0508505   -3.0508505   -1.3922775    0.2174515   -3.0508505     1.658573   439061 
   35000    1.0973127   -3.0458976   -3.0458976   -1.3999324   0.19983542   -3.0458976    1.6459652   439061 
   36000     1.088976   -3.0385566   -3.0385566   -1.4050963   0.18994863   -3.0385566    1.6334603   439061 
   37000     1.078717   -3.0286624   -3.0286624   -1.4105905    0.1739439   -3.0286624    1.6180719   439061 
   38000    1.0708176   -3.0214578   -3.0214578   -1.4152351   0.16384645   -3.0214578    1.6062227   439061 
   39000    1.0637103   -3.0149585   -3.0149585   -1.4193967   0.15233109   -3.0149585    1.5955618   439061 
   40000    1.0607063   -3.0152347   -3.0152347   -1.4241789   0.15086319   -3.0152347    1.5910558   439061 
   41000    1.0586122   -3.0168943   -3.0168943   -1.4289796   0.14315269   -3.0168943    1.5879147   439061 
   42000    1.0569946   -3.0185537   -3.0185537   -1.4330654   0.15148395   -3.0185537    1.5854883   439061 
   43000    1.0550235   -3.0209703   -3.0209703   -1.4384386   0.14433421   -3.0209703    1.5825317   439061 
   44000    1.0545527   -3.0231657   -3.0231657   -1.4413403   0.14068798   -3.0231657    1.5818254   439061 
   45000    1.0516822   -3.0227296   -3.0227296   -1.4452099   0.13882976   -3.0227296    1.5775197   439061 
   46000    1.0525462   -3.0270448   -3.0270448   -1.4482292    0.1366547   -3.0270448    1.5788157   439061 
   47000    1.0506754   -3.0282447   -3.0282447   -1.4522351    0.1392611   -3.0282447    1.5760096   439061 
   48000    1.0495425   -3.0309594   -3.0309594   -1.4566492   0.13517561   -3.0309594    1.5743102   439061 
   49000    1.0499783   -3.0340903   -3.0340903   -1.4591264   0.14039518   -3.0340903    1.5749639   439061 
   50000     1.049468   -3.0368363   -3.0368363   -1.4626379   0.13070939   -3.0368363    1.5741984   439061 
   51000     1.048345   -3.0384641   -3.0384641   -1.4659502   0.13696214   -3.0384641    1.5725139   439061 
   52000    1.0453289   -3.0379471   -3.0379471   -1.4699572   0.13271973   -3.0379471    1.5679898   439061 
   53000    1.0440187   -3.0384001   -3.0384001   -1.4723756   0.13268286   -3.0384001    1.5660245   439061 
   54000    1.0403019   -3.0365117   -3.0365117   -1.4760624   0.12393071   -3.0365117    1.5604493   439061 
   55000    1.0372054   -3.0372324   -3.0372324   -1.4814279   0.12111358   -3.0372324    1.5558045   439061 
   56000    1.0347053   -3.0373332   -3.0373332   -1.4852788   0.12526932   -3.0373332    1.5520544   439061 
   57000    1.0342938   -3.0409147   -3.0409147   -1.4894775    0.1306276   -3.0409147    1.5514372   439061 
   58000    1.0313404   -3.0418528   -3.0418528   -1.4948458   0.12779903   -3.0418528    1.5470071   439061 
   59000    1.0326919   -3.0491389   -3.0491389   -1.5001046   0.12988912   -3.0491389    1.5490343   439061 
   60000    1.0311138   -3.0540074   -3.0540074   -1.5073403   0.13035835   -3.0540074    1.5466671   439061 
   61000    1.0279964   -3.0562092   -3.0562092   -1.5142182     0.134534   -3.0562092     1.541991   439061 
   62000     1.027954   -3.0628603   -3.0628603   -1.5209328   0.12972775   -3.0628603    1.5419275   439061 
   63000    1.0282742   -3.0672762   -3.0672762   -1.5248684   0.13381961   -3.0672762    1.5424078   439061 
   64000    1.0264615   -3.0717293   -3.0717293   -1.5320405    0.1328736   -3.0717293    1.5396888   439061 
   65000    1.0243061    -3.073062    -3.073062   -1.5366064   0.13813258    -3.073062    1.5364556   439061 
   66000    1.0243312   -3.0779044   -3.0779044    -1.541411    0.1336349   -3.0779044    1.5364933   439061 
   67000    1.0255499    -3.083293    -3.083293   -1.5449716   0.13733349    -3.083293    1.5383214   439061 
   68000    1.0257821   -3.0889718   -3.0889718   -1.5503022   0.13262638   -3.0889718    1.5386696   439061 
   69000     1.024432   -3.0921054   -3.0921054   -1.5554609   0.13203765   -3.0921054    1.5366445   439061 
   70000    1.0233249   -3.0965161   -3.0965161   -1.5615322   0.13044869   -3.0965161    1.5349839   439061 
   71000    1.0198373   -3.0972697   -3.0972697   -1.5675172    0.1301332   -3.0972697    1.5297525   439061 
   72000    1.0210145    -3.102255    -3.102255   -1.5707367   0.13258207    -3.102255    1.5315183   439061 
   73000    1.0191494   -3.1044326   -3.1044326    -1.575712   0.13040813   -3.1044326    1.5287206   439061 
   74000    1.0177927   -3.1063128   -3.1063128   -1.5796273   0.12282388   -3.1063128    1.5266855   439061 
   75000    1.0178559   -3.1098573   -3.1098573   -1.5830769   0.12095572   -3.1098573    1.5267804   439061 
   76000    1.0151214   -3.1090862   -3.1090862   -1.5864076    0.1227647   -3.1090862    1.5226786   439061 
   77000    1.0118809   -3.1079362   -3.1079362   -1.5901183   0.12026123   -3.1079362    1.5178179   439061 
   78000    1.0111286   -3.1116995   -3.1116995   -1.5950101    0.1130901   -3.1116995    1.5166895   439061 
   79000    1.0065265   -3.1095155   -3.1095155   -1.5997291   0.11027617   -3.1095155    1.5097864   439061 
   80000    1.0044473   -3.1107387   -3.1107387   -1.6040711   0.10229491   -3.1107387    1.5066676   439061 
   81000    1.0026497   -3.1114565   -3.1114565   -1.6074854   0.10765102   -3.1114565    1.5039711   439061 
   82000     1.000507    -3.110111    -3.110111   -1.6093539   0.10754067    -3.110111    1.5007571   439061 
   83000    1.0004114   -3.1142754   -3.1142754   -1.6136617   0.10291174   -3.1142754    1.5006137   439061 
   84000   0.99793584   -3.1128044   -3.1128044   -1.6159041   0.10204612   -3.1128044    1.4969003   439061 
   85000   0.99619147   -3.1128196   -3.1128196   -1.6185358  0.095006354   -3.1128196    1.4942838   439061 
   86000   0.99522018   -3.1147968   -3.1147968     -1.62197  0.097143675   -3.1147968    1.4928269   439061 
   87000   0.99274134   -3.1125724   -3.1125724   -1.6234637  0.094232883   -3.1125724    1.4891086   439061 
   88000   0.99086127   -3.1122425   -3.1122425    -1.625954  0.096596589   -3.1122425    1.4862885   439061 
   89000   0.99051765   -3.1142355   -3.1142355   -1.6284624  0.090700827   -3.1142355    1.4857731   439061 
   90000   0.99043883   -3.1176912   -3.1176912   -1.6320364  0.089280282   -3.1176912    1.4856549   439061 
   91000   0.98867007   -3.1182209   -3.1182209   -1.6352192  0.091843578   -3.1182209    1.4830017   439061 
   92000   0.99052466   -3.1223228   -3.1223228   -1.6365392  0.089664444   -3.1223228    1.4857836   439061 
   93000   0.98897039   -3.1209501   -3.1209501   -1.6374979  0.093958953   -3.1209501    1.4834522   439061 
   94000   0.98833936    -3.124091    -3.124091   -1.6415853  0.091666177    -3.124091    1.4825057   439061 
   95000   0.98641624   -3.1246936   -3.1246936   -1.6450726  0.085878566   -3.1246936     1.479621   439061 
   96000   0.98716943   -3.1277956   -3.1277956   -1.6470448  0.082849235   -3.1277956    1.4807508   439061 
   97000   0.98716616   -3.1301016   -3.1301016   -1.6493558  0.087563626   -3.1301016    1.4807459   439061 
   98000   0.98766374   -3.1348107   -3.1348107   -1.6533185  0.090674358   -3.1348107    1.4814922   439061 
   99000   0.98708274   -3.1363597   -3.1363597    -1.655739  0.087206479   -3.1363597    1.4806207   439061 
  100000   0.98637146    -3.137793    -3.137793   -1.6582392   0.09204865    -3.137793    1.4795538   439061 
  101000   0.98517658    -3.139337    -3.139337   -1.6615755  0.090539501    -3.139337    1.4777615   439061 
  102000    0.9847484   -3.1413208   -3.1413208   -1.6642015  0.088481422   -3.1413208    1.4771192   439061 
  103000   0.98344639   -3.1429564   -3.1429564   -1.6677902  0.092365162   -3.1429564    1.4751662   439061 
  104000   0.98112708   -3.1424757   -3.1424757   -1.6707884   0.08481126   -3.1424757    1.4716873   439061 
  105000    0.9834844   -3.1494638   -3.1494638   -1.6742406  0.086260851   -3.1494638    1.4752232   439061 
  106000   0.98358865     -3.15208     -3.15208   -1.6767003  0.090064467     -3.15208    1.4753796   439061 
  107000   0.98273708   -3.1552395   -3.1552395   -1.6811372  0.092583449   -3.1552395    1.4741023   439061 
  108000   0.98244036   -3.1580035   -3.1580035   -1.6843463  0.095069693   -3.1580035    1.4736572   439061 
  109000   0.98283652    -3.160527    -3.160527   -1.6862756  0.086350379    -3.160527    1.4742514   439061 
  110000   0.98258009   -3.1636905   -3.1636905   -1.6898237  0.096518837   -3.1636905    1.4738668   439061 
  111000   0.98183728   -3.1648326   -3.1648326   -1.6920801  0.090047138   -3.1648326    1.4727526   439061 
  112000   0.98048452   -3.1681959   -3.1681959   -1.6974725  0.092065856   -3.1681959    1.4707234   439061 
  113000   0.97914192   -3.1694862   -3.1694862   -1.7007766  0.089587387   -3.1694862    1.4687095   439061 
  114000   0.98042088   -3.1727945   -3.1727945   -1.7021665  0.090778886   -3.1727945     1.470628   439061 
  115000   0.98067286   -3.1758279   -3.1758279   -1.7048219  0.093704421   -3.1758279    1.4710059   439061 
  116000   0.97859037   -3.1760084   -3.1760084   -1.7081262   0.08999705   -3.1760084    1.4678822   439061 
  117000   0.98016323    -3.180731    -3.180731   -1.7104895  0.088399884    -3.180731    1.4702415   439061 
  118000   0.97909215   -3.1812865   -3.1812865   -1.7126516  0.098340619   -3.1812865    1.4686349   439061 
  119000   0.97904388   -3.1836468   -3.1836468   -1.7150844  0.093062658   -3.1836468    1.4685625   439061 
  120000   0.97889906   -3.1875858   -3.1875858   -1.7192405  0.094664244   -3.1875858    1.4683452   439061 
  121000   0.97731909   -3.1885342   -3.1885342   -1.7225589  0.090104172   -3.1885342    1.4659753   439061 
  122000   0.97659233   -3.1916471   -3.1916471   -1.7267619  0.091319954   -3.1916471    1.4648852   439061 
  123000   0.97664319   -3.1932969   -3.1932969   -1.7283354   0.09340575   -3.1932969    1.4649614   439061 
  124000   0.97597498   -3.1938377   -3.1938377   -1.7298786   0.09255863   -3.1938377    1.4639591   439061 
  125000   0.97639712   -3.1975915   -3.1975915   -1.7329991  0.093552504   -3.1975915    1.4645923   439061 
  126000   0.97450381   -3.1976027   -3.1976027   -1.7358503  0.091098472   -3.1976027    1.4617524   439061 
  127000   0.97464033   -3.1989995   -3.1989995   -1.7370423  0.095283227   -3.1989995    1.4619572   439061 
  128000   0.97495139   -3.2037316   -3.2037316   -1.7413078   0.08739156   -3.2037316    1.4624238   439061 
  129000   0.97434361   -3.2058703   -3.2058703   -1.7443582  0.083957504   -3.2058703    1.4615121   439061 
  130000   0.97482884   -3.2077606   -3.2077606   -1.7455207  0.088985424   -3.2077606    1.4622399   439061 
  131000   0.97357843   -3.2088332   -3.2088332   -1.7484689  0.089749435   -3.2088332    1.4603643   439061 
  132000   0.97363907   -3.2108521   -3.2108521   -1.7503969  0.083723892   -3.2108521    1.4604553   439061 
  133000   0.97060566   -3.2099609   -3.2099609   -1.7540557  0.083655511   -3.2099609    1.4559052   439061 
  134000    0.9708989   -3.2124384   -3.2124384   -1.7560934   0.08362604   -3.2124384     1.456345   439061 
  135000   0.97102332   -3.2145951   -3.2145951   -1.7580635  0.087410122   -3.2145951    1.4565317   439061 
  136000   0.96982535   -3.2153914   -3.2153914   -1.7606567  0.089249649   -3.2153914    1.4547347   439061 
  137000   0.97105937   -3.2199562   -3.2199562   -1.7633705  0.089014846   -3.2199562    1.4565857   439061 
  138000   0.96920757   -3.2186576   -3.2186576   -1.7648496  0.082009214   -3.2186576     1.453808   439061 
  139000   0.96799564   -3.2194422   -3.2194422   -1.7674521  0.082499709   -3.2194422    1.4519902   439061 
  140000   0.96837833   -3.2223284   -3.2223284   -1.7697642  0.080496155   -3.2223284    1.4525642   439061 
  141000   0.96753556   -3.2235395   -3.2235395   -1.7722395  0.084718663   -3.2235395       1.4513   439061 
  142000    0.9670208    -3.225247    -3.225247   -1.7747191  0.082993335    -3.225247    1.4505279   439061 
  143000   0.96346228   -3.2228633   -3.2228633   -1.7776731   0.08129615   -3.2228633    1.4451901   439061 
  144000   0.96611116   -3.2282696   -3.2282696   -1.7791062    0.0795362   -3.2282696    1.4491634   439061 
  145000   0.96754761   -3.2312121   -3.2312121    -1.779894  0.076071927   -3.2312121    1.4513181   439061 
  146000   0.96562916   -3.2314673   -3.2314673   -1.7830269  0.080404397   -3.2314673    1.4484404   439061 
  147000   0.96336345    -3.231485    -3.231485   -1.7864431  0.082619851    -3.231485    1.4450419   439061 
  148000   0.96552475   -3.2357487   -3.2357487   -1.7874649  0.080091458   -3.2357487    1.4482838   439061 
  149000   0.96626847   -3.2389855   -3.2389855   -1.7895861  0.077453275   -3.2389855    1.4493994   439061 
  150000   0.96429372   -3.2389143   -3.2389143    -1.792477  0.078667307   -3.2389143    1.4464373   439061 
  151000     0.964051   -3.2414466   -3.2414466   -1.7953734  0.076175088   -3.2414466    1.4460732   439061 
  152000   0.96261242   -3.2429617   -3.2429617   -1.7990464  0.076992869   -3.2429617    1.4439153   439061 
  153000   0.96338289   -3.2455113   -3.2455113   -1.8004403  0.084931475   -3.2455113     1.445071   439061 
  154000   0.96387898   -3.2490047   -3.2490047   -1.8031895  0.078197629   -3.2490047    1.4458152   439061 
  155000   0.96177921   -3.2490374   -3.2490374   -1.8063719  0.080475948   -3.2490374    1.4426655   439061 
  156000   0.96065462   -3.2504006   -3.2504006    -1.809422  0.076234158   -3.2504006    1.4409786   439061 
  157000   0.96150318   -3.2538975   -3.2538975   -1.8116461  0.082365898   -3.2538975    1.4422515   439061 
  158000   0.96084483   -3.2552463   -3.2552463   -1.8139824  0.077070977   -3.2552463     1.441264   439061 
  159000   0.96136329    -3.257784    -3.257784   -1.8157424  0.078584701    -3.257784    1.4420416   439061 
  160000   0.96230816   -3.2594326   -3.2594326   -1.8159737  0.079417973   -3.2594326    1.4434589   439061 
  161000    0.9599933   -3.2592976   -3.2592976   -1.8193109  0.083543028   -3.2592976    1.4399867   439061 
  162000   0.96165976   -3.2642276   -3.2642276   -1.8217412  0.075818702   -3.2642276    1.4424863   439061 
  163000   0.96223828   -3.2654211   -3.2654211    -1.822067  0.081350772   -3.2654211    1.4433541   439061 
  164000   0.96155355   -3.2660074   -3.2660074   -1.8236804  0.076980206   -3.2660074     1.442327   439061 
  165000   0.96295308   -3.2681627   -3.2681627   -1.8237364  0.083737782   -3.2681627    1.4444263   439061 
  166000   0.96209221   -3.2702433   -3.2702433   -1.8271083  0.086143006   -3.2702433     1.443135   439061 
  167000   0.96087064   -3.2707778   -3.2707778   -1.8294752  0.085774256   -3.2707778    1.4413027   439061 
  168000   0.96043784   -3.2716879   -3.2716879   -1.8310344  0.086504486   -3.2716879    1.4406535   439061 
  169000   0.96031931   -3.2726494   -3.2726494   -1.8321737  0.083647726   -3.2726494    1.4404757   439061 
  170000   0.95961495   -3.2752162   -3.2752162    -1.835797  0.079686195   -3.2752162    1.4394191   439061 
  171000    0.9582769   -3.2748234   -3.2748234   -1.8374113  0.079126115   -3.2748234    1.4374121   439061 
  172000   0.95965351   -3.2788605   -3.2788605   -1.8393835  0.082013995   -3.2788605     1.439477   439061 
  173000   0.95779428   -3.2793874   -3.2793874   -1.8426992  0.083699474   -3.2793874    1.4366881   439061 
  174000   0.95732697   -3.2813429   -3.2813429   -1.8453557  0.078767406   -3.2813429    1.4359872   439061 
  175000   0.95800359   -3.2847251   -3.2847251    -1.847723   0.08680736   -3.2847251    1.4370021   439061 
  176000   0.95892532   -3.2874135   -3.2874135   -1.8490288   0.08027634   -3.2874135    1.4383847   439061 
  177000   0.96023703   -3.2911528   -3.2911528   -1.8508005  0.083712832   -3.2911528    1.4403523   439061 
  178000   0.95884857   -3.2921069   -3.2921069   -1.8538373  0.082721622   -3.2921069    1.4382696   439061 
  179000   0.95951045   -3.2947152   -3.2947152   -1.8554528  0.078758239   -3.2947152    1.4392624   439061 
  180000    0.9565184   -3.2936884   -3.2936884   -1.8589141  0.080341055   -3.2936884    1.4347743   439061 
  181000   0.95593724   -3.2939327   -3.2939327   -1.8600301  0.076614244   -3.2939327    1.4339026   439061 
  182000   0.95578073    -3.296938    -3.296938   -1.8632701  0.078221079    -3.296938    1.4336678   439061 
  183000   0.95579891    -3.299139    -3.299139   -1.8654439  0.077856066    -3.299139    1.4336951   439061 
  184000   0.95651182   -3.3010476   -3.3010476   -1.8662831  0.077622558   -3.3010476    1.4347645   439061 
  185000    0.9561654   -3.3016091   -3.3016091   -1.8673643  0.076122299   -3.3016091    1.4342448   439061 
  186000   0.95576217   -3.3026266   -3.3026266   -1.8689866  0.080269516   -3.3026266      1.43364   439061 
  187000   0.95623956   -3.3053055   -3.3053055   -1.8709495   0.07467783   -3.3053055    1.4343561   439061 
  188000   0.95612762     -3.30761     -3.30761   -1.8734218  0.075561521     -3.30761    1.4341882   439061 
  189000   0.95344574   -3.3070702   -3.3070702   -1.8769048  0.073778126   -3.3070702    1.4301654   439061 
  190000   0.95391783   -3.3093345   -3.3093345    -1.878461  0.076356568   -3.3093345    1.4308735   439061 
  191000   0.95313281   -3.3106764   -3.3106764   -1.8809804  0.079868764   -3.3106764     1.429696   439061 
  192000   0.95394916   -3.3136253   -3.3136253   -1.8827048  0.072773467   -3.3136253    1.4309205   439061 
  193000   0.95385775   -3.3165477   -3.3165477   -1.8857643  0.077100813   -3.3165477    1.4307834   439061 
  194000   0.95438231   -3.3178744   -3.3178744   -1.8863042  0.082407133   -3.3178744    1.4315702   439061 
  195000   0.95288286   -3.3174282   -3.3174282   -1.8881071  0.077364023   -3.3174282     1.429321   439061 
  196000   0.95296035   -3.3195486   -3.3195486   -1.8901114  0.072281399   -3.3195486    1.4294373   439061 
  197000    0.9510742   -3.3186823   -3.3186823   -1.8920743  0.078161366   -3.3186823     1.426608   439061 
  198000   0.95091568   -3.3210635   -3.3210635   -1.8946932  0.075281983   -3.3210635    1.4263703   439061 
  199000    0.9517621   -3.3219379   -3.3219379    -1.894298  0.074872874   -3.3219379    1.4276399   439061 
  200000   0.95180536   -3.3233036   -3.3233036   -1.8955988  0.078932081   -3.3233036    1.4277048   439061 
  201000   0.95208067   -3.3246285   -3.3246285   -1.8965108  0.072197223   -3.3246285    1.4281178   439061 
  202000   0.95114008   -3.3261578   -3.3261578   -1.8994509  0.076818111   -3.3261578    1.4267069   439061 
  203000   0.94960709   -3.3269166   -3.3269166   -1.9025093    0.0753396   -3.3269166    1.4244074   439061 
  204000   0.95155428   -3.3331981   -3.3331981   -1.9058699  0.072441452   -3.3331981    1.4273282   439061 
  205000    0.9519685   -3.3349014   -3.3349014   -1.9069519  0.079939218   -3.3349014    1.4279495   439061 
  206000   0.95139236   -3.3354603   -3.3354603    -1.908375  0.077569651   -3.3354603    1.4270853   439061 
  207000   0.95102895   -3.3365576   -3.3365576   -1.9100174  0.082409973   -3.3365576    1.4265402   439061 
  208000   0.95171411    -3.340414    -3.340414   -1.9128461  0.077245378    -3.340414    1.4275679   439061 
  209000   0.95028993   -3.3410739   -3.3410739   -1.9156422   0.07575005   -3.3410739    1.4254316   439061 
  210000   0.94976655   -3.3430164   -3.3430164   -1.9183698  0.076534284   -3.3430164    1.4246466   439061 
  211000   0.94940414   -3.3443376   -3.3443376   -1.9202346  0.076754194   -3.3443376     1.424103   439061 
  212000   0.95066947   -3.3479032   -3.3479032   -1.9219022  0.078118281   -3.3479032     1.426001   439061 
  213000   0.95259573   -3.3529364   -3.3529364    -1.924046  0.077657811   -3.3529364    1.4288903   439061 
  214000   0.94985354   -3.3514037   -3.3514037   -1.9266267  0.079112275   -3.3514037    1.4247771   439061 
  215000   0.94997569   -3.3528679   -3.3528679   -1.9279076  0.079349225   -3.3528679    1.4249603   439061 
  216000    0.9499255   -3.3568546   -3.3568546   -1.9319695  0.084720414   -3.3568546     1.424885   439061 
  217000   0.94738672   -3.3542432   -3.3542432   -1.9331664  0.076619379   -3.3542432    1.4210768   439061 
  218000   0.94813534   -3.3564703   -3.3564703   -1.9342705  0.077475676   -3.3564703    1.4221998   439061 
  219000   0.94654228   -3.3556489   -3.3556489   -1.9358387  0.080343907   -3.3556489    1.4198102   439061 
  220000   0.94764487   -3.3595047   -3.3595047   -1.9380406  0.077975005   -3.3595047    1.4214641   439061 
  221000   0.94783948   -3.3608632   -3.3608632   -1.9391072  0.073684097   -3.3608632     1.421756   439061 
  222000   0.94718748   -3.3612301   -3.3612301   -1.9404521  0.072277465   -3.3612301     1.420778   439061 
  223000   0.94668457   -3.3617114   -3.3617114   -1.9416878  0.072841368   -3.3617114    1.4200236   439061 
  224000   0.94724616   -3.3631852   -3.3631852   -1.9423192  0.074613268   -3.3631852     1.420866   439061 
  225000   0.94769777    -3.364372    -3.364372   -1.9428286  0.071688693    -3.364372    1.4215434   439061 
  226000   0.94843561   -3.3671442   -3.3671442   -1.9444941  0.073499718   -3.3671442    1.4226502   439061 
  227000   0.94591123   -3.3647029   -3.3647029   -1.9458393  0.070635261   -3.3647029    1.4188636   439061 
  228000   0.94763365   -3.3695172   -3.3695172     -1.94807  0.070227753   -3.3695172    1.4214472   439061 
  229000    0.9476646   -3.3701866   -3.3701866    -1.948693  0.077547252   -3.3701866    1.4214937   439061 
  230000   0.94788679   -3.3738507   -3.3738507   -1.9520238  0.076961748   -3.3738507    1.4218269   439061 
  231000   0.94568008   -3.3731492   -3.3731492   -1.9546323  0.076953381   -3.3731492    1.4185169   439061 
  232000   0.94602455    -3.376037    -3.376037   -1.9570034  0.075633788    -3.376037    1.4190336   439061 
  233000   0.94590106   -3.3776338   -3.3776338   -1.9587854  0.075236986   -3.3776338    1.4188484   439061 
  234000   0.94640007   -3.3805657   -3.3805657   -1.9609688  0.071263718   -3.3805657    1.4195969   439061 
  235000   0.94611143   -3.3823008   -3.3823008   -1.9631369  0.075949738   -3.3823008    1.4191639   439061 
  236000   0.94630411   -3.3825005   -3.3825005   -1.9630476  0.077254699   -3.3825005    1.4194529   439061 
  237000   0.94469786    -3.382646    -3.382646   -1.9656025  0.082631914    -3.382646    1.4170436   439061 
  238000   0.94507947   -3.3855884   -3.3855884   -1.9679724    0.0743269   -3.3855884     1.417616   439061 
  239000   0.94457514   -3.3865941   -3.3865941   -1.9697346   0.07507367   -3.3865941    1.4168595   439061 
  240000   0.94459668   -3.3867256   -3.3867256   -1.9698338  0.075614489   -3.3867256    1.4168918   439061 
  241000    0.9438552   -3.3885724   -3.3885724   -1.9727928  0.073285984   -3.3885724    1.4157796   439061 
  242000   0.94499703   -3.3913065   -3.3913065   -1.9738141  0.074340855   -3.3913065    1.4174923   439061 
  243000   0.94385243   -3.3910438   -3.3910438   -1.9752684  0.068424655   -3.3910438    1.4157754   439061 
  244000   0.94234861   -3.3895974   -3.3895974   -1.9760777   0.07422028   -3.3895974    1.4135197   439061 
  245000   0.94181617   -3.3909961   -3.3909961   -1.9782751  0.070485456   -3.3909961     1.412721   439061 
  246000   0.94217277   -3.3929594   -3.3929594   -1.9797035  0.074755778   -3.3929594    1.4132559   439061 
  247000   0.94242893   -3.3950893   -3.3950893   -1.9814492  0.071796105   -3.3950893    1.4136402   439061 
  248000   0.94361125   -3.3993673   -3.3993673   -1.9839536  0.074967052   -3.3993673    1.4154137   439061 
  249000   0.94358569   -3.4000934   -3.4000934   -1.9847181  0.077490464   -3.4000934    1.4153753   439061 
  250000   0.94307342   -3.4004323   -3.4004323   -1.9858254  0.072651444   -3.4004323    1.4146069   439061 
  251000   0.94294682   -3.4028458   -3.4028458   -1.9884288  0.078323511   -3.4028458     1.414417   439061 
  252000   0.94339578   -3.4042828   -3.4042828   -1.9891924  0.076193958   -3.4042828    1.4150904   439061 
  253000    0.9417573   -3.4041157   -3.4041157   -1.9914829  0.071507878   -3.4041157    1.4126327   439061 
  254000   0.94163672   -3.4058763   -3.4058763   -1.9934244  0.072611023   -3.4058763    1.4124519   439061 
  255000   0.94048973   -3.4059304   -3.4059304    -1.995199  0.079181311   -3.4059304    1.4107314   439061 
  256000   0.94327021   -3.4105971   -3.4105971    -1.995695  0.075913111   -3.4105971    1.4149021   439061 
  257000   0.94157686   -3.4105769   -3.4105769   -1.9982149  0.077177636   -3.4105769    1.4123621   439061 
  258000   0.94088921   -3.4121569   -3.4121569   -2.0008263  0.072833405   -3.4121569    1.4113306   439061 
  259000   0.94310045   -3.4160993   -3.4160993   -2.0014519  0.071669941   -3.4160993    1.4146475   439061 
  260000   0.93986864   -3.4140847   -3.4140847   -2.0042849  0.073588068   -3.4140847    1.4097997   439061 
  261000   0.94190508   -3.4186735   -3.4186735   -2.0058191  0.070221608   -3.4186735    1.4128544   439061 
  262000   0.94047952    -3.417646    -3.417646   -2.0069299  0.078531626    -3.417646    1.4107161   439061 
  263000    0.9420158   -3.4212372   -3.4212372   -2.0082167  0.074189736   -3.4212372    1.4130205   439061 
  264000    0.9405155   -3.4216979   -3.4216979   -2.0109279  0.077690127   -3.4216979      1.41077   439061 
  265000   0.94220103   -3.4249163   -3.4249163   -2.0116179  0.073909583   -3.4249163    1.4132983   439061 
  266000    0.9405421   -3.4238912   -3.4238912   -2.0130813  0.071427378   -3.4238912    1.4108099   439061 
  267000   0.93978202   -3.4251674   -3.4251674   -2.0154976   0.07393562   -3.4251674    1.4096698   439061 
  268000    0.9390754   -3.4244394   -3.4244394   -2.0158295  0.075475292   -3.4244394    1.4086099   439061 
  269000   0.94119535   -3.4279983   -3.4279983   -2.0162085   0.07829929   -3.4279983    1.4117898   439061 
  270000   0.93898001   -3.4277857   -3.4277857   -2.0193189  0.074056587   -3.4277857    1.4084668   439061 
  271000   0.94014553   -3.4314034   -3.4314034   -2.0211883  0.069057565   -3.4314034    1.4102151   439061 
  272000   0.93949145   -3.4318301   -3.4318301   -2.0225961  0.072600438   -3.4318301     1.409234   439061 
  273000   0.93950648   -3.4338407   -3.4338407   -2.0245842   0.07424288   -3.4338407    1.4092565   439061 
  274000   0.93901765   -3.4337281   -3.4337281   -2.0252049  0.079755098   -3.4337281    1.4085233   439061 
  275000    0.9379267   -3.4349991   -3.4349991   -2.0281123   0.07289776   -3.4349991    1.4068869   439061 
  276000   0.93790624   -3.4363767   -3.4363767   -2.0295205  0.074520314   -3.4363767    1.4068562   439061 
  277000   0.93808668   -3.4389536   -3.4389536   -2.0318268  0.067530122   -3.4389536    1.4071268   439061 
  278000   0.93682364   -3.4392849   -3.4392849   -2.0340526  0.075980245   -3.4392849    1.4052323   439061 
  279000   0.93769949   -3.4421247   -3.4421247   -2.0355787  0.074153798   -3.4421247     1.406546   439061 
  280000   0.93785306   -3.4434633   -3.4434633   -2.0366869  0.073963267   -3.4434633    1.4067764   439061 
  281000   0.93688048   -3.4433304   -3.4433304   -2.0380129  0.067610049   -3.4433304    1.4053175   439061 
  282000   0.93675641   -3.4447834   -3.4447834    -2.039652   0.07505705   -3.4447834    1.4051314   439061 
  283000   0.93673294   -3.4456883   -3.4456883    -2.040592  0.071056375   -3.4456883    1.4050962   439061 
  284000   0.93602887    -3.445276    -3.445276   -2.0412359   0.07390597    -3.445276    1.4040401   439061 
  285000   0.93736159   -3.4489814   -3.4489814   -2.0429422  0.071020223   -3.4489814    1.4060392   439061 
  286000   0.93630061   -3.4483562   -3.4483562   -2.0439085  0.075879757   -3.4483562    1.4044477   439061 
  287000   0.93629126   -3.4494602   -3.4494602   -2.0450265   0.07379139   -3.4494602    1.4044337   439061 
  288000   0.93539474   -3.4493163   -3.4493163   -2.0462274   0.07433004   -3.4493163    1.4030889   439061 
  289000   0.93652505   -3.4516264   -3.4516264   -2.0468421  0.074177123   -3.4516264    1.4047844   439061 
  290000   0.93502423   -3.4520399   -3.4520399   -2.0495067  0.069165834   -3.4520399    1.4025332   439061 
  291000   0.93328344   -3.4508938   -3.4508938   -2.0509719  0.071124572   -3.4508938     1.399922   439061 
  292000   0.93514515   -3.4559546   -3.4559546   -2.0532401  0.071518424   -3.4559546    1.4027145   439061 
  293000   0.93452639   -3.4575347   -3.4575347   -2.0557483  0.066481966   -3.4575347    1.4017864   439061 
  294000   0.93449371    -3.458902    -3.458902   -2.0571646   0.07090843    -3.458902    1.4017374   439061 
  295000   0.93377754   -3.4591699   -3.4591699   -2.0585068    0.0786199   -3.4591699    1.4006631   439061 
  296000    0.9358189   -3.4644344   -3.4644344   -2.0607092  0.073929759   -3.4644344    1.4037252   439061 
  297000   0.93562689   -3.4648915   -3.4648915   -2.0614543  0.069555184   -3.4648915    1.4034371   439061 
  298000   0.93602969   -3.4664472   -3.4664472   -2.0624058  0.080530463   -3.4664472    1.4040413   439061 
  299000   0.93583525   -3.4681677   -3.4681677    -2.064418  0.075862365   -3.4681677    1.4037497   439061 
  300000    0.9363605    -3.470979    -3.470979   -2.0664414  0.076012743    -3.470979    1.4045375   439061 
  301000   0.93614379   -3.4715983   -3.4715983   -2.0673858  0.069103853   -3.4715983    1.4042125   439061 
  302000   0.93413028   -3.4704132   -3.4704132   -2.0692209  0.071812587   -3.4704132    1.4011922   439061 
  303000   0.93422067   -3.4720764   -3.4720764   -2.0707486  0.072093613   -3.4720764    1.4013278   439061 
  304000   0.93481571   -3.4728111   -3.4728111   -2.0705908  0.073822905   -3.4728111    1.4022204   439061 
  305000   0.93343044   -3.4717754   -3.4717754   -2.0716329  0.072647576   -3.4717754    1.4001425   439061 
  306000   0.93232783   -3.4725705   -3.4725705    -2.074082  0.069259303   -3.4725705    1.3984886   439061 
  307000   0.93340372   -3.4749457   -3.4749457   -2.0748433  0.068822582   -3.4749457    1.4001024   439061 
  308000   0.93276903   -3.4751329   -3.4751329   -2.0759826  0.073276363   -3.4751329    1.3991504   439061 
  309000   0.93309844   -3.4784599   -3.4784599   -2.0788155  0.073625256   -3.4784599    1.3996445   439061 
  310000   0.93534923   -3.4834877   -3.4834877    -2.080467  0.070075179   -3.4834877    1.4030206   439061 
  311000   0.93460193    -3.483317    -3.483317   -2.0814173    0.0673068    -3.483317    1.4018997   439061 
  312000    0.9339258   -3.4834805   -3.4834805    -2.082595  0.075366469   -3.4834805    1.4008855   439061 
  313000   0.93449106   -3.4874035   -3.4874035   -2.0856701  0.074435039   -3.4874035    1.4017334   439061 
  314000   0.93256917   -3.4858385   -3.4858385    -2.086988  0.076191781   -3.4858385    1.3988506   439061 
  315000   0.93262755   -3.4864341   -3.4864341   -2.0874959  0.073953611   -3.4864341    1.3989381   439061 
  316000   0.93148328   -3.4868955   -3.4868955   -2.0896738  0.066754099   -3.4868955    1.3972217   439061 
  317000   0.93111822    -3.487148    -3.487148   -2.0904739  0.071777999    -3.487148    1.3966741   439061 
  318000    0.9318318   -3.4896743   -3.4896743   -2.0919298  0.067384552   -3.4896743    1.3977445   439061 
  319000   0.93181998   -3.4912354   -3.4912354   -2.0935086  0.068313674   -3.4912354    1.3977268   439061 
  320000   0.93069039   -3.4902332   -3.4902332   -2.0942008  0.072197482   -3.4902332    1.3960324   439061 
  321000   0.93167124   -3.4928183   -3.4928183   -2.0953147  0.069416155   -3.4928183    1.3975037   439061 
  322000   0.93043377   -3.4930993   -3.4930993   -2.0974518  0.067656031   -3.4930993    1.3956475   439061 
  323000   0.93121369   -3.4961294   -3.4961294    -2.099312  0.064340137   -3.4961294    1.3968173   439061 
  324000    0.9297254   -3.4946737   -3.4946737   -2.1000888  0.066456215   -3.4946737    1.3945849   439061 
  325000   0.92912335   -3.4958467   -3.4958467   -2.1021649  0.069936726   -3.4958467    1.3936818   439061 
  326000   0.93022673    -3.497466    -3.497466   -2.1021291   0.07070081    -3.497466    1.3953369   439061 
  327000   0.93042244   -3.5005778   -3.5005778   -2.1049474  0.068136453   -3.5005778    1.3956305   439061 
  328000   0.92982036   -3.5008543   -3.5008543    -2.106127  0.072308049   -3.5008543    1.3947274   439061 
  329000   0.92911511   -3.5002966   -3.5002966   -2.1066271  0.072333438   -3.5002966    1.3936695   439061 
  330000   0.92901946   -3.5020553   -3.5020553   -2.1085293  0.072266897   -3.5020553     1.393526   439061 
  331000   0.92894104   -3.5023567   -3.5023567   -2.1089483  0.074095332   -3.5023567    1.3934084   439061 
  332000   0.92921765    -3.505008    -3.505008   -2.1111847  0.072583448    -3.505008    1.3938233   439061 
  333000   0.92959742   -3.5068013   -3.5068013   -2.1124083   0.06822204   -3.5068013     1.394393   439061 
  334000   0.92998004     -3.50748     -3.50748   -2.1125131  0.070904159     -3.50748    1.3949669   439061 
  335000   0.92806838   -3.5062248   -3.5062248   -2.1141254  0.074303975   -3.5062248    1.3920994   439061 
  336000   0.92948036   -3.5100614   -3.5100614    -2.115844  0.073086369   -3.5100614    1.3942174   439061 
  337000   0.92944142   -3.5114135   -3.5114135   -2.1172545  0.072615308   -3.5114135     1.394159   439061 
  338000   0.92964251   -3.5139704   -3.5139704   -2.1195098  0.073163364   -3.5139704    1.3944606   439061 
  339000   0.92819897   -3.5143008   -3.5143008   -2.1220055  0.069991741   -3.5143008    1.3922953   439061 
  340000   0.92674719   -3.5139569   -3.5139569   -2.1238393  0.065336601   -3.5139569    1.3901176   439061 
  341000   0.92620452   -3.5143615   -3.5143615   -2.1250579   0.07387144   -3.5143615    1.3893036   439061 
  342000   0.92635661   -3.5166681   -3.5166681   -2.1271363  0.067177457   -3.5166681    1.3895318   439061 
  343000   0.92683551   -3.5187766   -3.5187766   -2.1285265  0.069753237   -3.5187766    1.3902501   439061 
  344000   0.92636057   -3.5197267   -3.5197267    -2.130189  0.074407911   -3.5197267    1.3895377   439061 
  345000   0.92684225   -3.5220269   -3.5220269   -2.1317667  0.067321525   -3.5220269    1.3902602   439061 
  346000   0.92831276   -3.5247927   -3.5247927   -2.1323268  0.073320115   -3.5247927     1.392466   439061 
  347000   0.92714105    -3.525375    -3.525375   -2.1346666  0.072490745    -3.525375    1.3907084   439061 
  348000   0.92726469   -3.5274628   -3.5274628    -2.136569  0.073306693   -3.5274628    1.3908939   439061 
  349000   0.92656062   -3.5266857   -3.5266857   -2.1368479  0.071409284   -3.5266857    1.3898378   439061 
  350000   0.92825232   -3.5297332   -3.5297332   -2.1373579  0.073875499   -3.5297332    1.3923753   439061 
  351000   0.92654603     -3.52915     -3.52915   -2.1393341  0.077276324     -3.52915    1.3898159   439061 
  352000    0.9262382   -3.5306778   -3.5306778   -2.1413237  0.070870095   -3.5306778    1.3893541   439061 
  353000   0.92707179   -3.5321481   -3.5321481   -2.1415436  0.068490087   -3.5321481    1.3906045   439061 
  354000   0.92498611   -3.5311315   -3.5311315   -2.1436555  0.070896574   -3.5311315     1.387476   439061 
  355000    0.9257233   -3.5313094   -3.5313094   -2.1427276  0.069139759   -3.5313094    1.3885818   439061 
  356000    0.9256416     -3.53202     -3.53202   -2.1435607  0.067456606     -3.53202    1.3884592   439061 
  357000   0.92543801   -3.5319872   -3.5319872   -2.1438334   0.06821789   -3.5319872    1.3881539   439061 
  358000   0.92485722   -3.5329957   -3.5329957    -2.145713  0.068914688   -3.5329957    1.3872827   439061 
  359000   0.92542411   -3.5343266   -3.5343266   -2.1461936  0.074538605   -3.5343266     1.388133   439061 
  360000   0.92554617   -3.5349832   -3.5349832   -2.1466671  0.068654729   -3.5349832    1.3883161   439061 
  361000   0.92535965   -3.5350987   -3.5350987   -2.1470624  0.073595986   -3.5350987    1.3880363   439061 
  362000   0.92661681   -3.5405016   -3.5405016   -2.1505795  0.064689244   -3.5405016    1.3899221   439061 
  363000   0.92573459   -3.5400642   -3.5400642   -2.1514655  0.076044391   -3.5400642    1.3885987   439061 
  364000   0.92564601   -3.5405101   -3.5405101   -2.1520442  0.069780218   -3.5405101    1.3884658   439061 
  365000   0.92590796   -3.5435977   -3.5435977    -2.154739  0.071226041   -3.5435977    1.3888588   439061 
  366000   0.92453687   -3.5443238   -3.5443238   -2.1575216  0.066599056   -3.5443238    1.3868021   439061 
  367000   0.92158459   -3.5428247   -3.5428247    -2.160451   0.06863545   -3.5428247    1.3823737   439061 
  368000   0.92098765   -3.5427518   -3.5427518   -2.1612734  0.070290146   -3.5427518    1.3814783   439061 
  369000   0.92065139   -3.5436106   -3.5436106   -2.1626367  0.069865286   -3.5436106    1.3809739   439061 
  370000   0.92351074   -3.5490238   -3.5490238   -2.1637609  0.064535813   -3.5490238    1.3852629   439061 
  371000   0.92232396   -3.5487768   -3.5487768    -2.165294  0.066637997   -3.5487768    1.3834828   439061 
  372000   0.92330231   -3.5516271   -3.5516271   -2.1666768   0.06687806   -3.5516271    1.3849503   439061 
  373000   0.92395628   -3.5529804   -3.5529804   -2.1670492   0.06926263   -3.5529804    1.3859313   439061 
  374000   0.92401557   -3.5544879   -3.5544879   -2.1684677  0.074147294   -3.5544879    1.3860202   439061 
  375000   0.92219521   -3.5547992   -3.5547992   -2.1715095   0.07461633   -3.5547992    1.3832897   439061 
  376000   0.92193929   -3.5552831   -3.5552831   -2.1723773  0.071190344   -3.5552831    1.3829058   439061 
  377000   0.92242409   -3.5575987   -3.5575987   -2.1739658  0.071174654   -3.5575987     1.383633   439061 
  378000   0.92248734   -3.5592429   -3.5592429   -2.1755151   0.06863739   -3.5592429    1.3837279   439061 
  379000   0.92252614   -3.5602962   -3.5602962   -2.1765101  0.068498083   -3.5602962    1.3837861   439061 
  380000   0.91938734   -3.5583436   -3.5583436   -2.1792657  0.074428493   -3.5583436    1.3790779   439061 
  381000    0.9207786   -3.5607795   -3.5607795   -2.1796148  0.068587907   -3.5607795    1.3811647   439061 
  382000   0.92228263   -3.5638486   -3.5638486   -2.1804278  0.069790783   -3.5638486    1.3834208   439061 
  383000    0.9207565   -3.5631617   -3.5631617   -2.1820301  0.071855011   -3.5631617    1.3811316   439061 
  384000   0.92185192    -3.565966    -3.565966   -2.1831913  0.068434553    -3.565966    1.3827747   439061 
  385000   0.92112687   -3.5663047   -3.5663047   -2.1846175  0.069804035   -3.5663047    1.3816872   439061 
  386000   0.92048614   -3.5681681   -3.5681681    -2.187442  0.067435924   -3.5681681    1.3807261   439061 
  387000   0.91947924   -3.5669223   -3.5669223   -2.1877066  0.073250292   -3.5669223    1.3792157   439061 
  388000   0.92124823   -3.5706018   -3.5706018   -2.1887326  0.071746028   -3.5706018    1.3818692   439061 
  389000   0.92139282    -3.572335    -3.572335   -2.1902489  0.071397604    -3.572335    1.3820861   439061 
  390000   0.92096124   -3.5716036   -3.5716036   -2.1901648   0.07260795   -3.5716036    1.3814387   439061 
  391000   0.92237584   -3.5760315   -3.5760315   -2.1924709  0.071738874   -3.5760315    1.3835606   439061 
  392000   0.92170825   -3.5760752   -3.5760752   -2.1935159  0.073220919   -3.5760752    1.3825592   439061 
  393000   0.92199692   -3.5776105   -3.5776105   -2.1946183  0.071735554   -3.5776105    1.3829922   439061 
  394000    0.9208855   -3.5791737   -3.5791737   -2.1978486  0.070019817   -3.5791737    1.3813251   439061 
  395000   0.92222443   -3.5816105   -3.5816105    -2.198277  0.066355925   -3.5816105    1.3833335   439061 
  396000   0.91916953   -3.5795134   -3.5795134   -2.2007622  0.071482721   -3.5795134    1.3787512   439061 
  397000   0.91879013   -3.5797899   -3.5797899   -2.2016078  0.068837161   -3.5797899    1.3781821   439061 
  398000   0.91791682   -3.5800515   -3.5800515   -2.2031794  0.069623174   -3.5800515    1.3768721   439061 
  399000   0.91936669   -3.5831335   -3.5831335   -2.2040866  0.066710623   -3.5831335    1.3790469   439061 
  400000   0.91869578   -3.5830872   -3.5830872   -2.2050467  0.068655952   -3.5830872    1.3780405   439061 
  401000   0.91959009   -3.5852954   -3.5852954   -2.2059134  0.071896142   -3.5852954     1.379382   439061 
  402000   0.91803937   -3.5842512   -3.5842512   -2.2071952  0.071859524   -3.5842512    1.3770559   439061 
  403000   0.91957786   -3.5865715   -3.5865715   -2.2072078  0.072817842   -3.5865715    1.3793636   439061 
  404000   0.91938743   -3.5875205   -3.5875205   -2.2084425  0.075391595   -3.5875205     1.379078   439061 
  405000   0.91880625   -3.5884796   -3.5884796   -2.2102733  0.069312833   -3.5884796    1.3782062   439061 
  406000   0.91997868   -3.5921169   -3.5921169   -2.2121521  0.066282779   -3.5921169    1.3799649   439061 
  407000   0.91772836   -3.5900485   -3.5900485   -2.2134591  0.067622182   -3.5900485    1.3765894   439061 
  408000   0.91701078   -3.5907995   -3.5907995   -2.2152865  0.069774007   -3.5907995     1.375513   439061 
  409000   0.91534747   -3.5888748   -3.5888748   -2.2158567  0.063564777   -3.5888748    1.3730181   439061 
  410000   0.91573625   -3.5912354   -3.5912354   -2.2176342  0.064994702   -3.5912354    1.3736012   439061 
  411000   0.91474481   -3.5919965   -3.5919965   -2.2198824  0.061201203   -3.5919965    1.3721141   439061 
  412000   0.91441914   -3.5917753   -3.5917753   -2.2201497  0.064991347   -3.5917753    1.3716256   439061 
  413000   0.91671643   -3.5958662   -3.5958662   -2.2207946  0.065391126   -3.5958662    1.3750715   439061 
  414000   0.91620923   -3.5960682   -3.5960682   -2.2217574  0.063924451   -3.5960682    1.3743107   439061 
  415000   0.91527616    -3.595141    -3.595141   -2.2222298  0.068544532    -3.595141    1.3729111   439061 
  416000   0.91678225   -3.5996827   -3.5996827   -2.2245124  0.065477313   -3.5996827    1.3751702   439061 
  417000   0.91725071   -3.6015329   -3.6015329     -2.22566  0.066687885   -3.6015329    1.3758729   439061 
  418000   0.91562202   -3.6014861   -3.6014861   -2.2280562  0.068893209   -3.6014861    1.3734299   439061 
  419000   0.91605091   -3.6030184   -3.6030184   -2.2289451  0.065532034   -3.6030184    1.3740732   439061 
  420000   0.91543694   -3.6038445   -3.6038445   -2.2306922  0.063486978   -3.6038445    1.3731523   439061 
  421000   0.91542664   -3.6044971   -3.6044971   -2.2313603  0.072590836   -3.6044971    1.3731368   439061 
  422000   0.91624882   -3.6072251   -3.6072251    -2.232855  0.070718987   -3.6072251    1.3743701   439061 
  423000   0.91525182   -3.6069264   -3.6069264   -2.2340518  0.072314315   -3.6069264    1.3728746   439061 
  424000    0.9155083    -3.608784    -3.608784   -2.2355247  0.069481802    -3.608784    1.3732593   439061 
  425000   0.91528533   -3.6097361   -3.6097361   -2.2368112  0.066844526   -3.6097361    1.3729249   439061 
  426000   0.91393276   -3.6103023   -3.6103023   -2.2394063  0.069571733   -3.6103023     1.370896   439061 
  427000   0.91391425    -3.610331    -3.610331   -2.2394628  0.067743421    -3.610331    1.3708682   439061 
  428000   0.91447351   -3.6123357   -3.6123357   -2.2406285  0.067153164   -3.6123357    1.3717071   439061 
  429000   0.91435243   -3.6141051   -3.6141051   -2.2425796  0.065087918   -3.6141051    1.3715255   439061 
  430000   0.91355004   -3.6134821   -3.6134821   -2.2431602  0.065271315   -3.6134821    1.3703219   439061 
  431000   0.91463419   -3.6162637   -3.6162637   -2.2443155  0.067378822   -3.6162637    1.3719482   439061 
  432000   0.91421512   -3.6171517   -3.6171517   -2.2458321  0.069179918   -3.6171517    1.3713196   439061 
  433000   0.91414539   -3.6186608   -3.6186608   -2.2474459  0.067965836   -3.6186608     1.371215   439061 
  434000   0.91524614   -3.6207494   -3.6207494   -2.2478833   0.06954325   -3.6207494    1.3728661   439061 
  435000   0.91334769   -3.6198574   -3.6198574    -2.249839  0.071430118   -3.6198574    1.3700184   439061 
  436000   0.91237798   -3.6201407   -3.6201407   -2.2515769  0.068025033   -3.6201407    1.3685638   439061 
  437000   0.91144961   -3.6193016   -3.6193016   -2.2521303  0.073063817   -3.6193016    1.3671713   439061 
  438000   0.91231047   -3.6221596   -3.6221596    -2.253697  0.071270899   -3.6221596    1.3684626   439061 
  439000   0.91397488   -3.6249445   -3.6249445   -2.2539853  0.067980684   -3.6249445    1.3709592   439061 
  440000   0.91339439    -3.625297    -3.625297   -2.2552085  0.069029009    -3.625297    1.3700885   439061 
  441000   0.91167607   -3.6246406   -3.6246406   -2.2571296  0.062630735   -3.6246406     1.367511   439061 
  442000   0.91231185   -3.6263077   -3.6263077    -2.257843  0.066612893   -3.6263077    1.3684647   439061 
  443000   0.91306059   -3.6275173   -3.6275173   -2.2579296  0.065596984   -3.6275173    1.3695878   439061 
  444000   0.91169039   -3.6266637   -3.6266637   -2.2591312  0.067990723   -3.6266637    1.3675325   439061 
  445000   0.91168955   -3.6269157   -3.6269157   -2.2593844  0.069202405   -3.6269157    1.3675312   439061 
  446000   0.91092741   -3.6273484   -3.6273484   -2.2609604  0.066963332   -3.6273484     1.366388   439061 
  447000   0.91056031   -3.6292017   -3.6292017   -2.2633643  0.063487909   -3.6292017    1.3658374   439061 
  448000   0.91161416   -3.6321959   -3.6321959   -2.2647778  0.059463447   -3.6321959    1.3674181   439061 
  449000   0.90946204    -3.629972    -3.629972   -2.2657821  0.068483193    -3.629972      1.36419   439061 
  450000   0.91013025    -3.631843    -3.631843   -2.2666508  0.068350261    -3.631843    1.3651923   439061 
  451000   0.91127744   -3.6351014   -3.6351014   -2.2681884  0.070242098   -3.6351014     1.366913   439061 
  452000   0.91070101   -3.6355243   -3.6355243   -2.2694759  0.065865158   -3.6355243    1.3660484   439061 
  453000   0.91063001   -3.6377649   -3.6377649    -2.271823   0.06918419   -3.6377649    1.3659419   439061 
  454000   0.91078244   -3.6374464   -3.6374464   -2.2712758   0.06923061   -3.6374464    1.3661705   439061 
  455000   0.91112748   -3.6401655   -3.6401655   -2.2734774  0.070882824   -3.6401655    1.3666881   439061 
  456000   0.91118988   -3.6424512   -3.6424512   -2.2756695  0.068635422   -3.6424512    1.3667817   439061 
  457000    0.9097651   -3.6414848   -3.6414848   -2.2768402  0.066101729   -3.6414848    1.3646445   439061 
  458000   0.91051837   -3.6436398   -3.6436398   -2.2778653  0.069327915   -3.6436398    1.3657744   439061 
  459000   0.90998354   -3.6440034   -3.6440034   -2.2790312  0.067262528   -3.6440034    1.3649722   439061 
  460000   0.90905277    -3.643862    -3.643862    -2.280286  0.066307052    -3.643862    1.3635761   439061 
  461000   0.90836711      -3.6426      -3.6426   -2.2800524   0.07266934      -3.6426    1.3625476   439061 
  462000   0.90826007   -3.6447117   -3.6447117   -2.2823247  0.068056165   -3.6447117     1.362387   439061 
  463000   0.90891141   -3.6459427   -3.6459427   -2.2825787  0.060181357   -3.6459427     1.363364   439061 
  464000   0.90857016   -3.6465374   -3.6465374   -2.2836853  0.065970987   -3.6465374    1.3628521   439061 
  465000    0.9077867    -3.646206    -3.646206   -2.2845291  0.069944289    -3.646206    1.3616769   439061 
  466000   0.90846621   -3.6483657   -3.6483657   -2.2856695  0.065825212   -3.6483657    1.3626962   439061 
  467000   0.90732236   -3.6478683   -3.6478683   -2.2868879  0.066008106   -3.6478683    1.3609804   439061 
  468000   0.90805572   -3.6486373   -3.6486373   -2.2865568  0.066034639   -3.6486373    1.3620805   439061 
  469000   0.90756095   -3.6502217   -3.6502217   -2.2888833  0.069068466   -3.6502217    1.3613383   439061 
  470000   0.90687254   -3.6497457   -3.6497457     -2.28944  0.069209979   -3.6497457    1.3603057   439061 
  471000   0.90621458   -3.6500223   -3.6500223   -2.2907035  0.065487541   -3.6500223    1.3593188   439061 
  472000   0.90536855   -3.6510032   -3.6510032   -2.2929534  0.061418121   -3.6510032    1.3580497   439061 
  473000   0.90536571   -3.6520676   -3.6520676   -2.2940222  0.063317104   -3.6520676    1.3580455   439061 
  474000   0.90551678   -3.6534789   -3.6534789   -2.2952068  0.061484169   -3.6534789    1.3582721   439061 
  475000   0.90566384   -3.6532485   -3.6532485   -2.2947558  0.067482242   -3.6532485    1.3584927   439061 
  476000    0.9057649   -3.6543876   -3.6543876   -2.2957433  0.065135338   -3.6543876    1.3586443   439061 
  477000   0.90707999   -3.6573437   -3.6573437   -2.2967268  0.065264185   -3.6573437    1.3606169   439061 
  478000   0.90604304   -3.6564337   -3.6564337   -2.2973722  0.074808015   -3.6564337    1.3590615   439061 
  479000   0.90682939   -3.6586262   -3.6586262   -2.2983852  0.070533631   -3.6586262     1.360241   439061 
  480000    0.9063502   -3.6597005   -3.6597005   -2.3001784  0.067875815   -3.6597005    1.3595222   439061 
  481000   0.90696284   -3.6610393   -3.6610393   -2.3005981  0.070085088   -3.6610393    1.3604412   439061 
  482000    0.9054567    -3.662438    -3.662438   -2.3042561  0.070511863    -3.662438     1.358182   439061 
  483000   0.90633489   -3.6640662   -3.6640662    -2.304567  0.069855697   -3.6640662    1.3594992   439061 
  484000   0.90661694   -3.6655818   -3.6655818   -2.3056595   0.06636129   -3.6655818    1.3599223   439061 
  485000   0.90528345   -3.6643763   -3.6643763   -2.3064542  0.069309904   -3.6643763    1.3579221   439061 
  486000    0.9065906   -3.6659105   -3.6659105   -2.3060277  0.067934585   -3.6659105    1.3598828   439061 
  487000   0.90555675   -3.6659518   -3.6659518   -2.3076197  0.063336768   -3.6659518     1.358332   439061 
  488000   0.90651869   -3.6688708   -3.6688708   -2.3090959  0.061048101   -3.6688708    1.3597749   439061 
  489000   0.90361717    -3.667299    -3.667299   -2.3118763  0.063718614    -3.667299    1.3554227   439061 
  490000   0.90286598   -3.6673804   -3.6673804   -2.3130845  0.059397242   -3.6673804    1.3542959   439061 
  491000   0.90356233   -3.6687106   -3.6687106   -2.3133702   0.06293914   -3.6687106    1.3553404   439061 
  492000   0.90233086    -3.668903    -3.668903   -2.3154098   0.06054284    -3.668903    1.3534932   439061 
  493000   0.90405509    -3.671417    -3.671417   -2.3153374  0.063007813    -3.671417    1.3560796   439061 
  494000   0.90327359   -3.6718971   -3.6718971   -2.3169898   0.06452335   -3.6718971    1.3549073   439061 
  495000   0.90356224    -3.673135    -3.673135   -2.3177948  0.066310656    -3.673135    1.3553403   439061 
  496000   0.90268597   -3.6724359   -3.6724359   -2.3184101  0.070049517   -3.6724359    1.3540259   439061 
  497000   0.90429611   -3.6742243   -3.6742243   -2.3177833  0.064298549   -3.6742243    1.3564411   439061 
  498000   0.90441534   -3.6761859   -3.6761859    -2.319566  0.065254124   -3.6761859    1.3566199   439061 
  499000   0.90325735   -3.6751156   -3.6751156   -2.3202326  0.066227323   -3.6751156    1.3548829   439061 
  500000   0.90297709   -3.6754131   -3.6754131   -2.3209506  0.063717095   -3.6754131    1.3544625   439061 
  501000    0.9031131   -3.6768381   -3.6768381   -2.3221716  0.062810125   -3.6768381    1.3546666   439061 
  502000    0.9036193    -3.678227    -3.678227   -2.3228011  0.063229025    -3.678227    1.3554259   439061 
  503000   0.90177715   -3.6761734   -3.6761734   -2.3235108  0.066925251   -3.6761734    1.3526626   439061 
  504000    0.9024369    -3.677044    -3.677044   -2.3233917  0.065092028    -3.677044    1.3536523   439061 
  505000   0.90420917   -3.6819516   -3.6819516    -2.325641   0.06079047   -3.6819516    1.3563107   439061 
  506000    0.9024021   -3.6805509   -3.6805509   -2.3269508  0.061178383   -3.6805509    1.3536001   439061 
  507000   0.90147275   -3.6789779   -3.6789779   -2.3267718  0.068408526   -3.6789779     1.352206   439061 
  508000   0.90077046   -3.6794702   -3.6794702   -2.3283176  0.064157697   -3.6794702    1.3511526   439061 
  509000   0.90272773   -3.6842748   -3.6842748   -2.3301863  0.061333131   -3.6842748    1.3540885   439061 
  510000   0.90191522   -3.6843638   -3.6843638   -2.3314941  0.063788851   -3.6843638    1.3528697   439061 
  511000   0.90261356   -3.6882643   -3.6882643   -2.3343471  0.064015963   -3.6882643    1.3539173   439061 
  512000   0.90143671   -3.6876151   -3.6876151   -2.3354631    0.0651295   -3.6876151     1.352152   439061 
  513000   0.90204401    -3.690079    -3.690079   -2.3370161  0.061986814    -3.690079    1.3530629   439061 
  514000   0.90033673   -3.6885169   -3.6885169   -2.3380148  0.071107247   -3.6885169     1.350502   439061 
  515000   0.90094785   -3.6906576   -3.6906576   -2.3392389  0.070206194   -3.6906576    1.3514187   439061 
  516000   0.90015838    -3.693128    -3.693128   -2.3428935  0.062581027    -3.693128    1.3502345   439061 
  517000   0.90134717   -3.6946428   -3.6946428   -2.3426252  0.063012791   -3.6946428    1.3520177   439061 
  518000    0.9024738   -3.6954958   -3.6954958   -2.3417881  0.065251599   -3.6954958    1.3537076   439061 
  519000   0.90042725   -3.6948271   -3.6948271   -2.3441893  0.064249713   -3.6948271    1.3506378   439061 
  520000   0.89999766   -3.6957479   -3.6957479   -2.3457545  0.070716193   -3.6957479    1.3499934   439061 
  521000   0.89960085   -3.6951489   -3.6951489   -2.3457507  0.063977578   -3.6951489    1.3493982   439061 
  522000    0.8975401   -3.6938663   -3.6938663   -2.3475593  0.057715181   -3.6938663    1.3463071   439061 
  523000   0.89694882   -3.6951793   -3.6951793   -2.3497591  0.060195867   -3.6951793    1.3454202   439061 
  524000   0.89703198   -3.6960372   -3.6960372   -2.3504923  0.053163704   -3.6960372    1.3455449   439061 
  525000   0.89795821   -3.6988131   -3.6988131   -2.3518788  0.062487173   -3.6988131    1.3469342   439061 
  526000   0.89862571   -3.6997843   -3.6997843   -2.3518488  0.060230123   -3.6997843    1.3479355   439061 
  527000   0.89832176   -3.7003539   -3.7003539   -2.3528744  0.064076535   -3.7003539    1.3474796   439061 
  528000   0.89948136   -3.7033765   -3.7033765   -2.3541576  0.060370979   -3.7033765     1.349219   439061 
  529000   0.89963077   -3.7038808   -3.7038808   -2.3544377   0.06158061   -3.7038808    1.3494431   439061 
  530000   0.89834789   -3.7031821   -3.7031821   -2.3556633  0.066372658   -3.7031821    1.3475188   439061 
  531000   0.89968541   -3.7058531   -3.7058531    -2.356328  0.067595807   -3.7058531     1.349525   439061 
  532000   0.89943552   -3.7077291   -3.7077291   -2.3585789  0.066791795   -3.7077291    1.3491502   439061 
  533000   0.90051419   -3.7100835   -3.7100835   -2.3593153  0.069236679   -3.7100835    1.3507682   439061 
  534000   0.90102214   -3.7115384   -3.7115384   -2.3600083  0.068450796   -3.7115384    1.3515301   439061 
  535000   0.90170843   -3.7128918   -3.7128918   -2.3603322   0.06260355   -3.7128918    1.3525596   439061 
  536000   0.89841502   -3.7096607   -3.7096607   -2.3620412  0.065918018   -3.7096607    1.3476195   439061 
  537000   0.89672212   -3.7089619   -3.7089619   -2.3638818  0.060944091   -3.7089619    1.3450801   439061 
  538000   0.89645486   -3.7095839   -3.7095839   -2.3649047   0.06426046   -3.7095839    1.3446792   439061 
  539000    0.8955457   -3.7099757   -3.7099757   -2.3666602  0.060895129   -3.7099757    1.3433155   439061 
  540000   0.89585185   -3.7099217   -3.7099217    -2.366147  0.060973325   -3.7099217    1.3437747   439061 
  541000   0.89705519   -3.7122944   -3.7122944   -2.3667147   0.05987509   -3.7122944    1.3455797   439061 
  542000   0.89818983   -3.7145851   -3.7145851   -2.3673035  0.053908624   -3.7145851    1.3472817   439061 
  543000    0.8959771   -3.7126345   -3.7126345   -2.3686719  0.062120447   -3.7126345    1.3439626   439061 
  544000   0.89523553   -3.7120809   -3.7120809   -2.3692307   0.06159615   -3.7120809    1.3428502   439061 
  545000   0.89607255   -3.7130753   -3.7130753   -2.3689695  0.060206105   -3.7130753    1.3441058   439061 
  546000   0.89717887   -3.7158036   -3.7158036   -2.3700384   0.06425702   -3.7158036    1.3457652   439061 
  547000    0.8973577   -3.7166163   -3.7166163   -2.3705828  0.063402332   -3.7166163    1.3460335   439061 
  548000    0.8974249   -3.7179513   -3.7179513    -2.371817  0.061968738   -3.7179513    1.3461343   439061 
  549000   0.89749128   -3.7188777   -3.7188777   -2.3726439  0.064956104   -3.7188777    1.3462339   439061 
  550000    0.8966005   -3.7183553   -3.7183553   -2.3734577  0.061829442   -3.7183553    1.3448977   439061 
  551000    0.8961101   -3.7184443   -3.7184443   -2.3742822  0.063085684   -3.7184443    1.3441621   439061 
  552000   0.89776787   -3.7212216   -3.7212216   -2.3745729  0.058969364   -3.7212216    1.3466487   439061 
  553000   0.89562063   -3.7187453   -3.7187453   -2.3753174  0.057931873   -3.7187453    1.3434279   439061 
  554000   0.89541735   -3.7206225   -3.7206225   -2.3774995  0.060802279   -3.7206225     1.343123   439061 
  555000   0.89556802   -3.7197621   -3.7197621   -2.3764132    0.0657447   -3.7197621     1.343349   439061 
  556000    0.8947644   -3.7203667   -3.7203667   -2.3782231  0.059868231   -3.7203667    1.3421435   439061 
  557000   0.89573878   -3.7232191   -3.7232191    -2.379614  0.057832339   -3.7232191    1.3436051   439061 
  558000   0.89448927   -3.7229623   -3.7229623   -2.3812315  0.061391276   -3.7229623    1.3417308   439061 
  559000   0.89628324   -3.7268071   -3.7268071   -2.3823853  0.057629825   -3.7268071    1.3444218   439061 
  560000   0.89515369   -3.7250775   -3.7250775     -2.38235  0.059168146   -3.7250775    1.3427275   439061 
  561000   0.89415185   -3.7259237   -3.7259237    -2.384699  0.059959249   -3.7259237    1.3412247   439061 
  562000   0.89550396    -3.728464    -3.728464   -2.3852111  0.063063872    -3.728464    1.3432529   439061 
  563000   0.89476404   -3.7293698   -3.7293698   -2.3872268  0.060374289   -3.7293698     1.342143   439061 
  564000   0.89457268   -3.7301543   -3.7301543   -2.3882983   0.05921666   -3.7301543     1.341856   439061 
  565000   0.89351698    -3.729579    -3.729579   -2.3893066  0.062209371    -3.729579    1.3402724   439061 
  566000   0.89350391   -3.7313028   -3.7313028   -2.3910499  0.062648205   -3.7313028    1.3402528   439061 
  567000   0.89318597   -3.7313461   -3.7313461   -2.3915702  0.067158797   -3.7313461    1.3397759   439061 
  568000   0.89388158   -3.7354958   -3.7354958   -2.3946765  0.057363062   -3.7354958    1.3408193   439061 
  569000   0.89301684   -3.7348149   -3.7348149   -2.3952927  0.058895388   -3.7348149    1.3395222   439061 
  570000   0.89256701   -3.7355877   -3.7355877   -2.3967402  0.057245629   -3.7355877    1.3388475   439061 
  571000   0.89258566   -3.7361524   -3.7361524    -2.397277  0.061574596   -3.7361524    1.3388754   439061 
  572000   0.89278553   -3.7372669   -3.7372669   -2.3980917  0.065197393   -3.7372669    1.3391752   439061 
  573000   0.89220543   -3.7380728   -3.7380728   -2.3997677  0.058799199   -3.7380728    1.3383051   439061 
  574000   0.89389694   -3.7409712   -3.7409712   -2.4001288  0.059511998   -3.7409712    1.3408424   439061 
  575000   0.89278623   -3.7411919   -3.7411919   -2.4020157  0.060296152   -3.7411919    1.3391763   439061 
  576000   0.89260288   -3.7419511   -3.7419511   -2.4030499  0.060873176   -3.7419511    1.3389013   439061 
  577000   0.89208053   -3.7420826   -3.7420826   -2.4039648  0.061461269   -3.7420826    1.3381177   439061 
  578000    0.8917525   -3.7417311   -3.7417311   -2.4041054  0.060496618   -3.7417311    1.3376257   439061 
  579000   0.89244815   -3.7440498   -3.7440498   -2.4053806   0.05833071   -3.7440498    1.3386692   439061 
  580000   0.89201789   -3.7435304   -3.7435304   -2.4055066  0.060075073   -3.7435304    1.3380238   439061 
  581000   0.89130415   -3.7439895   -3.7439895   -2.4070363  0.059563576   -3.7439895    1.3369532   439061 
  582000   0.89101347   -3.7452262   -3.7452262    -2.408709  0.056654714   -3.7452262    1.3365172   439061 
  583000   0.89024895   -3.7440473   -3.7440473   -2.4086769  0.059431793   -3.7440473    1.3353704   439061 
  584000   0.89088839   -3.7446875   -3.7446875    -2.408358  0.058483114   -3.7446875    1.3363295   439061 
  585000   0.89249945   -3.7484076   -3.7484076   -2.4096614  0.057548481   -3.7484076    1.3387461   439061 
  586000   0.89186032   -3.7478082   -3.7478082   -2.4100208  0.058879767   -3.7478082    1.3377874   439061 
  587000    0.8910875   -3.7473656   -3.7473656   -2.4107374  0.062041005   -3.7473656    1.3366282   439061 
  588000   0.89020837    -3.746456    -3.746456   -2.4111465  0.063676443    -3.746456    1.3353095   439061 
  589000    0.8906432   -3.7472927   -3.7472927    -2.411331  0.061020409   -3.7472927    1.3359618   439061 
  590000   0.89136506   -3.7487595   -3.7487595    -2.411715  0.060108254   -3.7487595    1.3370446   439061 
  591000   0.89033599   -3.7484994   -3.7484994   -2.4129985  0.060502534   -3.7484994    1.3355009   439061 
  592000   0.88963077   -3.7488279   -3.7488279   -2.4143848  0.056780186   -3.7488279    1.3344431   439061 
  593000   0.88827054   -3.7480874   -3.7480874   -2.4156846  0.058658562   -3.7480874    1.3324028   439061 
  594000   0.88915739   -3.7524783   -3.7524783   -2.4187452  0.051420642   -3.7524783     1.333733   439061 
  595000    0.8890011   -3.7522961   -3.7522961   -2.4187974   0.05340249   -3.7522961    1.3334986   439061 
  596000   0.88856607   -3.7523718   -3.7523718   -2.4195258  0.052466565   -3.7523718    1.3328461   439061 
  597000   0.89044523   -3.7550932   -3.7550932   -2.4194284  0.053278337   -3.7550932    1.3356648   439061 
  598000   0.89064917   -3.7560257   -3.7560257    -2.420055  0.054435234   -3.7560257    1.3359707   439061 
  599000   0.89036822   -3.7566204   -3.7566204   -2.4210711  0.059091035   -3.7566204    1.3355493   439061 
  600000   0.89090377   -3.7584278   -3.7584278   -2.4220752  0.052579911   -3.7584278    1.3363526   439061 
  601000   0.89023113   -3.7584206   -3.7584206    -2.423077  0.057514476   -3.7584206    1.3353437   439061 
  602000   0.88872727   -3.7561105   -3.7561105   -2.4230226   0.06024091   -3.7561105    1.3330879   439061 
  603000   0.88859698   -3.7579886   -3.7579886   -2.4250962  0.062000353   -3.7579886    1.3328924   439061 
  604000   0.88823231    -3.759588    -3.759588   -2.4272425  0.059296704    -3.759588    1.3323454   439061 
  605000   0.88745061   -3.7603298   -3.7603298   -2.4291569   0.05606682   -3.7603298    1.3311729   439061 
  606000   0.88878348   -3.7634786   -3.7634786   -2.4303064  0.056684723   -3.7634786    1.3331722   439061 
  607000   0.88847462   -3.7648188   -3.7648188   -2.4321099  0.059087548   -3.7648188    1.3327089   439061 
  608000   0.88686958   -3.7636426   -3.7636426   -2.4333413   0.06324706   -3.7636426    1.3303013   439061 
  609000   0.88728705   -3.7657056   -3.7657056   -2.4347781  0.060378577   -3.7657056    1.3309275   439061 
  610000    0.8892192    -3.769818    -3.769818   -2.4359923  0.056698293    -3.769818    1.3338258   439061 
  611000   0.88810406   -3.7693575   -3.7693575   -2.4372044  0.059003203   -3.7693575    1.3321531   439061 
  612000    0.8877014   -3.7693471   -3.7693471   -2.4377981  0.061952617   -3.7693471    1.3315491   439061 
  613000    0.8874894   -3.7690345   -3.7690345   -2.4378034  0.061218244   -3.7690345    1.3312311   439061 
  614000   0.88719486    -3.768891    -3.768891   -2.4381018  0.062826144    -3.768891    1.3307893   439061 
  615000   0.88754543   -3.7716378   -3.7716378   -2.4403227  0.059335027   -3.7716378    1.3313151   439061 
  616000   0.88844886   -3.7739723   -3.7739723    -2.441302   0.05513371   -3.7739723    1.3326703   439061 
  617000   0.88735176   -3.7729979   -3.7729979   -2.4419733  0.059127066   -3.7729979    1.3310246   439061 
  618000   0.88645732   -3.7719091   -3.7719091   -2.4422262  0.058690705   -3.7719091     1.329683   439061 
  619000   0.88466677   -3.7703412   -3.7703412   -2.4433441  0.055820902   -3.7703412    1.3269971   439061 
  620000   0.88514004   -3.7721594   -3.7721594   -2.4444523  0.057974431   -3.7721594     1.327707   439061 
  621000   0.88506261   -3.7722364   -3.7722364   -2.4446455  0.059576991   -3.7722364    1.3275909   439061 
  622000    0.8861012   -3.7740736   -3.7740736   -2.4449248  0.052547423   -3.7740736    1.3291488   439061 
  623000   0.88618447   -3.7746238   -3.7746238   -2.4453501   0.05712181   -3.7746238    1.3292737   439061 
  624000   0.88508543    -3.773872    -3.773872   -2.4462469   0.05863217    -3.773872    1.3276251   439061 
  625000   0.88493254   -3.7743477   -3.7743477   -2.4469519  0.056398565   -3.7743477    1.3273958   439061 
  626000    0.8858442   -3.7762209   -3.7762209   -2.4474577  0.056924413   -3.7762209    1.3287633   439061 
  627000   0.88566131   -3.7769684   -3.7769684   -2.4484795  0.057057556   -3.7769684    1.3284889   439061 
  628000   0.88715396   -3.7793338   -3.7793338   -2.4486059  0.056942514   -3.7793338    1.3307279   439061 
  629000   0.88594371   -3.7778543   -3.7778543   -2.4489418  0.055962161   -3.7778543    1.3289125   439061 
  630000    0.8860056   -3.7781809   -3.7781809   -2.4491756  0.060364769   -3.7781809    1.3290054   439061 
  631000   0.88577461   -3.7782669   -3.7782669    -2.449608  0.060172892   -3.7782669    1.3286589   439061 
  632000   0.88521883   -3.7789231   -3.7789231   -2.4510979  0.055606986   -3.7789231    1.3278252   439061 
  633000   0.88558838   -3.7802555   -3.7802555   -2.4518759  0.054655108   -3.7802555    1.3283795   439061 
  634000    0.8846578   -3.7808158   -3.7808158   -2.4538321   0.05338311   -3.7808158    1.3269837   439061 
  635000    0.8850424   -3.7818197   -3.7818197   -2.4542591   0.05715932   -3.7818197    1.3275606   439061 
  636000   0.88542617   -3.7827207   -3.7827207   -2.4545845  0.055332509   -3.7827207    1.3281362   439061 
  637000   0.88629657   -3.7847008   -3.7847008    -2.455259  0.051627685   -3.7847008    1.3294418   439061 
  638000   0.88415852    -3.782672    -3.782672   -2.4564372  0.053953547    -3.782672    1.3262348   439061 
  639000   0.88489867   -3.7844962   -3.7844962   -2.4571512  0.054202747   -3.7844962     1.327345   439061 
  640000   0.88428398   -3.7824595   -3.7824595   -2.4560366  0.063176667   -3.7824595    1.3264229   439061 
  641000    0.8844444   -3.7853925   -3.7853925   -2.4587289  0.056081736   -3.7853925    1.3266636   439061 
  642000   0.88352371   -3.7855709   -3.7855709   -2.4602884  0.058859298   -3.7855709    1.3252825   439061 
  643000   0.88408862   -3.7875008   -3.7875008   -2.4613709  0.053883369   -3.7875008    1.3261299   439061 
  644000   0.88281832   -3.7862153   -3.7862153   -2.4619909  0.054698592   -3.7862153    1.3242245   439061 
  645000   0.88306292   -3.7875615   -3.7875615   -2.4629702  0.051540657   -3.7875615    1.3245914   439061 
  646000   0.88335717   -3.7875137   -3.7875137    -2.462481  0.056117057   -3.7875137    1.3250327   439061 
  647000   0.88359012   -3.7894955   -3.7894955   -2.4641133  0.053469714   -3.7894955    1.3253822   439061 
  648000   0.88323791   -3.7895359   -3.7895359   -2.4646821  0.056727302   -3.7895359    1.3248538   439061 
  649000   0.88411718   -3.7901857   -3.7901857   -2.4640129  0.058391561   -3.7901857    1.3261728   439061 
  650000   0.88371528   -3.7908153   -3.7908153   -2.4652454  0.059101882   -3.7908153    1.3255699   439061 
  651000   0.88453779   -3.7925029   -3.7925029   -2.4656992  0.055975226   -3.7925029    1.3268037   439061 
  652000    0.8837489   -3.7925362   -3.7925362   -2.4669159   0.05531646   -3.7925362    1.3256203   439061 
  653000    0.8838611   -3.7941281   -3.7941281   -2.4683394  0.056488389   -3.7941281    1.3257886   439061 
  654000   0.88343083   -3.7950599   -3.7950599   -2.4699167  0.056962425   -3.7950599    1.3251432   439061 
  655000   0.88402386   -3.7962488   -3.7962488    -2.470216  0.053349239   -3.7962488    1.3260328   439061 
  656000     0.883797   -3.7967407   -3.7967407   -2.4710482  0.055380066   -3.7967407    1.3256925   439061 
  657000   0.88400627    -3.798666    -3.798666   -2.4726596  0.055427731    -3.798666    1.3260064   439061 
  658000   0.88261691   -3.7983436   -3.7983436   -2.4744213  0.052882402   -3.7983436    1.3239223   439061 
  659000   0.88135839   -3.7966432   -3.7966432   -2.4746086  0.050414412   -3.7966432    1.3220346   439061 
  660000   0.88375774   -3.7997302   -3.7997302   -2.4740966  0.049396355   -3.7997302    1.3256336   439061 
  661000   0.88253945   -3.7994927   -3.7994927   -2.4756866  0.050517948   -3.7994927    1.3238062   439061 
  662000   0.88144704   -3.7987949   -3.7987949   -2.4766274  0.055718728   -3.7987949    1.3221675   439061 
  663000    0.8843507   -3.8033882   -3.8033882   -2.4768652  0.048729005   -3.8033882     1.326523   439061 
  664000   0.88120935   -3.7982441   -3.7982441   -2.4764331  0.058276899   -3.7982441     1.321811   439061 
  665000   0.88125509   -3.7997658   -3.7997658   -2.4778862  0.056729678   -3.7997658    1.3218796   439061 
  666000   0.88292708   -3.8019577   -3.8019577   -2.4775701  0.055989625   -3.8019577    1.3243876   439061 
  667000   0.88117699   -3.8011275   -3.8011275    -2.479365  0.048871914   -3.8011275    1.3217625   439061 
  668000   0.88157708   -3.8042437   -3.8042437   -2.4818811  0.045927448   -3.8042437    1.3223626   439061 
  669000   0.88067062   -3.8036697   -3.8036697   -2.4826668  0.049941017   -3.8036697    1.3210029   439061 
  670000   0.88000633   -3.8035704   -3.8035704   -2.4835639  0.052088291   -3.8035704    1.3200065   439061 
  671000   0.88014367   -3.8043112   -3.8043112   -2.4840987  0.056518772   -3.8043112    1.3202125   439061 
  672000   0.88134696   -3.8066598   -3.8066598   -2.4846424  0.056554896   -3.8066598    1.3220174   439061 
  673000   0.88203122   -3.8080497   -3.8080497   -2.4850059  0.055056003   -3.8080497    1.3230438   439061 
  674000    0.8799934    -3.806924    -3.806924   -2.4869369  0.061240193    -3.806924    1.3199871   439061 
  675000   0.88160823   -3.8095886   -3.8095886   -2.4871793  0.054139523   -3.8095886    1.3224093   439061 
  676000   0.88039612   -3.8077459   -3.8077459   -2.4871547  0.062923785   -3.8077459    1.3205912   439061 
  677000   0.88035262   -3.8098111   -3.8098111   -2.4892852  0.055180429   -3.8098111    1.3205259   439061 
  678000   0.88218242   -3.8130207   -3.8130207   -2.4897501   0.04729112   -3.8130207    1.3232706   439061 
  679000   0.87983599   -3.8102024   -3.8102024   -2.4904515  0.056596337   -3.8102024     1.319751   439061 
  680000   0.87989187   -3.8103572   -3.8103572   -2.4905224  0.054863264   -3.8103572    1.3198348   439061 
  681000   0.88118138   -3.8127875   -3.8127875   -2.4910184  0.053204828   -3.8127875    1.3217691   439061 
  682000    0.8811804   -3.8139991   -3.8139991   -2.4922315  0.053627544   -3.8139991    1.3217676   439061 
  683000   0.88024973    -3.814609    -3.814609   -2.4942374  0.052774057    -3.814609    1.3203716   439061 
  684000   0.87992577   -3.8142295   -3.8142295   -2.4943438  0.051226347   -3.8142295    1.3198856   439061 
  685000   0.87919879    -3.814711    -3.814711   -2.4959158  0.052965781    -3.814711    1.3187952   439061 
  686000   0.87946906   -3.8159601   -3.8159601   -2.4967595  0.048788103   -3.8159601    1.3192006   439061 
  687000   0.88056238   -3.8186224   -3.8186224   -2.4977818  0.051099974   -3.8186224    1.3208406   439061 
  688000   0.87897985   -3.8166335   -3.8166335   -2.4981668  0.052639967   -3.8166335    1.3184668   439061 
  689000   0.87997385   -3.8198534   -3.8198534   -2.4998956  0.046840454   -3.8198534    1.3199578   439061 
  690000   0.87975203   -3.8194262   -3.8194262   -2.4998012   0.05515685   -3.8194262     1.319625   439061 
  691000   0.88026155   -3.8210761   -3.8210761   -2.5006868  0.054102218   -3.8210761    1.3203893   439061 
  692000   0.88053965   -3.8212993   -3.8212993   -2.5004928  0.059023863   -3.8212993    1.3208065   439061 
  693000   0.87960703   -3.8217776   -3.8217776     -2.50237  0.059403259   -3.8217776    1.3194075   439061 
  694000   0.88051888   -3.8231708   -3.8231708   -2.5023955  0.061933203   -3.8231708    1.3207753   439061 
  695000   0.88066634   -3.8234521   -3.8234521   -2.5024556  0.051827742   -3.8234521    1.3209965   439061 
  696000   0.87927019   -3.8243917   -3.8243917   -2.5054894  0.053791152   -3.8243917    1.3189023   439061 
  697000   0.87912611   -3.8243789   -3.8243789   -2.5056927  0.053245332   -3.8243789    1.3186862   439061 
  698000   0.87800043   -3.8229823   -3.8229823   -2.5059847  0.053976848   -3.8229823    1.3169977   439061 
  699000   0.87780781      -3.8229      -3.8229   -2.5061912  0.049393289      -3.8229    1.3167087   439061 
  700000   0.87786393   -3.8232229   -3.8232229   -2.5064301  0.046240083   -3.8232229    1.3167929   439061 
  701000   0.87815372   -3.8235482   -3.8235482   -2.5063206  0.047774335   -3.8235482    1.3172276   439061 
  702000    0.8782245   -3.8247838   -3.8247838     -2.50745  0.048044754   -3.8247838    1.3173337   439061 
  703000   0.87805075   -3.8250625   -3.8250625   -2.5079894  0.047477555   -3.8250625    1.3170731   439061 
  704000   0.87810879   -3.8251345   -3.8251345   -2.5079743  0.051245793   -3.8251345    1.3171602   439061 
  705000   0.87865094   -3.8265974   -3.8265974    -2.508624  0.049263453   -3.8265974    1.3179734   439061 
  706000    0.8777707   -3.8268263   -3.8268263   -2.5101733  0.052211085   -3.8268263     1.316653   439061 
  707000    0.8777382   -3.8277176   -3.8277176   -2.5111133    0.0499504   -3.8277176    1.3166043   439061 
  708000     0.875875   -3.8270424   -3.8270424   -2.5132329  0.052263824   -3.8270424    1.3138095   439061 
  709000    0.8774546   -3.8303861   -3.8303861   -2.5142072  0.051229114   -3.8303861    1.3161789   439061 
  710000   0.87730203   -3.8307322   -3.8307322   -2.5147821  0.053346936   -3.8307322      1.31595   439061 
  711000   0.87826703   -3.8320921   -3.8320921   -2.5146945  0.055001028   -3.8320921    1.3173975   439061 
  712000    0.8777957   -3.8339222   -3.8339222   -2.5172317  0.055186804   -3.8339222    1.3166906   439061 
  713000   0.87901585   -3.8371566   -3.8371566   -2.5186358  0.053243301   -3.8371566    1.3185208   439061 
  714000    0.8779625   -3.8359669   -3.8359669   -2.5190261  0.054979856   -3.8359669    1.3169407   439061 
  715000   0.87733191   -3.8355615   -3.8355615   -2.5195666  0.054004934   -3.8355615    1.3159949   439061 
  716000   0.87697111    -3.835823    -3.835823   -2.5203694   0.05979039    -3.835823    1.3154537   439061 
  717000   0.87763932   -3.8384741   -3.8384741   -2.5220181  0.052746584   -3.8384741     1.316456   439061 
  718000   0.87580561   -3.8373262   -3.8373262   -2.5236208  0.050879673   -3.8373262    1.3137054   439061 
  719000   0.87497482   -3.8362059   -3.8362059   -2.5237467  0.056225891   -3.8362059    1.3124592   439061 
  720000   0.87521395   -3.8368797   -3.8368797   -2.5240618  0.053775755   -3.8368797    1.3128179   439061 
  721000   0.87700309   -3.8394606   -3.8394606   -2.5239589  0.052403744   -3.8394606    1.3155016   439061 
  722000   0.87584777   -3.8378839   -3.8378839   -2.5241153  0.047696709   -3.8378839    1.3137687   439061 
  723000    0.8763744    -3.838799    -3.838799   -2.5242404  0.050021701    -3.838799    1.3145586   439061 
  724000   0.87602953   -3.8389395   -3.8389395   -2.5248982  0.051762874   -3.8389395    1.3140413   439061 
  725000   0.87758877   -3.8422635   -3.8422635   -2.5258834  0.049558057   -3.8422635    1.3163802   439061 
  726000   0.87637277   -3.8421669   -3.8421669   -2.5276107   0.04733026   -3.8421669    1.3145562   439061 
  727000   0.87650076   -3.8416181   -3.8416181   -2.5268699  0.047051706   -3.8416181    1.3147481   439061 
  728000    0.8776808   -3.8433899   -3.8433899   -2.5268717  0.052291475   -3.8433899    1.3165182   439061 
  729000   0.87563319    -3.840305    -3.840305   -2.5268582  0.055162417    -3.840305    1.3134468   439061 
  730000    0.8749237   -3.8401226   -3.8401226     -2.52774  0.054008465   -3.8401226    1.3123826   439061 
  731000   0.87696364   -3.8438205   -3.8438205    -2.528378   0.05069293   -3.8438205    1.3154425   439061 
  732000   0.87693597   -3.8443367   -3.8443367   -2.5289357  0.045847964   -3.8443367     1.315401   439061 
  733000    0.8756335   -3.8425888   -3.8425888   -2.5291416  0.049214668   -3.8425888    1.3134473   439061 
  734000   0.87420701   -3.8418119   -3.8418119   -2.5305043  0.049278769   -3.8418119    1.3113075   439061 
  735000   0.87548515   -3.8440461   -3.8440461   -2.5308214  0.046730478   -3.8440461    1.3132247   439061 
  736000    0.8746463   -3.8445124   -3.8445124   -2.5325459  0.047980588   -3.8445124    1.3119665   439061 
  737000   0.87418569   -3.8441697   -3.8441697   -2.5328942  0.045351498   -3.8441697    1.3112756   439061 
  738000   0.87438183    -3.845261    -3.845261   -2.5336913  0.044278993    -3.845261    1.3115698   439061 
  739000    0.8751596   -3.8468221   -3.8468221   -2.5340856  0.048901887   -3.8468221    1.3127364   439061 
  740000   0.87608312   -3.8489066   -3.8489066   -2.5347849  0.047575657   -3.8489066    1.3141217   439061 
  741000   0.87341012   -3.8476825   -3.8476825   -2.5375704  0.048159374   -3.8476825    1.3101122   439061 
  742000   0.87356638   -3.8471483   -3.8471483   -2.5368017  0.055593197   -3.8471483    1.3103466   439061 
  743000    0.8760267   -3.8510246   -3.8510246   -2.5369875  0.047193859   -3.8510246    1.3140371   439061 
  744000   0.87487441   -3.8509062   -3.8509062   -2.5385976  0.045048284   -3.8509062    1.3123086   439061 
  745000    0.8749251   -3.8527448   -3.8527448   -2.5403602  0.048901395   -3.8527448    1.3123847   439061 
  746000   0.87525294   -3.8545017   -3.8545017   -2.5416253   0.04779356   -3.8545017    1.3128764   439061 
  747000   0.87471614   -3.8539031   -3.8539031   -2.5418319  0.051560143   -3.8539031    1.3120712   439061 
  748000   0.87461967   -3.8552369   -3.8552369   -2.5433104   0.05429118   -3.8552369    1.3119265   439061 
  749000    0.8744385   -3.8551006   -3.8551006   -2.5434458  0.058808688   -3.8551006    1.3116548   439061 
  750000   0.87442601   -3.8555996   -3.8555996   -2.5439636  0.054330928   -3.8555996     1.311636   439061 
  751000    0.8762636   -3.8598873   -3.8598873   -2.5454949  0.053288619   -3.8598873    1.3143924   439061 
  752000   0.87528478   -3.8609985   -3.8609985   -2.5480743  0.050810407   -3.8609985    1.3129242   439061 
  753000   0.87469598    -3.860974    -3.860974    -2.548933  0.049667149    -3.860974     1.312041   439061 
  754000   0.87335767   -3.8605888   -3.8605888   -2.5505553  0.047971426   -3.8605888    1.3100335   439061 
  755000   0.87310997   -3.8613389   -3.8613389   -2.5516769  0.045263049   -3.8613389     1.309662   439061 
  756000   0.87186319   -3.8582698   -3.8582698    -2.550478   0.05014332   -3.8582698    1.3077918   439061 
  757000   0.87302644   -3.8610201   -3.8610201   -2.5514834   0.05190182   -3.8610201    1.3095367   439061 
  758000    0.8737971   -3.8625513   -3.8625513   -2.5518586  0.050655997   -3.8625513    1.3106927   439061 
  759000   0.87294127   -3.8627111   -3.8627111   -2.5533022    0.0473408   -3.8627111    1.3094089   439061 
  760000   0.87289096   -3.8635898   -3.8635898   -2.5542564  0.049831466   -3.8635898    1.3093335   439061 
  761000   0.87323214   -3.8645154   -3.8645154   -2.5546702  0.048319369   -3.8645154    1.3098452   439061 
  762000   0.87163936   -3.8626039   -3.8626039   -2.5551479  0.049016858   -3.8626039    1.3074561   439061 
  763000   0.87269586   -3.8644279   -3.8644279   -2.5553871  0.048291531   -3.8644279    1.3090408   439061 
  764000    0.8733372   -3.8658232   -3.8658232   -2.5558204  0.048124544   -3.8658232    1.3100028   439061 
  765000   0.87149165   -3.8645502   -3.8645502   -2.5573157  0.045059185   -3.8645502    1.3072345   439061 
  766000   0.87297846   -3.8663526   -3.8663526   -2.5568879  0.048876641   -3.8663526    1.3094647   439061 
  767000   0.87258717   -3.8666007   -3.8666007   -2.5577229  0.051914112   -3.8666007    1.3088778   439061 
  768000   0.87299305   -3.8681998   -3.8681998   -2.5587133  0.050347923   -3.8681998    1.3094866   439061 
  769000   0.87111622   -3.8666715   -3.8666715   -2.5600002   0.04801752   -3.8666715    1.3066714   439061 
  770000   0.87026746   -3.8663709   -3.8663709   -2.5609727  0.044660118   -3.8663709    1.3053982   439061 
  771000   0.86945533   -3.8663948   -3.8663948   -2.5622148  0.047284531   -3.8663948      1.30418   439061 
  772000    0.8697866   -3.8676988   -3.8676988   -2.5630219  0.045865109   -3.8676988    1.3046769   439061 
  773000   0.87001879   -3.8682787   -3.8682787   -2.5632535  0.046801799   -3.8682787    1.3050252   439061 
  774000   0.87213524   -3.8718637   -3.8718637   -2.5636638  0.048178772   -3.8718637    1.3081999   439061 
  775000    0.8696863   -3.8702174   -3.8702174   -2.5656909  0.045733948   -3.8702174    1.3045265   439061 
  776000   0.87029292   -3.8719174   -3.8719174    -2.566481  0.045930593   -3.8719174    1.3054364   439061 
  777000   0.87079746   -3.8713939   -3.8713939   -2.5652007  0.052204918   -3.8713939    1.3061932   439061 
  778000    0.8708607   -3.8726748   -3.8726748   -2.5663867  0.049885033   -3.8726748    1.3062881   439061 
  779000   0.87127282   -3.8758112   -3.8758112   -2.5689049  0.050683153   -3.8758112    1.3069063   439061 
  780000   0.87146228   -3.8763313   -3.8763313   -2.5691408  0.047856611   -3.8763313    1.3071904   439061 
  781000    0.8711214   -3.8768345   -3.8768345   -2.5701554  0.049942401   -3.8768345    1.3066791   439061 
  782000   0.87024657   -3.8766924   -3.8766924   -2.5713255  0.047547811   -3.8766924    1.3053669   439061 
  783000   0.87173166   -3.8798714   -3.8798714   -2.5722769  0.050854236   -3.8798714    1.3075945   439061 
  784000   0.87185267   -3.8804537   -3.8804537   -2.5726777  0.048944421   -3.8804537     1.307776   439061 
  785000   0.87109733   -3.8801074   -3.8801074   -2.5734643  0.048023199   -3.8801074     1.306643   439061 
  786000   0.87190536    -3.882407    -3.882407   -2.5745519  0.045434985    -3.882407    1.3078551   439061 
  787000   0.87009531   -3.8793686   -3.8793686   -2.5742286  0.057220251   -3.8793686      1.30514   439061 
  788000   0.86970465   -3.8784779   -3.8784779   -2.5739238  0.051880347   -3.8784779     1.304554   439061 
  789000   0.87024728   -3.8807924   -3.8807924   -2.5754244  0.043841583   -3.8807924     1.305368   439061 
  790000   0.86949748    -3.880904    -3.880904   -2.5766607  0.047302444    -3.880904    1.3042433   439061 
  791000   0.86993439    -3.881144    -3.881144   -2.5762454  0.049004155    -3.881144    1.3048986   439061 
  792000   0.87024603   -3.8823501   -3.8823501    -2.576984  0.041482507   -3.8823501    1.3053661   439061 
  793000   0.86748293   -3.8804807   -3.8804807   -2.5792593  0.048505922   -3.8804807    1.3012214   439061 
  794000   0.86907406   -3.8825103   -3.8825103   -2.5789021  0.045322982   -3.8825103    1.3036081   439061 
  795000    0.8691708    -3.882987    -3.882987   -2.5792337   0.04519841    -3.882987    1.3037532   439061 
  796000   0.86753666   -3.8828549   -3.8828549   -2.5815529  0.045591211   -3.8828549     1.301302   439061 
  797000   0.86828738   -3.8848311   -3.8848311    -2.582403  0.041014819   -3.8848311    1.3024281   439061 
  798000   0.86789755   -3.8850907   -3.8850907   -2.5832473  0.043563815   -3.8850907    1.3018434   439061 
  799000   0.86949788   -3.8870771   -3.8870771   -2.5828333  0.051937145   -3.8870771    1.3042439   439061 
  800000   0.87001793   -3.8880951   -3.8880951   -2.5830712  0.046792619   -3.8880951    1.3050239   439061 
  801000   0.86937648   -3.8882572   -3.8882572   -2.5841955  0.051782988   -3.8882572    1.3040617   439061 
  802000   0.86864443    -3.889032    -3.889032   -2.5860683  0.048708274    -3.889032    1.3029637   439061 
  803000   0.87031399   -3.8916933   -3.8916933   -2.5862253  0.047218443   -3.8916933     1.305468   439061 
  804000   0.86927906   -3.8910165   -3.8910165   -2.5871009   0.05135118   -3.8910165    1.3039156   439061 
  805000    0.8688664   -3.8925217   -3.8925217   -2.5892251  0.048591553   -3.8925217    1.3032966   439061 
  806000   0.86914571   -3.8927137   -3.8927137   -2.5889981  0.045358379   -3.8927137    1.3037156   439061 
  807000    0.8681113   -3.8919363   -3.8919363   -2.5897723  0.049424676   -3.8919363     1.302164   439061 
  808000   0.86804183   -3.8929203   -3.8929203   -2.5908605  0.050142553   -3.8929203    1.3020598   439061 
  809000    0.8672716   -3.8918311   -3.8918311   -2.5909266  0.047342814   -3.8918311    1.3009044   439061 
  810000   0.86611054    -3.892384    -3.892384   -2.5932211  0.047082036    -3.892384    1.2991629   439061 
  811000   0.86776317   -3.8946186   -3.8946186   -2.5929768  0.046381883   -3.8946186    1.3016418   439061 
  812000   0.86736526   -3.8938317   -3.8938317   -2.5927868  0.047664468   -3.8938317    1.3010449   439061 
  813000   0.86837785   -3.8967194   -3.8967194   -2.5941556  0.046509587   -3.8967194    1.3025638   439061 
  814000   0.86681621    -3.895739    -3.895739   -2.5955177  0.044245651    -3.895739    1.3002214   439061 
  815000   0.86757938   -3.8972949   -3.8972949   -2.5959288   0.04608318   -3.8972949    1.3013661   439061 
  816000   0.86682465   -3.8974697   -3.8974697   -2.5972357   0.04620683   -3.8974697     1.300234   439061 
  817000   0.86625157   -3.8973716   -3.8973716   -2.5979972  0.045853384   -3.8973716    1.2993744   439061 
  818000   0.86817413   -3.8995952   -3.8995952    -2.597337  0.046510104   -3.8995952    1.3022582   439061 
  819000   0.86599108   -3.8983489   -3.8983489   -2.5993652  0.046452662   -3.8983489    1.2989837   439061 
  820000   0.86663113   -3.8990441   -3.8990441   -2.5991003  0.048553094   -3.8990441    1.2999437   439061 
  821000   0.86747933   -3.9015061   -3.9015061   -2.6002901  0.045961202   -3.9015061     1.301216   439061 
  822000   0.86648137   -3.9013862   -3.9013862   -2.6016672  0.046556704   -3.9013862    1.2997191   439061 
  823000   0.86646793   -3.9020466   -3.9020466   -2.6023476  0.048390149   -3.9020466    1.2996989   439061 
  824000   0.86764047   -3.9033496   -3.9033496   -2.6018918  0.047974287   -3.9033496    1.3014577   439061 
  825000   0.86731734   -3.9036913   -3.9036913   -2.6027182  0.042268343   -3.9036913     1.300973   439061 
  826000    0.8656837   -3.9026499   -3.9026499   -2.6041273  0.046446792   -3.9026499    1.2985226   439061 
  827000   0.86605247   -3.9038468   -3.9038468   -2.6047711  0.043129333   -3.9038468    1.2990757   439061 
  828000   0.86624044   -3.9046041   -3.9046041   -2.6052464  0.047261765   -3.9046041    1.2993577   439061 
  829000   0.86802158   -3.9075465   -3.9075465   -2.6055171  0.046425099   -3.9075465    1.3020294   439061 
  830000   0.86632869    -3.905359    -3.905359   -2.6058689  0.046053814    -3.905359    1.2994901   439061 
  831000   0.86626944    -3.906461    -3.906461   -2.6070598  0.041985595    -3.906461    1.2994012   439061 
  832000   0.86643193   -3.9077452   -3.9077452   -2.6081002  0.043674724   -3.9077452    1.2996449   439061 
  833000   0.86578988   -3.9085114   -3.9085114   -2.6098295  0.043538964   -3.9085114    1.2986819   439061 
  834000   0.86390111   -3.9066924   -3.9066924   -2.6108437  0.043207459   -3.9066924    1.2958487   439061 
  835000   0.86567883   -3.9087989   -3.9087989   -2.6102836  0.043577113   -3.9087989    1.2985153   439061 
  836000   0.86654856   -3.9111299   -3.9111299     -2.61131  0.049615063   -3.9111299    1.2998199   439061 
  837000    0.8667384   -3.9125178   -3.9125178   -2.6124131  0.046377188   -3.9125178    1.3001046   439061 
  838000   0.86684043    -3.913044    -3.913044   -2.6127863   0.04603906    -3.913044    1.3002577   439061 
  839000   0.86536308   -3.9119696   -3.9119696    -2.613928   0.04941834   -3.9119696    1.2980417   439061 
  840000   0.86626048    -3.913367    -3.913367   -2.6139793  0.045923585    -3.913367    1.2993878   439061 
  841000   0.86545583   -3.9129096   -3.9129096   -2.6147288  0.049965367   -3.9129096    1.2981808   439061 
  842000   0.86690849   -3.9169439   -3.9169439   -2.6165841  0.040916193   -3.9169439    1.3003598   439061 
  843000   0.86562097   -3.9160878   -3.9160878   -2.6176593  0.043016739   -3.9160878    1.2984285   439061 
  844000   0.86543476   -3.9168464   -3.9168464   -2.6186972  0.045432168   -3.9168464    1.2981492   439061 
  845000   0.86597152   -3.9167874   -3.9167874   -2.6178331  0.044907876   -3.9167874    1.2989543   439061 
  846000   0.86577201   -3.9170975   -3.9170975   -2.6184425  0.042325063   -3.9170975    1.2986551   439061 
  847000    0.8657895   -3.9171453   -3.9171453    -2.618464  0.047193547   -3.9171453    1.2986813   439061 
  848000   0.86595211   -3.9186892   -3.9186892    -2.619764  0.041787743   -3.9186892    1.2989252   439061 
  849000   0.86490667   -3.9172591   -3.9172591    -2.619902  0.041143879   -3.9172591    1.2973571   439061 
  850000   0.86510018   -3.9175079   -3.9175079   -2.6198606  0.044890923   -3.9175079    1.2976473   439061 
  851000   0.86532606   -3.9178383   -3.9178383   -2.6198522  0.047523374   -3.9178383    1.2979861   439061 
  852000   0.86555158   -3.9185319   -3.9185319   -2.6202074  0.042279748   -3.9185319    1.2983244   439061 
  853000   0.86468659   -3.9186012   -3.9186012   -2.6215743  0.042666267   -3.9186012    1.2970269   439061 
  854000   0.86404631   -3.9189671   -3.9189671   -2.6229006  0.045719556   -3.9189671    1.2960665   439061 
  855000   0.86537859   -3.9210331   -3.9210331   -2.6229682  0.039327451   -3.9210331    1.2980649   439061 
  856000   0.86465996   -3.9209341   -3.9209341   -2.6239471  0.039411937   -3.9209341     1.296987   439061 
  857000   0.86469471   -3.9218986   -3.9218986   -2.6248594  0.045725068   -3.9218986    1.2970391   439061 
  858000   0.86429157   -3.9219178   -3.9219178   -2.6254834  0.043513758   -3.9219178    1.2964344   439061 
  859000    0.8638212   -3.9239894   -3.9239894   -2.6282606  0.039789292   -3.9239894    1.2957288   439061 
  860000   0.86374166    -3.923908    -3.923908   -2.6282985  0.044275275    -3.923908    1.2956095   439061 
  861000   0.86310147    -3.923059    -3.923059   -2.6284097  0.045533806    -3.923059    1.2946493   439061 
  862000   0.86309715   -3.9236919   -3.9236919   -2.6290492  0.046992429   -3.9236919    1.2946428   439061 
  863000   0.86369626   -3.9255172   -3.9255172   -2.6299757  0.042139327   -3.9255172    1.2955414   439061 
  864000    0.8647412   -3.9281022   -3.9281022   -2.6309934  0.043365329   -3.9281022    1.2971088   439061 
  865000   0.86447679    -3.928185    -3.928185   -2.6314728  0.042927568    -3.928185    1.2967122   439061 
  866000   0.86228477   -3.9261367   -3.9261367   -2.6327125   0.04440566   -3.9261367    1.2934242   439061 
  867000   0.86286069   -3.9280678   -3.9280678   -2.6337797  0.044590539   -3.9280678    1.2942881   439061 
  868000   0.86285822   -3.9283138   -3.9283138   -2.6340294  0.046561357   -3.9283138    1.2942844   439061 
  869000   0.86324703   -3.9285314   -3.9285314   -2.6336638    0.0392337   -3.9285314    1.2948676   439061 
  870000   0.86327757   -3.9302889   -3.9302889   -2.6353754  0.042379201   -3.9302889    1.2949134   439061 
  871000   0.86373932   -3.9308639   -3.9308639   -2.6352578  0.042376536   -3.9308639     1.295606   439061 
  872000    0.8638485   -3.9317941   -3.9317941   -2.6360243  0.046458096   -3.9317941    1.2957698   439061 
  873000   0.86263403   -3.9300204   -3.9300204   -2.6360723  0.042038993   -3.9300204    1.2939481   439061 
  874000   0.86365832   -3.9327928   -3.9327928   -2.6373083  0.044632186   -3.9327928    1.2954845   439061 
  875000   0.86242754   -3.9318547   -3.9318547   -2.6382163  0.036461535   -3.9318547    1.2936384   439061 
  876000   0.86278541   -3.9338168   -3.9338168   -2.6396416  0.038366474   -3.9338168    1.2941752   439061 
  877000   0.86030698   -3.9308388   -3.9308388   -2.6403813  0.040778043   -3.9308388    1.2904575   439061 
  878000   0.86217787   -3.9352243   -3.9352243   -2.6419605  0.042485745   -3.9352243    1.2932639   439061 
  879000   0.86264725   -3.9355875   -3.9355875   -2.6416196  0.043044895   -3.9355875    1.2939679   439061 
  880000    0.8622209   -3.9356878   -3.9356878   -2.6423594  0.042262669   -3.9356878    1.2933284   439061 
  881000   0.86274937   -3.9359114   -3.9359114   -2.6417903  0.040273206   -3.9359114    1.2941211   439061 
  882000   0.86242382   -3.9358451   -3.9358451   -2.6422123  0.041675017   -3.9358451    1.2936328   439061 
  883000    0.8628983   -3.9363485   -3.9363485    -2.642004  0.045783147   -3.9363485    1.2943445   439061 
  884000   0.86192558   -3.9356196   -3.9356196   -2.6427342  0.049326837   -3.9356196    1.2928854   439061 
  885000   0.86132681   -3.9355767   -3.9355767   -2.6435894  0.048130641   -3.9355767    1.2919873   439061 
  886000   0.86273894   -3.9387233   -3.9387233   -2.6446179  0.042252713   -3.9387233    1.2941055   439061 
  887000   0.86242711   -3.9388435   -3.9388435   -2.6452058  0.039457503   -3.9388435    1.2936377   439061 
  888000   0.86152758   -3.9388745   -3.9388745   -2.6465861  0.035490761   -3.9388745    1.2922884   439061 
  889000   0.86081927    -3.938428    -3.938428    -2.647202   0.03800144    -3.938428     1.291226   439061 
  890000   0.86111575   -3.9398523   -3.9398523   -2.6481816  0.039217499   -3.9398523    1.2916707   439061 
  891000   0.86070619   -3.9393739   -3.9393739   -2.6483175  0.037959433   -3.9393739    1.2910563   439061 
  892000   0.85995572   -3.9384829   -3.9384829   -2.6485522  0.040366437   -3.9384829    1.2899306   439061 
  893000   0.86132658   -3.9397681   -3.9397681   -2.6477812  0.043066588   -3.9397681    1.2919869   439061 
  894000   0.86096272   -3.9396409   -3.9396409   -2.6481997  0.047357645   -3.9396409    1.2914411   439061 
  895000   0.86298176   -3.9435531   -3.9435531   -2.6490834  0.043623903   -3.9435531    1.2944697   439061 
  896000   0.86233943   -3.9431284   -3.9431284   -2.6496222  0.040337356   -3.9431284    1.2935062   439061 
  897000   0.86066515   -3.9414849   -3.9414849   -2.6504901  0.044929255   -3.9414849    1.2909948   439061 
  898000   0.86142603   -3.9432658   -3.9432658   -2.6511297  0.043038323   -3.9432658    1.2921361   439061 
  899000   0.86175126   -3.9448132   -3.9448132   -2.6521893  0.038784166   -3.9448132    1.2926239   439061 
  900000   0.86058864   -3.9430983   -3.9430983   -2.6522183    0.0454798   -3.9430983      1.29088   439061 
  901000   0.86011606   -3.9427736   -3.9427736   -2.6526024  0.041291131   -3.9427736    1.2901712   439061 
  902000   0.86162387   -3.9455652   -3.9455652   -2.6531323  0.038476935   -3.9455652    1.2924329   439061 
  903000   0.86025812   -3.9461309   -3.9461309   -2.6557467  0.035964691   -3.9461309    1.2903842   439061 
  904000   0.86060904   -3.9471754   -3.9471754   -2.6562647  0.034313261   -3.9471754    1.2909106   439061 
  905000   0.85902585   -3.9453559   -3.9453559   -2.6568201   0.03829362   -3.9453559    1.2885358   439061 
  906000   0.85941094   -3.9465339   -3.9465339   -2.6574204  0.040723535   -3.9465339    1.2891135   439061 
  907000   0.85834317    -3.944937    -3.944937   -2.6574252  0.046525844    -3.944937    1.2875118   439061 
  908000   0.86139418   -3.9490787   -3.9490787   -2.6569904  0.046852693   -3.9490787    1.2920883   439061 
  909000    0.8607764   -3.9496504   -3.9496504   -2.6584887  0.044003564   -3.9496504    1.2911617   439061 
  910000   0.86167913   -3.9526872   -3.9526872   -2.6601714   0.04027154   -3.9526872    1.2925158   439061 
  911000   0.85934842   -3.9494676   -3.9494676   -2.6604479  0.044569812   -3.9494676    1.2890197   439061 
  912000   0.86021349   -3.9496586   -3.9496586   -2.6593413  0.043912595   -3.9496586    1.2903173   439061 
  913000   0.85987351    -3.952102    -3.952102   -2.6622946  0.037925888    -3.952102    1.2898073   439061 
  914000   0.85965748   -3.9525408   -3.9525408   -2.6630575  0.044581566   -3.9525408    1.2894833   439061 
  915000   0.86013446   -3.9539896   -3.9539896   -2.6637908  0.038178262   -3.9539896    1.2901988   439061 
  916000   0.85983795   -3.9539632   -3.9539632   -2.6642092  0.042238223   -3.9539632     1.289754   439061 
  917000   0.85943912   -3.9530611   -3.9530611   -2.6639054  0.039740798   -3.9530611    1.2891557   439061 
  918000   0.85856385   -3.9540967   -3.9540967   -2.6662538  0.042929766   -3.9540967    1.2878428   439061 
  919000   0.85842987   -3.9552682   -3.9552682   -2.6676263  0.040231656   -3.9552682    1.2876419   439061 
  920000   0.85810129   -3.9550927   -3.9550927   -2.6679437  0.042135839   -3.9550927     1.287149   439061 
  921000   0.85928003   -3.9583131   -3.9583131   -2.6693959  0.037466504   -3.9583131    1.2889171   439061 
  922000   0.85914968   -3.9569982   -3.9569982   -2.6682766  0.042005348   -3.9569982    1.2887216   439061 
  923000   0.85997422   -3.9588602   -3.9588602   -2.6689019  0.041741398   -3.9588602    1.2899584   439061 
  924000     0.859343   -3.9570002   -3.9570002   -2.6679886  0.041227369   -3.9570002    1.2890116   439061 
  925000   0.85960023   -3.9593537   -3.9593537   -2.6699563  0.042513474   -3.9593537    1.2893974   439061 
  926000   0.85993841   -3.9600106   -3.9600106   -2.6701059  0.045268664   -3.9600106    1.2899047   439061 
  927000   0.86000694   -3.9597343   -3.9597343   -2.6697269  0.045977528   -3.9597343    1.2900075   439061 
  928000   0.85980841   -3.9586673   -3.9586673   -2.6689577  0.045794899   -3.9586673    1.2897097   439061 
  929000   0.85886908   -3.9584581   -3.9584581   -2.6701574  0.044491696   -3.9584581    1.2883007   439061 
  930000   0.85840257   -3.9587263   -3.9587263   -2.6711254  0.042989973   -3.9587263    1.2876009   439061 
  931000   0.85687604   -3.9576495   -3.9576495   -2.6723384  0.043907301   -3.9576495    1.2853111   439061 
  932000     0.858024    -3.959735    -3.959735    -2.672702  0.036142526    -3.959735    1.2870331   439061 
  933000   0.85803481   -3.9601472   -3.9601472   -2.6730979  0.038440076   -3.9601472    1.2870493   439061 
  934000   0.85878945   -3.9622336   -3.9622336   -2.6740524  0.037300873   -3.9622336    1.2881812   439061 
  935000   0.85790844   -3.9617719   -3.9617719   -2.6749121  0.038347381   -3.9617719    1.2868597   439061 
  936000   0.85783155   -3.9622052   -3.9622052   -2.6754608  0.035653709   -3.9622052    1.2867444   439061 
  937000   0.85745956   -3.9617618   -3.9617618   -2.6755754  0.038791518   -3.9617618    1.2861864   439061 
  938000   0.85747001   -3.9634598   -3.9634598   -2.6772577  0.037814103   -3.9634598    1.2862021   439061 
  939000   0.85740082    -3.964356    -3.964356   -2.6782577  0.041172031    -3.964356    1.2860983   439061 
  940000   0.85720733   -3.9644634   -3.9644634   -2.6786553  0.040955521   -3.9644634    1.2858081   439061 
  941000   0.85899817   -3.9675022   -3.9675022   -2.6790079  0.042802568   -3.9675022    1.2884943   439061 
  942000   0.85916843   -3.9686843   -3.9686843   -2.6799346  0.040134681   -3.9686843    1.2887497   439061 
  943000   0.85792958   -3.9670493   -3.9670493   -2.6801579  0.042995958   -3.9670493    1.2868914   439061 
  944000     0.859468   -3.9707582   -3.9707582   -2.6815591  0.043276973   -3.9707582    1.2891991   439061 
  945000   0.85750354   -3.9680775   -3.9680775   -2.6818251  0.045340117   -3.9680775    1.2862524   439061 
  946000   0.85781694   -3.9691396   -3.9691396   -2.6824172  0.043735826   -3.9691396    1.2867225   439061 
  947000   0.85843282   -3.9705389   -3.9705389   -2.6828926  0.038687345   -3.9705389    1.2876463   439061 
  948000   0.85852802   -3.9718467   -3.9718467   -2.6840576  0.039333474   -3.9718467    1.2877891   439061 
  949000    0.8569043   -3.9707525   -3.9707525    -2.685399  0.039399224   -3.9707525    1.2853535   439061 
  950000   0.85800744   -3.9726403   -3.9726403    -2.685632  0.038286554   -3.9726403    1.2870082   439061 
  951000   0.85787711    -3.973053    -3.973053   -2.6862403  0.040455291    -3.973053    1.2868127   439061 
  952000   0.85643861   -3.9712264   -3.9712264   -2.6865714  0.039914941   -3.9712264     1.284655   439061 
  953000   0.85722073   -3.9729607   -3.9729607   -2.6871325  0.041001115   -3.9729607    1.2858282   439061 
  954000    0.8555113   -3.9716343   -3.9716343   -2.6883703  0.041462705   -3.9716343     1.283264   439061 
  955000   0.85669812   -3.9726948   -3.9726948   -2.6876505  0.039843902   -3.9726948    1.2850443   439061 
  956000   0.85667712    -3.972485    -3.972485   -2.6874723  0.044260726    -3.972485    1.2850128   439061 
  957000   0.85652459   -3.9727829   -3.9727829   -2.6879989  0.044206383   -3.9727829     1.284784   439061 
  958000   0.85854792   -3.9764754   -3.9764754   -2.6886565  0.038881601   -3.9764754    1.2878189   439061 
  959000   0.85819096   -3.9753335   -3.9753335     -2.68805  0.045071594   -3.9753335    1.2872835   439061 
  960000   0.85690808   -3.9755032   -3.9755032   -2.6901441  0.040743369   -3.9755032    1.2853592   439061 
  961000   0.85796438   -3.9780312   -3.9780312   -2.6910875  0.036156151   -3.9780312    1.2869436   439061 
  962000   0.85632423   -3.9758113   -3.9758113   -2.6913278  0.042252445   -3.9758113    1.2844834   439061 
  963000   0.85652065   -3.9759814   -3.9759814   -2.6912033   0.03736685   -3.9759814    1.2847781   439061 
  964000   0.85712757   -3.9773377   -3.9773377   -2.6916493  0.035907948   -3.9773377    1.2856884   439061 
  965000   0.85668589   -3.9780808   -3.9780808   -2.6930549  0.035204178   -3.9780808    1.2850259   439061 
  966000    0.8559947   -3.9786565   -3.9786565   -2.6946673  0.037031652   -3.9786565    1.2839891   439061 
  967000   0.85532819   -3.9770699   -3.9770699   -2.6940806  0.036501481   -3.9770699    1.2829894   439061 
  968000   0.85788836   -3.9812882   -3.9812882   -2.6944585  0.038834274   -3.9812882    1.2868296   439061 
  969000   0.85597633   -3.9797257   -3.9797257   -2.6957641   0.04345175   -3.9797257    1.2839616   439061 
  970000   0.85665947   -3.9797759   -3.9797759   -2.6947896  0.044274452   -3.9797759    1.2849863   439061 
  971000   0.85831856   -3.9830748   -3.9830748   -2.6955999  0.043839367   -3.9830748    1.2874749   439061 
  972000   0.85855112   -3.9832649   -3.9832649   -2.6954411  0.039981675   -3.9832649    1.2878237   439061 
  973000   0.85694105   -3.9828804   -3.9828804   -2.6974717  0.041787251   -3.9828804    1.2854086   439061 
  974000   0.85576274   -3.9818425   -3.9818425   -2.6982013  0.039456412   -3.9818425    1.2836412   439061 
  975000   0.85555908   -3.9830592   -3.9830592   -2.6997235   0.03892914   -3.9830592    1.2833357   439061 
  976000   0.85558103   -3.9831886   -3.9831886     -2.69982  0.039709773   -3.9831886    1.2833686   439061 
  977000   0.85461122    -3.983098    -3.983098   -2.7011841  0.038613216    -3.983098    1.2819139   439061 
  978000    0.8544642     -3.98312     -3.98312   -2.7014267  0.039780324     -3.98312    1.2816934   439061 
  979000   0.85566348     -3.98377     -3.98377   -2.7002777   0.03882972     -3.98377    1.2834923   439061 
  980000   0.85480448   -3.9843966   -3.9843966   -2.7021928  0.036399484   -3.9843966    1.2822038   439061 
  981000   0.85470557   -3.9835155   -3.9835155   -2.7014601  0.035033177   -3.9835155    1.2820554   439061 
  982000    0.8542555   -3.9832784   -3.9832784    -2.701898  0.037591376   -3.9832784    1.2813803   439061 
  983000     0.854165   -3.9838811   -3.9838811   -2.7026365  0.039285298   -3.9838811    1.2812446   439061 
  984000   0.85490496   -3.9861101   -3.9861101   -2.7037556  0.033635111   -3.9861101    1.2823545   439061 
  985000   0.85513271   -3.9880729   -3.9880729   -2.7053768  0.038945411   -3.9880729    1.2826961   439061 
  986000   0.85536512   -3.9877412   -3.9877412   -2.7046964  0.038114127   -3.9877412    1.2830448   439061 
  987000   0.85551919   -3.9876969   -3.9876969    -2.704421   0.04352432   -3.9876969    1.2832759   439061 
  988000    0.8564383   -3.9887963   -3.9887963   -2.7041418  0.044300504   -3.9887963    1.2846545   439061 
  989000   0.85645505   -3.9903264   -3.9903264   -2.7056467  0.043955061   -3.9903264    1.2846797   439061 
  990000   0.85663921   -3.9910389   -3.9910389    -2.706083  0.042340986   -3.9910389    1.2849559   439061 
  991000   0.85598306    -3.991447    -3.991447   -2.7074753  0.040957625    -3.991447    1.2839717   439061 
  992000   0.85442549   -3.9902662   -3.9902662   -2.7086309   0.03792665   -3.9902662    1.2816353   439061 
  993000   0.85454663   -3.9895584   -3.9895584   -2.7077414  0.043177898   -3.9895584     1.281817   439061 
  994000   0.85499306   -3.9923405   -3.9923405   -2.7098539  0.035236007   -3.9923405    1.2824867   439061 
  995000   0.85380226   -3.9907241   -3.9907241   -2.7100236  0.033995306   -3.9907241    1.2807005   439061 
  996000   0.85290349   -3.9895809   -3.9895809   -2.7102286  0.040358096   -3.9895809    1.2793523   439061 
  997000   0.85533304   -3.9920309   -3.9920309   -2.7090343  0.034741878   -3.9920309    1.2829966   439061 
  998000   0.85450159   -3.9916359   -3.9916359   -2.7098864  0.034635238   -3.9916359    1.2817495   439061 
  999000   0.85474712   -3.9924087   -3.9924087   -2.7102909  0.037784926   -3.9924087    1.2821178   439061 
 1000000   0.85416756    -3.992707    -3.992707   -2.7114586  0.037603047    -3.992707    1.2812484   439061 
 1001000   0.85506829   -3.9937967   -3.9937967   -2.7111972  0.035158499   -3.9937967    1.2825995   439061 
 1002000   0.85256425   -3.9925056   -3.9925056   -2.7136622  0.039191879   -3.9925056    1.2788435   439061 
 1003000   0.85451777   -3.9955155   -3.9955155   -2.7137418  0.036339896   -3.9955155    1.2817737   439061 
 1004000   0.85262303   -3.9937127   -3.9937127   -2.7147811  0.036395519   -3.9937127    1.2789316   439061 
 1005000   0.85354535   -3.9951412   -3.9951412   -2.7148261  0.032700711   -3.9951412    1.2803151   439061 
 1006000    0.8526383   -3.9953666   -3.9953666   -2.7164121  0.035532362   -3.9953666    1.2789545   439061 
 1007000   0.85304435   -3.9962601   -3.9962601   -2.7166965   0.03566037   -3.9962601    1.2795636   439061 
 1008000   0.85435964   -3.9990366   -3.9990366      -2.7175  0.036399877   -3.9990366    1.2815365   439061 
 1009000   0.85435202   -3.9982813   -3.9982813   -2.7167562  0.041923265   -3.9982813    1.2815251   439061 
 1010000   0.85374548   -3.9996622   -3.9996622   -2.7190469  0.036000697   -3.9996622    1.2806153   439061 
 1011000   0.85375743   -3.9998967   -3.9998967   -2.7192635  0.041014574   -3.9998967    1.2806332   439061 
 1012000     0.853933   -4.0017813   -4.0017813   -2.7208847  0.038184796   -4.0017813    1.2808966   439061 
 1013000   0.85344253   -4.0019872   -4.0019872   -2.7218263  0.036947829   -4.0019872    1.2801609   439061 
 1014000   0.85319542   -4.0012288   -4.0012288   -2.7214386  0.041455981   -4.0012288    1.2797902   439061 
 1015000   0.85519489   -4.0042954   -4.0042954    -2.721506  0.039126397   -4.0042954    1.2827894   439061 
 1016000   0.85307727   -4.0032761   -4.0032761   -2.7236631  0.036976695   -4.0032761     1.279613   439061 
 1017000   0.85299829    -4.002972    -4.002972   -2.7234775  0.035067548    -4.002972    1.2794945   439061 
 1018000   0.85261455   -4.0032272   -4.0032272   -2.7243083  0.035060115   -4.0032272    1.2789189   439061 
 1019000   0.85256484    -4.003158    -4.003158   -2.7243136  0.039447265    -4.003158    1.2788444   439061 
 1020000   0.85171722   -4.0035455   -4.0035455   -2.7259725  0.041934554   -4.0035455    1.2775729   439061 
 1021000    0.8518511   -4.0034225   -4.0034225   -2.7256488  0.040688246   -4.0034225    1.2777737   439061 
 1022000   0.85189561   -4.0035028   -4.0035028   -2.7256623  0.035220248   -4.0035028    1.2778405   439061 
 1023000   0.85008564   -4.0027122   -4.0027122   -2.7275866  0.035886556   -4.0027122    1.2751256   439061 
 1024000   0.85179988   -4.0049161   -4.0049161   -2.7272192  0.032618774   -4.0049161    1.2776969   439061 
 1025000   0.85122136   -4.0055442   -4.0055442    -2.728715  0.034344567   -4.0055442    1.2768291   439061 
 1026000   0.85260029   -4.0092226   -4.0092226    -2.730325  0.032536762   -4.0092226    1.2788975   439061 
 1027000   0.85172972    -4.008034    -4.008034   -2.7304424  0.035532487    -4.008034    1.2775917   439061 
 1028000    0.8523097   -4.0089696   -4.0089696   -2.7305079  0.036454687   -4.0089696    1.2784616   439061 
 1029000   0.85162077   -4.0098491   -4.0098491   -2.7324209  0.034266362   -4.0098491    1.2774282   439061 
 1030000   0.85153848    -4.009458    -4.009458   -2.7321532  0.037959594    -4.009458    1.2773048   439061 
 1031000   0.85338745   -4.0121689   -4.0121689   -2.7320906  0.036336532   -4.0121689    1.2800783   439061 
 1032000   0.85215986   -4.0120641   -4.0120641   -2.7338273  0.038670416   -4.0120641    1.2782369   439061 
 1033000   0.85283444   -4.0132483   -4.0132483   -2.7339995  0.040240593   -4.0132483    1.2792487   439061 
 1034000   0.85173496   -4.0122231   -4.0122231   -2.7346235  0.041571045   -4.0122231    1.2775995   439061 
 1035000   0.85145212   -4.0121661   -4.0121661   -2.7349908  0.036558448   -4.0121661    1.2771753   439061 
 1036000   0.85035478   -4.0124948   -4.0124948   -2.7369655  0.033857025   -4.0124948    1.2755293   439061 
 1037000   0.85056327   -4.0142383   -4.0142383   -2.7383963  0.031385218   -4.0142383     1.275842   439061 
 1038000   0.85032274   -4.0138124   -4.0138124   -2.7383312  0.029940752   -4.0138124    1.2754812   439061 
 1039000   0.85167586    -4.015678    -4.015678   -2.7381671  0.034637348    -4.015678    1.2775109   439061 
 1040000   0.85211542    -4.016829    -4.016829   -2.7386588  0.032927018    -4.016829    1.2781702   439061 
 1041000    0.8510303   -4.0148517   -4.0148517   -2.7383092  0.040170099   -4.0148517    1.2765425   439061 
 1042000   0.85265287   -4.0166854   -4.0166854    -2.737709  0.039256938   -4.0166854    1.2789764   439061 
 1043000   0.85171326   -4.0165833   -4.0165833   -2.7390163  0.043290868   -4.0165833     1.277567   439061 
 1044000    0.8508992   -4.0177055   -4.0177055   -2.7413596  0.034737788   -4.0177055    1.2763459   439061 
 1045000   0.85101672   -4.0189075   -4.0189075   -2.7423853  0.033533469   -4.0189075    1.2765222   439061 
 1046000   0.85109853   -4.0191301   -4.0191301   -2.7424852  0.040077731   -4.0191301    1.2766449   439061 
 1047000   0.84996387   -4.0188274   -4.0188274   -2.7438845  0.032493342   -4.0188274    1.2749429   439061 
 1048000    0.8493893   -4.0195253   -4.0195253   -2.7454443  0.033755927   -4.0195253     1.274081   439061 
 1049000   0.85002048   -4.0198751   -4.0198751   -2.7448473  0.038952691   -4.0198751    1.2750278   439061 
 1050000   0.84997861   -4.0201928   -4.0201928   -2.7452278  0.034913271   -4.0201928     1.274965   439061 
 1051000   0.85009403   -4.0206229   -4.0206229   -2.7454848  0.032814576   -4.0206229    1.2751381   439061 
 1052000   0.84906938   -4.0200959   -4.0200959   -2.7464947  0.040572773   -4.0200959    1.2736012   439061 
 1053000   0.85110458   -4.0220647   -4.0220647   -2.7454108  0.036283657   -4.0220647     1.276654   439061 
 1054000   0.85150572   -4.0219838   -4.0219838   -2.7447281  0.036224758   -4.0219838    1.2772557   439061 
 1055000   0.85239129   -4.0242872   -4.0242872   -2.7457031  0.036612376   -4.0242872     1.278584   439061 
 1056000   0.85096332   -4.0228354   -4.0228354   -2.7463933  0.035580217   -4.0228354    1.2764421   439061 
 1057000   0.84976953    -4.022333    -4.022333   -2.7476816  0.034566657    -4.022333    1.2746514   439061 
 1058000   0.85016604   -4.0227182   -4.0227182   -2.7474721  0.033886495   -4.0227182    1.2752462   439061 
 1059000   0.84845667   -4.0209433   -4.0209433   -2.7482612  0.037909447   -4.0209433    1.2726821   439061 
 1060000   0.84856478   -4.0227447   -4.0227447   -2.7499004  0.035045993   -4.0227447    1.2728443   439061 
 1061000   0.84952958   -4.0240508   -4.0240508   -2.7497594  0.034173873   -4.0240508    1.2742915   439061 
 1062000   0.84898957   -4.0236301   -4.0236301   -2.7501486  0.031633435   -4.0236301    1.2734815   439061 
 1063000   0.85002946   -4.0234464   -4.0234464   -2.7484051  0.034824405   -4.0234464    1.2750413   439061 
 1064000   0.85014406   -4.0253322   -4.0253322    -2.750119  0.035784538   -4.0253322    1.2752132   439061 
 1065000    0.8496843   -4.0271355   -4.0271355    -2.752612  0.038340292   -4.0271355    1.2745235   439061 
 1066000   0.84872643     -4.02698     -4.02698   -2.7538933  0.034945753     -4.02698    1.2730868   439061 
 1067000   0.84910621    -4.026588    -4.026588   -2.7529316  0.031003508    -4.026588    1.2736564   439061 
 1068000   0.84935553    -4.027646    -4.027646   -2.7536156  0.029269967    -4.027646    1.2740304   439061 
 1069000   0.84928281   -4.0273485   -4.0273485   -2.7534272  0.038438468   -4.0273485    1.2739213   439061 
 1070000   0.85013199    -4.029379    -4.029379   -2.7541839  0.037630995    -4.029379    1.2751951   439061 
 1071000   0.84989624   -4.0299871   -4.0299871   -2.7551457  0.039419461   -4.0299871    1.2748415   439061 
 1072000   0.84934874   -4.0313459   -4.0313459   -2.7573256  0.034552422   -4.0313459    1.2740202   439061 
 1073000   0.84809376   -4.0295533   -4.0295533   -2.7574156  0.032183416   -4.0295533    1.2721377   439061 
 1074000   0.84807639   -4.0304772   -4.0304772   -2.7583655  0.035113894   -4.0304772    1.2721117   439061 
 1075000    0.8476984   -4.0306873   -4.0306873   -2.7591426   0.02877882   -4.0306873    1.2715447   439061 
 1076000   0.84828925   -4.0330135   -4.0330135   -2.7605826  0.032225665   -4.0330135     1.272431   439061 
 1077000   0.84804517   -4.0318079   -4.0318079   -2.7597431  0.036405611   -4.0318079    1.2720649   439061 
 1078000   0.84845238   -4.0329815   -4.0329815   -2.7603058  0.031266864   -4.0329815    1.2726757   439061 
 1079000   0.84821787   -4.0324057   -4.0324057   -2.7600818  0.034665194   -4.0324057    1.2723239   439061 
 1080000   0.84878423   -4.0342155   -4.0342155   -2.7610421  0.034399107   -4.0342155    1.2731735   439061 
 1081000   0.84821784    -4.033949    -4.033949   -2.7616251  0.034260503    -4.033949    1.2723239   439061 
 1082000    0.8499184   -4.0369886   -4.0369886   -2.7621139  0.034096237   -4.0369886    1.2748747   439061 
 1083000   0.84879254    -4.035903    -4.035903   -2.7627171  0.034653105    -4.035903    1.2731859   439061 
 1084000   0.84828851   -4.0358271   -4.0358271   -2.7633973  0.036020302   -4.0358271    1.2724299   439061 
 1085000   0.84941315   -4.0382845   -4.0382845   -2.7641677  0.034536601   -4.0382845    1.2741168   439061 
 1086000    0.8486502   -4.0364775   -4.0364775   -2.7635051  0.040320287   -4.0364775    1.2729724   439061 
 1087000   0.84885265      -4.0368      -4.0368   -2.7635239  0.034956464      -4.0368    1.2732761   439061 
 1088000   0.84797773   -4.0361828   -4.0361828   -2.7642191  0.036194221   -4.0361828    1.2719637   439061 
 1089000   0.84861394   -4.0382649   -4.0382649   -2.7653469  0.036241312   -4.0382649     1.272918   439061 
 1090000   0.84956584   -4.0403531   -4.0403531   -2.7660073  0.029591732   -4.0403531    1.2743459   439061 
 1091000    0.8474362     -4.03846     -4.03846   -2.7673086  0.032150268     -4.03846    1.2711514   439061 
 1092000    0.8469964   -4.0384009   -4.0384009   -2.7679092  0.032462474   -4.0384009    1.2704917   439061 
 1093000   0.84592906   -4.0381213   -4.0381213   -2.7692306  0.031179722   -4.0381213    1.2688907   439061 
 1094000    0.8463166   -4.0379955   -4.0379955   -2.7685235  0.032966644   -4.0379955     1.269472   439061 
 1095000   0.84781082   -4.0400378   -4.0400378   -2.7683245  0.029485949   -4.0400378    1.2717133   439061 
 1096000   0.84781003   -4.0405028   -4.0405028   -2.7687906  0.027126294   -4.0405028    1.2717122   439061 
 1097000   0.84856823   -4.0404499   -4.0404499   -2.7676005  0.037234442   -4.0404499    1.2728495   439061 
 1098000   0.84784755   -4.0402544   -4.0402544    -2.768486  0.038481864   -4.0402544    1.2717684   439061 
 1099000   0.84753675   -4.0407717   -4.0407717   -2.7694694   0.03537212   -4.0407717    1.2713022   439061 
 1100000   0.84645586   -4.0392354   -4.0392354   -2.7695545  0.039707171   -4.0392354    1.2696809   439061 
 1101000   0.84796666   -4.0427819   -4.0427819   -2.7708348  0.035954386   -4.0427819    1.2719471   439061 
 1102000   0.84732541   -4.0431981   -4.0431981   -2.7722129  0.035695853   -4.0431981    1.2709852   439061 
 1103000    0.8478575   -4.0446323   -4.0446323    -2.772849  0.034848287   -4.0446323    1.2717834   439061 
 1104000   0.84599927   -4.0418003   -4.0418003   -2.7728043  0.035819087   -4.0418003     1.268996   439061 
 1105000   0.84683313   -4.0432936   -4.0432936   -2.7730468  0.032508212   -4.0432936    1.2702468   439061 
 1106000    0.8459861   -4.0439464   -4.0439464   -2.7749701  0.030980365   -4.0439464    1.2689763   439061 
 1107000   0.84591586   -4.0439759   -4.0439759    -2.775105  0.033531426   -4.0439759    1.2688709   439061 
 1108000   0.84679085   -4.0450879   -4.0450879   -2.7749045   0.03624886   -4.0450879    1.2701834   439061 
 1109000   0.84734476   -4.0451985   -4.0451985   -2.7741843  0.033591499   -4.0451985    1.2710142   439061 
 1110000   0.84785317   -4.0463286   -4.0463286   -2.7745518  0.033546453   -4.0463286    1.2717769   439061 
 1111000   0.84739867   -4.0469781   -4.0469781    -2.775883  0.034145177   -4.0469781    1.2710951   439061 
 1112000   0.84637779   -4.0467911   -4.0467911   -2.7772273  0.030323085   -4.0467911    1.2695638   439061 
 1113000   0.84625772   -4.0464104   -4.0464104   -2.7770267  0.035312332   -4.0464104    1.2693837   439061 
 1114000   0.84700814   -4.0493753   -4.0493753    -2.778866  0.030024202   -4.0493753    1.2705093   439061 
 1115000   0.84628133   -4.0483536   -4.0483536   -2.7789345   0.03286577   -4.0483536    1.2694191   439061 
 1116000    0.8468282    -4.049872    -4.049872   -2.7796326  0.035930527    -4.049872    1.2702394   439061 
 1117000   0.84778347   -4.0504617   -4.0504617   -2.7787894   0.03206612   -4.0504617    1.2716723   439061 
 1118000   0.84696084   -4.0490205   -4.0490205   -2.7785821  0.035342248   -4.0490205    1.2704384   439061 
 1119000   0.84665546   -4.0490075   -4.0490075   -2.7790272  0.037300793   -4.0490075    1.2699803   439061 
 1120000   0.84697117   -4.0518663   -4.0518663   -2.7814125  0.032836636   -4.0518663    1.2704539   439061 
 1121000   0.84562059   -4.0499201   -4.0499201   -2.7814921  0.034707061   -4.0499201     1.268428   439061 
 1122000   0.84700312   -4.0522117   -4.0522117   -2.7817099  0.030751163   -4.0522117    1.2705018   439061 
 1123000   0.84566882   -4.0509866   -4.0509866   -2.7824863  0.031050438   -4.0509866    1.2685003   439061 
 1124000   0.84704782   -4.0533838   -4.0533838   -2.7828149  0.029570409   -4.0533838    1.2705688   439061 
 1125000   0.84484513   -4.0510643   -4.0510643   -2.7837995  0.036080472   -4.0510643    1.2672648   439061 
 1126000   0.84594322   -4.0535772   -4.0535772   -2.7846652  0.031525186   -4.0535772    1.2689119   439061 
 1127000   0.84553613   -4.0547293   -4.0547293    -2.786428   0.03543477   -4.0547293    1.2683013   439061 
 1128000    0.8453076   -4.0538993   -4.0538993   -2.7859408  0.036620996   -4.0538993    1.2679585   439061 
 1129000   0.84604579   -4.0552468   -4.0552468    -2.786181  0.031777805   -4.0552468    1.2690658   439061 
 1130000    0.8444917   -4.0546436   -4.0546436    -2.787909  0.037190634   -4.0546436    1.2667347   439061 
 1131000   0.84600576   -4.0586592   -4.0586592   -2.7896535  0.033277192   -4.0586592    1.2690057   439061 
 1132000   0.84627992   -4.0590663   -4.0590663   -2.7896493  0.033703213   -4.0590663     1.269417   439061 
 1133000   0.84595549   -4.0574425   -4.0574425   -2.7885121  0.041695023   -4.0574425    1.2689304   439061 
 1134000   0.84701904   -4.0589598   -4.0589598   -2.7884341  0.038786272   -4.0589598    1.2705257   439061 
 1135000   0.84618017   -4.0577331   -4.0577331   -2.7884657  0.039221522   -4.0577331    1.2692674   439061 
 1136000   0.84465286   -4.0565192   -4.0565192   -2.7895428  0.033465569   -4.0565192    1.2669764   439061 
 1137000   0.84456092   -4.0573174   -4.0573174   -2.7904789  0.033594189   -4.0573174    1.2668385   439061 
 1138000   0.84432292   -4.0574867   -4.0574867   -2.7910052  0.029301303   -4.0574867    1.2664815   439061 
 1139000   0.84503202   -4.0577429   -4.0577429   -2.7901978  0.033959151   -4.0577429    1.2675451   439061 
 1140000   0.84637368   -4.0600905   -4.0600905   -2.7905329  0.028175589   -4.0600905    1.2695576   439061 
 1141000   0.84404138   -4.0571778   -4.0571778   -2.7911186  0.028760888   -4.0571778    1.2660592   439061 
 1142000   0.84356655   -4.0548936   -4.0548936   -2.7895467  0.032328562   -4.0548936    1.2653469   439061 
 1143000   0.84408863   -4.0558047   -4.0558047   -2.7896746  0.030262944   -4.0558047    1.2661301   439061 
 1144000   0.84443726   -4.0575429   -4.0575429   -2.7908899  0.027527629   -4.0575429     1.266653   439061 
 1145000   0.84406193   -4.0565125   -4.0565125   -2.7904225  0.030615786   -4.0565125      1.26609   439061 
 1146000   0.84437335   -4.0569918   -4.0569918   -2.7904347  0.032624266   -4.0569918    1.2665571   439061 
 1147000   0.84323872   -4.0559135   -4.0559135   -2.7910583    0.0319507   -4.0559135    1.2648552   439061 
 1148000   0.84499455   -4.0588277   -4.0588277   -2.7913387  0.028414382   -4.0588277    1.2674889   439061 
 1149000   0.84432516    -4.059334    -4.059334   -2.7928491   0.03324974    -4.059334    1.2664849   439061 
 1150000   0.84596166   -4.0605961   -4.0605961   -2.7916565  0.033802471   -4.0605961    1.2689396   439061 
 1151000   0.84692933   -4.0630267   -4.0630267   -2.7926356  0.035366411   -4.0630267    1.2703911   439061 
 1152000   0.84509404   -4.0613772   -4.0613772    -2.793739  0.037957954   -4.0613772    1.2676382   439061 
 1153000   0.84489326   -4.0633629   -4.0633629   -2.7960259  0.032614975   -4.0633629     1.267337   439061 
 1154000   0.84664356   -4.0653651   -4.0653651   -2.7954027  0.031823045   -4.0653651    1.2699624   439061 
 1155000   0.84462971   -4.0623838   -4.0623838   -2.7954422   0.03537903   -4.0623838    1.2669417   439061 
 1156000   0.84553151   -4.0652341   -4.0652341   -2.7969397  0.035081128   -4.0652341    1.2682944   439061 
 1157000   0.84535272   -4.0664603   -4.0664603   -2.7984341  0.032242819   -4.0664603    1.2680262   439061 
 1158000   0.84451014   -4.0658515   -4.0658515   -2.7990891  0.039255999   -4.0658515    1.2667623   439061 
 1159000   0.84235835     -4.06407     -4.06407   -2.8005354  0.035199186     -4.06407    1.2635347   439061 
 1160000   0.84274514   -4.0643048   -4.0643048   -2.8001899  0.030701005   -4.0643048    1.2641148   439061 
 1161000   0.84264628    -4.065244    -4.065244   -2.8012774   0.03453667    -4.065244    1.2639665   439061 
 1162000   0.84298993   -4.0669586   -4.0669586   -2.8024766  0.033109646   -4.0669586     1.264482   439061 
 1163000   0.84359856   -4.0680926   -4.0680926   -2.8026977  0.033373254   -4.0680926     1.265395   439061 
 1164000   0.84286229   -4.0668986   -4.0668986   -2.8026081  0.033531804   -4.0668986    1.2642906   439061 
 1165000   0.84379182   -4.0684943   -4.0684943   -2.8028095  0.034130313   -4.0684943    1.2656848   439061 
 1166000   0.84263663   -4.0681855   -4.0681855   -2.8042334  0.032648764   -4.0681855    1.2639521   439061 
 1167000   0.84250639   -4.0679903   -4.0679903   -2.8042336  0.032921877   -4.0679903    1.2637567   439061 
 1168000   0.84341011   -4.0696283   -4.0696283   -2.8045161   0.02793618   -4.0696283    1.2651123   439061 
 1169000   0.84258165   -4.0676238   -4.0676238   -2.8037542  0.034455645   -4.0676238    1.2638696   439061 
 1170000   0.84234596   -4.0679749   -4.0679749   -2.8044588  0.037006783   -4.0679749    1.2635161   439061 
 1171000   0.84322069   -4.0691097   -4.0691097   -2.8042816  0.033369958   -4.0691097    1.2648282   439061 
 1172000   0.84317341   -4.0694882   -4.0694882    -2.804731  0.035796412   -4.0694882    1.2647572   439061 
 1173000   0.84515964   -4.0730028   -4.0730028   -2.8052663  0.036815488   -4.0730028    1.2677366   439061 
 1174000   0.84408755   -4.0710997   -4.0710997   -2.8049712  0.031944069   -4.0710997    1.2661284   439061 
 1175000    0.8430432   -4.0707552   -4.0707552   -2.8061933  0.034548321   -4.0707552    1.2645619   439061 
 1176000   0.84330559   -4.0716205   -4.0716205    -2.806665  0.029724914   -4.0716205    1.2649555   439061 
 1177000   0.84251373   -4.0710779   -4.0710779   -2.8073102  0.031403008   -4.0710779    1.2637677   439061 
 1178000   0.84200308   -4.0711765   -4.0711765   -2.8081747   0.03057269   -4.0711765    1.2630017   439061 
 1179000   0.84289518   -4.0724671   -4.0724671   -2.8081273  0.027458267   -4.0724671    1.2643399   439061 
 1180000   0.84160072    -4.071124    -4.071124   -2.8087258  0.036010944    -4.071124    1.2623982   439061 
 1181000   0.84255353   -4.0733408   -4.0733408   -2.8095134  0.034147478   -4.0733408    1.2638274   439061 
 1182000   0.84258537   -4.0735978   -4.0735978   -2.8097226  0.034810318   -4.0735978    1.2638752   439061 
 1183000   0.84374123   -4.0738593   -4.0738593   -2.8082504  0.039357631   -4.0738593     1.265609   439061 
 1184000   0.84340266   -4.0754773   -4.0754773   -2.8103762  0.030715051   -4.0754773    1.2651011   439061 
 1185000   0.84310726   -4.0756097   -4.0756097   -2.8109517  0.032001562   -4.0756097     1.264658   439061 
 1186000   0.84204811   -4.0749077   -4.0749077   -2.8118384  0.036024839   -4.0749077    1.2630693   439061 
 1187000   0.84207921   -4.0749439   -4.0749439    -2.811828  0.036087959   -4.0749439    1.2631159   439061 
 1188000   0.84283342   -4.0763286   -4.0763286   -2.8120813   0.03483875   -4.0763286    1.2642473   439061 
 1189000   0.84377379   -4.0779637   -4.0779637   -2.8123059  0.031041709   -4.0779637    1.2656578   439061 
 1190000   0.84311086   -4.0764715   -4.0764715   -2.8118081  0.032176155   -4.0764715    1.2646634   439061 
 1191000   0.84282059   -4.0756988   -4.0756988   -2.8114708  0.037254884   -4.0756988     1.264228   439061 
 1192000   0.84307498   -4.0766816   -4.0766816    -2.812072  0.032701466   -4.0766816    1.2646096   439061 
 1193000    0.8437508   -4.0783448   -4.0783448   -2.8127215  0.034390716   -4.0783448    1.2656233   439061 
 1194000   0.84182244   -4.0763327   -4.0763327   -2.8136019  0.030886695   -4.0763327    1.2627308   439061 
 1195000   0.84218307    -4.076679    -4.076679   -2.8134073  0.029788387    -4.076679    1.2632717   439061 
 1196000   0.84130776    -4.076386    -4.076386   -2.8144272  0.024315938    -4.076386    1.2619588   439061 
 1197000     0.841964   -4.0779858   -4.0779858   -2.8150427  0.026156677   -4.0779858    1.2629431   439061 
 1198000   0.84122851   -4.0766027   -4.0766027   -2.8147628  0.029436246   -4.0766027    1.2618399   439061 
 1199000    0.8409771   -4.0758232   -4.0758232   -2.8143604  0.033750022   -4.0758232    1.2614628   439061 
 1200000   0.84145723   -4.0774604   -4.0774604   -2.8152774  0.033328227   -4.0774604     1.262183   439061 
 1201000   0.84324567   -4.0810486   -4.0810486    -2.816183  0.026815654   -4.0810486    1.2648656   439061 
 1202000   0.84163493    -4.077906    -4.077906   -2.8154565  0.036920695    -4.077906    1.2624495   439061 
 1203000   0.84170727   -4.0793935   -4.0793935   -2.8168355  0.034857332   -4.0793935     1.262558   439061 
 1204000   0.84299207   -4.0821014   -4.0821014   -2.8176161  0.033078204   -4.0821014    1.2644852   439061 
 1205000   0.84223957   -4.0817459   -4.0817459   -2.8183895  0.033261373   -4.0817459    1.2633565   439061 
 1206000    0.8422913    -4.082168    -4.082168   -2.8187339  0.034631424    -4.082168    1.2634341   439061 
 1207000   0.84217577   -4.0823309   -4.0823309   -2.8190701   0.03028393   -4.0823309    1.2632608   439061 
 1208000    0.8438113   -4.0848947   -4.0848947   -2.8191807  0.031455329   -4.0848947    1.2657141   439061 
 1209000   0.84405242   -4.0840105   -4.0840105   -2.8179347   0.03100605   -4.0840105    1.2660757   439061 
 1210000   0.84327041   -4.0829371   -4.0829371   -2.8180344  0.032733839   -4.0829371    1.2649027   439061 
 1211000   0.84243843   -4.0828416   -4.0828416   -2.8191868    0.0323702   -4.0828416    1.2636548   439061 
 1212000   0.84099211   -4.0823129   -4.0823129   -2.8208276  0.032675214   -4.0823129    1.2614853   439061 
 1213000   0.84105809   -4.0842312   -4.0842312    -2.822647  0.027131239   -4.0842312    1.2615843   439061 
 1214000   0.84121651   -4.0844329   -4.0844329    -2.822611  0.028978185   -4.0844329    1.2618219   439061 
 1215000   0.84124484   -4.0846409   -4.0846409   -2.8227765  0.023762738   -4.0846409    1.2618644   439061 
 1216000   0.84078347   -4.0838844   -4.0838844    -2.822712  0.033584384   -4.0838844    1.2611723   439061 
 1217000   0.84254947   -4.0864494   -4.0864494   -2.8226281  0.033158402   -4.0864494    1.2638213   439061 
 1218000   0.84197707   -4.0863131   -4.0863131   -2.8233504   0.03786103   -4.0863131    1.2629627   439061 
 1219000    0.8418286   -4.0852005   -4.0852005   -2.8224604  0.034750964   -4.0852005      1.26274   439061 
 1220000   0.84207029   -4.0863875   -4.0863875    -2.823285  0.038783031   -4.0863875    1.2631026   439061 
 1221000   0.84245306   -4.0885154   -4.0885154   -2.8248387  0.029937272   -4.0885154    1.2636767   439061 
 1222000   0.84008927   -4.0865567   -4.0865567   -2.8264256  0.034489854   -4.0865567     1.260131   439061 
 1223000   0.84112942   -4.0898174   -4.0898174   -2.8281261  0.028783985   -4.0898174    1.2616913   439061 
 1224000   0.84100257   -4.0899943   -4.0899943   -2.8284933  0.027579021   -4.0899943     1.261501   439061 
 1225000   0.84153402   -4.0900672   -4.0900672    -2.827769  0.027822043   -4.0900672    1.2622982   439061 
 1226000   0.84170302   -4.0917847   -4.0917847    -2.829233  0.031081627   -4.0917847    1.2625517   439061 
 1227000   0.84187788   -4.0931162   -4.0931162   -2.8303023  0.030210099   -4.0931162    1.2628139   439061 
 1228000   0.84067575   -4.0916456   -4.0916456   -2.8306348  0.028640828   -4.0916456    1.2610107   439061 
 1229000   0.84018036   -4.0905501   -4.0905501   -2.8302824  0.032780051   -4.0905501    1.2602677   439061 
 1230000   0.84189937   -4.0924239   -4.0924239   -2.8295777  0.028591912   -4.0924239    1.2628462   439061 
 1231000   0.84157578   -4.0933485   -4.0933485   -2.8309877  0.033125115   -4.0933485    1.2623608   439061 
 1232000   0.84001268   -4.0920251   -4.0920251   -2.8320089  0.031627209   -4.0920251    1.2600161   439061 
 1233000   0.83950475   -4.0922514   -4.0922514   -2.8329971  0.031757248   -4.0922514    1.2592543   439061 
 1234000   0.83936548   -4.0932281   -4.0932281   -2.8341827  0.027657377   -4.0932281    1.2590454   439061 
 1235000    0.8399926   -4.0932378   -4.0932378   -2.8332517  0.030029535   -4.0932378     1.259986   439061 
 1236000   0.83965401   -4.0942013   -4.0942013   -2.8347231  0.028565262   -4.0942013    1.2594781   439061 
 1237000   0.83906264   -4.0927972   -4.0927972   -2.8342061  0.028214212   -4.0927972    1.2585911   439061 
 1238000   0.83984814   -4.0933823   -4.0933823    -2.833613  0.032201961   -4.0933823    1.2597693   439061 
 1239000   0.83825464   -4.0924569   -4.0924569   -2.8350778  0.037514441   -4.0924569    1.2573791   439061 
 1240000   0.83940243   -4.0950546   -4.0950546   -2.8359539  0.032537835   -4.0950546    1.2591008   439061 
 1241000   0.83933348   -4.0957951   -4.0957951   -2.8367978  0.028855108   -4.0957951    1.2589974   439061 
 1242000   0.83973789   -4.0963519   -4.0963519   -2.8367479   0.02657135   -4.0963519     1.259604   439061 
 1243000   0.84161073    -4.098374    -4.098374   -2.8359608   0.02551468    -4.098374    1.2624132   439061 
 1244000   0.84076583   -4.0975606   -4.0975606   -2.8364147  0.029661859   -4.0975606    1.2611459   439061 
 1245000   0.83973562   -4.0981395   -4.0981395    -2.838539   0.03210799   -4.0981395    1.2596006   439061 
 1246000   0.84047887   -4.0998265   -4.0998265   -2.8391111  0.032278878   -4.0998265    1.2607154   439061 
 1247000   0.84070966   -4.0992464   -4.0992464   -2.8381848  0.030735517   -4.0992464    1.2610616   439061 
 1248000   0.84008534   -4.0995498   -4.0995498   -2.8394247  0.030058333   -4.0995498    1.2601251   439061 
 1249000   0.83973374   -4.0986959   -4.0986959   -2.8390982   0.02948295   -4.0986959    1.2595977   439061 
 1250000    0.8399544   -4.0991055   -4.0991055   -2.8391768  0.032722129   -4.0991055    1.2599287   439061 
 1251000   0.84111014   -4.1007939   -4.1007939   -2.8391316  0.027041298   -4.1007939    1.2616623   439061 
 1252000   0.84058609   -4.1004479   -4.1004479   -2.8395716  0.033304251   -4.1004479    1.2608763   439061 
 1253000   0.83888451   -4.0979959   -4.0979959    -2.839672  0.031795808   -4.0979959    1.2583239   439061 
 1254000    0.8394027   -4.0987581   -4.0987581   -2.8396569   0.03085665   -4.0987581    1.2591012   439061 
 1255000   0.83961262   -4.0990171   -4.0990171    -2.839601  0.028694968   -4.0990171    1.2594161   439061 
 1256000   0.83917583   -4.0993749   -4.0993749    -2.840614  0.023602961   -4.0993749    1.2587609   439061 
 1257000   0.83788988    -4.099294    -4.099294    -2.842462  0.029027615    -4.099294     1.256832   439061 
 1258000   0.83914501   -4.1007783   -4.1007783   -2.8420636  0.028323184   -4.1007783    1.2587146   439061 
 1259000   0.83838032   -4.1003353   -4.1003353   -2.8427677   0.02896988   -4.1003353    1.2575676   439061 
 1260000   0.83883422   -4.1002153   -4.1002153   -2.8419669  0.025918459   -4.1002153    1.2582485   439061 
 1261000   0.84020776   -4.1017269   -4.1017269   -2.8414181   0.02971519   -4.1017269    1.2603088   439061 
 1262000    0.8404134   -4.1032192   -4.1032192   -2.8426019  0.032802484   -4.1032192    1.2606172   439061 
 1263000   0.84027669   -4.1037745   -4.1037745   -2.8433624  0.032008547   -4.1037745    1.2604122   439061 
 1264000   0.83941365     -4.10269     -4.10269   -2.8435724  0.034554751     -4.10269    1.2591176   439061 
 1265000   0.83995758   -4.1042812   -4.1042812   -2.8443477  0.029611978   -4.1042812    1.2599335   439061 
 1266000   0.83935987   -4.1029798   -4.1029798   -2.8439428    0.0308924   -4.1029798    1.2590369   439061 
 1267000   0.83861367   -4.1044272   -4.1044272   -2.8465096  0.030479856   -4.1044272    1.2579176   439061 
 1268000   0.83710425   -4.1034188   -4.1034188   -2.8477653  0.029298498   -4.1034188    1.2556535   439061 
 1269000   0.83706953   -4.1030821   -4.1030821   -2.8474806  0.030298991   -4.1030821    1.2556014   439061 
 1270000    0.8379707   -4.1048295   -4.1048295   -2.8478764  0.034140158   -4.1048295    1.2569532   439061 
 1271000   0.83902229   -4.1050511   -4.1050511   -2.8465206  0.030679558   -4.1050511    1.2585306   439061 
 1272000   0.83869463    -4.105635    -4.105635    -2.847596  0.029648559    -4.105635    1.2580391   439061 
 1273000   0.83922735   -4.1073435   -4.1073435   -2.8485053  0.026175462   -4.1073435    1.2588382   439061 
 1274000   0.83931077   -4.1081384   -4.1081384   -2.8491751  0.025796007   -4.1081384    1.2589633   439061 
 1275000   0.83808933   -4.1066668   -4.1066668   -2.8495357   0.02737657   -4.1066668    1.2571311   439061 
 1276000   0.83876563   -4.1075776   -4.1075776    -2.849432  0.031496749   -4.1075776    1.2581456   439061 
 1277000   0.84074648   -4.1101812   -4.1101812   -2.8490644  0.032461102   -4.1101812    1.2611168   439061 
 1278000   0.83944647   -4.1088857   -4.1088857   -2.8497189  0.032567673   -4.1088857    1.2591668   439061 
 1279000   0.83929257   -4.1088691   -4.1088691   -2.8499331  0.032796897   -4.1088691     1.258936   439061 
 1280000   0.83942621    -4.110667    -4.110667   -2.8515305  0.032290143    -4.110667    1.2591364   439061 
 1281000   0.83804929   -4.1110168   -4.1110168   -2.8539457    0.0267258   -4.1110168    1.2570711   439061 
 1282000   0.83591566   -4.1069258   -4.1069258   -2.8530551  0.031341626   -4.1069258    1.2538706   439061 
 1283000   0.83728964   -4.1099113   -4.1099113   -2.8539797  0.027526954   -4.1099113    1.2559316   439061 
 1284000   0.83842963   -4.1128946   -4.1128946   -2.8552531  0.021769275   -4.1128946    1.2576416   439061 
 1285000   0.83640507   -4.1116534   -4.1116534   -2.8570486  0.027416794   -4.1116534    1.2546047   439061 
 1286000   0.83717561   -4.1119387   -4.1119387   -2.8561782  0.027850381   -4.1119387    1.2557606   439061 
 1287000    0.8382815   -4.1125257   -4.1125257   -2.8551063  0.032775044   -4.1125257    1.2574194   439061 
 1288000    0.8393552   -4.1149028   -4.1149028   -2.8558729  0.031835094   -4.1149028    1.2590299   439061 
 1289000   0.83864149   -4.1153435   -4.1153435   -2.8573841  0.031953607   -4.1153435    1.2579594   439061 
 1290000   0.83841702   -4.1155259   -4.1155259   -2.8579033  0.031287173   -4.1155259    1.2576227   439061 
 1291000   0.83923555   -4.1151805   -4.1151805   -2.8563301  0.032719791   -4.1151805    1.2588505   439061 
 1292000   0.83946276   -4.1149894   -4.1149894   -2.8557981  0.035272078   -4.1149894    1.2591913   439061 
 1293000   0.83942282   -4.1158983   -4.1158983   -2.8567669   0.03519765   -4.1158983    1.2591314   439061 
 1294000   0.83939105   -4.1169988   -4.1169988    -2.857915  0.031671092   -4.1169988    1.2590837   439061 
 1295000   0.83894513   -4.1165028   -4.1165028    -2.858088  0.034483847   -4.1165028    1.2584148   439061 
 1296000   0.83719258   -4.1146257   -4.1146257   -2.8588397  0.029203623   -4.1146257     1.255786   439061 
 1297000   0.83751696   -4.1151388   -4.1151388   -2.8588662    0.0246879   -4.1151388    1.2562726   439061 
 1298000   0.83728563   -4.1149375   -4.1149375   -2.8590119  0.023797022   -4.1149375    1.2559256   439061 
 1299000   0.83510685   -4.1128066   -4.1128066   -2.8601492  0.027226467   -4.1128066    1.2526574   439061 
 1300000   0.83605782   -4.1145353   -4.1145353   -2.8604514  0.023252246   -4.1145353    1.2540839   439061 
 1301000   0.83671347   -4.1146465   -4.1146465   -2.8595791  0.027854399   -4.1146465    1.2550674   439061 
 1302000   0.83852153   -4.1157679   -4.1157679   -2.8579885  0.026087427   -4.1157679    1.2577794   439061 
 1303000   0.83783393   -4.1159167   -4.1159167   -2.8591687  0.026657786   -4.1159167     1.256748   439061 
 1304000    0.8378668   -4.1171662   -4.1171662   -2.8603688  0.026525026   -4.1171662    1.2567973   439061 
 1305000   0.83737861   -4.1183439   -4.1183439   -2.8622788  0.028925576   -4.1183439    1.2560651   439061 
 1306000   0.83718701   -4.1173613   -4.1173613   -2.8615836  0.029196112   -4.1173613    1.2557777   439061 
 1307000   0.83764394   -4.1186558   -4.1186558   -2.8621927  0.030002036   -4.1186558     1.256463   439061 
 1308000   0.83768341     -4.11964     -4.11964   -2.8631177  0.027531073     -4.11964    1.2565222   439061 
 1309000   0.83818607   -4.1203225   -4.1203225   -2.8630463  0.035800224   -4.1203225    1.2572762   439061 
 1310000   0.83933515   -4.1225594   -4.1225594   -2.8635596  0.027658469   -4.1225594    1.2589999   439061 
 1311000   0.83784689   -4.1203207   -4.1203207   -2.8635532  0.034884032   -4.1203207    1.2567675   439061 
 1312000      0.83805   -4.1204398   -4.1204398   -2.8633677   0.03092017   -4.1204398    1.2570721   439061 
 1313000   0.83797917   -4.1205462   -4.1205462   -2.8635803  0.035194654   -4.1205462    1.2569659   439061 
 1314000   0.83684918   -4.1195754   -4.1195754   -2.8643044  0.030565068   -4.1195754    1.2552709   439061 
 1315000   0.83594471   -4.1194454   -4.1194454   -2.8655312   0.03343636   -4.1194454    1.2539142   439061 
 1316000   0.83739122   -4.1219914   -4.1219914   -2.8659074   0.03105544   -4.1219914     1.256084   439061 
 1317000   0.83669843   -4.1215555   -4.1215555   -2.8665107  0.026750169   -4.1215555    1.2550448   439061 
 1318000   0.83591875   -4.1213819   -4.1213819   -2.8675066  0.021016626   -4.1213819    1.2538753   439061 
 1319000   0.83563961   -4.1220336   -4.1220336    -2.868577  0.024138449   -4.1220336    1.2534566   439061 
 1320000   0.83457475   -4.1198895   -4.1198895   -2.8680302  0.026028967   -4.1198895    1.2518593   439061 
 1321000   0.83692702   -4.1231703   -4.1231703   -2.8677826  0.029494163   -4.1231703    1.2553877   439061 
 1322000   0.83792991   -4.1237088   -4.1237088   -2.8668168  0.031130712   -4.1237088     1.256892   439061 
 1323000   0.83721579   -4.1241003   -4.1241003   -2.8682795   0.02771788   -4.1241003    1.2558208   439061 
 1324000   0.83774433    -4.126013    -4.126013   -2.8693994    0.0244925    -4.126013    1.2566136   439061 
 1325000   0.83554482   -4.1241507   -4.1241507   -2.8708363  0.027883879   -4.1241507    1.2533144   439061 
 1326000   0.83589671   -4.1260123   -4.1260123   -2.8721701  0.027119656   -4.1260123    1.2538422   439061 
 1327000   0.83653518   -4.1262259   -4.1262259    -2.871426  0.031511168   -4.1262259    1.2547999   439061 
 1328000   0.83779419   -4.1289821   -4.1289821   -2.8722936  0.027028137   -4.1289821    1.2566884   439061 
 1329000   0.83853096    -4.130838    -4.130838   -2.8730445  0.024715575    -4.130838    1.2577936   439061 
 1330000   0.83680135   -4.1272669   -4.1272669   -2.8720677  0.037025734   -4.1272669    1.2551992   439061 
 1331000   0.83580452   -4.1271238   -4.1271238   -2.8734198  0.037687059   -4.1271238    1.2537039   439061 
 1332000   0.83624258   -4.1278693   -4.1278693   -2.8735083  0.036252504   -4.1278693     1.254361   439061 
 1333000   0.83546068   -4.1293354   -4.1293354   -2.8761472  0.029124008   -4.1293354    1.2531882   439061 
 1334000    0.8353631     -4.12823     -4.12823   -2.8751882  0.032225926     -4.12823    1.2530418   439061 
 1335000   0.83535914   -4.1291272   -4.1291272   -2.8760913  0.025633876   -4.1291272    1.2530359   439061 
 1336000   0.83599544   -4.1293786   -4.1293786   -2.8753883  0.025089818   -4.1293786    1.2539903   439061 
 1337000    0.8357284   -4.1292691   -4.1292691   -2.8756794  0.026012204   -4.1292691    1.2535897   439061 
 1338000   0.83620682   -4.1301881   -4.1301881   -2.8758807  0.029711831   -4.1301881    1.2543074   439061 
 1339000   0.83483077   -4.1287112   -4.1287112   -2.8764679  0.025738894   -4.1287112    1.2522433   439061 
 1340000   0.83579724   -4.1287448   -4.1287448   -2.8750518  0.023545365   -4.1287448     1.253693   439061 
 1341000   0.83464757   -4.1272893   -4.1272893   -2.8753208  0.031723015   -4.1272893    1.2519685   439061 
 1342000   0.83623454   -4.1301034   -4.1301034   -2.8757545   0.02726788   -4.1301034     1.254349   439061 
 1343000   0.83596682    -4.130507    -4.130507   -2.8765597  0.029546307    -4.130507    1.2539474   439061 
 1344000   0.83709066   -4.1329659   -4.1329659   -2.8773328  0.024224407   -4.1329659    1.2556331   439061 
 1345000   0.83558679   -4.1305536   -4.1305536   -2.8771763  0.032741014   -4.1305536    1.2533773   439061 
 1346000   0.83472639   -4.1314196   -4.1314196   -2.8793329  0.026335334   -4.1314196    1.2520867   439061 
 1347000    0.8336419   -4.1320617   -4.1320617   -2.8816017  0.027086572   -4.1320617      1.25046   439061 
 1348000   0.83408579   -4.1330685   -4.1330685   -2.8819427  0.029738073   -4.1330685    1.2511258   439061 
 1349000   0.83557248   -4.1356482   -4.1356482   -2.8822923    0.0259268   -4.1356482    1.2533559   439061 
 1350000   0.83657143   -4.1368896   -4.1368896   -2.8820353  0.031949351   -4.1368896    1.2548543   439061 
 1351000   0.83563325   -4.1357835   -4.1357835   -2.8823365  0.030236311   -4.1357835     1.253447   439061 
 1352000   0.83634054   -4.1377225   -4.1377225   -2.8832145  0.026776052   -4.1377225     1.254508   439061 
 1353000   0.83464859   -4.1374886   -4.1374886   -2.8855186  0.031479985   -4.1374886      1.25197   439061 
 1354000   0.83390371   -4.1375057   -4.1375057    -2.886653  0.028417872   -4.1375057    1.2508527   439061 
 1355000   0.83579609   -4.1395825   -4.1395825   -2.8858912  0.027538445   -4.1395825    1.2536913   439061 
 1356000     0.835808     -4.13851     -4.13851   -2.8848008  0.033268946     -4.13851    1.2537091   439061 
 1357000   0.83576859   -4.1399968   -4.1399968   -2.8863467  0.026979754   -4.1399968      1.25365   439061 
 1358000    0.8361676   -4.1401935   -4.1401935    -2.885945  0.032979501   -4.1401935    1.2542486   439061 
 1359000   0.83552907   -4.1390257   -4.1390257    -2.885735  0.029502394   -4.1390257    1.2532907   439061 
 1360000   0.83511976   -4.1393941   -4.1393941   -2.8867174  0.031771736   -4.1393941    1.2526768   439061 
 1361000   0.83442095   -4.1388797   -4.1388797   -2.8872512   0.03144986   -4.1388797    1.2516286   439061 
 1362000   0.83527286   -4.1400802   -4.1400802   -2.8871738  0.028641849   -4.1400802    1.2529064   439061 
 1363000   0.83425655   -4.1383822   -4.1383822   -2.8870003  0.028833986   -4.1383822     1.251382   439061 
 1364000   0.83260698   -4.1354432   -4.1354432   -2.8865356  0.028320907   -4.1354432    1.2489076   439061 
 1365000   0.83437656   -4.1366337   -4.1366337   -2.8850718  0.033212671   -4.1366337     1.251562   439061 
 1366000   0.83428815   -4.1384737   -4.1384737   -2.8870443  0.022004251   -4.1384737    1.2514294   439061 
 1367000   0.83446652   -4.1398817   -4.1398817   -2.8881848  0.021028256   -4.1398817    1.2516969   439061 
 1368000   0.83258366   -4.1366119   -4.1366119   -2.8877393  0.026009778   -4.1366119    1.2488726   439061 
 1369000   0.83258623   -4.1359081   -4.1359081   -2.8870316  0.022638157   -4.1359081    1.2488765   439061 
 1370000   0.83261134    -4.136192    -4.136192   -2.8872778  0.025627617    -4.136192    1.2489142   439061 
 1371000   0.83366597   -4.1373626   -4.1373626   -2.8868664  0.028885338   -4.1373626    1.2504961   439061 
 1372000   0.83539368   -4.1406128   -4.1406128   -2.8875251  0.026839201   -4.1406128    1.2530877   439061 
 1373000   0.83329554   -4.1380278   -4.1380278   -2.8880874  0.029828184   -4.1380278    1.2499405   439061 
 1374000    0.8340186   -4.1392961   -4.1392961    -2.888271  0.026555258   -4.1392961    1.2510251   439061 
 1375000   0.83399661   -4.1405166   -4.1405166   -2.8895246  0.027043666   -4.1405166    1.2509921   439061 
 1376000   0.83381358   -4.1404317   -4.1404317   -2.8897141  0.029215735   -4.1404317    1.2507175   439061 
 1377000   0.83377376   -4.1411367   -4.1411367   -2.8904789  0.030644865   -4.1411367    1.2506578   439061 
 1378000   0.83485092   -4.1434342   -4.1434342   -2.8911607   0.02938493   -4.1434342    1.2522735   439061 
 1379000   0.83416864   -4.1431706   -4.1431706   -2.8919205  0.034591567   -4.1431706    1.2512501   439061 
 1380000   0.83393254   -4.1433799   -4.1433799   -2.8924839  0.032965203   -4.1433799     1.250896   439061 
 1381000   0.83389758   -4.1436878   -4.1436878   -2.8928443  0.029598473   -4.1436878    1.2508435   439061 
 1382000   0.83274535   -4.1419524   -4.1419524   -2.8928372  0.037280334   -4.1419524    1.2491152   439061 
 1383000   0.83383933   -4.1439743   -4.1439743   -2.8932182  0.031006053   -4.1439743    1.2507561   439061 
 1384000   0.83338697   -4.1434452   -4.1434452   -2.8933676  0.031700941   -4.1434452    1.2500776   439061 
 1385000   0.83337503   -4.1432094   -4.1432094   -2.8931497   0.02343967   -4.1432094    1.2500597   439061 
 1386000   0.83225066   -4.1414477   -4.1414477   -2.8930746   0.03133777   -4.1414477    1.2483731   439061 
 1387000    0.8313263   -4.1403448   -4.1403448   -2.8933582  0.031851874   -4.1403448    1.2469866   439061 
 1388000   0.83303113   -4.1438776   -4.1438776   -2.8943337  0.024383307   -4.1438776    1.2495438   439061 
 1389000   0.83294018    -4.144145    -4.144145   -2.8947376  0.021759832    -4.144145    1.2494074   439061 
 1390000   0.83317068   -4.1438966   -4.1438966   -2.8941434  0.023206764   -4.1438966    1.2497532   439061 
 1391000   0.83290229   -4.1441479   -4.1441479   -2.8947973  0.027962506   -4.1441479    1.2493506   439061 
 1392000    0.8329963   -4.1434581   -4.1434581   -2.8939665  0.025774383   -4.1434581    1.2494916   439061 
 1393000   0.83305488   -4.1433822   -4.1433822   -2.8938027  0.030527773   -4.1433822    1.2495795   439061 
 1394000    0.8327329   -4.1432483   -4.1432483   -2.8941518   0.02888889   -4.1432483    1.2490965   439061 
 1395000   0.83424578   -4.1455273   -4.1455273   -2.8941615  0.029741265   -4.1455273    1.2513658   439061 
 1396000    0.8333434    -4.145526    -4.145526   -2.8955137   0.02875572    -4.145526    1.2500123   439061 
 1397000   0.83275343   -4.1446284   -4.1446284   -2.8955011  0.028118449   -4.1446284    1.2491273   439061 
 1398000   0.83234547     -4.14596     -4.14596   -2.8974446  0.024084573     -4.14596    1.2485154   439061 
 1399000   0.83149282   -4.1454268   -4.1454268   -2.8981904  0.024908538   -4.1454268    1.2472364   439061 
 1400000   0.83248852   -4.1467725   -4.1467725   -2.8980425  0.024413279   -4.1467725    1.2487299   439061 
 1401000   0.83270747   -4.1479311   -4.1479311   -2.8988727  0.023253436   -4.1479311    1.2490584   439061 
 1402000   0.83346452   -4.1483432   -4.1483432   -2.8981492  0.026117268   -4.1483432    1.2501939   439061 
 1403000   0.83339867   -4.1480354   -4.1480354   -2.8979402  0.031318983   -4.1480354    1.2500952   439061 
 1404000   0.83287785    -4.148714    -4.148714   -2.8994001   0.02265518    -4.148714    1.2493139   439061 
 1405000   0.83229541   -4.1489264   -4.1489264   -2.9004861   0.02487677   -4.1489264    1.2484403   439061 
 1406000   0.83185635   -4.1491691   -4.1491691   -2.9013874   0.02290989   -4.1491691    1.2477817   439061 
 1407000   0.83119559   -4.1478534   -4.1478534   -2.9010628  0.026829467   -4.1478534    1.2467905   439061 
 1408000   0.83302013   -4.1503736   -4.1503736   -2.9008462  0.025806461   -4.1503736    1.2495274   439061 
 1409000   0.83228734   -4.1491227   -4.1491227   -2.9006945  0.027140838   -4.1491227    1.2484282   439061 
 1410000   0.83360007    -4.151886    -4.151886   -2.9014887  0.028892758    -4.151886    1.2503972   439061 
 1411000   0.83338545   -4.1527637   -4.1527637   -2.9026884  0.028756269   -4.1527637    1.2500753   439061 
 1412000   0.83329514   -4.1527124   -4.1527124   -2.9027725    0.0284433   -4.1527124    1.2499399   439061 
 1413000   0.83212543   -4.1513703   -4.1513703    -2.903185  0.030078051   -4.1513703    1.2481853   439061 
 1414000    0.8311351   -4.1514741   -4.1514741   -2.9047743  0.027177721   -4.1514741    1.2466998   439061 
 1415000   0.83272082   -4.1536401   -4.1536401   -2.9045617  0.030404197   -4.1536401    1.2490784   439061 
 1416000   0.83130061   -4.1532909   -4.1532909   -2.9063428  0.025498428   -4.1532909    1.2469481   439061 
 1417000   0.83192752   -4.1529498   -4.1529498   -2.9050614  0.030094902   -4.1529498    1.2478884   439061 
 1418000   0.83230554   -4.1543808   -4.1543808   -2.9059253  0.028645232   -4.1543808    1.2484555   439061 
 1419000   0.83218351   -4.1544459   -4.1544459   -2.9061735  0.026542188   -4.1544459    1.2482724   439061 
 1420000   0.83136277   -4.1530408   -4.1530408   -2.9059995  0.029333038   -4.1530408    1.2470413   439061 
 1421000   0.83165382   -4.1545551   -4.1545551   -2.9070772  0.025607008   -4.1545551    1.2474779   439061 
 1422000   0.83140803   -4.1548516   -4.1548516   -2.9077424  0.025055866   -4.1548516    1.2471092   439061 
 1423000   0.83215455   -4.1559247   -4.1559247   -2.9076958  0.025385116   -4.1559247     1.248229   439061 
 1424000   0.82976259   -4.1534911   -4.1534911     -2.90885  0.030526311   -4.1534911    1.2446411   439061 
 1425000   0.82995709    -4.154895    -4.154895   -2.9099622   0.02696589    -4.154895    1.2449328   439061 
 1426000   0.83040053    -4.155352    -4.155352    -2.909754  0.029845077    -4.155352     1.245598   439061 
 1427000   0.83129409   -4.1566256   -4.1566256   -2.9096873  0.030951391   -4.1566256    1.2469383   439061 
 1428000   0.83109541   -4.1570425   -4.1570425   -2.9104022  0.026754041   -4.1570425    1.2466403   439061 
 1429000   0.83023739    -4.156518    -4.156518   -2.9111647  0.028138745    -4.156518    1.2453532   439061 
 1430000   0.83026763   -4.1563137   -4.1563137   -2.9109151  0.032276387   -4.1563137    1.2453986   439061 
 1431000   0.83008509   -4.1566135   -4.1566135   -2.9114887  0.031316711   -4.1566135    1.2451248   439061 
 1432000   0.83207479   -4.1598884   -4.1598884   -2.9117791  0.022303074   -4.1598884    1.2481093   439061 
 1433000   0.82929658   -4.1566312   -4.1566312   -2.9126891  0.025545321   -4.1566312     1.243942   439061 
 1434000   0.83163187   -4.1604631   -4.1604631   -2.9130182  0.025781139   -4.1604631     1.247445   439061 
 1435000    0.8309215   -4.1603127   -4.1603127   -2.9139333  0.026219032   -4.1603127    1.2463794   439061 
 1436000   0.83049377   -4.1590991   -4.1590991   -2.9133613  0.022341505   -4.1590991    1.2457378   439061 
 1437000   0.83068999   -4.1595073   -4.1595073   -2.9134751  0.025087382   -4.1595073    1.2460321   439061 
 1438000   0.83143222   -4.1607243   -4.1607243   -2.9135788  0.030493452   -4.1607243    1.2471455   439061 
 1439000   0.83185692   -4.1611375   -4.1611375    -2.913355  0.026878917   -4.1611375    1.2477825   439061 
 1440000   0.83227012   -4.1616466   -4.1616466   -2.9132443  0.031192389   -4.1616466    1.2484023   439061 
 1441000   0.83174229   -4.1608298   -4.1608298   -2.9132192   0.02988227   -4.1608298    1.2476106   439061 
 1442000   0.83153245    -4.161183    -4.161183   -2.9138872   0.02785515    -4.161183    1.2472958   439061 
 1443000   0.83130369   -4.1620632   -4.1620632   -2.9151105  0.026032065   -4.1620632    1.2469527   439061 
 1444000   0.82985698   -4.1600879   -4.1600879   -2.9153053  0.025896759   -4.1600879    1.2447826   439061 
 1445000   0.83104742   -4.1622358   -4.1622358   -2.9156675  0.020733586   -4.1622358    1.2465683   439061 
 1446000   0.83039273   -4.1617967   -4.1617967   -2.9162105  0.025020082   -4.1617967    1.2455863   439061 
 1447000   0.83005621   -4.1610073   -4.1610073   -2.9159259  0.027902447   -4.1610073    1.2450815   439061 
 1448000   0.83238872   -4.1627648   -4.1627648   -2.9141846  0.024723701   -4.1627648    1.2485802   439061 
 1449000   0.83194306   -4.1621908   -4.1621908    -2.914279  0.026347538   -4.1621908    1.2479117   439061 
 1450000   0.83033814   -4.1599876   -4.1599876   -2.9144832  0.031821344   -4.1599876    1.2455044   439061 
 1451000   0.83061771   -4.1623825   -4.1623825   -2.9164588  0.026746187   -4.1623825    1.2459237   439061 
 1452000   0.83018383    -4.161665    -4.161665    -2.916392  0.028316822    -4.161665    1.2452729   439061 
 1453000   0.82992647   -4.1626332   -4.1626332   -2.9177463  0.026238148   -4.1626332    1.2448869   439061 
 1454000   0.82963725   -4.1619118   -4.1619118   -2.9174588  0.025889003   -4.1619118     1.244453   439061 
 1455000   0.82986869   -4.1622502   -4.1622502     -2.91745  0.023377472   -4.1622502    1.2448002   439061 
 1456000   0.83005971   -4.1634149   -4.1634149   -2.9183282  0.027019909   -4.1634149    1.2450867   439061 
 1457000   0.83065764   -4.1644949   -4.1644949   -2.9185113  0.026380215   -4.1644949    1.2459836   439061 
 1458000   0.83002826   -4.1627107   -4.1627107   -2.9176711   0.02560237   -4.1627107    1.2450395   439061 
 1459000   0.83009537   -4.1633813   -4.1633813   -2.9182411  0.025061773   -4.1633813    1.2451402   439061 
 1460000   0.83055688   -4.1650139   -4.1650139   -2.9191814  0.024519837   -4.1650139    1.2458325   439061 
 1461000   0.83124769   -4.1664499   -4.1664499   -2.9195812  0.024009062   -4.1664499    1.2468687   439061 
 1462000   0.83070214   -4.1668464   -4.1668464   -2.9207961  0.021300213   -4.1668464    1.2460504   439061 
 1463000   0.83047835   -4.1668295   -4.1668295   -2.9211149  0.024698592   -4.1668295    1.2457147   439061 
 1464000   0.83063845   -4.1677518   -4.1677518   -2.9217969  0.025455471   -4.1677518    1.2459548   439061 
 1465000   0.82901538   -4.1658727   -4.1658727   -2.9223525  0.026167065   -4.1658727    1.2435202   439061 
 1466000   0.82945528    -4.168075    -4.168075   -2.9238949  0.025041796    -4.168075    1.2441801   439061 
 1467000   0.82871212   -4.1668531   -4.1668531   -2.9237877  0.026860065   -4.1668531    1.2430654   439061 
 1468000   0.83060082   -4.1706669   -4.1706669   -2.9247685  0.022111116   -4.1706669    1.2458984   439061 
 1469000   0.83044694   -4.1697103   -4.1697103   -2.9240427  0.027871576   -4.1697103    1.2456676   439061 
 1470000   0.83011903   -4.1701428   -4.1701428   -2.9249671  0.026080081   -4.1701428    1.2451757   439061 
 1471000   0.82889484   -4.1683284   -4.1683284    -2.924989  0.031460432   -4.1683284    1.2433394   439061 
 1472000   0.82922458   -4.1692029   -4.1692029   -2.9253688  0.032208145   -4.1692029     1.243834   439061 
 1473000    0.8301725   -4.1704786   -4.1704786   -2.9252227  0.022949725   -4.1704786    1.2452559   439061 
 1474000   0.83021698   -4.1692716   -4.1692716    -2.923949  0.024869623   -4.1692716    1.2453226   439061 
 1475000   0.83047912   -4.1710131   -4.1710131   -2.9252973  0.026880801   -4.1710131    1.2457158   439061 
 1476000   0.83031777   -4.1716551   -4.1716551   -2.9261813  0.024913363   -4.1716551    1.2454738   439061 
 1477000    0.8287719    -4.169333    -4.169333    -2.926178  0.023406945    -4.169333     1.243155   439061 
 1478000   0.82960857   -4.1697852   -4.1697852   -2.9253752  0.022910652   -4.1697852      1.24441   439061 
 1479000   0.82986359   -4.1710524   -4.1710524   -2.9262599  0.023599068   -4.1710524    1.2447925   439061 
 1480000   0.82972697   -4.1693003   -4.1693003   -2.9247127  0.029056216   -4.1693003    1.2445876   439061 
 1481000   0.83038879   -4.1721682   -4.1721682   -2.9265878  0.025146878   -4.1721682    1.2455804   439061 
 1482000   0.83023078   -4.1719483   -4.1719483    -2.926605  0.023133601   -4.1719483    1.2453433   439061 
 1483000   0.82834567   -4.1698012   -4.1698012   -2.9272855  0.027770033   -4.1698012    1.2425157   439061 
 1484000   0.82879095   -4.1716857   -4.1716857   -2.9285021  0.022232654   -4.1716857    1.2431836   439061 
 1485000   0.82833698   -4.1717262   -4.1717262   -2.9292235  0.023332454   -4.1717262    1.2425026   439061 
 1486000   0.82773024   -4.1711427   -4.1711427   -2.9295502  0.023102661   -4.1711427    1.2415925   439061 
 1487000   0.82933522   -4.1737369   -4.1737369   -2.9297369  0.020990096   -4.1737369        1.244   439061 
 1488000   0.82760156    -4.171131    -4.171131   -2.9297315  0.028431149    -4.171131    1.2413995   439061 
 1489000   0.82956356   -4.1741256   -4.1741256   -2.9297831  0.025186562   -4.1741256    1.2443425   439061 
 1490000   0.82878785   -4.1744338   -4.1744338   -2.9312548  0.028296861   -4.1744338    1.2431789   439061 
 1491000   0.83061266   -4.1766721   -4.1766721    -2.930756  0.025104067   -4.1766721    1.2459161   439061 
 1492000   0.82811555   -4.1737707   -4.1737707   -2.9316002   0.03211723   -4.1737707    1.2421705   439061 
 1493000    0.8300977   -4.1759944   -4.1759944   -2.9308507  0.029490826   -4.1759944    1.2451437   439061 
 1494000   0.82850982   -4.1757915   -4.1757915   -2.9330296  0.029447068   -4.1757915    1.2427619   439061 
 1495000   0.82870189   -4.1752239   -4.1752239   -2.9321739  0.032333809   -4.1752239      1.24305   439061 
 1496000   0.82865506   -4.1743744   -4.1743744   -2.9313946  0.029448291   -4.1743744    1.2429798   439061 
 1497000   0.82937227   -4.1769419   -4.1769419   -2.9328863  0.025271581   -4.1769419    1.2440556   439061 
 1498000   0.83044075   -4.1778263   -4.1778263    -2.932168  0.020449849   -4.1778263    1.2456583   439061 
 1499000   0.82841863   -4.1755318   -4.1755318   -2.9329067   0.02657023   -4.1755318    1.2426251   439061 
 1500000    0.8288362   -4.1758619   -4.1758619   -2.9326105  0.023758978   -4.1758619    1.2432515   439061 
 1501000   0.82806049   -4.1750989   -4.1750989    -2.933011  0.021029791   -4.1750989    1.2420879   439061 
 1502000   0.82780571   -4.1747723   -4.1747723   -2.9330666  0.020817574   -4.1747723    1.2417057   439061 
 1503000    0.8274353   -4.1747853   -4.1747853   -2.9336352  0.022362519   -4.1747853    1.2411501   439061 
 1504000   0.82677858   -4.1748545   -4.1748545   -2.9346894    0.0225116   -4.1748545    1.2401651   439061 
 1505000   0.82838651   -4.1776955   -4.1776955   -2.9351185  0.022034659   -4.1776955    1.2425769   439061 
 1506000   0.82811887   -4.1767112   -4.1767112   -2.9345358  0.023478178   -4.1767112    1.2421755   439061 
 1507000   0.82775006   -4.1761468   -4.1761468   -2.9345245  0.031283162   -4.1761468    1.2416223   439061 
 1508000   0.82795907   -4.1780017   -4.1780017   -2.9360659  0.027304205   -4.1780017    1.2419358   439061 
 1509000     0.828133   -4.1781687   -4.1781687    -2.935972  0.024750014   -4.1781687    1.2421967   439061 
 1510000   0.82795172   -4.1799937   -4.1799937    -2.938069  0.023295508   -4.1799937    1.2419248   439061 
 1511000   0.82856327   -4.1803676   -4.1803676   -2.9375255  0.024919271   -4.1803676    1.2428421   439061 
 1512000   0.82717103   -4.1798166   -4.1798166   -2.9390629  0.026479321   -4.1798166    1.2407537   439061 
 1513000   0.82763732   -4.1814711   -4.1814711   -2.9400179  0.030435199   -4.1814711    1.2414532   439061 
 1514000   0.82832552    -4.182406    -4.182406   -2.9399206  0.032047132    -4.182406    1.2424854   439061 
 1515000   0.82934163   -4.1841604   -4.1841604   -2.9401508  0.028542664   -4.1841604    1.2440096   439061 
 1516000    0.8280922   -4.1810762   -4.1810762   -2.9389407  0.031227791   -4.1810762    1.2421355   439061 
 1517000   0.82886287   -4.1824223   -4.1824223   -2.9391309  0.029366301   -4.1824223    1.2432915   439061 
 1518000   0.82914907   -4.1827104   -4.1827104   -2.9389896  0.031553545   -4.1827104    1.2437208   439061 
 1519000   0.82866941   -4.1831469   -4.1831469   -2.9401457  0.024692366   -4.1831469    1.2430013   439061 
 1520000   0.82882153   -4.1832775   -4.1832775    -2.940048  0.027980427   -4.1832775    1.2432295   439061 
 1521000   0.82720771   -4.1810817   -4.1810817   -2.9402729  0.029151311   -4.1810817    1.2408087   439061 
 1522000   0.82760256     -4.18247     -4.18247    -2.941069  0.020905972     -4.18247     1.241401   439061 
 1523000   0.82755997   -4.1817213   -4.1817213   -2.9403841  0.024598368   -4.1817213    1.2413371   439061 
 1524000   0.82736751   -4.1817169   -4.1817169   -2.9406685  0.021570146   -4.1817169    1.2410484   439061 
 1525000   0.82751372   -4.1822141   -4.1822141   -2.9409463  0.016951304   -4.1822141    1.2412677   439061 
 1526000   0.82649477   -4.1793497   -4.1793497   -2.9396103  0.025782878   -4.1793497    1.2397393   439061 
 1527000   0.82797355   -4.1820554   -4.1820554   -2.9400979  0.021152485   -4.1820554    1.2419575   439061 
 1528000   0.82720653   -4.1816205   -4.1816205   -2.9408135  0.021267804   -4.1816205     1.240807   439061 
 1529000   0.82627288   -4.1804565   -4.1804565     -2.94105   0.02476116   -4.1804565    1.2394065   439061 
 1530000   0.82779322   -4.1818165   -4.1818165   -2.9401295  0.024052339   -4.1818165     1.241687   439061 
 1531000   0.82880579   -4.1832876   -4.1832876   -2.9400818  0.024032783   -4.1832876    1.2432058   439061 
 1532000   0.82862234   -4.1841962   -4.1841962   -2.9412655  0.024149771   -4.1841962    1.2429307   439061 
 1533000   0.82903099   -4.1843166   -4.1843166    -2.940773  0.029294147   -4.1843166    1.2435436   439061 
 1534000   0.82776935     -4.18322     -4.18322   -2.9415688  0.026287153     -4.18322    1.2416512   439061 
 1535000   0.82887214   -4.1851372   -4.1851372   -2.9418318  0.023478944   -4.1851372    1.2433054   439061 
 1536000   0.82721939   -4.1830096   -4.1830096   -2.9421834  0.025593794   -4.1830096    1.2408263   439061 
 1537000   0.82751337   -4.1837677   -4.1837677   -2.9425005  0.027980288   -4.1837677    1.2412672   439061 
 1538000   0.82827826   -4.1852423   -4.1852423   -2.9428277  0.023824023   -4.1852423    1.2424146   439061 
 1539000   0.82845378   -4.1862826   -4.1862826   -2.9436048  0.023439503   -4.1862826    1.2426778   439061 
 1540000   0.82784448   -4.1846288   -4.1846288   -2.9428649  0.024996931   -4.1846288    1.2417639   439061 
 1541000   0.82660607   -4.1833957   -4.1833957   -2.9434894  0.022867835   -4.1833957    1.2399063   439061 
 1542000   0.82803016   -4.1849257   -4.1849257   -2.9428833  0.026587439   -4.1849257    1.2420424   439061 
 1543000   0.82784256   -4.1837005   -4.1837005   -2.9419395  0.024685813   -4.1837005     1.241761   439061 
 1544000   0.82809478   -4.1845682   -4.1845682   -2.9424288  0.028273545   -4.1845682    1.2421393   439061 
 1545000   0.82859277   -4.1860264   -4.1860264   -2.9431401  0.027831069   -4.1860264    1.2428863   439061 
 1546000   0.82740704   -4.1853558   -4.1853558   -2.9442481  0.027133878   -4.1853558    1.2411077   439061 
 1547000   0.82662562   -4.1841633   -4.1841633   -2.9442277  0.028121104   -4.1841633    1.2399356   439061 
 1548000   0.82792136   -4.1850353   -4.1850353    -2.943156  0.025016572   -4.1850353    1.2418792   439061 
 1549000   0.82650097   -4.1837291   -4.1837291   -2.9439805  0.022699682   -4.1837291    1.2397486   439061 
 1550000   0.82707355   -4.1851274   -4.1851274   -2.9445199  0.020834342   -4.1851274    1.2406075   439061 
 1551000   0.82724877   -4.1856965   -4.1856965   -2.9448262  0.025156663   -4.1856965    1.2408703   439061 
 1552000   0.82681848   -4.1852439   -4.1852439    -2.945019  0.026554395   -4.1852439    1.2402249   439061 
 1553000   0.82649945   -4.1847448   -4.1847448   -2.9449985   0.02798232   -4.1847448    1.2397463   439061 
 1554000    0.8269114   -4.1862741   -4.1862741   -2.9459098  0.022234813   -4.1862741    1.2403643   439061 
 1555000   0.82713493   -4.1865621   -4.1865621   -2.9458625  0.025082348   -4.1865621    1.2406996   439061 
 1556000   0.82775925   -4.1885336   -4.1885336   -2.9468976  0.023913656   -4.1885336     1.241636   439061 
 1557000   0.82688234    -4.188287    -4.188287   -2.9479663  0.022895445    -4.188287    1.2403207   439061 
 1558000   0.82578477   -4.1868918   -4.1868918   -2.9482175  0.025816947   -4.1868918    1.2386743   439061 
 1559000   0.82721138   -4.1888659   -4.1888659   -2.9480516  0.027392472   -4.1888659    1.2408142   439061 
 1560000   0.82688788    -4.189808    -4.189808    -2.949479  0.023548267    -4.189808     1.240329   439061 
 1561000   0.82712056   -4.1900928   -4.1900928   -2.9494147  0.023176994   -4.1900928     1.240678   439061 
 1562000   0.82759208   -4.1908105   -4.1908105   -2.9494252  0.022991887   -4.1908105    1.2413853   439061 
 1563000   0.82713307   -4.1915777   -4.1915777   -2.9508809  0.024922526   -4.1915777    1.2406968   439061 
 1564000   0.82692269    -4.191396    -4.191396   -2.9510148  0.023780658    -4.191396    1.2403812   439061 
 1565000   0.82608121   -4.1918011   -4.1918011   -2.9526821  0.022577071   -4.1918011     1.239119   439061 
 1566000   0.82499603   -4.1897568   -4.1897568   -2.9522656  0.028215464   -4.1897568    1.2374912   439061 
 1567000   0.82652773   -4.1922597   -4.1922597    -2.952471  0.023744311   -4.1922597    1.2397888   439061 
 1568000    0.8269034     -4.19256     -4.19256   -2.9522077  0.025966457     -4.19256    1.2403523   439061 
 1569000   0.82842362   -4.1950999   -4.1950999   -2.9524673  0.024098835   -4.1950999    1.2426326   439061 
 1570000   0.82643547   -4.1921581   -4.1921581   -2.9525077  0.023026994   -4.1921581    1.2396504   439061 
 1571000   0.82630917    -4.194029    -4.194029   -2.9545681  0.022700653    -4.194029    1.2394609   439061 
 1572000   0.82622716   -4.1950517   -4.1950517   -2.9557138  0.021587604   -4.1950517    1.2393379   439061 
 1573000   0.82571946   -4.1945837   -4.1945837   -2.9560073  0.023632394   -4.1945837    1.2385764   439061 
 1574000   0.82483158   -4.1934135   -4.1934135   -2.9561689  0.020716698   -4.1934135    1.2372446   439061 
 1575000   0.82529617   -4.1937432   -4.1937432   -2.9558018  0.029533476   -4.1937432    1.2379414   439061 
 1576000   0.82558395   -4.1936507   -4.1936507   -2.9552776  0.027963641   -4.1936507    1.2383731   439061 
 1577000   0.82569281   -4.1958876   -4.1958876   -2.9573513   0.02422728   -4.1958876    1.2385364   439061 
 1578000   0.82704771   -4.1970046   -4.1970046   -2.9564359   0.02334109   -4.1970046    1.2405687   439061 
 1579000   0.82587566   -4.1948244   -4.1948244   -2.9560138  0.027381687   -4.1948244    1.2388107   439061 
 1580000   0.82568683   -4.1965894   -4.1965894    -2.958062  0.025357199   -4.1965894    1.2385274   439061 
 1581000    0.8266533   -4.1970514   -4.1970514   -2.9570742  0.024021328   -4.1970514    1.2399771   439061 
 1582000   0.82715157   -4.1970664   -4.1970664   -2.9563419  0.024404587   -4.1970664    1.2407245   439061 
 1583000   0.82677117   -4.1969521   -4.1969521   -2.9567982  0.024609155   -4.1969521    1.2401539   439061 
 1584000    0.8252133   -4.1947982   -4.1947982    -2.956981  0.027746154   -4.1947982    1.2378171   439061 
 1585000   0.82566791   -4.1954736   -4.1954736   -2.9569745  0.022517409   -4.1954736     1.238499   439061 
 1586000   0.82410457   -4.1935904   -4.1935904   -2.9574363  0.021627377   -4.1935904     1.236154   439061 
 1587000   0.82445062   -4.1940089   -4.1940089   -2.9573357  0.021555938   -4.1940089    1.2366731   439061 
 1588000   0.82410733   -4.1950872   -4.1950872    -2.958929  0.017110835   -4.1950872    1.2361582   439061 
 1589000   0.82364977   -4.1949505   -4.1949505   -2.9594786  0.018088203   -4.1949505    1.2354718   439061 
 1590000   0.82436833   -4.1960466   -4.1960466   -2.9594969   0.01440029   -4.1960466    1.2365497   439061 
 1591000   0.82297548   -4.1950976   -4.1950976   -2.9606372  0.017757784   -4.1950976    1.2344604   439061 
 1592000   0.82436217    -4.196966    -4.196966   -2.9604256  0.026972131    -4.196966    1.2365404   439061 
 1593000   0.82586185   -4.2003101   -4.2003101   -2.9615201  0.021670583   -4.2003101      1.23879   439061 
 1594000   0.82601452   -4.2012485   -4.2012485   -2.9622296  0.021916682   -4.2012485     1.239019   439061 
 1595000   0.82590023   -4.2027247   -4.2027247   -2.9638772   0.02377376   -4.2027247    1.2388475   439061 
 1596000   0.82619828   -4.2048976   -4.2048976    -2.965603  0.023057194   -4.2048976    1.2392946   439061 
 1597000   0.82504638   -4.2025953   -4.2025953   -2.9650286  0.028841533   -4.2025953    1.2375668   439061 
 1598000   0.82601171   -4.2038918   -4.2038918    -2.964877  0.028471907   -4.2038918    1.2390147   439061 
 1599000   0.82698748   -4.2061898   -4.2061898   -2.9657114  0.025583804   -4.2061898    1.2404784   439061 
 1600000   0.82676823   -4.2065709   -4.2065709   -2.9664213  0.028612665   -4.2065709    1.2401495   439061 
 1601000   0.82630008   -4.2047747   -4.2047747   -2.9653274  0.029493629   -4.2047747    1.2394473   439061 
 1602000   0.82633762   -4.2047152   -4.2047152   -2.9652116  0.026528909   -4.2047152    1.2395036   439061 
 1603000   0.82562265   -4.2038356   -4.2038356   -2.9654045  0.026637028   -4.2038356    1.2384311   439061 
 1604000   0.82584307    -4.204929    -4.204929   -2.9661672  0.020697389    -4.204929    1.2387618   439061 
 1605000   0.82457412   -4.2025789   -4.2025789   -2.9657205  0.023580965   -4.2025789    1.2368584   439061 
 1606000   0.82294253   -4.2011288   -4.2011288   -2.9667179  0.018654535   -4.2011288     1.234411   439061 
 1607000   0.82290563   -4.2019584   -4.2019584   -2.9676028  0.016542633   -4.2019584    1.2343556   439061 
 1608000   0.82332144   -4.2010603   -4.2010603    -2.966081  0.016573363   -4.2010603    1.2349793   439061 
 1609000   0.82427244    -4.201951    -4.201951   -2.9655451  0.022168451    -4.201951    1.2364059   439061 
 1610000    0.8233665   -4.2011649   -4.2011649   -2.9661179  0.021926465   -4.2011649    1.2350469   439061 
 1611000   0.82573856   -4.2045359   -4.2045359   -2.9659309  0.019245449   -4.2045359     1.238605   439061 
 1612000   0.82441186   -4.2024896   -4.2024896   -2.9658746  0.023289712   -4.2024896     1.236615   439061 
 1613000   0.82435287   -4.2041013   -4.2041013   -2.9675748  0.022831731   -4.2041013    1.2365265   439061 
 1614000   0.82574371   -4.2048548   -4.2048548   -2.9662421  0.022709321   -4.2048548    1.2386127   439061 
 1615000   0.82415777   -4.2032834   -4.2032834   -2.9670495  0.025890364   -4.2032834    1.2362338   439061 
 1616000   0.82562989   -4.2067469   -4.2067469   -2.9683049  0.022557577   -4.2067469     1.238442   439061 
 1617000   0.82505918   -4.2057664   -4.2057664   -2.9681804  0.025964429   -4.2057664    1.2375859   439061 
 1618000   0.82514505   -4.2060914   -4.2060914   -2.9683766  0.025968567   -4.2060914    1.2377148   439061 
 1619000   0.82372746   -4.2048818   -4.2048818   -2.9692935  0.021572286   -4.2048818    1.2355884   439061 
 1620000   0.82402029   -4.2052885   -4.2052885   -2.9692609  0.025691593   -4.2052885    1.2360276   439061 
 1621000   0.82381737   -4.2043857   -4.2043857   -2.9686624  0.025831358   -4.2043857    1.2357232   439061 
 1622000   0.82377312   -4.2045906   -4.2045906   -2.9689337  0.023111008   -4.2045906    1.2356569   439061 
 1623000   0.82526919   -4.2071171   -4.2071171   -2.9692162  0.023331915   -4.2071171     1.237901   439061 
 1624000    0.8243928   -4.2062392   -4.2062392   -2.9696528  0.022775692   -4.2062392    1.2365864   439061 
 1625000   0.82550297   -4.2067689   -4.2067689   -2.9685172  0.022090556   -4.2067689    1.2382516   439061 
 1626000   0.82358575   -4.2046433   -4.2046433   -2.9692674  0.023819561   -4.2046433    1.2353758   439061 
 1627000   0.82389928   -4.2058254   -4.2058254   -2.9699793  0.019050842   -4.2058254    1.2358461   439061 
 1628000   0.82411525   -4.2063836   -4.2063836   -2.9702136  0.019249562   -4.2063836    1.2361701   439061 
 1629000    0.8226859   -4.2054346   -4.2054346   -2.9714086  0.017451924   -4.2054346     1.234026   439061 
 1630000   0.82232115   -4.2051628   -4.2051628   -2.9716839  0.022522296   -4.2051628    1.2334789   439061 
 1631000   0.82444248   -4.2091698   -4.2091698   -2.9725089  0.020046669   -4.2091698    1.2366609   439061 
 1632000    0.8238853   -4.2069088   -4.2069088   -2.9710837  0.026035985   -4.2069088    1.2358251   439061 
 1633000   0.82520603   -4.2080901   -4.2080901   -2.9702839  0.027614893   -4.2080901    1.2378062   439061 
 1634000   0.82424962   -4.2077056   -4.2077056    -2.971334   0.02951525   -4.2077056    1.2363716   439061 
 1635000   0.82419039   -4.2094575   -4.2094575   -2.9731747  0.026869646   -4.2094575    1.2362828   439061 
 1636000   0.82444512   -4.2094573   -4.2094573   -2.9727924  0.026209216   -4.2094573    1.2366649   439061 
 1637000   0.82558264   -4.2106293   -4.2106293   -2.9722582  0.023317881   -4.2106293    1.2383711   439061 
 1638000   0.82455896   -4.2105504   -4.2105504   -2.9737148  0.028093085   -4.2105504    1.2368356   439061 
 1639000   0.82357978    -4.209483    -4.209483   -2.9741161  0.022477598    -4.209483    1.2353669   439061 
 1640000   0.82502578   -4.2104703   -4.2104703   -2.9729345  0.029458617   -4.2104703    1.2375359   439061 
 1641000   0.82342889   -4.2074904   -4.2074904   -2.9723498  0.030044209   -4.2074904    1.2351405   439061 
 1642000   0.82399561   -4.2086582   -4.2086582   -2.9726676  0.024078572   -4.2086582    1.2359906   439061 
 1643000   0.82402159   -4.2095444   -4.2095444   -2.9735149   0.01949873   -4.2095444    1.2360296   439061 
 1644000   0.82322751   -4.2081271   -4.2081271   -2.9732886  0.020122351   -4.2081271    1.2348385   439061 
 1645000   0.82432003   -4.2081106   -4.2081106   -2.9716334  0.024673772   -4.2081106    1.2364772   439061 
 1646000   0.82495136   -4.2091878   -4.2091878   -2.9717636  0.020533776   -4.2091878    1.2374242   439061 
 1647000   0.82447901   -4.2081798   -4.2081798   -2.9714641  0.025016616   -4.2081798    1.2367157   439061 
 1648000   0.82257354   -4.2063281   -4.2063281   -2.9724706  0.026894435   -4.2063281    1.2338575   439061 
 1649000   0.82319398   -4.2074482   -4.2074482   -2.9726601  0.025042159   -4.2074482    1.2347882   439061 
 1650000   0.82241965   -4.2072016   -4.2072016    -2.973575   0.02285631   -4.2072016    1.2336267   439061 
 1651000   0.82331504   -4.2074681   -4.2074681   -2.9724983  0.022209231   -4.2074681    1.2349697   439061 
 1652000   0.82390576   -4.2102881   -4.2102881   -2.9744323  0.015998008   -4.2102881    1.2358558   439061 
 1653000    0.8247493   -4.2112573   -4.2112573   -2.9741361  0.019042469   -4.2112573    1.2371211   439061 
 1654000   0.82465125   -4.2101856   -4.2101856   -2.9732116  0.026313839   -4.2101856    1.2369741   439061 
 1655000   0.82456828   -4.2104957   -4.2104957   -2.9736461  0.025785683   -4.2104957    1.2368496   439061 
 1656000   0.82388601   -4.2099947   -4.2099947   -2.9741685  0.025332827   -4.2099947    1.2358262   439061 
 1657000   0.82356902   -4.2104359   -4.2104359   -2.9750852  0.020051025   -4.2104359    1.2353507   439061 
 1658000   0.82318117   -4.2108573   -4.2108573   -2.9760884  0.024897871   -4.2108573    1.2347689   439061 
 1659000   0.82401229   -4.2115751   -4.2115751   -2.9755595  0.024281762   -4.2115751    1.2360156   439061 
 1660000   0.82361442   -4.2118913   -4.2118913   -2.9764725  0.021166587   -4.2118913    1.2354188   439061 
 1661000   0.82416359   -4.2124635   -4.2124635   -2.9762209   0.02501514   -4.2124635    1.2362426   439061 
 1662000   0.82439914   -4.2126279   -4.2126279   -2.9760319  0.026984721   -4.2126279    1.2365959   439061 
 1663000   0.82365193    -4.211167    -4.211167    -2.975692  0.029332568    -4.211167    1.2354751   439061 
 1664000   0.82321805   -4.2107126   -4.2107126   -2.9758883  0.025323047   -4.2107126    1.2348243   439061 
 1665000   0.82467228   -4.2132564   -4.2132564   -2.9762508  0.024906136   -4.2132564    1.2370056   439061 
 1666000   0.82361607   -4.2111105   -4.2111105   -2.9756892  0.025582513   -4.2111105    1.2354213   439061 
 1667000   0.82326225   -4.2119419   -4.2119419   -2.9770514  0.026142024   -4.2119419    1.2348906   439061 
 1668000   0.82224434   -4.2097574   -4.2097574   -2.9763937  0.024498938   -4.2097574    1.2333637   439061 
 1669000   0.82279617    -4.210564    -4.210564   -2.9763725  0.024353469    -4.210564    1.2341914   439061 
 1670000   0.82209795   -4.2106632   -4.2106632   -2.9775191  0.023867959   -4.2106632    1.2331441   439061 
 1671000    0.8221094   -4.2114299   -4.2114299   -2.9782686  0.019634403   -4.2114299    1.2331613   439061 
 1672000   0.82271839   -4.2127425   -4.2127425   -2.9786677  0.019114399   -4.2127425    1.2340748   439061 
 1673000   0.82106975   -4.2103309   -4.2103309   -2.9787291   0.02670495   -4.2103309    1.2316018   439061 
 1674000   0.82304736   -4.2140687   -4.2140687   -2.9795005  0.020591524   -4.2140687    1.2345682   439061 
 1675000   0.82334765   -4.2150815   -4.2150815   -2.9800628  0.021693394   -4.2150815    1.2350187   439061 
 1676000   0.82269734    -4.214787    -4.214787   -2.9807438  0.023659377    -4.214787    1.2340432   439061 
 1677000   0.82457889   -4.2171955   -4.2171955     -2.98033  0.020156378   -4.2171955    1.2368655   439061 
 1678000   0.82215061   -4.2157694   -4.2157694   -2.9825463  0.017172582   -4.2157694    1.2332231   439061 
 1679000   0.82179804   -4.2155139   -4.2155139   -2.9828196  0.024467145   -4.2155139    1.2326942   439061 
 1680000   0.82292454   -4.2187058   -4.2187058   -2.9843218  0.022154037   -4.2187058     1.234384   439061 
 1681000   0.82283455    -4.219129    -4.219129     -2.98488  0.021769034    -4.219129     1.234249   439061 
 1682000   0.82290457   -4.2187096   -4.2187096   -2.9843556  0.023298694   -4.2187096     1.234354   439061 
 1683000   0.82314326    -4.219821    -4.219821   -2.9851089   0.02573894    -4.219821    1.2347121   439061 
 1684000   0.82241608   -4.2194015   -4.2194015   -2.9857802  0.027245469   -4.2194015    1.2336213   439061 
 1685000   0.82139038   -4.2180966   -4.2180966   -2.9860138  0.028101975   -4.2180966    1.2320828   439061 
 1686000   0.82224086    -4.219868    -4.219868   -2.9865095  0.024929121    -4.219868    1.2333585   439061 
 1687000   0.82157791   -4.2197839   -4.2197839   -2.9874198  0.020352181   -4.2197839    1.2323641   439061 
 1688000   0.82141179   -4.2191618   -4.2191618   -2.9870469  0.023728202   -4.2191618    1.2321149   439061 
 1689000   0.82230563    -4.220932    -4.220932   -2.9874763  0.022136404    -4.220932    1.2334556   439061 
 1690000   0.82215423   -4.2209938   -4.2209938   -2.9877653  0.020962744   -4.2209938    1.2332285   439061 
 1691000   0.82136009   -4.2208199   -4.2208199   -2.9887826  0.025440096   -4.2208199    1.2320373   439061 
 1692000   0.82254099   -4.2225479   -4.2225479   -2.9887392  0.017894265   -4.2225479    1.2338087   439061 
 1693000   0.82135059   -4.2209752   -4.2209752   -2.9889521  0.015577457   -4.2209752    1.2320231   439061 
 1694000   0.82160445   -4.2202055   -4.2202055   -2.9878016  0.022643882   -4.2202055    1.2324039   439061 
 1695000   0.82145355    -4.221092    -4.221092   -2.9889144   0.02283229    -4.221092    1.2321775   439061 
 1696000   0.82038275   -4.2185957   -4.2185957   -2.9880244  0.024930912   -4.2185957    1.2305713   439061 
 1697000   0.82127993   -4.2205246   -4.2205246   -2.9886075   0.02364225   -4.2205246    1.2319171   439061 
 1698000   0.82193302   -4.2221851   -4.2221851   -2.9892883  0.020093886   -4.2221851    1.2328967   439061 
 1699000   0.82082386   -4.2214315   -4.2214315   -2.9901985  0.016243529   -4.2214315     1.231233   439061 
 1700000   0.81983144    -4.221409    -4.221409   -2.9916647  0.018657062    -4.221409    1.2297444   439061 
 1701000   0.81905752   -4.2208865   -4.2208865   -2.9923031  0.021136175   -4.2208865    1.2285835   439061 
 1702000   0.82104246   -4.2225728   -4.2225728   -2.9910119  0.020446836   -4.2225728    1.2315609   439061 
 1703000   0.82168848   -4.2238898   -4.2238898   -2.9913599  0.022935575   -4.2238898    1.2325299   439061 
 1704000   0.82057694   -4.2232431   -4.2232431   -2.9923804   0.02564288   -4.2232431    1.2308626   439061 
 1705000    0.8219865   -4.2251396   -4.2251396   -2.9921627  0.025590248   -4.2251396    1.2329769   439061 
 1706000   0.82271403   -4.2266249   -4.2266249   -2.9925567  0.024431367   -4.2266249    1.2340682   439061 
 1707000   0.82023947   -4.2228259   -4.2228259   -2.9924695   0.02577613   -4.2228259    1.2303564   439061 
 1708000   0.82162151    -4.224403    -4.224403   -2.9919736  0.022959093    -4.224403    1.2324295   439061 
 1709000   0.82209709   -4.2257538   -4.2257538    -2.992611  0.026209515   -4.2257538    1.2331428   439061 
 1710000   0.82029812   -4.2242921   -4.2242921   -2.9938477  0.023836959   -4.2242921    1.2304444   439061 
 1711000   0.82010115   -4.2240761   -4.2240761   -2.9939272  0.026219586   -4.2240761    1.2301489   439061 
 1712000   0.82127336   -4.2251849   -4.2251849   -2.9932776  0.021953381   -4.2251849    1.2319072   439061 
 1713000   0.81935286   -4.2221627   -4.2221627   -2.9931362  0.020170138   -4.2221627    1.2290265   439061 
 1714000   0.82047967   -4.2251912   -4.2251912   -2.9944745  0.016385201   -4.2251912    1.2307167   439061 
 1715000   0.82074672   -4.2250469   -4.2250469   -2.9939297  0.020384356   -4.2250469    1.2311173   439061 
 1716000    0.8208951   -4.2259498   -4.2259498   -2.9946099   0.02204323   -4.2259498    1.2313399   439061 
 1717000   0.82011623   -4.2250016   -4.2250016     -2.99483  0.023954215   -4.2250016    1.2301715   439061 
 1718000   0.82149802   -4.2259717   -4.2259717   -2.9937275   0.02145396   -4.2259717    1.2322442   439061 
 1719000    0.8200459   -4.2244819   -4.2244819   -2.9944158  0.021296612   -4.2244819     1.230066   439061 
 1720000   0.82025423   -4.2245601   -4.2245601   -2.9941815  0.019454236   -4.2245601    1.2303785   439061 
 1721000   0.82095561   -4.2264559   -4.2264559   -2.9950253   0.01607703   -4.2264559    1.2314306   439061 
 1722000   0.81996846   -4.2253223   -4.2253223   -2.9953724  0.026596635   -4.2253223    1.2299499   439061 
 1723000   0.82018151   -4.2260544   -4.2260544   -2.9957849  0.023597709   -4.2260544    1.2302695   439061 
 1724000   0.82015012   -4.2254355   -4.2254355   -2.9952132  0.026748086   -4.2254355    1.2302224   439061 
 1725000   0.82102278   -4.2270252   -4.2270252   -2.9954939  0.018310482   -4.2270252    1.2315314   439061 
 1726000   0.82142606   -4.2276707   -4.2276707   -2.9955344  0.023058687   -4.2276707    1.2321363   439061 
 1727000   0.82068503   -4.2274436   -4.2274436   -2.9964189   0.02169684   -4.2274436    1.2310247   439061 
 1728000   0.82079456   -4.2270254   -4.2270254   -2.9958364   0.02201609   -4.2270254     1.231189   439061 
 1729000    0.8194237   -4.2268349   -4.2268349   -2.9977021  0.023258392   -4.2268349    1.2291328   439061 
 1730000   0.82010016   -4.2282706   -4.2282706   -2.9981232  0.021386043   -4.2282706    1.2301474   439061 
 1731000   0.82096786   -4.2300724   -4.2300724   -2.9986235  0.023257256   -4.2300724     1.231449   439061 
 1732000   0.82078944   -4.2295581   -4.2295581   -2.9983768  0.020248574   -4.2295581    1.2311814   439061 
 1733000   0.81961263   -4.2275981   -4.2275981    -2.998182  0.026368924   -4.2275981    1.2294161   439061 
 1734000   0.82027421   -4.2285528   -4.2285528   -2.9981442  0.025066173   -4.2285528    1.2304085   439061 
 1735000   0.82072442   -4.2310259   -4.2310259    -2.999942  0.017505265   -4.2310259    1.2310838   439061 
 1736000   0.82041821   -4.2305181   -4.2305181   -2.9998936  0.022405795   -4.2305181    1.2306245   439061 
 1737000   0.82057155   -4.2296219   -4.2296219   -2.9987673   0.02285115   -4.2296219    1.2308545   439061 
 1738000   0.82031432    -4.228864    -4.228864   -2.9983953  0.026985916    -4.228864    1.2304687   439061 
 1739000   0.82046051   -4.2293086   -4.2293086   -2.9986206  0.022765688   -4.2293086     1.230688   439061 
 1740000   0.81877694   -4.2267317   -4.2267317   -2.9985691  0.019096984   -4.2267317    1.2281626   439061 
 1741000   0.82158816   -4.2301444   -4.2301444    -2.997765  0.019345338   -4.2301444    1.2323794   439061 
 1742000   0.82006673   -4.2289825   -4.2289825   -2.9988852  0.021100402   -4.2289825    1.2300973   439061 
 1743000   0.82082325   -4.2299059   -4.2299059   -2.9986738   0.01813999   -4.2299059    1.2312321   439061 
 1744000   0.82062224   -4.2291349   -4.2291349   -2.9982043  0.021005307   -4.2291349    1.2309306   439061 
 1745000   0.81875793   -4.2271818   -4.2271818   -2.9990477  0.021496207   -4.2271818    1.2281341   439061 
 1746000   0.81922323   -4.2293711   -4.2293711   -3.0005391  0.016479899   -4.2293711     1.228832   439061 
 1747000   0.81846833   -4.2290201   -4.2290201   -3.0013204  0.016389791   -4.2290201    1.2276997   439061 
 1748000    0.8184967   -4.2291574   -4.2291574   -3.0014151  0.018646832   -4.2291574    1.2277423   439061 
 1749000   0.81843207   -4.2285639   -4.2285639   -3.0009186  0.022001776   -4.2285639    1.2276453   439061 
 1750000   0.82126904    -4.231894    -4.231894   -2.9999933  0.024618321    -4.231894    1.2319007   439061 
 1751000   0.82036858   -4.2314449   -4.2314449   -3.0008949  0.025678323   -4.2314449    1.2305501   439061 
 1752000   0.82023426   -4.2319646   -4.2319646    -3.001616  0.021729237   -4.2319646    1.2303486   439061 
 1753000   0.81992148   -4.2309499   -4.2309499   -3.0010704  0.024611695   -4.2309499    1.2298794   439061 
 1754000   0.81985081   -4.2318756   -4.2318756   -3.0021022  0.020921179   -4.2318756    1.2297734   439061 
 1755000    0.8200213   -4.2332513   -4.2332513   -3.0032222  0.018374083   -4.2332513    1.2300291   439061 
 1756000    0.8195108   -4.2326394   -4.2326394    -3.003376  0.024493125   -4.2326394    1.2292634   439061 
 1757000   0.82104482   -4.2360342   -4.2360342   -3.0044698  0.024533739   -4.2360342    1.2315644   439061 
 1758000   0.82157434   -4.2372677   -4.2372677    -3.004909  0.018639446   -4.2372677    1.2323587   439061 
 1759000   0.81955264   -4.2340304   -4.2340304   -3.0047042   0.02103434   -4.2340304    1.2293262   439061 
 1760000   0.81896423   -4.2327533   -4.2327533   -3.0043098  0.022929268   -4.2327533    1.2284435   439061 
 1761000   0.81889899   -4.2327092   -4.2327092   -3.0043635  0.022294371   -4.2327092    1.2283457   439061 
 1762000   0.81990257   -4.2351947   -4.2351947   -3.0053437    0.0207313   -4.2351947    1.2298511   439061 
 1763000   0.81958642   -4.2347455   -4.2347455   -3.0053687  0.022055418   -4.2347455    1.2293768   439061 
 1764000   0.82086039   -4.2353354   -4.2353354   -3.0040476  0.023389462   -4.2353354    1.2312878   439061 
 1765000   0.81983021   -4.2349683   -4.2349683   -3.0052258  0.021614184   -4.2349683    1.2297425   439061 
 1766000   0.81989542   -4.2349397   -4.2349397   -3.0050994  0.017388205   -4.2349397    1.2298403   439061 
 1767000   0.81845373   -4.2344317   -4.2344317   -3.0067539  0.019492688   -4.2344317    1.2276778   439061 
 1768000   0.81863675   -4.2350371   -4.2350371   -3.0070848  0.026800822   -4.2350371    1.2279523   439061 
 1769000   0.81957005   -4.2353093   -4.2353093    -3.005957  0.025638573   -4.2353093    1.2293523   439061 
 1770000   0.81874266   -4.2352515   -4.2352515   -3.0071403   0.02666942   -4.2352515    1.2281112   439061 
 1771000   0.81878286   -4.2345772   -4.2345772   -3.0064057  0.029596025   -4.2345772    1.2281715   439061 
 1772000   0.81908191   -4.2363646   -4.2363646   -3.0077445  0.018990634   -4.2363646    1.2286201   439061 
 1773000   0.81943648   -4.2375684   -4.2375684   -3.0084165  0.017732695   -4.2375684    1.2291519   439061 
 1774000   0.81813207    -4.236487    -4.236487   -3.0092916  0.023044694    -4.236487    1.2271953   439061 
 1775000   0.81882027   -4.2375096   -4.2375096    -3.009282  0.021204997   -4.2375096    1.2282276   439061 
 1776000   0.81817906   -4.2364454   -4.2364454   -3.0091796   0.02362611   -4.2364454    1.2272658   439061 
 1777000   0.81835145   -4.2367268   -4.2367268   -3.0092024   0.02082637   -4.2367268    1.2275244   439061 
 1778000   0.81820663   -4.2380315   -4.2380315   -3.0107243  0.021724766   -4.2380315    1.2273072   439061 
 1779000   0.81811534   -4.2390286   -4.2390286   -3.0118584  0.020541608   -4.2390286    1.2271702   439061 
 1780000   0.81809915   -4.2373065   -4.2373065   -3.0101605   0.02275445   -4.2373065    1.2271459   439061 
 1781000   0.81890933   -4.2385021   -4.2385021   -3.0101409  0.019834846   -4.2385021    1.2283612   439061 
 1782000   0.81861893   -4.2387464   -4.2387464   -3.0108208  0.024044657   -4.2387464    1.2279256   439061 
 1783000   0.81834351    -4.238715    -4.238715   -3.0112026  0.023001409    -4.238715    1.2275125   439061 
 1784000   0.81828818   -4.2390146   -4.2390146   -3.0115851  0.020494218   -4.2390146    1.2274295   439061 
 1785000   0.81787688   -4.2390271   -4.2390271   -3.0122146  0.018225381   -4.2390271    1.2268125   439061 
 1786000   0.81911992   -4.2407382   -4.2407382   -3.0120611  0.019108572   -4.2407382    1.2286771   439061 
 1787000   0.81863695   -4.2398284   -4.2398284   -3.0118758  0.021360394   -4.2398284    1.2279526   439061 
 1788000   0.81831886   -4.2401244   -4.2401244   -3.0126489  0.022072161   -4.2401244    1.2274755   439061 
 1789000   0.81801007   -4.2405065   -4.2405065   -3.0134942  0.022825154   -4.2405065    1.2270123   439061 
 1790000    0.8183637   -4.2409153   -4.2409153   -3.0133726  0.024057352   -4.2409153    1.2275428   439061 
 1791000   0.81851572   -4.2410785   -4.2410785   -3.0133077  0.027588206   -4.2410785    1.2277708   439061 
 1792000   0.81884361   -4.2410084   -4.2410084   -3.0127458  0.023632645   -4.2410084    1.2282626   439061 
 1793000   0.81824696   -4.2412581   -4.2412581   -3.0138904   0.02330866   -4.2412581    1.2273676   439061 
 1794000   0.81688708    -4.241379    -4.241379   -3.0160511  0.023021256    -4.241379    1.2253278   439061 
 1795000   0.81820285   -4.2427718   -4.2427718   -3.0154703  0.016694851   -4.2427718    1.2273015   439061 
 1796000   0.81660201   -4.2409159   -4.2409159   -3.0160156   0.02102741   -4.2409159    1.2249002   439061 
 1797000   0.81757137   -4.2437443   -4.2437443     -3.01739  0.016025948   -4.2437443    1.2263543   439061 
 1798000   0.81885027   -4.2437032   -4.2437032   -3.0154306  0.020583084   -4.2437032    1.2282726   439061 
 1799000    0.8177303   -4.2415762   -4.2415762   -3.0149835  0.022819201   -4.2415762    1.2265927   439061 
 1800000   0.81897445   -4.2433722   -4.2433722   -3.0149133  0.018350746   -4.2433722    1.2284589   439061 
 1801000   0.81811901   -4.2408499   -4.2408499   -3.0136742  0.025298906   -4.2408499    1.2271757   439061 
 1802000   0.81748582   -4.2407626   -4.2407626   -3.0145367  0.029762846   -4.2407626    1.2262259   439061 
 1803000   0.81824428   -4.2424093   -4.2424093   -3.0150456  0.022027157   -4.2424093    1.2273636   439061 
 1804000   0.81960915   -4.2448501   -4.2448501   -3.0154392  0.017363166   -4.2448501    1.2294109   439061 
 1805000    0.8194872   -4.2439856   -4.2439856   -3.0147576  0.017975758   -4.2439856     1.229228   439061 
 1806000   0.81788741   -4.2427776   -4.2427776   -3.0159493  0.021249439   -4.2427776    1.2268283   439061 
 1807000   0.81608823   -4.2417162   -4.2417162   -3.0175866  0.020200722   -4.2417162    1.2241296   439061 
 1808000   0.81695025   -4.2423121   -4.2423121   -3.0168895  0.023665949   -4.2423121    1.2254226   439061 
 1809000   0.81850059   -4.2437562   -4.2437562   -3.0160081  0.022280247   -4.2437562    1.2277481   439061 
 1810000   0.81881061   -4.2443488   -4.2443488   -3.0161357  0.019841912   -4.2443488    1.2282131   439061 
 1811000    0.8168849     -4.24277     -4.24277   -3.0174454  0.021813388     -4.24277    1.2253246   439061 
 1812000   0.81743453   -4.2446441   -4.2446441   -3.0184951  0.024108934   -4.2446441     1.226149   439061 
 1813000   0.81792658   -4.2429204   -4.2429204   -3.0160334  0.020901774   -4.2429204    1.2268871   439061 
 1814000   0.81893818   -4.2459548   -4.2459548   -3.0175503  0.021107816   -4.2459548    1.2284045   439061 
 1815000   0.81815687   -4.2452385   -4.2452385    -3.018006  0.023434552   -4.2452385    1.2272325   439061 
 1816000   0.81924906    -4.246381    -4.246381   -3.0175102  0.022166416    -4.246381    1.2288708   439061 
 1817000   0.81963054   -4.2471032   -4.2471032   -3.0176602   0.01832333   -4.2471032     1.229443   439061 
 1818000   0.81892934   -4.2451673   -4.2451673   -3.0167761  0.020465893   -4.2451673    1.2283912   439061 
 1819000   0.81824145   -4.2451548   -4.2451548   -3.0177955  0.016769883   -4.2451548    1.2273594   439061 
 1820000   0.81745505    -4.243545    -4.243545   -3.0173652  0.021956082    -4.243545    1.2261798   439061 
 1821000    0.8180033   -4.2429785   -4.2429785   -3.0159763  0.024903818   -4.2429785    1.2270021   439061 
 1822000    0.8171509   -4.2434902   -4.2434902   -3.0177667  0.022716314   -4.2434902    1.2257236   439061 
 1823000     0.817093   -4.2437814   -4.2437814   -3.0181447  0.017310225   -4.2437814    1.2256367   439061 
 1824000   0.81670413   -4.2423062   -4.2423062   -3.0172528  0.022398001   -4.2423062    1.2250534   439061 
 1825000   0.81645593   -4.2429862   -4.2429862   -3.0183051  0.021071879   -4.2429862    1.2246811   439061 
 1826000   0.81614261   -4.2450009   -4.2450009   -3.0207898  0.013627996   -4.2450009    1.2242111   439061 
 1827000   0.81579249   -4.2440939   -4.2440939    -3.020408  0.017937087   -4.2440939     1.223686   439061 
 1828000   0.81788776   -4.2458945   -4.2458945   -3.0190656  0.019412116   -4.2458945    1.2268289   439061 
 1829000   0.81768249   -4.2460666   -4.2460666   -3.0195457  0.013955715   -4.2460666    1.2265209   439061 
 1830000   0.81787449   -4.2457484   -4.2457484   -3.0189395  0.020619741   -4.2457484    1.2268089   439061 
 1831000   0.81796455   -4.2471714   -4.2471714   -3.0202274  0.019069256   -4.2471714     1.226944   439061 
 1832000   0.81792343   -4.2461231   -4.2461231   -3.0192407  0.030913234   -4.2461231    1.2268824   439061 
 1833000     0.819062   -4.2480329   -4.2480329   -3.0194427  0.027321116   -4.2480329    1.2285902   439061 
 1834000   0.81779223   -4.2476842   -4.2476842   -3.0209987  0.024008523   -4.2476842    1.2266856   439061 
 1835000   0.81860251   -4.2481283   -4.2481283   -3.0202274  0.024079721   -4.2481283     1.227901   439061 
 1836000   0.81784139   -4.2470474   -4.2470474   -3.0202881   0.02500513   -4.2470474    1.2267593   439061 
 1837000   0.81800891   -4.2488696   -4.2488696   -3.0218591  0.020480355   -4.2488696    1.2270106   439061 
 1838000   0.81785282    -4.248686    -4.248686   -3.0219096  0.022802221    -4.248686    1.2267764   439061 
 1839000    0.8181547   -4.2495119   -4.2495119   -3.0222827  0.022749841   -4.2495119    1.2272293   439061 
 1840000   0.81737993   -4.2481863   -4.2481863   -3.0221192  0.022551582   -4.2481863    1.2260671   439061 
 1841000   0.81722472   -4.2475768   -4.2475768   -3.0217425  0.019337008   -4.2475768    1.2258343   439061 
 1842000   0.81614812   -4.2470362   -4.2470362   -3.0228168   0.02160972   -4.2470362    1.2242194   439061 
 1843000   0.81633062   -4.2472755   -4.2472755   -3.0227824  0.019288778   -4.2472755    1.2244931   439061 
 1844000   0.81682766   -4.2477302   -4.2477302   -3.0224915  0.020935608   -4.2477302    1.2252387   439061 
 1845000   0.81645938   -4.2480285   -4.2480285   -3.0233422  0.018102648   -4.2480285    1.2246863   439061 
 1846000   0.81767224   -4.2501546   -4.2501546    -3.023649  0.019252859   -4.2501546    1.2265056   439061 
 1847000   0.81683392   -4.2480523   -4.2480523   -3.0228042  0.021910388   -4.2480523    1.2252481   439061 
 1848000   0.81802621   -4.2494648   -4.2494648   -3.0224283  0.017140298   -4.2494648    1.2270365   439061 
 1849000   0.81675773   -4.2475403   -4.2475403   -3.0224065  0.025629398   -4.2475403    1.2251338   439061 
 1850000   0.81823491   -4.2497935   -4.2497935   -3.0224439  0.019585496   -4.2497935    1.2273496   439061 
 1851000    0.8183682   -4.2505003   -4.2505003   -3.0229508  0.019965271   -4.2505003    1.2275495   439061 
 1852000   0.81965577   -4.2513496   -4.2513496   -3.0218687  0.021852273   -4.2513496    1.2294809   439061 
 1853000   0.81893721   -4.2503935   -4.2503935   -3.0219905    0.0220949   -4.2503935     1.228403   439061 
 1854000   0.81941662   -4.2504729   -4.2504729   -3.0213507  0.027981187   -4.2504729    1.2291221   439061 
 1855000    0.8187954   -4.2498598   -4.2498598   -3.0216695  0.024585978   -4.2498598    1.2281903   439061 
 1856000   0.81869743   -4.2510734   -4.2510734     -3.02303  0.017732941   -4.2510734    1.2280434   439061 
 1857000   0.81754172   -4.2492409   -4.2492409   -3.0229311  0.024080394   -4.2492409    1.2263098   439061 
 1858000    0.8160182   -4.2473729   -4.2473729   -3.0233484  0.024102174   -4.2473729    1.2240245   439061 
 1859000   0.81730488   -4.2471315   -4.2471315    -3.021177  0.018541718   -4.2471315    1.2259545   439061 
 1860000   0.81664892   -4.2457048   -4.2457048   -3.0207342  0.023143652   -4.2457048    1.2249706   439061 
 1861000   0.81746047   -4.2474235   -4.2474235   -3.0212356  0.020353183   -4.2474235    1.2261879   439061 
 1862000   0.81680846   -4.2473084   -4.2473084   -3.0220985  0.018261948   -4.2473084    1.2252099   439061 
 1863000   0.81645054   -4.2460311   -4.2460311   -3.0213581  0.015710838   -4.2460311     1.224673   439061 
 1864000   0.81505635   -4.2445381   -4.2445381   -3.0219564  0.013626127   -4.2445381    1.2225817   439061 
 1865000   0.81545481   -4.2454061   -4.2454061   -3.0222267  0.022623505   -4.2454061    1.2231794   439061 
 1866000    0.8161711   -4.2470958   -4.2470958    -3.022842  0.016599417   -4.2470958    1.2242539   439061 
 1867000   0.81714423   -4.2469868   -4.2469868   -3.0212733  0.020361684   -4.2469868    1.2257136   439061 
 1868000   0.81814655   -4.2483784   -4.2483784   -3.0211613  0.020942654   -4.2483784     1.227217   439061 
 1869000   0.81865692   -4.2500595   -4.2500595   -3.0220769  0.018296893   -4.2500595    1.2279826   439061 
 1870000   0.81812932   -4.2496901   -4.2496901    -3.022499  0.017900068   -4.2496901    1.2271912   439061 
 1871000    0.8167642   -4.2493627   -4.2493627   -3.0242192  0.020883591   -4.2493627    1.2251435   439061 
 1872000   0.81646788   -4.2496219   -4.2496219   -3.0249229  0.022018918   -4.2496219     1.224699   439061 
 1873000   0.81720598   -4.2503759   -4.2503759   -3.0245697   0.02611806   -4.2503759    1.2258062   439061 
 1874000   0.81843743   -4.2527887   -4.2527887   -3.0251353  0.019071246   -4.2527887    1.2276533   439061 
 1875000   0.81733171   -4.2531362   -4.2531362   -3.0271414  0.018189236   -4.2531362    1.2259948   439061 
 1876000   0.81620326   -4.2513649   -4.2513649   -3.0270628  0.015449286   -4.2513649    1.2243021   439061 
 1877000   0.81631711   -4.2510143   -4.2510143   -3.0265414  0.016804084   -4.2510143    1.2244729   439061 
 1878000   0.81537276   -4.2506924   -4.2506924   -3.0276361  0.020329111   -4.2506924    1.2230563   439061 
 1879000    0.8167232   -4.2531277   -4.2531277   -3.0280457  0.019739923   -4.2531277     1.225082   439061 
 1880000   0.81647377   -4.2516454   -4.2516454   -3.0269375  0.026298857   -4.2516454    1.2247079   439061 
 1881000   0.81669831    -4.252043    -4.252043   -3.0269983  0.021140873    -4.252043    1.2250447   439061 
 1882000     0.816935   -4.2525677   -4.2525677    -3.027168  0.017468729   -4.2525677    1.2253997   439061 
 1883000   0.81604029   -4.2521521   -4.2521521   -3.0280944  0.018707591   -4.2521521    1.2240576   439061 
 1884000   0.81582376   -4.2514595   -4.2514595   -3.0277267   0.02279869   -4.2514595    1.2237329   439061 
 1885000   0.81579417   -4.2525525   -4.2525525    -3.028864  0.016581239   -4.2525525    1.2236885   439061 
 1886000   0.81619848    -4.253497    -4.253497    -3.029202  0.017051408    -4.253497    1.2242949   439061 
 1887000   0.81702245   -4.2541686   -4.2541686   -3.0286377  0.017714775   -4.2541686    1.2255309   439061 
 1888000   0.81706648   -4.2533029   -4.2533029   -3.0277059  0.023995439   -4.2533029    1.2255969   439061 
 1889000   0.81574894   -4.2521061   -4.2521061   -3.0284855   0.01846285   -4.2521061    1.2236206   439061 
 1890000   0.81594738   -4.2533982   -4.2533982   -3.0294799  0.021097382   -4.2533982    1.2239183   439061 
 1891000   0.81566843   -4.2523124   -4.2523124   -3.0288125  0.019795582   -4.2523124    1.2234999   439061 
 1892000   0.81562824   -4.2526524   -4.2526524   -3.0292128  0.017641238   -4.2526524    1.2234396   439061 
 1893000   0.81635221   -4.2547097   -4.2547097   -3.0301842  0.017512297   -4.2547097    1.2245255   439061 
 1894000   0.81559122   -4.2532855   -4.2532855   -3.0299014  0.020042051   -4.2532855    1.2233841   439061 
 1895000   0.81607696   -4.2548151   -4.2548151   -3.0307025  0.019845629   -4.2548151    1.2241127   439061 
 1896000   0.81730046   -4.2553858   -4.2553858   -3.0294379  0.021491455   -4.2553858    1.2259479   439061 
 1897000   0.81642894   -4.2562671   -4.2562671   -3.0316265  0.020955282   -4.2562671    1.2246406   439061 
 1898000   0.81511411   -4.2526363   -4.2526363   -3.0299679  0.025483457   -4.2526363    1.2226684   439061 
 1899000   0.81655515   -4.2549686   -4.2549686   -3.0301387  0.019701489   -4.2549686    1.2248299   439061 
 1900000   0.81691806   -4.2556298   -4.2556298   -3.0302555  0.020550513   -4.2556298    1.2253743   439061 
 1901000   0.81582136   -4.2542597   -4.2542597   -3.0305305  0.026305977   -4.2542597    1.2237292   439061 
 1902000   0.81748492   -4.2566484   -4.2566484   -3.0304238  0.016280003   -4.2566484    1.2262246   439061 
 1903000   0.81655485   -4.2555817   -4.2555817   -3.0307522  0.017746666   -4.2555817    1.2248295   439061 
 1904000   0.81656209   -4.2560022   -4.2560022   -3.0311619  0.013662899   -4.2560022    1.2248403   439061 
 1905000   0.81603533   -4.2556016   -4.2556016   -3.0315514  0.016193824   -4.2556016    1.2240502   439061 
 1906000   0.81457454   -4.2536374   -4.2536374   -3.0317784  0.018126557   -4.2536374     1.221859   439061 
 1907000    0.8152115   -4.2550694   -4.2550694   -3.0322549  0.017292937   -4.2550694    1.2228145   439061 
 1908000   0.81458244   -4.2538925   -4.2538925   -3.0320217  0.016093703   -4.2538925    1.2218709   439061 
 1909000   0.81391712   -4.2553205   -4.2553205   -3.0344476  0.010807631   -4.2553205    1.2208729   439061 
 1910000   0.81466954   -4.2561178   -4.2561178   -3.0341163  0.011642675   -4.2561178    1.2220015   439061 
 1911000   0.81469374   -4.2556909   -4.2556909    -3.033653  0.022637286   -4.2556909    1.2220378   439061 
 1912000   0.81568317   -4.2570769   -4.2570769   -3.0335549   0.02163565   -4.2570769     1.223522   439061 
 1913000   0.81662509   -4.2578176   -4.2578176   -3.0328827  0.027150289   -4.2578176    1.2249349   439061 
 1914000    0.8169166   -4.2581162   -4.2581162   -3.0327441  0.024004751   -4.2581162    1.2253721   439061 
 1915000   0.81655976   -4.2589395   -4.2589395   -3.0341026  0.027372453   -4.2589395    1.2248368   439061 
 1916000   0.81640272   -4.2589616   -4.2589616   -3.0343603  0.025319958   -4.2589616    1.2246013   439061 
 1917000   0.81666304   -4.2613282   -4.2613282   -3.0363365  0.021487344   -4.2613282    1.2249918   439061 
 1918000   0.81651583    -4.259979    -4.259979   -3.0352081   0.02549142    -4.259979    1.2247709   439061 
 1919000   0.81626556   -4.2599804   -4.2599804   -3.0355848  0.018085871   -4.2599804    1.2243955   439061 
 1920000   0.81587141   -4.2605023   -4.2605023    -3.036698   0.01671466   -4.2605023    1.2238043   439061 
 1921000   0.81549743   -4.2596158   -4.2596158   -3.0363725  0.016844509   -4.2596158    1.2232434   439061 
 1922000   0.81516097   -4.2590355   -4.2590355   -3.0362969  0.016900958   -4.2590355    1.2227387   439061 
 1923000   0.81467235   -4.2588327   -4.2588327   -3.0368269  0.017661198   -4.2588327    1.2220057   439061 
 1924000   0.81553126   -4.2588877   -4.2588877   -3.0355936  0.018383896   -4.2588877    1.2232941   439061 
 1925000   0.81584323   -4.2591413   -4.2591413   -3.0353792  0.022228536   -4.2591413    1.2237621   439061 
 1926000    0.8156031   -4.2603433   -4.2603433   -3.0369414   0.01617167   -4.2603433    1.2234019   439061 
 1927000   0.81548941    -4.259204    -4.259204   -3.0359727  0.016594305    -4.259204    1.2232313   439061 
 1928000   0.81468088   -4.2596563   -4.2596563   -3.0376377  0.016842276   -4.2596563    1.2220185   439061 
 1929000   0.81443464   -4.2603232   -4.2603232   -3.0386741  0.018394897   -4.2603232    1.2216492   439061 
 1930000   0.81456431   -4.2620349   -4.2620349   -3.0401912   0.02120673   -4.2620349    1.2218437   439061 
 1931000   0.81422516   -4.2599068   -4.2599068   -3.0385718  0.020611384   -4.2599068     1.221335   439061 
 1932000   0.81506787    -4.260658    -4.260658    -3.038059  0.022869637    -4.260658     1.222599   439061 
 1933000   0.81477827   -4.2606784   -4.2606784   -3.0385137  0.029956324   -4.2606784    1.2221646   439061 
 1934000   0.81506781   -4.2616969   -4.2616969    -3.039098  0.027106115   -4.2616969    1.2225989   439061 
 1935000   0.81531697   -4.2625157   -4.2625157    -3.039543  0.025020854   -4.2625157    1.2229727   439061 
 1936000   0.81441504   -4.2622529   -4.2622529   -3.0406331   0.02087107   -4.2622529    1.2216198   439061 
 1937000    0.8152762    -4.263849    -4.263849   -3.0409375  0.019726371    -4.263849    1.2229115   439061 
 1938000   0.81450175   -4.2639698   -4.2639698     -3.04222  0.018960427   -4.2639698    1.2217498   439061 
 1939000   0.81411046   -4.2632021   -4.2632021   -3.0420392  0.022322679   -4.2632021    1.2211629   439061 
 1940000   0.81381873   -4.2634376   -4.2634376   -3.0427123  0.017860617   -4.2634376    1.2207253   439061 
 1941000   0.81556791   -4.2644368   -4.2644368   -3.0410877  0.020750361   -4.2644368    1.2233491   439061 
 1942000    0.8151798   -4.2636886   -4.2636886   -3.0409217  0.025086043   -4.2636886    1.2227669   439061 
 1943000    0.8142747   -4.2631201   -4.2631201   -3.0417108  0.026465109   -4.2631201    1.2214093   439061 
 1944000   0.81541507   -4.2646341   -4.2646341   -3.0415143  0.023753596   -4.2646341    1.2231198   439061 
 1945000   0.81424993   -4.2625083   -4.2625083   -3.0411362  0.024360959   -4.2625083    1.2213721   439061 
 1946000   0.81454356   -4.2609957   -4.2609957   -3.0391831  0.024794282   -4.2609957    1.2218126   439061 
 1947000   0.81533149   -4.2634914   -4.2634914   -3.0404969  0.023749314   -4.2634914    1.2229944   439061 
 1948000   0.81424988   -4.2619949   -4.2619949   -3.0406228  0.019627561   -4.2619949     1.221372   439061 
 1949000   0.81555096   -4.2642074   -4.2642074   -3.0408837  0.018361108   -4.2642074    1.2233237   439061 
 1950000   0.81430448   -4.2624225   -4.2624225   -3.0409686  0.017414669   -4.2624225    1.2214539   439061 
 1951000   0.81405806   -4.2632195   -4.2632195   -3.0421352  0.015026904   -4.2632195    1.2210843   439061 
 1952000   0.81297707   -4.2601791   -4.2601791   -3.0407162  0.018633043   -4.2601791    1.2194628   439061 
 1953000   0.81328486   -4.2617132   -4.2617132   -3.0417887  0.018627527   -4.2617132    1.2199245   439061 
 1954000      0.81433   -4.2634595   -4.2634595   -3.0419673  0.014955743   -4.2634595    1.2214922   439061 
 1955000   0.81296369    -4.260929    -4.260929   -3.0414862  0.023268443    -4.260929    1.2194428   439061 
 1956000   0.81384894   -4.2634541   -4.2634541   -3.0426835  0.020046017   -4.2634541    1.2207706   439061 
 1957000   0.81506167   -4.2642812   -4.2642812   -3.0416915  0.024059431   -4.2642812    1.2225897   439061 
 1958000   0.81547591   -4.2660401   -4.2660401    -3.042829  0.022282522   -4.2660401    1.2232111   439061 
 1959000   0.81426744   -4.2659201   -4.2659201   -3.0445217  0.021292279   -4.2659201    1.2213984   439061 
 1960000   0.81505935   -4.2666869   -4.2666869   -3.0441007  0.020909151   -4.2666869    1.2225862   439061 
 1961000   0.81417331   -4.2657863   -4.2657863   -3.0445291  0.024229453   -4.2657863    1.2212572   439061 
 1962000   0.81564984   -4.2680666   -4.2680666   -3.0445947  0.019558878   -4.2680666     1.223472   439061 
 1963000   0.81462633   -4.2675402   -4.2675402   -3.0456035  0.021076996   -4.2675402    1.2219367   439061 
 1964000    0.8149312   -4.2669975   -4.2669975   -3.0446035  0.021545749   -4.2669975     1.222394   439061 
 1965000   0.81489436   -4.2682551   -4.2682551   -3.0459164   0.01830836   -4.2682551    1.2223388   439061 
 1966000   0.81456051    -4.267391    -4.267391    -3.045553  0.025239425    -4.267391     1.221838   439061 
 1967000   0.81590137   -4.2693671   -4.2693671   -3.0455178  0.017083396   -4.2693671    1.2238493   439061 
 1968000    0.8144647   -4.2675157   -4.2675157   -3.0458214  0.018466766   -4.2675157    1.2216943   439061 
 1969000   0.81407029   -4.2658177   -4.2658177   -3.0447151    0.0153949   -4.2658177    1.2211026   439061 
 1970000   0.81329847   -4.2647081   -4.2647081   -3.0447631  0.013083059   -4.2647081    1.2199449   439061 
 1971000   0.81250444   -4.2637307   -4.2637307   -3.0449768  0.020158928   -4.2637307    1.2187539   439061 
 1972000   0.81490908   -4.2675227   -4.2675227   -3.0451619  0.018003442   -4.2675227    1.2223608   439061 
 1973000   0.81339263   -4.2639693   -4.2639693   -3.0438831  0.024792426   -4.2639693    1.2200862   439061 
 1974000   0.81279407    -4.262342    -4.262342   -3.0431537  0.020080486    -4.262342    1.2191883   439061 
 1975000   0.81238515   -4.2636617   -4.2636617   -3.0450868  0.015214631   -4.2636617    1.2185749   439061 
 1976000   0.81233245    -4.263197    -4.263197   -3.0447011  0.017937038    -4.263197    1.2184959   439061 
 1977000   0.81306521   -4.2641225   -4.2641225   -3.0445275  0.017825971   -4.2641225     1.219595   439061 
 1978000   0.81402179   -4.2653243   -4.2653243   -3.0442944  0.019649098   -4.2653243    1.2210299   439061 
 1979000   0.81447311   -4.2665033   -4.2665033   -3.0447964  0.019367138   -4.2665033    1.2217069   439061 
 1980000   0.81451458   -4.2674843   -4.2674843   -3.0457152   0.01883781   -4.2674843    1.2217691   439061 
 1981000   0.81450881   -4.2673581   -4.2673581   -3.0455977  0.021856982   -4.2673581    1.2217604   439061 
 1982000   0.81396544   -4.2662267   -4.2662267   -3.0452813  0.023184587   -4.2662267    1.2209454   439061 
 1983000   0.81418443    -4.267022    -4.267022   -3.0457481  0.024543601    -4.267022    1.2212739   439061 
 1984000   0.81333157     -4.26631     -4.26631   -3.0463154  0.020897281     -4.26631    1.2199946   439061 
 1985000   0.81491696   -4.2673534   -4.2673534   -3.0449807  0.026313098   -4.2673534    1.2223727   439061 
 1986000   0.81397243   -4.2662353   -4.2662353   -3.0452794  0.022745334   -4.2662353    1.2209559   439061 
 1987000   0.81399939   -4.2679117   -4.2679117   -3.0469154  0.021348858   -4.2679117    1.2209963   439061 
 1988000   0.81271843   -4.2674652   -4.2674652   -3.0483903   0.01549179   -4.2674652    1.2190749   439061 
 1989000   0.81294676   -4.2683435   -4.2683435   -3.0489262  0.012940328   -4.2683435    1.2194174   439061 
 1990000   0.81233253   -4.2664321   -4.2664321   -3.0479361  0.013896429   -4.2664321     1.218496   439061 
 1991000   0.81372826   -4.2675947   -4.2675947   -3.0470051  0.016627748   -4.2675947    1.2205896   439061 
 1992000   0.81404686   -4.2687324   -4.2687324   -3.0476649  0.020334621   -4.2687324    1.2210675   439061 
 1993000   0.81400217   -4.2673679   -4.2673679   -3.0463674  0.018128795   -4.2673679    1.2210005   439061 
 1994000   0.81419875   -4.2689559   -4.2689559   -3.0476606  0.020306703   -4.2689559    1.2212953   439061 
 1995000   0.81442127   -4.2694223   -4.2694223   -3.0477932    0.0164358   -4.2694223    1.2216291   439061 
 1996000   0.81240221   -4.2662747   -4.2662747   -3.0476742  0.016451545   -4.2662747    1.2186005   439061 
 1997000   0.81206696   -4.2668087   -4.2668087   -3.0487111   0.01913291   -4.2668087    1.2180977   439061 
 1998000   0.81274113    -4.268725    -4.268725   -3.0496161  0.020779709    -4.268725    1.2191089   439061 
 1999000   0.81305712    -4.268891    -4.268891   -3.0493081   0.01788997    -4.268891    1.2195829   439061 
 2000000   0.81363323   -4.2686519   -4.2686519   -3.0482048  0.020088483   -4.2686519    1.2204471   439061 
 2001000   0.81395936   -4.2689147   -4.2689147   -3.0479784  0.020577457   -4.2689147    1.2209363   439061 
 2002000   0.81383902   -4.2688594   -4.2688594   -3.0481037    0.0229126   -4.2688594    1.2207558   439061 
 2003000    0.8135656   -4.2703373   -4.2703373   -3.0499917  0.020305258   -4.2703373    1.2203456   439061 
 2004000   0.81418822   -4.2718575   -4.2718575   -3.0505779  0.018826101   -4.2718575    1.2212795   439061 
 2005000   0.81264652   -4.2696043   -4.2696043   -3.0506373  0.016820543   -4.2696043     1.218967   439061 
 2006000   0.81331472   -4.2714695   -4.2714695   -3.0515001  0.016867152   -4.2714695    1.2199693   439061 
 2007000   0.81303248    -4.272308    -4.272308   -3.0527621  0.014719045    -4.272308    1.2195459   439061 
 2008000   0.81301871   -4.2716652   -4.2716652   -3.0521399   0.01485259   -4.2716652    1.2195253   439061 
 2009000   0.81223142   -4.2705875   -4.2705875   -3.0522431  0.018318582   -4.2705875    1.2183444   439061 
 2010000   0.81203806   -4.2711227   -4.2711227   -3.0530683  0.017944853   -4.2711227    1.2180543   439061 
 2011000   0.81395969   -4.2739986   -4.2739986   -3.0530618  0.016433235   -4.2739986    1.2209368   439061 
 2012000   0.81401293   -4.2725938   -4.2725938   -3.0515771   0.01904854   -4.2725938    1.2210166   439061 
 2013000   0.81309556   -4.2719133   -4.2719133   -3.0522728  0.022411332   -4.2719133    1.2196406   439061 
 2014000   0.81398039   -4.2733925   -4.2733925   -3.0524247  0.016636719   -4.2733925    1.2209678   439061 
 2015000   0.81352697   -4.2733795   -4.2733795   -3.0530918  0.019898947   -4.2733795    1.2202877   439061 
 2016000   0.81197273   -4.2714843   -4.2714843    -3.053528  0.019805592   -4.2714843    1.2179563   439061 
 2017000   0.81185493   -4.2717249   -4.2717249   -3.0539453  0.022359739   -4.2717249    1.2177796   439061 
 2018000   0.81140087   -4.2729507   -4.2729507   -3.0558522  0.018559801   -4.2729507    1.2170985   439061 
 2019000   0.81134837   -4.2719575   -4.2719575   -3.0549377  0.021647268   -4.2719575    1.2170198   439061 
 2020000   0.81310802   -4.2737198   -4.2737198   -3.0540606   0.01968225   -4.2737198    1.2196593   439061 
 2021000   0.81271221   -4.2732642   -4.2732642   -3.0541987  0.021070607   -4.2732642    1.2190655   439061 
 2022000   0.81280414   -4.2738788   -4.2738788   -3.0546754  0.018865584   -4.2738788    1.2192034   439061 
 2023000   0.81237134   -4.2727571   -4.2727571   -3.0542029  0.027499542   -4.2727571    1.2185542   439061 
 2024000   0.81459643   -4.2754761   -4.2754761   -3.0535843  0.021843354   -4.2754761    1.2218919   439061 
 2025000   0.81346202   -4.2733938   -4.2733938   -3.0532035    0.0224807   -4.2733938    1.2201903   439061 
 2026000   0.81431833   -4.2742907   -4.2742907   -3.0528159  0.018889384   -4.2742907    1.2214747   439061 
 2027000   0.81247497    -4.273152    -4.273152   -3.0544424  0.020424428    -4.273152    1.2187097   439061 
 2028000   0.81296429   -4.2742772   -4.2742772   -3.0548335  0.013544528   -4.2742772    1.2194437   439061 
 2029000   0.80986683   -4.2711711   -4.2711711   -3.0563736  0.017398047   -4.2711711    1.2147975   439061 
 2030000   0.81082947   -4.2722206   -4.2722206   -3.0559792  0.018944642   -4.2722206    1.2162414   439061 
 2031000   0.81201196    -4.274249    -4.274249   -3.0562338  0.013325341    -4.274249    1.2180152   439061 
 2032000   0.81254654   -4.2735956   -4.2735956   -3.0547786  0.017497461   -4.2735956     1.218817   439061 
 2033000   0.81299665   -4.2735162   -4.2735162    -3.054024  0.021612196   -4.2735162    1.2194922   439061 
 2034000   0.81273434   -4.2734841   -4.2734841   -3.0543854  0.020808488   -4.2734841    1.2190987   439061 
 2035000   0.81324295   -4.2746838   -4.2746838   -3.0548221  0.017240214   -4.2746838    1.2198617   439061 
 2036000   0.81351168   -4.2756398   -4.2756398    -3.055375  0.018822252   -4.2756398    1.2202647   439061 
 2037000   0.81319035   -4.2769909   -4.2769909   -3.0572081  0.019076645   -4.2769909    1.2197827   439061 
 2038000   0.81211279   -4.2750765   -4.2750765   -3.0569101  0.020518758   -4.2750765    1.2181664   439061 
 2039000    0.8133936   -4.2763028   -4.2763028   -3.0562151  0.022387711   -4.2763028    1.2200876   439061 
 2040000   0.81227624   -4.2757491   -4.2757491   -3.0573376   0.02152889   -4.2757491    1.2184116   439061 
 2041000   0.81153291   -4.2764795   -4.2764795   -3.0591829  0.022217244   -4.2764795    1.2172966   439061 
 2042000   0.81104722   -4.2751277   -4.2751277   -3.0585597  0.022318884   -4.2751277    1.2165681   439061 
 2043000   0.81201305    -4.275298    -4.275298   -3.0572812  0.015961214    -4.275298    1.2180168   439061 
 2044000   0.81299569   -4.2764578   -4.2764578   -3.0569671  0.017674397   -4.2764578    1.2194908   439061 
 2045000   0.81266235   -4.2755569   -4.2755569   -3.0565662  0.016569539   -4.2755569    1.2189907   439061 
 2046000   0.81297416   -4.2773951   -4.2773951   -3.0579366  0.019653467   -4.2773951    1.2194585   439061 
 2047000   0.81232655   -4.2754421   -4.2754421    -3.056955  0.019788987   -4.2754421     1.218487   439061 
 2048000   0.81235707   -4.2764588   -4.2764588    -3.057926  0.016764799   -4.2764588    1.2185328   439061 
 2049000   0.81126038   -4.2755457   -4.2755457   -3.0586579  0.018525469   -4.2755457    1.2168878   439061 
 2050000   0.81012331   -4.2729556   -4.2729556   -3.0577734  0.019295653   -4.2729556    1.2151822   439061 
 2051000    0.8099034    -4.272342    -4.272342   -3.0574897  0.013343053    -4.272342    1.2148523   439061 
 2052000   0.81168815   -4.2748324   -4.2748324    -3.057303  0.014376033   -4.2748324    1.2175295   439061 
 2053000   0.81112667    -4.273058    -4.273058   -3.0563707  0.017429865    -4.273058    1.2166872   439061 
 2054000   0.81177339   -4.2737421   -4.2737421   -3.0560848  0.020403006   -4.2737421    1.2176573   439061 
 2055000   0.81101079     -4.27352     -4.27352   -3.0570066  0.021061523     -4.27352    1.2165134   439061 
 2056000   0.81190012   -4.2740676   -4.2740676   -3.0562202  0.024291083   -4.2740676    1.2178474   439061 
 2057000    0.8110533   -4.2737499   -4.2737499   -3.0571727  0.023292406   -4.2737499    1.2165772   439061 
 2058000    0.8115192   -4.2745544   -4.2745544   -3.0572784  0.022568211   -4.2745544     1.217276   439061 
 2059000   0.81252935   -4.2763407   -4.2763407   -3.0575495  0.019093307   -4.2763407    1.2187913   439061 
 2060000   0.81142422   -4.2749893   -4.2749893   -3.0578557  0.018780762   -4.2749893    1.2171336   439061 
 2061000   0.81365443   -4.2761764   -4.2761764   -3.0556975  0.020564492   -4.2761764    1.2204789   439061 
 2062000   0.81194632   -4.2749312   -4.2749312   -3.0570145   0.02026403   -4.2749312    1.2179167   439061 
 2063000   0.81157748    -4.274477    -4.274477   -3.0571136  0.019890181    -4.274477    1.2173634   439061 
 2064000   0.81385234   -4.2778871   -4.2778871   -3.0571113    0.0174133   -4.2778871    1.2207757   439061 
 2065000   0.81328963    -4.276934    -4.276934   -3.0570023  0.019828925    -4.276934    1.2199317   439061 
 2066000   0.81245931    -4.275766    -4.275766   -3.0570798  0.016839241    -4.275766    1.2186862   439061 
 2067000   0.81175039   -4.2758774   -4.2758774   -3.0582546  0.015798998   -4.2758774    1.2176228   439061 
 2068000    0.8134215   -4.2782224   -4.2782224   -3.0580929   0.01640718   -4.2782224    1.2201295   439061 
 2069000   0.81295191    -4.275845    -4.275845   -3.0564199  0.022696799    -4.275845    1.2194251   439061 
 2070000   0.81235405   -4.2762005   -4.2762005   -3.0576722  0.020013996   -4.2762005    1.2185283   439061 
 2071000   0.81117478   -4.2770915   -4.2770915   -3.0603321  0.017551332   -4.2770915    1.2167594   439061 
 2072000   0.81130628   -4.2772193   -4.2772193   -3.0602627  0.017557789   -4.2772193    1.2169567   439061 
 2073000   0.81093502    -4.276184    -4.276184   -3.0597843  0.014210511    -4.276184    1.2163998   439061 
 2074000   0.81179284   -4.2776878   -4.2776878   -3.0600013   0.01419653   -4.2776878    1.2176865   439061 
 2075000   0.81140731   -4.2787065   -4.2787065   -3.0615983  0.018206432   -4.2787065    1.2171082   439061 
 2076000   0.81171976   -4.2793551   -4.2793551   -3.0617782  0.024442403   -4.2793551    1.2175769   439061 
 2077000   0.81221263   -4.2786682   -4.2786682    -3.060352  0.021431373   -4.2786682    1.2183162   439061 
 2078000   0.81269115   -4.2801383   -4.2801383   -3.0611043  0.025269897   -4.2801383     1.219034   439061 
 2079000     0.812909   -4.2809704   -4.2809704   -3.0616097    0.0193633   -4.2809704    1.2193607   439061 
 2080000   0.81211276   -4.2803427   -4.2803427   -3.0621763  0.025870825   -4.2803427    1.2181664   439061 
 2081000   0.81037326   -4.2792969   -4.2792969   -3.0637397  0.024338738   -4.2792969    1.2155571   439061 
 2082000   0.81145201   -4.2815093   -4.2815093   -3.0643341  0.019089102   -4.2815093    1.2171752   439061 
 2083000   0.81058054   -4.2808232   -4.2808232   -3.0649551  0.018772058   -4.2808232     1.215868   439061 
 2084000   0.80936094   -4.2781241   -4.2781241   -3.0640854  0.019473083   -4.2781241    1.2140386   439061 
 2085000   0.81059118    -4.279116    -4.279116    -3.063232  0.019592592    -4.279116     1.215884   439061 
 2086000   0.81225417    -4.281148    -4.281148   -3.0627695  0.019459387    -4.281148    1.2183785   439061 
 2087000   0.81166506   -4.2805423   -4.2805423   -3.0630475  0.021091814   -4.2805423    1.2174948   439061 
 2088000    0.8111383   -4.2797639   -4.2797639   -3.0630592  0.019452505   -4.2797639    1.2167047   439061 
 2089000   0.81169133   -4.2795466   -4.2795466   -3.0620124  0.019287024   -4.2795466    1.2175342   439061 
 2090000    0.8095842   -4.2788525   -4.2788525    -3.064479  0.017739446   -4.2788525    1.2143735   439061 
 2091000   0.81036509    -4.279662    -4.279662   -3.0641171  0.017268528    -4.279662    1.2155449   439061 
 2092000   0.81007668   -4.2792411   -4.2792411   -3.0641288  0.020740069   -4.2792411    1.2151123   439061 
 2093000   0.80967004   -4.2794928   -4.2794928   -3.0649905  0.021087857   -4.2794928    1.2145023   439061 
 2094000   0.81145403   -4.2809184   -4.2809184   -3.0637401  0.019056531   -4.2809184    1.2171783   439061 
 2095000   0.81290918    -4.282804    -4.282804    -3.063443  0.015785401    -4.282804     1.219361   439061 
 2096000   0.81097978   -4.2808974   -4.2808974   -3.0644305  0.018642086   -4.2808974    1.2164669   439061 
 2097000   0.81031422   -4.2791073   -4.2791073   -3.0636388  0.019761642   -4.2791073    1.2154686   439061 
 2098000   0.81071729   -4.2808646   -4.2808646   -3.0647914  0.019845105   -4.2808646    1.2160732   439061 
 2099000   0.81176413   -4.2823003   -4.2823003   -3.0646569  0.016679891   -4.2823003    1.2176434   439061 
 2100000    0.8110632   -4.2815924   -4.2815924   -3.0650004  0.026254846   -4.2815924     1.216592   439061 
 2101000   0.81093411   -4.2816902   -4.2816902   -3.0652918  0.022780936   -4.2816902    1.2163984   439061 
 2102000   0.81042437   -4.2814391   -4.2814391   -3.0658053  0.018586546   -4.2814391    1.2156338   439061 
 2103000   0.81127719   -4.2833315   -4.2833315   -3.0664184  0.019454851   -4.2833315     1.216913   439061 
 2104000    0.8106134   -4.2810262   -4.2810262   -3.0651089  0.020946024   -4.2810262    1.2159173   439061 
 2105000   0.81121089   -4.2828704   -4.2828704   -3.0660568  0.021398034   -4.2828704    1.2168136   439061 
 2106000   0.81001045   -4.2820728   -4.2820728   -3.0670599  0.024643269   -4.2820728    1.2150129   439061 
 2107000   0.81115426   -4.2834517   -4.2834517   -3.0667231  0.023221788   -4.2834517    1.2167286   439061 
 2108000   0.81061546   -4.2823796   -4.2823796   -3.0664591  0.022672223   -4.2823796    1.2159204   439061 
 2109000   0.80958984   -4.2813333   -4.2813333   -3.0669513  0.018066305   -4.2813333     1.214382   439061 
 2110000   0.80963579   -4.2819462   -4.2819462   -3.0674953  0.017710819   -4.2819462    1.2144509   439061 
 2111000    0.8097492   -4.2831936   -4.2831936   -3.0685725  0.020920551   -4.2831936     1.214621   439061 
 2112000   0.81009315   -4.2829656   -4.2829656   -3.0678287   0.01771875   -4.2829656     1.215137   439061 
 2113000   0.81099409    -4.283835    -4.283835   -3.0673467  0.013414774    -4.283835    1.2164884   439061 
 2114000   0.81081869    -4.282247    -4.282247   -3.0660217  0.019230103    -4.282247    1.2162253   439061 
 2115000   0.81060068     -4.28339     -4.28339   -3.0674918   0.01809825     -4.28339    1.2158983   439061 
 2116000   0.81197801   -4.2838775   -4.2838775   -3.0659133  0.021130856   -4.2838775    1.2179642   439061 
 2117000   0.81030557   -4.2818302   -4.2818302   -3.0663746  0.024854036   -4.2818302    1.2154556   439061 
 2118000   0.81040925   -4.2821189   -4.2821189   -3.0665078  0.022428468   -4.2821189    1.2156111   439061 
 2119000   0.81061584   -4.2826981   -4.2826981   -3.0667771  0.018194257   -4.2826981     1.215921   439061 
 2120000   0.81103625   -4.2839301   -4.2839301   -3.0673785   0.01190065   -4.2839301    1.2165516   439061 
 2121000   0.81051023   -4.2835348   -4.2835348   -3.0677722  0.018638888   -4.2835348    1.2157626   439061 
 2122000   0.81118253   -4.2824694   -4.2824694   -3.0656983  0.019455098   -4.2824694     1.216771   439061 
 2123000   0.81199866   -4.2836946   -4.2836946   -3.0656994  0.016611338   -4.2836946    1.2179952   439061 
 2124000   0.80985762   -4.2816016   -4.2816016    -3.066818  0.020357311   -4.2816016    1.2147837   439061 
 2125000   0.81122204   -4.2832451   -4.2832451   -3.0664148  0.021445308   -4.2832451    1.2168303   439061 
 2126000   0.81061111   -4.2827275   -4.2827275   -3.0668136  0.020707942   -4.2827275    1.2159139   439061 
 2127000   0.80987575   -4.2829691   -4.2829691   -3.0681583  0.020311881   -4.2829691    1.2148109   439061 
 2128000   0.81066638   -4.2835071   -4.2835071   -3.0675103  0.014885365   -4.2835071    1.2159968   439061 
 2129000   0.80958642   -4.2820414   -4.2820414   -3.0676645  0.013918738   -4.2820414    1.2143769   439061 
 2130000   0.81045796   -4.2836366   -4.2836366   -3.0679524  0.014706981   -4.2836366    1.2156842   439061 
 2131000   0.80998923   -4.2840975   -4.2840975   -3.0691164  0.020641985   -4.2840975    1.2149811   439061 
 2132000   0.81128832   -4.2846239   -4.2846239   -3.0676942  0.022749987   -4.2846239    1.2169297   439061 
 2133000   0.81045706    -4.284265    -4.284265   -3.0685821  0.020711608    -4.284265    1.2156828   439061 
 2134000   0.81090602   -4.2858057   -4.2858057   -3.0694494   0.01847501   -4.2858057    1.2163563   439061 
 2135000   0.81074389   -4.2858211   -4.2858211    -3.069708   0.01925224   -4.2858211    1.2161131   439061 
 2136000   0.81004079   -4.2848521   -4.2848521   -3.0697937  0.018539891   -4.2848521    1.2150584   439061 
 2137000   0.81177341    -4.287837    -4.287837   -3.0701797  0.014863219    -4.287837    1.2176573   439061 
 2138000   0.81034735   -4.2872664   -4.2872664   -3.0717481  0.019454254   -4.2872664    1.2155183   439061 
 2139000   0.81008636   -4.2861362   -4.2861362   -3.0710094  0.020557081   -4.2861362    1.2151268   439061 
 2140000   0.81053145    -4.287334    -4.287334   -3.0715396   0.01574256    -4.287334    1.2157944   439061 
 2141000   0.81018386   -4.2866458   -4.2866458   -3.0713728  0.018226229   -4.2866458     1.215273   439061 
 2142000   0.80962335    -4.285914    -4.285914   -3.0714817  0.020244632    -4.285914    1.2144323   439061 
 2143000   0.81084123   -4.2868999   -4.2868999   -3.0706408  0.016320616   -4.2868999    1.2162591   439061 
 2144000   0.80965471   -4.2859043   -4.2859043    -3.071425  0.018842792   -4.2859043    1.2144793   439061 
 2145000   0.80996337   -4.2865257   -4.2865257   -3.0715834  0.020606059   -4.2865257    1.2149423   439061 
 2146000   0.80989354    -4.285855    -4.285855   -3.0710175  0.017143753    -4.285855    1.2148375   439061 
 2147000   0.80962582    -4.285802    -4.285802    -3.071366  0.014479467    -4.285802     1.214436   439061 
 2148000   0.81141145   -4.2875772   -4.2875772   -3.0704628  0.017156478   -4.2875772    1.2171144   439061 
 2149000   0.80937948   -4.2844699   -4.2844699   -3.0704035  0.020525446   -4.2844699    1.2140665   439061 
 2150000   0.81124639   -4.2878384   -4.2878384   -3.0709716  0.015212872   -4.2878384    1.2168668   439061 
 2151000   0.81015262   -4.2869235   -4.2869235   -3.0716973  0.017657384   -4.2869235    1.2152262   439061 
 2152000   0.80820606   -4.2854264   -4.2854264   -3.0731201  0.018005172   -4.2854264    1.2123063   439061 
 2153000   0.80818898   -4.2860012   -4.2860012   -3.0737205  0.019385519   -4.2860012    1.2122807   439061 
 2154000   0.80895992   -4.2874347   -4.2874347   -3.0739976  0.014423883   -4.2874347    1.2134371   439061 
 2155000   0.80901836   -4.2868262   -4.2868262   -3.0733015  0.020565739   -4.2868262    1.2135248   439061 
 2156000   0.80926987   -4.2882564   -4.2882564   -3.0743544  0.016981044   -4.2882564     1.213902   439061 
 2157000   0.80907414   -4.2880773   -4.2880773   -3.0744689  0.020338297   -4.2880773    1.2136085   439061 
 2158000   0.80991753   -4.2885746   -4.2885746    -3.073701  0.024077033   -4.2885746    1.2148735   439061 
 2159000   0.81046374   -4.2894245   -4.2894245   -3.0737317  0.019822822   -4.2894245    1.2156928   439061 
 2160000   0.81016954   -4.2901132   -4.2901132   -3.0748617  0.019358921   -4.2901132    1.2152515   439061 
 2161000   0.80994055   -4.2895838   -4.2895838   -3.0746757  0.020138243   -4.2895838    1.2149081   439061 
 2162000   0.80960112   -4.2895999   -4.2895999    -3.075201  0.023816078   -4.2895999    1.2143989   439061 
 2163000   0.80861252    -4.288503    -4.288503    -3.075587  0.022260234    -4.288503     1.212916   439061 
 2164000   0.80958804   -4.2899211   -4.2899211   -3.0755418  0.018590365   -4.2899211    1.2143793   439061 
 2165000   0.80936219   -4.2891257   -4.2891257   -3.0750851  0.021682668   -4.2891257    1.2140405   439061 
 2166000   0.81067721   -4.2902133   -4.2902133   -3.0742003  0.010731973   -4.2902133    1.2160131   439061 
 2167000   0.80995168   -4.2890715   -4.2890715   -3.0741468   0.01835924   -4.2890715    1.2149248   439061 
 2168000   0.80899592   -4.2887743   -4.2887743   -3.0752832  0.012841591   -4.2887743    1.2134911   439061 
 2169000   0.80963721   -4.2880226   -4.2880226   -3.0735695   0.01575509   -4.2880226    1.2144531   439061 
 2170000   0.80875959   -4.2856661   -4.2856661   -3.0725295  0.021830181   -4.2856661    1.2131366   439061 
 2171000   0.81014331   -4.2874203   -4.2874203   -3.0722081  0.018876996   -4.2874203    1.2152122   439061 
 2172000   0.81159186   -4.2910217   -4.2910217   -3.0736367  0.016176749   -4.2910217     1.217385   439061 
 2173000   0.81027094   -4.2879503   -4.2879503   -3.0725466  0.015765264   -4.2879503    1.2154036   439061 
 2174000   0.80964015   -4.2856969   -4.2856969   -3.0712395  0.019557601   -4.2856969    1.2144575   439061 
 2175000   0.80883571   -4.2854975   -4.2854975   -3.0722467  0.020313433   -4.2854975    1.2132508   439061 
 2176000   0.80912369   -4.2862701   -4.2862701   -3.0725874  0.018156128   -4.2862701    1.2136828   439061 
 2177000   0.80949259   -4.2884672   -4.2884672   -3.0742311  0.011096213   -4.2884672    1.2142361   439061 
 2178000   0.80775162   -4.2850395   -4.2850395   -3.0734148  0.018507693   -4.2850395    1.2116247   439061 
 2179000   0.81100291   -4.2888044   -4.2888044   -3.0723028  0.014127812   -4.2888044    1.2165016   439061 
 2180000   0.80937967   -4.2881528   -4.2881528   -3.0740861  0.016625421   -4.2881528    1.2140667   439061 
 2181000   0.80948407   -4.2876765   -4.2876765   -3.0734531  0.022813661   -4.2876765    1.2142233   439061 
 2182000    0.8097198   -4.2885471   -4.2885471   -3.0739701  0.016119115   -4.2885471    1.2145769   439061 
 2183000    0.8093337   -4.2876802   -4.2876802   -3.0736824   0.02123106   -4.2876802    1.2139978   439061 
 2184000    0.8107627    -4.289831    -4.289831   -3.0736897  0.016577206    -4.289831    1.2161413   439061 
 2185000   0.81126242   -4.2910527   -4.2910527   -3.0741618  0.019714281   -4.2910527    1.2168909   439061 
 2186000   0.81042004   -4.2903046   -4.2903046   -3.0746773  0.024053738   -4.2903046    1.2156273   439061 
 2187000   0.81033061   -4.2901849   -4.2901849   -3.0746917  0.019685516   -4.2901849    1.2154931   439061 
 2188000   0.80956169   -4.2904271   -4.2904271   -3.0760873  0.017628284   -4.2904271    1.2143398   439061 
 2189000    0.8090465   -4.2884612   -4.2884612   -3.0748942  0.019018231   -4.2884612     1.213567   439061 
 2190000   0.80941607    -4.290398    -4.290398   -3.0762766  0.016112851    -4.290398    1.2141213   439061 
 2191000   0.80860317    -4.289492    -4.289492     -3.07659  0.015343355    -4.289492     1.212902   439061 
 2192000   0.80811108   -4.2893597   -4.2893597   -3.0771958  0.016147833   -4.2893597    1.2121639   439061 
 2193000   0.80858495   -4.2903014   -4.2903014   -3.0774267  0.011161099   -4.2903014    1.2128747   439061 
 2194000   0.80840398   -4.2888688   -4.2888688   -3.0762656  0.018054282   -4.2888688    1.2126032   439061 
 2195000   0.80838712   -4.2901683   -4.2901683   -3.0775904  0.015847306   -4.2901683    1.2125779   439061 
 2196000   0.80913369   -4.2916467   -4.2916467   -3.0779489  0.019178909   -4.2916467    1.2136978   439061 
 2197000   0.80978957   -4.2928397   -4.2928397   -3.0781582  0.016137642   -4.2928397    1.2146816   439061 
 2198000   0.80992987   -4.2925576   -4.2925576   -3.0776656  0.021842139   -4.2925576     1.214892   439061 
 2199000   0.80894866   -4.2920207   -4.2920207   -3.0786005  0.020265126   -4.2920207    1.2134202   439061 
 2200000     0.809746   -4.2931848   -4.2931848   -3.0785686  0.020484939   -4.2931848    1.2146162   439061 
 2201000   0.80888652   -4.2930243   -4.2930243   -3.0796973   0.02413614   -4.2930243     1.213327   439061 
 2202000   0.80821937   -4.2918635   -4.2918635   -3.0795372  0.022564726   -4.2918635    1.2123263   439061 
 2203000   0.80975911   -4.2933292   -4.2933292   -3.0786933  0.016384871   -4.2933292    1.2146359   439061 
 2204000   0.80973744   -4.2940233   -4.2940233   -3.0794199  0.015053922   -4.2940233    1.2146034   439061 
 2205000   0.80918967   -4.2944073   -4.2944073   -3.0806256  0.016778227   -4.2944073    1.2137817   439061 
 2206000   0.80932542   -4.2940821   -4.2940821   -3.0800967  0.019556607   -4.2940821    1.2139854   439061 
 2207000   0.80959802   -4.2947341   -4.2947341   -3.0803398  0.014690333   -4.2947341    1.2143943   439061 
 2208000   0.81007465   -4.2940866   -4.2940866   -3.0789774   0.02133949   -4.2940866    1.2151092   439061 
 2209000   0.80943604   -4.2929176   -4.2929176   -3.0787663  0.021487641   -4.2929176    1.2141513   439061 
 2210000   0.81044971   -4.2946391   -4.2946391   -3.0789673  0.019325407   -4.2946391    1.2156718   439061 
 2211000   0.80951916   -4.2918523   -4.2918523   -3.0775763  0.019913297   -4.2918523     1.214276   439061 
 2212000   0.80920658   -4.2936178   -4.2936178   -3.0798106  0.013136256   -4.2936178    1.2138071   439061 
 2213000   0.80855277   -4.2927955   -4.2927955   -3.0799691  0.018688198   -4.2927955    1.2128264   439061 
 2214000    0.8092012   -4.2939129   -4.2939129   -3.0801138  0.015221023   -4.2939129     1.213799   439061 
 2215000   0.80737563   -4.2911801   -4.2911801   -3.0801194  0.012935553   -4.2911801    1.2110607   439061 
 2216000   0.80878563   -4.2933864   -4.2933864   -3.0802107  0.011436535   -4.2933864    1.2131757   439061 
 2217000   0.80784343   -4.2931789   -4.2931789   -3.0814165  0.016058145   -4.2931789    1.2117624   439061 
 2218000   0.80770648   -4.2925881   -4.2925881   -3.0810311  0.015189365   -4.2925881     1.211557   439061 
 2219000   0.80919946   -4.2943598   -4.2943598   -3.0805634  0.012765042   -4.2943598    1.2137964   439061 
 2220000   0.80867348   -4.2928758   -4.2928758   -3.0798684  0.024381295   -4.2928758    1.2130075   439061 
 2221000   0.80996632   -4.2933696   -4.2933696   -3.0784229  0.022537771   -4.2933696    1.2149467   439061 
 2222000   0.81072748   -4.2948394   -4.2948394   -3.0787509   0.02548518   -4.2948394    1.2160885   439061 
 2223000   0.80999923   -4.2932254   -4.2932254   -3.0782293  0.026992487   -4.2932254    1.2149961   439061 
 2224000   0.81130399   -4.2962169   -4.2962169   -3.0792637   0.01797943   -4.2962169    1.2169532   439061 
 2225000   0.80949161   -4.2936868   -4.2936868   -3.0794522  0.021497415   -4.2936868    1.2142347   439061 
 2226000   0.80856184   -4.2921578   -4.2921578   -3.0793178  0.019689989   -4.2921578      1.21284   439061 
 2227000   0.80921618   -4.2932893   -4.2932893   -3.0794678  0.014688057   -4.2932893    1.2138215   439061 
 2228000   0.80993814   -4.2947012   -4.2947012   -3.0797967  0.013952772   -4.2947012    1.2149044   439061 
 2229000   0.80964056   -4.2930139   -4.2930139   -3.0785559  0.018069191   -4.2930139    1.2144581   439061 
 2230000   0.80859554   -4.2922347   -4.2922347   -3.0793442  0.019895739   -4.2922347    1.2128905   439061 
 2231000   0.80884395   -4.2923013   -4.2923013   -3.0790381   0.01507441   -4.2923013    1.2132632   439061 
 2232000   0.80817943   -4.2915864   -4.2915864   -3.0793201   0.01354638   -4.2915864    1.2122664   439061 
 2233000   0.80753823   -4.2920182   -4.2920182   -3.0807136  0.009856504   -4.2920182    1.2113046   439061 
 2234000   0.80713269    -4.291736    -4.291736   -3.0810397  0.012830547    -4.291736    1.2106963   439061 
 2235000    0.8081265   -4.2939141   -4.2939141   -3.0817271  0.016073168   -4.2939141     1.212187   439061 
 2236000   0.80836165   -4.2939004   -4.2939004   -3.0813607  0.015936673   -4.2939004    1.2125397   439061 
 2237000      0.80986   -4.2963533   -4.2963533   -3.0815661  0.018362699   -4.2963533    1.2147872   439061 
 2238000   0.81110095   -4.2967378   -4.2967378   -3.0800891  0.020928926   -4.2967378    1.2166487   439061 
 2239000   0.81050952   -4.2954913   -4.2954913   -3.0797298  0.026579141   -4.2954913    1.2157615   439061 
 2240000   0.80944919    -4.295973    -4.295973    -3.081802  0.023509739    -4.295973     1.214171   439061 
 2241000   0.81096208   -4.2979319   -4.2979319   -3.0814915  0.022986529   -4.2979319    1.2164403   439061 
 2242000   0.81085619   -4.2979326   -4.2979326   -3.0816511   0.02630235   -4.2979326    1.2162815   439061 
 2243000   0.81146685   -4.2989647   -4.2989647   -3.0817672  0.018974149   -4.2989647    1.2171975   439061 
 2244000   0.80840914   -4.2954226   -4.2954226   -3.0828117  0.019672436   -4.2954226     1.212611   439061 
 2245000   0.80919084   -4.2966695   -4.2966695    -3.082886  0.016144881   -4.2966695    1.2137835   439061 
 2246000   0.80819512   -4.2956323   -4.2956323   -3.0833424  0.017311452   -4.2956323    1.2122899   439061 
 2247000   0.80873144   -4.2968472   -4.2968472   -3.0837528   0.01277718   -4.2968472    1.2130944   439061 
 2248000   0.80765893   -4.2947086   -4.2947086    -3.083223  0.014169953   -4.2947086    1.2114856   439061 
 2249000   0.80715378   -4.2939841   -4.2939841   -3.0832562  0.014308162   -4.2939841    1.2107279   439061 
 2250000   0.80820729   -4.2950634   -4.2950634   -3.0827553  0.010954119   -4.2950634    1.2123082   439061 
 2251000   0.80781776    -4.292788    -4.292788   -3.0810641  0.013129645    -4.292788    1.2117239   439061 
 2252000    0.8088232   -4.2937427   -4.2937427   -3.0805107  0.016204978   -4.2937427     1.213232   439061 
 2253000   0.80885618   -4.2944899   -4.2944899   -3.0812084  0.019306963   -4.2944899    1.2132815   439061 
 2254000   0.80858263   -4.2943446   -4.2943446   -3.0814734  0.017995529   -4.2943446    1.2128712   439061 
 2255000   0.80847518   -4.2940967   -4.2940967   -3.0813867  0.019136067   -4.2940967      1.21271   439061 
 2256000    0.8087951   -4.2955067   -4.2955067   -3.0823169  0.021491241   -4.2955067    1.2131899   439061 
 2257000   0.80846525   -4.2959593   -4.2959593   -3.0832642  0.017302022   -4.2959593    1.2126951   439061 
 2258000   0.80863516   -4.2967128   -4.2967128   -3.0837628  0.018079941   -4.2967128      1.21295   439061 
 2259000   0.80848045   -4.2969769   -4.2969769   -3.0842589  0.014372551   -4.2969769    1.2127179   439061 
 2260000   0.80796877   -4.2958757   -4.2958757   -3.0839253  0.019508004   -4.2958757    1.2119504   439061 
 2261000    0.8073851   -4.2958097   -4.2958097   -3.0847348  0.016652754   -4.2958097    1.2110749   439061 
 2262000   0.80900387   -4.2979682   -4.2979682   -3.0844651  0.021154075   -4.2979682     1.213503   439061 
 2263000   0.80971146   -4.2976121   -4.2976121   -3.0830477  0.020806686   -4.2976121    1.2145644   439061 
 2264000   0.80859927   -4.2962732   -4.2962732    -3.083377  0.021423502   -4.2962732    1.2128961   439061 
 2265000   0.80869094   -4.2954485   -4.2954485   -3.0824149  0.025089094   -4.2954485    1.2130336   439061 
 2266000   0.80944192   -4.2976167   -4.2976167   -3.0834565  0.019192424   -4.2976167    1.2141601   439061 
 2267000   0.80866344   -4.2979733   -4.2979733   -3.0849809  0.019846231   -4.2979733    1.2129924   439061 
 2268000   0.80811367   -4.2968992   -4.2968992   -3.0847314  0.016821143   -4.2968992    1.2121677   439061 
 2269000   0.80894691   -4.2966431   -4.2966431   -3.0832255  0.012001615   -4.2966431    1.2134176   439061 
 2270000    0.8081588   -4.2950454   -4.2950454     -3.08281  0.020514193   -4.2950454    1.2122354   439061 
 2271000   0.80807985   -4.2951194   -4.2951194   -3.0830024  0.023097973   -4.2951194     1.212117   439061 
 2272000   0.80870455   -4.2953108   -4.2953108   -3.0822568  0.022058543   -4.2953108    1.2130541   439061 
 2273000   0.80945006   -4.2969622   -4.2969622   -3.0827898  0.019206498   -4.2969622    1.2141723   439061 
 2274000    0.8089065   -4.2964395   -4.2964395   -3.0830825  0.015267883   -4.2964395     1.213357   439061 
 2275000    0.8090743   -4.2964152   -4.2964152   -3.0828066   0.01366466   -4.2964152    1.2136087   439061 
 2276000   0.80817424   -4.2955629   -4.2955629   -3.0833043  0.016408349   -4.2955629    1.2122586   439061 
 2277000   0.80850848   -4.2965748   -4.2965748   -3.0838149  0.017143684   -4.2965748      1.21276   439061 
 2278000   0.80753463   -4.2963493   -4.2963493   -3.0850501  0.018783735   -4.2963493    1.2112992   439061 
 2279000   0.80841628   -4.2971761   -4.2971761   -3.0845545  0.011467537   -4.2971761    1.2126217   439061 
 2280000   0.80730477   -4.2965638   -4.2965638   -3.0856094  0.015742615   -4.2965638    1.2109544   439061 
 2281000   0.80793229   -4.2981543   -4.2981543   -3.0862587  0.014543692   -4.2981543    1.2118957   439061 
 2282000    0.8093585   -4.2999339   -4.2999339   -3.0858989  0.017424455   -4.2999339     1.214035   439061 
 2283000   0.80913602   -4.2998159   -4.2998159   -3.0861146  0.019260109   -4.2998159    1.2137013   439061 
 2284000   0.80862298   -4.2994057   -4.2994057   -3.0864739  0.021528989   -4.2994057    1.2129317   439061 
 2285000   0.80862189   -4.3002445   -4.3002445   -3.0873144  0.019056416   -4.3002445    1.2129301   439061 
 2286000   0.80984802   -4.3024461   -4.3024461   -3.0876769   0.01771387   -4.3024461    1.2147693   439061 
 2287000   0.80957998   -4.3010827   -4.3010827   -3.0867155  0.019083649   -4.3010827    1.2143672   439061 
 2288000   0.80805969   -4.2990441   -4.2990441   -3.0869574  0.022753237   -4.2990441    1.2120868   439061 
 2289000   0.80906758   -4.2999758   -4.2999758   -3.0863772  0.019930725   -4.2999758    1.2135986   439061 
 2290000   0.80931202   -4.2996534   -4.2996534   -3.0856881  0.019127864   -4.2996534    1.2139653   439061 
 2291000   0.80827878   -4.2989885   -4.2989885   -3.0865731  0.017496548   -4.2989885    1.2124154   439061 
 2292000   0.80796293   -4.2979499   -4.2979499   -3.0860083  0.017355316   -4.2979499    1.2119416   439061 
 2293000   0.80774501   -4.2983585   -4.2983585   -3.0867438  0.016299433   -4.2983585    1.2116148   439061 
 2294000   0.80730453   -4.2985214   -4.2985214   -3.0875674  0.011757713   -4.2985214     1.210954   439061 
 2295000   0.80833205   -4.2996492   -4.2996492   -3.0871539 0.0080828058   -4.2996492    1.2124953   439061 
 2296000    0.8065632   -4.2980181   -4.2980181   -3.0881761  0.013690047   -4.2980181     1.209842   439061 
 2297000   0.80781564   -4.2979688   -4.2979688   -3.0862481  0.016213262   -4.2979688    1.2117207   439061 
 2298000   0.80777606   -4.2983737   -4.2983737   -3.0867124  0.014316077   -4.2983737    1.2116613   439061 
 2299000   0.80857664   -4.2976532   -4.2976532    -3.084791  0.016878388   -4.2976532    1.2128622   439061 
 2300000   0.80898874   -4.2986646   -4.2986646   -3.0851843  0.018630947   -4.2986646    1.2134803   439061 
 2301000   0.80957469   -4.2995223   -4.2995223    -3.085163  0.014855047   -4.2995223    1.2143593   439061 
 2302000   0.80928945   -4.2992923   -4.2992923   -3.0853609   0.02064387   -4.2992923    1.2139314   439061 
 2303000   0.80830354   -4.2987531   -4.2987531   -3.0863005   0.01720757   -4.2987531    1.2124526   439061 
 2304000   0.80883099   -4.2980573   -4.2980573   -3.0848135  0.018834748   -4.2980573    1.2132437   439061 
 2305000   0.80803637   -4.2980358   -4.2980358    -3.085984  0.015956317   -4.2980358    1.2120518   439061 
 2306000   0.80969723     -4.30031     -4.30031   -3.0857669   0.01093853     -4.30031    1.2145431   439061 
 2307000   0.80754065   -4.2978371   -4.2978371   -3.0865289  0.019692772   -4.2978371    1.2113082   439061 
 2308000   0.80801668   -4.2989738   -4.2989738   -3.0869516  0.012681526   -4.2989738    1.2120223   439061 
 2309000   0.80672205   -4.2984051   -4.2984051   -3.0883248   0.01658694   -4.2984051    1.2100803   439061 
 2310000    0.8081258   -4.2998794   -4.2998794   -3.0876934  0.015751561   -4.2998794    1.2121859   439061 
 2311000   0.80696118    -4.299269    -4.299269     -3.08883   0.01504194    -4.299269     1.210439   439061 
 2312000   0.80691818   -4.3001338   -4.3001338   -3.0897592  0.018306842   -4.3001338    1.2103745   439061 
 2313000   0.80693125   -4.3014796   -4.3014796   -3.0910855  0.015842895   -4.3014796    1.2103941   439061 
 2314000   0.80765648   -4.3023128   -4.3023128   -3.0908308  0.017648199   -4.3023128     1.211482   439061 
 2315000   0.80825045   -4.3014166   -4.3014166   -3.0890437  0.024348859   -4.3014166    1.2123729   439061 
 2316000   0.80878659   -4.3020144   -4.3020144   -3.0888373  0.026518881   -4.3020144    1.2131771   439061 
 2317000   0.80857982   -4.3014164   -4.3014164   -3.0885494  0.023774086   -4.3014164     1.212867   439061 
 2318000   0.80900165   -4.3034661   -4.3034661   -3.0899663  0.020719089   -4.3034661    1.2134997   439061 
 2319000   0.80924526   -4.3035582   -4.3035582    -3.089693  0.020017112   -4.3035582    1.2138651   439061 
 2320000   0.80869056   -4.3030915   -4.3030915   -3.0900584  0.019130583   -4.3030915    1.2130331   439061 
 2321000   0.80875997   -4.3032495   -4.3032495   -3.0901123  0.017860141   -4.3032495    1.2131372   439061 
 2322000   0.80810098   -4.3032728   -4.3032728   -3.0911241   0.01436387   -4.3032728    1.2121487   439061 
 2323000   0.80814384   -4.3025553   -4.3025553   -3.0903423    0.0128728   -4.3025553     1.212213   439061 
 2324000   0.80597212    -4.299936    -4.299936   -3.0909806  0.017315107    -4.299936    1.2089554   439061 
 2325000   0.80779377   -4.3017309   -4.3017309    -3.090043  0.017812668   -4.3017309    1.2116879   439061 
 2326000   0.80859388   -4.3022908   -4.3022908   -3.0894027  0.013697289   -4.3022908    1.2128881   439061 
 2327000   0.80781525   -4.2997597   -4.2997597   -3.0880396  0.019843296   -4.2997597    1.2117201   439061 
 2328000   0.80789057   -4.2996634   -4.2996634   -3.0878303  0.016479625   -4.2996634    1.2118331   439061 
 2329000   0.80827438   -4.3005897   -4.3005897   -3.0881809  0.016552672   -4.3005897    1.2124088   439061 
 2330000   0.80674123    -4.298241    -4.298241   -3.0881319  0.016506777    -4.298241    1.2101091   439061 
 2331000   0.80901496   -4.3002736   -4.3002736   -3.0867539  0.017262458   -4.3002736    1.2135197   439061 
 2332000   0.80824736   -4.3005075   -4.3005075   -3.0881392  0.018315584   -4.3005075    1.2123683   439061 
 2333000   0.80940029   -4.3012767   -4.3012767    -3.087179   0.01034275   -4.3012767    1.2140977   439061 
 2334000   0.80668704   -4.2981846   -4.2981846   -3.0881568  0.019051983   -4.2981846    1.2100278   439061 
 2335000   0.80657161    -4.298576    -4.298576   -3.0887214 0.0098507126    -4.298576    1.2098547   439061 
 2336000   0.80814473   -4.2991992   -4.2991992   -3.0869848  0.015245475   -4.2991992    1.2122143   439061 
 2337000   0.80774497   -4.2990182   -4.2990182   -3.0874035  0.019061937   -4.2990182    1.2116147   439061 
 2338000   0.80718082    -4.298164    -4.298164   -3.0873956  0.019425311    -4.298164    1.2107685   439061 
 2339000   0.80782093   -4.3002065   -4.3002065   -3.0884778  0.016895765   -4.3002065    1.2117286   439061 
 2340000   0.80833181   -4.3015181   -4.3015181   -3.0890232  0.017191482   -4.3015181     1.212495   439061 
 2341000   0.80812096   -4.3012497   -4.3012497    -3.089071    0.0213707   -4.3012497    1.2121787   439061 
 2342000   0.80759952   -4.3002805   -4.3002805    -3.088884  0.016671457   -4.3002805    1.2113965   439061 
 2343000    0.8089794   -4.3033633   -4.3033633    -3.089897   0.01516914   -4.3033633    1.2134663   439061 
 2344000   0.80716533   -4.3009521   -4.3009521   -3.0902068  0.020705994   -4.3009521    1.2107452   439061 
 2345000   0.80826099   -4.3019279   -4.3019279   -3.0895392  0.016535612   -4.3019279    1.2123887   439061 
 2346000   0.80944078   -4.3042709   -4.3042709   -3.0901125   0.01835036   -4.3042709    1.2141584   439061 
 2347000   0.80710927   -4.3016374   -4.3016374   -3.0909762  0.019714311   -4.3016374    1.2106612   439061 
 2348000   0.80845771   -4.3028991   -4.3028991   -3.0902153   0.01742111   -4.3028991    1.2126838   439061 
 2349000   0.80826138   -4.3020825   -4.3020825   -3.0896932  0.017169001   -4.3020825    1.2123893   439061 
 2350000   0.80861686    -4.303992    -4.303992   -3.0910694  0.018267594    -4.303992    1.2129225   439061 
 2351000    0.8084697   -4.3037487   -4.3037487   -3.0910469  0.013207536   -4.3037487    1.2127018   439061 
 2352000   0.80712475   -4.3016024   -4.3016024    -3.090918  0.018159781   -4.3016024    1.2106844   439061 
 2353000    0.8084016   -4.3029687   -4.3029687   -3.0903691  0.016546035   -4.3029687    1.2125996   439061 
 2354000   0.80675941   -4.3023071   -4.3023071   -3.0921708  0.012235405   -4.3023071    1.2101364   439061 
 2355000   0.80778194   -4.3031267   -4.3031267   -3.0914565  0.011758802   -4.3031267    1.2116702   439061 
 2356000   0.80595523   -4.3020938   -4.3020938   -3.0931637  0.013320152   -4.3020938    1.2089301   439061 
 2357000   0.80700685    -4.303345    -4.303345   -3.0928375  0.013914086    -4.303345    1.2105075   439061 
 2358000   0.80782053   -4.3041095   -4.3041095   -3.0923815  0.014901975   -4.3041095     1.211728   439061 
 2359000   0.80799721   -4.3034454   -4.3034454   -3.0914523  0.016257876   -4.3034454     1.211993   439061 
 2360000   0.80861428   -4.3044563   -4.3044563   -3.0915376  0.015470537   -4.3044563    1.2129187   439061 
 2361000   0.80822728   -4.3038739   -4.3038739   -3.0915358  0.015143326   -4.3038739    1.2123382   439061 
 2362000   0.80907052   -4.3054722   -4.3054722   -3.0918692  0.020336096   -4.3054722     1.213603   439061 
 2363000   0.80757277   -4.3044612   -4.3044612   -3.0931048  0.017221571   -4.3044612    1.2113564   439061 
 2364000   0.80760147   -4.3037075   -4.3037075   -3.0923081  0.020787047   -4.3037075    1.2113994   439061 
 2365000   0.80744014   -4.3030076   -4.3030076   -3.0918501  0.016176004   -4.3030076    1.2111575   439061 
 2366000   0.80773607   -4.3043596   -4.3043596   -3.0927583  0.018464247   -4.3043596    1.2116013   439061 
 2367000   0.80739698   -4.3045047   -4.3045047    -3.093412  0.016023733   -4.3045047    1.2110927   439061 
 2368000   0.80707785   -4.3046203   -4.3046203   -3.0940063  0.013285112   -4.3046203     1.210614   439061 
 2369000   0.80720625    -4.303896    -4.303896   -3.0930894    0.0134702    -4.303896    1.2108066   439061 
 2370000   0.80709591   -4.3029117   -4.3029117   -3.0922706  0.015830876   -4.3029117    1.2106411   439061 
 2371000   0.80705779   -4.3027164   -4.3027164   -3.0921325  0.015918571   -4.3027164    1.2105839   439061 
 2372000    0.8073259   -4.3038974   -4.3038974   -3.0929113  0.018328617   -4.3038974    1.2109861   439061 
 2373000   0.80658291   -4.3028016   -4.3028016     -3.09293  0.019057003   -4.3028016    1.2098716   439061 
 2374000   0.80591554   -4.3015638   -4.3015638   -3.0926933  0.019364109   -4.3015638    1.2088706   439061 
 2375000    0.8073569   -4.3037422   -4.3037422   -3.0927096  0.014399173   -4.3037422    1.2110326   439061 
 2376000   0.80628174   -4.3016229   -4.3016229   -3.0922031  0.017084628   -4.3016229    1.2094199   439061 
 2377000   0.80679988    -4.302595    -4.302595   -3.0923979  0.016232436    -4.302595    1.2101971   439061 
 2378000   0.80778545   -4.3038847   -4.3038847   -3.0922093  0.020670476   -4.3038847    1.2116754   439061 
 2379000   0.80704624     -4.30462     -4.30462   -3.0940534  0.015297238     -4.30462    1.2105666   439061 
 2380000   0.80538641   -4.3020959   -4.3020959    -3.094019  0.018010236   -4.3020959    1.2080769   439061 
 2381000   0.80665146    -4.304358    -4.304358   -3.0943836  0.014003084    -4.304358    1.2099744   439061 
 2382000   0.80627817   -4.3043504   -4.3043504   -3.0949359  0.010501889   -4.3043504    1.2094145   439061 
 2383000   0.80790136   -4.3056829   -4.3056829   -3.0938336  0.018253571   -4.3056829    1.2118493   439061 
 2384000   0.80763006   -4.3040545   -4.3040545   -3.0926122  0.023323565   -4.3040545    1.2114423   439061 
 2385000   0.80755702   -4.3060216   -4.3060216   -3.0946888  0.015753902   -4.3060216    1.2113328   439061 
 2386000   0.80695267   -4.3044694   -4.3044694   -3.0940431  0.016710036   -4.3044694    1.2104262   439061 
 2387000   0.80624042   -4.3047246   -4.3047246   -3.0953667  0.017738945   -4.3047246    1.2093579   439061 
 2388000   0.80655289   -4.3052586   -4.3052586    -3.095432  0.017478824   -4.3052586    1.2098266   439061 
 2389000   0.80756564    -4.306892    -4.306892   -3.0955463  0.013566796    -4.306892    1.2113457   439061 
 2390000   0.80683665   -4.3059863   -4.3059863    -3.095734  0.019396593   -4.3059863    1.2102522   439061 
 2391000   0.80673197   -4.3071741   -4.3071741   -3.0970789  0.018380685   -4.3071741    1.2100952   439061 
 2392000   0.80674394   -4.3074824   -4.3074824   -3.0973692  0.020243334   -4.3074824    1.2101132   439061 
 2393000   0.80563797   -4.3060768   -4.3060768   -3.0976226   0.01552734   -4.3060768    1.2084542   439061 
 2394000   0.80786034   -4.3099631   -4.3099631   -3.0981754  0.012212623   -4.3099631    1.2117878   439061 
 2395000   0.80538651   -4.3061576   -4.3061576   -3.0980806  0.023792343   -4.3061576     1.208077   439061 
 2396000    0.8082048   -4.3097932   -4.3097932   -3.0974888  0.016909933   -4.3097932    1.2123044   439061 
 2397000   0.80677651   -4.3078541   -4.3078541   -3.0976921  0.019709545   -4.3078541     1.210162   439061 
 2398000   0.80732881   -4.3081834   -4.3081834    -3.097193  0.014509414   -4.3081834    1.2109905   439061 
 2399000   0.80724431   -4.3079604   -4.3079604   -3.0970967  0.019655616   -4.3079604    1.2108637   439061 
 2400000   0.80724189   -4.3082331   -4.3082331    -3.097373   0.01684556   -4.3082331    1.2108601   439061 
 2401000   0.80615149   -4.3060171   -4.3060171   -3.0967926  0.025096537   -4.3060171    1.2092245   439061 
 2402000   0.80816296   -4.3089838   -4.3089838   -3.0967422  0.017917431   -4.3089838    1.2122417   439061 
 2403000   0.80593328   -4.3073735   -4.3073735   -3.0984763  0.016610496   -4.3073735    1.2088972   439061 
 2404000   0.80633311   -4.3064918   -4.3064918   -3.0969949  0.019940559   -4.3064918    1.2094969   439061 
 2405000   0.80582963   -4.3059873   -4.3059873   -3.0972456  0.013727413   -4.3059873    1.2087417   439061 
 2406000   0.80486563   -4.3046543   -4.3046543   -3.0973586  0.018027653   -4.3046543    1.2072957   439061 
 2407000   0.80506492   -4.3057587   -4.3057587   -3.0981641  0.014885413   -4.3057587    1.2075946   439061 
 2408000   0.80615912   -4.3067283   -4.3067283   -3.0974923  0.013607557   -4.3067283    1.2092359   439061 
 2409000   0.80632677   -4.3061745   -4.3061745   -3.0966871  0.017998768   -4.3061745    1.2094874   439061 
 2410000   0.80655795   -4.3077512   -4.3077512    -3.097917  0.013052905   -4.3077512    1.2098342   439061 
 2411000   0.80677551   -4.3068799   -4.3068799   -3.0967194  0.016477827   -4.3068799    1.2101605   439061 
 2412000    0.8060657   -4.3071661   -4.3071661   -3.0980703  0.012498103   -4.3071661    1.2090958   439061 
 2413000   0.80828844   -4.3100618   -4.3100618   -3.0976319  0.010051643   -4.3100618    1.2124299   439061 
 2414000   0.80739458   -4.3093664   -4.3093664   -3.0982772  0.015753848   -4.3093664    1.2110891   439061 
 2415000   0.80743726   -4.3079914   -4.3079914   -3.0968383  0.026846989   -4.3079914    1.2111531   439061 
 2416000   0.80907277   -4.3099049   -4.3099049   -3.0962985   0.02435653   -4.3099049    1.2136064   439061 
 2417000   0.80794797   -4.3096839   -4.3096839   -3.0977647  0.021705488   -4.3096839    1.2119192   439061 
 2418000   0.80616755   -4.3086195   -4.3086195   -3.0993709  0.015037198   -4.3086195    1.2092486   439061 
 2419000   0.80524012   -4.3085239   -4.3085239   -3.1006665  0.015027027   -4.3085239    1.2078574   439061 
 2420000   0.80446782   -4.3060234   -4.3060234   -3.0993245  0.014418682   -4.3060234     1.206699   439061 
 2421000   0.80731349   -4.3081502   -4.3081502   -3.0971828  0.016485707   -4.3081502    1.2109675   439061 
 2422000   0.80726891   -4.3073283   -4.3073283   -3.0964277  0.020246367   -4.3073283    1.2109006   439061 
 2423000    0.8061091   -4.3054308   -4.3054308   -3.0962699  0.023566369   -4.3054308    1.2091609   439061 
 2424000    0.8070187   -4.3070482   -4.3070482   -3.0965229  0.016541033   -4.3070482    1.2105253   439061 
 2425000   0.80661069   -4.3061225   -4.3061225   -3.0962092  0.015718744   -4.3061225    1.2099133   439061 
 2426000   0.80637431   -4.3051962   -4.3051962   -3.0956375  0.013896445   -4.3051962    1.2095587   439061 
 2427000   0.80421121   -4.3049954   -4.3049954   -3.0986813  0.012449681   -4.3049954    1.2063141   439061 
 2428000    0.8052577   -4.3064855   -4.3064855   -3.0986017   0.01182953   -4.3064855    1.2078838   439061 
 2429000    0.8061763   -4.3070736   -4.3070736   -3.0978119  0.013019341   -4.3070736    1.2092617   439061 
 2430000   0.80464397   -4.3049655   -4.3049655   -3.0980023  0.017527532   -4.3049655    1.2069632   439061 
 2431000    0.8062146   -4.3070714   -4.3070714   -3.0977522  0.014232277   -4.3070714    1.2093191   439061 
 2432000   0.80715933   -4.3093688   -4.3093688   -3.0986326  0.021544574   -4.3093688    1.2107362   439061 
 2433000    0.8065639   -4.3088154   -4.3088154   -3.0989723  0.019371653   -4.3088154    1.2098431   439061 
 2434000   0.80691057   -4.3096566   -4.3096566   -3.0992935  0.018943381   -4.3096566    1.2103631   439061 
 2435000   0.80579927   -4.3086738   -4.3086738   -3.0999776   0.01650715   -4.3086738    1.2086961   439061 
 2436000   0.80596985   -4.3101465   -4.3101465   -3.1011945  0.016271868   -4.3101465     1.208952   439061 
 2437000   0.80668577   -4.3107552   -4.3107552   -3.1007293  0.014714033   -4.3107552    1.2100259   439061 
 2438000    0.8066485    -4.310626    -4.310626    -3.100656  0.020644275    -4.310626      1.20997   439061 
 2439000   0.80621885   -4.3101602   -4.3101602   -3.1008347  0.021680799   -4.3101602    1.2093255   439061 
 2440000   0.80764139   -4.3116966   -4.3116966   -3.1002373  0.025565662   -4.3116966    1.2114593   439061 
 2441000   0.80652603   -4.3112684   -4.3112684   -3.1014821  0.024377332   -4.3112684    1.2097863   439061 
 2442000   0.80772085   -4.3122333   -4.3122333   -3.1006548  0.020597075   -4.3122333    1.2115785   439061 
 2443000   0.80570316   -4.3094619   -4.3094619   -3.1009099   0.02237965   -4.3094619     1.208552   439061 
 2444000   0.80584959   -4.3105477   -4.3105477    -3.101776  0.019230266   -4.3105477    1.2087716   439061 
 2445000   0.80492632     -4.30984     -4.30984   -3.1024532  0.017298136     -4.30984    1.2073867   439061 
 2446000   0.80625849   -4.3119122   -4.3119122   -3.1025272  0.014539214   -4.3119122     1.209385   439061 
 2447000   0.80683856   -4.3109964   -4.3109964   -3.1007413  0.014257286   -4.3109964    1.2102551   439061 
 2448000   0.80559995   -4.3091578   -4.3091578   -3.1007606   0.01979575   -4.3091578    1.2083972   439061 
 2449000   0.80628286   -4.3105131   -4.3105131   -3.1010915  0.012075577   -4.3105131    1.2094215   439061 
 2450000   0.80518976   -4.3085357   -4.3085357   -3.1007538  0.016644211   -4.3085357    1.2077819   439061 
 2451000   0.80457859   -4.3079027   -4.3079027   -3.1010376   0.01668248   -4.3079027    1.2068651   439061 
 2452000   0.80572976   -4.3102195   -4.3102195   -3.1016276  0.017963558   -4.3102195    1.2085919   439061 
 2453000   0.80705243   -4.3117742   -4.3117742   -3.1011983  0.018247008   -4.3117742    1.2105759   439061 
 2454000   0.80592576   -4.3108383   -4.3108383   -3.1019524   0.02279433   -4.3108383    1.2088859   439061 
 2455000   0.80721667   -4.3121042   -4.3121042    -3.101282  0.015602574   -4.3121042    1.2108222   439061 
 2456000   0.80687909   -4.3122731   -4.3122731   -3.1019572  0.012014767   -4.3122731    1.2103159   439061 
 2457000   0.80704668   -4.3124222   -4.3124222   -3.1018549  0.016816125   -4.3124222    1.2105673   439061 
 2458000   0.80646497   -4.3128342   -4.3128342   -3.1031395  0.020438311   -4.3128342    1.2096947   439061 
 2459000   0.80717685   -4.3131436   -4.3131436    -3.102381  0.020439179   -4.3131436    1.2107625   439061 
 2460000    0.8083738   -4.3155316   -4.3155316   -3.1029737  0.018608349   -4.3155316    1.2125579   439061 
 2461000   0.80573026   -4.3121342   -4.3121342   -3.1035416  0.021443575   -4.3121342    1.2085926   439061 
 2462000    0.8059202   -4.3115117   -4.3115117   -3.1026341   0.01923047   -4.3115117    1.2088776   439061 
 2463000   0.80517628   -4.3122706   -4.3122706    -3.104509  0.013972944   -4.3122706    1.2077617   439061 
 2464000   0.80570252   -4.3125052   -4.3125052   -3.1039541  0.016338964   -4.3125052     1.208551   439061 
 2465000   0.80674574   -4.3142151   -4.3142151   -3.1040993  0.015933889   -4.3142151    1.2101158   439061 
 2466000   0.80699521   -4.3135618   -4.3135618   -3.1030718  0.017874607   -4.3135618    1.2104901   439061 
 2467000   0.80751418   -4.3140751   -4.3140751   -3.1028066   0.01621804   -4.3140751    1.2112685   439061 
 2468000   0.80628306   -4.3113969   -4.3113969    -3.101975  0.019948444   -4.3113969    1.2094218   439061 
 2469000   0.80780794   -4.3139392   -4.3139392     -3.10223  0.015629781   -4.3139392    1.2117092   439061 
 2470000   0.80675062   -4.3119718   -4.3119718   -3.1018487  0.013203715   -4.3119718    1.2101232   439061 
 2471000   0.80609999   -4.3126199   -4.3126199   -3.1034726  0.014127719   -4.3126199    1.2091472   439061 
 2472000   0.80596818   -4.3114425   -4.3114425    -3.102493   0.01367231   -4.3114425    1.2089495   439061 
 2473000   0.80601792   -4.3119855   -4.3119855   -3.1029614  0.013729772   -4.3119855    1.2090241   439061 
 2474000   0.80513812   -4.3106128   -4.3106128   -3.1029084  0.018069364   -4.3106128    1.2077044   439061 
 2475000   0.80565607   -4.3099546   -4.3099546   -3.1014732  0.020089347   -4.3099546    1.2084814   439061 
 2476000   0.80653315   -4.3109225   -4.3109225   -3.1011255  0.015507303   -4.3109225     1.209797   439061 
 2477000   0.80544782   -4.3083359   -4.3083359   -3.1001669  0.019607767   -4.3083359     1.208169   439061 
 2478000   0.80564726    -4.309528    -4.309528   -3.1010599  0.022720337    -4.309528    1.2084681   439061 
 2479000   0.80717408   -4.3111423   -4.3111423   -3.1003839  0.021997223   -4.3111423    1.2107584   439061 
 2480000   0.80513994    -4.309618    -4.309618   -3.1019108  0.017553013    -4.309618    1.2077072   439061 
 2481000   0.80629349   -4.3110205   -4.3110205    -3.101583  0.016040579   -4.3110205    1.2094375   439061 
 2482000   0.80374877    -4.308342    -4.308342   -3.1027216  0.018623102    -4.308342    1.2056204   439061 
 2483000   0.80554922   -4.3110281   -4.3110281    -3.102707 0.0095519753   -4.3110281    1.2083211   439061 
 2484000   0.80548036   -4.3095434   -4.3095434   -3.1013256  0.019597541   -4.3095434    1.2082178   439061 
 2485000   0.80781987   -4.3128829   -4.3128829   -3.1011559  0.011550665   -4.3128829     1.211727   439061 
 2486000   0.80578975   -4.3103658   -4.3103658   -3.1016839  0.018246407   -4.3103658    1.2086819   439061 
 2487000   0.80683334   -4.3115759   -4.3115759   -3.1013287  0.014218751   -4.3115759    1.2102473   439061 
 2488000   0.80542994   -4.3098454   -4.3098454   -3.1017033  0.017354518   -4.3098454    1.2081422   439061 
 2489000    0.8050908    -4.310329    -4.310329   -3.1026956  0.017596933    -4.310329    1.2076334   439061 
 2490000   0.80761963   -4.3131392   -4.3131392   -3.1017125  0.012739042   -4.3131392    1.2114267   439061 
 2491000   0.80573046   -4.3106564   -4.3106564   -3.1020635  0.015570986   -4.3106564    1.2085929   439061 
 2492000   0.80553124   -4.3099003   -4.3099003   -3.1016062  0.016657838   -4.3099003    1.2082941   439061 
 2493000   0.80730033   -4.3122542   -4.3122542   -3.1013065  0.020501049   -4.3122542    1.2109477   439061 
 2494000   0.80602064   -4.3108117   -4.3108117   -3.1017835  0.026976632   -4.3108117    1.2090282   439061 
 2495000   0.80711559   -4.3122493   -4.3122493   -3.1015787  0.015024582   -4.3122493    1.2106706   439061 
 2496000   0.80726886   -4.3129296   -4.3129296   -3.1020291  0.011847778   -4.3129296    1.2109005   439061 
 2497000   0.80543984   -4.3113956   -4.3113956   -3.1032386  0.016409317   -4.3113956     1.208157   439061 
 2498000   0.80541478   -4.3123252   -4.3123252   -3.1042058  0.014110875   -4.3123252    1.2081194   439061 
 2499000   0.80467117   -4.3104781   -4.3104781   -3.1034741  0.014571386   -4.3104781     1.207004   439061 
 2500000   0.80596707     -4.31317     -4.31317   -3.1042222   0.01354327     -4.31317    1.2089479   439061 
 2501000   0.80663266   -4.3141638   -4.3141638   -3.1042176  0.016624943   -4.3141638    1.2099462   439061 
 2502000   0.80567556   -4.3128038   -4.3128038   -3.1042932  0.013454006   -4.3128038    1.2085106   439061 
 2503000   0.80498136   -4.3125441   -4.3125441   -3.1050748   0.01839672   -4.3125441    1.2074693   439061 
 2504000   0.80532734   -4.3129401   -4.3129401   -3.1049519  0.014934482   -4.3129401    1.2079883   439061 
 2505000   0.80574252   -4.3150394   -4.3150394   -3.1064283  0.015174541   -4.3150394     1.208611   439061 
 2506000   0.80478495   -4.3136589   -4.3136589   -3.1064842  0.019820735   -4.3136589    1.2071747   439061 
 2507000   0.80612898   -4.3143492   -4.3143492   -3.1051585  0.018202304   -4.3143492    1.2091907   439061 
 2508000    0.8072673   -4.3166872   -4.3166872    -3.105789  0.020583917   -4.3166872    1.2108982   439061 
 2509000   0.80561171   -4.3138124   -4.3138124   -3.1053976  0.022775715   -4.3138124    1.2084148   439061 
 2510000   0.80640278   -4.3152199   -4.3152199   -3.1056185  0.020400388   -4.3152199    1.2096014   439061 
 2511000   0.80677133   -4.3165092   -4.3165092    -3.106355  0.015197719   -4.3165092    1.2101542   439061 
 2512000   0.80519355   -4.3145126   -4.3145126    -3.106725    0.0171944   -4.3145126    1.2077876   439061 
 2513000   0.80714387    -4.316769    -4.316769   -3.1060559  0.016318904    -4.316769     1.210713   439061 
 2514000   0.80565303   -4.3146682   -4.3146682   -3.1061914  0.016713098   -4.3146682    1.2084768   439061 
 2515000   0.80538232   -4.3143684   -4.3143684   -3.1062977  0.016409887   -4.3143684    1.2080707   439061 
 2516000   0.80647652   -4.3163255   -4.3163255   -3.1066134  0.013594581   -4.3163255     1.209712   439061 
 2517000   0.80481979   -4.3134614   -4.3134614   -3.1062345  0.018526246   -4.3134614    1.2072269   439061 
 2518000    0.8056931   -4.3135435   -4.3135435   -3.1050066  0.015793827   -4.3135435    1.2085369   439061 
 2519000   0.80621695   -4.3146797   -4.3146797   -3.1053571  0.012112536   -4.3146797    1.2093227   439061 
 2520000   0.80649819   -4.3163246   -4.3163246     -3.10658  0.010905954   -4.3163246    1.2097445   439061 
 2521000   0.80622858   -4.3151642   -4.3151642    -3.105824  0.015604467   -4.3151642    1.2093401   439061 
 2522000   0.80572161    -4.314332    -4.314332   -3.1057523  0.017887929    -4.314332    1.2085797   439061 
 2523000   0.80510048   -4.3126519   -4.3126519   -3.1050039  0.015042317   -4.3126519     1.207648   439061 
 2524000   0.80612257   -4.3120842   -4.3120842   -3.1029031  0.017760215   -4.3120842    1.2091811   439061 
 2525000   0.80548741   -4.3117252   -4.3117252   -3.1034969  0.017745681   -4.3117252    1.2082284   439061 
 2526000   0.80582886   -4.3134565   -4.3134565   -3.1047159  0.014219767   -4.3134565    1.2087405   439061 
 2527000   0.80629349    -4.315157    -4.315157   -3.1057195  0.015455567    -4.315157    1.2094375   439061 
 2528000   0.80509301   -4.3141286   -4.3141286   -3.1064918  0.013414051   -4.3141286    1.2076368   439061 
 2529000   0.80403118   -4.3116398   -4.3116398   -3.1055958  0.016506537   -4.3116398     1.206044   439061 
 2530000   0.80536109   -4.3136743   -4.3136743   -3.1056354  0.013995126   -4.3136743    1.2080389   439061 
 2531000    0.8044379   -4.3127135   -4.3127135   -3.1060594  0.016967075   -4.3127135    1.2066541   439061 
 2532000   0.80534884   -4.3127485   -4.3127485    -3.104728  0.023511669   -4.3127485    1.2080205   439061 
 2533000   0.80747677   -4.3150829   -4.3150829   -3.1038705  0.019947982   -4.3150829    1.2112124   439061 
 2534000   0.80684915   -4.3142449   -4.3142449   -3.1039739  0.015761523   -4.3142449     1.210271   439061 
 2535000   0.80684297   -4.3137701   -4.3137701   -3.1035084  0.020256927   -4.3137701    1.2102617   439061 
 2536000   0.80728522   -4.3149629   -4.3149629   -3.1040378  0.023283945   -4.3149629    1.2109251   439061 
 2537000   0.80586394    -4.313316    -4.313316   -3.1045228  0.017721719    -4.313316    1.2087932   439061 
 2538000   0.80449373   -4.3125918   -4.3125918   -3.1058539  0.019797647   -4.3125918    1.2067379   439061 
 2539000   0.80615247   -4.3137322   -4.3137322   -3.1045062   0.01735148   -4.3137322     1.209226   439061 
 2540000   0.80530665   -4.3122396   -4.3122396   -3.1042824  0.018353467   -4.3122396    1.2079572   439061 
 2541000   0.80528264   -4.3114569   -4.3114569   -3.1035357  0.017507324   -4.3114569    1.2079212   439061 
 2542000   0.80612255   -4.3130958   -4.3130958   -3.1039147  0.017894329   -4.3130958    1.2091811   439061 
 2543000   0.80452652   -4.3120547   -4.3120547   -3.1052677  0.016289551   -4.3120547     1.206787   439061 
 2544000   0.80374678   -4.3116009   -4.3116009   -3.1059834  0.013659751   -4.3116009    1.2056174   439061 
 2545000   0.80517399   -4.3113776   -4.3113776   -3.1036193  0.012443837   -4.3113776    1.2077582   439061 
 2546000   0.80467839   -4.3109973   -4.3109973   -3.1039825  0.018118167   -4.3109973    1.2070148   439061 
 2547000   0.80597945   -4.3139331   -4.3139331   -3.1049666  0.019425246   -4.3139331    1.2089664   439061 
 2548000   0.80593242   -4.3130998   -4.3130998   -3.1042039  0.023132417   -4.3130998    1.2088959   439061 
 2549000   0.80562462   -4.3129328   -4.3129328   -3.1044987  0.019886071   -4.3129328    1.2084342   439061 
 2550000   0.80421012   -4.3110622   -4.3110622   -3.1047497   0.01780622   -4.3110622    1.2063124   439061 
 2551000   0.80630194   -4.3152681   -4.3152681   -3.1058179   0.01298493   -4.3152681    1.2094502   439061 
 2552000   0.80474258   -4.3136016   -4.3136016   -3.1064904  0.016651463   -4.3136016    1.2071111   439061 
 2553000   0.80585872   -4.3150472   -4.3150472   -3.1062619  0.014841624   -4.3150472    1.2087853   439061 
 2554000   0.80643985   -4.3142884   -4.3142884   -3.1046314  0.022501953   -4.3142884     1.209657   439061 
 2555000   0.80648502    -4.315496    -4.315496   -3.1057712  0.018462166    -4.315496    1.2097248   439061 
 2556000   0.80709791   -4.3160434   -4.3160434   -3.1053993  0.014084513   -4.3160434    1.2106441   439061 
 2557000   0.80555853   -4.3156659   -4.3156659   -3.1073308  0.016319129   -4.3156659     1.208335   439061 
 2558000   0.80543938    -4.315635    -4.315635   -3.1074787  0.019600155    -4.315635    1.2081563   439061 
 2559000   0.80612892   -4.3169628   -4.3169628   -3.1077721  0.017627084   -4.3169628    1.2091906   439061 
 2560000   0.80517101   -4.3162596   -4.3162596   -3.1085059  0.016778853   -4.3162596    1.2077538   439061 
 2561000   0.80528974   -4.3145098   -4.3145098   -3.1065779  0.020989498   -4.3145098    1.2079319   439061 
 2562000   0.80584406   -4.3156614   -4.3156614   -3.1068981  0.018886775   -4.3156614    1.2087633   439061 
 2563000   0.80495574   -4.3140246   -4.3140246   -3.1065938  0.021922931   -4.3140246    1.2074309   439061 
 2564000    0.8046778   -4.3149958   -4.3149958   -3.1079818  0.015969538   -4.3149958     1.207014   439061 
 2565000   0.80424651   -4.3137955   -4.3137955   -3.1074285   0.01339138   -4.3137955     1.206367   439061 
 2566000   0.80480097   -4.3143316   -4.3143316   -3.1071328  0.011086163   -4.3143316    1.2071987   439061 
 2567000   0.80399884   -4.3132544   -4.3132544   -3.1072589  0.014800121   -4.3132544    1.2059955   439061 
 2568000   0.80544778   -4.3170257   -4.3170257   -3.1088568  0.012421072   -4.3170257    1.2081689   439061 
 2569000   0.80545731    -4.315722    -4.315722   -3.1075388   0.01652594    -4.315722    1.2081832   439061 
 2570000   0.80581513   -4.3161913   -4.3161913   -3.1074713  0.016303939   -4.3161913    1.2087199   439061 
 2571000   0.80626105    -4.316024    -4.316024   -3.1066351  0.020083758    -4.316024    1.2093888   439061 
 2572000   0.80674324   -4.3163367   -4.3163367   -3.1062246  0.016473812   -4.3163367    1.2101121   439061 
 2573000   0.80594411    -4.314927    -4.314927   -3.1060136  0.020569547    -4.314927    1.2089134   439061 
 2574000   0.80549934   -4.3144431   -4.3144431   -3.1061968  0.017482785   -4.3144431    1.2082463   439061 
 2575000   0.80605251   -4.3164215   -4.3164215   -3.1073455  0.016277689   -4.3164215     1.209076   439061 
 2576000   0.80569262    -4.316679    -4.316679   -3.1081428  0.015398013    -4.316679    1.2085362   439061 
 2577000   0.80618504   -4.3176822   -4.3176822   -3.1084074  0.017715834   -4.3176822    1.2092748   439061 
 2578000   0.80634044   -4.3183136   -4.3183136   -3.1088057  0.012655628   -4.3183136    1.2095079   439061 
 2579000   0.80600344   -4.3169873   -4.3169873   -3.1079849   0.01616787   -4.3169873    1.2090024   439061 
 2580000   0.80523271   -4.3163144   -4.3163144   -3.1084681  0.018799765   -4.3163144    1.2078463   439061 
 2581000   0.80630265   -4.3170236   -4.3170236   -3.1075724  0.016333315   -4.3170236    1.2094512   439061 
 2582000   0.80547313   -4.3166687   -4.3166687   -3.1084617  0.022001946   -4.3166687    1.2082069   439061 
 2583000    0.8074996   -4.3195084   -4.3195084   -3.1082617  0.014894901   -4.3195084    1.2112466   439061 
 2584000   0.80619795    -4.317058    -4.317058   -3.1077639   0.02082893    -4.317058    1.2092942   439061 
 2585000   0.80525845    -4.317138    -4.317138   -3.1092531  0.015595568    -4.317138    1.2078849   439061 
 2586000   0.80579645   -4.3176881   -4.3176881   -3.1089962  0.018293873   -4.3176881    1.2086919   439061 
 2587000   0.80652097   -4.3171641   -4.3171641   -3.1073854  0.021893318   -4.3171641    1.2097787   439061 
 2588000   0.80542045   -4.3156345   -4.3156345   -3.1075066  0.020094444   -4.3156345    1.2081279   439061 
 2589000   0.80572521   -4.3156341   -4.3156341    -3.107049  0.016513763   -4.3156341    1.2085851   439061 
 2590000   0.80664443   -4.3162812   -4.3162812   -3.1063173  0.020922076   -4.3162812    1.2099639   439061 
 2591000   0.80632583   -4.3162736   -4.3162736   -3.1067876  0.018801128   -4.3162736     1.209486   439061 
 2592000   0.80558787   -4.3151728   -4.3151728   -3.1067937  0.018230743   -4.3151728    1.2083791   439061 
 2593000   0.80557822   -4.3155162   -4.3155162   -3.1071516  0.014390117   -4.3155162    1.2083646   439061 
 2594000   0.80537621   -4.3154617   -4.3154617   -3.1074002  0.012330034   -4.3154617    1.2080616   439061 
 2595000   0.80560134   -4.3148236   -4.3148236   -3.1064243  0.016775171   -4.3148236    1.2083993   439061 
 2596000   0.80651715   -4.3149358   -4.3149358   -3.1051629   0.01291518   -4.3149358     1.209773   439061 
 2597000   0.80518565   -4.3132536   -4.3132536   -3.1054779  0.016917775   -4.3132536    1.2077757   439061 
 2598000   0.80560818    -4.315672    -4.315672   -3.1072625  0.015601459    -4.315672    1.2084095   439061 
 2599000   0.80667076   -4.3172991   -4.3172991   -3.1072958  0.012818557   -4.3172991    1.2100034   439061 
 2600000   0.80460569   -4.3138533   -4.3138533   -3.1069475  0.016485372   -4.3138533    1.2069058   439061 
 2601000   0.80583229   -4.3153726   -4.3153726    -3.106627  0.016101606   -4.3153726    1.2087457   439061 
 2602000   0.80442355   -4.3132862   -4.3132862   -3.1066536   0.01869898   -4.3132862    1.2066326   439061 
 2603000   0.80584321   -4.3159692   -4.3159692   -3.1072072  0.019472854   -4.3159692    1.2087621   439061 
 2604000   0.80605444   -4.3168509   -4.3168509    -3.107772  0.019622648   -4.3168509    1.2090789   439061 
 2605000   0.80679986   -4.3185133   -4.3185133   -3.1083163  0.013028134   -4.3185133     1.210197   439061 
 2606000   0.80622929   -4.3180213   -4.3180213   -3.1086802  0.016216071   -4.3180213    1.2093412   439061 
 2607000   0.80659846   -4.3178598   -4.3178598   -3.1079649  0.018031744   -4.3178598    1.2098949   439061 
 2608000   0.80551119   -4.3175694   -4.3175694   -3.1093054  0.017006388   -4.3175694     1.208264   439061 
 2609000    0.8052338   -4.3172441   -4.3172441   -3.1093962  0.018939411   -4.3172441    1.2078479   439061 
 2610000   0.80540571   -4.3182843   -4.3182843   -3.1101785   0.01743182   -4.3182843    1.2081058   439061 
 2611000    0.8041569   -4.3177248   -4.3177248   -3.1114922  0.018316888   -4.3177248    1.2062326   439061 
 2612000   0.80513637   -4.3188084   -4.3188084   -3.1111066  0.013831362   -4.3188084    1.2077018   439061 
 2613000   0.80430104   -4.3181181   -4.3181181   -3.1116692  0.019123551   -4.3181181    1.2064488   439061 
 2614000   0.80557484   -4.3199237   -4.3199237   -3.1115642  0.013708762   -4.3199237    1.2083595   439061 
 2615000    0.8056261   -4.3201428   -4.3201428   -3.1117064  0.018556326   -4.3201428    1.2084364   439061 
 2616000   0.80507425   -4.3194345   -4.3194345   -3.1118259  0.019942188   -4.3194345    1.2076086   439061 
 2617000   0.80601525   -4.3206129   -4.3206129   -3.1115928  0.019431855   -4.3206129    1.2090201   439061 
 2618000   0.80472691   -4.3195405   -4.3195405   -3.1124528  0.017828199   -4.3195405    1.2070876   439061 
 2619000   0.80574737   -4.3212043   -4.3212043    -3.112586  0.015673858   -4.3212043    1.2086183   439061 
 2620000    0.8046797   -4.3191679   -4.3191679   -3.1121511  0.022628204   -4.3191679    1.2070168   439061 
 2621000   0.80385393   -4.3184518   -4.3184518   -3.1126737  0.021105866   -4.3184518    1.2057781   439061 
 2622000    0.8047743   -4.3206612   -4.3206612   -3.1135025  0.016546321   -4.3206612    1.2071587   439061 
 2623000   0.80534226   -4.3213763   -4.3213763   -3.1133657  0.018401292   -4.3213763    1.2080106   439061 
 2624000   0.80548825   -4.3216521   -4.3216521   -3.1134224  0.020403024   -4.3216521    1.2082296   439061 
 2625000   0.80529715    -4.320197    -4.320197   -3.1122541  0.015376814    -4.320197     1.207943   439061 
 2626000   0.80297015   -4.3188457   -4.3188457   -3.1143932  0.018329565   -4.3188457    1.2044525   439061 
 2627000   0.80453674   -4.3205403   -4.3205403   -3.1137379  0.013087835   -4.3205403    1.2068024   439061 
 2628000    0.8032557   -4.3184058   -4.3184058   -3.1135249  0.022268078   -4.3184058    1.2048808   439061 
 2629000   0.80462619   -4.3196485   -4.3196485    -3.112712  0.021030338   -4.3196485    1.2069365   439061 
 2630000   0.80578358   -4.3214782   -4.3214782   -3.1128056  0.016898813   -4.3214782    1.2086726   439061 
 2631000   0.80542851   -4.3185755   -4.3185755   -3.1104355  0.017014263   -4.3185755      1.20814   439061 
 2632000   0.80502241   -4.3185977   -4.3185977   -3.1110668  0.022127945   -4.3185977    1.2075309   439061 
 2633000   0.80398179   -4.3169888   -4.3169888   -3.1110189  0.020076509   -4.3169888    1.2059699   439061 
 2634000   0.80403002   -4.3196432   -4.3196432   -3.1136009  0.013400892   -4.3196432    1.2060423   439061 
 2635000   0.80229973   -4.3169348   -4.3169348   -3.1134879  0.013241475   -4.3169348    1.2034469   439061 
 2636000   0.80395096   -4.3192873   -4.3192873   -3.1133636  0.011027494   -4.3192873    1.2059237   439061 
 2637000   0.80379828   -4.3189756   -4.3189756   -3.1132809  0.011124848   -4.3189756    1.2056947   439061 
 2638000   0.80364475   -4.3183854   -4.3183854   -3.1129211   0.01367617   -4.3183854    1.2054644   439061 
 2639000   0.80438659   -4.3200332   -4.3200332   -3.1134561  0.016802393   -4.3200332    1.2065771   439061 
 2640000   0.80532596   -4.3209785   -4.3209785   -3.1129923  0.021593022   -4.3209785    1.2079862   439061 
 2641000   0.80553314   -4.3214688   -4.3214688   -3.1131718  0.021444439   -4.3214688     1.208297   439061 
 2642000   0.80646891   -4.3220292   -4.3220292   -3.1123286  0.023599663   -4.3220292    1.2097006   439061 
 2643000   0.80617856   -4.3215628   -4.3215628   -3.1122977  0.024609432   -4.3215628    1.2092651   439061 
 2644000   0.80558931   -4.3220312   -4.3220312     -3.11365  0.024162694   -4.3220312    1.2083812   439061 
 2645000   0.80555792   -4.3224165   -4.3224165   -3.1140824  0.021098678   -4.3224165    1.2083341   439061 
 2646000    0.8038231   -4.3194376   -4.3194376   -3.1137057  0.021892829   -4.3194376    1.2057319   439061 
 2647000   0.80488554    -4.320845    -4.320845   -3.1135194  0.018499418    -4.320845    1.2073256   439061 
 2648000   0.80525837   -4.3210727   -4.3210727   -3.1131879  0.020583259   -4.3210727    1.2078848   439061 
 2649000   0.80479657   -4.3209634   -4.3209634   -3.1137713  0.014965454   -4.3209634    1.2071921   439061 
 2650000   0.80545484    -4.321472    -4.321472   -3.1132925  0.012214367    -4.321472    1.2081795   439061 
 2651000   0.80432935   -4.3211408   -4.3211408   -3.1146495  0.012918935   -4.3211408    1.2064913   439061 
 2652000   0.80483856   -4.3202005   -4.3202005   -3.1129454  0.015267675   -4.3202005    1.2072551   439061 
 2653000   0.80504829   -4.3205865   -4.3205865   -3.1130169  0.010887382   -4.3205865    1.2075697   439061 
 2654000   0.80496901   -4.3202637   -4.3202637    -3.112813  0.013611351   -4.3202637    1.2074508   439061 
 2655000   0.80393797   -4.3194815   -4.3194815   -3.1135773  0.018586498   -4.3194815    1.2059042   439061 
 2656000   0.80454003   -4.3198908   -4.3198908   -3.1130836  0.015862557   -4.3198908    1.2068073   439061 
 2657000   0.80413933   -4.3197446   -4.3197446   -3.1135384  0.018591933   -4.3197446    1.2062062   439061 
 2658000   0.80541147   -4.3213972   -4.3213972   -3.1132827  0.014640502   -4.3213972    1.2081145   439061 
 2659000   0.80475901   -4.3205235   -4.3205235   -3.1133878  0.020768271   -4.3205235    1.2071358   439061 
 2660000   0.80466373   -4.3196558   -4.3196558   -3.1126629  0.019417307   -4.3196558    1.2069928   439061 
 2661000   0.80424241   -4.3208884   -4.3208884   -3.1145276  0.018981371   -4.3208884    1.2063609   439061 
 2662000   0.80436424   -4.3204913   -4.3204913   -3.1139476  0.018453283   -4.3204913    1.2065436   439061 
 2663000   0.80386314   -4.3208294   -4.3208294   -3.1150374  0.019876209   -4.3208294     1.205792   439061 
 2664000   0.80300458   -4.3186151   -4.3186151    -3.114111    0.0176942   -4.3186151    1.2045041   439061 
 2665000   0.80396488   -4.3210661   -4.3210661   -3.1151215  0.017396269   -4.3210661    1.2059446   439061 
 2666000   0.80392841   -4.3208679   -4.3208679   -3.1149781  0.014751781   -4.3208679    1.2058899   439061 
 2667000    0.8052802   -4.3212798   -4.3212798   -3.1133622  0.016240363   -4.3212798    1.2079175   439061 
 2668000   0.80491761   -4.3208289   -4.3208289   -3.1134552  0.014203999   -4.3208289    1.2073737   439061 
 2669000   0.80488437   -4.3209674   -4.3209674   -3.1136436 0.0093472121   -4.3209674    1.2073238   439061 
 2670000   0.80452863   -4.3192093   -4.3192093   -3.1124191   0.01405856   -4.3192093    1.2067902   439061 
 2671000   0.80415068   -4.3181603   -4.3181603    -3.111937  0.020842537   -4.3181603    1.2062233   439061 
 2672000    0.8039142   -4.3189644   -4.3189644   -3.1130958  0.015772455   -4.3189644    1.2058686   439061 
 2673000   0.80545413   -4.3207656   -4.3207656   -3.1125871  0.016415999   -4.3207656    1.2081784   439061 
 2674000   0.80381823   -4.3191516   -4.3191516    -3.113427  0.018939396   -4.3191516    1.2057246   439061 
 2675000   0.80503998   -4.3193448   -4.3193448   -3.1117876  0.012269494   -4.3193448    1.2075572   439061 
 2676000   0.80473494    -4.318582    -4.318582   -3.1114823  0.016088851    -4.318582    1.2070997   439061 
 2677000   0.80428423   -4.3190834   -4.3190834   -3.1126598   0.01458037   -4.3190834    1.2064236   439061 
 2678000   0.80532561   -4.3198576   -4.3198576    -3.111872  0.017963901   -4.3198576    1.2079857   439061 
 2679000    0.8047827   -4.3195201   -4.3195201   -3.1123488  0.015882791   -4.3195201    1.2071713   439061 
 2680000   0.80567981   -4.3213419   -4.3213419    -3.112825  0.017864905   -4.3213419     1.208517   439061 
 2681000   0.80465894   -4.3215533   -4.3215533   -3.1145677  0.013259845   -4.3215533    1.2069857   439061 
 2682000   0.80461443   -4.3204631   -4.3204631   -3.1135442   0.01572565   -4.3204631    1.2069189   439061 
 2683000    0.8033936   -4.3186732   -4.3186732   -3.1135855  0.021000603   -4.3186732    1.2050877   439061 
 2684000   0.80489368     -4.32154     -4.32154   -3.1142023  0.020471901     -4.32154    1.2073378   439061 
 2685000   0.80405318   -4.3219922   -4.3219922   -3.1159152  0.016407711   -4.3219922     1.206077   439061 
 2686000   0.80527373   -4.3227372   -4.3227372   -3.1148294   0.01293693   -4.3227372    1.2079078   439061 
 2687000   0.80434564    -4.320796    -4.320796   -3.1142803    0.0209521    -4.320796    1.2065157   439061 
 2688000   0.80486221   -4.3207741   -4.3207741   -3.1134835  0.021671631   -4.3207741    1.2072906   439061 
 2689000   0.80529248   -4.3224327   -4.3224327   -3.1144967   0.02051232   -4.3224327     1.207936   439061 
 2690000   0.80597657   -4.3237172   -4.3237172   -3.1147551  0.021323386   -4.3237172    1.2089621   439061 
 2691000   0.80489939   -4.3235159   -4.3235159   -3.1161695  0.017153008   -4.3235159    1.2073463   439061 
 2692000   0.80390224   -4.3228757   -4.3228757   -3.1170251  0.016124845   -4.3228757    1.2058506   439061 
 2693000    0.8032124   -4.3214392   -4.3214392   -3.1166234   0.01897824   -4.3214392    1.2048159   439061 
 2694000   0.80376042   -4.3217254   -4.3217254   -3.1160876  0.017960717   -4.3217254    1.2056379   439061 
 2695000   0.80477389   -4.3241795   -4.3241795   -3.1170215  0.013831839   -4.3241795    1.2071581   439061 
 2696000     0.804111   -4.3211182   -4.3211182   -3.1149545  0.023280714   -4.3211182    1.2061637   439061 
 2697000   0.80509199   -4.3230769   -4.3230769   -3.1154417  0.019412321   -4.3230769    1.2076352   439061 
 2698000   0.80518905   -4.3232561   -4.3232561   -3.1154752  0.021044533   -4.3232561    1.2077808   439061 
 2699000   0.80643005   -4.3237882   -4.3237882   -3.1141458  0.022862306   -4.3237882    1.2096423   439061 
 2700000   0.80456839   -4.3223804   -4.3223804   -3.1155305  0.017316034   -4.3223804    1.2068498   439061 
 2701000   0.80397913   -4.3213196   -4.3213196   -3.1153536   0.01835293   -4.3213196     1.205966   439061 
 2702000   0.80412663   -4.3217596   -4.3217596   -3.1155724  0.016858738   -4.3217596    1.2061872   439061 
 2703000   0.80369985     -4.32032     -4.32032    -3.114773  0.020583565     -4.32032     1.205547   439061 
 2704000    0.8041271    -4.322044    -4.322044   -3.1158561  0.014768491    -4.322044    1.2061879   439061 
 2705000   0.80332992   -4.3202915   -4.3202915   -3.1152994  0.016417186   -4.3202915    1.2049921   439061 
 2706000   0.80439113   -4.3214529   -4.3214529   -3.1148689  0.013864333   -4.3214529     1.206584   439061 
 2707000   0.80327169   -4.3196711   -4.3196711   -3.1147663  0.014802581   -4.3196711    1.2049048   439061 
 2708000   0.80372714     -4.32022     -4.32022    -3.114632  0.013273884     -4.32022     1.205588   439061 
 2709000   0.80477848   -4.3204548   -4.3204548   -3.1132898  0.019371441   -4.3204548     1.207165   439061 
 2710000   0.80451239    -4.320221    -4.320221   -3.1134551  0.022111713    -4.320221    1.2067658   439061 
 2711000   0.80476563   -4.3217041   -4.3217041   -3.1145584  0.020321659   -4.3217041    1.2071457   439061 
 2712000   0.80370235   -4.3206965   -4.3206965   -3.1151457  0.022895501   -4.3206965    1.2055508   439061 
 2713000   0.80613364   -4.3229775   -4.3229775   -3.1137797  0.012568724   -4.3229775    1.2091977   439061 
 2714000   0.80497358   -4.3220791   -4.3220791   -3.1146215  0.015115859   -4.3220791    1.2074576   439061 
 2715000   0.80502576   -4.3222221   -4.3222221   -3.1146862  0.018591623   -4.3222221    1.2075359   439061 
 2716000   0.80567025   -4.3240129   -4.3240129   -3.1155103  0.016394224   -4.3240129    1.2085026   439061 
 2717000   0.80493254   -4.3228794   -4.3228794   -3.1154833   0.01848302   -4.3228794    1.2073961   439061 
 2718000   0.80461241    -4.321959    -4.321959   -3.1150431  0.017030206    -4.321959    1.2069159   439061 
 2719000   0.80433365   -4.3220376   -4.3220376   -3.1155399  0.017459783   -4.3220376    1.2064977   439061 
 2720000   0.80489634   -4.3227717   -4.3227717     -3.11543  0.019172166   -4.3227717    1.2073418   439061 
 2721000    0.8047237   -4.3224838   -4.3224838    -3.115401  0.018314536   -4.3224838    1.2070828   439061 
 2722000   0.80585021   -4.3237787   -4.3237787   -3.1150061  0.015196867   -4.3237787    1.2087726   439061 
 2723000   0.80520196   -4.3207059   -4.3207059   -3.1129057  0.020501404   -4.3207059    1.2078002   439061 
 2724000   0.80571687   -4.3219927   -4.3219927   -3.1134201  0.016085818   -4.3219927    1.2085726   439061 
 2725000   0.80454919   -4.3209218   -4.3209218   -3.1141008  0.018646459   -4.3209218     1.206821   439061 
 2726000   0.80435835   -4.3204024   -4.3204024   -3.1138677  0.017335155   -4.3204024    1.2065348   439061 
 2727000   0.80376386   -4.3200382   -4.3200382   -3.1143952  0.017038449   -4.3200382     1.205643   439061 
 2728000    0.8039297   -4.3213275   -4.3213275   -3.1154357   0.01257163   -4.3213275    1.2058918   439061 
 2729000   0.80395049   -4.3222825   -4.3222825   -3.1163595   0.01044833   -4.3222825     1.205923   439061 
 2730000   0.80357536   -4.3207769   -4.3207769   -3.1154166  0.017036837   -4.3207769    1.2053603   439061 
 2731000   0.80305907   -4.3212527   -4.3212527   -3.1166668  0.015168911   -4.3212527    1.2045859   439061 
 2732000   0.80457823   -4.3230023   -4.3230023   -3.1161377   0.01279298   -4.3230023    1.2068646   439061 
 2733000   0.80409384   -4.3217929   -4.3217929   -3.1156549  0.013897325   -4.3217929     1.206138   439061 
 2734000   0.80353834   -4.3201642   -4.3201642   -3.1148595   0.01792779   -4.3201642    1.2053048   439061 
 2735000   0.80476714   -4.3235916   -4.3235916   -3.1164436   0.01167689   -4.3235916     1.207148   439061 
 2736000   0.80476295   -4.3236236   -4.3236236   -3.1164819   0.01716487   -4.3236236    1.2071417   439061 
 2737000   0.80524927   -4.3237999   -4.3237999   -3.1159288  0.020226833   -4.3237999    1.2078712   439061 
 2738000   0.80432663    -4.323322    -4.323322   -3.1168348  0.018083937    -4.323322    1.2064872   439061 
 2739000   0.80419874   -4.3240376   -4.3240376   -3.1177422    0.0169038   -4.3240376    1.2062954   439061 
 2740000   0.80524323   -4.3267087   -4.3267087   -3.1188466  0.016001472   -4.3267087    1.2078621   439061 
 2741000   0.80499674   -4.3252566   -4.3252566   -3.1177642  0.013779667   -4.3252566    1.2074924   439061 
 2742000   0.80552157   -4.3257857   -4.3257857   -3.1175061  0.020983304   -4.3257857    1.2082796   439061 
 2743000   0.80696753   -4.3266609   -4.3266609   -3.1162124  0.016517525   -4.3266609    1.2104485   439061 
 2744000    0.8055118   -4.3245789   -4.3245789    -3.116314  0.023159379   -4.3245789    1.2082649   439061 
 2745000   0.80453068   -4.3249725   -4.3249725   -3.1181792  0.015619333   -4.3249725    1.2067933   439061 
 2746000   0.80516167   -4.3253168   -4.3253168    -3.117577  0.017093075   -4.3253168    1.2077398   439061 
 2747000   0.80507068   -4.3229783   -4.3229783   -3.1153751  0.016954253   -4.3229783    1.2076033   439061 
 2748000   0.80445851   -4.3229103   -4.3229103   -3.1162253  0.012900984   -4.3229103     1.206685   439061 
 2749000   0.80397738   -4.3225895   -4.3225895   -3.1166262  0.017298959   -4.3225895    1.2059633   439061 
 2750000   0.80355171   -4.3217053   -4.3217053   -3.1163805  0.016013661   -4.3217053    1.2053248   439061 
 2751000   0.80365316   -4.3230866   -4.3230866   -3.1176096  0.014146252   -4.3230866     1.205477   439061 
 2752000   0.80345057     -4.32107     -4.32107   -3.1158969  0.011475914     -4.32107    1.2051731   439061 
 2753000   0.80347603   -4.3207151   -4.3207151   -3.1155038  0.014823786   -4.3207151    1.2052113   439061 
 2754000    0.8046751   -4.3236242   -4.3236242   -3.1166143 0.0089907639   -4.3236242    1.2070099   439061 
 2755000   0.80455801   -4.3224555   -4.3224555   -3.1156212  0.012908436   -4.3224555    1.2068343   439061 
 2756000   0.80572442   -4.3240465   -4.3240465   -3.1154626  0.018318308   -4.3240465    1.2085839   439061 
 2757000   0.80609183    -4.323263    -4.323263    -3.114128  0.026249889    -4.323263     1.209135   439061 
 2758000   0.80588207   -4.3240817   -4.3240817   -3.1152613  0.020281069   -4.3240817    1.2088204   439061 
 2759000   0.80736867   -4.3249547   -4.3249547   -3.1139045    0.0217246   -4.3249547    1.2110502   439061 
 2760000     0.805822   -4.3228162   -4.3228162    -3.114086  0.023454168   -4.3228162    1.2087302   439061 
 2761000    0.8061006   -4.3232531   -4.3232531    -3.114105  0.019615977   -4.3232531    1.2091481   439061 
 2762000   0.80633627    -4.322721    -4.322721   -3.1132194  0.019799607    -4.322721    1.2095017   439061 
 2763000   0.80601525   -4.3222874   -4.3222874   -3.1132673  0.017776679   -4.3222874    1.2090201   439061 
 2764000   0.80509081   -4.3215997   -4.3215997   -3.1139662  0.015319873   -4.3215997    1.2076335   439061 
 2765000   0.80469797    -4.321098    -4.321098   -3.1140538  0.015427477    -4.321098    1.2070442   439061 
 2766000    0.8035313   -4.3193236   -4.3193236   -3.1140294  0.012491719   -4.3193236    1.2052942   439061 
 2767000   0.80308084    -4.319727    -4.319727   -3.1151085 0.0054660486    -4.319727    1.2046185   439061 
 2768000   0.80268458   -4.3195098   -4.3195098   -3.1154857   0.01220057   -4.3195098    1.2040241   439061 
 2769000   0.80439581   -4.3212865   -4.3212865   -3.1146956  0.006001471   -4.3212865     1.206591   439061 
 2770000   0.80450522   -4.3214497   -4.3214497   -3.1146946  0.010501184   -4.3214497    1.2067551   439061 
 2771000   0.80536049   -4.3225497   -4.3225497   -3.1145117  0.017716967   -4.3225497     1.208038   439061 
 2772000   0.80562035   -4.3230202   -4.3230202   -3.1145924  0.016773219   -4.3230202    1.2084278   439061 
 2773000   0.80583349   -4.3231822   -4.3231822   -3.1144347   0.02355241   -4.3231822    1.2087475   439061 
 2774000   0.80558733   -4.3236288   -4.3236288   -3.1152506  0.017827915   -4.3236288    1.2083782   439061 
 2775000   0.80566295    -4.324595    -4.324595   -3.1161033  0.022237221    -4.324595    1.2084917   439061 
 2776000   0.80523212   -4.3257532   -4.3257532   -3.1179078  0.018682049   -4.3257532    1.2078454   439061 
 2777000   0.80573216   -4.3245872   -4.3245872   -3.1159917  0.025657654   -4.3245872    1.2085955   439061 
 2778000   0.80515284   -4.3238307   -4.3238307   -3.1161042  0.022017415   -4.3238307    1.2077265   439061 
 2779000   0.80531448   -4.3250836   -4.3250836   -3.1171146  0.014374076   -4.3250836     1.207969   439061 
 2780000   0.80477416    -4.324822    -4.324822   -3.1176635  0.019174798    -4.324822    1.2071585   439061 
 2781000   0.80489548   -4.3236844   -4.3236844    -3.116344  0.017989175   -4.3236844    1.2073405   439061 
 2782000   0.80327963    -4.321062    -4.321062   -3.1161453   0.01540554    -4.321062    1.2049167   439061 
 2783000   0.80440357   -4.3217569   -4.3217569   -3.1151543  0.017222125   -4.3217569    1.2066026   439061 
 2784000   0.80482419   -4.3217108   -4.3217108   -3.1144773  0.018715367   -4.3217108    1.2072335   439061 
 2785000   0.80637821    -4.322394    -4.322394   -3.1128295  0.016242033    -4.322394    1.2095646   439061 
 2786000   0.80628968   -4.3211237   -4.3211237    -3.111692  0.017846788   -4.3211237    1.2094318   439061 
 2787000   0.80532591   -4.3194456   -4.3194456   -3.1114595  0.019681086   -4.3194456    1.2079861   439061 
 2788000   0.80607733   -4.3203933   -4.3203933     -3.11128  0.017067685   -4.3203933    1.2091132   439061 
 2789000   0.80415699   -4.3182599   -4.3182599   -3.1120271  0.014963608   -4.3182599    1.2062327   439061 
 2790000   0.80402306    -4.318706    -4.318706   -3.1126742 0.0063476702    -4.318706    1.2060318   439061 
 2791000   0.80425684   -4.3179373   -4.3179373   -3.1115548  0.014877002   -4.3179373    1.2063825   439061 
 2792000   0.80593227   -4.3200359   -4.3200359   -3.1111403  0.013817184   -4.3200359    1.2088957   439061 
 2793000   0.80603098   -4.3185947   -4.3185947    -3.109551  0.015481965   -4.3185947    1.2090437   439061 
 2794000    0.8046518   -4.3173652   -4.3173652   -3.1103903   0.01668914   -4.3173652     1.206975   439061 
 2795000   0.80600384   -4.3181235   -4.3181235   -3.1091205  0.018674751   -4.3181235     1.209003   439061 
 2796000   0.80642592   -4.3190126   -4.3190126   -3.1093764   0.01734917   -4.3190126    1.2096361   439061 
 2797000   0.80736666    -4.320678    -4.320678   -3.1096307  0.014436287    -4.320678    1.2110472   439061 
 2798000   0.80549361   -4.3196061   -4.3196061   -3.1113685   0.01573908   -4.3196061    1.2082377   439061 
 2799000   0.80715214    -4.321892    -4.321892   -3.1111665 0.0077309407    -4.321892    1.2107254   439061 
 2800000   0.80582527   -4.3207037   -4.3207037   -3.1119686   0.01470656   -4.3207037    1.2087352   439061 
 2801000   0.80548057    -4.321373    -4.321373   -3.1131549   0.01390816    -4.321373    1.2082181   439061 
 2802000   0.80444714   -4.3200596   -4.3200596   -3.1133916  0.016105133   -4.3200596     1.206668   439061 
 2803000   0.80466625   -4.3197104   -4.3197104   -3.1127138  0.022246918   -4.3197104    1.2069966   439061 
 2804000   0.80655974    -4.322389    -4.322389   -3.1125521  0.018867049    -4.322389    1.2098369   439061 
 2805000    0.8073576   -4.3234353   -4.3234353   -3.1124017  0.019502988   -4.3234353    1.2110336   439061 
 2806000   0.80556226    -4.321096    -4.321096   -3.1127554  0.020550518    -4.321096    1.2083406   439061 
 2807000   0.80685679   -4.3226474   -4.3226474    -3.112365  0.020167408   -4.3226474    1.2102824   439061 
 2808000   0.80684832   -4.3228292   -4.3228292   -3.1125595   0.01652431   -4.3228292    1.2102697   439061 
 2809000   0.80654619   -4.3222134   -4.3222134   -3.1123969  0.017771657   -4.3222134    1.2098165   439061 
 2810000   0.80527493   -4.3194354   -4.3194354   -3.1115258   0.02223416   -4.3194354    1.2079096   439061 
 2811000   0.80631216   -4.3219869   -4.3219869   -3.1125214  0.015952401   -4.3219869    1.2094655   439061 
 2812000   0.80547867   -4.3210735   -4.3210735   -3.1128583  0.015444123   -4.3210735    1.2082153   439061 
 2813000   0.80395993   -4.3195335   -4.3195335   -3.1135964  0.016054741   -4.3195335    1.2059371   439061 
 2814000   0.80362224    -4.318672    -4.318672   -3.1132414 0.0099708743    -4.318672    1.2054306   439061 
 2815000   0.80489278   -4.3191374   -4.3191374    -3.111801  0.010381337   -4.3191374    1.2073364   439061 
 2816000    0.8055587   -4.3198039   -4.3198039   -3.1114686  0.015368012   -4.3198039    1.2083353   439061 
 2817000   0.80556109   -4.3186784   -4.3186784   -3.1103395  0.017040666   -4.3186784    1.2083389   439061 
 2818000   0.80625538   -4.3195127   -4.3195127   -3.1101324  0.014310314   -4.3195127    1.2093803   439061 
 2819000   0.80619401   -4.3202594   -4.3202594   -3.1109711  0.010322119   -4.3202594    1.2092883   439061 
 2820000   0.80465455     -4.32011     -4.32011   -3.1131309    0.0154487     -4.32011    1.2069791   439061 
 2821000   0.80386331   -4.3187836   -4.3187836   -3.1129914  0.010644609   -4.3187836    1.2057922   439061 
 2822000   0.80462344   -4.3195806   -4.3195806   -3.1126482  0.013306758   -4.3195806    1.2069324   439061 
 2823000   0.80628181   -4.3221223   -4.3221223   -3.1127024  0.015991753   -4.3221223      1.20942   439061 
 2824000   0.80555749   -4.3209569   -4.3209569   -3.1126235  0.021474687   -4.3209569    1.2083335   439061 
 2825000   0.80545999   -4.3215813   -4.3215813    -3.113394  0.020834493   -4.3215813    1.2081872   439061 
 2826000   0.80493995    -4.320615    -4.320615   -3.1132078  0.022916425    -4.320615    1.2074072   439061 
 2827000   0.80515863   -4.3224525   -4.3224525   -3.1147174  0.012450449   -4.3224525    1.2077352   439061 
 2828000   0.80578681   -4.3222877   -4.3222877   -3.1136103  0.017833811   -4.3222877    1.2086775   439061 
 2829000   0.80550875   -4.3220825   -4.3220825   -3.1138221  0.017996386   -4.3220825    1.2082604   439061 
 2830000   0.80487173   -4.3204277   -4.3204277   -3.1131229  0.021944274   -4.3204277    1.2073048   439061 
 2831000   0.80649519   -4.3230645   -4.3230645   -3.1133244   0.01976268   -4.3230645      1.20974   439061 
 2832000   0.80530323   -4.3215021   -4.3215021     -3.11355  0.018845644   -4.3215021    1.2079521   439061 
 2833000   0.80503568   -4.3224514   -4.3224514   -3.1149007  0.014596554   -4.3224514    1.2075508   439061 
 2834000   0.80575481   -4.3223863   -4.3223863   -3.1137569  0.017539071   -4.3223863    1.2086295   439061 
 2835000   0.80397857   -4.3202519   -4.3202519   -3.1142868   0.01585091   -4.3202519    1.2059651   439061 
 2836000     0.804295    -4.320257    -4.320257   -3.1138173  0.016111865    -4.320257    1.2064397   439061 
 2837000   0.80600119   -4.3220331   -4.3220331    -3.113034  0.015453521   -4.3220331     1.208999   439061 
 2838000   0.80414589   -4.3197659   -4.3197659   -3.1135499  0.017977201   -4.3197659    1.2062161   439061 
 2839000    0.8047901   -4.3211999   -4.3211999   -3.1140175  0.014689954   -4.3211999    1.2071824   439061 
 2840000   0.80516772   -4.3214293   -4.3214293   -3.1136804   0.01824557   -4.3214293    1.2077488   439061 
 2841000   0.80522912   -4.3207821   -4.3207821   -3.1129412  0.020968186   -4.3207821    1.2078409   439061 
 2842000   0.80487836   -4.3219537   -4.3219537   -3.1146389  0.014337178   -4.3219537    1.2073148   439061 
 2843000   0.80514218   -4.3219916   -4.3219916    -3.114281  0.016791963   -4.3219916    1.2077105   439061 
 2844000   0.80411846   -4.3207663   -4.3207663   -3.1145913  0.016625793   -4.3207663    1.2061749   439061 
 2845000   0.80275054   -4.3188835   -4.3188835   -3.1147605  0.016982358   -4.3188835    1.2041231   439061 
 2846000   0.80377727   -4.3209431   -4.3209431     -3.11528  0.019275207   -4.3209431    1.2056632   439061 
 2847000    0.8053639   -4.3233697   -4.3233697   -3.1153266  0.013252198   -4.3233697    1.2080431   439061 
 2848000   0.80507707   -4.3228302   -4.3228302   -3.1152174  0.018940671   -4.3228302    1.2076129   439061 
 2849000   0.80508044   -4.3217244   -4.3217244   -3.1141065  0.020477288   -4.3217244    1.2076179   439061 
 2850000   0.80661784   -4.3242085   -4.3242085   -3.1142845  0.013318462   -4.3242085     1.209924   439061 
 2851000   0.80527835   -4.3216839   -4.3216839   -3.1137691  0.022865712   -4.3216839    1.2079148   439061 
 2852000   0.80652496     -4.32381     -4.32381   -3.1140253  0.021121224     -4.32381    1.2097847   439061 
 2853000   0.80779729   -4.3248059   -4.3248059   -3.1131128  0.019045175   -4.3248059    1.2116932   439061 
 2854000    0.8054812   -4.3229636   -4.3229636   -3.1147445  0.018323275   -4.3229636     1.208219   439061 
 2855000   0.80511421   -4.3227656   -4.3227656    -3.115097  0.018029066   -4.3227656    1.2076686   439061 
 2856000   0.80420847   -4.3225048   -4.3225048   -3.1161948  0.012536839   -4.3225048      1.20631   439061 
 2857000   0.80333373    -4.322028    -4.322028   -3.1170301  0.012079518    -4.322028    1.2049979   439061 
 2858000   0.80359889   -4.3221181   -4.3221181   -3.1167225  0.012199941   -4.3221181    1.2053956   439061 
 2859000   0.80484271   -4.3231698   -4.3231698   -3.1159084  0.011510232   -4.3231698    1.2072613   439061 
 2860000    0.8039299   -4.3213092   -4.3213092   -3.1154171  0.019397773   -4.3213092    1.2058921   439061 
 2861000   0.80532048   -4.3226554   -4.3226554   -3.1146775   0.01646998   -4.3226554     1.207978   439061 
 2862000   0.80456243    -4.323151    -4.323151   -3.1163101  0.016719753    -4.323151    1.2068409   439061 
 2863000   0.80603922   -4.3249043   -4.3249043   -3.1158482  0.016458213   -4.3249043    1.2090561   439061 
 2864000    0.8054248   -4.3243219   -4.3243219   -3.1161875  0.017996149   -4.3243219    1.2081344   439061 
 2865000   0.80488212   -4.3243958   -4.3243958   -3.1170754  0.014117861   -4.3243958    1.2073204   439061 
 2866000   0.80539604   -4.3255472   -4.3255472   -3.1174559  0.015852137   -4.3255472    1.2080913   439061 
 2867000   0.80441128    -4.325012    -4.325012   -3.1183978  0.011727222    -4.325012    1.2066142   439061 
 2868000    0.8042149   -4.3237837   -4.3237837   -3.1174641  0.019190202   -4.3237837    1.2063196   439061 
 2869000   0.80410888   -4.3246523   -4.3246523   -3.1184918  0.018624455   -4.3246523    1.2061606   439061 
 2870000   0.80460118   -4.3250963   -4.3250963   -3.1181973  0.015952439   -4.3250963     1.206899   439061 
 2871000   0.80565022   -4.3270237   -4.3270237   -3.1185511  0.015111921   -4.3270237    1.2084726   439061 
 2872000   0.80472935   -4.3261264   -4.3261264   -3.1190352  0.014683403   -4.3261264    1.2070913   439061 
 2873000   0.80353258   -4.3247116   -4.3247116   -3.1194155  0.015719186   -4.3247116    1.2052961   439061 
 2874000   0.80415637   -4.3265947   -4.3265947   -3.1203629  0.014733765   -4.3265947    1.2062318   439061 
 2875000   0.80395519   -4.3251012   -4.3251012   -3.1191711  0.013894823   -4.3251012      1.20593   439061 
 2876000   0.80427109   -4.3258106   -4.3258106   -3.1194067  0.019970081   -4.3258106    1.2064039   439061 
 2877000   0.80532123    -4.328394    -4.328394   -3.1204149  0.014596762    -4.328394    1.2079791   439061 
 2878000    0.8055505   -4.3271823   -4.3271823   -3.1188593  0.018713006   -4.3271823     1.208323   439061 
 2879000   0.80548182   -4.3272602   -4.3272602   -3.1190402  0.018209558   -4.3272602      1.20822   439061 
 2880000   0.80437609   -4.3258787   -4.3258787   -3.1193174  0.020084243   -4.3258787    1.2065614   439061 
 2881000   0.80450876   -4.3253777   -4.3253777   -3.1186173  0.020576017   -4.3253777    1.2067604   439061 
 2882000    0.8036777   -4.3257205   -4.3257205   -3.1202067  0.014114964   -4.3257205    1.2055138   439061 
 2883000   0.80286204   -4.3239092   -4.3239092   -3.1196189  0.017214296   -4.3239092    1.2042903   439061 
 2884000   0.80460421   -4.3265601   -4.3265601   -3.1196565  0.011801617   -4.3265601    1.2069036   439061 
 2885000   0.80337768   -4.3234609   -4.3234609   -3.1183971  0.016022134   -4.3234609    1.2050638   439061 
 2886000   0.80407374   -4.3243635   -4.3243635   -3.1182556  0.012051402   -4.3243635    1.2061079   439061 
 2887000   0.80389799   -4.3232653   -4.3232653   -3.1174211  0.016283853   -4.3232653    1.2058442   439061 
 2888000   0.80316597   -4.3235341   -4.3235341   -3.1187879  0.014037488   -4.3235341    1.2047462   439061 
 2889000   0.80388285   -4.3250746   -4.3250746   -3.1192531  0.015647392   -4.3250746    1.2058215   439061 
 2890000   0.80309117   -4.3232487   -4.3232487   -3.1186147  0.016756868   -4.3232487     1.204634   439061 
 2891000   0.80422328   -4.3241509   -4.3241509   -3.1178187  0.017148846   -4.3241509    1.2063322   439061 
 2892000   0.80426922   -4.3254344   -4.3254344   -3.1190333   0.01580853   -4.3254344    1.2064011   439061 
 2893000   0.80348138   -4.3233989   -4.3233989   -3.1181795    0.0229766   -4.3233989    1.2052193   439061 
 2894000   0.80441946   -4.3247324   -4.3247324    -3.118106   0.02044241   -4.3247324    1.2066264   439061 
 2895000   0.80509517   -4.3265002   -4.3265002   -3.1188602  0.017000185   -4.3265002      1.20764   439061 
 2896000   0.80511016   -4.3271865   -4.3271865   -3.1195241  0.015642922   -4.3271865    1.2076625   439061 
 2897000   0.80408891   -4.3254107   -4.3254107   -3.1192801   0.01597995   -4.3254107    1.2061306   439061 
 2898000   0.80271095   -4.3241825   -4.3241825   -3.1201188  0.017075701   -4.3241825    1.2040637   439061 
 2899000   0.80333745   -4.3246808   -4.3246808   -3.1196774  0.013718195   -4.3246808    1.2050034   439061 
 2900000   0.80349139   -4.3247656   -4.3247656   -3.1195312  0.019670372   -4.3247656    1.2052343   439061 
 2901000   0.80431418   -4.3266546   -4.3266546   -3.1201861  0.015962348   -4.3266546    1.2064685   439061 
 2902000   0.80331475   -4.3250053   -4.3250053   -3.1200359  0.017367533   -4.3250053    1.2049694   439061 
 2903000   0.80273446   -4.3238416   -4.3238416   -3.1197426  0.017663955   -4.3238416     1.204099   439061 
 2904000   0.80354127     -4.32566     -4.32566   -3.1203509  0.011138249     -4.32566    1.2053092   439061 
 2905000   0.80339077   -4.3257779   -4.3257779   -3.1206945  0.015357626   -4.3257779    1.2050834   439061 
 2906000   0.80438574    -4.326279    -4.326279   -3.1197032  0.015472498    -4.326279    1.2065759   439061 
 2907000   0.80569464   -4.3267284   -4.3267284   -3.1181892  0.014652742   -4.3267284    1.2085392   439061 
 2908000   0.80448325   -4.3254824   -4.3254824   -3.1187603   0.01821115   -4.3254824    1.2067221   439061 
 2909000   0.80501055   -4.3260813   -4.3260813   -3.1185682   0.01748463   -4.3260813    1.2075131   439061 
 2910000    0.8041391   -4.3257837   -4.3257837   -3.1195778  0.018215256   -4.3257837    1.2062059   439061 
 2911000   0.80437261   -4.3273522   -4.3273522    -3.120796  0.014367215   -4.3273522    1.2065562   439061 
 2912000   0.80331896   -4.3258838   -4.3258838   -3.1209081  0.012515161   -4.3258838    1.2049757   439061 
 2913000   0.80383336   -4.3267135   -4.3267135   -3.1209662  0.017114152   -4.3267135    1.2057473   439061 
 2914000   0.80374574   -4.3271238   -4.3271238   -3.1215079  0.015374609   -4.3271238    1.2056159   439061 
 2915000   0.80371349   -4.3277911   -4.3277911   -3.1222236  0.014589089   -4.3277911    1.2055675   439061 
 2916000   0.80358229   -4.3260517   -4.3260517   -3.1206811  0.019653135   -4.3260517    1.2053707   439061 
 2917000   0.80462589   -4.3282667   -4.3282667   -3.1213306  0.018084015   -4.3282667    1.2069361   439061 
 2918000   0.80430739   -4.3273402   -4.3273402   -3.1208818  0.023294655   -4.3273402    1.2064583   439061 
 2919000   0.80406513   -4.3282587   -4.3282587   -3.1221637  0.018832535   -4.3282587    1.2060949   439061 
 2920000   0.80389118   -4.3273939   -4.3273939   -3.1215599  0.020629437   -4.3273939     1.205834   439061 
 2921000   0.80367362   -4.3265659   -4.3265659   -3.1210583  0.022977522   -4.3265659    1.2055077   439061 
 2922000   0.80543182   -4.3276408   -4.3276408   -3.1194959  0.015553662   -4.3276408     1.208145   439061 
 2923000   0.80358381   -4.3250374   -4.3250374   -3.1196644  0.020195567   -4.3250374     1.205373   439061 
 2924000   0.80383224   -4.3260867   -4.3260867    -3.120341  0.020046526   -4.3260867    1.2057456   439061 
 2925000   0.80302299   -4.3246643   -4.3246643   -3.1201326  0.017904785   -4.3246643    1.2045317   439061 
 2926000   0.80314626    -4.323651    -4.323651   -3.1189344  0.016038474    -4.323651    1.2047167   439061 
 2927000   0.80287706   -4.3237196   -4.3237196   -3.1194067  0.012003158   -4.3237196    1.2043128   439061 
 2928000   0.80358776     -4.32401     -4.32401   -3.1186312   0.01298183     -4.32401    1.2053789   439061 
 2929000   0.80367653   -4.3239869   -4.3239869   -3.1184749  0.012115144   -4.3239869     1.205512   439061 
 2930000   0.80279447   -4.3234696   -4.3234696   -3.1192806  0.011066195   -4.3234696     1.204189   439061 
 2931000     0.802705   -4.3232806   -4.3232806   -3.1192259 0.0075655613   -4.3232806    1.2040548   439061 
 2932000   0.80228258     -4.32383     -4.32383   -3.1204089  0.014330641     -4.32383    1.2034211   439061 
 2933000   0.80353411   -4.3253521   -4.3253521   -3.1200537  0.015142095   -4.3253521    1.2052984   439061 
 2934000   0.80332607   -4.3245641   -4.3245641   -3.1195778  0.016250002   -4.3245641    1.2049864   439061 
 2935000    0.8044912    -4.326864    -4.326864   -3.1201299  0.017747287    -4.326864     1.206734   439061 
 2936000   0.80560325   -4.3275769   -4.3275769   -3.1191748  0.019077049   -4.3275769    1.2084021   439061 
 2937000    0.8047449    -4.327518    -4.327518   -3.1204034  0.023018593    -4.327518    1.2071146   439061 
 2938000   0.80462668   -4.3279825   -4.3279825   -3.1210452  0.016993278   -4.3279825    1.2069373   439061 
 2939000   0.80438737   -4.3286346   -4.3286346   -3.1220563  0.020729628   -4.3286346    1.2065783   439061 
 2940000   0.80439109   -4.3293287   -4.3293287   -3.1227448  0.017746123   -4.3293287    1.2065839   439061 
 2941000   0.80485753   -4.3291531   -4.3291531   -3.1218695  0.015954566   -4.3291531    1.2072835   439061 
 2942000   0.80380962   -4.3271766   -4.3271766   -3.1214649  0.019700394   -4.3271766    1.2057117   439061 
 2943000   0.80380619   -4.3278021   -4.3278021   -3.1220955  0.017881217   -4.3278021    1.2057065   439061 
 2944000    0.8041562    -4.327805    -4.327805   -3.1215734  0.019333221    -4.327805    1.2062316   439061 
 2945000    0.8034749   -4.3275436   -4.3275436    -3.122334  0.017428406   -4.3275436    1.2052096   439061 
 2946000   0.80315416   -4.3274057   -4.3274057   -3.1226772  0.015195115   -4.3274057    1.2047285   439061 
 2947000   0.80204841   -4.3265893   -4.3265893   -3.1235194  0.013816836   -4.3265893    1.2030699   439061 
 2948000   0.80293352   -4.3274403   -4.3274403   -3.1230428  0.014295312   -4.3274403    1.2043975   439061 
 2949000   0.80250751   -4.3271271   -4.3271271   -3.1233686   0.01556842   -4.3271271    1.2037585   439061 
 2950000   0.80431469   -4.3290521   -4.3290521   -3.1225828  0.012157854   -4.3290521    1.2064693   439061 
 2951000   0.80357835   -4.3269556   -4.3269556   -3.1215908  0.018020591   -4.3269556    1.2053648   439061 
 2952000   0.80242852   -4.3258732   -4.3258732   -3.1222331  0.017034243   -4.3258732      1.20364   439061 
 2953000   0.80401613   -4.3292019   -4.3292019   -3.1231804    0.0104911   -4.3292019    1.2060214   439061 
 2954000   0.80283928   -4.3270643   -4.3270643   -3.1228081  0.017988054   -4.3270643    1.2042562   439061 
 2955000   0.80301487   -4.3268506   -4.3268506    -3.122331   0.01660941   -4.3268506    1.2045196   439061 
 2956000   0.80338427   -4.3281916   -4.3281916    -3.123118  0.013791625   -4.3281916    1.2050737   439061 
 2957000   0.80406208   -4.3290317   -4.3290317   -3.1229413   0.01587674   -4.3290317    1.2060904   439061 
 2958000   0.80222736   -4.3273179   -4.3273179   -3.1239796  0.018568544   -4.3273179    1.2033383   439061 
 2959000    0.8026866   -4.3280733   -4.3280733   -3.1240462  0.020018814   -4.3280733    1.2040272   439061 
 2960000   0.80376302   -4.3291377   -4.3291377   -3.1234959  0.019032907   -4.3291377    1.2056418   439061 
 2961000   0.80419808   -4.3291472   -4.3291472   -3.1228528  0.017114553   -4.3291472    1.2062944   439061 
 2962000   0.80433312   -4.3300329   -4.3300329    -3.123536  0.017743723   -4.3300329    1.2064969   439061 
 2963000   0.80405587   -4.3298285   -4.3298285   -3.1237474    0.0162691   -4.3298285    1.2060811   439061 
 2964000   0.80414904   -4.3295361   -4.3295361   -3.1233153  0.019188705   -4.3295361    1.2062208   439061 
 2965000   0.80356204    -4.329216    -4.329216   -3.1238757  0.016177336    -4.329216    1.2053403   439061 
 2966000   0.80238233   -4.3277382   -4.3277382   -3.1241674  0.019302276   -4.3277382    1.2035708   439061 
 2967000   0.80221381   -4.3285667   -4.3285667   -3.1252488  0.016795393   -4.3285667     1.203318   439061 
 2968000   0.80205404   -4.3285818   -4.3285818   -3.1255035  0.014322781   -4.3285818    1.2030783   439061 
 2969000   0.80373246   -4.3312125   -4.3312125   -3.1256166  0.010306165   -4.3312125    1.2055959   439061 
 2970000   0.80234826   -4.3290105   -4.3290105   -3.1254909  0.016833706   -4.3290105    1.2035196   439061 
 2971000   0.80367869   -4.3305526   -4.3305526   -3.1250373  0.021577775   -4.3305526    1.2055153   439061 
 2972000   0.80326003   -4.3303472   -4.3303472   -3.1254599  0.016515827   -4.3303472    1.2048873   439061 
 2973000    0.8034025   -4.3312541   -4.3312541   -3.1261531  0.013718527   -4.3312541     1.205101   439061 
 2974000   0.80212294   -4.3288229   -4.3288229   -3.1256412  0.017632764   -4.3288229    1.2031817   439061 
 2975000   0.80306667   -4.3299602   -4.3299602    -3.125363  0.015742405   -4.3299602    1.2045973   439061 
 2976000   0.80258004   -4.3297648   -4.3297648   -3.1258975  0.015851981   -4.3297648    1.2038673   439061 
 2977000   0.80304408   -4.3302522   -4.3302522   -3.1256888  0.018432887   -4.3302522    1.2045634   439061 
 2978000   0.80369314   -4.3312084   -4.3312084   -3.1256715  0.019004335   -4.3312084     1.205537   439061 
 2979000   0.80231546   -4.3293199   -4.3293199   -3.1258495  0.016984532   -4.3293199    1.2034704   439061 
 2980000   0.80231641   -4.3295305   -4.3295305   -3.1260587  0.017490293   -4.3295305    1.2034719   439061 
 2981000   0.80404388    -4.331126    -4.331126    -3.125063  0.015141146    -4.331126    1.2060631   439061 
 2982000   0.80308316   -4.3303722   -4.3303722   -3.1257502  0.019308728   -4.3303722     1.204622   439061 
 2983000     0.803505   -4.3299402   -4.3299402   -3.1246854  0.018907768   -4.3299402    1.2052548   439061 
 2984000   0.80267107   -4.3282673   -4.3282673   -3.1242634  0.022986108   -4.3282673    1.2040039   439061 
 2985000   0.80236686   -4.3281915   -4.3281915   -3.1246439  0.019085293   -4.3281915    1.2035475   439061 
 2986000   0.80289859   -4.3293683   -4.3293683   -3.1250232  0.017175351   -4.3293683    1.2043451   439061 
 2987000   0.80337651   -4.3285242   -4.3285242   -3.1234621  0.018418615   -4.3285242     1.205062   439061 
 2988000   0.80373814   -4.3295582   -4.3295582   -3.1239537  0.016231551   -4.3295582    1.2056045   439061 
 2989000   0.80355055   -4.3288456   -4.3288456   -3.1235225    0.0148971   -4.3288456    1.2053231   439061 
 2990000   0.80324591   -4.3287522   -4.3287522   -3.1238861  0.015452769   -4.3287522    1.2048661   439061 
 2991000   0.80260958   -4.3285818   -4.3285818   -3.1246702  0.014533926   -4.3285818    1.2039116   439061 
 2992000   0.80093202   -4.3261378   -4.3261378   -3.1247426  0.016100274   -4.3261378    1.2013953   439061 
 2993000   0.80176038   -4.3271468   -4.3271468    -3.124509  0.013606318   -4.3271468    1.2026378   439061 
 2994000    0.8028237   -4.3274827   -4.3274827   -3.1232499  0.017075413   -4.3274827    1.2042328   439061 
 2995000   0.80336493    -4.328126    -4.328126   -3.1230813  0.016856834    -4.328126    1.2050446   439061 
 2996000   0.80392644   -4.3296363   -4.3296363   -3.1237494  0.018300237   -4.3296363    1.2058869   439061 
 2997000   0.80475102   -4.3296425   -4.3296425   -3.1225187  0.020823393   -4.3296425    1.2071238   439061 
 2998000   0.80343897    -4.328983    -4.328983   -3.1238273  0.017593592    -4.328983    1.2051557   439061 
 2999000   0.80382254   -4.3302398   -4.3302398   -3.1245087  0.013318029   -4.3302398    1.2057311   439061 
 3000000   0.80320351   -4.3289818   -4.3289818   -3.1241793   0.01527335   -4.3289818    1.2048025   439061 
 3001000   0.80252412   -4.3291634   -4.3291634   -3.1253799  0.016796968   -4.3291634    1.2037834   439061 
 3002000   0.80310139   -4.3306571   -4.3306571   -3.1260078  0.016183593   -4.3306571    1.2046493   439061 
 3003000   0.80283035   -4.3289417   -4.3289417   -3.1246989  0.020677862   -4.3289417    1.2042428   439061 
 3004000   0.80314092   -4.3299636   -4.3299636    -3.125255  0.019153368   -4.3299636    1.2047086   439061 
 3005000   0.80393968   -4.3309583   -4.3309583   -3.1250515  0.019059612   -4.3309583    1.2059068   439061 
 3006000   0.80326769   -4.3303904   -4.3303904   -3.1254916  0.017225635   -4.3303904    1.2048988   439061 
 3007000   0.80399055   -4.3310849   -4.3310849   -3.1251018  0.020032386   -4.3310849    1.2059831   439061 
 3008000   0.80358798   -4.3300683   -4.3300683   -3.1246891   0.01815623   -4.3300683    1.2053792   439061 
 3009000    0.8035082   -4.3301949   -4.3301949   -3.1249354   0.01511291   -4.3301949    1.2052596   439061 
 3010000   0.80280186   -4.3301915   -4.3301915   -3.1259915  0.016399645   -4.3301915    1.2042001   439061 
 3011000   0.80292541   -4.3305305   -4.3305305   -3.1261451  0.015479361   -4.3305305    1.2043854   439061 
 3012000   0.80417309   -4.3316002   -4.3316002   -3.1253433  0.014163702   -4.3316002    1.2062569   439061 
 3013000   0.80279115   -4.3305263   -4.3305263   -3.1263423  0.017123661   -4.3305263     1.204184   439061 
 3014000   0.80420662   -4.3306422   -4.3306422    -3.124335  0.011753379   -4.3306422    1.2063072   439061 
 3015000   0.80448925   -4.3302292   -4.3302292   -3.1234981  0.014346653   -4.3302292    1.2067311   439061 
 3016000   0.80186042   -4.3272402   -4.3272402   -3.1244523  0.018681087   -4.3272402    1.2027879   439061 
 3017000   0.80335273   -4.3283131   -4.3283131   -3.1232867  0.019506633   -4.3283131    1.2050264   439061 
 3018000   0.80312113   -4.3290294   -4.3290294   -3.1243505  0.017402502   -4.3290294     1.204679   439061 
 3019000   0.80275815    -4.327858    -4.327858   -3.1237235  0.020329277    -4.327858    1.2041345   439061 
 3020000   0.80274033   -4.3288361   -4.3288361   -3.1247283  0.014154662   -4.3288361    1.2041078   439061 
 3021000   0.80249778   -4.3289741   -4.3289741   -3.1252302  0.014154398   -4.3289741    1.2037439   439061 
 3022000   0.80212331   -4.3286504   -4.3286504   -3.1254682  0.013909996   -4.3286504    1.2031822   439061 
 3023000   0.80194391   -4.3284633   -4.3284633   -3.1255502  0.012664759   -4.3284633    1.2029131   439061 
 3024000   0.80374895   -4.3303648   -4.3303648   -3.1247441  0.016379349   -4.3303648    1.2056207   439061 
 3025000   0.80327109   -4.3294378   -4.3294378    -3.124534  0.019825424   -4.3294378    1.2049039   439061 
 3026000   0.80358762   -4.3310097   -4.3310097   -3.1256311  0.015733366   -4.3310097    1.2053787   439061 
 3027000   0.80434924   -4.3316949   -4.3316949   -3.1251738  0.017332087   -4.3316949    1.2065211   439061 
 3028000   0.80395328   -4.3332781   -4.3332781   -3.1273509  0.014978837   -4.3332781    1.2059272   439061 
 3029000   0.80397125   -4.3310874   -4.3310874   -3.1251333  0.017999648   -4.3310874    1.2059541   439061 
 3030000   0.80233288   -4.3302897   -4.3302897   -3.1267932  0.017178059   -4.3302897    1.2034966   439061 
 3031000   0.80382015   -4.3316561   -4.3316561   -3.1259287  0.016307649   -4.3316561    1.2057275   439061 
 3032000   0.80307441   -4.3311538   -4.3311538   -3.1265449  0.022644682   -4.3311538    1.2046089   439061 
 3033000   0.80337868   -4.3316247   -4.3316247   -3.1265594  0.024555265   -4.3316247    1.2050653   439061 
 3034000   0.80255685   -4.3300729   -4.3300729   -3.1262403  0.014744163   -4.3300729    1.2038325   439061 
 3035000   0.80224521   -4.3292232   -4.3292232   -3.1258581  0.019934976   -4.3292232    1.2033651   439061 
 3036000   0.80232456   -4.3303661   -4.3303661    -3.126882  0.016406362   -4.3303661    1.2034841   439061 
 3037000   0.80296159   -4.3307723   -4.3307723   -3.1263327  0.018942563   -4.3307723    1.2044396   439061 
 3038000   0.80426199   -4.3318554   -4.3318554   -3.1254652  0.013340026   -4.3318554    1.2063902   439061 
 3039000   0.80154923   -4.3281773   -4.3281773   -3.1258562  0.017726299   -4.3281773    1.2023211   439061 
 3040000   0.80236576   -4.3279357   -4.3279357   -3.1243898  0.018251983   -4.3279357    1.2035459   439061 
 3041000   0.80267482   -4.3285406   -4.3285406   -3.1245311  0.011651205   -4.3285406    1.2040095   439061 
 3042000   0.80175915   -4.3283187   -4.3283187   -3.1256827 0.0096136187   -4.3283187     1.202636   439061 
 3043000   0.80304766   -4.3301631   -4.3301631   -3.1255944  0.010778991   -4.3301631    1.2045687   439061 
 3044000   0.80250087   -4.3307148   -4.3307148   -3.1269663  0.011457647   -4.3307148    1.2037486   439061 
 3045000   0.80182038   -4.3293621   -4.3293621   -3.1266343  0.020371677   -4.3293621    1.2027278   439061 
 3046000   0.80390636   -4.3315425   -4.3315425   -3.1256857 0.0056270569   -4.3315425    1.2058568   439061 
 3047000   0.80408517   -4.3316477   -4.3316477   -3.1255227  0.013982013   -4.3316477     1.206125   439061 
 3048000   0.80348859   -4.3311965   -4.3311965   -3.1259663  0.021164323   -4.3311965    1.2052301   439061 
 3049000   0.80422628   -4.3323471   -4.3323471   -3.1260104  0.021217823   -4.3323471    1.2063367   439061 
 3050000   0.80317561   -4.3306543   -4.3306543   -3.1258936  0.022806463   -4.3306543    1.2047607   439061 
 3051000   0.80406873   -4.3311611   -4.3311611   -3.1250608  0.023644584   -4.3311611    1.2061003   439061 
 3052000   0.80384973   -4.3323051   -4.3323051   -3.1265333  0.013540867   -4.3323051    1.2057718   439061 
 3053000   0.80341482   -4.3313408   -4.3313408   -3.1262213  0.018976935   -4.3313408    1.2051195   439061 
 3054000     0.803634   -4.3317474   -4.3317474   -3.1262992  0.016079662   -4.3317474    1.2054482   439061 
 3055000   0.80510952   -4.3330071   -4.3330071   -3.1253456  0.015973654   -4.3330071    1.2076615   439061 
 3056000   0.80374941   -4.3304471   -4.3304471   -3.1248257  0.019342118   -4.3304471    1.2056214   439061 
 3057000   0.80337466   -4.3295013   -4.3295013    -3.124442  0.015884029   -4.3295013    1.2050592   439061 
 3058000   0.80257537   -4.3283438   -4.3283438   -3.1244835  0.012229169   -4.3283438    1.2038603   439061 
 3059000   0.80255641   -4.3284569   -4.3284569    -3.124625  0.014502528   -4.3284569    1.2038319   439061 
 3060000    0.8026666   -4.3286266   -4.3286266   -3.1246294  0.012601543   -4.3286266    1.2039972   439061 
 3061000    0.8026022   -4.3280603   -4.3280603   -3.1241598  0.013354103   -4.3280603    1.2039006   439061 
 3062000    0.8029785   -4.3291684   -4.3291684   -3.1247034  0.010759336   -4.3291684     1.204465   439061 
 3063000    0.8026987   -4.3292343   -4.3292343    -3.125189   0.01445349   -4.3292343    1.2040453   439061 
 3064000   0.80188908   -4.3284987   -4.3284987   -3.1256678   0.01452901   -4.3284987    1.2028309   439061 
 3065000   0.80251285   -4.3303678   -4.3303678   -3.1266012  0.010834697   -4.3303678    1.2037665   439061 
 3066000   0.80215633   -4.3288149   -4.3288149   -3.1255832  0.011706426   -4.3288149    1.2032318   439061 
 3067000   0.80287581   -4.3314554   -4.3314554   -3.1271444  0.013802744   -4.3314554     1.204311   439061 
 3068000    0.8040911   -4.3326719   -4.3326719    -3.126538  0.018456756   -4.3326719    1.2061339   439061 
 3069000   0.80410655   -4.3318079   -4.3318079   -3.1256508  0.022012278   -4.3318079    1.2061571   439061 
 3070000    0.8047815   -4.3338733   -4.3338733   -3.1267038  0.017892514   -4.3338733    1.2071695   439061 
 3071000   0.80340541   -4.3328749   -4.3328749   -3.1277696  0.024505003   -4.3328749    1.2051054   439061 
 3072000   0.80413433   -4.3348739   -4.3348739   -3.1286751  0.018930682   -4.3348739    1.2061988   439061 
 3073000   0.80313943   -4.3336745   -4.3336745   -3.1289681  0.021433096   -4.3336745    1.2047064   439061 
 3074000   0.80319479   -4.3332034   -4.3332034   -3.1284139  0.020716588   -4.3332034    1.2047894   439061 
 3075000   0.80353325   -4.3335688   -4.3335688   -3.1282717  0.018308393   -4.3335688    1.2052971   439061 
 3076000   0.80369054   -4.3338511   -4.3338511   -3.1283181  0.019159262   -4.3338511    1.2055331   439061 
 3077000   0.80292041   -4.3323368   -4.3323368   -3.1279589  0.022151712   -4.3323368    1.2043779   439061 
 3078000   0.80268858   -4.3307448   -4.3307448   -3.1267147  0.019160398   -4.3307448    1.2040301   439061 
 3079000   0.80223171   -4.3319541   -4.3319541   -3.1286093  0.016310328   -4.3319541    1.2033448   439061 
 3080000   0.80271269   -4.3308645   -4.3308645   -3.1267982  0.010494568   -4.3308645    1.2040663   439061 
 3081000   0.80201968   -4.3294304   -4.3294304   -3.1264036  0.010444452   -4.3294304    1.2030268   439061 
 3082000   0.80415831   -4.3314437   -4.3314437   -3.1252089 0.0095944713   -4.3314437    1.2062347   439061 
 3083000    0.8026548   -4.3304684   -4.3304684   -3.1264889  0.014215218   -4.3304684    1.2039795   439061 
 3084000   0.80326967   -4.3308828   -4.3308828    -3.125981 0.0074779964   -4.3308828    1.2049018   439061 
 3085000   0.80225511   -4.3290417   -4.3290417   -3.1256618  0.015203784   -4.3290417    1.2033799   439061 
 3086000   0.80264236   -4.3299372   -4.3299372   -3.1259764 0.0095892564   -4.3299372    1.2039608   439061 
 3087000    0.8038935   -4.3319352   -4.3319352   -3.1260977 0.0088654439   -4.3319352    1.2058375   439061 
 3088000   0.80214314   -4.3296726   -4.3296726   -3.1264607  0.014808874   -4.3296726     1.203212   439061 
 3089000   0.80350718   -4.3314744   -4.3314744   -3.1262163  0.014827128   -4.3314744     1.205258   439061 
 3090000   0.80381232   -4.3310305   -4.3310305   -3.1253148  0.019744503   -4.3310305    1.2057157   439061 
 3091000    0.8055452   -4.3322585   -4.3322585   -3.1239434  0.019578393   -4.3322585     1.208315   439061 
 3092000   0.80491643   -4.3322566   -4.3322566   -3.1248847  0.019327812   -4.3322566    1.2073719   439061 
 3093000   0.80334093    -4.331782    -4.331782   -3.1267734  0.020729354    -4.331782    1.2050087   439061 
 3094000   0.80354197    -4.332148    -4.332148   -3.1268378  0.019365683    -4.332148    1.2053102   439061 
 3095000   0.80263913   -4.3308681   -4.3308681   -3.1269122  0.017233629   -4.3308681    1.2039559   439061 
 3096000   0.80224113   -4.3299821   -4.3299821   -3.1266232  0.012207298   -4.3299821     1.203359   439061 
 3097000   0.80365213   -4.3324461   -4.3324461   -3.1269706  0.015192495   -4.3324461    1.2054755   439061 
 3098000   0.80371713    -4.333267    -4.333267   -3.1276941 0.0098561949    -4.333267     1.205573   439061 
 3099000   0.80261359   -4.3310203   -4.3310203   -3.1271027  0.015749568   -4.3310203    1.2039176   439061 
 3100000   0.80293942   -4.3312784   -4.3312784   -3.1268721  0.014284988   -4.3312784    1.2044064   439061 
 3101000   0.80307961    -4.331209    -4.331209   -3.1265924  0.012498988    -4.331209    1.2046167   439061 
 3102000   0.80292376   -4.3308045   -4.3308045   -3.1264216  0.015604665   -4.3308045    1.2043829   439061 
 3103000   0.80403828   -4.3317116   -4.3317116    -3.125657  0.016649604   -4.3317116    1.2060547   439061 
 3104000   0.80338878   -4.3301333   -4.3301333   -3.1250528  0.014715068   -4.3301333    1.2050804   439061 
 3105000   0.80403341   -4.3300913   -4.3300913   -3.1240439  0.019704319   -4.3300913    1.2060474   439061 
 3106000    0.8041573   -4.3306294   -4.3306294   -3.1243962  0.012681167   -4.3306294    1.2062332   439061 
 3107000    0.8045131   -4.3309324   -4.3309324   -3.1241655  0.016442568   -4.3309324    1.2067669   439061 
 3108000   0.80297123   -4.3284591   -4.3284591    -3.124005  0.017471191   -4.3284591    1.2044541   439061 
 3109000   0.80219493   -4.3285267   -4.3285267   -3.1252371  0.016553073   -4.3285267    1.2032897   439061 
 3110000   0.80234122   -4.3285926   -4.3285926   -3.1250835  0.013625554   -4.3285926    1.2035091   439061 
 3111000   0.80302869   -4.3293167   -4.3293167   -3.1247764  0.011572111   -4.3293167    1.2045403   439061 
 3112000   0.80310478   -4.3302357   -4.3302357   -3.1255813   0.01664856   -4.3302357    1.2046544   439061 
 3113000   0.80264727   -4.3295901   -4.3295901   -3.1256219  0.017865924   -4.3295901    1.2039682   439061 
 3114000   0.80277134   -4.3285037   -4.3285037   -3.1243494  0.018156433   -4.3285037    1.2041543   439061 
 3115000   0.80288293   -4.3286189   -4.3286189   -3.1242972  0.021553976   -4.3286189    1.2043217   439061 
 3116000   0.80448423   -4.3312927   -4.3312927   -3.1245692  0.016754438   -4.3312927    1.2067236   439061 
 3117000   0.80415169    -4.330829    -4.330829   -3.1246042   0.01926087    -4.330829    1.2062248   439061 
 3118000   0.80229568   -4.3294702   -4.3294702   -3.1260294  0.014166119   -4.3294702    1.2034408   439061 
 3119000    0.8031114   -4.3314794   -4.3314794    -3.126815  0.015537928   -4.3314794    1.2046644   439061 
 3120000   0.80342393   -4.3322948   -4.3322948   -3.1271616  0.013743329   -4.3322948    1.2051331   439061 
 3121000   0.80211043   -4.3306514   -4.3306514   -3.1274885  0.013862966   -4.3306514    1.2031629   439061 
 3122000   0.80384305   -4.3319121   -4.3319121   -3.1261503  0.013611467   -4.3319121    1.2057618   439061 
 3123000   0.80197891    -4.330661    -4.330661   -3.1276953  0.018811342    -4.330661    1.2029656   439061 
 3124000   0.80261603    -4.332194    -4.332194   -3.1282727  0.014474885    -4.332194    1.2039213   439061 
 3125000   0.80328219   -4.3326576   -4.3326576   -3.1277371  0.012658235   -4.3326576    1.2049205   439061 
 3126000   0.80327552   -4.3334727   -4.3334727   -3.1285621  0.012817434   -4.3334727    1.2049105   439061 
 3127000   0.80407648   -4.3339986   -4.3339986   -3.1278867  0.014708868   -4.3339986     1.206112   439061 
 3128000   0.80339701   -4.3335154   -4.3335154   -3.1284227  0.020049774   -4.3335154    1.2050928   439061 
 3129000   0.80368791   -4.3342989   -4.3342989   -3.1287698  0.015031082   -4.3342989    1.2055291   439061 
 3130000   0.80325514   -4.3336215   -4.3336215   -3.1287416  0.014392739   -4.3336215      1.20488   439061 
 3131000   0.80250338   -4.3349775   -4.3349775   -3.1312252  0.015029122   -4.3349775    1.2037523   439061 
 3132000   0.80179147   -4.3346474   -4.3346474   -3.1319629  0.012941909   -4.3346474    1.2026845   439061 
 3133000   0.80206805   -4.3343292   -4.3343292   -3.1312298  0.017368307   -4.3343292    1.2030993   439061 
 3134000   0.80287762   -4.3343429   -4.3343429   -3.1300293  0.016024947   -4.3343429    1.2043137   439061 
 3135000   0.80280005   -4.3341369   -4.3341369   -3.1299396  0.021575642   -4.3341369    1.2041973   439061 
 3136000   0.80308147   -4.3340911   -4.3340911   -3.1294717  0.019306841   -4.3340911    1.2046195   439061 
 3137000   0.80336805   -4.3354603   -4.3354603    -3.130411  0.014959052   -4.3354603    1.2050493   439061 
 3138000   0.80312706   -4.3352229   -4.3352229   -3.1305351  0.019360356   -4.3352229    1.2046879   439061 
 3139000   0.80337887   -4.3355665   -4.3355665   -3.1305009  0.018709753   -4.3355665    1.2050656   439061 
 3140000   0.80249558   -4.3351846   -4.3351846    -3.131444  0.017447465   -4.3351846    1.2037406   439061 
 3141000   0.80219647   -4.3340255   -4.3340255   -3.1307335  0.013749564   -4.3340255     1.203292   439061 
 3142000   0.80216015   -4.3345291   -4.3345291   -3.1312916  0.011633644   -4.3345291    1.2032375   439061 
 3143000   0.80203027   -4.3343712   -4.3343712   -3.1313286  0.018449959   -4.3343712    1.2030427   439061 
 3144000   0.80315596   -4.3349557   -4.3349557   -3.1302245  0.019093863   -4.3349557    1.2047312   439061 
 3145000   0.80309232   -4.3343078   -4.3343078   -3.1296721  0.021642911   -4.3343078    1.2046357   439061 
 3146000   0.80223576   -4.3329103   -4.3329103   -3.1295594  0.017886533   -4.3329103    1.2033509   439061 
 3147000   0.80168863   -4.3325503   -4.3325503   -3.1300201  0.019152618   -4.3325503    1.2025302   439061 
 3148000   0.80262749   -4.3334935   -4.3334935    -3.129555  0.016747017   -4.3334935    1.2039385   439061 
 3149000   0.80259869   -4.3338688   -4.3338688   -3.1299736  0.014728074   -4.3338688    1.2038953   439061 
 3150000   0.80149974   -4.3318193   -4.3318193   -3.1295725  0.021455919   -4.3318193    1.2022469   439061 
 3151000   0.80292288   -4.3328319   -4.3328319   -3.1284503  0.023130013   -4.3328319    1.2043816   439061 
 3152000   0.80272849   -4.3331061   -4.3331061   -3.1290161   0.02162049   -4.3331061      1.20409   439061 
 3153000   0.80227824    -4.332251    -4.332251   -3.1288364  0.018260045    -4.332251    1.2034146   439061 
 3154000   0.80210306   -4.3325857   -4.3325857   -3.1294339  0.019324805   -4.3325857    1.2031519   439061 
 3155000   0.80207811   -4.3336299   -4.3336299   -3.1305155  0.012390121   -4.3336299    1.2031144   439061 
 3156000   0.80171801   -4.3334284   -4.3334284   -3.1308541  0.015258729   -4.3334284    1.2025743   439061 
 3157000   0.80206272   -4.3328339   -4.3328339   -3.1297426  0.016216494   -4.3328339    1.2030913   439061 
 3158000   0.80250608   -4.3323401   -4.3323401   -3.1285837  0.017840397   -4.3323401    1.2037564   439061 
 3159000   0.80122809   -4.3318973   -4.3318973   -3.1300579  0.018069525   -4.3318973    1.2018394   439061 
 3160000   0.80260796   -4.3336723   -4.3336723   -3.1297631  0.016015481   -4.3336723    1.2039092   439061 
 3161000   0.80329496   -4.3344367   -4.3344367    -3.129497  0.015446877   -4.3344367    1.2049397   439061 
 3162000   0.80246434   -4.3324549   -4.3324549   -3.1287612  0.016398215   -4.3324549    1.2036938   439061 
 3163000   0.80249555   -4.3318899   -4.3318899   -3.1281493  0.017881936   -4.3318899    1.2037406   439061 
 3164000   0.80339738   -4.3336235   -4.3336235   -3.1285301  0.013531534   -4.3336235    1.2050933   439061 
 3165000   0.80253459   -4.3327503   -4.3327503   -3.1289512  0.016506414   -4.3327503    1.2037991   439061 
 3166000   0.80129803   -4.3314118   -4.3314118   -3.1294675  0.018639832   -4.3314118    1.2019443   439061 
 3167000   0.80319059   -4.3346902   -4.3346902   -3.1299071  0.016562494   -4.3346902    1.2047831   439061 
 3168000   0.80200859   -4.3318665   -4.3318665   -3.1288564  0.020264271   -4.3318665    1.2030101   439061 
 3169000   0.80171898   -4.3314971   -4.3314971   -3.1289214  0.015820016   -4.3314971    1.2025757   439061 
 3170000   0.80153121    -4.331417    -4.331417    -3.129123  0.016858432    -4.331417    1.2022941   439061 
 3171000   0.80377196   -4.3345811   -4.3345811   -3.1289259  0.010577155   -4.3345811    1.2056552   439061 
 3172000   0.80183923   -4.3325242   -4.3325242   -3.1297681   0.01491127   -4.3325242    1.2027561   439061 
 3173000   0.80193413   -4.3336402   -4.3336402   -3.1307418  0.012524852   -4.3336402    1.2028985   439061 
 3174000   0.80276245   -4.3336571   -4.3336571   -3.1295161  0.015242729   -4.3336571    1.2041409   439061 
 3175000   0.80177231   -4.3330261   -4.3330261   -3.1303703  0.011515527   -4.3330261    1.2026557   439061 
 3176000    0.8009293   -4.3325604   -4.3325604   -3.1311692  0.014908262   -4.3325604    1.2013912   439061 
 3177000   0.80197844   -4.3335864   -4.3335864   -3.1306215  0.015371587   -4.3335864    1.2029649   439061 
 3178000   0.80333356   -4.3355003   -4.3355003   -3.1305027  0.016488215   -4.3355003    1.2049976   439061 
 3179000   0.80298502   -4.3342885   -4.3342885   -3.1298137  0.015358827   -4.3342885    1.2044748   439061 
 3180000    0.8029036    -4.335198    -4.335198   -3.1308453   0.01854191    -4.335198    1.2043527   439061 
 3181000   0.80224292   -4.3349336   -4.3349336    -3.131572  0.019688058   -4.3349336    1.2033616   439061 
 3182000   0.80293048   -4.3350073   -4.3350073   -3.1306143  0.020096026   -4.3350073     1.204393   439061 
 3183000   0.80339811   -4.3371249   -4.3371249   -3.1320304  0.017087495   -4.3371249    1.2050944   439061 
 3184000   0.80231996   -4.3356348   -4.3356348   -3.1321576  0.018626189   -4.3356348    1.2034772   439061 
 3185000   0.80455573   -4.3377842   -4.3377842   -3.1309533  0.015845871   -4.3377842    1.2068309   439061 
 3186000   0.80345677   -4.3361278   -4.3361278   -3.1309454  0.019823925   -4.3361278    1.2051824   439061 
 3187000   0.80319762   -4.3357229   -4.3357229   -3.1309292  0.018458644   -4.3357229    1.2047937   439061 
 3188000   0.80257491   -4.3343966   -4.3343966    -3.130537  0.015763054   -4.3343966    1.2038596   439061 
 3189000    0.8034467   -4.3357332   -4.3357332   -3.1305659  0.017565678   -4.3357332    1.2051673   439061 
 3190000    0.8025608   -4.3337346   -4.3337346   -3.1298961  0.015062136   -4.3337346    1.2038385   439061 
 3191000   0.80321102   -4.3334373   -4.3334373   -3.1286235  0.020185626   -4.3334373    1.2048138   439061 
 3192000   0.80330462   -4.3334698   -4.3334698   -3.1285157  0.015273316   -4.3334698    1.2049542   439061 
 3193000   0.80171065   -4.3310311   -4.3310311   -3.1284679  0.017052019   -4.3310311    1.2025632   439061 
 3194000   0.80252364   -4.3304537   -4.3304537    -3.126671  0.019083703   -4.3304537    1.2037827   439061 
 3195000   0.80343171   -4.3328419   -4.3328419    -3.127697  0.018890675   -4.3328419    1.2051448   439061 
 3196000   0.80207266   -4.3324938   -4.3324938   -3.1293875    0.0114395   -4.3324938    1.2031062   439061 
 3197000   0.80180541   -4.3309306   -4.3309306   -3.1282252  0.014341373   -4.3309306    1.2027054   439061 
 3198000   0.80134514   -4.3305141   -4.3305141   -3.1284991  0.010496727   -4.3305141     1.202015   439061 
 3199000   0.80068599   -4.3315292   -4.3315292    -3.130503  0.012613775   -4.3315292    1.2010262   439061 
 3200000   0.80179538   -4.3328864   -4.3328864   -3.1301961  0.013317834   -4.3328864    1.2026903   439061 
 3201000   0.80107669   -4.3313079   -4.3313079   -3.1296956  0.020030729   -4.3313079    1.2016123   439061 
 3202000   0.80308376   -4.3347395   -4.3347395   -3.1301166  0.011185067   -4.3347395    1.2046229   439061 
 3203000   0.80165247   -4.3336844   -4.3336844   -3.1312085  0.014913695   -4.3336844     1.202476   439061 
 3204000   0.80415369   -4.3357358   -4.3357358   -3.1295081  0.014435425   -4.3357358    1.2062278   439061 
 3205000    0.8055169   -4.3375826   -4.3375826     -3.12931  0.019068558   -4.3375826    1.2082726   439061 
 3206000   0.80506012   -4.3374478   -4.3374478   -3.1298603  0.026112885   -4.3374478    1.2075874   439061 
 3207000   0.80383652     -4.33793     -4.33793    -3.132178  0.022334565     -4.33793     1.205752   439061 
 3208000   0.80184542   -4.3342312   -4.3342312   -3.1314658  0.022998477   -4.3342312    1.2027654   439061 
 3209000   0.80255481   -4.3355998   -4.3355998   -3.1317704  0.019735788   -4.3355998    1.2038295   439061 
 3210000   0.80337152   -4.3381386   -4.3381386    -3.133084  0.010477158   -4.3381386    1.2050545   439061 
 3211000   0.80205109   -4.3359141   -4.3359141   -3.1328402  0.012818483   -4.3359141    1.2030739   439061 
 3212000   0.80252239   -4.3355615   -4.3355615   -3.1317807  0.012274233   -4.3355615    1.2037808   439061 
 3213000   0.80116675   -4.3342346   -4.3342346   -3.1324872  0.017877611   -4.3342346    1.2017474   439061 
 3214000   0.80154669    -4.333231    -4.333231   -3.1309138  0.017199577    -4.333231    1.2023173   439061 
 3215000   0.80270248   -4.3339581   -4.3339581   -3.1299072  0.013371996   -4.3339581     1.204051   439061 
 3216000   0.80229823   -4.3340968   -4.3340968   -3.1306522 0.0099383521   -4.3340968    1.2034446   439061 
 3217000   0.80251839   -4.3330961   -4.3330961   -3.1293212  0.014578317   -4.3330961    1.2037749   439061 
 3218000     0.803175   -4.3345293   -4.3345293   -3.1297695 0.0080328905   -4.3345293    1.2047598   439061 
 3219000   0.80294475   -4.3345382   -4.3345382   -3.1301238  0.011491328   -4.3345382    1.2044144   439061 
 3220000   0.80313082   -4.3338991   -4.3338991   -3.1292056  0.014305016   -4.3338991    1.2046935   439061 
 3221000   0.80225488   -4.3332343   -4.3332343   -3.1298547  0.015959084   -4.3332343    1.2033796   439061 
 3222000   0.80329467   -4.3331854   -4.3331854   -3.1282461  0.016107747   -4.3331854    1.2049393   439061 
 3223000   0.80387178   -4.3345974   -4.3345974   -3.1287925  0.018569944   -4.3345974    1.2058049   439061 
 3224000   0.80301237   -4.3318524   -4.3318524   -3.1273366  0.021055923   -4.3318524    1.2045158   439061 
 3225000   0.80444265   -4.3352163   -4.3352163   -3.1285551  0.016688878   -4.3352163    1.2066612   439061 
 3226000   0.80248977   -4.3334239   -4.3334239    -3.129692  0.017512385   -4.3334239    1.2037319   439061 
 3227000   0.80176035   -4.3322738   -4.3322738    -3.129636  0.018513823   -4.3322738    1.2026378   439061 
 3228000   0.80313158   -4.3343403   -4.3343403   -3.1296456  0.017817019   -4.3343403    1.2046946   439061 
 3229000   0.80141047   -4.3324966   -4.3324966   -3.1303837  0.014259298   -4.3324966     1.202113   439061 
 3230000   0.80211016   -4.3331956   -4.3331956   -3.1300331  0.012495585   -4.3331956    1.2031625   439061 
 3231000   0.80267553   -4.3331602   -4.3331602   -3.1291497  0.015581927   -4.3331602    1.2040106   439061 
 3232000   0.80268514   -4.3328529   -4.3328529   -3.1288279   0.01454709   -4.3328529     1.204025   439061 
 3233000   0.80281573   -4.3324186   -4.3324186   -3.1281977  0.016859188   -4.3324186    1.2042208   439061 
 3234000   0.80320044   -4.3324772   -4.3324772   -3.1276793  0.019624919   -4.3324772    1.2047979   439061 
 3235000     0.804092   -4.3331464   -4.3331464   -3.1270111  0.015008602   -4.3331464    1.2061353   439061 
 3236000   0.80444405   -4.3335723   -4.3335723   -3.1269089  0.014962756   -4.3335723    1.2066633   439061 
 3237000   0.80274581   -4.3312574   -4.3312574   -3.1271414  0.020780853   -4.3312574     1.204116   439061 
 3238000   0.80350225   -4.3332069   -4.3332069   -3.1279563  0.012629496   -4.3332069    1.2052506   439061 
 3239000   0.80271247    -4.331938    -4.331938    -3.127872  0.013162339    -4.331938     1.204066   439061 
 3240000   0.80178763   -4.3311072   -4.3311072   -3.1284284  0.012598849   -4.3311072    1.2026787   439061 
 3241000   0.80293372    -4.332527    -4.332527   -3.1281292   0.01580821    -4.332527    1.2043978   439061 
 3242000   0.80240013   -4.3307407   -4.3307407   -3.1271432  0.017026986   -4.3307407    1.2035975   439061 
 3243000   0.80269282   -4.3319027   -4.3319027   -3.1278662  0.016288722   -4.3319027    1.2040365   439061 
 3244000    0.8022329    -4.332506    -4.332506   -3.1291594  0.017547992    -4.332506    1.2033466   439061 
 3245000   0.80310463   -4.3324117   -4.3324117   -3.1277575  0.014993649   -4.3324117    1.2046542   439061 
 3246000   0.80406849   -4.3345179   -4.3345179   -3.1284179  0.011870489   -4.3345179       1.2061   439061 
 3247000   0.80395135   -4.3337813   -4.3337813   -3.1278571  0.018197646   -4.3337813    1.2059243   439061 
 3248000     0.804674   -4.3343602   -4.3343602    -3.127352  0.016330923   -4.3343602    1.2070083   439061 
 3249000   0.80463448   -4.3348631   -4.3348631   -3.1279141  0.018808209   -4.3348631     1.206949   439061 
 3250000   0.80332439   -4.3339456   -4.3339456   -3.1289618  0.014454084   -4.3339456    1.2049838   439061 
 3251000   0.80369561   -4.3341686   -4.3341686    -3.128628  0.015411136   -4.3341686    1.2055407   439061 
 3252000   0.80333122   -4.3339208   -4.3339208   -3.1289267  0.014394293   -4.3339208    1.2049941   439061 
 3253000   0.80071445   -4.3317732   -4.3317732   -3.1307043  0.014509908   -4.3317732    1.2010689   439061 
 3254000   0.80230073   -4.3337081   -4.3337081   -3.1302597  0.011825796   -4.3337081    1.2034484   439061 
 3255000   0.80279414   -4.3335944   -4.3335944    -3.129406   0.01789428   -4.3335944    1.2041885   439061 
 3256000   0.80185891   -4.3325047   -4.3325047   -3.1297191  0.014757737   -4.3325047    1.2027856   439061 
 3257000   0.80282814   -4.3335852   -4.3335852   -3.1293458   0.01410084   -4.3335852    1.2042395   439061 
 3258000   0.80386652    -4.334519    -4.334519    -3.128722  0.014429187    -4.334519     1.205797   439061 
 3259000   0.80394799    -4.334038    -4.334038   -3.1281188   0.01680887    -4.334038    1.2059192   439061 
 3260000   0.80418232   -4.3350773   -4.3350773   -3.1288066  0.020666619   -4.3350773    1.2062707   439061 
 3261000   0.80429924   -4.3352095   -4.3352095   -3.1287634  0.020393892   -4.3352095    1.2064461   439061 
 3262000   0.80407389   -4.3349938   -4.3349938   -3.1288857   0.01263762   -4.3349938    1.2061081   439061 
 3263000   0.80458139   -4.3350166   -4.3350166   -3.1281473   0.01572306   -4.3350166    1.2068693   439061 
 3264000   0.80302839   -4.3334827   -4.3334827   -3.1289429  0.018465253   -4.3334827    1.2045398   439061 
 3265000   0.80133914     -4.33223     -4.33223    -3.130224  0.017113373     -4.33223     1.202006   439061 
 3266000   0.80219581   -4.3330856   -4.3330856   -3.1297946  0.017827877   -4.3330856     1.203291   439061 
 3267000   0.80276061   -4.3334004   -4.3334004   -3.1292623   0.01827568   -4.3334004    1.2041382   439061 
 3268000   0.80266725   -4.3337572   -4.3337572   -3.1297591  0.014900702   -4.3337572    1.2039981   439061 
 3269000   0.80117517     -4.33214     -4.33214     -3.13038  0.014053167     -4.33214      1.20176   439061 
 3270000   0.80195399   -4.3322451   -4.3322451   -3.1293168  0.012167832   -4.3322451    1.2029282   439061 
 3271000   0.80395071   -4.3342481   -4.3342481   -3.1283248  0.012842713   -4.3342481    1.2059233   439061 
 3272000   0.80249355   -4.3329278   -4.3329278   -3.1291902  0.017561837   -4.3329278    1.2037376   439061 
 3273000   0.80295925   -4.3337865   -4.3337865   -3.1293504  0.011881362   -4.3337865    1.2044361   439061 
 3274000   0.80261618   -4.3339574   -4.3339574   -3.1300359  0.012314807   -4.3339574    1.2039215   439061 
 3275000    0.8027019   -4.3338214   -4.3338214   -3.1297713  0.014839944   -4.3338214    1.2040501   439061 
 3276000   0.80162975   -4.3327614   -4.3327614   -3.1303195  0.019818785   -4.3327614    1.2024419   439061 
 3277000   0.80368367   -4.3357912   -4.3357912   -3.1302684  0.013937255   -4.3357912    1.2055228   439061 
 3278000   0.80372528   -4.3346799   -4.3346799   -3.1290948  0.017949252   -4.3346799    1.2055852   439061 
 3279000   0.80390222   -4.3351257   -4.3351257   -3.1292751  0.020463793   -4.3351257    1.2058506   439061 
 3280000   0.80372092    -4.335778    -4.335778   -3.1301993  0.014598485    -4.335778    1.2055786   439061 
 3281000   0.80360375   -4.3356395   -4.3356395   -3.1302366  0.021059958   -4.3356395    1.2054029   439061 
 3282000   0.80422321   -4.3365877   -4.3365877   -3.1302557  0.013836867   -4.3365877    1.2063321   439061 
 3283000   0.80250462    -4.334913    -4.334913   -3.1311588  0.018411552    -4.334913    1.2037542   439061 
 3284000    0.8031514   -4.3352036   -4.3352036   -3.1304792  0.015658442   -4.3352036    1.2047244   439061 
 3285000    0.8036767   -4.3351899   -4.3351899   -3.1296776  0.017849401   -4.3351899    1.2055123   439061 
 3286000   0.80324815   -4.3344401   -4.3344401   -3.1295706  0.016087315   -4.3344401    1.2048695   439061 
 3287000   0.80262222   -4.3329594   -4.3329594   -3.1290288  0.016134082   -4.3329594    1.2039306   439061 
 3288000   0.80255871   -4.3331001   -4.3331001   -3.1292648 0.0087400457   -4.3331001    1.2038353   439061 
 3289000   0.80170636   -4.3322281   -4.3322281   -3.1296713  0.014450048   -4.3322281    1.2025568   439061 
 3290000   0.80188535   -4.3321709   -4.3321709   -3.1293456  0.013945075   -4.3321709    1.2028253   439061 
 3291000    0.8020735   -4.3331374   -4.3331374   -3.1300299  0.014450954   -4.3331374    1.2031075   439061 
 3292000   0.80216683   -4.3327643   -4.3327643   -3.1295168    0.0137596   -4.3327643    1.2032475   439061 
 3293000   0.80154737   -4.3312852   -4.3312852   -3.1289668    0.0170735   -4.3312852    1.2023183   439061 
 3294000   0.80288603   -4.3325103   -4.3325103    -3.128184  0.015925139   -4.3325103    1.2043263   439061 
 3295000   0.80393833   -4.3337348   -4.3337348   -3.1278301  0.015687969   -4.3337348    1.2059047   439061 
 3296000   0.80431191   -4.3349128   -4.3349128   -3.1284477  0.012502658   -4.3349128    1.2064651   439061 
 3297000   0.80437569   -4.3344103   -4.3344103   -3.1278495  0.015640983   -4.3344103    1.2065608   439061 
 3298000   0.80313634   -4.3337058   -4.3337058    -3.129004  0.020249296   -4.3337058    1.2047018   439061 
 3299000   0.80233499   -4.3338749   -4.3338749   -3.1303752   0.01337928   -4.3338749    1.2034997   439061 
 3300000    0.8025074   -4.3336976   -4.3336976   -3.1299393  0.013201627   -4.3336976    1.2037584   439061 
 3301000   0.80213693   -4.3338947   -4.3338947    -3.130692  0.016908356   -4.3338947    1.2032027   439061 
 3302000    0.8029304   -4.3345465   -4.3345465   -3.1301537  0.018040725   -4.3345465    1.2043929   439061 
 3303000   0.80425089   -4.3363612   -4.3363612   -3.1299876  0.017400483   -4.3363612    1.2063736   439061 
 3304000    0.8040785   -4.3362641   -4.3362641   -3.1301491  0.019593472   -4.3362641     1.206115   439061 
 3305000   0.80372073   -4.3357308   -4.3357308   -3.1301525  0.015226223   -4.3357308    1.2055783   439061 
 3306000   0.80255153   -4.3344851   -4.3344851   -3.1306606  0.017343992   -4.3344851    1.2038246   439061 
 3307000   0.80271351    -4.333621    -4.333621   -3.1295535  0.015823203    -4.333621    1.2040675   439061 
 3308000   0.80294263   -4.3335437   -4.3335437   -3.1291325  0.016151693   -4.3335437    1.2044112   439061 
 3309000   0.80301621   -4.3348571   -4.3348571   -3.1303355  0.012023934   -4.3348571    1.2045216   439061 
 3310000    0.8037315   -4.3352834   -4.3352834   -3.1296889  0.014411506   -4.3352834    1.2055945   439061 
 3311000   0.80154877   -4.3328836   -4.3328836   -3.1305632  0.014408323   -4.3328836    1.2023204   439061 
 3312000   0.80157201   -4.3320932   -4.3320932    -3.129738  0.018335649   -4.3320932    1.2023553   439061 
 3313000   0.80273536   -4.3340254   -4.3340254   -3.1299251 0.0096024105   -4.3340254    1.2041003   439061 
 3314000   0.80219786   -4.3326217   -4.3326217   -3.1293276  0.017850755   -4.3326217     1.203294   439061 
 3315000   0.80288744   -4.3343593   -4.3343593   -3.1300309  0.015435844   -4.3343593    1.2043284   439061 
 3316000   0.80335216   -4.3358657   -4.3358657   -3.1308402   0.01553909   -4.3358657    1.2050255   439061 
 3317000   0.80417275   -4.3364256   -4.3364256   -3.1301692  0.012266142   -4.3364256    1.2062564   439061 
 3318000   0.80204673   -4.3355682   -4.3355682   -3.1325009   0.02149612   -4.3355682    1.2030673   439061 
 3319000   0.80191827    -4.336148    -4.336148   -3.1332734  0.015599142    -4.336148    1.2028747   439061 
 3320000   0.80230785   -4.3376148   -4.3376148   -3.1341557  0.012841732   -4.3376148     1.203459   439061 
 3321000   0.80228528   -4.3382421   -4.3382421   -3.1348169   0.01525811   -4.3382421    1.2034252   439061 
 3322000   0.80145787   -4.3369773   -4.3369773   -3.1347932  0.013510769   -4.3369773    1.2021841   439061 
 3323000   0.80275871   -4.3368576   -4.3368576   -3.1327223  0.015610629   -4.3368576    1.2041353   439061 
 3324000   0.80236209   -4.3384247   -4.3384247   -3.1348843  0.021397856   -4.3384247    1.2035404   439061 
 3325000   0.80363232   -4.3389446   -4.3389446   -3.1334989  0.013663866   -4.3389446    1.2054457   439061 
 3326000    0.8037506   -4.3378088   -4.3378088   -3.1321857  0.021945665   -4.3378088    1.2056232   439061 
 3327000   0.80275621   -4.3365864   -4.3365864   -3.1324549  0.021055344   -4.3365864    1.2041316   439061 
 3328000    0.8021282   -4.3379952   -4.3379952   -3.1348056  0.018337484   -4.3379952    1.2031896   439061 
 3329000   0.80141085   -4.3375478   -4.3375478   -3.1354342  0.016039965   -4.3375478    1.2021135   439061 
 3330000   0.80212689   -4.3376323   -4.3376323   -3.1344447  0.011698695   -4.3376323    1.2031876   439061 
 3331000   0.80289658   -4.3382895   -4.3382895   -3.1339474  0.008049656   -4.3382895    1.2043421   439061 
 3332000   0.80200596   -4.3360655   -4.3360655   -3.1330593  0.014871631   -4.3360655    1.2030062   439061 
 3333000   0.80139711   -4.3348993   -4.3348993   -3.1328064   0.01820214   -4.3348993    1.2020929   439061 
 3334000   0.80227279   -4.3366127   -4.3366127   -3.1332063  0.016513958   -4.3366127    1.2034064   439061 
 3335000   0.80202753   -4.3342039   -4.3342039   -3.1311653  0.015710158   -4.3342039    1.2030386   439061 
 3336000   0.80173045   -4.3355624   -4.3355624   -3.1329694  0.013103853   -4.3355624    1.2025929   439061 
 3337000   0.80197926   -4.3369812   -4.3369812   -3.1340151  0.011867702   -4.3369812    1.2029662   439061 
 3338000   0.80185075   -4.3362293   -4.3362293   -3.1334559  0.014544365   -4.3362293    1.2027734   439061 
 3339000   0.80121937   -4.3345344   -4.3345344   -3.1327081  0.020094317   -4.3345344    1.2018263   439061 
 3340000    0.8023254   -4.3360044   -4.3360044    -3.132519  0.017308872   -4.3360044    1.2034854   439061 
 3341000   0.80329575   -4.3371375   -4.3371375   -3.1321966  0.021335049   -4.3371375    1.2049409   439061 
 3342000   0.80166962   -4.3348211   -4.3348211   -3.1323194  0.024917771   -4.3348211    1.2025017   439061 
 3343000   0.80285065   -4.3371889   -4.3371889   -3.1329157  0.014699585   -4.3371889    1.2042732   439061 
 3344000   0.80216947   -4.3377617   -4.3377617   -3.1345103  0.016466317   -4.3377617    1.2032515   439061 
 3345000    0.8013232   -4.3372444   -4.3372444   -3.1352623  0.015640834   -4.3372444    1.2019821   439061 
 3346000   0.80174204    -4.337356    -4.337356   -3.1347456 0.0099999394    -4.337356    1.2026103   439061 
 3347000   0.80149214   -4.3360639   -4.3360639   -3.1338285  0.016960231   -4.3360639    1.2022355   439061 
 3348000   0.80180625   -4.3352308   -4.3352308   -3.1325241  0.015394741   -4.3352308    1.2027066   439061 
 3349000   0.80181537   -4.3365433   -4.3365433    -3.133823   0.01445633   -4.3365433    1.2027203   439061 
 3350000   0.80284805   -4.3371575   -4.3371575   -3.1328882  0.016919266   -4.3371575    1.2042693   439061 
 3351000   0.80335998   -4.3383724   -4.3383724   -3.1333352  0.011947342   -4.3383724    1.2050372   439061 
 3352000   0.80191651   -4.3373435   -4.3373435   -3.1344714  0.013789231   -4.3373435     1.202872   439061 
 3353000   0.80196131   -4.3371301   -4.3371301   -3.1341909   0.01042572   -4.3371301    1.2029392   439061 
 3354000   0.80069717   -4.3364038   -4.3364038   -3.1353608  0.012696877   -4.3364038     1.201043   439061 
 3355000   0.80170503   -4.3355243   -4.3355243   -3.1329695  0.019791527   -4.3355243    1.2025548   439061 
 3356000   0.80266212    -4.338129    -4.338129   -3.1341386  0.012777382    -4.338129    1.2039904   439061 
 3357000   0.80371626   -4.3398895   -4.3398895   -3.1343178  0.014879539   -4.3398895    1.2055716   439061 
 3358000   0.80367954   -4.3380707   -4.3380707   -3.1325542  0.018146728   -4.3380707    1.2055166   439061 
 3359000   0.80373157   -4.3371867   -4.3371867   -3.1315921  0.020182099   -4.3371867    1.2055946   439061 
 3360000    0.8037877   -4.3393104   -4.3393104   -3.1336316  0.020716686   -4.3393104    1.2056788   439061 
 3361000   0.80350894   -4.3396794   -4.3396794   -3.1344187  0.011959652   -4.3396794    1.2052607   439061 
 3362000   0.80151002   -4.3376211   -4.3376211   -3.1353588  0.018722799   -4.3376211    1.2022623   439061 
 3363000   0.80264097   -4.3387582   -4.3387582   -3.1347995  0.013328166   -4.3387582    1.2039587   439061 
 3364000    0.8019901   -4.3383131   -4.3383131   -3.1353307  0.013300974   -4.3383131    1.2029824   439061 
 3365000   0.80253669   -4.3381361   -4.3381361   -3.1343338  0.012764872   -4.3381361    1.2038023   439061 
 3366000   0.80226729    -4.336509    -4.336509   -3.1331108  0.017355049    -4.336509    1.2033982   439061 
 3367000   0.80316764   -4.3371964   -4.3371964   -3.1324477  0.019493273   -4.3371964    1.2047487   439061 
 3368000   0.80377153   -4.3376004   -4.3376004   -3.1319459  0.016407271   -4.3376004    1.2056546   439061 
 3369000   0.80165107   -4.3351424   -4.3351424   -3.1326686  0.015736067   -4.3351424    1.2024739   439061 
 3370000   0.80297194   -4.3365868   -4.3365868   -3.1321317   0.01748541   -4.3365868    1.2044552   439061 
 3371000    0.8017112   -4.3340116   -4.3340116   -3.1314475  0.014939141   -4.3340116    1.2025641   439061 
 3372000   0.80144825   -4.3335425   -4.3335425   -3.1313729  0.016102071   -4.3335425    1.2021696   439061 
 3373000   0.80237959   -4.3346824   -4.3346824   -3.1311158  0.018739003   -4.3346824    1.2035666   439061 
 3374000   0.80247577   -4.3342607   -4.3342607   -3.1305498   0.01632578   -4.3342607    1.2037109   439061 
 3375000   0.80253715   -4.3334215   -4.3334215   -3.1296186   0.01800954   -4.3334215     1.203803   439061 
 3376000   0.80354449   -4.3343121   -4.3343121   -3.1289981  0.014063419   -4.3343121     1.205314   439061 
 3377000   0.80175454   -4.3328772   -4.3328772   -3.1302482  0.016511689   -4.3328772    1.2026291   439061 
 3378000   0.80387739   -4.3353083   -4.3353083   -3.1294949   0.01621253   -4.3353083    1.2058133   439061 
 3379000   0.80218984   -4.3330486   -4.3330486   -3.1297666  0.014517312   -4.3330486     1.203282   439061 
 3380000   0.80170614    -4.332561    -4.332561   -3.1300045   0.01197774    -4.332561    1.2025565   439061 
 3381000   0.80281161   -4.3343153   -4.3343153   -3.1301006  0.014515529   -4.3343153    1.2042147   439061 
 3382000   0.80256423   -4.3332755   -4.3332755   -3.1294319  0.015795802   -4.3332755    1.2038436   439061 
 3383000      0.80191   -4.3325962   -4.3325962    -3.129734  0.019295595   -4.3325962    1.2028623   439061 
 3384000   0.80345504    -4.336064    -4.336064   -3.1308842  0.012764989    -4.336064    1.2051798   439061 
 3385000   0.80126373   -4.3331018   -4.3331018   -3.1312089  0.021442847   -4.3331018    1.2018929   439061 
 3386000   0.80384137   -4.3357707   -4.3357707   -3.1300114  0.017068018   -4.3357707    1.2057593   439061 
 3387000   0.80275028   -4.3349964   -4.3349964   -3.1308737  0.017518078   -4.3349964    1.2041227   439061 
 3388000   0.80284375   -4.3353855   -4.3353855   -3.1311227  0.016494841   -4.3353855    1.2042629   439061 
 3389000   0.80316029   -4.3371641   -4.3371641   -3.1324265  0.015070969   -4.3371641    1.2047377   439061 
 3390000     0.800989   -4.3348092   -4.3348092   -3.1333285  0.015591602   -4.3348092    1.2014808   439061 
 3391000   0.80267606   -4.3372602   -4.3372602   -3.1332489   0.01250099   -4.3372602    1.2040114   439061 
 3392000   0.80186833   -4.3357041   -4.3357041   -3.1329043  0.012502498   -4.3357041    1.2027998   439061 
 3393000   0.80267368   -4.3366802   -4.3366802   -3.1326724  0.018157528   -4.3366802    1.2040078   439061 
 3394000    0.8026564   -4.3371782   -4.3371782   -3.1331963  0.021947991   -4.3371782    1.2039819   439061 
 3395000   0.80309732   -4.3373415   -4.3373415   -3.1326983  0.018494794   -4.3373415    1.2046432   439061 
 3396000   0.80260476    -4.337256    -4.337256   -3.1333516  0.020583494    -4.337256    1.2039044   439061 
 3397000   0.80357623   -4.3376586   -4.3376586    -3.132297  0.015722128   -4.3376586    1.2053616   439061 
 3398000   0.80274746   -4.3382075   -4.3382075   -3.1340891  0.016084232   -4.3382075    1.2041184   439061 
 3399000   0.80346601   -4.3376758   -4.3376758   -3.1324796  0.014586791   -4.3376758    1.2051963   439061 
 3400000   0.80147975   -4.3363457   -4.3363457   -3.1341289  0.016652192   -4.3363457    1.2022169   439061 
 3401000   0.80065206   -4.3357532   -4.3357532   -3.1347779  0.015259108   -4.3357532    1.2009754   439061 
 3402000   0.80182461   -4.3367982   -4.3367982    -3.134064  0.014033372   -4.3367982    1.2027342   439061 
 3403000   0.79989815   -4.3337197   -4.3337197   -3.1338753   0.01827383   -4.3337197    1.1998445   439061 
 3404000   0.80100785   -4.3348199   -4.3348199   -3.1333108  0.011982677   -4.3348199     1.201509   439061 
 3405000   0.80188694   -4.3359232   -4.3359232   -3.1330955  0.015576496   -4.3359232    1.2028277   439061 
 3406000    0.8012116   -4.3357587   -4.3357587   -3.1339441  0.013874993   -4.3357587    1.2018147   439061 
 3407000   0.80134612   -4.3359922   -4.3359922   -3.1339758  0.017931618   -4.3359922    1.2020164   439061 
 3408000   0.80194237   -4.3370653   -4.3370653   -3.1341545  0.014970696   -4.3370653    1.2029108   439061 
 3409000   0.80278718   -4.3366491   -4.3366491   -3.1324711  0.017201538   -4.3366491     1.204178   439061 
 3410000   0.80165203   -4.3358594   -4.3358594   -3.1333841  0.016527809   -4.3358594    1.2024753   439061 
 3411000   0.80276718   -4.3368352   -4.3368352   -3.1326872  0.021109091   -4.3368352     1.204148   439061 
 3412000    0.8031091   -4.3370483   -4.3370483   -3.1323874  0.018459311   -4.3370483    1.2046609   439061 
 3413000   0.80383637   -4.3391929   -4.3391929    -3.133441  0.013425412   -4.3391929    1.2057518   439061 
 3414000   0.80321439   -4.3380169   -4.3380169   -3.1331981  0.015022464   -4.3380169    1.2048188   439061 
 3415000   0.80220155   -4.3368457   -4.3368457   -3.1335461  0.010848801   -4.3368457    1.2032996   439061 
 3416000   0.80033046   -4.3353547   -4.3353547   -3.1348618  0.014051846   -4.3353547     1.200493   439061 
 3417000   0.80121783    -4.335597    -4.335597    -3.133773  0.018565825    -4.335597     1.201824   439061 
 3418000   0.80196969   -4.3356108   -4.3356108    -3.132659  0.016858916   -4.3356108    1.2029518   439061 
 3419000   0.80143741   -4.3352178   -4.3352178   -3.1330644  0.015336848   -4.3352178    1.2021534   439061 
 3420000   0.80276952   -4.3378014   -4.3378014   -3.1336499  0.012266396   -4.3378014    1.2041515   439061 
 3421000   0.80218966   -4.3365133   -4.3365133   -3.1332315  0.018139526   -4.3365133    1.2032818   439061 
 3422000   0.80157794   -4.3359469   -4.3359469   -3.1335827  0.010968192   -4.3359469    1.2023642   439061 
 3423000   0.80161709   -4.3372008   -4.3372008   -3.1347779  0.016376112   -4.3372008    1.2024229   439061 
 3424000   0.80148853   -4.3360804   -4.3360804   -3.1338503  0.020309102   -4.3360804    1.2022301   439061 
 3425000   0.80194235   -4.3380396   -4.3380396   -3.1351288  0.018897435   -4.3380396    1.2029108   439061 
 3426000   0.80249776   -4.3376095   -4.3376095   -3.1338656  0.017479418   -4.3376095    1.2037439   439061 
 3427000   0.80331912   -4.3400533   -4.3400533   -3.1350773  0.014897827   -4.3400533    1.2049759   439061 
 3428000   0.80313568   -4.3396438   -4.3396438    -3.134943  0.016073879   -4.3396438    1.2047008   439061 
 3429000   0.80257452   -4.3402053   -4.3402053   -3.1363462  0.013398996   -4.3402053     1.203859   439061 
 3430000   0.80259831    -4.339264    -4.339264   -3.1353693  0.011810521    -4.339264    1.2038947   439061 
 3431000   0.80226526   -4.3390635   -4.3390635   -3.1356684  0.020006165   -4.3390635    1.2033951   439061 
 3432000   0.80345321    -4.339951    -4.339951   -3.1347739  0.013261186    -4.339951    1.2051771   439061 
 3433000   0.80362638   -4.3393385   -4.3393385   -3.1339017  0.017637069   -4.3393385    1.2054368   439061 
 3434000   0.80441014   -4.3399911   -4.3399911   -3.1333787  0.015369706   -4.3399911    1.2066125   439061 
 3435000   0.80183553   -4.3366337   -4.3366337   -3.1338832  0.017218947   -4.3366337    1.2027506   439061 
 3436000   0.80124378   -4.3356435   -4.3356435   -3.1337805  0.018170262   -4.3356435    1.2018629   439061 
 3437000   0.80193318   -4.3363529   -4.3363529   -3.1334558  0.011769455   -4.3363529     1.202897   439061 
 3438000   0.80048256   -4.3360047   -4.3360047   -3.1352836  0.011937437   -4.3360047    1.2007211   439061 
 3439000   0.80075321   -4.3359635   -4.3359635   -3.1348365  0.015551325   -4.3359635    1.2011271   439061 
 3440000   0.80201289    -4.336984    -4.336984   -3.1339674  0.014212049    -4.336984    1.2030166   439061 
 3441000   0.80043052   -4.3354435   -4.3354435   -3.1348005  0.013448512   -4.3354435     1.200643   439061 
 3442000   0.80034047   -4.3353281   -4.3353281   -3.1348201 0.0094904244   -4.3353281     1.200508   439061 
 3443000   0.79990664   -4.3338394   -4.3338394   -3.1339821  0.013360665   -4.3338394    1.1998572   439061 
 3444000   0.80153093   -4.3359085   -4.3359085   -3.1336148  0.020966065   -4.3359085    1.2022937   439061 
 3445000    0.8022684   -4.3374085   -4.3374085   -3.1340087  0.017584027   -4.3374085    1.2033999   439061 
 3446000   0.80246148   -4.3375742   -4.3375742   -3.1338847  0.021407153   -4.3375742    1.2036895   439061 
 3447000   0.80315865    -4.337742    -4.337742   -3.1330068  0.021596305    -4.337742    1.2047352   439061 
 3448000   0.80308876   -4.3386531   -4.3386531   -3.1340227  0.018559639   -4.3386531    1.2046304   439061 
 3449000   0.80293601   -4.3390351   -4.3390351   -3.1346338  0.015737555   -4.3390351    1.2044013   439061 
 3450000   0.80328983   -4.3402012   -4.3402012   -3.1352692  0.013065324   -4.3402012     1.204932   439061 
 3451000   0.80214683   -4.3390572   -4.3390572   -3.1358396  0.015973444   -4.3390572    1.2032175   439061 
 3452000    0.8013984   -4.3387403   -4.3387403   -3.1366455  0.012560466   -4.3387403    1.2020949   439061 
 3453000   0.80163466   -4.3388917   -4.3388917   -3.1364424  0.014982546   -4.3388917    1.2024493   439061 
 3454000   0.80083637   -4.3375552   -4.3375552   -3.1363034  0.016037722   -4.3375552    1.2012518   439061 
 3455000   0.80186268   -4.3383032   -4.3383032    -3.135512  0.017416816   -4.3383032    1.2027913   439061 
 3456000    0.8020754   -4.3394014   -4.3394014    -3.136291  0.013291412   -4.3394014    1.2031104   439061 
 3457000   0.80054417   -4.3364478   -4.3364478   -3.1356343  0.019352179   -4.3364478    1.2008135   439061 
 3458000   0.80177091   -4.3376474   -4.3376474   -3.1349937  0.013935308   -4.3376474    1.2026536   439061 
 3459000   0.80302364   -4.3386041   -4.3386041   -3.1340713  0.015568207   -4.3386041    1.2045327   439061 
 3460000   0.80160422    -4.335943    -4.335943   -3.1335394  0.015721487    -4.335943    1.2024036   439061 
 3461000    0.8017691   -4.3362941   -4.3362941   -3.1336432  0.020583419   -4.3362941    1.2026509   439061 
 3462000   0.80129409   -4.3353029   -4.3353029   -3.1333645  0.021257392   -4.3353029    1.2019384   439061 
 3463000   0.80138347   -4.3363807   -4.3363807   -3.1343082  0.016281461   -4.3363807    1.2020725   439061 
 3464000   0.80113533   -4.3354352   -4.3354352   -3.1337349   0.01375065   -4.3354352    1.2017003   439061 
 3465000   0.79974031   -4.3354936   -4.3354936   -3.1358859  0.014594051   -4.3354936    1.1996077   439061 
 3466000   0.80145544   -4.3371709   -4.3371709   -3.1349904  0.008034868   -4.3371709    1.2021804   439061 
 3467000   0.80058843   -4.3362514   -4.3362514   -3.1353715  0.012917994   -4.3362514    1.2008799   439061 
 3468000   0.80175034    -4.337569    -4.337569   -3.1349463   0.01417024    -4.337569    1.2026228   439061 
 3469000   0.80211239   -4.3388243   -4.3388243   -3.1356584  0.015794342   -4.3388243    1.2031658   439061 
 3470000   0.80180207   -4.3373796   -4.3373796   -3.1346792  0.015421631   -4.3373796    1.2027004   439061 
 3471000   0.80154754   -4.3390453   -4.3390453   -3.1367268  0.015345112   -4.3390453    1.2023186   439061 
 3472000   0.80139915   -4.3391157   -4.3391157   -3.1370197  0.014467116   -4.3391157     1.202096   439061 
 3473000   0.80207755   -4.3393788   -4.3393788   -3.1362652  0.011994578   -4.3393788    1.2031136   439061 
 3474000   0.80333913   -4.3410236   -4.3410236   -3.1360176  0.013516527   -4.3410236    1.2050059   439061 
 3475000   0.80208764   -4.3390384   -4.3390384   -3.1359097  0.020694747   -4.3390384    1.2031287   439061 
 3476000   0.80201803    -4.340565    -4.340565   -3.1375407  0.016327842    -4.340565    1.2030243   439061 
 3477000   0.80364537   -4.3413203   -4.3413203    -3.135855  0.011408993   -4.3413203    1.2054653   439061 
 3478000   0.80217858   -4.3390979   -4.3390979   -3.1358328  0.023777007   -4.3390979    1.2032651   439061 
 3479000   0.80260772   -4.3406792   -4.3406792   -3.1367704  0.014401528   -4.3406792    1.2039088   439061 
 3480000   0.80205681   -4.3396686   -4.3396686   -3.1365861   0.02058235   -4.3396686    1.2030825   439061 
 3481000   0.80175494    -4.339649    -4.339649   -3.1370193  0.014188274    -4.339649    1.2026297   439061 
 3482000   0.80269836   -4.3397587   -4.3397587   -3.1357139  0.014139905   -4.3397587    1.2040448   439061 
 3483000   0.80172373   -4.3376705   -4.3376705   -3.1350876  0.015154427   -4.3376705    1.2025829   439061 
 3484000   0.80259398   -4.3389865   -4.3389865   -3.1350983  0.011341746   -4.3389865    1.2038882   439061 
 3485000   0.80174773   -4.3384257   -4.3384257   -3.1358069  0.017736284   -4.3384257    1.2026189   439061 
 3486000   0.80029721   -4.3372721   -4.3372721    -3.136829  0.013243116   -4.3372721    1.2004431   439061 
 3487000   0.80037735   -4.3371637   -4.3371637   -3.1366004  0.012391681   -4.3371637    1.2005633   439061 
 3488000   0.80036685   -4.3365383   -4.3365383   -3.1359908  0.011291075   -4.3365383    1.2005475   439061 
 3489000   0.80047095   -4.3376804   -4.3376804   -3.1369767 0.0036138804   -4.3376804    1.2007037   439061 
 3490000     0.799967   -4.3358502   -4.3358502   -3.1359024  0.011798224   -4.3358502    1.1999478   439061 
 3491000   0.80134297   -4.3376458   -4.3376458   -3.1356341  0.016444221   -4.3376458    1.2020117   439061 
 3492000   0.80231471    -4.338836    -4.338836   -3.1353667   0.02157751    -4.338836    1.2034693   439061 
 3493000   0.80370441   -4.3402612   -4.3402612   -3.1347074  0.020600244   -4.3402612    1.2055539   439061 
 3494000   0.80308067   -4.3392555   -4.3392555   -3.1346372   0.02157587   -4.3392555    1.2046183   439061 
 3495000   0.80242444   -4.3398278   -4.3398278   -3.1361939  0.015736856   -4.3398278    1.2036339   439061 
 3496000   0.80249062   -4.3396692   -4.3396692    -3.135936  0.017822252   -4.3396692    1.2037332   439061 
 3497000   0.80136666   -4.3393346   -4.3393346   -3.1372873  0.016276356   -4.3393346    1.2020473   439061 
 3498000   0.80082404   -4.3393459   -4.3393459   -3.1381126  0.018430598   -4.3393459    1.2012333   439061 
 3499000   0.80085809   -4.3387124   -4.3387124    -3.137428  0.016465052   -4.3387124    1.2012844   439061 
 3500000   0.80147764   -4.3397815   -4.3397815   -3.1375678  0.014303403   -4.3397815    1.2022137   439061 
 3501000   0.80084933    -4.339865    -4.339865   -3.1385937  0.014099244    -4.339865    1.2012713   439061 
 3502000   0.80126752   -4.3380818   -4.3380818   -3.1361833    0.0151307   -4.3380818    1.2018985   439061 
 3503000   0.80085167   -4.3377732   -4.3377732   -3.1364984   0.01408511   -4.3377732    1.2012748   439061 
 3504000   0.80092405   -4.3377539   -4.3377539   -3.1363706  0.015675776   -4.3377539    1.2013833   439061 
 3505000   0.80068091   -4.3392563   -4.3392563   -3.1382377  0.017199078   -4.3392563    1.2010186   439061 
 3506000   0.80113015   -4.3388554   -4.3388554   -3.1371629  0.015093908   -4.3388554    1.2016925   439061 
 3507000   0.80198813   -4.3403236   -4.3403236   -3.1373442   0.01529629   -4.3403236    1.2029795   439061 
 3508000   0.80102806   -4.3395188   -4.3395188   -3.1379795  0.011592959   -4.3395188    1.2015393   439061 
 3509000   0.80168884   -4.3416578   -4.3416578   -3.1391273  0.011452455   -4.3416578    1.2025305   439061 
 3510000   0.80146172   -4.3419426   -4.3419426   -3.1397527  0.015308789   -4.3419426    1.2021898   439061 
 3511000   0.80058872    -4.341041    -4.341041   -3.1401607  0.017994902    -4.341041    1.2008803   439061 
 3512000   0.80145072   -4.3423732   -4.3423732   -3.1401999  0.015496519   -4.3423732    1.2021733   439061 
 3513000   0.80066346   -4.3405416   -4.3405416   -3.1395491  0.017180127   -4.3405416    1.2009925   439061 
 3514000   0.80087066    -4.340544    -4.340544   -3.1392408  0.016249705    -4.340544    1.2013032   439061 
 3515000    0.8006861   -4.3404555   -4.3404555   -3.1394291  0.016806254   -4.3404555    1.2010264   439061 
 3516000   0.80072881   -4.3405881   -4.3405881   -3.1394977  0.017033969   -4.3405881    1.2010905   439061 
 3517000   0.80123568   -4.3413654   -4.3413654   -3.1395146  0.022046914   -4.3413654    1.2018508   439061 
 3518000   0.80116391   -4.3416943   -4.3416943   -3.1399511  0.016149037   -4.3416943    1.2017431   439061 
 3519000   0.80178674   -4.3417057   -4.3417057   -3.1390283   0.01713625   -4.3417057    1.2026774   439061 
 3520000   0.80201121   -4.3417891   -4.3417891    -3.138775  0.017507465   -4.3417891    1.2030141   439061 
 3521000   0.79979807   -4.3399079   -4.3399079   -3.1402135  0.020948745   -4.3399079    1.1996944   439061 
 3522000   0.80045968    -4.340592    -4.340592   -3.1399052  0.016701965    -4.340592    1.2006868   439061 
 3523000     0.801515   -4.3410336   -4.3410336   -3.1387639  0.013020106   -4.3410336    1.2022698   439061 
 3524000   0.80098407   -4.3404643   -4.3404643   -3.1389909  0.016074587   -4.3404643    1.2014734   439061 
 3525000   0.80069764   -4.3407425   -4.3407425   -3.1396988  0.015471824   -4.3407425    1.2010437   439061 
 3526000   0.79949413   -4.3382694   -4.3382694    -3.139031  0.017642378   -4.3382694    1.1992385   439061 
 3527000   0.80080605   -4.3405487   -4.3405487   -3.1393423 0.0095961531   -4.3405487    1.2012063   439061 
 3528000   0.80174703   -4.3414493   -4.3414493   -3.1388315  0.014897691   -4.3414493    1.2026178   439061 
 3529000    0.7990754   -4.3382664   -4.3382664    -3.139656  0.022308381   -4.3382664    1.1986104   439061 
 3530000   0.80316374   -4.3437783   -4.3437783   -3.1390354   0.01129666   -4.3437783    1.2047429   439061 
 3531000   0.80202529   -4.3417026   -4.3417026   -3.1386674  0.015878209   -4.3417026    1.2030352   439061 
 3532000   0.80122156   -4.3400355   -4.3400355   -3.1382059  0.020921702   -4.3400355    1.2018296   439061 
 3533000   0.80128353   -4.3396042   -4.3396042   -3.1376816  0.020552278   -4.3396042    1.2019226   439061 
 3534000   0.80123682   -4.3399498   -4.3399498   -3.1380973  0.016381028   -4.3399498    1.2018525   439061 
 3535000   0.80145516   -4.3398163   -4.3398163   -3.1376363  0.016040585   -4.3398163      1.20218   439061 
 3536000   0.80083734   -4.3407109   -4.3407109   -3.1394577  0.014917711   -4.3407109    1.2012533   439061 
 3537000   0.80131577   -4.3425819   -4.3425819    -3.140611  0.014342046   -4.3425819    1.2019709   439061 
 3538000   0.80025527   -4.3407888   -4.3407888   -3.1404086  0.013553821   -4.3407888    1.2003802   439061 
 3539000   0.80084017    -4.342058    -4.342058   -3.1408005  0.014984739    -4.342058    1.2012575   439061 
 3540000   0.80082241   -4.3411684   -4.3411684   -3.1399376  0.016081105   -4.3411684    1.2012309   439061 
 3541000   0.80094311   -4.3405076   -4.3405076   -3.1390957  0.019417006   -4.3405076    1.2014119   439061 
 3542000   0.80154672   -4.3398575   -4.3398575   -3.1375402  0.022949301   -4.3398575    1.2023173   439061 
 3543000   0.80054085   -4.3394907   -4.3394907   -3.1386822  0.022734598   -4.3394907    1.2008085   439061 
 3544000    0.8007223     -4.33979     -4.33979   -3.1387092  0.022217046     -4.33979    1.2010807   439061 
 3545000   0.80096571   -4.3401161   -4.3401161   -3.1386703  0.020318282   -4.3401161    1.2014458   439061 
 3546000   0.80180069   -4.3406208   -4.3406208   -3.1379225  0.021752995   -4.3406208    1.2026983   439061 
 3547000   0.80274425   -4.3427155   -4.3427155   -3.1386019  0.014526778   -4.3427155    1.2041136   439061 
 3548000   0.80307854   -4.3431735   -4.3431735   -3.1385584  0.013816152   -4.3431735    1.2046151   439061 
 3549000   0.80016082   -4.3398249   -4.3398249   -3.1395864  0.014511418   -4.3398249    1.2002385   439061 
 3550000   0.79986959   -4.3397454   -4.3397454   -3.1399437  0.012747302   -4.3397454    1.1998017   439061 
 3551000    0.7998424   -4.3393044   -4.3393044   -3.1395436  0.017913061   -4.3393044    1.1997609   439061 
 3552000   0.80001333   -4.3389401   -4.3389401   -3.1389229  0.013092736   -4.3389401    1.2000173   439061 
 3553000   0.80246763   -4.3429723   -4.3429723   -3.1392736  0.012355663   -4.3429723    1.2036987   439061 
 3554000   0.80158114   -4.3426634   -4.3426634   -3.1402944  0.012266054   -4.3426634     1.202369   439061 
 3555000   0.80079393   -4.3414293   -4.3414293   -3.1402412  0.015420735   -4.3414293    1.2011882   439061 
 3556000   0.80064197   -4.3408797   -4.3408797   -3.1399194  0.013749194   -4.3408797    1.2009602   439061 
 3557000   0.80209248   -4.3430954   -4.3430954   -3.1399594  0.011019904   -4.3430954     1.203136   439061 
 3558000   0.80166739   -4.3408045   -4.3408045   -3.1383061  0.017353489   -4.3408045    1.2024984   439061 
 3559000   0.80217582   -4.3408432   -4.3408432   -3.1375822  0.023203402   -4.3408432     1.203261   439061 
 3560000   0.80161629   -4.3408381   -4.3408381   -3.1384164  0.021653857   -4.3408381    1.2024217   439061 
 3561000   0.80163915   -4.3413621   -4.3413621   -3.1389061  0.016008245   -4.3413621     1.202456   439061 
 3562000   0.80113661   -4.3402128   -4.3402128   -3.1385106   0.01454079   -4.3402128    1.2017022   439061 
 3563000   0.80132516   -4.3405245   -4.3405245   -3.1385395  0.015184775   -4.3405245     1.201985   439061 
 3564000   0.80185953   -4.3417919   -4.3417919   -3.1390053  0.015505078   -4.3417919    1.2027866   439061 
 3565000   0.80018278   -4.3403163   -4.3403163   -3.1400449  0.020618662   -4.3403163    1.2002714   439061 
 3566000   0.80193974   -4.3423849   -4.3423849   -3.1394781  0.014067404   -4.3423849    1.2029069   439061 
 3567000   0.80281573   -4.3430732   -4.3430732   -3.1388523  0.016016241   -4.3430732    1.2042208   439061 
 3568000   0.80198498   -4.3420749   -4.3420749   -3.1391001 0.0099769185   -4.3420749    1.2029747   439061 
 3569000   0.79913566   -4.3387243   -4.3387243   -3.1400236   0.01832413   -4.3387243    1.1987008   439061 
 3570000   0.80280331   -4.3435203   -4.3435203    -3.139318   0.01748886   -4.3435203    1.2042022   439061 
 3571000    0.8020041   -4.3426966   -4.3426966   -3.1396932  0.017600572   -4.3426966    1.2030034   439061 
 3572000   0.80256511   -4.3424606   -4.3424606   -3.1386157  0.019410287   -4.3424606    1.2038449   439061 
 3573000   0.80304983   -4.3437228   -4.3437228   -3.1391508  0.016714069   -4.3437228     1.204572   439061 
 3574000   0.80168234   -4.3409578   -4.3409578    -3.138437  0.019965707   -4.3409578    1.2025208   439061 
 3575000   0.80182989   -4.3415073   -4.3415073   -3.1387652  0.016838615   -4.3415073    1.2027421   439061 
 3576000   0.80085605   -4.3410359   -4.3410359   -3.1397546  0.020817246   -4.3410359    1.2012813   439061 
 3577000   0.80194505   -4.3423885   -4.3423885   -3.1394736  0.013615191   -4.3423885    1.2029148   439061 
 3578000   0.79991783   -4.3395402   -4.3395402   -3.1396662  0.020123969   -4.3395402     1.199874   439061 
 3579000   0.80089431    -4.341004    -4.341004   -3.1396653  0.012202692    -4.341004    1.2013387   439061 
 3580000   0.80153838   -4.3408446   -4.3408446   -3.1385398  0.014041844   -4.3408446    1.2023048   439061 
 3581000   0.80074299    -4.340536    -4.340536   -3.1394243  0.015318832    -4.340536    1.2011117   439061 
 3582000   0.80199654   -4.3410961   -4.3410961    -3.138104  0.016160059   -4.3410961    1.2029921   439061 
 3583000   0.80211301   -4.3430413   -4.3430413   -3.1398745  0.011033572   -4.3430413    1.2031668   439061 
 3584000   0.80189245    -4.341961    -4.341961    -3.139125  0.012320716    -4.341961    1.2028359   439061 
 3585000   0.80127669   -4.3412743   -4.3412743    -3.139362  0.010749209   -4.3412743    1.2019123   439061 
 3586000   0.80118867   -4.3414456   -4.3414456   -3.1396653  0.013721201   -4.3414456    1.2017803   439061 
 3587000   0.80063425   -4.3419399   -4.3419399   -3.1409913  0.016340417   -4.3419399    1.2009486   439061 
 3588000   0.80033689   -4.3409233   -4.3409233   -3.1404207  0.019636266   -4.3409233    1.2005026   439061 
 3589000   0.80194314   -4.3424608   -4.3424608   -3.1395488  0.013847237   -4.3424608     1.202912   439061 
 3590000   0.80099949   -4.3426256   -4.3426256   -3.1411292     0.018121   -4.3426256    1.2014965   439061 
 3591000   0.80039089    -4.341411    -4.341411   -3.1408274  0.015895642    -4.341411    1.2005836   439061 
 3592000   0.80085968    -4.342633    -4.342633   -3.1413462  0.022564489    -4.342633    1.2012868   439061 
 3593000   0.80134345   -4.3440364   -4.3440364    -3.142024  0.016261475   -4.3440364    1.2020124   439061 
 3594000   0.80038498   -4.3427635   -4.3427635   -3.1421888  0.019047525   -4.3427635    1.2005747   439061 
 3595000   0.79917939   -4.3425615   -4.3425615   -3.1437951  0.017484285   -4.3425615    1.1987663   439061 
 3596000   0.79951084   -4.3425007   -4.3425007   -3.1432372  0.012283395   -4.3425007    1.1992635   439061 
 3597000   0.79922723    -4.342112    -4.342112   -3.1432739  0.019419163    -4.342112    1.1988381   439061 
 3598000   0.80277039   -4.3464954   -4.3464954   -3.1423426  0.011334353   -4.3464954    1.2041528   439061 
 3599000   0.80103565    -4.343332    -4.343332   -3.1417812  0.018316012    -4.343332    1.2015507   439061 
 3600000   0.80167408    -4.343993    -4.343993   -3.1414846  0.019415134    -4.343993    1.2025084   439061 
 3601000   0.80157145   -4.3438099   -4.3438099   -3.1414555  0.017889319   -4.3438099    1.2023544   439061 
 3602000   0.80137599   -4.3432527   -4.3432527   -3.1411914  0.018351575   -4.3432527    1.2020613   439061 
 3603000   0.80061891   -4.3430995   -4.3430995   -3.1421739  0.021412861   -4.3430995    1.2009256   439061 
 3604000   0.80034211   -4.3426576   -4.3426576   -3.1421472   0.01372349   -4.3426576    1.2005104   439061 
 3605000   0.80054553   -4.3428078   -4.3428078   -3.1419923  0.013752106   -4.3428078    1.2008156   439061 
 3606000   0.79984485   -4.3421123   -4.3421123   -3.1423478  0.016058224   -4.3421123    1.1997645   439061 
 3607000   0.79971288   -4.3417554   -4.3417554   -3.1421888  0.013431997   -4.3417554    1.1995666   439061 
 3608000   0.80069168     -4.34238     -4.34238   -3.1413452  0.012751473     -4.34238    1.2010348   439061 
 3609000   0.80070919   -4.3407998   -4.3407998   -3.1397387  0.017573684   -4.3407998     1.201061   439061 
 3610000   0.80165164   -4.3412181   -4.3412181   -3.1387433  0.016628749   -4.3412181    1.2024747   439061 
 3611000   0.80059192   -4.3406367   -4.3406367   -3.1397516  0.015298877   -4.3406367    1.2008851   439061 
 3612000   0.80043315   -4.3403265   -4.3403265   -3.1396795  0.012565871   -4.3403265     1.200647   439061 
 3613000   0.80070418   -4.3409428   -4.3409428   -3.1398893  0.011330177   -4.3409428    1.2010535   439061 
 3614000   0.80046593   -4.3418432   -4.3418432   -3.1411471  0.010528799   -4.3418432    1.2006962   439061 
 3615000   0.79871038   -4.3399329   -4.3399329   -3.1418701  0.013410845   -4.3399329    1.1980628   439061 
 3616000   0.80121724   -4.3428119   -4.3428119   -3.1409887  0.019816338   -4.3428119    1.2018231   439061 
 3617000    0.8012726   -4.3423617   -4.3423617   -3.1404555  0.015586691   -4.3423617    1.2019062   439061 
 3618000   0.80213166   -4.3431381   -4.3431381   -3.1399434  0.019824848   -4.3431381    1.2031947   439061 
 3619000   0.80186834     -4.34231     -4.34231   -3.1395102  0.017558966     -4.34231    1.2027998   439061 
 3620000   0.80218272   -4.3428794   -4.3428794    -3.139608  0.020296942   -4.3428794    1.2032713   439061 
 3621000   0.80213861   -4.3435826   -4.3435826   -3.1403774  0.018186553   -4.3435826    1.2032052   439061 
 3622000   0.80080286   -4.3422095   -4.3422095   -3.1410079  0.016094372   -4.3422095    1.2012016   439061 
 3623000   0.80127662   -4.3424435   -4.3424435   -3.1405313  0.013634636   -4.3424435    1.2019122   439061 
 3624000   0.80119585   -4.3420071   -4.3420071   -3.1402161  0.014998301   -4.3420071     1.201791   439061 
 3625000   0.80100372   -4.3422652   -4.3422652   -3.1407624  0.008841305   -4.3422652    1.2015028   439061 
 3626000   0.80092157   -4.3415515   -4.3415515   -3.1401718  0.015941046   -4.3415515    1.2013796   439061 
 3627000   0.80003894   -4.3403646   -4.3403646   -3.1403089  0.020439903   -4.3403646    1.2000557   439061 
 3628000   0.80118686    -4.341555    -4.341555   -3.1397774 0.0090980753    -4.341555    1.2017776   439061 
 3629000   0.80138471   -4.3414283   -4.3414283    -3.139354   0.01197068   -4.3414283    1.2020743   439061 
 3630000   0.80097148   -4.3408754   -4.3408754   -3.1394209  0.014684163   -4.3408754    1.2014545   439061 
 3631000   0.80027943   -4.3409438   -4.3409438   -3.1405274    0.0124807   -4.3409438    1.2004164   439061 
 3632000   0.79961474   -4.3406163   -4.3406163   -3.1411969  0.014391021   -4.3406163    1.1994194   439061 
 3633000    0.8001947   -4.3404507   -4.3404507   -3.1401614  0.016641126   -4.3404507    1.2002893   439061 
 3634000   0.80281883   -4.3438719   -4.3438719   -3.1396464  0.017679374   -4.3438719    1.2042255   439061 
 3635000   0.80153744   -4.3421992   -4.3421992   -3.1398958    0.0185728   -4.3421992    1.2023034   439061 
 3636000   0.80154053   -4.3424703   -4.3424703   -3.1401623  0.016385618   -4.3424703    1.2023081   439061 
 3637000   0.80261161   -4.3439823   -4.3439823   -3.1400676   0.01394464   -4.3439823    1.2039147   439061 
 3638000   0.80086505   -4.3411925   -4.3411925   -3.1398977  0.023389677   -4.3411925    1.2012948   439061 
 3639000   0.80247432   -4.3440773   -4.3440773   -3.1403685  0.020302573   -4.3440773    1.2037087   439061 
 3640000   0.80157076   -4.3429927   -4.3429927   -3.1406393   0.02012281   -4.3429927    1.2023534   439061 
 3641000   0.80137492   -4.3438774   -4.3438774   -3.1418178  0.017015382   -4.3438774    1.2020596   439061 
 3642000   0.80080606   -4.3424347   -4.3424347   -3.1412284  0.021133972   -4.3424347    1.2012063   439061 
 3643000   0.79835438   -4.3400019   -4.3400019    -3.142473  0.016122648   -4.3400019    1.1975288   439061 
 3644000    0.7996315   -4.3410173   -4.3410173   -3.1415727  0.012058114   -4.3410173    1.1994445   439061 
 3645000   0.80058379    -4.342194    -4.342194    -3.141321  0.014629496    -4.342194     1.200873   439061 
 3646000   0.80077457   -4.3423513   -4.3423513   -3.1411922  0.011371529   -4.3423513    1.2011591   439061 
 3647000     0.800604   -4.3413376   -4.3413376   -3.1404343  0.013912781   -4.3413376    1.2009033   439061 
 3648000   0.80139878   -4.3415157   -4.3415157   -3.1394203  0.017194592   -4.3415157    1.2020954   439061 
 3649000   0.80155993   -4.3427553   -4.3427553   -3.1404181  0.016460905   -4.3427553    1.2023372   439061 
 3650000   0.79906978   -4.3386435   -4.3386435   -3.1400416   0.02082877   -4.3386435    1.1986019   439061 
 3651000   0.80132257   -4.3413673   -4.3413673   -3.1393862  0.016238344   -4.3413673    1.2019811   439061 
 3652000   0.80177943   -4.3429447   -4.3429447   -3.1402783  0.010579875   -4.3429447    1.2026664   439061 
 3653000   0.80046934   -4.3412222   -4.3412222   -3.1405209  0.012417264   -4.3412222    1.2007013   439061 
 3654000   0.79979605   -4.3421592   -4.3421592   -3.1424679  0.014196682   -4.3421592    1.1996913   439061 
 3655000   0.79997669   -4.3419057   -4.3419057   -3.1419434   0.01494108   -4.3419057    1.1999623   439061 
 3656000   0.80064275   -4.3430703   -4.3430703   -3.1421089  0.013052911   -4.3430703    1.2009614   439061 
 3657000   0.80020542   -4.3424405   -4.3424405   -3.1421351  0.015190031   -4.3424405    1.2003054   439061 
 3658000   0.79894974   -4.3408626   -4.3408626   -3.1424408  0.018312078   -4.3408626    1.1984219   439061 
 3659000   0.79985974   -4.3424471   -4.3424471   -3.1426602  0.021671753   -4.3424471    1.1997869   439061 
 3660000   0.80102543   -4.3433594   -4.3433594    -3.141824  0.017840777   -4.3433594    1.2015354   439061 
 3661000   0.80056202   -4.3430654   -4.3430654   -3.1422251  0.017868658   -4.3430654    1.2008403   439061 
 3662000   0.80108703   -4.3451552   -4.3451552   -3.1435274  0.018534266   -4.3451552    1.2016278   439061 
 3663000   0.80058109   -4.3444584   -4.3444584   -3.1435895  0.016617135   -4.3444584    1.2008689   439061 
 3664000    0.8003672   -4.3450916   -4.3450916   -3.1445435  0.015731157   -4.3450916    1.2005481   439061 
 3665000   0.80099559   -4.3449478   -4.3449478   -3.1434572  0.015780965   -4.3449478    1.2014906   439061 
 3666000   0.79970697    -4.343295    -4.343295   -3.1437373  0.016616493    -4.343295    1.1995577   439061 
 3667000   0.79931034   -4.3428292   -4.3428292   -3.1438664  0.016702092   -4.3428292    1.1989628   439061 
 3668000   0.79999085   -4.3430366   -4.3430366   -3.1430531  0.015185475   -4.3430366    1.1999835   439061 
 3669000   0.80052005   -4.3432616   -4.3432616   -3.1424843  0.015997975   -4.3432616    1.2007773   439061 
 3670000   0.80045121   -4.3432733   -4.3432733   -3.1425992  0.015907544   -4.3432733    1.2006741   439061 
 3671000   0.80118152   -4.3426321   -4.3426321   -3.1408626  0.015760032   -4.3426321    1.2017695   439061 
 3672000   0.80042139   -4.3429461   -4.3429461   -3.1423168  0.018835373   -4.3429461    1.2006293   439061 
 3673000   0.79972228   -4.3420564   -4.3420564   -3.1424757  0.013964992   -4.3420564    1.1995807   439061 
 3674000   0.80104032   -4.3431953   -4.3431953   -3.1416376  0.015774499   -4.3431953    1.2015577   439061 
 3675000   0.80099398   -4.3425096   -4.3425096   -3.1410214 0.0077976535   -4.3425096    1.2014882   439061 
 3676000   0.80124384    -4.342797    -4.342797    -3.140934  0.012507598    -4.342797     1.201863   439061 
 3677000   0.80042206   -4.3415444   -4.3415444   -3.1409141  0.021416527   -4.3415444    1.2006304   439061 
 3678000   0.80088131   -4.3433869   -4.3433869   -3.1420677  0.012475311   -4.3433869    1.2013192   439061 
 3679000    0.8000693   -4.3405767   -4.3405767   -3.1404755  0.019716867   -4.3405767    1.2001012   439061 
 3680000   0.80145784   -4.3427119   -4.3427119   -3.1405279  0.014926285   -4.3427119     1.202184   439061 
 3681000   0.79980328   -4.3410017   -4.3410017   -3.1412995  0.015055087   -4.3410017    1.1997022   439061 
 3682000   0.80012659   -4.3412079   -4.3412079   -3.1410207  0.019269038   -4.3412079    1.2001871   439061 
 3683000   0.80036609   -4.3422713   -4.3422713   -3.1417249  0.015395124   -4.3422713    1.2005464   439061 
 3684000   0.80164357   -4.3446053   -4.3446053   -3.1421427  0.016183351   -4.3446053    1.2024626   439061 
 3685000   0.80213316   -4.3444985   -4.3444985   -3.1413015  0.015598819   -4.3444985     1.203197   439061 
 3686000   0.79932719   -4.3405759   -4.3405759   -3.1415879  0.017724026   -4.3405759    1.1989881   439061 
 3687000   0.80114064   -4.3440562   -4.3440562    -3.142348  0.016075691   -4.3440562    1.2017082   439061 
 3688000   0.80232097   -4.3462009   -4.3462009   -3.1427221  0.013295604   -4.3462009    1.2034787   439061 
 3689000   0.80095996   -4.3445157   -4.3445157   -3.1430785  0.019123784   -4.3445157    1.2014372   439061 
 3690000   0.80151751   -4.3440354   -4.3440354   -3.1417619  0.020250261   -4.3440354    1.2022735   439061 
 3691000    0.8004203   -4.3439344   -4.3439344   -3.1433067  0.019192866   -4.3439344    1.2006277   439061 
 3692000   0.80102894   -4.3424035   -4.3424035   -3.1408628   0.02160465   -4.3424035    1.2015407   439061 
 3693000   0.79997941   -4.3411368   -4.3411368   -3.1411704  0.019614442   -4.3411368    1.1999664   439061 
 3694000   0.80028049   -4.3409753   -4.3409753   -3.1405573  0.018278804   -4.3409753     1.200418   439061 
 3695000   0.80120661   -4.3425516   -4.3425516   -3.1407444  0.011971877   -4.3425516    1.2018072   439061 
 3696000   0.80054515   -4.3414051   -4.3414051   -3.1405901  0.016419833   -4.3414051     1.200815   439061 
 3697000   0.80121952   -4.3422139   -4.3422139   -3.1403874 0.0075247582   -4.3422139    1.2018265   439061 
 3698000   0.80024097   -4.3395964   -4.3395964   -3.1392377  0.013179941   -4.3395964    1.2003587   439061 
 3699000   0.80005835   -4.3404535   -4.3404535   -3.1403687  0.017141551   -4.3404535    1.2000848   439061 
 3700000   0.80097023   -4.3420735   -4.3420735   -3.1406209   0.01267621   -4.3420735    1.2014526   439061 
 3701000   0.79970615    -4.339185    -4.339185   -3.1396285  0.016998827    -4.339185    1.1995565   439061 
 3702000   0.80025523   -4.3411351   -4.3411351    -3.140755  0.012824907   -4.3411351    1.2003801   439061 
 3703000   0.80037809   -4.3416344   -4.3416344     -3.14107  0.012035433   -4.3416344    1.2005644   439061 
 3704000   0.80059393   -4.3414746   -4.3414746   -3.1405864  0.012752764   -4.3414746    1.2008882   439061 
 3705000   0.80135043   -4.3430269   -4.3430269    -3.141004  0.014170313   -4.3430269    1.2020229   439061 
 3706000   0.80161067   -4.3431232   -4.3431232   -3.1407099  0.015418379   -4.3431232    1.2024133   439061 
 3707000   0.80170618   -4.3440018   -4.3440018   -3.1414453  0.019965983   -4.3440018    1.2025565   439061 
 3708000   0.80120709   -4.3434222   -4.3434222   -3.1416143  0.011402082   -4.3434222    1.2018079   439061 
 3709000   0.80045252    -4.342175    -4.342175   -3.1414989  0.015675672    -4.342175     1.200676   439061 
 3710000   0.79989599   -4.3408959   -4.3408959   -3.1410547  0.015421379   -4.3408959    1.1998412   439061 
 3711000   0.80108633   -4.3428751   -4.3428751   -3.1412484  0.017843554   -4.3428751    1.2016268   439061 
 3712000   0.80205664   -4.3449064   -4.3449064   -3.1418242  0.014534571   -4.3449064    1.2030822   439061 
 3713000   0.80254817   -4.3440247   -4.3440247   -3.1402052  0.018621822   -4.3440247    1.2038195   439061 
 3714000   0.80221974   -4.3432328   -4.3432328    -3.139906  0.014983115   -4.3432328    1.2033269   439061 
 3715000   0.80181236   -4.3423882   -4.3423882   -3.1396724  0.016064825   -4.3423882    1.2027158   439061 
 3716000   0.80170956   -4.3421638   -4.3421638   -3.1396022  0.016741367   -4.3421638    1.2025616   439061 
 3717000    0.8026409   -4.3440305   -4.3440305   -3.1400719  0.014761257   -4.3440305    1.2039586   439061 
 3718000   0.80229389   -4.3434655   -4.3434655   -3.1400274  0.017948558   -4.3434655    1.2034381   439061 
 3719000   0.80107473   -4.3421658   -4.3421658   -3.1405564  0.016092746   -4.3421658    1.2016094   439061 
 3720000    0.8022927   -4.3419605   -4.3419605   -3.1385241  0.010205393   -4.3419605    1.2034363   439061 
 3721000   0.80122296   -4.3387325   -4.3387325   -3.1369008  0.015714149   -4.3387325    1.2018317   439061 
 3722000   0.80048187   -4.3385788   -4.3385788   -3.1378587   0.02105209   -4.3385788    1.2007201   439061 
 3723000   0.80133688   -4.3394595   -4.3394595    -3.137457  0.016781699   -4.3394595    1.2020026   439061 
 3724000   0.80008838   -4.3385912   -4.3385912   -3.1384613  0.016257703   -4.3385912    1.2001298   439061 
 3725000   0.80136261   -4.3397781   -4.3397781    -3.137737 0.0060901816   -4.3397781    1.2020412   439061 
 3726000   0.80083083   -4.3397834   -4.3397834   -3.1385399  0.011210623   -4.3397834    1.2012435   439061 
 3727000     0.800267   -4.3382846   -4.3382846   -3.1378869  0.011658825   -4.3382846    1.2003978   439061 
 3728000   0.80065187   -4.3392137   -4.3392137   -3.1382387  0.011033761   -4.3392137    1.2009751   439061 
 3729000   0.80095016   -4.3403991   -4.3403991   -3.1389766  0.013887899   -4.3403991    1.2014225   439061 
 3730000   0.80184333   -4.3415346   -4.3415346   -3.1387724  0.016889157   -4.3415346    1.2027623   439061 
 3731000   0.80096811   -4.3409881   -4.3409881   -3.1395387  0.012763646   -4.3409881    1.2014494   439061 
 3732000    0.8010309   -4.3402319   -4.3402319   -3.1386883  0.017228325   -4.3402319    1.2015436   439061 
 3733000   0.80163931   -4.3411349   -4.3411349   -3.1386787  0.017691851   -4.3411349    1.2024562   439061 
 3734000   0.80357151   -4.3440427   -4.3440427   -3.1386882  0.020312577   -4.3440427    1.2053545   439061 
 3735000   0.80396718   -4.3450658   -4.3450658   -3.1391178  0.020653461   -4.3450658     1.205948   439061 
 3736000   0.80336307   -4.3430623   -4.3430623   -3.1380205  0.020973184   -4.3430623    1.2050419   439061 
 3737000   0.80215728   -4.3416555   -4.3416555   -3.1384223  0.025094186   -4.3416555    1.2032332   439061 
 3738000   0.80133131   -4.3422515   -4.3422515   -3.1402573  0.019318215   -4.3422515    1.2019942   439061 
 3739000   0.80101587   -4.3407836   -4.3407836   -3.1392625  0.019528376   -4.3407836    1.2015211   439061 
 3740000    0.8012381   -4.3404911   -4.3404911   -3.1386367  0.014913322   -4.3404911    1.2018544   439061 
 3741000   0.80153282   -4.3396135   -4.3396135    -3.137317  0.018788521   -4.3396135    1.2022965   439061 
 3742000   0.80198091   -4.3397529   -4.3397529   -3.1367843  0.018125546   -4.3397529    1.2029686   439061 
 3743000   0.80159558   -4.3401811   -4.3401811   -3.1377904  0.019011963   -4.3401811    1.2023906   439061 
 3744000   0.79969946    -4.338227    -4.338227   -3.1386806  0.010980631    -4.338227    1.1995465   439061 
 3745000   0.79981457    -4.338002    -4.338002   -3.1382828 0.0069178825    -4.338002    1.1997191   439061 
 3746000   0.79908526   -4.3363324   -4.3363324   -3.1377072  0.012520334   -4.3363324    1.1986252   439061 
 3747000   0.79989224   -4.3380863   -4.3380863   -3.1382506 0.0033147709   -4.3380863    1.1998356   439061 
 3748000   0.80126215   -4.3410292   -4.3410292   -3.1391387 0.0087638502   -4.3410292    1.2018905   439061 
 3749000   0.80053329   -4.3397201   -4.3397201   -3.1389229  0.013092168   -4.3397201    1.2007972   439061 
 3750000   0.80091835   -4.3397157   -4.3397157   -3.1383409  0.016963337   -4.3397157    1.2013748   439061 
 3751000   0.80101643   -4.3398678   -4.3398678   -3.1383459  0.016168297   -4.3398678    1.2015219   439061 
 3752000   0.80219015    -4.342384    -4.342384   -3.1391015  0.017341974    -4.342384    1.2032825   439061 
 3753000   0.80182433   -4.3424648   -4.3424648    -3.139731  0.021447793   -4.3424648    1.2027338   439061 
 3754000   0.80263448   -4.3435501   -4.3435501   -3.1396011  0.019590502   -4.3435501     1.203949   439061 
 3755000   0.80407979   -4.3454429   -4.3454429    -3.139326  0.018358352   -4.3454429    1.2061169   439061 
 3756000   0.80241747   -4.3439829   -4.3439829   -3.1403594  0.019570518   -4.3439829    1.2036235   439061 
 3757000   0.80189354   -4.3430232   -4.3430232   -3.1401856  0.018941156   -4.3430232    1.2028376   439061 
 3758000   0.80137423   -4.3422365   -4.3422365   -3.1401779  0.017194863   -4.3422365    1.2020586   439061 
 3759000   0.80194594   -4.3434259   -4.3434259   -3.1405097  0.013268268   -4.3434259    1.2029162   439061 
 3760000    0.8024007   -4.3428708   -4.3428708   -3.1392725  0.014799657   -4.3428708    1.2035983   439061 
 3761000   0.80004062   -4.3404819   -4.3404819   -3.1404237  0.020543957   -4.3404819    1.2000582   439061 
 3762000   0.79985237   -4.3395171   -4.3395171   -3.1397413  0.016153423   -4.3395171    1.1997758   439061 
 3763000   0.79934567   -4.3394023   -4.3394023   -3.1403865  0.013471088   -4.3394023    1.1990158   439061 
 3764000   0.79978062   -4.3403256   -4.3403256   -3.1406574    0.0147376   -4.3403256    1.1996682   439061 
 3765000   0.80047329   -4.3409547   -4.3409547   -3.1402475  0.010258266   -4.3409547    1.2007072   439061 
 3766000   0.80229276   -4.3416173   -4.3416173   -3.1381809  0.018161634   -4.3416173    1.2034364   439061 
 3767000   0.80228992   -4.3405837   -4.3405837   -3.1371516  0.013108795   -4.3405837    1.2034321   439061 
 3768000   0.80251376   -4.3405257   -4.3405257   -3.1367578  0.013181153   -4.3405257    1.2037679   439061 
 3769000   0.80059068   -4.3390685   -4.3390685   -3.1381852  0.012478979   -4.3390685    1.2008833   439061 
 3770000   0.79841342    -4.336927    -4.336927   -3.1393096  0.018990268    -4.336927    1.1976174   439061 
 3771000   0.80041661   -4.3399308   -4.3399308   -3.1393086  0.014174834   -4.3399308    1.2006222   439061 
 3772000   0.80097106   -4.3406374   -4.3406374   -3.1391836  0.017728615   -4.3406374    1.2014539   439061 
 3773000   0.80177637   -4.3414828   -4.3414828    -3.138821  0.017767882   -4.3414828    1.2026618   439061 
 3774000   0.80114488   -4.3416873   -4.3416873   -3.1399727  0.016605969   -4.3416873    1.2017146   439061 
 3775000   0.80154082   -4.3417572   -4.3417572   -3.1394487  0.018566142   -4.3417572    1.2023085   439061 
 3776000   0.80137191    -4.340617    -4.340617   -3.1385618  0.016810395    -4.340617    1.2020551   439061 
 3777000   0.80236261   -4.3417769   -4.3417769   -3.1382357  0.018890636   -4.3417769    1.2035412   439061 
 3778000   0.80514165   -4.3453409   -4.3453409   -3.1376312  0.017491827   -4.3453409    1.2077097   439061 
 3779000   0.80281564   -4.3431881   -4.3431881   -3.1389674  0.019518981   -4.3431881    1.2042207   439061 
 3780000   0.80371839   -4.3434089   -4.3434089    -3.137834  0.018852538   -4.3434089    1.2055748   439061 
 3781000    0.8025995   -4.3413822   -4.3413822   -3.1374857  0.016316856   -4.3413822    1.2038965   439061 
 3782000   0.80130096    -4.339258    -4.339258   -3.1373093  0.020560909    -4.339258    1.2019487   439061 
 3783000   0.80117902   -4.3392963   -4.3392963   -3.1375305  0.017408465   -4.3392963    1.2017658   439061 
 3784000   0.80223486    -4.340505    -4.340505   -3.1371554  0.012896361    -4.340505    1.2033496   439061 
 3785000   0.80081445   -4.3384706   -4.3384706   -3.1372516  0.012793602   -4.3384706    1.2012189   439061 
 3786000   0.80104407   -4.3382919   -4.3382919   -3.1367285  0.014692795   -4.3382919    1.2015634   439061 
 3787000    0.8005045   -4.3364176   -4.3364176   -3.1356635  0.015760762   -4.3364176     1.200754   439061 
 3788000   0.80015715   -4.3367293   -4.3367293   -3.1364963 0.0080064648   -4.3367293     1.200233   439061 
 3789000   0.80043464    -4.338281    -4.338281   -3.1376318  0.010745451    -4.338281    1.2006492   439061 
 3790000   0.80139711   -4.3397419   -4.3397419    -3.137649  0.011805729   -4.3397419    1.2020929   439061 
 3791000   0.80248621   -4.3405511   -4.3405511   -3.1368245  0.010539435   -4.3405511    1.2037266   439061 
 3792000   0.80242865   -4.3399785   -4.3399785   -3.1363383  0.015058444   -4.3399785    1.2036402   439061 
 3793000   0.80223556   -4.3399747   -4.3399747   -3.1366241  0.019241818   -4.3399747    1.2033506   439061 
 3794000    0.8019954   -4.3396421   -4.3396421   -3.1366518  0.020694953   -4.3396421    1.2029904   439061 
 3795000   0.80190734   -4.3403326   -4.3403326   -3.1374744  0.019953087   -4.3403326    1.2028583   439061 
 3796000    0.8026662   -4.3416819   -4.3416819   -3.1376853  0.020172822   -4.3416819    1.2039966   439061 
 3797000   0.80287517   -4.3419859   -4.3419859   -3.1376759  0.018931176   -4.3419859      1.20431   439061 
 3798000    0.8036275   -4.3429167   -4.3429167   -3.1374782  0.015374176   -4.3429167    1.2054385   439061 
 3799000   0.80236269     -4.34183     -4.34183   -3.1382887  0.020071787     -4.34183    1.2035413   439061 
 3800000   0.80244658   -4.3415515   -4.3415515   -3.1378844  0.021765865   -4.3415515    1.2036671   439061 
 3801000   0.80220392   -4.3407864   -4.3407864   -3.1374832  0.015142985   -4.3407864    1.2033031   439061 
 3802000   0.80116847   -4.3399017   -4.3399017   -3.1381518  0.016175672   -4.3399017      1.20175   439061 
 3803000   0.80139405   -4.3404219   -4.3404219   -3.1383335  0.010394099   -4.3404219    1.2020883   439061 
 3804000   0.80079923   -4.3405376   -4.3405376   -3.1393415    0.0134841   -4.3405376    1.2011961   439061 
 3805000   0.80013298   -4.3398427   -4.3398427    -3.139646  0.010328182   -4.3398427    1.2001967   439061 
 3806000   0.80012497   -4.3402311   -4.3402311   -3.1400463 0.0082861929   -4.3402311    1.2001847   439061 
 3807000   0.80037097   -4.3407998   -4.3407998    -3.140246  0.012020479   -4.3407998    1.2005537   439061 
 3808000   0.80121662   -4.3411006   -4.3411006   -3.1392784  0.014299377   -4.3411006    1.2018222   439061 
 3809000    0.8005527   -4.3397299   -4.3397299   -3.1389036  0.016730568   -4.3397299    1.2008263   439061 
 3810000   0.80236325    -4.343225    -4.343225   -3.1396828  0.015735123    -4.343225    1.2035421   439061 
 3811000   0.80155742   -4.3424208   -4.3424208   -3.1400874  0.019727663   -4.3424208    1.2023334   439061 
 3812000    0.8022333   -4.3437594   -4.3437594   -3.1404121  0.013385654   -4.3437594    1.2033472   439061 
 3813000   0.80194566   -4.3425248   -4.3425248   -3.1396091  0.019334728   -4.3425248    1.2029157   439061 
 3814000   0.80180487   -4.3448011   -4.3448011   -3.1420966  0.017901787   -4.3448011    1.2027046   439061 
 3815000   0.80139939   -4.3436161   -4.3436161   -3.1415198  0.016033368   -4.3436161    1.2020963   439061 
 3816000   0.80146905   -4.3433729   -4.3433729    -3.141172  0.017269937   -4.3433729    1.2022008   439061 
 3817000    0.8019486    -4.343904    -4.343904   -3.1409838  0.017466799    -4.343904    1.2029202   439061 
 3818000    0.8023537   -4.3446656   -4.3446656   -3.1411378  0.015334084   -4.3446656    1.2035278   439061 
 3819000   0.80042732   -4.3420545   -4.3420545   -3.1414163  0.016654096   -4.3420545    1.2006382   439061 
 3820000    0.8013607   -4.3421716   -4.3421716   -3.1401333  0.010758628   -4.3421716    1.2020383   439061 
 3821000   0.80154634   -4.3419062   -4.3419062   -3.1395894  0.019955381   -4.3419062    1.2023168   439061 
 3822000   0.80209497   -4.3424986   -4.3424986   -3.1393589  0.016101984   -4.3424986    1.2031397   439061 
 3823000   0.80221313   -4.3419685   -4.3419685   -3.1386516  0.016091857   -4.3419685     1.203317   439061 
 3824000   0.80115807   -4.3407911   -4.3407911   -3.1390568  0.013830418   -4.3407911    1.2017344   439061 
 3825000   0.80036538   -4.3393012   -4.3393012   -3.1387559  0.016455197   -4.3393012    1.2005453   439061 
 3826000   0.79979663   -4.3391978   -4.3391978   -3.1395056  0.017434877   -4.3391978    1.1996922   439061 
 3827000   0.80066489    -4.340292    -4.340292   -3.1392974  0.014165189    -4.340292    1.2009946   439061 
 3828000   0.80024281   -4.3394909   -4.3394909   -3.1391294  0.014315727   -4.3394909    1.2003615   439061 
 3829000   0.80018077   -4.3395421   -4.3395421   -3.1392737   0.01198516   -4.3395421    1.2002684   439061 
 3830000   0.79999381   -4.3401597   -4.3401597   -3.1401717  0.013123992   -4.3401597     1.199988   439061 
 3831000    0.8002498   -4.3400043   -4.3400043   -3.1396323  0.012143403   -4.3400043     1.200372   439061 
 3832000   0.80133248   -4.3409591   -4.3409591   -3.1389632  0.010717262   -4.3409591     1.201996   439061 
 3833000   0.80225068   -4.3418856   -4.3418856   -3.1385123  0.017413922   -4.3418856    1.2033733   439061 
 3834000   0.80246468   -4.3430341   -4.3430341   -3.1393398  0.015883304   -4.3430341    1.2036943   439061 
 3835000   0.80126901   -4.3415289   -4.3415289   -3.1396281  0.017322092   -4.3415289    1.2019008   439061 
 3836000   0.80126396   -4.3413752   -4.3413752    -3.139482  0.018621528   -4.3413752    1.2018932   439061 
 3837000   0.80223625   -4.3439497   -4.3439497    -3.140598  0.013710313   -4.3439497    1.2033516   439061 
 3838000   0.80271976   -4.3438201   -4.3438201   -3.1397432  0.016019169   -4.3438201    1.2040769   439061 
 3839000   0.80152117   -4.3405164   -4.3405164   -3.1382374  0.020996072   -4.3405164     1.202279   439061 
 3840000   0.80236351   -4.3404924   -4.3404924   -3.1369499  0.022000039   -4.3404924    1.2035425   439061 
 3841000   0.80261678   -4.3419352   -4.3419352   -3.1380127   0.02054547   -4.3419352    1.2039224   439061 
 3842000   0.80190226   -4.3417733   -4.3417733   -3.1389227  0.013270099   -4.3417733    1.2028506   439061 
 3843000   0.80028169   -4.3389012   -4.3389012   -3.1384815   0.01218143   -4.3389012    1.2004198   439061 
 3844000   0.79964623   -4.3397667   -4.3397667   -3.1403001  0.010802715   -4.3397667    1.1994666   439061 
 3845000   0.79984803   -4.3380869   -4.3380869   -3.1383176 0.0048039383   -4.3380869    1.1997693   439061 
 3846000   0.80098326   -4.3407519   -4.3407519   -3.1392798 0.0096801792   -4.3407519    1.2014721   439061 
 3847000    0.8000163   -4.3380672   -4.3380672   -3.1380455  0.013481959   -4.3380672    1.2000217   439061 
 3848000   0.79982732   -4.3373333   -4.3373333   -3.1375951  0.016933553   -4.3373333    1.1997382   439061 
 3849000   0.80080693   -4.3386882   -4.3386882   -3.1374805  0.016497838   -4.3386882    1.2012077   439061 
 3850000   0.80123165   -4.3401891   -4.3401891   -3.1383443  0.014923087   -4.3401891    1.2018447   439061 
 3851000   0.80288527   -4.3418634   -4.3418634   -3.1375382  0.013319382   -4.3418634    1.2043252   439061 
 3852000   0.80208729   -4.3418896   -4.3418896   -3.1387614  0.016992721   -4.3418896    1.2031282   439061 
 3853000   0.80123381   -4.3413929   -4.3413929   -3.1395449  0.022595727   -4.3413929     1.201848   439061 
 3854000   0.80136085    -4.341508    -4.341508   -3.1394694  0.018908715    -4.341508    1.2020385   439061 
 3855000   0.80231927   -4.3436903   -4.3436903   -3.1402141  0.016683796   -4.3436903    1.2034762   439061 
 3856000   0.80291231   -4.3427195   -4.3427195   -3.1383538  0.020937982   -4.3427195    1.2043657   439061 
 3857000   0.80173281   -4.3412788   -4.3412788   -3.1386824  0.021431182   -4.3412788    1.2025965   439061 
 3858000   0.80298577   -4.3415554   -4.3415554   -3.1370795  0.024572173   -4.3415554    1.2044759   439061 
 3859000   0.80376475   -4.3432913   -4.3432913   -3.1376469  0.015746835   -4.3432913    1.2056444   439061 
 3860000   0.80211814   -4.3408297   -4.3408297   -3.1376552  0.016056935   -4.3408297    1.2031745   439061 
 3861000   0.80170268   -4.3399005   -4.3399005   -3.1373492  0.014033313   -4.3399005    1.2025513   439061 
 3862000   0.80076379     -4.33945     -4.33945    -3.138307 0.0088719714     -4.33945     1.201143   439061 
 3863000   0.80041806   -4.3371059   -4.3371059   -3.1364816  0.010469951   -4.3371059    1.2006244   439061 
 3864000   0.80005631   -4.3379137   -4.3379137    -3.137832  0.012045507   -4.3379137    1.2000817   439061 
 3865000   0.80157043   -4.3391473   -4.3391473   -3.1367944 0.0071009971   -4.3391473    1.2023529   439061 
 3866000   0.80120395   -4.3382014   -4.3382014   -3.1363982  0.014140986   -4.3382014    1.2018032   439061 
 3867000    0.8018192   -4.3388024   -4.3388024   -3.1360764  0.014635872   -4.3388024    1.2027261   439061 
 3868000   0.80268412       -4.339       -4.339   -3.1349765  0.015135315       -4.339    1.2040234   439061 
 3869000   0.80189119   -4.3391454   -4.3391454   -3.1363114  0.016340861   -4.3391454     1.202834   439061 
 3870000   0.80227414      -4.3408      -4.3408   -3.1373915  0.015646992      -4.3408    1.2034085   439061 
 3871000   0.80369819   -4.3422284   -4.3422284   -3.1366839   0.01592477   -4.3422284    1.2055445   439061 
 3872000   0.80117359   -4.3397027   -4.3397027    -3.137945  0.018172503   -4.3397027    1.2017577   439061 
 3873000   0.80246462   -4.3420486   -4.3420486   -3.1383544  0.014918245   -4.3420486    1.2036942   439061 
 3874000   0.80281284   -4.3425122   -4.3425122   -3.1382956  0.016366652   -4.3425122    1.2042165   439061 
 3875000   0.80213628   -4.3423462   -4.3423462   -3.1391445  0.014085093   -4.3423462    1.2032017   439061 
 3876000   0.80099122    -4.340508    -4.340508   -3.1390239  0.019867199    -4.340508    1.2014841   439061 
 3877000   0.80276504   -4.3419473   -4.3419473   -3.1378025  0.014113461   -4.3419473    1.2041448   439061 
 3878000   0.80063243   -4.3393502   -4.3393502   -3.1384043  0.019256052   -4.3393502    1.2009459   439061 
 3879000   0.80211881   -4.3401207   -4.3401207   -3.1369452  0.015549954   -4.3401207    1.2031755   439061 
 3880000   0.80191508   -4.3389394   -4.3389394   -3.1360696  0.017552409   -4.3389394    1.2028699   439061 
 3881000   0.80309493   -4.3420057   -4.3420057    -3.137366  0.014874345   -4.3420057    1.2046397   439061 
 3882000   0.80182592   -4.3393027   -4.3393027   -3.1365666  0.016846849   -4.3393027    1.2027361   439061 
 3883000   0.80273777   -4.3414709   -4.3414709    -3.137367  0.012909494   -4.3414709    1.2041039   439061 
 3884000   0.80109131   -4.3393565   -4.3393565   -3.1377223  0.012646513   -4.3393565    1.2016342   439061 
 3885000   0.80056589   -4.3387663   -4.3387663   -3.1379202  0.012832955   -4.3387663    1.2008461   439061 
 3886000   0.80118318   -4.3392302   -4.3392302   -3.1374582 0.0075333074   -4.3392302     1.201772   439061 
 3887000   0.80058644   -4.3396751   -4.3396751   -3.1387982 0.0088353368   -4.3396751    1.2008769   439061 
 3888000   0.80114546   -4.3399282   -4.3399282   -3.1382128  0.012323248   -4.3399282    1.2017155   439061 
 3889000   0.80217125   -4.3409774   -4.3409774   -3.1377233  0.012110917   -4.3409774    1.2032541   439061 
 3890000   0.80308817   -4.3421865   -4.3421865   -3.1375569  0.013723629   -4.3421865    1.2046295   439061 
 3891000    0.8029865   -4.3403668   -4.3403668   -3.1358898   0.01542704   -4.3403668     1.204477   439061 
 3892000   0.80202266   -4.3398202   -4.3398202    -3.136789  0.018728373   -4.3398202    1.2030313   439061 
 3893000   0.80134138    -4.339587    -4.339587   -3.1375777  0.017911257    -4.339587    1.2020093   439061 
 3894000   0.80249439   -4.3407645   -4.3407645   -3.1370256  0.016790917   -4.3407645    1.2037388   439061 
 3895000   0.80088198   -4.3396856   -4.3396856   -3.1383654  0.015097585   -4.3396856    1.2013202   439061 
 3896000   0.80117462   -4.3385609   -4.3385609   -3.1368017  0.014930087   -4.3385609    1.2017592   439061 
 3897000   0.80059166   -4.3387333   -4.3387333   -3.1378486  0.013951053   -4.3387333    1.2008848   439061 
 3898000   0.80239102   -4.3398479   -4.3398479   -3.1362641  0.016370396   -4.3398479    1.2035838   439061 
 3899000   0.80164291   -4.3392249   -4.3392249   -3.1367632  0.013070439   -4.3392249    1.2024616   439061 
 3900000   0.80245791   -4.3403654   -4.3403654   -3.1366813  0.013565121   -4.3403654    1.2036841   439061 
 3901000   0.80077588   -4.3390261   -4.3390261    -3.137865  0.012943384   -4.3390261    1.2011611   439061 
 3902000    0.8019438   -4.3398301   -4.3398301   -3.1369171   0.01321836   -4.3398301     1.202913   439061 
 3903000    0.8022278   -4.3395158   -4.3395158   -3.1361769  0.015135226   -4.3395158     1.203339   439061 
 3904000   0.80089593   -4.3383687   -4.3383687   -3.1370275  0.016255739   -4.3383687    1.2013412   439061 
 3905000   0.80166884   -4.3398852   -4.3398852   -3.1373847  0.017500105   -4.3398852    1.2025005   439061 
 3906000   0.80116214   -4.3387937   -4.3387937   -3.1370532  0.019999197   -4.3387937    1.2017405   439061 
 3907000   0.80109232   -4.3391021   -4.3391021   -3.1374664  0.020109303   -4.3391021    1.2016357   439061 
 3908000   0.80140785   -4.3405881   -4.3405881   -3.1384791  0.017087613   -4.3405881     1.202109   439061 
 3909000   0.80064957   -4.3397056   -4.3397056    -3.138734  0.017675539   -4.3397056    1.2009716   439061 
 3910000    0.8022288   -4.3409357   -4.3409357   -3.1375953   0.01485424   -4.3409357    1.2033405   439061 
 3911000    0.8022352   -4.3419871   -4.3419871    -3.138637  0.013948841   -4.3419871    1.2033501   439061 
 3912000   0.80180565   -4.3416026   -4.3416026   -3.1388969 0.0094526447   -4.3416026    1.2027057   439061 
 3913000    0.8013794   -4.3415476   -4.3415476   -3.1394812  0.013801101   -4.3415476    1.2020664   439061 
 3914000   0.80070038      -4.3408      -4.3408   -3.1397522  0.014488182      -4.3408    1.2010478   439061 
 3915000   0.80125069   -4.3405574   -4.3405574   -3.1386841  0.012049118   -4.3405574    1.2018733   439061 
 3916000   0.80219159   -4.3421831   -4.3421831   -3.1388984  0.014616867   -4.3421831    1.2032846   439061 
 3917000   0.80067455   -4.3405009   -4.3405009   -3.1394918   0.01691365   -4.3405009    1.2010091   439061 
 3918000   0.80122492   -4.3395389   -4.3395389   -3.1377042  0.019274146   -4.3395389    1.2018346   439061 
 3919000   0.80107615   -4.3406179   -4.3406179   -3.1390064  0.015761324   -4.3406179    1.2016115   439061 
 3920000   0.80036732   -4.3391523   -4.3391523   -3.1386041   0.01957434   -4.3391523    1.2005482   439061 
 3921000    0.8017534   -4.3405349   -4.3405349   -3.1379075  0.016769932   -4.3405349    1.2026274   439061 
 3922000   0.80177752   -4.3415914   -4.3415914   -3.1389278 0.0096775737   -4.3415914    1.2026635   439061 
 3923000   0.80205756   -4.3408563   -4.3408563   -3.1377727   0.01723641   -4.3408563    1.2030836   439061 
 3924000   0.80155788   -4.3398002   -4.3398002   -3.1374661  0.016729757   -4.3398002    1.2023341   439061 
 3925000   0.80123978   -4.3399001   -4.3399001   -3.1380432  0.015549494   -4.3399001    1.2018569   439061 
 3926000   0.80213747     -4.34095     -4.34095   -3.1377466  0.015145107     -4.34095    1.2032035   439061 
 3927000   0.80270109   -4.3410989   -4.3410989     -3.13705  0.016093774   -4.3410989    1.2040489   439061 
 3928000   0.80181486   -4.3396839   -4.3396839   -3.1369643  0.018146574   -4.3396839    1.2027195   439061 
 3929000   0.80082025   -4.3390051   -4.3390051   -3.1377774  0.020852641   -4.3390051    1.2012276   439061 
 3930000   0.80200323   -4.3408076   -4.3408076   -3.1378055  0.014925268   -4.3408076    1.2030021   439061 
 3931000   0.80185864   -4.3404917   -4.3404917   -3.1377065   0.02058454   -4.3404917    1.2027852   439061 
 3932000   0.80106867    -4.339954    -4.339954   -3.1383538  0.016587079    -4.339954    1.2016003   439061 
 3933000    0.8009828   -4.3399468   -4.3399468   -3.1384753  0.020123412   -4.3399468    1.2014715   439061 
 3934000   0.80210674   -4.3405381   -4.3405381   -3.1373808   0.01616265   -4.3405381    1.2031574   439061 
 3935000   0.80058388   -4.3380027   -4.3380027   -3.1371297  0.016940599   -4.3380027    1.2008731   439061 
 3936000   0.80156816   -4.3398028   -4.3398028   -3.1374533   0.01694842   -4.3398028    1.2023495   439061 
 3937000   0.80212507   -4.3400791   -4.3400791   -3.1368942  0.017024701   -4.3400791    1.2031849   439061 
 3938000   0.80072079   -4.3401366   -4.3401366   -3.1390581  0.017102264   -4.3401366    1.2010785   439061 
 3939000   0.79984172   -4.3379629   -4.3379629    -3.138203   0.02225671   -4.3379629    1.1997598   439061 
 3940000   0.80154248   -4.3400462   -4.3400462   -3.1377352  0.012735124   -4.3400462     1.202311   439061 
 3941000   0.80103215   -4.3406303   -4.3406303   -3.1390848   0.01339121   -4.3406303    1.2015455   439061 
 3942000   0.80129381   -4.3406226   -4.3406226   -3.1386846  0.017417675   -4.3406226     1.201938   439061 
 3943000   0.80172459   -4.3416848   -4.3416848   -3.1391007  0.014469755   -4.3416848    1.2025841   439061 
 3944000   0.80247936   -4.3423898   -4.3423898   -3.1386735  0.014650945   -4.3423898    1.2037163   439061 
 3945000    0.8024003   -4.3425176   -4.3425176   -3.1389199  0.013598267   -4.3425176    1.2035977   439061 
 3946000   0.80281684   -4.3420378   -4.3420378   -3.1378153  0.015362976   -4.3420378    1.2042225   439061 
 3947000   0.80213215   -4.3408772   -4.3408772   -3.1376817   0.02593875   -4.3408772    1.2031955   439061 
 3948000   0.80180277   -4.3414206   -4.3414206   -3.1387192  0.017476502   -4.3414206    1.2027014   439061 
 3949000    0.8009573   -4.3396845   -4.3396845   -3.1382513  0.021233923   -4.3396845    1.2014332   439061 
 3950000   0.80195163   -4.3405937   -4.3405937    -3.137669  0.017442836   -4.3405937    1.2029247   439061 
 3951000   0.80165975   -4.3410633   -4.3410633   -3.1385764  0.017813999   -4.3410633    1.2024869   439061 
 3952000   0.80138477    -4.340744    -4.340744   -3.1386696  0.013073579    -4.340744    1.2020744   439061 
 3953000   0.80082572   -4.3393422   -4.3393422   -3.1381064  0.013689217   -4.3393422    1.2012358   439061 
 3954000    0.8015146    -4.340177    -4.340177   -3.1379078  0.013106948    -4.340177    1.2022692   439061 
 3955000   0.80009516   -4.3384106   -4.3384106   -3.1382706  0.010676627   -4.3384106      1.20014   439061 
 3956000   0.80066311   -4.3377193   -4.3377193   -3.1367273  0.012489043   -4.3377193    1.2009919   439061 
 3957000   0.80113261   -4.3383882   -4.3383882    -3.136692  0.013788406   -4.3383882    1.2016962   439061 
 3958000   0.80220786   -4.3372082   -4.3372082   -3.1338991   0.02062192   -4.3372082    1.2033091   439061 
 3959000   0.80313107   -4.3382818   -4.3382818   -3.1335879  0.017066863   -4.3382818    1.2046939   439061 
 3960000   0.80274607   -4.3374259   -4.3374259   -3.1333095  0.018264732   -4.3374259    1.2041164   439061 
 3961000   0.80272565   -4.3377209   -4.3377209   -3.1336352  0.017379949   -4.3377209    1.2040857   439061 
 3962000   0.80071741   -4.3356777   -4.3356777   -3.1346043  0.020128737   -4.3356777    1.2010734   439061 
 3963000   0.80036343   -4.3359218   -4.3359218   -3.1353794  0.018037205   -4.3359218    1.2005424   439061 
 3964000   0.80094264   -4.3361064   -4.3361064   -3.1346952  0.014909589   -4.3361064    1.2014112   439061 
 3965000   0.80152895   -4.3382089   -4.3382089   -3.1359182  0.013762158   -4.3382089    1.2022907   439061 
 3966000   0.80242789   -4.3384636   -4.3384636   -3.1348245  0.010295915   -4.3384636    1.2036391   439061 
 3967000   0.80031324   -4.3365412   -4.3365412    -3.136074  0.016707316   -4.3365412    1.2004671   439061 
 3968000   0.80152951   -4.3377032   -4.3377032   -3.1354116  0.011461597   -4.3377032    1.2022915   439061 
 3969000   0.80131674   -4.3389436   -4.3389436   -3.1369712  0.013058705   -4.3389436    1.2019724   439061 
 3970000   0.80112904   -4.3392696   -4.3392696   -3.1375788  0.012435499   -4.3392696    1.2016908   439061 
 3971000   0.80142111   -4.3379031   -4.3379031   -3.1357741  0.015620826   -4.3379031    1.2021289   439061 
 3972000   0.80273317   -4.3384824   -4.3384824   -3.1343853  0.020696611   -4.3384824     1.204097   439061 
 3973000   0.80288195   -4.3400184   -4.3400184   -3.1356982  0.016192114   -4.3400184    1.2043202   439061 
 3974000   0.80261142   -4.3395483   -4.3395483   -3.1356339  0.019030247   -4.3395483    1.2039144   439061 
 3975000    0.8028356   -4.3398412   -4.3398412   -3.1355905  0.018722149   -4.3398412    1.2042507   439061 
 3976000   0.80123581   -4.3384021   -4.3384021   -3.1365511  0.019659234   -4.3384021     1.201851   439061 
 3977000   0.80226319   -4.3408254   -4.3408254   -3.1374333  0.016921642   -4.3408254     1.203392   439061 
 3978000   0.80184383   -4.3399226   -4.3399226   -3.1371596  0.014340888   -4.3399226     1.202763   439061 
 3979000   0.80057202   -4.3392427   -4.3392427   -3.1383874  0.012645574   -4.3392427    1.2008553   439061 
 3980000   0.80153306   -4.3403407   -4.3403407   -3.1380439  0.012672379   -4.3403407    1.2022968   439061 
 3981000   0.80186265   -4.3396891   -4.3396891   -3.1368979  0.014684548   -4.3396891    1.2027912   439061 
 3982000   0.80213752   -4.3405812   -4.3405812   -3.1373777   0.01581948   -4.3405812    1.2032035   439061 
 3983000   0.80159117   -4.3400167   -4.3400167   -3.1376326  0.012010456   -4.3400167     1.202384   439061 
 3984000   0.79996477    -4.337061    -4.337061   -3.1371166  0.017875747    -4.337061    1.1999444   439061 
 3985000   0.80127074   -4.3395487   -4.3395487   -3.1376454  0.013595966   -4.3395487    1.2019034   439061 
 3986000   0.80101514   -4.3389051   -4.3389051   -3.1373851  0.011753161   -4.3389051      1.20152   439061 
 3987000   0.80122828   -4.3387448   -4.3387448   -3.1369051   0.01696029   -4.3387448    1.2018397   439061 
 3988000   0.80142933   -4.3391178   -4.3391178   -3.1369765  0.013904254   -4.3391178    1.2021413   439061 
 3989000   0.80167017    -4.338296    -4.338296   -3.1357935  0.020863039    -4.338296    1.2025025   439061 
 3990000   0.80141958   -4.3385167   -4.3385167   -3.1363901  0.015406436   -4.3385167    1.2021266   439061 
 3991000   0.80139754   -4.3401751   -4.3401751   -3.1380815  0.013570452   -4.3401751    1.2020936   439061 
 3992000   0.80126556   -4.3392674   -4.3392674   -3.1373718   0.01486657   -4.3392674    1.2018956   439061 
 3993000   0.80125811   -4.3398032   -4.3398032   -3.1379187   0.01564646   -4.3398032    1.2018844   439061 
 3994000   0.80088372   -4.3399463   -4.3399463   -3.1386235  0.019496482   -4.3399463    1.2013228   439061 
 3995000   0.80302386   -4.3424175   -4.3424175   -3.1378845  0.016781049   -4.3424175     1.204533   439061 
 3996000   0.80238757   -4.3402359   -4.3402359   -3.1366573  0.014479463   -4.3402359    1.2035786   439061 
 3997000   0.80130831   -4.3397421   -4.3397421   -3.1377824  0.018017861   -4.3397421    1.2019597   439061 
 3998000   0.80209203   -4.3410096   -4.3410096   -3.1378743  0.016186513   -4.3410096    1.2031353   439061 
 3999000   0.80166716   -4.3401397   -4.3401397   -3.1376417  0.015918917   -4.3401397     1.202498   439061 
 4000000   0.80255513   -4.3411773   -4.3411773   -3.1373473  0.015561823   -4.3411773      1.20383   439061 
 4001000   0.80239845   -4.3396306   -4.3396306   -3.1360356  0.019411399   -4.3396306    1.2035949   439061 
 4002000   0.80234748   -4.3397347   -4.3397347   -3.1362162  0.022690324   -4.3397347    1.2035185   439061 
 4003000   0.80260424   -4.3402696   -4.3402696    -3.136366  0.019511256   -4.3402696    1.2039036   439061 
 4004000    0.8008794   -4.3383675   -4.3383675   -3.1370511   0.01676864   -4.3383675    1.2013164   439061 
 4005000   0.80250944   -4.3401027   -4.3401027   -3.1363413 0.0063155688   -4.3401027    1.2037614   439061 
 4006000    0.8008712   -4.3375353   -4.3375353   -3.1362313  0.010719535   -4.3375353    1.2013041   439061 
 4007000   0.79977931   -4.3381553   -4.3381553   -3.1384891  0.012954568   -4.3381553    1.1996662   439061 
 4008000   0.80316149   -4.3403839   -4.3403839   -3.1356444  0.013097407   -4.3403839    1.2047395   439061 
 4009000   0.80092129   -4.3378742   -4.3378742    -3.136495  0.015442683   -4.3378742    1.2013792   439061 
 4010000   0.80100198   -4.3382984   -4.3382984   -3.1367981  0.019632801   -4.3382984    1.2015002   439061 
 4011000   0.80262384   -4.3402096   -4.3402096   -3.1362766  0.013462806   -4.3402096     1.203933   439061 
 4012000   0.80212123    -4.338599    -4.338599   -3.1354199  0.016431326    -4.338599    1.2031791   439061 
 4013000   0.80155419    -4.338404    -4.338404   -3.1360755  0.015080537    -4.338404    1.2023286   439061 
 4014000   0.80195166   -4.3391597   -4.3391597   -3.1362349  0.013708987   -4.3391597    1.2029247   439061 
 4015000    0.8022178   -4.3392432   -4.3392432   -3.1359192  0.017362771   -4.3392432     1.203324   439061 
 4016000   0.80163716   -4.3382753   -4.3382753   -3.1358223  0.016482475   -4.3382753     1.202453   439061 
 4017000   0.80236927   -4.3401736   -4.3401736   -3.1366224  0.014764129   -4.3401736    1.2035512   439061 
 4018000   0.80107133    -4.338243    -4.338243   -3.1366388  0.014958675    -4.338243    1.2016043   439061 
 4019000   0.80105581   -4.3388332   -4.3388332   -3.1372522  0.014528307   -4.3388332     1.201581   439061 
 4020000   0.79986915   -4.3367812   -4.3367812   -3.1369803  0.016932415   -4.3367812     1.199801   439061 
 4021000   0.80183692   -4.3397212   -4.3397212   -3.1369686  0.012573198   -4.3397212    1.2027526   439061 
 4022000   0.80146163   -4.3391811   -4.3391811   -3.1369914  0.013093889   -4.3391811    1.2021897   439061 
 4023000   0.80077591   -4.3379827   -4.3379827   -3.1368216  0.020685318   -4.3379827    1.2011611   439061 
 4024000   0.80295433   -4.3419527   -4.3419527   -3.1375239  0.012706899   -4.3419527    1.2044288   439061 
 4025000   0.80212811   -4.3397241   -4.3397241   -3.1365347  0.016116807   -4.3397241    1.2031894   439061 
 4026000   0.80326802   -4.3422917   -4.3422917   -3.1373924  0.012563999   -4.3422917    1.2048993   439061 
 4027000   0.80282149   -4.3424593   -4.3424593   -3.1382298  0.012003935   -4.3424593    1.2042295   439061 
 4028000   0.80327928   -4.3430301   -4.3430301   -3.1381139    0.0178995   -4.3430301    1.2049162   439061 
 4029000   0.80333003   -4.3430311   -4.3430311   -3.1380388  0.016222421   -4.3430311    1.2049923   439061 
 4030000   0.80124849   -4.3397547   -4.3397547   -3.1378847  0.020044305   -4.3397547      1.20187   439061 
 4031000   0.80114664   -4.3410561   -4.3410561   -3.1393389  0.018007921   -4.3410561    1.2017172   439061 
 4032000   0.80047209   -4.3410461   -4.3410461   -3.1403407  0.017920897   -4.3410461    1.2007054   439061 
 4033000   0.80168134   -4.3420117   -4.3420117   -3.1394924  0.018153737   -4.3420117    1.2025193   439061 
 4034000   0.80207178   -4.3416804   -4.3416804   -3.1385755     0.019794   -4.3416804    1.2031049   439061 
 4035000   0.80336363   -4.3434528   -4.3434528   -3.1384102  0.010822764   -4.3434528    1.2050427   439061 
 4036000   0.80181614   -4.3421476   -4.3421476   -3.1394261  0.017135464   -4.3421476    1.2027215   439061 
 4037000   0.80139684   -4.3413004   -4.3413004   -3.1392079  0.014140159   -4.3413004    1.2020925   439061 
 4038000   0.80145558   -4.3417356   -4.3417356   -3.1395549  0.012601373   -4.3417356    1.2021806   439061 
 4039000   0.80183288   -4.3419532   -4.3419532   -3.1392067  0.013980065   -4.3419532    1.2027466   439061 
 4040000   0.80219493   -4.3419243   -4.3419243   -3.1386346  0.011465436   -4.3419243    1.2032896   439061 
 4041000   0.80093588   -4.3398279   -4.3398279   -3.1384268  0.015521564   -4.3398279    1.2014011   439061 
 4042000   0.80260061   -4.3405311   -4.3405311   -3.1366329   0.01562528   -4.3405311    1.2038982   439061 
 4043000   0.80219619   -4.3411722   -4.3411722   -3.1378807  0.011837778   -4.3411722    1.2032916   439061 
 4044000    0.8023557   -4.3394645   -4.3394645   -3.1359337  0.015834761   -4.3394645    1.2035308   439061 
 4045000   0.80380184    -4.341637    -4.341637    -3.135937  0.015299517    -4.341637       1.2057   439061 
 4046000   0.80312765   -4.3409905   -4.3409905   -3.1363017  0.019403213   -4.3409905    1.2046887   439061 
 4047000   0.80202019   -4.3397934   -4.3397934   -3.1367659  0.015444874   -4.3397934    1.2030275   439061 
 4048000   0.80123448   -4.3383082   -4.3383082   -3.1364592  0.013490955   -4.3383082     1.201849   439061 
 4049000   0.80100623   -4.3373943   -4.3373943   -3.1358877  0.015058924   -4.3373943    1.2015066   439061 
 4050000   0.80207912   -4.3406247   -4.3406247   -3.1375087 0.0065714265   -4.3406247    1.2031159   439061 
 4051000   0.80155205   -4.3395819   -4.3395819   -3.1372565  0.013050433   -4.3395819    1.2023253   439061 
 4052000   0.80198326   -4.3391385   -4.3391385   -3.1361664  0.013719569   -4.3391385    1.2029721   439061 
 4053000    0.8010332   -4.3396476   -4.3396476   -3.1381005     0.013754   -4.3396476    1.2015471   439061 
 4054000   0.80211167   -4.3403197   -4.3403197   -3.1371549 0.0080599712   -4.3403197    1.2031648   439061 
 4055000   0.80186171    -4.339987    -4.339987   -3.1371971   0.01525911    -4.339987    1.2027898   439061 
 4056000   0.80210011   -4.3408666   -4.3408666   -3.1377192   0.01846527   -4.3408666    1.2031474   439061 
 4057000   0.80288548   -4.3416805   -4.3416805    -3.137355   0.01645942   -4.3416805    1.2043255   439061 
 4058000    0.8039542   -4.3412984   -4.3412984   -3.1353699  0.020748976   -4.3412984    1.2059286   439061 
 4059000    0.8030843   -4.3414927   -4.3414927    -3.136869  0.023578112   -4.3414927    1.2046237   439061 
 4060000   0.80293038   -4.3417167   -4.3417167   -3.1373238  0.019331451   -4.3417167    1.2043928   439061 
 4061000   0.80185823   -4.3409998   -4.3409998   -3.1382152  0.018103827   -4.3409998    1.2027846   439061 
 4062000   0.80275159   -4.3422972   -4.3422972   -3.1381726  0.018555405   -4.3422972    1.2041246   439061 
 4063000     0.802287   -4.3426409   -4.3426409   -3.1392132  0.013621807   -4.3426409    1.2034278   439061 
 4064000   0.80144484   -4.3407768   -4.3407768   -3.1386122  0.017968097   -4.3407768    1.2021645   439061 
 4065000   0.80290843   -4.3427809   -4.3427809    -3.138421  0.011579332   -4.3427809    1.2043599   439061 
 4066000   0.80137885   -4.3405352   -4.3405352   -3.1384697  0.014245616   -4.3405352    1.2020655   439061 
 4067000   0.80112366   -4.3393437   -4.3393437   -3.1376609 0.0084970027   -4.3393437    1.2016828   439061 
 4068000   0.80106046   -4.3397085   -4.3397085   -3.1381206  0.011154154   -4.3397085     1.201588   439061 
 4069000   0.80172256   -4.3408024   -4.3408024   -3.1382213  0.012027596   -4.3408024    1.2025811   439061 
 4070000   0.80123964    -4.339517    -4.339517   -3.1376602  0.016159031    -4.339517    1.2018567   439061 
 4071000    0.8009478    -4.338941    -4.338941    -3.137522  0.014965038    -4.338941     1.201419   439061 
 4072000   0.80246591   -4.3395808   -4.3395808   -3.1358847  0.014357738   -4.3395808    1.2036961   439061 
 4073000   0.80092779   -4.3384625   -4.3384625   -3.1370736  0.016942318   -4.3384625     1.201389   439061 
 4074000    0.8022307   -4.3407394   -4.3407394   -3.1373961  0.014872665   -4.3407394    1.2033433   439061 
 4075000   0.80108121   -4.3392036   -4.3392036   -3.1375845  0.020126932   -4.3392036    1.2016191   439061 
 4076000   0.80191731   -4.3413781   -4.3413781   -3.1385048  0.014157026   -4.3413781    1.2028732   439061 
 4077000   0.80087806   -4.3405076   -4.3405076   -3.1391933  0.014211695   -4.3405076    1.2013144   439061 
 4078000   0.80165525   -4.3418426   -4.3418426   -3.1393625  0.015542699   -4.3418426    1.2024801   439061 
 4079000   0.80097073   -4.3415758   -4.3415758   -3.1401225  0.014141781   -4.3415758    1.2014534   439061 
 4080000   0.80177608   -4.3428157   -4.3428157   -3.1401543  0.017728551   -4.3428157    1.2026614   439061 
 4081000   0.80215713   -4.3442811   -4.3442811   -3.1410481   0.01639232   -4.3442811    1.2032329   439061 
 4082000   0.80223775   -4.3439419   -4.3439419    -3.140588  0.016665383   -4.3439419    1.2033539   439061 
 4083000    0.8026646   -4.3437153   -4.3437153   -3.1397212  0.018216717   -4.3437153    1.2039942   439061 
 4084000   0.80264375   -4.3442367   -4.3442367   -3.1402739  0.018911341   -4.3442367    1.2039629   439061 
 4085000   0.80433261   -4.3457642   -4.3457642    -3.139268  0.017774607   -4.3457642    1.2064962   439061 
 4086000   0.80267441   -4.3422012   -4.3422012   -3.1381924  0.024388813   -4.3422012    1.2040089   439061 
 4087000   0.80291533   -4.3430907   -4.3430907   -3.1387205  0.019012271   -4.3430907    1.2043703   439061 
 4088000    0.8017325   -4.3408416   -4.3408416   -3.1382456  0.016375713   -4.3408416     1.202596   439061 
 4089000   0.80161828   -4.3389662   -4.3389662   -3.1365416  0.015499603   -4.3389662    1.2024247   439061 
 4090000   0.80102504   -4.3395534   -4.3395534   -3.1380186  0.012191004   -4.3395534    1.2015348   439061 
 4091000   0.80114832    -4.339671    -4.339671   -3.1379513  0.011477584    -4.339671    1.2017197   439061 
 4092000   0.80155383   -4.3390146   -4.3390146   -3.1366866  0.010739151   -4.3390146     1.202328   439061 
 4093000   0.80039603   -4.3375532   -4.3375532   -3.1369619 0.0098033257   -4.3375532    1.2005913   439061 
 4094000   0.79994836   -4.3374369   -4.3374369   -3.1375171  0.009936235   -4.3374369    1.1999198   439061 
 4095000   0.80034361   -4.3375634   -4.3375634   -3.1370507  0.005106223   -4.3375634    1.2005127   439061 
 4096000   0.80154238   -4.3385132   -4.3385132   -3.1362024  0.015293817   -4.3385132    1.2023108   439061 
 4097000   0.80234374   -4.3390958   -4.3390958   -3.1355829   0.01422708   -4.3390958    1.2035129   439061 
 4098000   0.80327564   -4.3390011   -4.3390011   -3.1340903  0.017783184   -4.3390011    1.2049107   439061 
 4099000   0.80401352   -4.3396055   -4.3396055   -3.1335879  0.016520983   -4.3396055    1.2060175   439061 
 4100000   0.80255732   -4.3396933   -4.3396933   -3.1358601  0.017402249   -4.3396933    1.2038332   439061 
 4101000   0.80203879   -4.3403714   -4.3403714    -3.137316  0.016194679   -4.3403714    1.2030554   439061 
 4102000   0.80181262   -4.3410647   -4.3410647   -3.1383485  0.018524892   -4.3410647    1.2027162   439061 
 4103000   0.80160462   -4.3415809   -4.3415809   -3.1391767  0.013994133   -4.3415809    1.2024042   439061 
 4104000   0.80106242   -4.3408012   -4.3408012   -3.1392103  0.010636386   -4.3408012    1.2015909   439061 
 4105000   0.80128544   -4.3403838   -4.3403838   -3.1384584  0.016532874   -4.3403838    1.2019254   439061 
 4106000   0.80279695   -4.3424282   -4.3424282   -3.1382356  0.016145364   -4.3424282    1.2041927   439061 
 4107000   0.80242327   -4.3407248   -4.3407248   -3.1370927  0.022664895   -4.3407248    1.2036322   439061 
 4108000   0.80335763   -4.3416947   -4.3416947    -3.136661  0.018865991   -4.3416947    1.2050337   439061 
 4109000   0.80252864   -4.3409249   -4.3409249   -3.1371347  0.022902551   -4.3409249    1.2037902   439061 
 4110000   0.80275328   -4.3404655   -4.3404655   -3.1363383   0.01722279   -4.3404655    1.2041272   439061 
 4111000   0.80288167   -4.3411298   -4.3411298     -3.13681  0.013904078   -4.3411298    1.2043198   439061 
 4112000   0.80131254   -4.3393297   -4.3393297   -3.1373637  0.010606211   -4.3393297    1.2019661   439061 
 4113000   0.80164537   -4.3400143   -4.3400143    -3.137549  0.016137884   -4.3400143    1.2024653   439061 
 4114000   0.80280476   -4.3414516   -4.3414516   -3.1372472  0.012606367   -4.3414516    1.2042044   439061 
 4115000   0.80103731   -4.3391296   -4.3391296   -3.1375763  0.011996765   -4.3391296    1.2015532   439061 
 4116000   0.80078338   -4.3384947   -4.3384947   -3.1373223  0.014365651   -4.3384947    1.2011723   439061 
 4117000   0.80155101   -4.3398292   -4.3398292   -3.1375054  0.008937674   -4.3398292    1.2023238   439061 
 4118000   0.80079218   -4.3386412   -4.3386412   -3.1374557  0.011044478   -4.3386412    1.2011855   439061 
 4119000    0.8003877   -4.3394733   -4.3394733   -3.1388945  0.010878309   -4.3394733    1.2005788   439061 
 4120000   0.80167079   -4.3397305   -4.3397305   -3.1372271  0.014872687   -4.3397305    1.2025034   439061 
 4121000   0.80159852   -4.3393446   -4.3393446   -3.1369495  0.014627969   -4.3393446     1.202395   439061 
 4122000   0.80368705   -4.3426588   -4.3426588   -3.1371309  0.013574906   -4.3426588    1.2055278   439061 
 4123000   0.80455352   -4.3440222   -4.3440222   -3.1371946  0.019274174   -4.3440222    1.2068275   439061 
 4124000   0.80393794   -4.3423974   -4.3423974   -3.1364933  0.017198538   -4.3423974    1.2059042   439061 
 4125000    0.8014604   -4.3399302   -4.3399302   -3.1377424  0.024004647   -4.3399302    1.2021879   439061 
 4126000   0.80232987   -4.3420181   -4.3420181   -3.1385261  0.016540278   -4.3420181    1.2034921   439061 
 4127000   0.80111266   -4.3405756   -4.3405756   -3.1389094  0.021161328   -4.3405756    1.2016663   439061 
 4128000   0.80260009   -4.3421924   -4.3421924    -3.138295  0.016318904   -4.3421924    1.2038974   439061 
 4129000    0.8026312   -4.3409999   -4.3409999   -3.1370559  0.018204678   -4.3409999    1.2039441   439061 
 4130000   0.80268729   -4.3415683   -4.3415683   -3.1375401  0.014593741   -4.3415683    1.2040282   439061 
 4131000   0.80164484   -4.3395069   -4.3395069   -3.1370424  0.015302015   -4.3395069    1.2024645   439061 
 4132000   0.80231633   -4.3410218   -4.3410218   -3.1375501 0.0096286736   -4.3410218    1.2034718   439061 
 4133000   0.80070798   -4.3378817   -4.3378817   -3.1368225  0.013684906   -4.3378817    1.2010592   439061 
 4134000   0.80049904   -4.3378563   -4.3378563   -3.1371104 0.0095252235   -4.3378563    1.2007458   439061 
 4135000   0.80208862   -4.3408579   -4.3408579   -3.1377277  0.010328764   -4.3408579    1.2031302   439061 
 4136000   0.80241181   -4.3391724   -4.3391724   -3.1355574  0.011413347   -4.3391724     1.203615   439061 
 4137000   0.80252751   -4.3381699   -4.3381699   -3.1343814  0.015099062   -4.3381699    1.2037885   439061 
 4138000   0.80341168   -4.3398945   -4.3398945   -3.1347798  0.015658524   -4.3398945    1.2051148   439061 
 4139000   0.80281958   -4.3395794   -4.3395794   -3.1353528  0.017347699   -4.3395794    1.2042266   439061 
 4140000   0.80155567   -4.3388098   -4.3388098   -3.1364791  0.010958522   -4.3388098    1.2023308   439061 
 4141000   0.80207437   -4.3405583   -4.3405583   -3.1374495  0.012583656   -4.3405583    1.2031088   439061 
 4142000   0.80266078   -4.3404179   -4.3404179   -3.1364294  0.012003527   -4.3404179    1.2039884   439061 
 4143000   0.80241703   -4.3404821   -4.3404821   -3.1368593  0.020213843   -4.3404821    1.2036228   439061 
 4144000    0.8018571   -4.3405121   -4.3405121   -3.1377292  0.019338672   -4.3405121    1.2027829   439061 
 4145000   0.80257836   -4.3410613   -4.3410613   -3.1371965  0.016324951   -4.3410613    1.2038648   439061 
 4146000   0.80148542   -4.3408664   -4.3408664   -3.1386411  0.016510428   -4.3408664    1.2022254   439061 
 4147000   0.80159538   -4.3415618   -4.3415618   -3.1391715   0.01202019   -4.3415618    1.2023903   439061 
 4148000   0.80226631   -4.3405926   -4.3405926   -3.1371959   0.02274891   -4.3405926    1.2033967   439061 
 4149000   0.80299754   -4.3420567   -4.3420567   -3.1375632  0.014235467   -4.3420567    1.2044936   439061 
 4150000   0.80247894   -4.3408553   -4.3408553   -3.1371397  0.018651988   -4.3408553    1.2037157   439061 
 4151000   0.80176374   -4.3400095   -4.3400095   -3.1373667   0.01657733   -4.3400095    1.2026429   439061 
 4152000   0.80254178    -4.341544    -4.341544   -3.1377341   0.01172535    -4.341544    1.2038099   439061 
 4153000   0.80067661    -4.338295    -4.338295   -3.1372828  0.014574855    -4.338295    1.2010122   439061 
 4154000   0.80141747   -4.3391882   -4.3391882   -3.1370648  0.014589562   -4.3391882    1.2021235   439061 
 4155000   0.80227852   -4.3407214   -4.3407214   -3.1373063  0.015873644   -4.3407214     1.203415   439061 
 4156000   0.80290181   -4.3416407   -4.3416407   -3.1372908  0.012981541   -4.3416407      1.20435   439061 
 4157000   0.80286983   -4.3405637   -4.3405637   -3.1362617  0.014896902   -4.3405637     1.204302   439061 
 4158000   0.80097994     -4.33713     -4.33713   -3.1356629  0.020065165     -4.33713    1.2014672   439061 
 4159000   0.80136159   -4.3386237   -4.3386237    -3.136584  0.014167903   -4.3386237    1.2020397   439061 
 4160000   0.80173196    -4.337611    -4.337611   -3.1350158  0.015264393    -4.337611    1.2025952   439061 
 4161000    0.8004729   -4.3368228   -4.3368228   -3.1361161  0.016549565   -4.3368228    1.2007066   439061 
 4162000   0.80155827   -4.3389024   -4.3389024   -3.1365677  0.014626144   -4.3389024    1.2023347   439061 
 4163000   0.80172875   -4.3379651   -4.3379651   -3.1353747  0.012596798   -4.3379651    1.2025904   439061 
 4164000   0.80235668   -4.3385732   -4.3385732   -3.1350409   0.01644345   -4.3385732    1.2035323   439061 
 4165000   0.80306636   -4.3385692   -4.3385692   -3.1339724  0.013530648   -4.3385692    1.2045968   439061 
 4166000   0.80257054   -4.3390248   -4.3390248   -3.1351717  0.016523815   -4.3390248    1.2038531   439061 
 4167000   0.80122593   -4.3386329   -4.3386329   -3.1367968  0.018766394   -4.3386329    1.2018362   439061 
 4168000   0.80291624   -4.3411447   -4.3411447    -3.136773  0.017117479   -4.3411447    1.2043716   439061 
 4169000   0.80257919   -4.3409014   -4.3409014   -3.1370353  0.011959343   -4.3409014     1.203866   439061 
 4170000   0.80179916    -4.338919    -4.338919    -3.136223  0.017673295    -4.338919     1.202696   439061 
 4171000   0.80189298    -4.338887    -4.338887   -3.1360502  0.019638458    -4.338887    1.2028367   439061 
 4172000   0.80326946   -4.3408441   -4.3408441   -3.1359426  0.014980275   -4.3408441    1.2049014   439061 
 4173000   0.80229161    -4.341072    -4.341072   -3.1376373  0.017159003    -4.341072    1.2034347   439061 
 4174000   0.80239378   -4.3397441   -4.3397441   -3.1361561  0.015855418   -4.3397441    1.2035879   439061 
 4175000   0.80189869   -4.3397579   -4.3397579   -3.1369126  0.014677132   -4.3397579    1.2028453   439061 
 4176000   0.80241465   -4.3402229   -4.3402229   -3.1366037  0.012288278   -4.3402229    1.2036192   439061 
 4177000   0.80280591   -4.3402917   -4.3402917   -3.1360856  0.014774959   -4.3402917    1.2042061   439061 
 4178000   0.80310803   -4.3407286   -4.3407286   -3.1360693  0.014450569   -4.3407286    1.2046593   439061 
 4179000   0.80151635   -4.3385973   -4.3385973   -3.1363255  0.020623671   -4.3385973    1.2022718   439061 
 4180000   0.80191876   -4.3384253   -4.3384253   -3.1355499  0.016384936   -4.3384253    1.2028754   439061 
 4181000   0.80229236   -4.3382452   -4.3382452   -3.1348094  0.012598009   -4.3382452    1.2034358   439061 
 4182000    0.8019067   -4.3381357   -4.3381357   -3.1352784  0.012815425   -4.3381357    1.2028573   439061 
 4183000   0.80205258   -4.3387911   -4.3387911    -3.135715  0.011530198   -4.3387911    1.2030761   439061 
 4184000   0.80020139   -4.3364204   -4.3364204    -3.136121  0.013964194   -4.3364204    1.2002994   439061 
 4185000   0.80082801   -4.3372189   -4.3372189   -3.1359796  0.013528307   -4.3372189    1.2012393   439061 
 4186000   0.80042895   -4.3358599   -4.3358599   -3.1352192  0.015825786   -4.3358599    1.2006407   439061 
 4187000   0.80167382   -4.3390497   -4.3390497   -3.1365417  0.015253587   -4.3390497     1.202508   439061 
 4188000   0.80143376   -4.3394014   -4.3394014   -3.1372535  0.017438546   -4.3394014    1.2021479   439061 
 4189000   0.80105661   -4.3378421   -4.3378421     -3.13626  0.020801681   -4.3378421    1.2015822   439061 
 4190000   0.80317692   -4.3402825   -4.3402825   -3.1355199  0.013206927   -4.3402825    1.2047626   439061 
 4191000   0.80152697   -4.3388632   -4.3388632   -3.1365755  0.020106457   -4.3388632    1.2022877   439061 
 4192000   0.80249393   -4.3403414   -4.3403414   -3.1366033  0.016797253   -4.3403414    1.2037382   439061 
 4193000   0.80072828   -4.3375978   -4.3375978   -3.1365081  0.020768177   -4.3375978    1.2010897   439061 
 4194000   0.80294598   -4.3401015   -4.3401015   -3.1356853  0.015057179   -4.3401015    1.2044162   439061 
 4195000   0.80230467   -4.3403995   -4.3403995   -3.1369452  0.020455415   -4.3403995    1.2034543   439061 
 4196000   0.80346794   -4.3412871   -4.3412871    -3.136088   0.01771626   -4.3412871    1.2051992   439061 
 4197000   0.80165752   -4.3368361   -4.3368361   -3.1343526  0.019726426   -4.3368361    1.2024835   439061 
 4198000   0.80146833   -4.3371769   -4.3371769   -3.1349771  0.017237172   -4.3371769    1.2021998   439061 
 4199000   0.80116927   -4.3370153   -4.3370153   -3.1352641  0.016952313   -4.3370153    1.2017512   439061 
 4200000    0.8013001   -4.3368474   -4.3368474      -3.1349  0.015892088   -4.3368474    1.2019474   439061 
 4201000   0.80185191   -4.3374949   -4.3374949   -3.1347198  0.013661922   -4.3374949    1.2027751   439061 
 4202000   0.80164621   -4.3386195   -4.3386195   -3.1361529  0.013033477   -4.3386195    1.2024666   439061 
 4203000   0.80126336   -4.3376076   -4.3376076   -3.1357153  0.013587472   -4.3376076    1.2018923   439061 
 4204000   0.80130495   -4.3372145   -4.3372145   -3.1352598  0.007804165   -4.3372145    1.2019547   439061 
 4205000   0.79912213   -4.3354431   -4.3354431   -3.1367626  0.013363454   -4.3354431    1.1986805   439061 
 4206000   0.80079958   -4.3370451   -4.3370451   -3.1358485  0.012591115   -4.3370451    1.2011966   439061 
 4207000    0.8016586   -4.3369897   -4.3369897   -3.1345045  0.014633271   -4.3369897    1.2024852   439061 
 4208000   0.80357063   -4.3393395   -4.3393395   -3.1339863  0.011151868   -4.3393395    1.2053532   439061 
 4209000   0.80293729   -4.3387861   -4.3387861   -3.1343829  0.022134972   -4.3387861    1.2044032   439061 
 4210000   0.80283471   -4.3390549   -4.3390549   -3.1348055  0.014472366   -4.3390549    1.2042493   439061 
 4211000   0.80168825   -4.3377555   -4.3377555   -3.1352259  0.016407532   -4.3377555    1.2025296   439061 
 4212000   0.80139859   -4.3378315   -4.3378315   -3.1357364  0.019098461   -4.3378315    1.2020951   439061 
 4213000     0.802555   -4.3388085   -4.3388085   -3.1349788  0.016082385   -4.3388085    1.2038298   439061 
 4214000    0.8022282   -4.3384677   -4.3384677   -3.1351281     0.020672   -4.3384677    1.2033396   439061 
 4215000   0.80237555    -4.338392    -4.338392   -3.1348315  0.017087879    -4.338392    1.2035606   439061 
 4216000    0.8005642   -4.3367065   -4.3367065    -3.135863  0.015278384   -4.3367065    1.2008436   439061 
 4217000    0.8013985   -4.3380332   -4.3380332   -3.1359382  0.011076978   -4.3380332     1.202095   439061 
 4218000   0.80063361   -4.3369603   -4.3369603   -3.1360126  0.011466016   -4.3369603    1.2009477   439061 
 4219000   0.80118504   -4.3388858   -4.3388858   -3.1371109  0.011085995   -4.3388858    1.2017748   439061 
 4220000   0.80138565   -4.3386021   -4.3386021   -3.1365263  0.012549744   -4.3386021    1.2020757   439061 
 4221000   0.80075721    -4.337494    -4.337494   -3.1363609  0.016479077    -4.337494    1.2011331   439061 
 4222000   0.80156123   -4.3386279   -4.3386279   -3.1362888  0.015532131   -4.3386279    1.2023391   439061 
 4223000   0.80135537    -4.338131    -4.338131   -3.1361007  0.017067396    -4.338131    1.2020303   439061 
 4224000   0.80170486   -4.3396146   -4.3396146     -3.13706  0.020108964   -4.3396146    1.2025545   439061 
 4225000   0.80170523   -4.3391402   -4.3391402   -3.1365851   0.02000604   -4.3391402    1.2025551   439061 
 4226000    0.8024436   -4.3403214   -4.3403214   -3.1366588  0.018451105   -4.3403214    1.2036627   439061 
 4227000   0.80262017   -4.3401611   -4.3401611   -3.1362335  0.016239541   -4.3401611    1.2039275   439061 
 4228000   0.80079926   -4.3383017   -4.3383017   -3.1371055  0.016987718   -4.3383017    1.2011962   439061 
 4229000   0.80075442   -4.3382606   -4.3382606   -3.1371317  0.015174107   -4.3382606    1.2011289   439061 
 4230000    0.8026215   -4.3408805   -4.3408805    -3.136951  0.014916637   -4.3408805    1.2039295   439061 
 4231000   0.80059555       -4.338       -4.338   -3.1371095  0.020965959       -4.338    1.2008906   439061 
 4232000   0.80023353   -4.3379656   -4.3379656    -3.137618  0.019879017   -4.3379656    1.2003476   439061 
 4233000   0.80131489   -4.3401398   -4.3401398   -3.1381702  0.014841096   -4.3401398    1.2019696   439061 
 4234000   0.80114216   -4.3399208   -4.3399208   -3.1382103  0.017799956   -4.3399208    1.2017105   439061 
 4235000   0.80235826   -4.3404458   -4.3404458   -3.1369111  0.014384417   -4.3404458    1.2035347   439061 
 4236000   0.80093048     -4.33766     -4.33766    -3.136267  0.019399881     -4.33766     1.201393   439061 
 4237000   0.80153452   -4.3389903   -4.3389903   -3.1366913  0.012991504   -4.3389903     1.202299   439061 
 4238000   0.80322366    -4.340028    -4.340028   -3.1351953  0.020128609    -4.340028    1.2048327   439061 
 4239000   0.80194423   -4.3395037   -4.3395037   -3.1365901  0.015090071   -4.3395037    1.2029136   439061 
 4240000   0.80206029   -4.3392703   -4.3392703   -3.1361826  0.012963585   -4.3392703    1.2030877   439061 
 4241000     0.801049   -4.3380092   -4.3380092   -3.1364385   0.02128446   -4.3380092    1.2015708   439061 
 4242000   0.80167312   -4.3392715   -4.3392715   -3.1367645   0.01575955   -4.3392715    1.2025069   439061 
 4243000   0.79983306   -4.3379369   -4.3379369   -3.1381901  0.015958329   -4.3379369    1.1997469   439061 
 4244000    0.8000157   -4.3374095   -4.3374095   -3.1373887  0.016784719   -4.3374095    1.2000208   439061 
 4245000   0.80056837   -4.3390345   -4.3390345   -3.1381847  0.012756607   -4.3390345    1.2008498   439061 
 4246000   0.80068053   -4.3391553   -4.3391553   -3.1381373  0.013964145   -4.3391553    1.2010181   439061 
 4247000   0.80034443   -4.3383584   -4.3383584   -3.1378445   0.01895477   -4.3383584    1.2005139   439061 
 4248000   0.80169056   -4.3413219   -4.3413219   -3.1387888  0.016489368   -4.3413219    1.2025331   439061 
 4249000   0.80229295   -4.3421732   -4.3421732   -3.1387365  0.015207682   -4.3421732    1.2034367   439061 
 4250000   0.80131948    -4.339528    -4.339528   -3.1375515   0.02144544    -4.339528    1.2019765   439061 
 4251000   0.80207912    -4.340969    -4.340969   -3.1378531  0.017146431    -4.340969    1.2031159   439061 
 4252000   0.80089377   -4.3396773   -4.3396773   -3.1383394  0.024293209   -4.3396773    1.2013379   439061 
 4253000   0.80215564   -4.3410932   -4.3410932   -3.1378624   0.01994093   -4.3410932    1.2032307   439061 
 4254000   0.80154426   -4.3392216   -4.3392216    -3.136908  0.020850062   -4.3392216    1.2023137   439061 
 4255000   0.80223625   -4.3413437   -4.3413437   -3.1379921  0.017257835   -4.3413437    1.2033516   439061 
 4256000   0.80066058    -4.339447    -4.339447   -3.1384589  0.015588913    -4.339447    1.2009881   439061 
 4257000   0.80025086   -4.3401904   -4.3401904   -3.1398169  0.014456774   -4.3401904    1.2003736   439061 
 4258000   0.79948253    -4.338303    -4.338303    -3.139082  0.010510597    -4.338303    1.1992211   439061 
 4259000   0.79943271    -4.339022    -4.339022   -3.1398757  0.010155018    -4.339022    1.1991463   439061 
 4260000   0.80068857   -4.3396353   -4.3396353   -3.1386052  0.010118908   -4.3396353    1.2010301   439061 
 4261000   0.80092942   -4.3399773   -4.3399773   -3.1385859 0.0083288348   -4.3399773    1.2013914   439061 
 4262000    0.8000638   -4.3388501   -4.3388501   -3.1387571  0.014576896   -4.3388501     1.200093   439061 
 4263000   0.80025765   -4.3379358   -4.3379358    -3.137552  0.016371335   -4.3379358    1.2003837   439061 
 4264000   0.80140605   -4.3395593   -4.3395593    -3.137453  0.016622995   -4.3395593    1.2021063   439061 
 4265000   0.80155026   -4.3395649   -4.3395649   -3.1372422  0.019001447   -4.3395649    1.2023226   439061 
 4266000   0.80119936   -4.3408298   -4.3408298   -3.1390335  0.018859308   -4.3408298    1.2017963   439061 
 4267000   0.80146143   -4.3420481   -4.3420481   -3.1398587  0.016655354   -4.3420481    1.2021894   439061 
 4268000   0.80084741   -4.3402477   -4.3402477   -3.1389793  0.019644716   -4.3402477    1.2012684   439061 
 4269000    0.8022849   -4.3432789   -4.3432789   -3.1398543  0.017477714   -4.3432789    1.2034246   439061 
 4270000   0.80289657   -4.3438867   -4.3438867   -3.1395446  0.017667313   -4.3438867    1.2043421   439061 
 4271000   0.80338633   -4.3440536   -4.3440536   -3.1389769  0.023323578   -4.3440536    1.2050768   439061 
 4272000   0.80235072   -4.3414007   -4.3414007   -3.1378774  0.023532893   -4.3414007    1.2035233   439061 
 4273000   0.80135323   -4.3410894   -4.3410894   -3.1390623  0.017321526   -4.3410894    1.2020271   439061 
 4274000   0.80061497   -4.3408429   -4.3408429   -3.1399232  0.018453342   -4.3408429    1.2009197   439061 
 4275000   0.80041075   -4.3419961   -4.3419961   -3.1413827  0.012955706   -4.3419961    1.2006134   439061 
 4276000   0.80104425   -4.3435518   -4.3435518   -3.1419881  0.012045292   -4.3435518    1.2015636   439061 
 4277000    0.7995596   -4.3413967   -4.3413967     -3.14206   0.01017073   -4.3413967    1.1993367   439061 
 4278000   0.79997314   -4.3409556   -4.3409556   -3.1409986  0.013986007   -4.3409556     1.199957   439061 
 4279000   0.79966045   -4.3404107   -4.3404107   -3.1409227  0.015699526   -4.3404107    1.1994879   439061 
 4280000   0.80206235   -4.3432888   -4.3432888    -3.140198  0.013508892   -4.3432888    1.2030908   439061 
 4281000   0.80098186   -4.3420494   -4.3420494   -3.1405794  0.015159121   -4.3420494    1.2014701   439061 
 4282000   0.80140815   -4.3419124   -4.3419124   -3.1398029     0.021295   -4.3419124    1.2021095   439061 
 4283000   0.80163962   -4.3410637   -4.3410637    -3.138607  0.021117176   -4.3410637    1.2024567   439061 
 4284000    0.8021913   -4.3423982   -4.3423982    -3.139114  0.014020979   -4.3423982    1.2032842   439061 
 4285000    0.8006706   -4.3405157   -4.3405157   -3.1395126  0.020798012   -4.3405157    1.2010032   439061 
 4286000   0.80231022   -4.3433284   -4.3433284   -3.1398658  0.017061074   -4.3433284    1.2034626   439061 
 4287000   0.80199235   -4.3435997   -4.3435997   -3.1406139  0.015232593   -4.3435997    1.2029858   439061 
 4288000   0.80142928   -4.3408696   -4.3408696   -3.1387284  0.018671629   -4.3408696    1.2021412   439061 
 4289000      0.80219   -4.3409756   -4.3409756   -3.1376933  0.013523474   -4.3409756    1.2032823   439061 
 4290000   0.80128753   -4.3395938   -4.3395938   -3.1376653  0.016329411   -4.3395938    1.2019286   439061 
 4291000   0.80052328    -4.340139    -4.340139   -3.1393568  0.015724989    -4.340139    1.2007822   439061 
 4292000   0.80146646   -4.3415539   -4.3415539    -3.139357  0.016606905   -4.3415539     1.202197   439061 
 4293000   0.80109244   -4.3402497   -4.3402497   -3.1386138  0.018486805   -4.3402497    1.2016359   439061 
 4294000   0.80070859   -4.3402902   -4.3402902     -3.13923  0.013389888   -4.3402902    1.2010602   439061 
 4295000   0.79997044   -4.3401396   -4.3401396   -3.1401867  0.014272911   -4.3401396    1.1999529   439061 
 4296000   0.80024687   -4.3400245   -4.3400245   -3.1396569  0.013399122   -4.3400245    1.2003676   439061 
 4297000   0.80024385   -4.3397337   -4.3397337   -3.1393707  0.015241075   -4.3397337     1.200363   439061 
 4298000   0.80041559   -4.3394335   -4.3394335   -3.1388129  0.019413018   -4.3394335    1.2006206   439061 
 4299000   0.80209774   -4.3415092   -4.3415092   -3.1383654  0.016246517   -4.3415092    1.2031439   439061 
 4300000   0.80230306   -4.3423496   -4.3423496   -3.1388977   0.01689335   -4.3423496    1.2034519   439061 
 4301000   0.80184934   -4.3417769   -4.3417769   -3.1390057  0.014561893   -4.3417769    1.2027713   439061 
 4302000   0.80231995   -4.3418947   -4.3418947   -3.1384175   0.01915015   -4.3418947    1.2034772   439061 
 4303000   0.80215056    -4.343265    -4.343265   -3.1400419  0.016112308    -4.343265    1.2032231   439061 
 4304000   0.80118945   -4.3411235   -4.3411235    -3.139342  0.021699785   -4.3411235    1.2017814   439061 
 4305000   0.80119543   -4.3408685   -4.3408685   -3.1390781  0.016211377   -4.3408685    1.2017904   439061 
 4306000   0.80116712   -4.3420442   -4.3420442   -3.1402962  0.014860478   -4.3420442    1.2017479   439061 
 4307000   0.80169854   -4.3423208   -4.3423208   -3.1397757  0.012204124   -4.3423208    1.2025451   439061 
 4308000   0.80163226   -4.3429991   -4.3429991   -3.1405534  0.011356396   -4.3429991    1.2024456   439061 
 4309000   0.80293271   -4.3431432   -4.3431432   -3.1387468  0.020541648   -4.3431432    1.2043963   439061 
 4310000   0.80200436   -4.3418926   -4.3418926   -3.1388888  0.021037922   -4.3418926    1.2030038   439061 
 4311000   0.80281051   -4.3415109   -4.3415109   -3.1372979  0.015668237   -4.3415109     1.204213   439061 
 4312000   0.80183486   -4.3399375   -4.3399375   -3.1371879  0.015738934   -4.3399375    1.2027495   439061 
 4313000   0.80079732   -4.3394331   -4.3394331   -3.1382399  0.015995311   -4.3394331    1.2011932   439061 
 4314000   0.80134602   -4.3399977   -4.3399977   -3.1379814  0.014834583   -4.3399977    1.2020163   439061 
 4315000   0.80151782   -4.3399619   -4.3399619   -3.1376879  0.015250642   -4.3399619     1.202274   439061 
 4316000   0.80128913   -4.3378286   -4.3378286   -3.1358976  0.020904657   -4.3378286     1.201931   439061 
 4317000   0.80195887   -4.3383927   -4.3383927   -3.1354572  0.012211882   -4.3383927    1.2029356   439061 
 4318000   0.80226823   -4.3393771   -4.3393771   -3.1359775  0.011207616   -4.3393771    1.2033996   439061 
 4319000   0.79964176   -4.3368559   -4.3368559    -3.137396  0.016092877   -4.3368559    1.1994599   439061 
 4320000    0.8007652   -4.3386816   -4.3386816   -3.1375365  0.013786639   -4.3386816    1.2011451   439061 
 4321000   0.80255258   -4.3403715   -4.3403715   -3.1365453  0.015039246   -4.3403715    1.2038261   439061 
 4322000   0.80115048    -4.338411    -4.338411    -3.136688  0.017806062    -4.338411     1.201723   439061 
 4323000   0.80195848   -4.3393034   -4.3393034   -3.1363684  0.015052073   -4.3393034     1.202935   439061 
 4324000   0.80211854   -4.3385848   -4.3385848   -3.1354097  0.015466703   -4.3385848    1.2031751   439061 
 4325000   0.80212889   -4.3400549   -4.3400549   -3.1368643   0.01148575   -4.3400549    1.2031906   439061 
 4326000   0.80042519   -4.3389137   -4.3389137   -3.1382787  0.018763377   -4.3389137    1.2006351   439061 
 4327000   0.79999528   -4.3383816   -4.3383816   -3.1383914  0.019704624   -4.3383816    1.1999902   439061 
 4328000   0.80229468   -4.3409354   -4.3409354   -3.1374961  0.013150645   -4.3409354    1.2034393   439061 
 4329000   0.80209946   -4.3417407   -4.3417407   -3.1385942  0.012934875   -4.3417407    1.2031464   439061 
 4330000   0.80072124   -4.3396762   -4.3396762   -3.1385971  0.018455116   -4.3396762    1.2010791   439061 
 4331000   0.80163476   -4.3417307   -4.3417307   -3.1392813   0.01035264   -4.3417307    1.2024494   439061 
 4332000   0.80096831   -4.3395154   -4.3395154   -3.1380656  0.019440433   -4.3395154    1.2014497   439061 
 4333000   0.80130056   -4.3401686   -4.3401686   -3.1382205   0.01933093   -4.3401686    1.2019481   439061 
 4334000   0.80176659   -4.3413641   -4.3413641    -3.138717  0.017562967   -4.3413641    1.2026471   439061 
 4335000   0.80099863   -4.3398425   -4.3398425   -3.1383473  0.017861675   -4.3398425    1.2014952   439061 
 4336000   0.80251152   -4.3417008   -4.3417008   -3.1379362  0.017033367   -4.3417008    1.2037645   439061 
 4337000   0.80188578   -4.3404417   -4.3404417   -3.1376157  0.013171681   -4.3404417    1.2028259   439061 
 4338000   0.80152753   -4.3393689   -4.3393689   -3.1370803  0.017035048   -4.3393689    1.2022886   439061 
 4339000   0.80151498   -4.3401175   -4.3401175   -3.1378478  0.017030942   -4.3401175    1.2022697   439061 
 4340000   0.80076156   -4.3396853   -4.3396853   -3.1385457  0.012185305   -4.3396853    1.2011396   439061 
 4341000   0.80016286   -4.3377835   -4.3377835    -3.137542  0.016964498   -4.3377835    1.2002416   439061 
 4342000    0.7996288   -4.3380331   -4.3380331   -3.1385926  0.015137628   -4.3380331    1.1994405   439061 
 4343000   0.80041724   -4.3391576   -4.3391576   -3.1385345   0.01315515   -4.3391576    1.2006231   439061 
 4344000   0.80062142   -4.3393827   -4.3393827   -3.1384533  0.010008139   -4.3393827    1.2009294   439061 
 4345000   0.80200426   -4.3397539   -4.3397539   -3.1367502  0.010925981   -4.3397539    1.2030037   439061 
 4346000   0.80219568   -4.3406472   -4.3406472   -3.1373564  0.012139325   -4.3406472    1.2032908   439061 
 4347000   0.80273166   -4.3397569   -4.3397569   -3.1356622  0.019514145   -4.3397569    1.2040947   439061 
 4348000   0.80190161   -4.3391055   -4.3391055   -3.1362558  0.017543293   -4.3391055    1.2028497   439061 
 4349000    0.8041969   -4.3408432   -4.3408432   -3.1345506  0.020417425   -4.3408432    1.2062926   439061 
 4350000   0.80372572   -4.3417566   -4.3417566   -3.1361708  0.020881577   -4.3417566    1.2055858   439061 
 4351000   0.80290603   -4.3409489   -4.3409489   -3.1365926   0.01735171   -4.3409489    1.2043563   439061 
 4352000   0.80071007   -4.3394836   -4.3394836   -3.1384213  0.017187256   -4.3394836    1.2010624   439061 
 4353000   0.80047033     -4.33901     -4.33901   -3.1383073  0.015298135     -4.33901    1.2007028   439061 
 4354000    0.7999804   -4.3381846   -4.3381846   -3.1382167  0.015889605   -4.3381846    1.1999679   439061 
 4355000   0.80101713   -4.3400859   -4.3400859    -3.138563  0.016048117   -4.3400859     1.201523   439061 
 4356000   0.80212099   -4.3424644   -4.3424644   -3.1392857  0.018790394   -4.3424644    1.2031787   439061 
 4357000   0.80178449   -4.3420586   -4.3420586   -3.1393846 0.0082121354   -4.3420586     1.202674   439061 
 4358000   0.80086056   -4.3411833   -4.3411833   -3.1398952  0.013066802   -4.3411833    1.2012881   439061 
 4359000   0.79992425   -4.3399055   -4.3399055   -3.1400218  0.013621465   -4.3399055    1.1998836   439061 
 4360000   0.79968908   -4.3399175   -4.3399175   -3.1403866  0.014181797   -4.3399175    1.1995309   439061 
 4361000   0.80155622   -4.3416648   -4.3416648   -3.1393332  0.015805782   -4.3416648    1.2023316   439061 
 4362000   0.80165262   -4.3422171   -4.3422171   -3.1397409  0.014886189   -4.3422171    1.2024762   439061 
 4363000   0.80091998    -4.341721    -4.341721   -3.1403437  0.021527182    -4.341721    1.2013772   439061 
 4364000     0.802123   -4.3425004   -4.3425004   -3.1393187  0.017886101   -4.3425004    1.2031818   439061 
 4365000   0.80293716   -4.3431558   -4.3431558   -3.1387528  0.017299878   -4.3431558     1.204403   439061 
 4366000   0.80101916   -4.3419161   -4.3419161   -3.1403901  0.015851653   -4.3419161     1.201526   439061 
 4367000   0.80205122   -4.3439751   -4.3439751   -3.1409011  0.016940106   -4.3439751    1.2030741   439061 
 4368000   0.80193801   -4.3429828   -4.3429828   -3.1400785  0.016153276   -4.3429828    1.2029043   439061 
 4369000   0.80103468   -4.3416135   -4.3416135   -3.1400642  0.015780565   -4.3416135    1.2015493   439061 
 4370000   0.80101496   -4.3423851   -4.3423851   -3.1408654  0.014598161   -4.3423851    1.2015197   439061 
 4371000   0.80061416   -4.3404517   -4.3404517   -3.1395332  0.018450919   -4.3404517    1.2009185   439061 
 4372000   0.80044004   -4.3404826   -4.3404826   -3.1398253  0.014392085   -4.3404826    1.2006573   439061 
 4373000   0.80126296   -4.3396851   -4.3396851   -3.1377934   0.01683834   -4.3396851    1.2018917   439061 
 4374000   0.80294699   -4.3417502   -4.3417502   -3.1373325  0.014785158   -4.3417502    1.2044177   439061 
 4375000   0.80191171   -4.3398506   -4.3398506   -3.1369858  0.017235658   -4.3398506    1.2028648   439061 
 4376000   0.80137312   -4.3390264   -4.3390264   -3.1369695  0.020266147   -4.3390264    1.2020569   439061 
 4377000   0.80167949   -4.3387598   -4.3387598   -3.1362433  0.014517387   -4.3387598    1.2025165   439061 
 4378000   0.80130546   -4.3378686   -4.3378686   -3.1359132  0.016282571   -4.3378686    1.2019555   439061 
 4379000   0.80277234   -4.3396565   -4.3396565   -3.1355007  0.016834845   -4.3396565    1.2041558   439061 
 4380000   0.80219104   -4.3385743   -4.3385743   -3.1352905  0.013088124   -4.3385743    1.2032838   439061 
 4381000   0.80089476    -4.336801    -4.336801   -3.1354616  0.014728109    -4.336801    1.2013394   439061 
 4382000   0.80021195   -4.3350966   -4.3350966   -3.1347814  0.022045245   -4.3350966    1.2003152   439061 
 4383000   0.80125348   -4.3369301   -4.3369301   -3.1350527  0.013463565   -4.3369301    1.2018775   439061 
 4384000   0.80159911    -4.337801    -4.337801   -3.1354051  0.014156599    -4.337801    1.2023959   439061 
 4385000   0.80119799    -4.337282    -4.337282   -3.1354877  0.018287412    -4.337282    1.2017942   439061 
 4386000   0.80230906    -4.339455    -4.339455   -3.1359942  0.014348232    -4.339455    1.2034609   439061 
 4387000   0.80216305   -4.3382263   -4.3382263   -3.1349844  0.015453035   -4.3382263    1.2032418   439061 
 4388000   0.80096944   -4.3369216   -4.3369216   -3.1354702  0.020063127   -4.3369216    1.2014514   439061 
 4389000   0.80068367   -4.3365209   -4.3365209   -3.1354982  0.017831968   -4.3365209    1.2010228   439061 
 4390000   0.80266274   -4.3394119   -4.3394119   -3.1354206  0.014876888   -4.3394119    1.2039914   439061 
 4391000   0.80264288   -4.3388122   -4.3388122   -3.1348506  0.018230485   -4.3388122    1.2039616   439061 
 4392000   0.80125199   -4.3381576   -4.3381576   -3.1362823   0.01607119   -4.3381576    1.2018752   439061 
 4393000   0.80136365   -4.3385198   -4.3385198   -3.1364771  0.018092204   -4.3385198    1.2020427   439061 
 4394000   0.80182918   -4.3390077   -4.3390077   -3.1362667  0.017651576   -4.3390077     1.202741   439061 
 4395000   0.80173675   -4.3383898   -4.3383898   -3.1357874  0.013464567   -4.3383898    1.2026024   439061 
 4396000   0.80197957    -4.338356    -4.338356   -3.1353894  0.016703651    -4.338356    1.2029666   439061 
 4397000   0.80105229   -4.3379524   -4.3379524   -3.1363767   0.02015475   -4.3379524    1.2015757   439061 
 4398000   0.80334888     -4.34106     -4.34106   -3.1360394  0.017412007     -4.34106    1.2050206   439061 
 4399000   0.80207594   -4.3390234   -4.3390234   -3.1359122  0.016990984   -4.3390234    1.2031112   439061 
 4400000   0.80134325   -4.3385573   -4.3385573   -3.1365452  0.014672712   -4.3385573    1.2020121   439061 
 4401000   0.80200989   -4.3381778   -4.3381778   -3.1351657  0.012964438   -4.3381778    1.2030121   439061 
 4402000   0.80159104   -4.3380421   -4.3380421   -3.1356583  0.014194266   -4.3380421    1.2023838   439061 
 4403000   0.80035412   -4.3375736   -4.3375736   -3.1370451  0.019831899   -4.3375736    1.2005284   439061 
 4404000   0.80130661   -4.3377989   -4.3377989   -3.1358417  0.018573637   -4.3377989    1.2019572   439061 
 4405000   0.80098615   -4.3369749   -4.3369749   -3.1354984  0.013853659   -4.3369749    1.2014765   439061 
 4406000   0.80116746   -4.3379392   -4.3379392   -3.1361907  0.015151977   -4.3379392    1.2017485   439061 
 4407000   0.80144541   -4.3396342   -4.3396342   -3.1374688  0.011853421   -4.3396342    1.2021654   439061 
 4408000   0.80102764   -4.3372331   -4.3372331   -3.1356943  0.015501625   -4.3372331    1.2015387   439061 
 4409000   0.80257779   -4.3385765   -4.3385765   -3.1347126  0.020306867   -4.3385765    1.2038639   439061 
 4410000   0.80344882   -4.3401646   -4.3401646   -3.1349941  0.017638539   -4.3401646    1.2051705   439061 
 4411000   0.80314314   -4.3395235   -4.3395235   -3.1348115  0.018582367   -4.3395235     1.204712   439061 
 4412000   0.80259647   -4.3394208   -4.3394208   -3.1355288  0.017890668   -4.3394208     1.203892   439061 
 4413000   0.80198077    -4.338546    -4.338546   -3.1355776  0.019606235    -4.338546    1.2029684   439061 
 4414000   0.80097989   -4.3367694   -4.3367694   -3.1353023  0.018704469   -4.3367694    1.2014671   439061 
 4415000   0.80150243   -4.3381622   -4.3381622   -3.1359113  0.017253167   -4.3381622    1.2022509   439061 
 4416000   0.80126565   -4.3380666   -4.3380666   -3.1361709  0.019096903   -4.3380666    1.2018957   439061 
 4417000   0.80237505    -4.338087    -4.338087   -3.1345272  0.018334855    -4.338087    1.2035598   439061 
 4418000   0.80198454   -4.3387863   -4.3387863   -3.1358122  0.017200263   -4.3387863    1.2029741   439061 
 4419000    0.8021884   -4.3388529   -4.3388529    -3.135573  0.016627562   -4.3388529    1.2032799   439061 
 4420000   0.80208269   -4.3374358   -4.3374358   -3.1343145  0.010463108   -4.3374358    1.2031213   439061 
 4421000   0.80164388   -4.3377529   -4.3377529   -3.1352898   0.01220317   -4.3377529    1.2024631   439061 
 4422000   0.80115296   -4.3374001   -4.3374001   -3.1356734  0.012306721   -4.3374001    1.2017267   439061 
 4423000   0.80112473    -4.337968    -4.337968   -3.1362836  0.014548499    -4.337968    1.2016844   439061 
 4424000   0.80201284   -4.3396572   -4.3396572   -3.1366407  0.010044243   -4.3396572    1.2030165   439061 
 4425000   0.80184455   -4.3386383   -4.3386383   -3.1358742  0.015374504   -4.3386383    1.2027641   439061 
 4426000   0.80293454   -4.3393783   -4.3393783   -3.1349792  0.012966958   -4.3393783    1.2043991   439061 
 4427000    0.8003449   -4.3370443   -4.3370443   -3.1365297   0.01377131   -4.3370443    1.2005146   439061 
 4428000   0.80173524   -4.3395822   -4.3395822   -3.1369821  0.012834597   -4.3395822    1.2026001   439061 
 4429000   0.80119669   -4.3393084   -4.3393084   -3.1375161  0.017003408   -4.3393084    1.2017923   439061 
 4430000   0.80184944   -4.3406378   -4.3406378   -3.1378664  0.013512991   -4.3406378    1.2027714   439061 
 4431000   0.80188693   -4.3409297   -4.3409297   -3.1381021  0.016518804   -4.3409297    1.2028277   439061 
 4432000   0.80180842   -4.3411256   -4.3411256   -3.1384157  0.017827493   -4.3411256    1.2027099   439061 
 4433000   0.80114266   -4.3402548   -4.3402548   -3.1385436  0.022456818   -4.3402548    1.2017113   439061 
 4434000   0.80166739   -4.3417068   -4.3417068   -3.1392085  0.017805876   -4.3417068    1.2024983   439061 
 4435000   0.80241431   -4.3420772   -4.3420772   -3.1384585  0.018580128   -4.3420772    1.2036187   439061 
 4436000   0.80265634   -4.3427004   -4.3427004   -3.1387186  0.017036942   -4.3427004    1.2039818   439061 
 4437000   0.80123413   -4.3405509   -4.3405509   -3.1387025  0.020643648   -4.3405509    1.2018485   439061 
 4438000   0.80129953   -4.3407877   -4.3407877   -3.1388412  0.020176311   -4.3407877    1.2019466   439061 
 4439000     0.801188   -4.3409757   -4.3409757   -3.1391964   0.02077475   -4.3409757    1.2017793   439061 
 4440000     0.801372   -4.3412457   -4.3412457   -3.1391904  0.019194004   -4.3412457    1.2020553   439061 
 4441000   0.80010462   -4.3405812   -4.3405812    -3.140427  0.018943245   -4.3405812    1.2001542   439061 
 4442000   0.80082853   -4.3403089   -4.3403089   -3.1390688  0.016719052   -4.3403089    1.2012401   439061 
 4443000   0.80089444   -4.3402742   -4.3402742   -3.1389353  0.013193102   -4.3402742    1.2013389   439061 
 4444000   0.80153447   -4.3406404   -4.3406404   -3.1383415  0.017105964   -4.3406404     1.202299   439061 
 4445000    0.8003682   -4.3380431   -4.3380431   -3.1374935  0.017377637   -4.3380431    1.2005496   439061 
 4446000   0.80232279   -4.3405672   -4.3405672   -3.1370857  0.016758709   -4.3405672    1.2034815   439061 
 4447000   0.80136463   -4.3384766   -4.3384766   -3.1364324  0.014754637   -4.3384766    1.2020442   439061 
 4448000   0.80144646   -4.3381984   -4.3381984   -3.1360315  0.016668935   -4.3381984    1.2021669   439061 
 4449000   0.80113805   -4.3378869   -4.3378869   -3.1361825  0.014550722   -4.3378869    1.2017043   439061 
 4450000   0.80157217   -4.3388391   -4.3388391   -3.1364835  0.011647572   -4.3388391    1.2023555   439061 
 4451000   0.80088349   -4.3386167   -4.3386167   -3.1372942  0.017404108   -4.3386167    1.2013225   439061 
 4452000   0.80339491   -4.3404713   -4.3404713   -3.1353817  0.014187237   -4.3404713    1.2050896   439061 
 4453000   0.80299921   -4.3397627   -4.3397627   -3.1352666  0.013841836   -4.3397627    1.2044961   439061 
 4454000   0.80122613   -4.3392352   -4.3392352   -3.1373987  0.014883425   -4.3392352    1.2018365   439061 
 4455000   0.80078624   -4.3373039   -4.3373039   -3.1361273  0.015030666   -4.3373039    1.2011766   439061 
 4456000    0.8010359   -4.3376611   -4.3376611     -3.13611  0.012418777   -4.3376611    1.2015511   439061 
 4457000   0.80184011   -4.3396958   -4.3396958   -3.1369383  0.012679499   -4.3396958    1.2027574   439061 
 4458000   0.80175914   -4.3398003   -4.3398003   -3.1371643  0.014547927   -4.3398003     1.202636   439061 
 4459000   0.80146794   -4.3392587   -4.3392587   -3.1370595  0.017180819   -4.3392587    1.2021992   439061 
 4460000   0.80144696   -4.3394759   -4.3394759   -3.1373082  0.014450249   -4.3394759    1.2021677   439061 
 4461000   0.80170028   -4.3394301   -4.3394301   -3.1368824  0.014713706   -4.3394301    1.2025477   439061 
 4462000    0.8000558   -4.3376429   -4.3376429   -3.1375619   0.01716551   -4.3376429     1.200081   439061 
 4463000   0.80146105   -4.3395427   -4.3395427   -3.1373539  0.021120865   -4.3395427    1.2021888   439061 
 4464000   0.80180978    -4.340001    -4.340001    -3.137289  0.021515802    -4.340001    1.2027119   439061 
 4465000   0.80286325   -4.3417423   -4.3417423   -3.1374502  0.014348486   -4.3417423    1.2042921   439061 
 4466000   0.80307285   -4.3413209   -4.3413209   -3.1367144  0.022537062   -4.3413209    1.2046065   439061 
 4467000   0.80218983   -4.3412187   -4.3412187   -3.1379367  0.016875884   -4.3412187     1.203282   439061 
 4468000   0.80220183   -4.3409815   -4.3409815   -3.1376815  0.018164167   -4.3409815       1.2033   439061 
 4469000   0.80226959     -4.34024     -4.34024   -3.1368383  0.013800191     -4.34024    1.2034016   439061 
 4470000   0.80202271   -4.3414415   -4.3414415   -3.1384102  0.014777561   -4.3414415    1.2030313   439061 
 4471000    0.8021681   -4.3414515   -4.3414515   -3.1382021  0.024847043   -4.3414515    1.2032494   439061 
 4472000   0.80222586   -4.3411008   -4.3411008   -3.1377647  0.018884791   -4.3411008     1.203336   439061 
 4473000   0.80126544   -4.3399888   -4.3399888   -3.1380934  0.015682674   -4.3399888    1.2018954   439061 
 4474000   0.80151285   -4.3404907   -4.3404907   -3.1382241   0.01275913   -4.3404907    1.2022665   439061 
 4475000   0.80057456    -4.337915    -4.337915   -3.1370559  0.016786285    -4.337915    1.2008591   439061 
 4476000   0.80169608   -4.3396878   -4.3396878   -3.1371465  0.013934212   -4.3396878    1.2025414   439061 
 4477000    0.8017078   -4.3399006   -4.3399006   -3.1373416  0.015924208   -4.3399006     1.202559   439061 
 4478000   0.80317326   -4.3418066   -4.3418066   -3.1370495  0.008622797   -4.3418066    1.2047571   439061 
 4479000    0.8015911   -4.3398936   -4.3398936   -3.1375097  0.015437691   -4.3398936    1.2023839   439061 
 4480000   0.80176254   -4.3400333   -4.3400333   -3.1373922 0.0054517051   -4.3400333    1.2026411   439061 
 4481000   0.80164203   -4.3395663   -4.3395663   -3.1371059  0.013745384   -4.3395663    1.2024603   439061 
 4482000   0.80103503   -4.3398373   -4.3398373   -3.1382875  0.014025458   -4.3398373    1.2015498   439061 
 4483000   0.79997802   -4.3389702   -4.3389702   -3.1390059  0.016461629   -4.3389702    1.1999643   439061 
 4484000   0.80177709   -4.3402952   -4.3402952   -3.1376323  0.019817162   -4.3402952    1.2026629   439061 
 4485000   0.80299297   -4.3411181   -4.3411181   -3.1366314  0.018213801   -4.3411181    1.2044867   439061 
 4486000   0.80271084   -4.3411843   -4.3411843   -3.1371208  0.019082733   -4.3411843    1.2040635   439061 
 4487000   0.80175327   -4.3419287   -4.3419287   -3.1393015  0.015300354   -4.3419287    1.2026272   439061 
 4488000   0.80008432   -4.3391689   -4.3391689   -3.1390452  0.020394613   -4.3391689    1.2001237   439061 
 4489000   0.80161335   -4.3407415   -4.3407415   -3.1383242  0.020813016   -4.3407415    1.2024173   439061 
 4490000   0.80093691     -4.34058     -4.34058   -3.1391774  0.019492923     -4.34058    1.2014026   439061 
 4491000    0.8004564   -4.3400219   -4.3400219     -3.13934  0.017174396   -4.3400219    1.2006819   439061 
 4492000   0.80138675   -4.3428959   -4.3428959   -3.1408186  0.013604036   -4.3428959    1.2020774   439061 
 4493000   0.80023075   -4.3422465   -4.3422465   -3.1419031  0.011995189   -4.3422465    1.2003434   439061 
 4494000   0.80102197   -4.3422072   -4.3422072    -3.140677   0.01226584   -4.3422072    1.2015302   439061 
 4495000   0.80173152   -4.3434966   -4.3434966   -3.1409021  0.015716257   -4.3434966    1.2025945   439061 
 4496000   0.80259825   -4.3429554   -4.3429554   -3.1390607  0.017885478   -4.3429554    1.2038946   439061 
 4497000   0.80168718   -4.3431993   -4.3431993   -3.1406713  0.020971731   -4.3431993     1.202528   439061 
 4498000    0.8016336   -4.3426585   -4.3426585   -3.1402108  0.018767548   -4.3426585    1.2024477   439061 
 4499000   0.80101781   -4.3420773   -4.3420773   -3.1405534  0.016317225   -4.3420773     1.201524   439061 
 4500000   0.80032512   -4.3410808   -4.3410808   -3.1405959  0.019071181   -4.3410808    1.2004849   439061 
 4501000   0.80106378   -4.3425259   -4.3425259    -3.140933  0.013857361   -4.3425259    1.2015929   439061 
 4502000   0.79996114   -4.3414596   -4.3414596   -3.1415207  0.017386858   -4.3414596     1.199939   439061 
 4503000   0.80022514   -4.3418507   -4.3418507   -3.1415158  0.015287532   -4.3418507     1.200335   439061 
 4504000   0.79961982   -4.3418047   -4.3418047   -3.1423777  0.016730605   -4.3418047     1.199427   439061 
 4505000   0.80017283   -4.3431725   -4.3431725    -3.142916  0.010276049   -4.3431725    1.2002565   439061 
 4506000   0.79997378   -4.3419141   -4.3419141   -3.1419562  0.019832131   -4.3419141    1.1999579   439061 
 4507000   0.80138813   -4.3438452   -4.3438452   -3.1417657  0.014550477   -4.3438452    1.2020795   439061 
 4508000   0.80113879   -4.3423276   -4.3423276   -3.1406221  0.018029398   -4.3423276    1.2017055   439061 
 4509000   0.80138386      -4.3419      -4.3419    -3.139827  0.017038225      -4.3419     1.202073   439061 
 4510000   0.80209637   -4.3432353   -4.3432353   -3.1400935  0.017998272   -4.3432353    1.2031418   439061 
 4511000   0.80029014   -4.3421629   -4.3421629   -3.1417304  0.016567273   -4.3421629    1.2004325   439061 
 4512000   0.80170861   -4.3437703   -4.3437703   -3.1412101  0.017261311   -4.3437703    1.2025602   439061 
 4513000   0.80108992   -4.3428347   -4.3428347   -3.1412025  0.021617199   -4.3428347    1.2016321   439061 
 4514000   0.80086348   -4.3429704   -4.3429704   -3.1416779   0.01451473   -4.3429704    1.2012925   439061 
 4515000   0.80286368   -4.3443473   -4.3443473   -3.1400545   0.01844205   -4.3443473    1.2042928   439061 
 4516000   0.80242415   -4.3437231   -4.3437231   -3.1400897  0.018263581   -4.3437231    1.2036335   439061 
 4517000   0.80180437   -4.3430862   -4.3430862   -3.1403823   0.01875303   -4.3430862    1.2027038   439061 
 4518000   0.80146729   -4.3431436   -4.3431436   -3.1409454   0.01354069   -4.3431436    1.2021982   439061 
 4519000   0.80109029    -4.342799    -4.342799   -3.1411663 0.0081743777    -4.342799    1.2016327   439061 
 4520000   0.80073587   -4.3416321   -4.3416321    -3.140531  0.013517458   -4.3416321    1.2011011   439061 
 4521000   0.79863802   -4.3390198   -4.3390198   -3.1410655  0.014240409   -4.3390198    1.1979543   439061 
 4522000    0.8011973   -4.3427302   -4.3427302    -3.140937  0.013299246   -4.3427302    1.2017932   439061 
 4523000   0.80151579   -4.3424444   -4.3424444   -3.1401734  0.014171665   -4.3424444    1.2022709   439061 
 4524000   0.80072379   -4.3413035   -4.3413035   -3.1402205  0.016142297   -4.3413035    1.2010829   439061 
 4525000   0.80030312   -4.3411683   -4.3411683   -3.1407164  0.015705996   -4.3411683    1.2004519   439061 
 4526000   0.79993716   -4.3408779   -4.3408779   -3.1409749  0.014076142   -4.3408779     1.199903   439061 
 4527000   0.80019073   -4.3405953   -4.3405953    -3.140312  0.013710069   -4.3405953    1.2002834   439061 
 4528000   0.80084765   -4.3416861   -4.3416861   -3.1404174  0.014140786   -4.3416861    1.2012687   439061 
 4529000   0.80107563   -4.3424067   -4.3424067    -3.140796  0.018097318   -4.3424067    1.2016107   439061 
 4530000   0.80104595   -4.3425916   -4.3425916   -3.1410254  0.019231406   -4.3425916    1.2015662   439061 
 4531000    0.8016535   -4.3443652   -4.3443652   -3.1418877   0.01549962   -4.3443652    1.2024775   439061 
 4532000   0.80041264   -4.3440773   -4.3440773   -3.1434611  0.011641806   -4.3440773    1.2006162   439061 
 4533000   0.79971126   -4.3423198   -4.3423198   -3.1427557  0.016528152   -4.3423198    1.1995642   439061 
 4534000    0.8012078   -4.3434849   -4.3434849   -3.1416759  0.018948103   -4.3434849     1.201809   439061 
 4535000   0.80259758   -4.3453716   -4.3453716    -3.141478   0.02133673   -4.3453716    1.2038936   439061 
 4536000   0.80142998   -4.3435283   -4.3435283   -3.1413861  0.024803749   -4.3435283    1.2021422   439061 
 4537000   0.80255837   -4.3458733   -4.3458733   -3.1420385  0.018370818   -4.3458733    1.2038348   439061 
 4538000   0.80093633   -4.3437299   -4.3437299   -3.1423281  0.015930771   -4.3437299    1.2014018   439061 
 4539000   0.80171776   -4.3443092   -4.3443092   -3.1417353   0.01403978   -4.3443092    1.2025739   439061 
 4540000   0.80067599   -4.3439211   -4.3439211   -3.1429098  0.015933706   -4.3439211    1.2010112   439061 
 4541000   0.80140917   -4.3435729   -4.3435729   -3.1414619  0.012559561   -4.3435729     1.202111   439061 
 4542000   0.79991146   -4.3403727   -4.3403727   -3.1405082  0.016741874   -4.3403727    1.1998644   439061 
 4543000   0.80126877   -4.3416058   -4.3416058   -3.1397054  0.014286589   -4.3416058    1.2019004   439061 
 4544000   0.80193905   -4.3439545   -4.3439545   -3.1410487 0.0076042301   -4.3439545    1.2029058   439061 
 4545000   0.80089076   -4.3400674   -4.3400674    -3.138734  0.013749692   -4.3400674    1.2013334   439061 
 4546000   0.79990442   -4.3392806   -4.3392806   -3.1394267  0.013170893   -4.3392806    1.1998539   439061 
 4547000   0.79899442    -4.338812    -4.338812   -3.1403231  0.010185498    -4.338812    1.1984889   439061 
 4548000   0.80139613   -4.3423836   -4.3423836   -3.1402921 0.0095445592   -4.3423836    1.2020915   439061 
 4549000   0.80080957   -4.3411841   -4.3411841   -3.1399725  0.012623196   -4.3411841    1.2012116   439061 
 4550000   0.80095735   -4.3419482   -4.3419482    -3.140515  0.016232202   -4.3419482    1.2014333   439061 
 4551000   0.80158853   -4.3423977   -4.3423977   -3.1400176  0.017327466   -4.3423977    1.2023801   439061 
 4552000   0.80249425   -4.3442909   -4.3442909   -3.1405523  0.013904566   -4.3442909    1.2037386   439061 
 4553000   0.80314423    -4.345579    -4.345579   -3.1408654  0.015215926    -4.345579    1.2047136   439061 
 4554000   0.80246716   -4.3443875   -4.3443875   -3.1406895  0.017191204   -4.3443875     1.203698   439061 
 4555000   0.80086927   -4.3441892   -4.3441892   -3.1428881  0.017886767   -4.3441892    1.2013012   439061 
 4556000   0.80174915   -4.3449704   -4.3449704   -3.1423494  0.020022443   -4.3449704     1.202621   439061 
 4557000    0.8006701   -4.3437951   -4.3437951   -3.1427927  0.022440026   -4.3437951    1.2010024   439061 
 4558000   0.80127383   -4.3459482   -4.3459482   -3.1440402  0.016480712   -4.3459482     1.201908   439061 
 4559000   0.80152077   -4.3451319   -4.3451319   -3.1428535  0.015934037   -4.3451319    1.2022784   439061 
 4560000   0.80141374   -4.3449959   -4.3449959   -3.1428781  0.014955363   -4.3449959    1.2021179   439061 
 4561000   0.80200003   -4.3451309   -4.3451309   -3.1421336  0.014188155   -4.3451309    1.2029973   439061 
 4562000   0.80128124   -4.3432639   -4.3432639   -3.1413448  0.021927641   -4.3432639    1.2019191   439061 
 4563000    0.8003391   -4.3429616   -4.3429616   -3.1424557  0.016148671   -4.3429616    1.2005059   439061 
 4564000   0.80057103   -4.3439155   -4.3439155   -3.1430617  0.012442044   -4.3439155    1.2008538   439061 
 4565000   0.79927378   -4.3423646   -4.3423646   -3.1434567  0.016458207   -4.3423646    1.1989079   439061 
 4566000   0.80032842   -4.3426941   -4.3426941   -3.1422043  0.010785095   -4.3426941    1.2004899   439061 
 4567000   0.80062473   -4.3432328   -4.3432328   -3.1422984  0.013893454   -4.3432328    1.2009344   439061 
 4568000   0.80069773   -4.3423734   -4.3423734   -3.1413296  0.016066663   -4.3423734    1.2010439   439061 
 4569000   0.80123404   -4.3437059   -4.3437059   -3.1418576  0.013180825   -4.3437059    1.2018483   439061 
 4570000   0.79997911   -4.3417581   -4.3417581   -3.1417922   0.01516527   -4.3417581    1.1999659   439061 
 4571000   0.80019414   -4.3417566   -4.3417566   -3.1414681  0.013648208   -4.3417566    1.2002885   439061 
 4572000   0.79904881   -4.3410858   -4.3410858   -3.1425153  0.012558939   -4.3410858    1.1985705   439061 
 4573000   0.79961259   -4.3408849   -4.3408849   -3.1414688  0.015108219   -4.3408849    1.1994162   439061 
 4574000     0.801018   -4.3419023   -4.3419023    -3.140378  0.015916041   -4.3419023    1.2015243   439061 
 4575000   0.80185549   -4.3423407   -4.3423407   -3.1395602  0.013764451   -4.3423407    1.2027805   439061 
 4576000   0.80245599   -4.3429503   -4.3429503    -3.139269  0.015773437   -4.3429503    1.2036812   439061 
 4577000   0.80239937   -4.3417194   -4.3417194   -3.1381231  0.021696196   -4.3417194    1.2035963   439061 
 4578000   0.80213523   -4.3427786   -4.3427786   -3.1395784  0.013474875   -4.3427786    1.2032001   439061 
 4579000   0.80001041   -4.3411424   -4.3411424   -3.1411295  0.013160729   -4.3411424    1.2000129   439061 
 4580000   0.79994435   -4.3408052   -4.3408052   -3.1408914  0.014032358   -4.3408052    1.1999138   439061 
 4581000   0.80020264   -4.3417212   -4.3417212   -3.1414199  0.011227354   -4.3417212    1.2003012   439061 
 4582000   0.80145424   -4.3424783   -4.3424783   -3.1402996  0.014111246   -4.3424783    1.2021786   439061 
 4583000   0.80197981   -4.3443389   -4.3443389   -3.1413719  0.011535105   -4.3443389     1.202967   439061 
 4584000   0.80066673   -4.3420217   -4.3420217   -3.1410243  0.017662284   -4.3420217    1.2009974   439061 
 4585000   0.80266797   -4.3440105   -4.3440105   -3.1400113   0.01469891   -4.3440105    1.2039992   439061 
 4586000    0.8023465   -4.3440095   -4.3440095   -3.1404925  0.010411263   -4.3440095     1.203517   439061 
 4587000   0.80037092   -4.3416989   -4.3416989   -3.1411452  0.015968764   -4.3416989    1.2005536   439061 
 4588000   0.80075573   -4.3422912   -4.3422912   -3.1411603   0.01604521   -4.3422912    1.2011309   439061 
 4589000   0.79983792   -4.3410524   -4.3410524   -3.1412982  0.012833031   -4.3410524    1.1997541   439061 
 4590000   0.80020164   -4.3408351   -4.3408351   -3.1405354  0.011125687   -4.3408351    1.2002997   439061 
 4591000   0.80081419   -4.3400682   -4.3400682   -3.1388496  0.018466629   -4.3400682    1.2012185   439061 
 4592000   0.80030421   -4.3398956   -4.3398956    -3.139442  0.020614147   -4.3398956    1.2004536   439061 
 4593000   0.80207762   -4.3429946   -4.3429946   -3.1398809  0.016724761   -4.3429946    1.2031137   439061 
 4594000   0.80075236   -4.3405754   -4.3405754   -3.1394496  0.019672117   -4.3405754    1.2011258   439061 
 4595000   0.80227996   -4.3417476   -4.3417476   -3.1383304  0.014280589   -4.3417476    1.2034172   439061 
 4596000   0.80129673   -4.3402337   -4.3402337   -3.1382913  0.014558154   -4.3402337    1.2019424   439061 
 4597000   0.80018618   -4.3399328   -4.3399328   -3.1396562  0.015463204   -4.3399328    1.2002765   439061 
 4598000   0.80149635   -4.3413371   -4.3413371   -3.1390953  0.013789433   -4.3413371    1.2022418   439061 
 4599000   0.80127822   -4.3409178   -4.3409178   -3.1390032  0.015054811   -4.3409178    1.2019146   439061 
 4600000   0.80109319   -4.3419767   -4.3419767   -3.1403397  0.013175093   -4.3419767     1.201637   439061 
 4601000   0.80143268   -4.3409631   -4.3409631   -3.1388169  0.014066841   -4.3409631    1.2021463   439061 
 4602000   0.80122607   -4.3409231   -4.3409231   -3.1390867  0.015774765   -4.3409231    1.2018364   439061 
 4603000   0.80126116   -4.3411888   -4.3411888   -3.1392998   0.01400333   -4.3411888     1.201889   439061 
 4604000   0.80080521     -4.33969     -4.33969   -3.1384849  0.020042019     -4.33969    1.2012051   439061 
 4605000   0.80222649   -4.3416484   -4.3416484   -3.1383114  0.015570269   -4.3416484     1.203337   439061 
 4606000   0.80184318   -4.3415085   -4.3415085   -3.1387464  0.019117926   -4.3415085     1.202762   439061 
 4607000    0.8017297   -4.3413124   -4.3413124   -3.1387206  0.017261727   -4.3413124    1.2025918   439061 
 4608000   0.80174984    -4.340807    -4.340807   -3.1381849  0.014046912    -4.340807     1.202622   439061 
 4609000   0.80146188   -4.3410977   -4.3410977   -3.1389076  0.017651507   -4.3410977    1.2021901   439061 
 4610000   0.80002249   -4.3403944   -4.3403944   -3.1403634  0.015001166   -4.3403944     1.200031   439061 
 4611000   0.80004349   -4.3410927   -4.3410927   -3.1410302  0.017226376   -4.3410927    1.2000625   439061 
 4612000   0.80202896   -4.3438719   -4.3438719   -3.1408312  0.015640134   -4.3438719    1.2030407   439061 
 4613000    0.8017906   -4.3433167   -4.3433167   -3.1406336  0.016830997   -4.3433167    1.2026832   439061 
 4614000   0.80107487    -4.342486    -4.342486   -3.1408764  0.015459025    -4.342486    1.2016096   439061 
 4615000   0.80141922   -4.3435943   -4.3435943   -3.1414682  0.019759204   -4.3435943    1.2021261   439061 
 4616000   0.80121677   -4.3422447   -4.3422447   -3.1404223  0.018836268   -4.3422447    1.2018224   439061 
 4617000   0.80260064   -4.3444679   -4.3444679   -3.1405697  0.018048286   -4.3444679    1.2038982   439061 
 4618000   0.80142166   -4.3437681   -4.3437681   -3.1416384  0.022685601   -4.3437681    1.2021298   439061 
 4619000   0.80120438   -4.3430111   -4.3430111   -3.1412073  0.018457575   -4.3430111    1.2018038   439061 
 4620000   0.80091028   -4.3428784   -4.3428784   -3.1415157   0.01524473   -4.3428784    1.2013627   439061 
 4621000   0.80047923   -4.3423383   -4.3423383   -3.1416222  0.011579805   -4.3423383    1.2007161   439061 
 4622000   0.79898163    -4.341254    -4.341254   -3.1427843  0.014174305    -4.341254    1.1984697   439061 
 4623000   0.79970151   -4.3410356   -4.3410356    -3.141486  0.018555503   -4.3410356    1.1995495   439061 
 4624000   0.80050528   -4.3431979   -4.3431979   -3.1424428  0.016238897   -4.3431979    1.2007552   439061 
 4625000   0.80023069   -4.3414711   -4.3414711   -3.1411278  0.017101571   -4.3414711    1.2003433   439061 
 4626000   0.80125594   -4.3427371   -4.3427371   -3.1408559  0.018335598   -4.3427371    1.2018812   439061 
 4627000   0.80018783    -4.340263    -4.340263   -3.1399839  0.021909071    -4.340263     1.200279   439061 
 4628000   0.80108725    -4.342768    -4.342768   -3.1411399   0.01509094    -4.342768    1.2016281   439061 
 4629000   0.80012482   -4.3427017   -4.3427017   -3.1425172  0.014398029   -4.3427017    1.2001845   439061 
 4630000   0.80052393   -4.3428236   -4.3428236   -3.1420404  0.019725435   -4.3428236    1.2007832   439061 
 4631000   0.80223681   -4.3437995   -4.3437995   -3.1404471  0.013421582   -4.3437995    1.2033525   439061 
 4632000   0.80090403   -4.3414581   -4.3414581   -3.1401048  0.017054297   -4.3414581    1.2013533   439061 
 4633000   0.80197633   -4.3441585   -4.3441585   -3.1411967  0.017934536   -4.3441585    1.2029618   439061 
 4634000   0.80173084   -4.3425055   -4.3425055    -3.139912  0.015127609   -4.3425055    1.2025935   439061 
 4635000   0.80164403   -4.3430047   -4.3430047   -3.1405414  0.014733617   -4.3430047    1.2024633   439061 
 4636000   0.80065096   -4.3424773   -4.3424773   -3.1415036  0.014729986   -4.3424773    1.2009737   439061 
 4637000   0.79989899   -4.3413958   -4.3413958     -3.14155  0.015891694   -4.3413958    1.1998458   439061 
 4638000   0.80198842   -4.3434595   -4.3434595   -3.1404796   0.01638407   -4.3434595    1.2029799   439061 
 4639000   0.80163316   -4.3431939   -4.3431939    -3.140747  0.017045333   -4.3431939     1.202447   439061 
 4640000   0.80131285   -4.3416251   -4.3416251   -3.1396585  0.017793214   -4.3416251    1.2019665   439061 
 4641000   0.80146079   -4.3418342   -4.3418342   -3.1396458  0.017031603   -4.3418342    1.2021884   439061 
 4642000   0.80288028   -4.3432715   -4.3432715   -3.1389538  0.017396397   -4.3432715    1.2043177   439061 
 4643000   0.80172147   -4.3412594   -4.3412594     -3.13868  0.016391537   -4.3412594    1.2025795   439061 
 4644000   0.80143483   -4.3416715   -4.3416715    -3.139522  0.017719334   -4.3416715    1.2021495   439061 
 4645000   0.80080952   -4.3410804   -4.3410804   -3.1398688  0.022058837   -4.3410804    1.2012115   439061 
 4646000   0.80239658   -4.3441387   -4.3441387   -3.1405466   0.01115888   -4.3441387    1.2035921   439061 
 4647000   0.80199158   -4.3427326   -4.3427326    -3.139748  0.010903537   -4.3427326    1.2029846   439061 
 4648000   0.80028897   -4.3404993   -4.3404993   -3.1400686  0.013303822   -4.3404993    1.2004307   439061 
 4649000   0.80032639    -4.339625    -4.339625   -3.1391382  0.015142579    -4.339625    1.2004868   439061 
 4650000   0.80092879   -4.3402669   -4.3402669   -3.1388765  0.016546453   -4.3402669    1.2013904   439061 
 4651000   0.80147322   -4.3422448   -4.3422448   -3.1400377   0.01880146   -4.3422448    1.2022071   439061 
 4652000   0.80207312   -4.3430321   -4.3430321   -3.1399252  0.016731433   -4.3430321    1.2031069   439061 
 4653000   0.80057182   -4.3399215   -4.3399215   -3.1390665  0.018433271   -4.3399215     1.200855   439061 
 4654000   0.80334039   -4.3431688   -4.3431688   -3.1381609  0.015781646   -4.3431688    1.2050078   439061 
 4655000   0.80288634   -4.3420521   -4.3420521   -3.1377253  0.016699124   -4.3420521    1.2043268   439061 
 4656000   0.80306491   -4.3428763   -4.3428763   -3.1382817    0.0166499   -4.3428763    1.2045946   439061 
 4657000    0.8018381   -4.3407397   -4.3407397   -3.1379853  0.021439327   -4.3407397    1.2027544   439061 
 4658000   0.80058098   -4.3383517   -4.3383517    -3.137483  0.020859484   -4.3383517    1.2008687   439061 
 4659000   0.80284329   -4.3413835   -4.3413835   -3.1371213  0.013718882   -4.3413835    1.2042622   439061 
 4660000    0.8022724   -4.3414395   -4.3414395   -3.1380337  0.014084617   -4.3414395    1.2034059   439061 
 4661000   0.80183535   -4.3413086   -4.3413086   -3.1385584  0.013628393   -4.3413086    1.2027503   439061 
 4662000   0.80113664   -4.3407902   -4.3407902    -3.139088  0.017749578   -4.3407902    1.2017022   439061 
 4663000   0.80122415   -4.3407317   -4.3407317   -3.1388982  0.016685715   -4.3407317    1.2018335   439061 
 4664000    0.8024098   -4.3423015   -4.3423015   -3.1386895  0.011155895   -4.3423015     1.203612   439061 
 4665000   0.80035656   -4.3395259   -4.3395259   -3.1389938  0.012869962   -4.3395259    1.2005321   439061 
 4666000   0.80090231   -4.3402495   -4.3402495   -3.1388988  0.017002307   -4.3402495    1.2013507   439061 
 4667000    0.8010106   -4.3397222   -4.3397222   -3.1382091  0.017505285   -4.3397222    1.2015132   439061 
 4668000   0.80077405    -4.340727    -4.340727   -3.1395687  0.014285981    -4.340727    1.2011583   439061 
 4669000   0.80025676   -4.3395831   -4.3395831   -3.1392007  0.015504179   -4.3395831    1.2003824   439061 
 4670000   0.80041358   -4.3405399   -4.3405399   -3.1399223  0.016786351   -4.3405399    1.2006176   439061 
 4671000   0.80103954   -4.3423059   -4.3423059   -3.1407493  0.017779565   -4.3423059    1.2015566   439061 
 4672000   0.80224465     -4.34339     -4.34339   -3.1400257  0.015442908     -4.34339    1.2033642   439061 
 4673000   0.80138149   -4.3426888   -4.3426888   -3.1406193  0.020532681   -4.3426888    1.2020695   439061 
 4674000   0.80248701   -4.3451882   -4.3451882   -3.1414604  0.017727435   -4.3451882    1.2037278   439061 
 4675000   0.80146685    -4.343684    -4.343684   -3.1414865  0.020474172    -4.343684    1.2021975   439061 
 4676000   0.80172825   -4.3437339   -4.3437339   -3.1411443  0.019312368   -4.3437339    1.2025896   439061 
 4677000   0.80165535   -4.3428013   -4.3428013    -3.140321  0.016978246   -4.3428013    1.2024803   439061 
 4678000   0.80254618   -4.3450948   -4.3450948   -3.1412783  0.014991798   -4.3450948    1.2038165   439061 
 4679000   0.80144071   -4.3436517   -4.3436517   -3.1414933  0.016164124   -4.3436517    1.2021583   439061 
 4680000    0.8016528   -4.3433335   -4.3433335   -3.1408571  0.012468751   -4.3433335    1.2024765   439061 
 4681000   0.80048615   -4.3423725   -4.3423725    -3.141646  0.014618174   -4.3423725    1.2007265   439061 
 4682000   0.80044954   -4.3415236   -4.3415236   -3.1408521  0.013011901   -4.3415236    1.2006716   439061 
 4683000   0.80268697   -4.3437132   -4.3437132   -3.1396855 0.0093278893   -4.3437132    1.2040277   439061 
 4684000   0.80045849   -4.3407782   -4.3407782   -3.1400932  0.012416811   -4.3407782     1.200685   439061 
 4685000   0.80073008   -4.3412546   -4.3412546   -3.1401623  0.012524064   -4.3412546    1.2010924   439061 
 4686000   0.80079595   -4.3416148   -4.3416148   -3.1404236  0.014910849   -4.3416148    1.2011912   439061 
 4687000   0.80075618    -4.341201    -4.341201   -3.1400695  0.011610089    -4.341201    1.2011315   439061 
 4688000   0.80188495   -4.3415166   -4.3415166   -3.1386919  0.017113764   -4.3415166    1.2028247   439061 
 4689000   0.80220181   -4.3416636   -4.3416636   -3.1383636   0.01876142   -4.3416636       1.2033   439061 
 4690000   0.80169263    -4.341016    -4.341016   -3.1384798  0.020797042    -4.341016    1.2025362   439061 
 4691000   0.80162183   -4.3414443   -4.3414443   -3.1390143  0.017124439   -4.3414443      1.20243   439061 
 4692000   0.80018354   -4.3394422   -4.3394422   -3.1391697  0.017006549   -4.3394422    1.2002726   439061 
 4693000   0.80129628   -4.3414712   -4.3414712   -3.1395295  0.011356679   -4.3414712    1.2019417   439061 
 4694000   0.80110214   -4.3407018   -4.3407018   -3.1390513  0.014097384   -4.3407018    1.2016505   439061 
 4695000   0.80041843   -4.3403819   -4.3403819    -3.139757  0.020915149   -4.3403819    1.2006249   439061 
 4696000   0.80146882   -4.3407338   -4.3407338   -3.1385333  0.018946463   -4.3407338    1.2022005   439061 
 4697000   0.80243455   -4.3416355   -4.3416355   -3.1379864  0.018145666   -4.3416355    1.2036491   439061 
 4698000   0.80206249   -4.3406689   -4.3406689   -3.1375779  0.018049853   -4.3406689     1.203091   439061 
 4699000   0.79985218   -4.3394066   -4.3394066    -3.139631  0.015525419   -4.3394066    1.1997755   439061 
 4700000    0.7993957   -4.3397855   -4.3397855   -3.1406947  0.011527528   -4.3397855    1.1990908   439061 
 4701000   0.80083913    -4.342856    -4.342856   -3.1416001 0.0092478436    -4.342856     1.201256   439061 
 4702000   0.79995986   -4.3420299   -4.3420299   -3.1420929  0.012110062   -4.3420299     1.199937   439061 
 4703000   0.80095556   -4.3421597   -4.3421597   -3.1407291  0.012557589   -4.3421597    1.2014306   439061 
 4704000   0.80098371   -4.3418211   -4.3418211   -3.1403482  0.013180148   -4.3418211    1.2014728   439061 
 4705000   0.80140612    -4.342938    -4.342938   -3.1408316  0.012935449    -4.342938    1.2021064   439061 
 4706000   0.80112082   -4.3441238   -4.3441238   -3.1424453  0.016453518   -4.3441238    1.2016785   439061 
 4707000   0.80034426   -4.3415755   -4.3415755   -3.1410618  0.022190355   -4.3415755    1.2005137   439061 
 4708000   0.80190695   -4.3436863   -4.3436863   -3.1408286  0.017442505   -4.3436863    1.2028577   439061 
 4709000   0.80335393   -4.3455608   -4.3455608   -3.1405326  0.021405164   -4.3455608    1.2050281   439061 
 4710000   0.80282696   -4.3448749   -4.3448749   -3.1406372  0.025839269   -4.3448749    1.2042377   439061 
 4711000   0.80197133   -4.3430073   -4.3430073   -3.1400531  0.026786613   -4.3430073    1.2029543   439061 
 4712000   0.80268611   -4.3456628   -4.3456628   -3.1416364   0.01755103   -4.3456628    1.2040264   439061 
 4713000   0.80220918   -4.3440724   -4.3440724   -3.1407614  0.019264596   -4.3440724     1.203311   439061 
 4714000    0.8016817   -4.3442625   -4.3442625   -3.1417427  0.018033078   -4.3442625    1.2025198   439061 
 4715000   0.80125447    -4.343132    -4.343132   -3.1412531  0.016714622    -4.343132     1.201879   439061 
 4716000   0.80052097   -4.3401612   -4.3401612   -3.1393824  0.018192092   -4.3401612    1.2007787   439061 
 4717000   0.80110468   -4.3408519   -4.3408519   -3.1391976  0.016144242   -4.3408519    1.2016543   439061 
 4718000   0.80068452   -4.3400155   -4.3400155   -3.1389915  0.010467899   -4.3400155     1.201024   439061 
 4719000   0.79989815   -4.3377005   -4.3377005    -3.137856  0.014947655   -4.3377005    1.1998445   439061 
 4720000   0.80038534   -4.3401339   -4.3401339   -3.1395586 0.0063197652   -4.3401339    1.2005753   439061 
 4721000   0.79950091   -4.3383619   -4.3383619   -3.1391132 0.0085824295   -4.3383619    1.1992486   439061 
 4722000   0.80009835   -4.3391717   -4.3391717   -3.1390269 0.0079919334   -4.3391717    1.2001448   439061 
 4723000   0.79917089   -4.3378685   -4.3378685   -3.1391148  0.012880743   -4.3378685    1.1987536   439061 
 4724000   0.80135497   -4.3410077   -4.3410077    -3.138978 0.0085556345   -4.3410077    1.2020297   439061 
 4725000   0.80032052     -4.33987     -4.33987    -3.139392   0.01345819     -4.33987     1.200478   439061 
 4726000   0.80060924   -4.3401968   -4.3401968   -3.1392857  0.015746219   -4.3401968    1.2009111   439061 
 4727000   0.80241657   -4.3418663   -4.3418663   -3.1382442  0.021728253   -4.3418663    1.2036221   439061 
 4728000   0.80312623   -4.3430743   -4.3430743   -3.1383877  0.021277749   -4.3430743    1.2046866   439061 
 4729000   0.80320269   -4.3433101   -4.3433101   -3.1385088  0.020845733   -4.3433101    1.2048013   439061 
 4730000    0.8028978   -4.3444667   -4.3444667   -3.1401228  0.021649355   -4.3444667     1.204344   439061 
 4731000   0.80305267   -4.3455072   -4.3455072   -3.1409309  0.014040608   -4.3455072    1.2045763   439061 
 4732000   0.80193603   -4.3444883   -4.3444883    -3.141587  0.014644339   -4.3444883    1.2029013   439061 
 4733000    0.8027487   -4.3449658   -4.3449658   -3.1408455  0.015788604   -4.3449658    1.2041203   439061 
 4734000   0.79949613   -4.3402978   -4.3402978   -3.1410563  0.022675255   -4.3402978    1.1992415   439061 
 4735000    0.7998496   -4.3406663   -4.3406663   -3.1408946  0.020529374   -4.3406663    1.1997717   439061 
 4736000    0.8011401   -4.3431357   -4.3431357   -3.1414283  0.016237119   -4.3431357    1.2017074   439061 
 4737000   0.80096832   -4.3421126   -4.3421126   -3.1406628  0.012137123   -4.3421126    1.2014497   439061 
 4738000    0.7995976     -4.34088     -4.34088   -3.1414863  0.010723889     -4.34088    1.1993937   439061 
 4739000   0.79897269    -4.339987    -4.339987   -3.1415306  0.014790829    -4.339987    1.1984563   439061 
 4740000   0.80032536   -4.3424608   -4.3424608   -3.1419755 0.0095584353   -4.3424608    1.2004853   439061 
 4741000   0.79985266   -4.3407789   -4.3407789   -3.1410026  0.014946104   -4.3407789    1.1997763   439061 
 4742000   0.80212715    -4.343076    -4.343076    -3.139888  0.010761075    -4.343076     1.203188   439061 
 4743000   0.80185665    -4.342522    -4.342522   -3.1397398  0.015546299    -4.342522    1.2027822   439061 
 4744000   0.80097888   -4.3426037   -4.3426037   -3.1411381  0.015906743   -4.3426037    1.2014656   439061 
 4745000   0.80141389   -4.3425063   -4.3425063   -3.1403882  0.012553685   -4.3425063    1.2021181   439061 
 4746000   0.80340498   -4.3444637   -4.3444637    -3.139359  0.013621953   -4.3444637    1.2051047   439061 
 4747000   0.80267171   -4.3443433   -4.3443433   -3.1403385  0.017252668   -4.3443433    1.2040048   439061 
 4748000   0.80131574   -4.3426648   -4.3426648   -3.1406939   0.01945427   -4.3426648    1.2019709   439061 
 4749000   0.80142104   -4.3422573   -4.3422573   -3.1401284  0.016553527   -4.3422573    1.2021288   439061 
 4750000   0.80192362    -4.345344    -4.345344   -3.1424613  0.012342209    -4.345344    1.2028827   439061 
 4751000   0.80220577   -4.3447084   -4.3447084   -3.1414024  0.015381393   -4.3447084    1.2033059   439061 
 4752000   0.80297409   -4.3449729   -4.3449729   -3.1405145  0.013414518   -4.3449729    1.2044584   439061 
 4753000   0.80267542   -4.3453065   -4.3453065   -3.1412961  0.016099495   -4.3453065    1.2040104   439061 
 4754000    0.8014048   -4.3447059   -4.3447059   -3.1426014  0.017513527   -4.3447059    1.2021045   439061 
 4755000   0.80081862   -4.3433951   -4.3433951   -3.1421699  0.013033391   -4.3433951    1.2012252   439061 
 4756000   0.80153995   -4.3445944   -4.3445944   -3.1422872  0.013995499   -4.3445944    1.2023072   439061 
 4757000   0.80169463   -4.3451289   -4.3451289   -3.1425897  0.011605669   -4.3451289    1.2025392   439061 
 4758000   0.80045849   -4.3435775   -4.3435775   -3.1428925  0.018828069   -4.3435775     1.200685   439061 
 4759000   0.80013658   -4.3430678   -4.3430678   -3.1428657  0.018251264   -4.3430678    1.2002021   439061 
 4760000   0.80247461   -4.3438321   -4.3438321    -3.140123  0.015173577   -4.3438321    1.2037092   439061 
 4761000   0.80204121   -4.3439124   -4.3439124   -3.1408533  0.010812421   -4.3439124    1.2030591   439061 
 4762000   0.79950185   -4.3398984   -4.3398984   -3.1406483  0.020257891   -4.3398984      1.19925   439061 
 4763000    0.8009581   -4.3425006   -4.3425006   -3.1410662  0.015326738   -4.3425006    1.2014344   439061 
 4764000   0.80101905   -4.3417452   -4.3417452   -3.1402193  0.017464933   -4.3417452    1.2015258   439061 
 4765000   0.80129075   -4.3432032   -4.3432032   -3.1412698  0.015331502   -4.3432032    1.2019334   439061 
 4766000    0.8013649   -4.3426939   -4.3426939   -3.1406493   0.01100076   -4.3426939    1.2020446   439061 
 4767000   0.79988905   -4.3413285   -4.3413285   -3.1414977  0.012580462   -4.3413285    1.1998308   439061 
 4768000   0.80141651   -4.3444113   -4.3444113   -3.1422893 0.0087292543   -4.3444113     1.202122   439061 
 4769000   0.80076465   -4.3440225   -4.3440225   -3.1428782  0.013499685   -4.3440225    1.2011442   439061 
 4770000   0.80083136   -4.3425817   -4.3425817   -3.1413374  0.016521336   -4.3425817    1.2012443   439061 
 4771000   0.80207764   -4.3447078   -4.3447078   -3.1415941  0.017097296   -4.3447078    1.2031137   439061 
 4772000   0.80163443   -4.3440607   -4.3440607   -3.1416118  0.021019548   -4.3440607    1.2024489   439061 
 4773000   0.80108937   -4.3437408   -4.3437408   -3.1421095  0.015915281   -4.3437408    1.2016313   439061 
 4774000   0.80179481   -4.3442147   -4.3442147   -3.1415253   0.01591081   -4.3442147    1.2026895   439061 
 4775000   0.80173869   -4.3439675   -4.3439675   -3.1413622   0.01894463   -4.3439675    1.2026053   439061 
 4776000   0.80233512   -4.3448011   -4.3448011   -3.1413012  0.016448373   -4.3448011    1.2034999   439061 
 4777000   0.80200053   -4.3450656   -4.3450656   -3.1420675  0.016971996   -4.3450656    1.2029981   439061 
 4778000   0.80235662   -4.3458978   -4.3458978   -3.1423656   0.01738273   -4.3458978    1.2035322   439061 
 4779000   0.80088134   -4.3433773   -4.3433773   -3.1420581  0.011234296   -4.3433773    1.2013193   439061 
 4780000   0.80042328   -4.3411286   -4.3411286   -3.1404964  0.015485076   -4.3411286    1.2006322   439061 
 4781000   0.80040964   -4.3419701   -4.3419701   -3.1413583  0.016622848   -4.3419701    1.2006117   439061 
 4782000   0.80146262    -4.343742    -4.343742   -3.1415508   0.01367156    -4.343742    1.2021912   439061 
 4783000   0.80046613   -4.3425113   -4.3425113   -3.1418148  0.014299852   -4.3425113    1.2006965   439061 
 4784000    0.7994105   -4.3396399   -4.3396399   -3.1405269   0.01273973   -4.3396399     1.199113   439061 
 4785000   0.80068577   -4.3411438   -4.3411438   -3.1401179  0.011148869   -4.3411438    1.2010259   439061 
 4786000    0.8011979   -4.3425021   -4.3425021    -3.140708   0.01081941   -4.3425021    1.2017941   439061 
 4787000   0.79995565   -4.3407139   -4.3407139   -3.1407831  0.013149179   -4.3407139    1.1999307   439061 
 4788000   0.80109256   -4.3409888   -4.3409888   -3.1393527  0.017737241   -4.3409888    1.2016361   439061 
 4789000   0.80175994   -4.3416409   -4.3416409   -3.1390037  0.018166763   -4.3416409    1.2026372   439061 
 4790000   0.80152149   -4.3421734   -4.3421734   -3.1398939  0.020321583   -4.3421734    1.2022795   439061 
 4791000   0.80114835   -4.3430505   -4.3430505   -3.1413307  0.014408696   -4.3430505    1.2017198   439061 
 4792000   0.80228003   -4.3441618   -4.3441618   -3.1407445  0.014290774   -4.3441618    1.2034173   439061 
 4793000   0.80060944   -4.3427103   -4.3427103   -3.1417989  0.012207945   -4.3427103    1.2009114   439061 
 4794000   0.80190509   -4.3443195   -4.3443195   -3.1414646  0.013939891   -4.3443195    1.2028549   439061 
 4795000     0.801408   -4.3439615   -4.3439615   -3.1418523  0.016237006   -4.3439615    1.2021093   439061 
 4796000   0.80065498    -4.343836    -4.343836   -3.1428562  0.017264497    -4.343836    1.2009797   439061 
 4797000   0.80109707   -4.3439701   -4.3439701   -3.1423273  0.013856272   -4.3439701    1.2016429   439061 
 4798000   0.80184227   -4.3442692   -4.3442692   -3.1415086  0.014730051   -4.3442692    1.2027607   439061 
 4799000   0.80147249   -4.3440815   -4.3440815   -3.1418756  0.015164319   -4.3440815     1.202206   439061 
 4800000   0.80266744   -4.3462846   -4.3462846   -3.1422862  0.013721765   -4.3462846    1.2039984   439061 
 4801000   0.80121295   -4.3460005   -4.3460005   -3.1441838  0.017324406   -4.3460005    1.2018167   439061 
 4802000   0.80103933   -4.3450801   -4.3450801   -3.1435239  0.021003144   -4.3450801    1.2015563   439061 
 4803000   0.80028084   -4.3449621   -4.3449621   -3.1445435  0.013185371   -4.3449621    1.2004185   439061 
 4804000   0.80079385   -4.3451388   -4.3451388   -3.1439508  0.012252203   -4.3451388     1.201188   439061 
 4805000   0.80077046   -4.3447898   -4.3447898   -3.1436368  0.014097822   -4.3447898    1.2011529   439061 
 4806000   0.80121784   -4.3456458   -4.3456458   -3.1438217  0.015758046   -4.3456458     1.201824   439061 
 4807000   0.80171314   -4.3450734   -4.3450734   -3.1425064   0.01702888   -4.3450734     1.202567   439061 
 4808000   0.80146375   -4.3455541   -4.3455541   -3.1433612  0.012414972   -4.3455541    1.2021929   439061 
 4809000   0.80216198   -4.3453762   -4.3453762   -3.1421359  0.018359617   -4.3453762    1.2032402   439061 
 4810000   0.80096841   -4.3445028   -4.3445028   -3.1430529   0.01709255   -4.3445028    1.2014499   439061 
 4811000   0.79988818    -4.344191    -4.344191   -3.1443615 0.0082738674    -4.344191    1.1998295   439061 
 4812000   0.80070362   -4.3448772   -4.3448772   -3.1438245    0.0161792   -4.3448772    1.2010527   439061 
 4813000   0.80138427   -4.3456457   -4.3456457    -3.143572   0.01599044   -4.3456457    1.2020737   439061 
 4814000   0.80077571   -4.3447917   -4.3447917   -3.1436309  0.011153277   -4.3447917    1.2011608   439061 
 4815000   0.80093008   -4.3445522   -4.3445522   -3.1431598  0.013759919   -4.3445522    1.2013924   439061 
 4816000   0.80025714   -4.3441331   -4.3441331   -3.1437501  0.018726153   -4.3441331     1.200383   439061 
 4817000   0.80003857   -4.3455293   -4.3455293   -3.1454742  0.012492273   -4.3455293    1.2000551   439061 
 4818000   0.80018006   -4.3456272   -4.3456272   -3.1453598  0.013021614   -4.3456272    1.2002674   439061 
 4819000   0.79976512   -4.3465558   -4.3465558   -3.1469108  0.013616422   -4.3465558    1.1996449   439061 
 4820000   0.79952153    -4.345989    -4.345989   -3.1467094  0.013720202    -4.345989    1.1992796   439061 
 4821000    0.8007885   -4.3473345   -4.3473345   -3.1461545  0.014289988   -4.3473345      1.20118   439061 
 4822000     0.800779   -4.3480031   -4.3480031   -3.1468373  0.020457616   -4.3480031    1.2011658   439061 
 4823000   0.80207896    -4.349464    -4.349464   -3.1463483  0.021279982    -4.349464    1.2031157   439061 
 4824000   0.80187696   -4.3499238   -4.3499238   -3.1471111   0.01822118   -4.3499238    1.2028127   439061 
 4825000   0.79986606   -4.3476595   -4.3476595   -3.1478631  0.019870005   -4.3476595    1.1997964   439061 
 4826000   0.80102072   -4.3494506   -4.3494506   -3.1479223  0.019332264   -4.3494506    1.2015283   439061 
 4827000   0.80093583   -4.3502057   -4.3502057   -3.1488047  0.012102799   -4.3502057     1.201401   439061 
 4828000   0.80000088   -4.3476798   -4.3476798   -3.1476812  0.019419796   -4.3476798    1.1999986   439061 
 4829000   0.80164357   -4.3500868   -4.3500868   -3.1476242  0.014224925   -4.3500868    1.2024626   439061 
 4830000     0.802171    -4.350006    -4.350006   -3.1467523  0.016628061    -4.350006    1.2032538   439061 
 4831000   0.80134705   -4.3484198   -4.3484198    -3.146402  0.015374429   -4.3484198    1.2020178   439061 
 4832000    0.8012489   -4.3473852   -4.3473852   -3.1455146  0.015401522   -4.3473852    1.2018706   439061 
 4833000    0.8014398   -4.3468953   -4.3468953   -3.1447384  0.018251852   -4.3468953     1.202157   439061 
 4834000   0.80051501   -4.3450477   -4.3450477   -3.1442779  0.020316017   -4.3450477    1.2007698   439061 
 4835000   0.80129228   -4.3457779   -4.3457779   -3.1438423  0.011881463   -4.3457779    1.2019357   439061 
 4836000   0.79914298   -4.3428247   -4.3428247    -3.144113  0.015620056   -4.3428247    1.1987117   439061 
 4837000   0.80008425   -4.3451161   -4.3451161   -3.1449925 0.0090381336   -4.3451161    1.2001236   439061 
 4838000   0.80028425   -4.3443217   -4.3443217   -3.1438981  0.010036072   -4.3443217    1.2004236   439061 
 4839000   0.80010664   -4.3441018   -4.3441018   -3.1439445  0.010398196   -4.3441018    1.2001572   439061 
 4840000   0.80190184   -4.3454549   -4.3454549   -3.1426048  0.011597247   -4.3454549      1.20285   439061 
 4841000   0.80154732   -4.3453007   -4.3453007   -3.1429824  0.013370952   -4.3453007    1.2023182   439061 
 4842000   0.80067446   -4.3448386   -4.3448386   -3.1438296  0.017663682   -4.3448386     1.201009   439061 
 4843000   0.80126913   -4.3461557   -4.3461557   -3.1442548   0.01510013   -4.3461557     1.201901   439061 
 4844000   0.80088125   -4.3462653   -4.3462653   -3.1449461  0.013848274   -4.3462653    1.2013191   439061 
 4845000   0.80096547   -4.3460607   -4.3460607   -3.1446152   0.01488213   -4.3460607    1.2014455   439061 
 4846000     0.801909   -4.3477629   -4.3477629   -3.1449021   0.01733209   -4.3477629    1.2028608   439061 
 4847000    0.8010291   -4.3479564   -4.3479564   -3.1464155  0.015746553   -4.3479564    1.2015409   439061 
 4848000   0.80160963    -4.347798    -4.347798   -3.1453863  0.015692341    -4.347798    1.2024117   439061 
 4849000   0.80101615   -4.3451563   -4.3451563   -3.1436349   0.02124776   -4.3451563    1.2015215   439061 
 4850000   0.80335721   -4.3488443   -4.3488443   -3.1438112  0.015343887   -4.3488443    1.2050331   439061 
 4851000    0.8020925   -4.3461364   -4.3461364   -3.1430004  0.019472034   -4.3461364     1.203136   439061 
 4852000    0.8016948   -4.3451882   -4.3451882   -3.1426487  0.015638895   -4.3451882    1.2025395   439061 
 4853000    0.8030843   -4.3466294   -4.3466294   -3.1420057  0.017253592   -4.3466294    1.2046237   439061 
 4854000   0.80067378   -4.3435349   -4.3435349   -3.1425269  0.011831894   -4.3435349    1.2010079   439061 
 4855000   0.80128729   -4.3435805   -4.3435805   -3.1416524  0.012325724   -4.3435805    1.2019282   439061 
 4856000   0.80090231   -4.3427382   -4.3427382   -3.1413875  0.017491384   -4.3427382    1.2013507   439061 
 4857000   0.80069529    -4.341205    -4.341205   -3.1401648  0.015563296    -4.341205    1.2010402   439061 
 4858000    0.8003043   -4.3410472   -4.3410472   -3.1405935  0.012028356   -4.3410472    1.2004537   439061 
 4859000   0.80012002    -4.342161    -4.342161   -3.1419837  0.016657751    -4.342161    1.2001773   439061 
 4860000   0.80043822   -4.3421108   -4.3421108   -3.1414562 0.0090295405   -4.3421108    1.2006546   439061 
 4861000   0.80036971   -4.3420556   -4.3420556   -3.1415038 0.0048533795   -4.3420556    1.2005518   439061 
 4862000   0.80027705   -4.3421298   -4.3421298    -3.141717  0.006079029   -4.3421298    1.2004128   439061 
 4863000    0.7997336   -4.3421676   -4.3421676   -3.1425699  0.013321113   -4.3421676    1.1995977   439061 
 4864000   0.80058788   -4.3433796   -4.3433796   -3.1425005  0.012036476   -4.3433796    1.2008791   439061 
 4865000   0.79965059   -4.3424602   -4.3424602    -3.142987   0.01665058   -4.3424602    1.1994732   439061 
 4866000   0.80131774   -4.3447059   -4.3447059   -3.1427321  0.016857958   -4.3447059    1.2019739   439061 
 4867000   0.80089673   -4.3456447   -4.3456447   -3.1443023  0.017537215   -4.3456447    1.2013424   439061 
 4868000   0.80123432   -4.3462966   -4.3462966   -3.1444478  0.017836289   -4.3462966    1.2018487   439061 
 4869000   0.80208793   -4.3475399   -4.3475399   -3.1444107  0.016916524   -4.3475399    1.2031292   439061 
 4870000   0.80299965   -4.3500082   -4.3500082   -3.1455114  0.015420566   -4.3500082    1.2044967   439061 
 4871000   0.80183299   -4.3486567   -4.3486567     -3.14591  0.017969716   -4.3486567    1.2027467   439061 
 4872000   0.80142376   -4.3486414   -4.3486414   -3.1465085  0.016730021   -4.3486414    1.2021329   439061 
 4873000   0.80169967   -4.3486108   -4.3486108   -3.1460641  0.013576419   -4.3486108    1.2025468   439061 
 4874000   0.80137278   -4.3472478   -4.3472478   -3.1451913  0.019676002   -4.3472478    1.2020564   439061 
 4875000    0.8009289   -4.3471047   -4.3471047   -3.1457141  0.017197356   -4.3471047    1.2013906   439061 
 4876000   0.79996523   -4.3456657   -4.3456657   -3.1457206  0.017453531   -4.3456657    1.1999451   439061 
 4877000   0.80087951   -4.3465721   -4.3465721   -3.1452555  0.016821229   -4.3465721    1.2013165   439061 
 4878000   0.80037369   -4.3454008   -4.3454008    -3.144843  0.017663231   -4.3454008    1.2005578   439061 
 4879000   0.80069363   -4.3445381   -4.3445381   -3.1435004  0.014243633   -4.3445381    1.2010377   439061 
 4880000   0.79896827   -4.3435492   -4.3435492   -3.1450995  0.014188081   -4.3435492    1.1984497   439061 
 4881000   0.80070497    -4.344584    -4.344584   -3.1435293  0.013698559    -4.344584    1.2010547   439061 
 4882000    0.8010996    -4.344063    -4.344063   -3.1424163  0.013081693    -4.344063    1.2016467   439061 
 4883000   0.80129621   -4.3435727   -4.3435727   -3.1416311  0.014711133   -4.3435727    1.2019416   439061 
 4884000   0.80080002   -4.3438641   -4.3438641   -3.1426668  0.014045662   -4.3438641    1.2011973   439061 
 4885000   0.80063241   -4.3435458   -4.3435458   -3.1425999  0.014756501   -4.3435458    1.2009459   439061 
 4886000   0.80029735   -4.3441636   -4.3441636   -3.1437203  0.015977472   -4.3441636    1.2004433   439061 
 4887000   0.79936813   -4.3431658   -4.3431658   -3.1441163  0.012396571   -4.3431658    1.1990495   439061 
 4888000    0.7995565   -4.3429093   -4.3429093   -3.1435773  0.015172104   -4.3429093     1.199332   439061 
 4889000   0.79964894    -4.345237    -4.345237   -3.1457664  0.012223487    -4.345237    1.1994707   439061 
 4890000   0.79940859   -4.3446037   -4.3446037   -3.1454936  0.012012493   -4.3446037    1.1991102   439061 
 4891000   0.80073961    -4.347363    -4.347363   -3.1462564  0.013478809    -4.347363    1.2011067   439061 
 4892000   0.80059586   -4.3459299   -4.3459299   -3.1450388  0.014967149   -4.3459299    1.2008911   439061 
 4893000   0.80053379     -4.34672     -4.34672    -3.145922  0.021881258     -4.34672     1.200798   439061 
 4894000   0.80173797   -4.3484363   -4.3484363   -3.1458321  0.018073785   -4.3484363    1.2026042   439061 
 4895000   0.80116183   -4.3481882   -4.3481882   -3.1464482  0.019166664   -4.3481882      1.20174   439061 
 4896000   0.80164058   -4.3483103   -4.3483103   -3.1458521  0.020237026   -4.3483103    1.2024581   439061 
 4897000    0.8007971   -4.3474842   -4.3474842   -3.1462912  0.019776482   -4.3474842    1.2011929   439061 
 4898000   0.80121008   -4.3477282   -4.3477282   -3.1459158  0.019415277   -4.3477282    1.2018124   439061 
 4899000   0.80210612   -4.3483781   -4.3483781   -3.1452216  0.015622777   -4.3483781    1.2031564   439061 
 4900000   0.80038472    -4.346229    -4.346229   -3.1456547  0.016987801    -4.346229    1.2005744   439061 
 4901000    0.8007783   -4.3455114   -4.3455114   -3.1443467  0.013959191   -4.3455114    1.2011647   439061 
 4902000   0.80012947    -4.343203    -4.343203   -3.1430116  0.015218665    -4.343203    1.2001915   439061 
 4903000    0.8017804   -4.3460222   -4.3460222   -3.1433543  0.015696725   -4.3460222    1.2026679   439061 
 4904000   0.79997576    -4.343952    -4.343952   -3.1439911 0.0073186342    -4.343952    1.1999609   439061 
 4905000   0.79930937   -4.3435517   -4.3435517   -3.1445904 0.0073223058   -4.3435517    1.1989613   439061 
 4906000   0.79783845   -4.3420006   -4.3420006   -3.1452457 0.0076529308   -4.3420006     1.196755   439061 
 4907000    0.7995203   -4.3433214   -4.3433214   -3.1440437 0.0055551373   -4.3433214    1.1992777   439061 
 4908000   0.79979102   -4.3432612   -4.3432612   -3.1435774  0.010190942   -4.3432612    1.1996838   439061 
 4909000   0.80034426   -4.3431948   -4.3431948   -3.1426812  0.018215863   -4.3431948    1.2005137   439061 
 4910000   0.80178107   -4.3456701   -4.3456701   -3.1430013  0.014524143   -4.3456701    1.2026689   439061 
 4911000    0.8011062   -4.3443412   -4.3443412   -3.1426846  0.017548795   -4.3443412    1.2016566   439061 
 4912000   0.80080246   -4.3448769   -4.3448769    -3.143676  0.017095711   -4.3448769     1.201201   439061 
 4913000   0.80175223   -4.3479612   -4.3479612   -3.1453356  0.016073075   -4.3479612    1.2026256   439061 
 4914000   0.80184741   -4.3479216   -4.3479216   -3.1451533  0.020871116   -4.3479216    1.2027684   439061 
 4915000   0.80147306   -4.3470165   -4.3470165   -3.1448097  0.016486366   -4.3470165    1.2022069   439061 
 4916000   0.80057804   -4.3465885   -4.3465885   -3.1457241  0.021455268   -4.3465885    1.2008643   439061 
 4917000   0.80213707   -4.3486874   -4.3486874   -3.1454846  0.015492938   -4.3486874    1.2032029   439061 
 4918000   0.80108607   -4.3470338   -4.3470338   -3.1454074  0.019971174   -4.3470338    1.2016264   439061 
 4919000   0.80071225   -4.3469875   -4.3469875   -3.1459219  0.017844918   -4.3469875    1.2010656   439061 
 4920000   0.80140093   -4.3474326   -4.3474326    -3.145334  0.013509981   -4.3474326    1.2020987   439061 
 4921000   0.80029627   -4.3467232   -4.3467232   -3.1462815  0.014550465   -4.3467232    1.2004417   439061 
 4922000   0.80026538   -4.3466898   -4.3466898   -3.1462945  0.013329297   -4.3466898    1.2003953   439061 
 4923000   0.80019699   -4.3464625   -4.3464625   -3.1461697   0.01586827   -4.3464625    1.2002928   439061 
 4924000   0.79968758   -4.3470605   -4.3470605   -3.1475319  0.011052048   -4.3470605    1.1995286   439061 
 4925000   0.80022421   -4.3465868   -4.3465868   -3.1462532  0.015446327   -4.3465868    1.2003336   439061 
 4926000   0.79960841   -4.3458543   -4.3458543   -3.1464444  0.014816648   -4.3458543    1.1994099   439061 
 4927000   0.79837689   -4.3455278   -4.3455278   -3.1479652  0.015219486   -4.3455278    1.1975626   439061 
 4928000   0.79966156   -4.3459469   -4.3459469   -3.1464573  0.014222307   -4.3459469    1.1994896   439061 
 4929000   0.80166207   -4.3479146   -4.3479146   -3.1454242  0.014309353   -4.3479146    1.2024904   439061 
 4930000   0.80129494   -4.3472867   -4.3472867    -3.145347  0.016402371   -4.3472867    1.2019397   439061 
 4931000   0.80170672   -4.3470793   -4.3470793   -3.1445219  0.021962405   -4.3470793    1.2025573   439061 
 4932000   0.80245685   -4.3482324   -4.3482324   -3.1445498  0.017828589   -4.3482324    1.2036825   439061 
 4933000   0.80120429   -4.3469804   -4.3469804   -3.1451767  0.017982165   -4.3469804    1.2018037   439061 
 4934000     0.799605   -4.3469396   -4.3469396   -3.1475348  0.012841307   -4.3469396    1.1994048   439061 
 4935000    0.7990578   -4.3470786   -4.3470786   -3.1484946  0.014836815   -4.3470786     1.198584   439061 
 4936000    0.7994521   -4.3481933   -4.3481933   -3.1490179    0.0122405   -4.3481933    1.1991754   439061 
 4937000   0.79946451   -4.3465274   -4.3465274   -3.1473333  0.014336538   -4.3465274     1.199194   439061 
 4938000   0.79978343    -4.345746    -4.345746   -3.1460736   0.01416637    -4.345746    1.1996724   439061 
 4939000   0.80070939   -4.3472866   -4.3472866   -3.1462252  0.012772471   -4.3472866    1.2010614   439061 
 4940000   0.79935085   -4.3459541   -4.3459541   -3.1469305  0.020601965   -4.3459541    1.1990235   439061 
 4941000   0.80091719   -4.3485963   -4.3485963   -3.1472233  0.013907612   -4.3485963     1.201373   439061 
 4942000   0.80160529   -4.3475339   -4.3475339   -3.1451287  0.017085835   -4.3475339    1.2024052   439061 
 4943000   0.79985416    -4.346008    -4.346008   -3.1462294  0.013383876    -4.346008    1.1997785   439061 
 4944000   0.79972071   -4.3474488   -4.3474488   -3.1478705   0.01127856   -4.3474488    1.1995783   439061 
 4945000   0.80007338   -4.3470163   -4.3470163   -3.1469089  0.015102872   -4.3470163    1.2001073   439061 
 4946000   0.80037857   -4.3471755   -4.3471755   -3.1466103  0.013751123   -4.3471755    1.2005651   439061 
 4947000    0.8009961   -4.3481255   -4.3481255   -3.1466341  0.018120434   -4.3481255    1.2014914   439061 
 4948000   0.80087831   -4.3484272   -4.3484272   -3.1471125  0.018425171   -4.3484272    1.2013147   439061 
 4949000   0.80050904   -4.3476791   -4.3476791   -3.1469183  0.019438505   -4.3476791    1.2007608   439061 
 4950000    0.8004978   -4.3484036   -4.3484036   -3.1476597  0.016663135   -4.3484036     1.200744   439061 
 4951000   0.80060303   -4.3481846   -4.3481846   -3.1472828  0.016786317   -4.3481846    1.2009018   439061 
 4952000    0.8000338   -4.3472043   -4.3472043   -3.1471563  0.020213881   -4.3472043     1.200048   439061 
 4953000   0.80008186   -4.3478379   -4.3478379   -3.1477178  0.014466992   -4.3478379    1.2001201   439061 
 4954000   0.80026564   -4.3464519   -4.3464519   -3.1460562  0.015601196   -4.3464519    1.2003957   439061 
 4955000   0.80099504   -4.3483695   -4.3483695   -3.1468797  0.014264894   -4.3483695    1.2014898   439061 
 4956000   0.80068533   -4.3482328   -4.3482328   -3.1472076  0.015686699   -4.3482328    1.2010253   439061 
 4957000   0.79992157   -4.3471626   -4.3471626   -3.1472829  0.016064699   -4.3471626    1.1998796   439061 
 4958000   0.80005738   -4.3456106   -4.3456106   -3.1455272  0.022546216   -4.3456106    1.2000833   439061 
 4959000   0.80052669   -4.3466783   -4.3466783    -3.145891  0.017608547   -4.3466783    1.2007873   439061 
 4960000   0.80114651   -4.3466033   -4.3466033   -3.1448862  0.014383314   -4.3466033     1.201717   439061 
 4961000   0.80188325   -4.3482282   -4.3482282    -3.145406  0.014465107   -4.3482282    1.2028221   439061 
 4962000   0.80068088   -4.3461348   -4.3461348   -3.1451162   0.01597217   -4.3461348    1.2010186   439061 
 4963000   0.80000918   -4.3467653   -4.3467653   -3.1467542   0.01092886   -4.3467653     1.200011   439061 
 4964000   0.80030989   -4.3454965   -4.3454965   -3.1450344  0.012170457   -4.3454965    1.2004621   439061 
 4965000    0.7998667   -4.3446368   -4.3446368   -3.1448395  0.011636531   -4.3446368    1.1997973   439061 
 4966000    0.8000246   -4.3443187   -4.3443187   -3.1442846  0.015924157   -4.3443187    1.2000342   439061 
 4967000   0.80005781   -4.3450147   -4.3450147   -3.1449307  0.014578451   -4.3450147     1.200084   439061 
 4968000   0.80165767   -4.3463757   -4.3463757   -3.1438919   0.01570726   -4.3463757    1.2024838   439061 
 4969000   0.80038436   -4.3444117   -4.3444117   -3.1438379   0.01255623   -4.3444117    1.2005738   439061 
 4970000   0.80031941   -4.3451456   -4.3451456   -3.1446693  0.016257295   -4.3451456    1.2004764   439061 
 4971000   0.80253137   -4.3494211   -4.3494211   -3.1456268  0.014397402   -4.3494211    1.2037943   439061 
 4972000   0.80090095   -4.3478178   -4.3478178   -3.1464691  0.017059485   -4.3478178    1.2013487   439061 
 4973000   0.80054989   -4.3468907   -4.3468907   -3.1460686   0.01854461   -4.3468907    1.2008221   439061 
 4974000   0.80009872   -4.3473048   -4.3473048   -3.1471595  0.020925852   -4.3473048    1.2001453   439061 
 4975000   0.79991882    -4.346187    -4.346187   -3.1463115  0.017910656    -4.346187    1.1998755   439061 
 4976000   0.79855458   -4.3455606   -4.3455606   -3.1477314  0.015924345   -4.3455606    1.1978291   439061 
 4977000   0.80044656   -4.3486153   -4.3486153   -3.1479482  0.015326579   -4.3486153    1.2006671   439061 
 4978000   0.80000001   -4.3476369   -4.3476369   -3.1476396  0.016087201   -4.3476369    1.1999973   439061 
 4979000   0.80059126   -4.3483423   -4.3483423   -3.1474581  0.013503469   -4.3483423    1.2008841   439061 
 4980000   0.80183249   -4.3499881   -4.3499881   -3.1472421 0.0094815142   -4.3499881     1.202746   439061 
 4981000   0.80132808   -4.3483648   -4.3483648   -3.1463754  0.016749401   -4.3483648    1.2019894   439061 
 4982000    0.8007014   -4.3469067   -4.3469067   -3.1458573  0.018800401   -4.3469067    1.2010494   439061 
 4983000    0.8009173   -4.3465235   -4.3465235   -3.1451503   0.01459667   -4.3465235    1.2013732   439061 
 4984000   0.80044965   -4.3454869   -4.3454869   -3.1448152  0.018212706   -4.3454869    1.2006717   439061 
 4985000    0.8001786   -4.3452972   -4.3452972    -3.145032  0.013716235   -4.3452972    1.2002652   439061 
 4986000   0.80073217   -4.3451723   -4.3451723   -3.1440767  0.010239867   -4.3451723    1.2010955   439061 
 4987000   0.80066822   -4.3449488   -4.3449488   -3.1439492   0.01590144   -4.3449488    1.2009996   439061 
 4988000   0.80092451   -4.3458309   -4.3458309   -3.1444469  0.012501089   -4.3458309     1.201384   439061 
 4989000   0.80024697   -4.3443341   -4.3443341   -3.1439663  0.013848714   -4.3443341    1.2003677   439061 
 4990000   0.80055626   -4.3437074   -4.3437074   -3.1428758  0.013406938   -4.3437074    1.2008317   439061 
 4991000   0.80088946   -4.3434593   -4.3434593   -3.1421279  0.009965589   -4.3434593    1.2013315   439061 
 4992000    0.8014341   -4.3435714   -4.3435714    -3.141423   0.01407372   -4.3435714    1.2021484   439061 
 4993000   0.80154367   -4.3421968   -4.3421968   -3.1398841  0.017768773   -4.3421968    1.2023128   439061 
 4994000   0.80027552   -4.3414415   -4.3414415   -3.1410309  0.022997795   -4.3414415    1.2004105   439061 
 4995000   0.80082687   -4.3432077   -4.3432077   -3.1419701  0.021347573   -4.3432077    1.2012376   439061 
 4996000   0.79994704   -4.3414106   -4.3414106   -3.1414928  0.016755156   -4.3414106    1.1999178   439061 
 4997000   0.80049065   -4.3412726   -4.3412726   -3.1405393  0.013971528   -4.3412726    1.2007332   439061 
 4998000   0.80135919   -4.3437449   -4.3437449   -3.1417089  0.013151356   -4.3437449     1.202036   439061 
 4999000   0.80067294   -4.3436212   -4.3436212   -3.1426145  0.014830792   -4.3436212    1.2010067   439061 
 5000000   0.80189771   -4.3449948   -4.3449948    -3.142151  0.020474661   -4.3449948    1.2028438   439061 
Loop time of 27778.9 on 64 procs for 5000000 steps with 439061 atoms

Performance: 77756.979 tau/day, 179.993 timesteps/s
98.8% CPU use with 64 MPI tasks x 1 OpenMP threads

MPI task timing breakdown:
Section |  min time  |  avg time  |  max time  |%varavg|  %CPU | %total
-----------------------------------------------------------------------
Pair    | 9805.4     | 14921      | 16172      |1534.8 |  98.6 | 53.71
Bond    | 1.9708     | 3.3549     | 6.718      |  87.1 | 100.0 |  0.01
Neigh   | 3574.2     | 5126.6     | 5445       | 786.1 |  99.6 | 18.46
Comm    | 3989.6     | 6241.2     | 13086      |3271.9 |  98.1 | 22.47
Output  | 207.96     | 208.28     | 208.33     |   0.3 |  99.0 |  0.75
Modify  | 516.49     | 879.41     | 2240       |2101.2 |  99.3 |  3.17
Other   |            | 399.3      |            |       |       |  1.44

Nlocal:        6860.33 ave        7449 max        6188 min
Histogram: 1 0 0 2 4 54 1 0 1 1
Nghost:        7639.77 ave        8352 max        5616 min
Histogram: 16 0 0 0 0 0 0 0 0 48
Neighs:       242064.0 ave      254476 max      161349 min
Histogram: 1 0 4 1 1 1 0 0 0 56

Total # of neighbors = 15492111
Ave neighs/atom = 35.284644
Ave special neighs/atom = 0.0000000
Neighbor list builds = 500000
Dangerous builds = 495000
write_data	data.lj
System init for write_data ...
WARNING: Not all mixed pair coeffs generated from mixing. Use write_data with 'pair ij' option to store all pair coeffs. (src/write_data.cpp:312)


## Evaporation
#region          regevap block EDGE EDGE EDGE EDGE 140 EDGE units box
#fix             4 solvent evaporate ${evap} 1 regevap 156415

#run 		20000000
Total wall time: 7:43:02
