LAMMPS (24 Dec 2020)
OMP_NUM_THREADS environment is not set. Defaulting to 1 thread. (src/comm.cpp:94)
  using 1 OpenMP thread(s) per MPI task
# Simple rigid body system
# needed variables: startTemp, temp

units		lj
atom_style	full
dimension 	3
boundary	p p f
pair_style	lj/cut/opt 2.5

variable 	gcmcdisplace	equal 0
variable 	sigma		equal 1.0
variable 	epsilon 	equal 1.0


read_restart	restart.dat.3000000
Reading restart file ...
  restart file = 24 Dec 2020, LAMMPS = 24 Dec 2020
WARNING: Restart file used different # of processors: 48 vs. 192 (src/read_restart.cpp:697)
  restoring atom style full from restart
  orthogonal box = (0.0000000 0.0000000 0.0000000) to (80.000000 80.000000 160.00000)
  6 by 4 by 8 MPI processor grid
  restoring pair style lj/cut/opt from restart
  439061 atoms
Finding 1-2 1-3 1-4 neighbors ...
  special bond factors lj:    0        0        0       
  special bond factors coul:  0        0        0       
     0 = max # of 1-2 neighbors
     0 = max # of 1-3 neighbors
     0 = max # of 1-4 neighbors
     1 = max # of special neighbors
  special bonds CPU = 1.419 seconds
  read_restart CPU = 1.706 seconds

mass		1 1.0
mass		2 1.0
mass		3 1.0


group		solvent type 1
439061 atoms in group solvent


neighbor 	0.4 bin

pair_coeff	1 1 1.0 1.0
pair_coeff	2 2 0.0 0.0
pair_coeff	3 3 0.0 0.0
pair_coeff	2 3 0.0 0.0
pair_coeff	1 2*3 0.0 0.0

pair_modify 	shift yes


balance 	1.05 shift z 10 1.05
Balancing ...
Neighbor list info ...
  update every 1 steps, delay 10 steps, check yes
  max neighbors/atom: 2000, page size: 100000
  master list distance cutoff = 2.9
  ghost atom cutoff = 2.9
  binsize = 1.45, bins = 56 56 111
  1 neighbor lists, perpetual/occasional/extra = 1 0 0
  (1) pair lj/cut/opt, perpetual
      attributes: half, newton on
      pair build: half/bin/newton
      stencil: half/bin/3d/newton
      bin: standard
 rebalancing time: 0.025 seconds
  iteration count = 5
  initial/final maximal load/proc = 3162.0000 2575.0000
  initial/final imbalance factor  = 1.3827327 1.1260394
  x cuts: 0.0000000 0.16666667 0.33333333 0.50000000 0.66666667 0.83333333 1.0000000
  y cuts: 0.0000000 0.25000000 0.50000000 0.75000000 1.0000000
  z cuts: 0.0000000 0.097656250 0.18359375 0.27734375 0.37890625 0.47656250 0.57031250 0.67968750 1.0000000


####################### WALLS ###########################


variable       epsilonWall equal 2*${epsilon}
variable       epsilonWall equal 2*1

variable       cutoffTop   equal   0.7147*${sigma}
variable       cutoffTop   equal   0.7147*1

variable       cutoffLow   equal   3*${sigma}
variable       cutoffLow   equal   3*1


fix            topWall all wall/lj93 zhi EDGE                ${epsilonWall} ${sigma} ${cutoffTop} units box
fix            topWall all wall/lj93 zhi EDGE                2 ${sigma} ${cutoffTop} units box
fix            topWall all wall/lj93 zhi EDGE                2 1 ${cutoffTop} units box
fix            topWall all wall/lj93 zhi EDGE                2 1 0.7147 units box

fix            lowWall all wall/lj93 zlo EDGE                ${epsilonWall} ${sigma} ${cutoffLow} units box
fix            lowWall all wall/lj93 zlo EDGE                2 ${sigma} ${cutoffLow} units box
fix            lowWall all wall/lj93 zlo EDGE                2 1 ${cutoffLow} units box
fix            lowWall all wall/lj93 zlo EDGE                2 1 3 units box


###################### COMPUTES ##########################

compute        bin1 solvent chunk/atom bin/1d z upper 1.0



######################	FIXES ############################


fix 		peclet solvent ave/chunk 1000 1 1000 bin1 density/number norm 		 none ave one file density.profile

fix 		 temp solvent ave/chunk 1000 1 1000 bin1 temp norm none ave one file temp.profile

fix 		2 solvent nve

## Thermostat


region		regthermo block EDGE EDGE EDGE EDGE 0 20

group 		thermo dynamic solvent region regthermo every 1000
dynamic group thermo defined

fix 		3 thermo langevin ${startTemp} ${temp} 10 156453
fix 		3 thermo langevin 1.0 ${temp} 10 156453
fix 		3 thermo langevin 1.0 1.0 10 156453


## Evaporation

region		regevap block EDGE EDGE EDGE EDGE 140 158
fix 		gcmc solvent gcmc 100 100 0 1 780493 ${temp} ${mu} ${gcmcdisplace} region regevap
fix 		gcmc solvent gcmc 100 100 0 1 780493 1.0 ${mu} ${gcmcdisplace} region regevap
fix 		gcmc solvent gcmc 100 100 0 1 780493 1.0 -2 ${gcmcdisplace} region regevap
fix 		gcmc solvent gcmc 100 100 0 1 780493 1.0 -2 0 region regevap


#### Load balancing

fix 		bal all balance 1000 1.05 shift z 10 1.05

############### Diagnostics and computes ###################
#compute 	com cube	  rigid/local	1 mol x y z
#compute 	quat cube	  rigid/local	1 mol quatw quati quatj quatk

thermo 		1000
thermo_style 	custom step temp epair etotal press pe ke atoms

dump		1 all custom 100000 dump.lammpstrj id mol type x y z
dump 		2 all image 10000 image.*.png type type
dump 		3 all movie 1000 movie.avi type type
#dump 		com cube local 1000 dump.*.xyz c_com[*]
#dump		quat cube      local 1000 dump.*.quat c_quat[*]


restart 	1000000 restart.dat
timestep 	0.005
timer 		full
New timer settings: style=full  mode=nosync  timeout=off


run		5000000
Per MPI rank memory allocation (min/avg/max) = 9.923 | 9.986 | 10.01 Mbytes
Step Temp E_pair TotEng Press PotEng KinEng Atoms 
 3000000     1.016004   -3.1352716   -1.6112691  0.079025997   -3.1352716    1.5240025   439061 
 3001000    1.0155274   -3.1338042   -1.6111685  0.074527867   -3.1338042    1.5226356   439249 
 3002000    1.0169749     -3.13498   -1.6108714  0.077102308     -3.13498    1.5241086   439450 
 3003000    1.0158396   -3.1321317   -1.6103688  0.075580768   -3.1321317    1.5217629   439636 
 3004000    1.0162766   -3.1316877   -1.6099036  0.077535532   -3.1316877    1.5217842   439819 
 3005000    1.0178887   -3.1324219   -1.6089615  0.076406942   -3.1324219    1.5234604   440032 
 3006000    1.0190884   -3.1326009   -1.6079166  0.074571401   -3.1326009    1.5246842   440197 
 3007000    1.0189893   -3.1312439   -1.6072861  0.077848403   -3.1312439    1.5239578   440364 
 3008000    1.0184998   -3.1294313   -1.6068867  0.075248389   -3.1294313    1.5225446   440561 
 3009000    1.0194907   -3.1297504    -1.606264  0.074481901   -3.1297504    1.5234865   440717 
 3010000    1.0189143   -3.1282385   -1.6062868  0.078400346   -3.1282385    1.5219517   440912 
 3011000     1.020611   -3.1287394   -1.6050205  0.077892991   -3.1287394    1.5237189   441134 
 3012000    1.0242683    -3.130364   -1.6017879  0.078002733    -3.130364    1.5285761   441308 
 3013000    1.0240372   -3.1284503   -1.6008871  0.077665943   -3.1284503    1.5275632   441501 
 3014000    1.0255512   -3.1277306   -1.5986086  0.077145922   -3.1277306     1.529122   441703 
 3015000    1.0267523   -3.1287143   -1.5985254  0.080888471   -3.1287143    1.5301888   441912 
 3016000    1.0273923   -3.1293235   -1.5986935  0.081035092   -3.1293235      1.53063   442060 
 3017000    1.0271107   -3.1273669   -1.5977897  0.082636496   -3.1273669    1.5295773   442243 
 3018000    1.0307277   -3.1314307    -1.597147   0.08163765   -3.1314307    1.5342837   442439 
 3019000     1.028995   -3.1276216   -1.5967405  0.083368812   -3.1276216    1.5308811   442677 
 3020000     1.030217    -3.127061   -1.5950264  0.088728125    -3.127061    1.5320346   442869 
 3021000     1.031051   -3.1273116   -1.5946459  0.085895248   -3.1273116    1.5326657   443045 
 3022000    1.0299663   -3.1259248   -1.5955174  0.083679491   -3.1259248    1.5304074   443232 
 3023000    1.0320161   -3.1285989   -1.5956888  0.080828029   -3.1285989    1.5329101   443389 
 3024000    1.0335705   -3.1274729   -1.5928562  0.081210858   -3.1274729    1.5346167   443563 
 3025000    1.0313149   -3.1244308   -1.5939532  0.087094006   -3.1244308    1.5304775   443792 
 3026000    1.0344056   -3.1270723    -1.592596   0.08509353   -3.1270723    1.5344763   443962 
 3027000     1.036125     -3.12917    -1.592669  0.082206031     -3.12917    1.5365009   444114 
 3028000    1.0358645   -3.1278264   -1.5923307  0.083940582   -3.1278264    1.5354957   444293 
 3029000    1.0362483   -3.1272402   -1.5917907  0.088107329   -3.1272402    1.5354496   444471 
 3030000    1.0356939   -3.1270694   -1.5930662  0.091732453   -3.1270694    1.5340033   444652 
 3031000    1.0367224   -3.1271756   -1.5923186  0.086792754   -3.1271756    1.5348571   444846 
 3032000     1.038389   -3.1279841   -1.5913367  0.086485813   -3.1279841    1.5366473   445042 
 3033000    1.0381923   -3.1268423   -1.5911831  0.086969258   -3.1268423    1.5356592   445244 
 3034000    1.0380311   -3.1249153   -1.5901082  0.090343815   -3.1249153    1.5348072   445422 
 3035000    1.0385159   -3.1246368   -1.5897331  0.087773092   -3.1246368    1.5349037   445602 
 3036000    1.0382146   -3.1253643   -1.5914739  0.089686532   -3.1253643    1.5338904   445767 
 3037000    1.0391351   -3.1258185   -1.5910708  0.090214275   -3.1258185    1.5347477   445913 
 3038000    1.0393252   -3.1249953   -1.5905346    0.0917618   -3.1249953    1.5344607   446078 
 3039000    1.0398249   -3.1254749   -1.5907614  0.083617942   -3.1254749    1.5347134   446219 
 3040000    1.0398722   -3.1243314   -1.5901464  0.094678039   -3.1243314    1.5341849   446393 
 3041000      1.04217   -3.1266037   -1.5897001  0.088989377   -3.1266037    1.5369037   446588 
 3042000    1.0416173   -3.1259672     -1.59047  0.089505677   -3.1259672    1.5354971   446760 
 3043000    1.0439699   -3.1263022   -1.5880496  0.087242246   -3.1263022    1.5382526   446967 
 3044000    1.0431904   -3.1236906   -1.5870816  0.090208387   -3.1236906    1.5366089   447111 
 3045000    1.0441156   -3.1251961   -1.5878089  0.089364209   -3.1251961    1.5373872   447281 
 3046000    1.0442233   -3.1245683   -1.5875929  0.087700869   -3.1245683    1.5369754   447447 
 3047000    1.0442236   -3.1249683   -1.5885316  0.087737044   -3.1249683    1.5364367   447604 
 3048000    1.0463591   -3.1263327   -1.5874139  0.088591262   -3.1263327    1.5389187   447796 
 3049000    1.0449754   -3.1233032   -1.5870337  0.093161512   -3.1233032    1.5362695   447975 
 3050000    1.0472591   -3.1241221   -1.5851341  0.094916497   -3.1241221    1.5389879   448161 
 3051000    1.0480265   -3.1238933   -1.5844063  0.094418506   -3.1238933     1.539487   448344 
 3052000    1.0499563   -3.1245787   -1.5827762  0.088584927   -3.1245787    1.5418025   448495 
 3053000    1.0487278    -3.124294   -1.5848103  0.094056679    -3.124294    1.5394837   448645 
 3054000     1.049419   -3.1240039   -1.5841406  0.089159492   -3.1240039    1.5398633   448830 
 3055000    1.0484276   -3.1210939   -1.5832815  0.087671776   -3.1210939    1.5378124   449004 
 3056000    1.0500366   -3.1224649   -1.5828548  0.089126894   -3.1224649    1.5396101   449168 
 3057000    1.0505227   -3.1221837   -1.5825395   0.09408641   -3.1221837    1.5396442   449366 
 3058000    1.0514444   -3.1219858   -1.5815529  0.093138159   -3.1219858    1.5404329   449530 
 3059000    1.0519116   -3.1203906   -1.5799347  0.093171437   -3.1203906    1.5404559   449723 
 3060000    1.0524878   -3.1211676   -1.5805428  0.091879709   -3.1211676    1.5406248   449920 
 3061000    1.0537213   -3.1201232   -1.5782616  0.092344493   -3.1201232    1.5418616   450086 
 3062000    1.0522656   -3.1179535    -1.578735  0.091985771   -3.1179535    1.5392185   450236 
 3063000    1.0544717   -3.1200708   -1.5782006  0.093038819   -3.1200708    1.5418702   450404 
 3064000     1.054049   -3.1171536   -1.5765651  0.092218428   -3.1171536    1.5405885   450598 
 3065000    1.0544413   -3.1173403   -1.5767732  0.091512985   -3.1173403    1.5405671   450772 
 3066000    1.0547734   -3.1163802   -1.5759533  0.091539264   -3.1163802    1.5404269   450955 
 3067000     1.056316      -3.1178   -1.5756776  0.090954637      -3.1178    1.5421224   451118 
 3068000    1.0560548   -3.1167756   -1.5755983  0.094738053   -3.1167756    1.5411773   451283 
 3069000    1.0566416    -3.116208   -1.5746287  0.090673056    -3.116208    1.5415794   451416 
 3070000    1.0553533   -3.1146636   -1.5753593  0.092177519   -3.1146636    1.5393043   451532 
 3071000    1.0545735   -3.1131461   -1.5755275  0.087833255   -3.1131461    1.5376185   451693 
 3072000    1.0564762   -3.1143198    -1.574561  0.090006983   -3.1143198    1.5397588   451879 
 3073000    1.0576746   -3.1143485   -1.5733648  0.093076129   -3.1143485    1.5409837   452032 
 3074000    1.0573905   -3.1137362   -1.5737252  0.090579092   -3.1137362     1.540011   452196 
 3075000    1.0591834   -3.1147023   -1.5726734  0.094509734   -3.1147023    1.5420289   452370 
 3076000    1.0592343   -3.1135485   -1.5720146  0.089648548   -3.1135485    1.5415339   452537 
 3077000    1.0594538   -3.1127867   -1.5714817  0.089538869   -3.1127867     1.541305   452698 
 3078000    1.0614485   -3.1152293   -1.5715509  0.097271741   -3.1152293    1.5436783   452853 
 3079000    1.0602643    -3.113243   -1.5717735  0.088574175    -3.113243    1.5414695   452996 
 3080000    1.0602928   -3.1132757   -1.5723635  0.096073636   -3.1132757    1.5409122   453172 
 3081000    1.0607617    -3.113218   -1.5721617  0.094134681    -3.113218    1.5410563   453330 
 3082000    1.0618753    -3.114379   -1.5723343  0.091633393    -3.114379    1.5420447   453515 
 3083000    1.0627651   -3.1139886   -1.5711959  0.097094158   -3.1139886    1.5427926   453675 
 3084000    1.0647072     -3.11613   -1.5711787  0.091789217     -3.11613    1.5449513   453869 
 3085000    1.0664388   -3.1164756   -1.5695944  0.096170677   -3.1164756    1.5468812   454040 
 3086000    1.0642338    -3.112296   -1.5692555   0.09958679    -3.112296    1.5430404   454229 
 3087000    1.0660991   -3.1152701   -1.5699979  0.091158956   -3.1152701    1.5452721   454368 
 3088000    1.0677549   -3.1139129   -1.5667447  0.099314608   -3.1139129    1.5471681   454516 
 3089000    1.0682692   -3.1127216   -1.5653665  0.098672023   -3.1127216    1.5473551   454680 
 3090000    1.0683613   -3.1111071   -1.5642071  0.095645922   -3.1111071       1.5469   454853 
 3091000    1.0697849   -3.1130189   -1.5645786   0.10349097   -3.1130189    1.5484403   455006 
 3092000    1.0716893   -3.1153451   -1.5647277  0.096069451   -3.1153451    1.5506174   455176 
 3093000    1.0713882   -3.1138129   -1.5642302   0.10014592   -3.1138129    1.5495827   455352 
 3094000    1.0703114   -3.1115824   -1.5640431   0.10084656   -3.1115824    1.5475393   455495 
 3095000    1.0706114   -3.1112281   -1.5637613  0.093379568   -3.1112281    1.5474668   455644 
 3096000    1.0710592   -3.1092579   -1.5616533   0.10429107   -3.1092579    1.5476046   455794 
 3097000    1.0705871   -3.1090779   -1.5626474  0.099956674   -3.1090779    1.5464305   455939 
 3098000    1.0726968   -3.1098495   -1.5609118   0.10158222   -3.1098495    1.5489377   456098 
 3099000    1.0719546   -3.1084245   -1.5610776   0.10006277   -3.1084245     1.547347   456251 
 3100000    1.0724543   -3.1086849   -1.5611492  0.098008943   -3.1086849    1.5475357   456408 
 3101000    1.0720404   -3.1096311   -1.5630992  0.096075423   -3.1096311    1.5465319   456528 
 3102000    1.0707108   -3.1085882    -1.564448   0.10023812   -3.1085882    1.5441402   456668 
 3103000    1.0711862   -3.1073775   -1.5631097  0.097125259   -3.1073775    1.5442678   456833 
 3104000    1.0737958   -3.1108028   -1.5632573  0.094777186   -3.1108028    1.5475455   456976 
 3105000    1.0729993   -3.1088184   -1.5629079  0.093639776   -3.1088184    1.5459104   457120 
 3106000      1.07251   -3.1090196   -1.5642938  0.090969586   -3.1090196    1.5447257   457262 
 3107000     1.072888   -3.1084015   -1.5636246  0.097679892   -3.1084015    1.5447769   457408 
 3108000    1.0742378   -3.1090649   -1.5628077  0.093623233   -3.1090649    1.5462573   457545 
 3109000    1.0747317   -3.1077195   -1.5612042   0.09895151   -3.1077195    1.5465153   457679 
 3110000    1.0760513   -3.1090189   -1.5609431  0.099137616   -3.1090189    1.5480759   457779 
 3111000    1.0767525    -3.108717   -1.5601025  0.099887164    -3.108717    1.5486144   457918 
 3112000    1.0766519   -3.1079235   -1.5598898  0.095781113   -3.1079235    1.5480337   458047 
 3113000     1.075947   -3.1058708   -1.5593402   0.10012435   -3.1058708    1.5465306   458192 
 3114000    1.0791042   -3.1098401   -1.5593366   0.10083146   -3.1098401    1.5505035   458359 
 3115000    1.0808509   -3.1097139   -1.5572019  0.099830427   -3.1097139     1.552512   458507 
 3116000    1.0795405   -3.1064823   -1.5563157    0.1073666   -3.1064823    1.5501666   458644 
 3117000    1.0819162   -3.1107343   -1.5575628  0.099839593   -3.1107343    1.5531715   458764 
 3118000    1.0812781   -3.1083524   -1.5565366   0.10407481   -3.1083524    1.5518158   458894 
 3119000    1.0816599   -3.1080653    -1.556094   0.10395885   -3.1080653    1.5519713   459010 
 3120000    1.0829293    -3.109738   -1.5565104  0.099733591    -3.109738    1.5532276   459177 
 3121000    1.0822495   -3.1088981   -1.5572369  0.098037782   -3.1088981    1.5516612   459352 
 3122000    1.0818224   -3.1078589   -1.5572319   0.10108465   -3.1078589     1.550627   459477 
 3123000    1.0833043   -3.1086285    -1.556472  0.095989644   -3.1086285    1.5521565   459653 
 3124000    1.0818846   -3.1071901   -1.5574454   0.10395606   -3.1071901    1.5497447   459765 
 3125000     1.082046   -3.1070537   -1.5576137  0.099370022   -3.1070537      1.54944   459924 
 3126000    1.0827171   -3.1067346   -1.5568053  0.095195672   -3.1067346    1.5499292   460064 
 3127000    1.0830342   -3.1067863   -1.5569119  0.095582716   -3.1067863    1.5498745   460215 
 3128000    1.0826017   -3.1056472   -1.5567954  0.099303136   -3.1056472    1.5488518   460335 
 3129000     1.081867   -3.1032267   -1.5558732  0.098760403   -3.1032267    1.5473535   460468 
 3130000    1.0837392   -3.1037297   -1.5542167    0.1020256   -3.1037297     1.549513   460622 
 3131000    1.0853573   -3.1045104   -1.5532698   0.10261125   -3.1045104    1.5512406   460796 
 3132000    1.0852256    -3.104709   -1.5540873  0.095353016    -3.104709    1.5506217   460924 
 3133000    1.0847629   -3.1021632   -1.5526263   0.10090041   -3.1021632    1.5495369   461050 
 3134000    1.0856957   -3.1033286   -1.5528393   0.10268361   -3.1033286    1.5504893   461163 
 3135000    1.0866334   -3.1038924    -1.552508   0.10624414   -3.1038924    1.5513844   461295 
 3136000    1.0877017   -3.1040952   -1.5517778  0.098668078   -3.1040952    1.5523175   461471 
 3137000     1.088832   -3.1041748     -1.55084   0.10825634   -3.1041748    1.5533348   461648 
 3138000    1.0894371   -3.1047331   -1.5511005  0.099484633   -3.1047331    1.5536326   461816 
 3139000    1.0882487   -3.1020436   -1.5505695  0.099587339   -3.1020436    1.5514742   461954 
 3140000    1.0880415    -3.101849    -1.551073  0.097667344    -3.101849    1.5507759   462074 
 3141000     1.090879   -3.1059388   -1.5515592  0.094907613   -3.1059388    1.5543796   462205 
 3142000    1.0917378   -3.1059639   -1.5508485    0.1001694   -3.1059639    1.5551154   462350 
 3143000    1.0903094   -3.1032862   -1.5507864   0.10401181   -3.1032862    1.5524998   462523 
 3144000    1.0916152   -3.1038035   -1.5499247    0.1044595   -3.1038035    1.5538787   462666 
 3145000     1.091472   -3.1041344   -1.5509531   0.10445504   -3.1041344    1.5531813   462813 
 3146000    1.0922366   -3.1038006   -1.5499005   0.10287355   -3.1038006    1.5539001   462923 
 3147000     1.094736   -3.1061917   -1.5492873   0.10319442   -3.1061917    1.5569043   463087 
 3148000    1.0947413   -3.1053277   -1.5488359  0.098668335   -3.1053277    1.5564918   463212 
 3149000    1.0937126   -3.1035693   -1.5489562    0.1011787   -3.1035693    1.5546131   463336 
 3150000    1.0946449   -3.1050119   -1.5494867  0.097341227   -3.1050119    1.5555252   463459 
 3151000    1.0949267   -3.1055969   -1.5501947   0.10059421   -3.1055969    1.5554022   463615 
 3152000     1.094411   -3.1029897    -1.548833   0.10250826   -3.1029897    1.5541567   463768 
 3153000    1.0946285   -3.1030433   -1.5490301   0.10129285   -3.1030433    1.5540132   463903 
 3154000    1.0968235   -3.1041855   -1.5475561   0.10318396   -3.1041855    1.5566294   464052 
 3155000    1.0967437   -3.1046042   -1.5485676    0.1054752   -3.1046042    1.5560366   464195 
 3156000    1.0957972   -3.1020466   -1.5478484   0.10019656   -3.1020466    1.5541982   464343 
 3157000    1.0975981   -3.1039959   -1.5477527   0.10252557   -3.1039959    1.5562431   464495 
 3158000    1.0980214    -3.104094   -1.5477031  0.095399954    -3.104094    1.5563909   464630 
 3159000    1.0988867   -3.1040915   -1.5469332   0.10123923   -3.1040915    1.5571583   464767 
 3160000     1.098416   -3.1037901   -1.5477374   0.10245934   -3.1037901    1.5560527   464898 
 3161000     1.098488   -3.1040392   -1.5484433   0.10222233   -3.1040392    1.5555959   465065 
 3162000    1.0968971   -3.1007155   -1.5478266   0.10816705   -3.1007155    1.5528889   465201 
 3163000    1.1000412   -3.1037447   -1.5468331    0.1046286   -3.1037447    1.5569116   465329 
 3164000    1.0983886   -3.1010908   -1.5469823   0.10580623   -3.1010908    1.5541084   465468 
 3165000    1.0997655   -3.1030387   -1.5473264   0.11159727   -3.1030387    1.5557123   465571 
 3166000    1.1016129   -3.1055556   -1.5476014    0.1048575   -3.1055556    1.5579542   465682 
 3167000    1.1004297   -3.1033902   -1.5475703   0.10101285   -3.1033902    1.5558199   465820 
 3168000    1.1017277   -3.1031737   -1.5459833   0.10606686   -3.1031737    1.5571904   465959 
 3169000    1.1023107   -3.1035157   -1.5460496   0.10620681   -3.1035157    1.5574661   466123 
 3170000    1.1025107   -3.1023786   -1.5450408   0.11276325   -3.1023786    1.5573378   466246 
 3171000    1.1027726   -3.1028515   -1.5455646   0.10768867   -3.1028515    1.5572869   466372 
 3172000    1.1024729   -3.1015722   -1.5452491   0.10619648   -3.1015722    1.5563231   466534 
 3173000    1.1050486   -3.1046195   -1.5451452   0.10663935   -3.1046195    1.5594744   466679 
 3174000    1.1036267    -3.103761   -1.5467502   0.10526081    -3.103761    1.5570107   466816 
 3175000    1.1047433     -3.10377   -1.5455378   0.11230235     -3.10377    1.5582322   466922 
 3176000    1.1058846   -3.1034833   -1.5441055   0.11091558   -3.1034833    1.5593778   467061 
 3177000    1.1065052   -3.1050949   -1.5452595   0.10395727   -3.1050949    1.5598354   467186 
 3178000    1.1046539   -3.1019349   -1.5451258   0.10393035   -3.1019349    1.5568091   467311 
 3179000    1.1054157    -3.102187   -1.5447175   0.11205059    -3.102187    1.5574695   467435 
 3180000    1.1060899    -3.102128   -1.5440886   0.10153681    -3.102128    1.5580394   467549 
 3181000    1.1050929   -3.1010405    -1.544795    0.1016212   -3.1010405    1.5562455   467666 
 3182000    1.1050305      -3.1002   -1.5444814   0.10231283      -3.1002    1.5557186   467798 
 3183000    1.1045388    -3.098917   -1.5444324    0.1057833    -3.098917    1.5544847   467961 
 3184000    1.1069317   -3.1009247   -1.5435384   0.10095873   -3.1009247    1.5573864   468101 
 3185000    1.1066958   -3.1009892   -1.5442838   0.10565294   -3.1009892    1.5567054   468206 
 3186000    1.1069219   -3.0994164   -1.5428086   0.10345646   -3.0994164    1.5566078   468331 
 3187000    1.1080204   -3.1010853   -1.5434384   0.10474794   -3.1010853     1.557647   468483 
 3188000     1.108666   -3.0999304   -1.5418015   0.10871569   -3.0999304     1.558129   468611 
 3189000    1.1086321   -3.0994358     -1.54179   0.10563199   -3.0994358    1.5576458   468742 
 3190000    1.1089455   -3.0993362   -1.5416456   0.10740903   -3.0993362    1.5576907   468861 
 3191000    1.1108076   -3.1020052   -1.5421048   0.10831768   -3.1020052    1.5599004   468983 
 3192000    1.1121232   -3.1023599   -1.5409749   0.10403831   -3.1023599     1.561385   469092 
 3193000    1.1113845   -3.1014493   -1.5415603   0.10550138   -3.1014493    1.5598891   469230 
 3194000    1.1121451   -3.1015776   -1.5409602   0.10628072   -3.1015776    1.5606174   469332 
 3195000    1.1120571   -3.1010764   -1.5410414   0.10721176   -3.1010764    1.5600351   469470 
 3196000    1.1109781   -3.1007051   -1.5425819   0.10514644   -3.1007051    1.5581232   469590 
 3197000     1.114406   -3.1027778   -1.5403428   0.10778702   -3.1027778    1.5624349   469739 
 3198000    1.1125188   -3.1000493   -1.5406587   0.10952828   -3.1000493    1.5593906   469859 
 3199000    1.1125027   -3.1006918   -1.5417053   0.10575898   -3.1006918    1.5589865   469974 
 3200000    1.1130741   -3.1008531   -1.5415468   0.10872487   -3.1008531    1.5593063   470119 
 3201000    1.1139608   -3.1011176   -1.5409575   0.11177667   -3.1011176    1.5601601   470236 
 3202000    1.1145688   -3.1014103   -1.5407704    0.1105206   -3.1014103    1.5606399   470348 
 3203000    1.1143916   -3.1007045   -1.5407869   0.10489011   -3.1007045    1.5599176   470491 
 3204000    1.1159924   -3.1029891   -1.5412524   0.10655695   -3.1029891    1.5617367   470618 
 3205000    1.1135568   -3.1012792   -1.5433249    0.1092337   -3.1012792    1.5579543   470731 
 3206000     1.114915   -3.1004197   -1.5409529   0.10759445   -3.1004197    1.5594668   470848 
 3207000    1.1167813   -3.1014507   -1.5398409   0.10613453   -3.1014507    1.5616098   470989 
 3208000    1.1170182   -3.1006537   -1.5391239   0.10954594   -3.1006537    1.5615298   471113 
 3209000    1.1162335   -3.1004388   -1.5404397   0.10972055   -3.1004388    1.5599991   471244 
 3210000     1.116607   -3.1019994   -1.5418259   0.10491124   -3.1019994    1.5601735   471349 
 3211000    1.1168082   -3.1001448   -1.5401039   0.11032332   -3.1001448    1.5600408   471474 
 3212000    1.1168056    -3.099632   -1.5400182   0.10982417    -3.099632    1.5596138   471602 
 3213000    1.1170001   -3.0997217   -1.5401901   0.10987048   -3.0997217    1.5595316   471709 
 3214000    1.1186805   -3.1006116    -1.539151      0.10875   -3.1006116    1.5614606   471835 
 3215000    1.1192273   -3.1002585   -1.5384484   0.10951717   -3.1002585    1.5618101   471960 
 3216000    1.1201382   -3.1004101   -1.5377296   0.10424967   -3.1004101    1.5626805   472081 
 3217000    1.1209516   -3.1012308   -1.5377731   0.10986602   -3.1012308    1.5634577   472189 
 3218000    1.1219888   -3.1013232   -1.5368595   0.10975546   -3.1013232    1.5644637   472322 
 3219000    1.1217396   -3.1004537   -1.5367778   0.11172951   -3.1004537    1.5636759   472455 
 3220000    1.1229283    -3.101755   -1.5367136   0.11082611    -3.101755    1.5650413   472543 
 3221000    1.1234367   -3.1020403   -1.5367277   0.10741353   -3.1020403    1.5653126   472675 
 3222000    1.1216873   -3.0995174   -1.5369893   0.10850904   -3.0995174    1.5625281   472780 
 3223000    1.1234163   -3.1012242   -1.5367012   0.11203737   -3.1012242     1.564523   472905 
 3224000    1.1241493   -3.1013858   -1.5362457   0.11052487   -3.1013858      1.56514   473027 
 3225000    1.1232738   -3.1009543    -1.537324   0.10606145   -3.1009543    1.5636302   473115 
 3226000    1.1237374   -3.1005513    -1.536722   0.10799171   -3.1005513    1.5638293   473250 
 3227000     1.121853   -3.0991465   -1.5384211   0.10886707   -3.0991465    1.5607254   473396 
 3228000    1.1225612   -3.1005513   -1.5392364   0.10898505   -3.1005513    1.5613149   473516 
 3229000    1.1236329    -3.100705   -1.5383152   0.10603214    -3.100705    1.5623898   473642 
 3230000    1.1233012   -3.1017468   -1.5401975   0.10744632   -3.1017468    1.5615493   473757 
 3231000    1.1235061   -3.0997953   -1.5383401   0.10640611   -3.0997953    1.5614552   473872 
 3232000    1.1246959   -3.0993101   -1.5366069   0.11208752   -3.0993101    1.5627032   473995 
 3233000    1.1244469   -3.0988727   -1.5369176   0.11068805   -3.0988727    1.5619552   474117 
 3234000    1.1256609   -3.1003797    -1.537157   0.10946909   -3.1003797    1.5632227   474244 
 3235000    1.1268126   -3.0997371   -1.5353306   0.11308564   -3.0997371    1.5644065   474370 
 3236000    1.1260999   -3.0995066   -1.5364751   0.11455464   -3.0995066    1.5630315   474487 
 3237000    1.1267364   -3.0989637   -1.5354869    0.1178848   -3.0989637    1.5634767   474620 
 3238000     1.127317   -3.0987758   -1.5349283   0.11450736   -3.0987758    1.5638475   474752 
 3239000    1.1291239   -3.1016532   -1.5356686   0.11159301   -3.1016532    1.5659846   474864 
 3240000     1.129264   -3.1020976    -1.536377   0.11428565   -3.1020976    1.5657206   475003 
 3241000    1.1299127   -3.1024322   -1.5361353   0.11482952   -3.1024322    1.5662968   475101 
 3242000    1.1291305   -3.1009885   -1.5362041     0.111972   -3.1009885    1.5647844   475231 
 3243000    1.1310516   -3.1023542   -1.5352833   0.11390922   -3.1023542    1.5670709   475345 
 3244000    1.1299755   -3.1010637   -1.5358427   0.11555008   -3.1010637     1.565221   475454 
 3245000    1.1288438   -3.0985861   -1.5354554   0.11588465   -3.0985861    1.5631307   475613 
 3246000    1.1303808   -3.1019859   -1.5370363   0.10710908   -3.1019859    1.5649496   475707 
 3247000    1.1305535   -3.1011966   -1.5364816   0.11350523   -3.1011966     1.564715   475851 
 3248000    1.1314903   -3.1014533   -1.5358726   0.11186055   -3.1014533    1.5655807   475982 
 3249000    1.1330332   -3.1024977   -1.5352761   0.11081107   -3.1024977    1.5672216   476132 
 3250000    1.1321098   -3.1006962   -1.5351399   0.10856532   -3.1006962    1.5655562   476250 
 3251000     1.132054   -3.0999247   -1.5348104   0.11093615   -3.0999247    1.5651143   476361 
 3252000    1.1341324   -3.1018124   -1.5343148   0.11216228   -3.1018124    1.5674976   476510 
 3253000     1.132565   -3.0988024   -1.5338095   0.11391653   -3.0988024    1.5649929   476613 
 3254000    1.1345816   -3.1001065   -1.5327413   0.11355998   -3.1001065    1.5673651   476739 
 3255000    1.1331059   -3.0993765   -1.5344044   0.10989429   -3.0993765     1.564972   476847 
 3256000    1.1347519   -3.1002503   -1.5334616   0.11080512   -3.1002503    1.5667887   476986 
 3257000     1.134946   -3.1000256   -1.5334222   0.11294998   -3.1000256    1.5666033   477124 
 3258000    1.1332426   -3.0984266   -1.5344007   0.11092892   -3.0984266     1.564026   477193 
 3259000    1.1342047   -3.0993986   -1.5344154   0.11284514   -3.0993986    1.5649832   477306 
 3260000    1.1363122   -3.1010783   -1.5335649   0.10935046   -3.1010783    1.5675134   477421 
 3261000    1.1340308   -3.0992077    -1.535218   0.11292327   -3.0992077    1.5639897   477536 
 3262000    1.1359872   -3.0998508   -1.5334451    0.1153662   -3.0998508    1.5664057   477622 
 3263000    1.1379284   -3.1016362    -1.532948    0.1114259   -3.1016362    1.5686882   477742 
 3264000    1.1383717   -3.1007419   -1.5317742   0.11787751   -3.1007419    1.5689677   477843 
 3265000    1.1379347    -3.100889   -1.5328748   0.11611353    -3.100889    1.5680142   477950 
 3266000    1.1371927   -3.0991753   -1.5325703   0.11979229   -3.0991753    1.5666051   478068 
 3267000    1.1401075   -3.1024951   -1.5322293   0.10886175   -3.1024951    1.5702658   478176 
 3268000    1.1381364   -3.0996619   -1.5324747   0.11404372   -3.0996619    1.5671872   478287 
 3269000    1.1398457   -3.1014832   -1.5322672   0.11256039   -3.1014832     1.569216   478386 
 3270000    1.1398018   -3.1010364   -1.5321399   0.11885877   -3.1010364    1.5688965   478465 
 3271000    1.1396536    -3.101913   -1.5335253   0.11337307    -3.101913    1.5683876   478558 
 3272000    1.1409269   -3.1020808   -1.5322984   0.11510763   -3.1020808    1.5697824   478667 
 3273000    1.1409029   -3.1007628   -1.5313314   0.11468294   -3.1007628    1.5694313   478764 
 3274000    1.1408895   -3.0996762   -1.5306303   0.11866667   -3.0996762    1.5690459   478876 
 3275000    1.1402787   -3.0984057   -1.5306124   0.11887132   -3.0984057    1.5677933   479002 
 3276000    1.1405731   -3.0983524   -1.5305831   0.12158327   -3.0983524    1.5677693   479133 
 3277000    1.1406701   -3.0992837   -1.5317278   0.11437215   -3.0992837    1.5675559   479239 
 3278000    1.1411833   -3.0995715   -1.5317159   0.11622516   -3.0995715    1.5678555   479363 
 3279000    1.1409789    -3.100818   -1.5335474   0.11412019    -3.100818    1.5672706   479456 
 3280000    1.1411714   -3.1003854   -1.5331968   0.11379719   -3.1003854    1.5671886   479562 
 3281000     1.141643   -3.0986765    -1.531239   0.11620053   -3.0986765    1.5674375   479684 
 3282000    1.1430188    -3.100068   -1.5312028   0.11369445    -3.100068    1.5688652   479825 
 3283000    1.1426812   -3.0990317   -1.5310253   0.11832605   -3.0990317    1.5680064   479946 
 3284000    1.1425111    -3.099357   -1.5318225   0.11102089    -3.099357    1.5675345   480019 
 3285000    1.1440555   -3.0996999   -1.5304322   0.11331098   -3.0996999    1.5692677   480137 
 3286000    1.1446255   -3.0987443   -1.5290151   0.11668691   -3.0987443    1.5697292   480235 
 3287000    1.1453211      -3.1005   -1.5301275   0.11626483      -3.1005    1.5703725   480330 
 3288000    1.1441654   -3.0997883   -1.5313367   0.11065679   -3.0997883    1.5684515   480433 
 3289000    1.1447804   -3.0991891   -1.5302471   0.11224804   -3.0991891    1.5689419   480541 
 3290000     1.144765   -3.0992684   -1.5307523   0.10677481   -3.0992684    1.5685161   480665 
 3291000     1.145371    -3.099797   -1.5308488   0.10988059    -3.099797    1.5689482   480787 
 3292000    1.1453552   -3.0993449   -1.5307152   0.11291631   -3.0993449    1.5686297   480878 
 3293000    1.1460023   -3.0979211   -1.5288229   0.11570536   -3.0979211    1.5690982   481006 
 3294000    1.1453861   -3.0971379   -1.5292745    0.1156609   -3.0971379    1.5678634   481126 
 3295000    1.1450476    -3.097368   -1.5302839   0.11743355    -3.097368    1.5670841   481223 
 3296000    1.1471996   -3.1001148   -1.5304117   0.11422414   -3.1001148    1.5697031   481323 
 3297000    1.1469894    -3.099645   -1.5305947   0.11849241    -3.099645    1.5690503   481435 
 3298000    1.1501404   -3.1023966   -1.5294311   0.11227868   -3.1023966    1.5729655   481556 
 3299000    1.1483866   -3.1000206   -1.5298546   0.11396532   -3.1000206    1.5701659   481679 
 3300000    1.1505114   -3.1018772   -1.5291293   0.11175854   -3.1018772    1.5727479   481778 
 3301000    1.1477313   -3.0972081   -1.5285797   0.11858775   -3.0972081    1.5686284   481876 
 3302000    1.1498766   -3.0989407   -1.5277748   0.11191956   -3.0989407    1.5711659   481997 
 3303000    1.1495566   -3.0978698   -1.5274474   0.12250494   -3.0978698    1.5704224   482091 
 3304000    1.1503033   -3.1002524   -1.5291946   0.11402796   -3.1002524    1.5710579   482209 
 3305000    1.1507363   -3.1003246   -1.5290468   0.11736521   -3.1003246    1.5712778   482323 
 3306000    1.1513907   -3.1009951   -1.5292181   0.11670151   -3.1009951    1.5717771   482444 
 3307000    1.1499037   -3.0975141   -1.5281508   0.11643315   -3.0975141    1.5693632   482562 
 3308000    1.1513265   -3.0989267   -1.5279764   0.12059287   -3.0989267    1.5709503   482671 
 3309000    1.1518176   -3.0996679   -1.5285034   0.11440671   -3.0996679    1.5711645   482811 
 3310000    1.1531424   -3.1000713   -1.5274416   0.11417279   -3.1000713    1.5726298   482916 
 3311000    1.1524162   -3.0998319   -1.5284496   0.11626649   -3.0998319    1.5713823   482995 
 3312000    1.1522175   -3.0998642   -1.5291561   0.12058882   -3.0998642    1.5707081   483119 
 3313000    1.1535127    -3.101293   -1.5291414   0.11495724    -3.101293    1.5721516   483218 
 3314000    1.1521155   -3.0985407   -1.5286573   0.11879132   -3.0985407    1.5698834   483330 
 3315000    1.1536641   -3.1005089   -1.5288471   0.12016396   -3.1005089    1.5716618   483432 
 3316000    1.1539873   -3.1000921   -1.5283801    0.1187546   -3.1000921     1.571712   483552 
 3317000    1.1533615   -3.0998691   -1.5292595   0.12048043   -3.0998691    1.5706096   483629 
 3318000    1.1560139   -3.1025218   -1.5286517   0.11839994   -3.1025218    1.5738701   483737 
 3319000    1.1555809     -3.10176   -1.5287818   0.11774754     -3.10176    1.5729782   483830 
 3320000    1.1546344   -3.1023701   -1.5311058    0.1136736   -3.1023701    1.5712643   483961 
 3321000    1.1539631   -3.1013208   -1.5313333   0.11647231   -3.1013208    1.5699875   484073 
 3322000    1.1534862   -3.0990558   -1.5300478   0.11576581   -3.0990558     1.569008   484175 
 3323000    1.1563905   -3.1024302   -1.5297705    0.1134576   -3.1024302    1.5726597   484267 
 3324000    1.1568595   -3.1020533   -1.5291098   0.11355309   -3.1020533    1.5729435   484376 
 3325000    1.1578738    -3.102547    -1.528637   0.11755142    -3.102547      1.57391   484503 
 3326000    1.1560266   -3.1007978   -1.5297716    0.1162674   -3.1007978    1.5710261   484618 
 3327000    1.1569506   -3.1018028   -1.5298809   0.11628252   -3.1018028    1.5719219   484729 
 3328000    1.1585477   -3.1034286   -1.5297719   0.11566187   -3.1034286    1.5736567   484863 
 3329000    1.1565019   -3.1004312   -1.5299063   0.12010565   -3.1004312    1.5705249   484972 
 3330000     1.159933   -3.1033213   -1.5284779   0.11367271   -3.1033213    1.5748434   485077 
 3331000    1.1576967   -3.0995323   -1.5280491   0.12174678   -3.0995323    1.5714832   485177 
 3332000    1.1588491    -3.100363   -1.5276171   0.11522489    -3.100363    1.5727459   485270 
 3333000    1.1589048   -3.1015882   -1.5291101   0.11594961   -3.1015882    1.5724781   485376 
 3334000     1.159536   -3.1006875   -1.5276738    0.1244741   -3.1006875    1.5730137   485475 
 3335000    1.1592202   -3.1013243    -1.528982    0.1194781   -3.1013243    1.5723423   485550 
 3336000    1.1589108   -3.1008989   -1.5293647   0.11876303   -3.1008989    1.5715342   485670 
 3337000    1.1612574   -3.1029036   -1.5285632   0.11618734   -3.1029036    1.5743404   485786 
 3338000    1.1619966   -3.1047545   -1.5297492   0.11605868   -3.1047545    1.5750053   485890 
 3339000    1.1606615   -3.1018177   -1.5289037   0.11444503   -3.1018177    1.5729141   485977 
 3340000    1.1604393   -3.1001984   -1.5279574   0.12534435   -3.1001984    1.5722409   486092 
 3341000    1.1623897   -3.1015298   -1.5269671   0.11733202   -3.1015298    1.5745628   486191 
 3342000    1.1624114   -3.1003961   -1.5261246   0.11510969   -3.1003961    1.5742715   486290 
 3343000    1.1615121   -3.0993088   -1.5264816   0.11662207   -3.0993088    1.5728272   486360 
 3344000    1.1638258    -3.100878    -1.525232   0.11320237    -3.100878    1.5756461   486457 
 3345000    1.1636421   -3.1003023   -1.5253195    0.1171647   -3.1003023    1.5749829   486585 
 3346000    1.1636762   -3.1001418   -1.5254655   0.11877742   -3.1001418    1.5746763   486694 
 3347000    1.1630876    -3.098496   -1.5249751   0.11676779    -3.098496    1.5735209   486805 
 3348000    1.1652744   -3.1002564   -1.5242237   0.11525863   -3.1002564    1.5760327   486943 
 3349000    1.1658742    -3.099757   -1.5233275    0.1198829    -3.099757    1.5764295   487071 
 3350000    1.1652136   -3.0976632   -1.5224374   0.12251386   -3.0976632    1.5752257   487167 
 3351000    1.1652245   -3.0983453   -1.5233989   0.11879569   -3.0983453    1.5749464   487258 
 3352000    1.1642182   -3.0969318   -1.5236265   0.12099835   -3.0969318    1.5733053   487345 
 3353000    1.1644884   -3.0976646   -1.5243106   0.11857522   -3.0976646     1.573354   487443 
 3354000    1.1643972   -3.0980649   -1.5250728   0.11724429   -3.0980649    1.5729921   487517 
 3355000    1.1655146    -3.098796   -1.5246883   0.11289755    -3.098796    1.5741077   487639 
 3356000    1.1649992   -3.0967018   -1.5236225   0.11839195   -3.0967018    1.5730793   487742 
 3357000    1.1656409   -3.0987777   -1.5251288   0.11239147   -3.0987777    1.5736489   487834 
 3358000     1.166853    -3.100392   -1.5253779   0.10939309    -3.100392    1.5750141   487918 
 3359000    1.1659171   -3.0987031   -1.5252748   0.11023491   -3.0987031    1.5734283   488018 
 3360000    1.1672581   -3.1002458   -1.5254273   0.11650336   -3.1002458    1.5748185   488148 
 3361000     1.166661   -3.1003627   -1.5267753   0.11399108   -3.1003627    1.5735874   488280 
 3362000    1.1667594   -3.0995907   -1.5262443   0.11849136   -3.0995907    1.5733463   488396 
 3363000    1.1690231   -3.1015249   -1.5254873   0.11895745   -3.1015249    1.5760375   488508 
 3364000    1.1677863   -3.1005482   -1.5265132   0.11767947   -3.1005482     1.574035   488612 
 3365000    1.1693395   -3.1025623   -1.5267627    0.1174081   -3.1025623    1.5757996   488714 
 3366000    1.1684435   -3.1006698   -1.5263612   0.12603146   -3.1006698    1.5743086   488802 
 3367000    1.1701323   -3.1026237   -1.5263428   0.12488301   -3.1026237    1.5762809   488896 
 3368000    1.1695846   -3.1023002   -1.5270889    0.1161657   -3.1023002    1.5752113   488999 
 3369000    1.1711165   -3.1042951    -1.527369   0.11542424   -3.1042951    1.5769261   489107 
 3370000    1.1706392   -3.1027083   -1.5267568   0.12289444   -3.1027083    1.5759516   489210 
 3371000    1.1727238   -3.1051734   -1.5267769   0.12267188   -3.1051734    1.5783966   489322 
 3372000    1.1724843    -3.105289   -1.5275212   0.12332351    -3.105289    1.5777679   489417 
 3373000    1.1735198   -3.1059924   -1.5272697   0.11859204   -3.1059924    1.5787227   489553 
 3374000    1.1728396   -3.1057908   -1.5283795   0.12256243   -3.1057908    1.5774113   489676 
 3375000    1.1723438   -3.1052196   -1.5287617   0.12374219   -3.1052196    1.5764579   489765 
 3376000    1.1744206   -3.1079213   -1.5290253   0.12132046   -3.1079213     1.578896   489875 
 3377000    1.1732171   -3.1056365   -1.5287254    0.1201702   -3.1056365     1.576911   489989 
 3378000    1.1733116   -3.1065859   -1.5298567   0.11829152   -3.1065859    1.5767291   490085 
 3379000    1.1746691   -3.1078493   -1.5296662   0.12362748   -3.1078493    1.5781831   490200 
 3380000     1.174682   -3.1063176   -1.5284745   0.11898424   -3.1063176    1.5778431   490311 
 3381000    1.1750177     -3.10666   -1.5286428   0.12445797     -3.10666    1.5780173   490397 
 3382000    1.1739513   -3.1047276   -1.5284801   0.12600878   -3.1047276    1.5762475   490502 
 3383000    1.1764928   -3.1076913   -1.5284466   0.12543839   -3.1076913    1.5792447   490631 
 3384000     1.175192    -3.105735   -1.5286351   0.12046463    -3.105735    1.5770999   490755 
 3385000    1.1764785   -3.1075328   -1.5289572   0.11619111   -3.1075328    1.5785756   490833 
 3386000    1.1765889   -3.1056915   -1.5273473   0.12351642   -3.1056915    1.5783443   490951 
 3387000    1.1754379   -3.1045426   -1.5281085   0.12370155   -3.1045426    1.5764342   491065 
 3388000    1.1772367   -3.1052326   -1.5268071    0.1214985   -3.1052326    1.5784255   491196 
 3389000    1.1778416   -3.1060922   -1.5271963   0.12018746   -3.1060922    1.5788959   491302 
 3390000    1.1764149   -3.1044057    -1.527724   0.12261585   -3.1044057    1.5766817   491396 
 3391000     1.175925   -3.1033209   -1.5276164   0.12479347   -3.1033209    1.5757045   491496 
 3392000    1.1766052   -3.1036439   -1.5273102   0.12128426   -3.1036439    1.5763336   491584 
 3393000    1.1777923   -3.1050146   -1.5274371    0.1162803   -3.1050146    1.5775775   491692 
 3394000     1.177922   -3.1048153   -1.5273304   0.11878866   -3.1048153    1.5774849   491775 
 3395000    1.1769427   -3.1041601   -1.5283423   0.12021409   -3.1041601    1.5758178   491886 
 3396000    1.1765499   -3.1028068   -1.5277615   0.12789471   -3.1028068    1.5750453   491963 
 3397000    1.1759461   -3.1028749   -1.5290571   0.12453053   -3.1028749    1.5738178   492094 
 3398000    1.1790783   -3.1075122    -1.529746   0.11726299   -3.1075122    1.5777662   492170 
 3399000    1.1788783   -3.1052512   -1.5280668   0.11786484   -3.1052512    1.5771844   492268 
 3400000    1.1797697   -3.1063792    -1.528342   0.12024726   -3.1063792    1.5780372   492374 
 3401000     1.178897   -3.1056708   -1.5290473   0.11933723   -3.1056708    1.5766235   492451 
 3402000     1.180047    -3.106559   -1.5286764   0.12466192    -3.106559    1.5778826   492538 
 3403000     1.180694   -3.1062627   -1.5278451   0.12926546   -3.1062627    1.5784176   492641 
 3404000    1.1807284   -3.1074314   -1.5291984   0.12618166   -3.1074314     1.578233   492713 
 3405000    1.1816504   -3.1087716   -1.5296011    0.1215548   -3.1087716    1.5791705   492805 
 3406000    1.1825027   -3.1088162   -1.5288017   0.12505579   -3.1088162    1.5800146   492897 
 3407000    1.1835585   -3.1099526    -1.528768    0.1239252   -3.1099526    1.5811847   492972 
 3408000    1.1826416   -3.1086885    -1.528937   0.12326497   -3.1086885    1.5797515   493037 
 3409000    1.1833244   -3.1107897   -1.5303216   0.12566276   -3.1107897     1.580468   493098 
 3410000    1.1828126   -3.1102176   -1.5306927   0.12346554   -3.1102176    1.5795249   493179 
 3411000     1.183184    -3.108809   -1.5291019    0.1251591    -3.108809    1.5797071   493277 
 3412000    1.1835691   -3.1109206   -1.5310133   0.12669227   -3.1109206    1.5799073   493375 
 3413000    1.1838311   -3.1109802   -1.5310626   0.11850275   -3.1109802    1.5799176   493481 
 3414000    1.1816325   -3.1087438   -1.5320544   0.12911832   -3.1087438    1.5766895   493573 
 3415000    1.1842406    -3.110543   -1.5306455   0.12093761    -3.110543    1.5798975   493658 
 3416000    1.1843375    -3.110109   -1.5303414   0.12090569    -3.110109    1.5797676   493739 
 3417000    1.1830486   -3.1075924   -1.5298349   0.12347221   -3.1075924    1.5777575   493830 
 3418000    1.1848296   -3.1119681   -1.5321585     0.118097   -3.1119681    1.5798096   493931 
 3419000    1.1842948   -3.1103892   -1.5316027   0.11838321   -3.1103892    1.5787865   494028 
 3420000    1.1828943   -3.1091503    -1.532483   0.12192778   -3.1091503    1.5766674   494107 
 3421000    1.1843228   -3.1107776   -1.5325192   0.12301781   -3.1107776    1.5782584   494205 
 3422000    1.1851646   -3.1098868   -1.5308454    0.1217975   -3.1098868    1.5790414   494311 
 3423000    1.1847351   -3.1083142   -1.5301419   0.12156543   -3.1083142    1.5781723   494404 
 3424000    1.1844307   -3.1061993   -1.5287483   0.12398652   -3.1061993    1.5774509   494503 
 3425000    1.1858301   -3.1077649   -1.5287248   0.12487739   -3.1077649    1.5790401   494589 
 3426000    1.1866337   -3.1088479   -1.5290093   0.12354907   -3.1088479    1.5798387   494674 
 3427000    1.1861659    -3.108685   -1.5297404   0.12353563    -3.108685    1.5789446   494759 
 3428000    1.1879489   -3.1109409   -1.5299202   0.11569576   -3.1109409    1.5810207   494852 
 3429000    1.1879411    -3.110608   -1.5298053   0.12089327    -3.110608    1.5808027   494917 
 3430000    1.1887249   -3.1108492   -1.5292911   0.12154195   -3.1108492    1.5815581   495007 
 3431000    1.1862031   -3.1071161   -1.5292319   0.12709754   -3.1071161    1.5778842   495107 
 3432000    1.1883686    -3.108814   -1.5282727   0.12033987    -3.108814    1.5805413   495177 
 3433000    1.1876354   -3.1083344   -1.5291127   0.12047943   -3.1083344    1.5792217   495285 
 3434000     1.187665   -3.1096569   -1.5306701   0.11509924   -3.1096569    1.5789868   495371 
 3435000    1.1889093   -3.1106987   -1.5303001   0.12104244   -3.1106987    1.5803986   495447 
 3436000     1.187611   -3.1079066   -1.5294981   0.11708813   -3.1079066    1.5784085   495530 
 3437000    1.1899476   -3.1105246   -1.5293234   0.12158057   -3.1105246    1.5812012   495628 
 3438000    1.1912453   -3.1116632   -1.5289739   0.12454475   -3.1116632    1.5826893   495702 
 3439000    1.1885962   -3.1089271   -1.5300153   0.12275441   -3.1089271    1.5789117   495783 
 3440000     1.188756   -3.1092636    -1.530439   0.12547347   -3.1092636    1.5788247   495877 
 3441000    1.1891667   -3.1088888   -1.5298435   0.12730624   -3.1088888    1.5790453   495979 
 3442000     1.188865   -3.1090668   -1.5307276   0.12138088   -3.1090668    1.5783392   496075 
 3443000     1.190021    -3.109813   -1.5302512   0.12127436    -3.109813    1.5795618   496173 
 3444000    1.1918497   -3.1118448    -1.530117   0.12618001   -3.1118448    1.5817277   496255 
 3445000     1.189934   -3.1086604   -1.5297455   0.12423066   -3.1086604    1.5789149   496340 
 3446000    1.1917221   -3.1106345   -1.5296273   0.12145394   -3.1106345    1.5810072   496428 
 3447000    1.1924921   -3.1123715   -1.5306549   0.12429061   -3.1123715    1.5817165   496526 
 3448000    1.1921884    -3.111547   -1.5304306   0.12600072    -3.111547    1.5811163   496588 
 3449000    1.1917803   -3.1124347    -1.532127   0.11869602   -3.1124347    1.5803077   496672 
 3450000    1.1921268   -3.1124529   -1.5319403   0.12152724   -3.1124529    1.5805126   496752 
 3451000    1.1931536   -3.1137695   -1.5321885   0.12460459   -3.1137695     1.581581   496844 
 3452000    1.1921529    -3.112226   -1.5322991   0.12422938    -3.112226    1.5799269   496947 
 3453000      1.19313   -3.1140309   -1.5330794   0.12404017   -3.1140309    1.5809515   497032 
 3454000     1.193376   -3.1147188   -1.5338072   0.12158975   -3.1147188    1.5809116   497147 
 3455000    1.1929576   -3.1125147    -1.532472   0.12777497   -3.1125147    1.5800428   497246 
 3456000    1.1924361   -3.1109327   -1.5318569   0.12753596   -3.1109327    1.5790758   497333 
 3457000    1.1954741   -3.1158787   -1.5331491   0.12507387   -3.1158787    1.5827297   497449 
 3458000    1.1941943   -3.1133281   -1.5325724   0.12227396   -3.1133281    1.5807557   497537 
 3459000    1.1962757   -3.1148058   -1.5315878   0.12040759   -3.1148058    1.5832181   497629 
 3460000    1.1943978    -3.112977   -1.5325333   0.12328724    -3.112977    1.5804437   497720 
 3461000    1.1942619   -3.1131834   -1.5331322   0.12583857   -3.1131834    1.5800512   497787 
 3462000    1.1952038    -3.113846   -1.5327964   0.12709608    -3.113846    1.5810496   497865 
 3463000    1.1967154   -3.1157458   -1.5329668   0.12665918   -3.1157458     1.582779   497950 
 3464000    1.1951043   -3.1125676   -1.5321448   0.12486261   -3.1125676    1.5804228   498021 
 3465000    1.1970515   -3.1149742   -1.5323229   0.12248376   -3.1149742    1.5826514   498130 
 3466000    1.1976176   -3.1154471   -1.5322251   0.13006088   -3.1154471    1.5832219   498186 
 3467000    1.1964512   -3.1142342   -1.5328432   0.12722036   -3.1142342     1.581391   498277 
 3468000    1.1953252   -3.1117076   -1.5321345   0.12881734   -3.1117076    1.5795731   498381 
 3469000     1.197109   -3.1133031   -1.5316236   0.12369251   -3.1133031    1.5816795   498460 
 3470000    1.1965608   -3.1132566   -1.5326437   0.12879532   -3.1132566    1.5806129   498568 
 3471000    1.1968474   -3.1130845   -1.5324449   0.12377646   -3.1130845    1.5806395   498679 
 3472000    1.1957753   -3.1112495   -1.5322918   0.12425248   -3.1112495    1.5789577   498763 
 3473000    1.1971386   -3.1121774   -1.5316826   0.12886763   -3.1121774    1.5804949   498846 
 3474000    1.1978967   -3.1138771   -1.5326667   0.12714972   -3.1138771    1.5812104   498936 
 3475000    1.1982078   -3.1149162   -1.5335392    0.1258201   -3.1149162    1.5813769   499013 
 3476000    1.1993096   -3.1166823   -1.5341271   0.12359035   -3.1166823    1.5825552   499100 
 3477000    1.1983569   -3.1156617   -1.5346266   0.12078139   -3.1156617    1.5810352   499183 
 3478000    1.1974596   -3.1156251    -1.536068   0.12352538   -3.1156251    1.5795571   499276 
 3479000    1.1968168   -3.1150921   -1.5366296   0.11786244   -3.1150921    1.5784625   499354 
 3480000    1.1992214   -3.1162516    -1.534852   0.12209648   -3.1162516    1.5813996   499428 
 3481000    1.1986726   -3.1157155   -1.5353276   0.12170667   -3.1157155     1.580388   499519 
 3482000    1.1993491   -3.1164538   -1.5354651   0.12568017   -3.1164538    1.5809886   499611 
 3483000    1.2006633   -3.1171415   -1.5346865   0.12201224   -3.1171415     1.582455   499695 
 3484000    1.2017324   -3.1163763   -1.5328546   0.12778011   -3.1163763    1.5835218   499803 
 3485000    1.2019825   -3.1174241   -1.5338326   0.12596137   -3.1174241    1.5835915   499885 
 3486000    1.2023306   -3.1172155   -1.5333428   0.12868134   -3.1172155    1.5838727   499941 
 3487000    1.2022972   -3.1163677   -1.5328336    0.1296333   -3.1163677    1.5835341   500034 
 3488000    1.2047694   -3.1189364   -1.5324158   0.12503622   -3.1189364    1.5865205   500119 
 3489000    1.2007617   -3.1152619    -1.534256   0.12881537   -3.1152619    1.5810059   500194 
 3490000    1.2034061   -3.1179701   -1.5336978   0.12456881   -3.1179701    1.5842723   500262 
 3491000    1.2043672    -3.118706   -1.5333997   0.12732715    -3.118706    1.5853063   500335 
 3492000    1.2030798   -3.1181544   -1.5348624   0.12510022   -3.1181544     1.583292   500436 
 3493000     1.202593   -3.1174625   -1.5350325   0.12494255   -3.1174625      1.58243   500506 
 3494000    1.2047117   -3.1202474   -1.5353272    0.1219629   -3.1202474    1.5849202   500600 
 3495000    1.2035657   -3.1178483    -1.534714    0.1223135   -3.1178483    1.5831343   500688 
 3496000     1.202809   -3.1173913   -1.5355651   0.12940168   -3.1173913    1.5818261   500787 
 3497000    1.2041696   -3.1186922   -1.5353454    0.1258545   -3.1186922    1.5833468   500872 
 3498000    1.2026387   -3.1155769   -1.5344609   0.12330488   -3.1155769     1.581116   500941 
 3499000       1.2037   -3.1166436   -1.5343439   0.12404226   -3.1166436    1.5822997   501008 
 3500000    1.2045771   -3.1173374   -1.5341407   0.12528677   -3.1173374    1.5831967   501089 
 3501000    1.2058388   -3.1184959   -1.5339035   0.12655546   -3.1184959    1.5845925   501172 
 3502000    1.2046104   -3.1178595   -1.5352034   0.12185107   -3.1178595    1.5826561   501274 
 3503000    1.2047667   -3.1179162   -1.5352915   0.12132836   -3.1179162    1.5826247   501349 
 3504000    1.2074651   -3.1206283    -1.534753   0.11992914   -3.1206283    1.5858753   501442 
 3505000    1.2050024   -3.1163897   -1.5339446   0.12651813   -3.1163897    1.5824451   501504 
 3506000    1.2060001   -3.1172178   -1.5337972   0.12691559   -3.1172178    1.5834206   501610 
 3507000    1.2059474     -3.11777   -1.5346427   0.12931032     -3.11777    1.5831273   501681 
 3508000    1.2055941    -3.117579   -1.5351615   0.12068211    -3.117579    1.5824175   501759 
 3509000    1.2079967   -3.1195176   -1.5341803   0.12865402   -3.1195176    1.5853373   501833 
 3510000    1.2067894   -3.1182259   -1.5347981    0.1199747   -3.1182259    1.5834278   501936 
 3511000      1.20705   -3.1187056    -1.535223   0.12956462   -3.1187056    1.5834827   502027 
 3512000    1.2058919   -3.1184484   -1.5367087   0.12335478   -3.1184484    1.5817397   502098 
 3513000    1.2082537   -3.1202635   -1.5356499   0.12290884   -3.1202635    1.5846136   502169 
 3514000    1.2063519   -3.1176136   -1.5357337   0.12702485   -3.1176136    1.5818799   502245 
 3515000    1.2074072   -3.1198707    -1.536796   0.13066217   -3.1198707    1.5830747   502305 
 3516000    1.2083178   -3.1203456   -1.5363797   0.12796583   -3.1203456    1.5839659   502401 
 3517000    1.2074322    -3.119335   -1.5368325   0.12559373    -3.119335    1.5825025   502497 
 3518000    1.2085699   -3.1202474   -1.5364398   0.13028432   -3.1202474    1.5838076   502556 
 3519000     1.208877   -3.1211524   -1.5371093   0.12774347   -3.1211524    1.5840431   502609 
 3520000    1.2081129   -3.1204137   -1.5376709   0.13010233   -3.1204137    1.5827427   502704 
 3521000    1.2080506   -3.1205161   -1.5381509   0.12786932   -3.1205161    1.5823652   502798 
 3522000    1.2096196   -3.1216207   -1.5374367   0.12861208   -3.1216207     1.584184   502873 
 3523000    1.2102066   -3.1225725   -1.5378151   0.13027375   -3.1225725    1.5847574   502935 
 3524000    1.2105942   -3.1225968   -1.5375871   0.12891698   -3.1225968    1.5850096   503016 
 3525000    1.2105847    -3.122205   -1.5374724   0.12603149    -3.122205    1.5847326   503100 
 3526000    1.2116904   -3.1236005   -1.5376916   0.13265446   -3.1236005    1.5859089   503186 
 3527000    1.2091519   -3.1206851   -1.5382685   0.12502068   -3.1206851    1.5824167   503240 
 3528000    1.2105755   -3.1229787   -1.5389666   0.12330438   -3.1229787    1.5840121   503325 
 3529000    1.2101149    -3.122814   -1.5396625   0.12694858    -3.122814    1.5831515   503407 
 3530000    1.2099378   -3.1233379     -1.54066   0.12875156   -3.1233379    1.5826778   503484 
 3531000    1.2105262   -3.1235483   -1.5403933   0.12564204   -3.1235483     1.583155   503577 
 3532000    1.2104225   -3.1233497   -1.5405629   0.12800295   -3.1233497    1.5827869   503651 
 3533000    1.2115897   -3.1249166   -1.5408897   0.12694496   -3.1249166    1.5840269   503742 
 3534000    1.2116654   -3.1244907    -1.540566   0.12344274   -3.1244907    1.5839247   503806 
 3535000    1.2123032   -3.1243103   -1.5398193   0.12360895   -3.1243103     1.584491   503891 
 3536000    1.2120448   -3.1236221   -1.5397611   0.12505822   -3.1236221    1.5838609   503984 
 3537000    1.2118915   -3.1218552   -1.5383831   0.12562913   -3.1218552    1.5834721   504044 
 3538000    1.2122444   -3.1225321   -1.5388659   0.12602542   -3.1225321    1.5836662   504129 
 3539000    1.2127932   -3.1239075   -1.5397977   0.12115465   -3.1239075    1.5841097   504216 
 3540000    1.2140703   -3.1244435   -1.5389801   0.12702209   -3.1244435    1.5854634   504316 
 3541000    1.2123024   -3.1212782   -1.5383777   0.12606301   -3.1212782    1.5829005   504397 
 3542000    1.2139556   -3.1238725   -1.5390114   0.12065543   -3.1238725     1.584861   504460 
 3543000    1.2137752   -3.1233889   -1.5389361   0.13095974   -3.1233889    1.5844528   504515 
 3544000    1.2141599   -3.1236101   -1.5389598   0.12769628   -3.1236101    1.5846504   504612 
 3545000    1.2138716   -3.1224647   -1.5384009    0.1290723   -3.1224647    1.5840637   504679 
 3546000    1.2147005   -3.1232943   -1.5384158   0.12538686   -3.1232943    1.5848785   504764 
 3547000    1.2159312    -3.123233   -1.5370001   0.12683998    -3.123233    1.5862328   504844 
 3548000    1.2167917   -3.1247906   -1.5377149   0.12911305   -3.1247906    1.5870757   504933 
 3549000    1.2162827   -3.1239879   -1.5378023   0.12818541   -3.1239879    1.5861856   505005 
 3550000    1.2149331   -3.1237167   -1.5395014   0.13083354   -3.1237167    1.5842153   505072 
 3551000    1.2176574    -3.126658   -1.5391198   0.12745867    -3.126658    1.5875382   505145 
 3552000    1.2162602   -3.1236527   -1.5381621   0.12736582   -3.1236527    1.5854906   505217 
 3553000    1.2157141   -3.1229458   -1.5383647   0.13233565   -3.1229458    1.5845811   505280 
 3554000    1.2160913   -3.1234303   -1.5385959   0.12646811   -3.1234303    1.5848344   505356 
 3555000    1.2157308   -3.1217676   -1.5376506    0.1312322   -3.1217676     1.584117   505435 
 3556000    1.2171129   -3.1232756   -1.5376181    0.1270265   -3.1232756    1.5856574   505518 
 3557000    1.2161964   -3.1218917   -1.5376131   0.13161779   -3.1218917    1.5842786   505577 
 3558000     1.217204   -3.1234334   -1.5381841   0.13135169   -3.1234334    1.5852494   505686 
 3559000    1.2176278   -3.1236705   -1.5381451   0.12592693   -3.1236705    1.5855254   505774 
 3560000    1.2178282   -3.1248794   -1.5393283   0.12618578   -3.1248794    1.5855512   505849 
 3561000    1.2179623   -3.1240809    -1.538631   0.13390901   -3.1240809    1.5854499   505937 
 3562000    1.2187339   -3.1241449   -1.5378756   0.13134633   -3.1241449    1.5862694   505996 
 3563000    1.2190042   -3.1231524   -1.5368227   0.13238481   -3.1231524    1.5863297   506089 
 3564000    1.2204328    -3.124846   -1.5369115   0.12951703    -3.124846    1.5879345   506170 
 3565000    1.2203293   -3.1247429   -1.5371406    0.1282641   -3.1247429    1.5876023   506233 
 3566000    1.2200289   -3.1240443   -1.5370711   0.12705898   -3.1240443    1.5869732   506309 
 3567000    1.2209284    -3.125569   -1.5376922   0.13297247    -3.125569    1.5878767   506394 
 3568000    1.2221284   -3.1276626   -1.5384449   0.12514088   -3.1276626    1.5892177   506464 
 3569000    1.2183617   -3.1226463   -1.5386394   0.12814104   -3.1226463    1.5840068   506564 
 3570000    1.2193762   -3.1237364   -1.5386922   0.12663204   -3.1237364    1.5850442   506654 
 3571000    1.2210713   -3.1251555   -1.5382086   0.13067984   -3.1251555    1.5869469   506750 
 3572000    1.2209859   -3.1265768   -1.5400069    0.1255457   -3.1265768    1.5865699   506835 
 3573000     1.219371   -3.1248982   -1.5406707   0.12963892   -3.1248982    1.5842276   506913 
 3574000    1.2215362   -3.1260794   -1.5393642    0.1308678   -3.1260794    1.5867151   507017 
 3575000    1.2225353   -3.1259932   -1.5382465   0.12852495   -3.1259932    1.5877467   507102 
 3576000    1.2233901   -3.1277528   -1.5391466   0.12945123   -3.1277528    1.5886062   507182 
 3577000    1.2262949   -3.1317512   -1.5397025    0.1297734   -3.1317512    1.5920487   507287 
 3578000    1.2243397   -3.1291766   -1.5399389   0.13459935   -3.1291766    1.5892377   507374 
 3579000    1.2223256   -3.1285114   -1.5421383   0.13552481   -3.1285114    1.5863732   507454 
 3580000    1.2233219   -3.1290144   -1.5415515   0.12857623   -3.1290144    1.5874628   507519 
 3581000    1.2239045   -3.1286506    -1.540732   0.12435513   -3.1286506    1.5879185   507615 
 3582000     1.223964   -3.1290954    -1.541378   0.12976134   -3.1290954    1.5877174   507704 
 3583000    1.2252607   -3.1299912   -1.5408609    0.1305333   -3.1299912    1.5891303   507790 
 3584000     1.224141   -3.1280396   -1.5406023   0.13146803   -3.1280396    1.5874373   507867 
 3585000    1.2256559   -3.1298294   -1.5406654   0.13263906   -3.1298294     1.589164   507943 
 3586000    1.2249773   -3.1304107   -1.5423893   0.12886032   -3.1304107    1.5880215   508027 
 3587000    1.2245174   -3.1295848   -1.5423625   0.13321901   -3.1295848    1.5872222   508092 
 3588000    1.2254504   -3.1304691   -1.5422814   0.12394439   -3.1304691    1.5881877   508170 
 3589000    1.2247321   -3.1299903   -1.5429458   0.12936179   -3.1299903    1.5870445   508238 
 3590000    1.2242072   -3.1297665   -1.5436486    0.1283136   -3.1297665    1.5861178   508317 
 3591000    1.2245616   -3.1307681   -1.5444596   0.13489357   -3.1307681    1.5863085   508403 
 3592000    1.2270451   -3.1336519   -1.5444357   0.12348484   -3.1336519    1.5892162   508502 
 3593000    1.2250101   -3.1304675   -1.5441521    0.1310007   -3.1304675    1.5863154   508587 
 3594000    1.2268953   -3.1317704   -1.5432199   0.12625517   -3.1317704    1.5885505   508653 
 3595000    1.2258156   -3.1303946   -1.5435666   0.13164919   -3.1303946     1.586828   508757 
 3596000    1.2252976   -3.1294011   -1.5434306   0.13101803   -3.1294011    1.5859705   508817 
 3597000     1.224745   -3.1294311   -1.5443783   0.13240791   -3.1294311    1.5850528   508882 
 3598000    1.2256806   -3.1299063   -1.5438454   0.13157432   -3.1299063    1.5860609   508947 
 3599000    1.2284044   -3.1335413   -1.5441492   0.13212062   -3.1335413    1.5893921   509009 
 3600000    1.2271874   -3.1318172   -1.5442774    0.1316499   -3.1318172    1.5875399   509098 
 3601000    1.2282245   -3.1331899    -1.544583   0.12838847   -3.1331899    1.5886069   509186 
 3602000    1.2271593    -3.131194   -1.5442205   0.13179458    -3.131194    1.5869735   509268 
 3603000    1.2292282   -3.1328483   -1.5434364   0.13079589   -3.1328483    1.5894118   509344 
 3604000    1.2265773    -3.129752   -1.5439732   0.12405487    -3.129752    1.5857787   509410 
 3605000    1.2273394   -3.1310638   -1.5445178   0.13198441   -3.1310638     1.586546   509480 
 3606000     1.228068   -3.1308457   -1.5436911   0.13429813   -3.1308457    1.5871545   509587 
 3607000    1.2285482   -3.1308801   -1.5432919   0.12986282   -3.1308801    1.5875882   509647 
 3608000    1.2286228    -3.132695   -1.5453063   0.12424202    -3.132695    1.5873887   509742 
 3609000    1.2289682      -3.1337   -1.5461017   0.12506471      -3.1337    1.5875982   509818 
 3610000    1.2281224   -3.1306179   -1.5444203   0.13181885   -3.1306179    1.5861976   509917 
 3611000    1.2310586   -3.1338445   -1.5440916   0.13120189   -3.1338445    1.5897529   509993 
 3612000    1.2306213   -3.1326977   -1.5437463   0.13040973   -3.1326977    1.5889514   510069 
 3613000    1.2304897   -3.1330022   -1.5443795   0.13162133   -3.1330022    1.5886227   510120 
 3614000    1.2294005   -3.1327794   -1.5458522   0.12958328   -3.1327794    1.5869271   510213 
 3615000    1.2299869   -3.1317666   -1.5443937   0.13330632   -3.1317666    1.5873729   510313 
 3616000    1.2310869   -3.1333736   -1.5448176   0.13393912   -3.1333736     1.588556   510389 
 3617000    1.2297164   -3.1325205   -1.5459318   0.13103824   -3.1325205    1.5865886   510453 
 3618000    1.2293848   -3.1320858    -1.546183   0.13130515   -3.1320858    1.5859029   510536 
 3619000    1.2317502   -3.1346621   -1.5459288   0.13655322   -3.1346621    1.5887333   510607 
 3620000    1.2314093   -3.1339066   -1.5457746   0.13056849   -3.1339066     1.588132   510659 
 3621000    1.2316661   -3.1359735    -1.547669   0.13146365   -3.1359735    1.5883045   510710 
 3622000    1.2319399   -3.1364977   -1.5481293   0.13120818   -3.1364977    1.5883684   510803 
 3623000    1.2311039   -3.1350071   -1.5479932   0.13491336   -3.1350071    1.5870139   510892 
 3624000    1.2309091   -3.1354445   -1.5489022   0.13051152   -3.1354445    1.5865423   510963 
 3625000     1.232311   -3.1365016   -1.5484911   0.12415476   -3.1365016    1.5880105   511072 
 3626000    1.2330156   -3.1378729   -1.5490943   0.12977484   -3.1378729    1.5887786   511117 
 3627000    1.2339161   -3.1376278   -1.5479191   0.13467447   -3.1376278    1.5897088   511191 
 3628000    1.2329939   -3.1364072   -1.5481071   0.13447288   -3.1364072    1.5883001   511262 
 3629000    1.2321875   -3.1352845   -1.5482499   0.13240872   -3.1352845    1.5870346   511335 
 3630000    1.2326726   -3.1368493   -1.5494041   0.13077909   -3.1368493    1.5874452   511404 
 3631000    1.2319385   -3.1366746   -1.5503515   0.13222901   -3.1366746     1.586323   511461 
 3632000    1.2316888   -3.1363542   -1.5505604   0.12587337   -3.1363542    1.5857938   511528 
 3633000    1.2316893   -3.1368385   -1.5512734   0.12880229   -3.1368385    1.5855651   511602 
 3634000    1.2341592   -3.1391329   -1.5506274   0.11946376   -3.1391329    1.5885056   511679 
 3635000    1.2326462   -3.1370552   -1.5507637   0.12330928   -3.1370552    1.5862915   511765 
 3636000    1.2337047   -3.1378363   -1.5504214   0.12345131   -3.1378363    1.5874148   511842 
 3637000      1.23294   -3.1384883    -1.552231   0.12803262   -3.1384883    1.5862573   511898 
 3638000    1.2330855    -3.138019   -1.5517976   0.13023158    -3.138019    1.5862214   511970 
 3639000    1.2351716   -3.1398881   -1.5511507   0.12709211   -3.1398881    1.5887374   512024 
 3640000    1.2349505   -3.1388472   -1.5506361    0.1280244   -3.1388472    1.5882111   512102 
 3641000    1.2351159   -3.1383006   -1.5500753   0.12806063   -3.1383006    1.5882253   512166 
 3642000    1.2357816   -3.1399147   -1.5510754   0.12753169   -3.1399147    1.5888394   512244 
 3643000     1.237651     -3.14103   -1.5499736   0.12698102     -3.14103    1.5910564   512304 
 3644000    1.2359381   -3.1389218   -1.5502627   0.13100424   -3.1389218    1.5886591   512367 
 3645000    1.2354383   -3.1386222   -1.5508473     0.137588   -3.1386222    1.5877749   512445 
 3646000    1.2364195    -3.138825   -1.5499875   0.13064818    -3.138825    1.5888375   512509 
 3647000     1.237009   -3.1397625   -1.5504156   0.13629585   -3.1397625    1.5893469   512589 
 3648000    1.2370071   -3.1407601   -1.5515459   0.13207549   -3.1407601    1.5892142   512631 
 3649000    1.2352369   -3.1401737   -1.5534751   0.13388037   -3.1401737    1.5866986   512709 
 3650000    1.2369674   -3.1408831   -1.5522126   0.13353784   -3.1408831    1.5886705   512790 
 3651000    1.2361157   -3.1404387   -1.5530788   0.13656742   -3.1404387    1.5873599   512860 
 3652000    1.2359296   -3.1402835   -1.5532894   0.12957138   -3.1402835    1.5869942   512901 
 3653000    1.2348351   -3.1389109   -1.5535632   0.13616751   -3.1389109    1.5853477   512979 
 3654000    1.2377003   -3.1415234   -1.5527389   0.13114355   -3.1415234    1.5887846   513057 
 3655000    1.2366085   -3.1400215   -1.5529478   0.12998516   -3.1400215    1.5870737   513157 
 3656000    1.2374834   -3.1400985   -1.5521155   0.13274191   -3.1400985     1.587983   513226 
 3657000     1.238151    -3.140045   -1.5514343   0.13418637    -3.140045    1.5886107   513300 
 3658000     1.237942   -3.1403288   -1.5522956   0.13226256   -3.1403288    1.5880332   513400 
 3659000    1.2386025   -3.1405411   -1.5519422   0.12926882   -3.1405411    1.5885988   513491 
 3660000    1.2405128   -3.1421691   -1.5513741   0.13206024   -3.1421691     1.590795   513573 
 3661000    1.2410225    -3.142911   -1.5517165   0.13643601    -3.142911    1.5911945   513655 
 3662000    1.2395605     -3.14082   -1.5517382   0.13395229     -3.14082    1.5890818   513732 
 3663000     1.240507     -3.14267   -1.5527524   0.13134984     -3.14267    1.5899175   513854 
 3664000    1.2401286   -3.1416788    -1.552475   0.13549482   -3.1416788    1.5892037   513928 
 3665000    1.2409186   -3.1419584   -1.5519835   0.13040678   -3.1419584    1.5899748   514006 
 3666000    1.2417781   -3.1411773   -1.5503488   0.13644069   -3.1411773    1.5908285   514086 
 3667000    1.2433214   -3.1428273   -1.5503129   0.13481319   -3.1428273    1.5925143   514180 
 3668000    1.2432794   -3.1419727    -1.549701   0.13159523   -3.1419727    1.5922717   514241 
 3669000    1.2436118   -3.1421234   -1.5497047   0.13724495   -3.1421234    1.5924187   514331 
 3670000    1.2438872   -3.1441576   -1.5515782     0.136254   -3.1441576    1.5925794   514393 
 3671000    1.2430466   -3.1437978   -1.5525607   0.13074733   -3.1437978    1.5912371   514479 
 3672000    1.2436386   -3.1445418   -1.5527481   0.13161045   -3.1445418    1.5917937   514544 
 3673000    1.2441463    -3.144548    -1.552355    0.1376753    -3.144548     1.592193   514625 
 3674000    1.2436341   -3.1445189   -1.5531484   0.13836639   -3.1445189    1.5913705   514679 
 3675000    1.2428258   -3.1437245   -1.5535459   0.14020923   -3.1437245    1.5901786   514730 
 3676000     1.243626   -3.1444887   -1.5535366   0.13183088   -3.1444887    1.5909521   514811 
 3677000    1.2439728   -3.1446348   -1.5534708   0.13271571   -3.1446348    1.5911639   514886 
 3678000    1.2445298   -3.1451489   -1.5534796   0.14002239   -3.1451489    1.5916693   514953 
 3679000    1.2430153   -3.1428672   -1.5534527     0.139188   -3.1428672    1.5894145   515056 
 3680000    1.2447911   -3.1450898   -1.5536117   0.13812989   -3.1450898    1.5914781   515123 
 3681000    1.2464377   -3.1465849   -1.5532275   0.13534993   -3.1465849    1.5933575   515196 
 3682000    1.2462197   -3.1459323    -1.553138   0.13555914   -3.1459323    1.5927943   515288 
 3683000    1.2447126    -3.144752   -1.5540783   0.13241747    -3.144752    1.5906737   515351 
 3684000    1.2456335   -3.1459629   -1.5543224   0.13106277   -3.1459629    1.5916405   515419 
 3685000    1.2445122   -3.1453183   -1.5553882   0.13705964   -3.1453183    1.5899301   515509 
 3686000    1.2473777   -3.1472628   -1.5538572   0.13113291   -3.1472628    1.5934056   515569 
 3687000    1.2469711    -3.146893   -1.5542602   0.13450284    -3.146893    1.5926328   515651 
 3688000     1.246827   -3.1466146   -1.5544128   0.13933569   -3.1466146    1.5922018   515731 
 3689000    1.2458961   -3.1458751   -1.5550781   0.13545528   -3.1458751     1.590797   515801 
 3690000    1.2453642   -3.1450985   -1.5552148   0.13190206   -3.1450985    1.5898837   515877 
 3691000     1.246211   -3.1470914   -1.5563549   0.13361453   -3.1470914    1.5907365   515951 
 3692000    1.2453849    -3.145829   -1.5563288    0.1280092    -3.145829    1.5895002   516010 
 3693000    1.2475224   -3.1468786   -1.5548045   0.13102846   -3.1468786    1.5920741   516060 
 3694000    1.2467518   -3.1453646   -1.5545576   0.13870649   -3.1453646    1.5908071   516152 
 3695000    1.2489767   -3.1478687   -1.5544172   0.13448454   -3.1478687    1.5934515   516215 
 3696000    1.2486426    -3.146715   -1.5538965   0.13446206    -3.146715    1.5928186   516282 
 3697000    1.2481914   -3.1471208   -1.5550782   0.13622152   -3.1471208    1.5920426   516347 
 3698000    1.2480113   -3.1463221    -1.554682   0.14198412   -3.1463221    1.5916401   516403 
 3699000    1.2465032   -3.1450704   -1.5556214   0.13933897   -3.1450704     1.589449   516490 
 3700000    1.2485146   -3.1468276   -1.5550665   0.13678749   -3.1468276    1.5917611   516572 
 3701000     1.249409   -3.1480186   -1.5553237   0.13327793   -3.1480186    1.5926949   516639 
 3702000    1.2486873   -3.1486075     -1.55711   0.13662089   -3.1486075    1.5914976   516729 
 3703000    1.2473679   -3.1466588   -1.5570305   0.13390309   -3.1466588    1.5896283   516790 
 3704000    1.2474608    -3.148051   -1.5585349   0.13670114    -3.148051    1.5895161   516865 
 3705000    1.2473481   -3.1483761    -1.559182    0.1320044   -3.1483761    1.5891941   516923 
 3706000    1.2492183   -3.1490281    -1.557679   0.13795453   -3.1490281    1.5913491   516997 
 3707000    1.2498277   -3.1503472   -1.5584343   0.13114899   -3.1503472    1.5919129   517066 
 3708000    1.2500106   -3.1501917   -1.5582676   0.13536051   -3.1501917    1.5919241   517138 
 3709000       1.2498   -3.1495827   -1.5582067   0.13532914   -3.1495827    1.5913759   517229 
 3710000    1.2502599   -3.1513937    -1.559663   0.13127793   -3.1513937    1.5917307   517304 
 3711000     1.249687   -3.1499671   -1.5591872   0.14076647   -3.1499671    1.5907799   517376 
 3712000    1.2494562   -3.1489197   -1.5586394   0.13409968   -3.1489197    1.5902803   517443 
 3713000    1.2507715    -3.150969   -1.5592515   0.13414154    -3.150969    1.5917175   517520 
 3714000    1.2513213   -3.1520471   -1.5598454   0.13371102   -3.1520471    1.5922017   517590 
 3715000    1.2527059   -3.1534779   -1.5596992   0.13618173   -3.1534779    1.5937787   517650 
 3716000    1.2503689    -3.151554    -1.560982   0.13377741    -3.151554     1.590572   517726 
 3717000    1.2501723   -3.1500336   -1.5599237   0.13459226   -3.1500336    1.5901099   517795 
 3718000    1.2520331   -3.1519267   -1.5596714   0.13170087   -3.1519267    1.5922552   517867 
 3719000    1.2530081   -3.1524716    -1.559284   0.13480459   -3.1524716    1.5931876   517967 
 3720000    1.2535476   -3.1522689   -1.5585953   0.13141038   -3.1522689    1.5936736   518032 
 3721000    1.2533952   -3.1533577   -1.5600716    0.1344995   -3.1533577    1.5932861   518095 
 3722000    1.2525451   -3.1520214   -1.5600065   0.13717897   -3.1520214     1.592015   518157 
 3723000    1.2526255   -3.1517878   -1.5598335   0.13610185   -3.1517878    1.5919543   518210 
 3724000    1.2520843   -3.1518836   -1.5608197   0.13561029   -3.1518836    1.5910638   518276 
 3725000    1.2528239   -3.1518009   -1.5600337   0.13368991   -3.1518009    1.5917672   518353 
 3726000    1.2534936   -3.1538896   -1.5614589   0.13913939   -3.1538896    1.5924306   518414 
 3727000    1.2531148   -3.1520755   -1.5603779   0.13710162   -3.1520755    1.5916976   518496 
 3728000    1.2534721   -3.1526416   -1.5607112   0.13608868   -3.1526416    1.5919304   518568 
 3729000    1.2541466   -3.1532749   -1.5606444   0.13141917   -3.1532749    1.5926305   518619 
 3730000    1.2548058   -3.1542222   -1.5609389   0.13885707   -3.1542222    1.5932833   518679 
 3731000    1.2531976   -3.1524792   -1.5614129   0.13627455   -3.1524792    1.5910663   518736 
 3732000    1.2553818   -3.1557631   -1.5621479   0.13110186   -3.1557631    1.5936152   518809 
 3733000    1.2550587   -3.1531585   -1.5602022   0.13380443   -3.1531585    1.5929563   518890 
 3734000    1.2568085   -3.1547464   -1.5597905   0.14112583   -3.1547464    1.5949559   518962 
 3735000    1.2559141   -3.1549931   -1.5613872   0.13607497   -3.1549931     1.593606   519032 
 3736000    1.2560474   -3.1546433   -1.5611384    0.1391902   -3.1546433    1.5935049   519120 
 3737000    1.2559446    -3.154494   -1.5613466   0.13480913    -3.154494    1.5931474   519194 
 3738000    1.2553836   -3.1536064    -1.561367   0.13776987   -3.1536064    1.5922395   519258 
 3739000     1.256182   -3.1547785   -1.5617412   0.13753364   -3.1547785    1.5930373   519328 
 3740000    1.2559066   -3.1546408   -1.5621581   0.13077613   -3.1546408    1.5924827   519395 
 3741000    1.2558312    -3.153725   -1.5615003   0.13644155    -3.153725    1.5922246   519448 
 3742000    1.2579416   -3.1554684   -1.5607769   0.14048222   -3.1554684    1.5946915   519516 
 3743000    1.2571146   -3.1552224   -1.5618216   0.13436012   -3.1552224    1.5934008   519595 
 3744000    1.2575172   -3.1567248   -1.5630376   0.13925965   -3.1567248    1.5936873   519668 
 3745000    1.2567553   -3.1543533   -1.5618461   0.13834829   -3.1543533    1.5925072   519738 
 3746000    1.2582056   -3.1562318   -1.5620985   0.13475978   -3.1562318    1.5941333   519807 
 3747000    1.2556811   -3.1529312   -1.5621893   0.13892235   -3.1529312    1.5907419   519870 
 3748000    1.2573373   -3.1557237   -1.5631317   0.14073439   -3.1557237     1.592592   519951 
 3749000    1.2576924   -3.1554334   -1.5625878   0.13518847   -3.1554334    1.5928456   520015 
 3750000    1.2570611   -3.1549785   -1.5631374   0.13474738   -3.1549785    1.5918411   520082 
 3751000    1.2564058   -3.1555837   -1.5647591   0.13627444   -3.1555837    1.5908246   520143 
 3752000    1.2564499   -3.1569664   -1.5662694   0.13122578   -3.1569664     1.590697   520203 
 3753000    1.2570746    -3.156707   -1.5653874   0.13757485    -3.156707    1.5913196   520258 
 3754000    1.2557796   -3.1553256   -1.5658073   0.13653287   -3.1553256    1.5895183   520311 
 3755000     1.256941   -3.1583144   -1.5675093   0.13640227   -3.1583144     1.590805   520371 
 3756000    1.2568532   -3.1577995   -1.5672768   0.13869567   -3.1577995    1.5905227   520427 
 3757000    1.2565525   -3.1577205   -1.5678257   0.13686187   -3.1577205    1.5898947   520508 
 3758000    1.2569598   -3.1585587   -1.5683228   0.13978067   -3.1585587    1.5902359   520565 
 3759000    1.2581385    -3.158991   -1.5674718    0.1404065    -3.158991    1.5915192   520633 
 3760000    1.2585341   -3.1590567   -1.5672695   0.13532001   -3.1590567    1.5917873   520709 
 3761000    1.2581223   -3.1593025   -1.5682163   0.13770914   -3.1593025    1.5910862   520768 
 3762000    1.2592485   -3.1614277   -1.5690885   0.13344872   -3.1614277    1.5923392   520824 
 3763000    1.2584287   -3.1590218   -1.5679056   0.13898001   -3.1590218    1.5911162   520885 
 3764000    1.2595514   -3.1611501   -1.5688375   0.13851976   -3.1611501    1.5923126   520958 
 3765000    1.2598934    -3.162011   -1.5694373   0.13720546    -3.162011    1.5925738   521014 
 3766000    1.2596463   -3.1612617   -1.5692081   0.14030325   -3.1612617    1.5920536   521082 
 3767000    1.2593509   -3.1598375   -1.5684016    0.1373049   -3.1598375    1.5914359   521162 
 3768000    1.2597096   -3.1603135    -1.568632   0.13593945   -3.1603135    1.5916815   521230 
 3769000    1.2599414   -3.1614182   -1.5696912    0.1333084   -3.1614182     1.591727   521311 
 3770000    1.2614109   -3.1625506    -1.569181   0.13377459   -3.1625506    1.5933696   521381 
 3771000    1.2611355   -3.1612201   -1.5684245   0.13584581   -3.1612201    1.5927956   521455 
 3772000    1.2598045   -3.1596425   -1.5686836   0.14076166   -3.1596425    1.5909589   521506 
 3773000    1.2597829   -3.1598383   -1.5691323   0.14043444   -3.1598383     1.590706   521580 
 3774000    1.2594947   -3.1596453   -1.5694221   0.13543588   -3.1596453    1.5902232   521619 
 3775000    1.2586229    -3.158054   -1.5691693   0.14492794    -3.158054    1.5888848   521697 
 3776000    1.2601834   -3.1597404   -1.5691296   0.14287183   -3.1597404    1.5906109   521777 
 3777000    1.2584675   -3.1594241   -1.5711373   0.13447317   -3.1594241    1.5882869   521829 
 3778000    1.2585869   -3.1601216   -1.5718759   0.13507375   -3.1601216    1.5882458   521892 
 3779000    1.2587344   -3.1605109   -1.5722586   0.13314574   -3.1605109    1.5882523   521951 
 3780000    1.2597391   -3.1614104   -1.5720609   0.13363832   -3.1614104    1.5893495   522007 
 3781000    1.2615123   -3.1638105    -1.572358   0.13544905   -3.1638105    1.5914525   522051 
 3782000    1.2595831   -3.1619104   -1.5730195   0.13786359   -3.1619104    1.5888909   522093 
 3783000    1.2613686    -3.163771   -1.5728075   0.13654932    -3.163771    1.5909635   522152 
 3784000    1.2622737   -3.1640378   -1.5721767   0.13768373   -3.1640378    1.5918611   522232 
 3785000    1.2612779   -3.1625798   -1.5722121   0.13824338   -3.1625798    1.5903678   522310 
 3786000    1.2629353   -3.1652939   -1.5730528   0.13386727   -3.1652939    1.5922412   522381 
 3787000    1.2607828   -3.1631903   -1.5737967   0.13665096   -3.1631903    1.5893936   522425 
 3788000    1.2615405   -3.1639533   -1.5738572   0.14025631   -3.1639533    1.5900962   522508 
 3789000    1.2637205   -3.1665163   -1.5737852   0.13676444   -3.1665163    1.5927311   522545 
 3790000    1.2620738   -3.1643766   -1.5738853   0.14057463   -3.1643766    1.5904914   522599 
 3791000    1.2640759    -3.167334   -1.5744811   0.13919952    -3.167334    1.5928529   522652 
 3792000    1.2626237   -3.1658596   -1.5750467    0.1336509   -3.1658596    1.5908129   522721 
 3793000    1.2640463    -3.167682   -1.5753477    0.1326778    -3.167682    1.5923343   522810 
 3794000    1.2623408   -3.1644684   -1.5744285   0.13908712   -3.1644684    1.5900398   522858 
 3795000    1.2656237   -3.1687686   -1.5747827   0.14225422   -3.1687686    1.5939859   522920 
 3796000    1.2635717   -3.1657782   -1.5746445   0.13895328   -3.1657782    1.5911338   523008 
 3797000    1.2651691   -3.1687864   -1.5758208   0.13339306   -3.1687864    1.5929656   523067 
 3798000    1.2636426   -3.1671939   -1.5762963   0.13779702   -3.1671939    1.5908975   523115 
 3799000     1.264157   -3.1684192   -1.5770596   0.13712351   -3.1684192    1.5913596   523176 
 3800000    1.2621539   -3.1666135   -1.5779363   0.13630416   -3.1666135    1.5886771   523229 
 3801000    1.2641143   -3.1685283   -1.5775418   0.13432468   -3.1685283    1.5909865   523281 
 3802000    1.2648453   -3.1694354   -1.5777204   0.12900702   -3.1694354     1.591715   523344 
 3803000    1.2649116   -3.1702338   -1.5786209   0.12834459   -3.1702338    1.5916129   523405 
 3804000    1.2637618   -3.1675931   -1.5776366   0.13859715   -3.1675931    1.5899565   523474 
 3805000    1.2648249   -3.1694612   -1.5783739   0.13944684   -3.1694612    1.5910873   523542 
 3806000    1.2647232   -3.1699327   -1.5791465   0.13718516   -3.1699327    1.5907861   523599 
 3807000    1.2657473    -3.171774   -1.5799064    0.1317819    -3.171774    1.5918676   523667 
 3808000    1.2646771   -3.1695092      -1.5791   0.13797851   -3.1695092    1.5904093   523704 
 3809000    1.2644132   -3.1695081   -1.5796432    0.1325409   -3.1695081    1.5898649   523774 
 3810000    1.2660521    -3.171353   -1.5796128   0.13165835    -3.171353    1.5917402   523835 
 3811000    1.2670094    -3.172109   -1.5793477   0.13391844    -3.172109    1.5927613   523895 
 3812000    1.2662309   -3.1712987   -1.5797074   0.13299506   -3.1712987    1.5915913   523958 
 3813000    1.2656415   -3.1702026   -1.5795373   0.13716077   -3.1702026    1.5906652   524019 
 3814000    1.2641339   -3.1674104   -1.5787853   0.13989955   -3.1674104     1.588625   524067 
 3815000    1.2662456   -3.1709724   -1.5798303   0.13724302   -3.1709724    1.5911422   524112 
 3816000    1.2644744   -3.1695646   -1.5807997   0.13582395   -3.1695646    1.5887649   524162 
 3817000    1.2645117   -3.1699347   -1.5812563   0.13311393   -3.1699347    1.5886784   524206 
 3818000    1.2660666   -3.1700088   -1.5796378     0.140382   -3.1700088     1.590371   524292 
 3819000    1.2668049   -3.1709501   -1.5798155   0.13862856   -3.1709501    1.5911346   524346 
 3820000    1.2671867   -3.1725999   -1.5811982   0.13643614   -3.1725999    1.5914017   524416 
 3821000    1.2673054   -3.1730162   -1.5816446   0.13977017   -3.1730162    1.5913716   524475 
 3822000    1.2671417   -3.1722598   -1.5813424   0.13818367   -3.1722598    1.5909174   524557 
 3823000     1.269075   -3.1748084   -1.5816186   0.13387897   -3.1748084    1.5931898   524608 
 3824000    1.2682789   -3.1741983   -1.5821536    0.1321478   -3.1741983    1.5920447   524656 
 3825000    1.2676358   -3.1737054   -1.5826469   0.13936149   -3.1737054    1.5910584   524715 
 3826000    1.2676235   -3.1742953   -1.5834281   0.13974469   -3.1742953    1.5908672   524773 
 3827000    1.2684681   -3.1737808   -1.5820781    0.1323015   -3.1737808    1.5917027   524847 
 3828000    1.2696658   -3.1757991   -1.5827967   0.13945391   -3.1757991    1.5930023   524914 
 3829000    1.2680881   -3.1747241   -1.5838226   0.13924447   -3.1747241    1.5909015   524954 
 3830000    1.2669375   -3.1732173   -1.5839107    0.1434646   -3.1732173    1.5893066   525004 
 3831000    1.2681534   -3.1742491   -1.5835807   0.13571166   -3.1742491    1.5906683   525058 
 3832000    1.2684513   -3.1755949   -1.5846983   0.13690162   -3.1755949    1.5908965   525106 
 3833000    1.2681355   -3.1746382   -1.5843497   0.14023915   -3.1746382    1.5902885   525176 
 3834000    1.2678462   -3.1731183   -1.5834045   0.13736944   -3.1731183    1.5897138   525246 
 3835000    1.2683579   -3.1749119    -1.584735   0.13709395   -3.1749119    1.5901769   525305 
 3836000    1.2698421   -3.1762463   -1.5843663   0.13675782   -3.1762463      1.59188   525357 
 3837000    1.2695627   -3.1765478   -1.5852241   0.13399556   -3.1765478    1.5913238   525425 
 3838000    1.2687595   -3.1751756   -1.5850311   0.13590994   -3.1751756    1.5901445   525482 
 3839000     1.269571    -3.176298   -1.5853211   0.13606776    -3.176298    1.5909769   525543 
 3840000    1.2683276   -3.1739801   -1.5847398   0.13558105   -3.1739801    1.5892403   525602 
 3841000    1.2699428   -3.1763119    -1.585184   0.14221748   -3.1763119    1.5911279   525647 
 3842000    1.2699771   -3.1762297   -1.5852313   0.13528159   -3.1762297    1.5909984   525704 
 3843000    1.2701974   -3.1772978   -1.5861566   0.13672666   -3.1772978    1.5911412   525748 
 3844000    1.2702409    -3.177155   -1.5860955   0.13559361    -3.177155    1.5910595   525793 
 3845000    1.2689176   -3.1769505   -1.5877509   0.13575115   -3.1769505    1.5891995   525860 
 3846000    1.2694134   -3.1763469   -1.5867562   0.13460577   -3.1763469    1.5895907   525936 
 3847000    1.2703247   -3.1769433   -1.5864837   0.13439484   -3.1769433    1.5904596   526026 
 3848000    1.2688838   -3.1745049   -1.5860002   0.13973078   -3.1745049    1.5885047   526076 
 3849000    1.2713471   -3.1775692   -1.5861471   0.13540244   -3.1775692    1.5914221   526131 
 3850000    1.2702946   -3.1773397   -1.5874224   0.13561557   -3.1773397    1.5899172   526193 
 3851000    1.2701259   -3.1770594   -1.5875406   0.13730961   -3.1770594    1.5895188   526255 
 3852000    1.2714962   -3.1778562   -1.5868099   0.13776145   -3.1778562    1.5910463   526317 
 3853000       1.2715   -3.1780483   -1.5871967   0.13516544   -3.1780483    1.5908515   526383 
 3854000    1.2719173   -3.1790323   -1.5878371   0.13943378   -3.1790323    1.5911952   526442 
 3855000    1.2706211   -3.1787021   -1.5893246   0.14059988   -3.1787021    1.5893775   526507 
 3856000    1.2726051   -3.1801041   -1.5884504   0.13488783   -3.1801041    1.5916536   526575 
 3857000    1.2734127   -3.1805996   -1.5880811   0.13627024   -3.1805996    1.5925185   526623 
 3858000    1.2723798   -3.1797256   -1.5887072    0.1377821   -3.1797256    1.5910183   526692 
 3859000    1.2734721   -3.1808171   -1.5885992   0.14139112   -3.1808171    1.5922178   526747 
 3860000    1.2733966   -3.1812054   -1.5891906   0.13624148   -3.1812054    1.5920147   526783 
 3861000    1.2729109    -3.179702   -1.5884245   0.13851207    -3.179702    1.5912776   526826 
 3862000    1.2732998   -3.1793983   -1.5877584   0.14437715   -3.1793983    1.5916399   526867 
 3863000    1.2738393   -3.1803216   -1.5882128   0.14268614   -3.1803216    1.5921088   526935 
 3864000    1.2751237   -3.1816604   -1.5881127   0.13665862   -3.1816604    1.5935477   526990 
 3865000    1.2741128   -3.1801456   -1.5880546   0.14265248   -3.1801456    1.5920911   527054 
 3866000    1.2738329   -3.1800905   -1.5885032   0.13944187   -3.1800905    1.5915873   527105 
 3867000    1.2750595   -3.1813305   -1.5884554   0.13554748   -3.1813305     1.592875   527186 
 3868000    1.2746099   -3.1810268   -1.5888673   0.14018767   -3.1810268    1.5921594   527237 
 3869000    1.2765167   -3.1824069   -1.5880169   0.13588769   -3.1824069      1.59439   527287 
 3870000    1.2739436   -3.1805522    -1.589539   0.14295363   -3.1805522    1.5910132   527341 
 3871000    1.2757767   -3.1835194   -1.5903498    0.1363319   -3.1835194    1.5931696   527385 
 3872000    1.2738954    -3.180829   -1.5901654   0.13840545    -3.180829    1.5906635   527437 
 3873000    1.2737312   -3.1809783   -1.5907129   0.13923691   -3.1809783    1.5902654   527501 
 3874000    1.2724431   -3.1795134   -1.5910338   0.13929835   -3.1795134    1.5884797   527560 
 3875000    1.2766541   -3.1829568   -1.5894105   0.13547552   -3.1829568    1.5935462   527623 
 3876000     1.276081   -3.1822002   -1.5895717    0.1443524   -3.1822002    1.5926285   527690 
 3877000    1.2754008   -3.1808592   -1.5892243   0.13974437   -3.1808592    1.5916348   527738 
 3878000    1.2759406   -3.1820682   -1.5898864   0.13886828   -3.1820682    1.5921818   527780 
 3879000    1.2748487   -3.1806188   -1.5899893   0.13776017   -3.1806188    1.5906294   527843 
 3880000    1.2756812    -3.182062   -1.5905748   0.14008144    -3.182062    1.5914872   527903 
 3881000    1.2742547   -3.1802226   -1.5907138   0.13544437   -3.1802226    1.5895088   527969 
 3882000     1.275625   -3.1832414   -1.5921769    0.1368256   -3.1832414    1.5910645   528020 
 3883000    1.2757758   -3.1834656   -1.5924691   0.13275879   -3.1834656    1.5909965   528105 
 3884000    1.2768998   -3.1837682   -1.5915329   0.14164323   -3.1837682    1.5922354   528159 
 3885000    1.2772444   -3.1838199   -1.5912362   0.13617972   -3.1838199    1.5925836   528186 
 3886000    1.2781988   -3.1844054   -1.5907887   0.13864895   -3.1844054    1.5936168   528238 
 3887000     1.275084   -3.1818585   -1.5922786    0.1394211   -3.1818585    1.5895799   528289 
 3888000    1.2766527     -3.18371   -1.5923884   0.13779599     -3.18371    1.5913216   528360 
 3889000    1.2760818   -3.1837429   -1.5932954   0.13565491   -3.1837429    1.5904475   528414 
 3890000    1.2777805     -3.18551   -1.5930839   0.13873391     -3.18551     1.592426   528460 
 3891000    1.2774464   -3.1852233   -1.5934395   0.13654828   -3.1852233    1.5917838   528535 
 3892000    1.2767295   -3.1836634   -1.5929506   0.13562117   -3.1836634    1.5907128   528594 
 3893000    1.2788776   -3.1846362   -1.5914368   0.14113008   -3.1846362    1.5931994   528657 
 3894000    1.2776207   -3.1829145   -1.5914345   0.14266215   -3.1829145      1.59148   528708 
 3895000    1.2781448   -3.1844255   -1.5924823   0.13760339   -3.1844255    1.5919431   528771 
 3896000    1.2786714   -3.1849474    -1.592508   0.14052047   -3.1849474    1.5924394   528824 
 3897000    1.2772884   -3.1835437    -1.593004     0.141245   -3.1835437    1.5905396   528883 
 3898000    1.2783086   -3.1851551   -1.5934866   0.13861679   -3.1851551    1.5916686   528930 
 3899000    1.2783879   -3.1862036   -1.5945958   0.14082701   -3.1862036    1.5916078   528983 
 3900000    1.2778578   -3.1847699   -1.5939724   0.13441388   -3.1847699    1.5907975   529033 
 3901000     1.279472   -3.1868852   -1.5942559   0.13870171   -3.1868852    1.5926294   529092 
 3902000    1.2792045   -3.1855756   -1.5934537   0.13529547   -3.1855756    1.5921219   529150 
 3903000    1.2795395   -3.1852144    -1.592805    0.1391473   -3.1852144    1.5924094   529193 
 3904000     1.280232   -3.1875074   -1.5944228   0.13988093   -3.1875074    1.5930846   529255 
 3905000     1.279823   -3.1869276   -1.5944994   0.13897432   -3.1869276    1.5924282   529304 
 3906000    1.2796514   -3.1871237   -1.5950624   0.13898833   -3.1871237    1.5920614   529355 
 3907000    1.2793363   -3.1874532   -1.5959702   0.13661129   -3.1874532    1.5914829   529417 
 3908000     1.278707    -3.186814   -1.5962552   0.13677495    -3.186814    1.5905588   529464 
 3909000    1.2802168   -3.1881045   -1.5958752   0.14019137   -3.1881045    1.5922294   529533 
 3910000    1.2802468   -3.1883267   -1.5962074   0.13587512   -3.1883267    1.5921193   529582 
 3911000    1.2798989   -3.1872288   -1.5957133   0.13864336   -3.1872288    1.5915154   529639 
 3912000    1.2798271   -3.1869192   -1.5956343   0.13831259   -3.1869192    1.5912849   529686 
 3913000    1.2826956   -3.1889323   -1.5942855   0.13763373   -3.1889323    1.5946468   529754 
 3914000     1.280938   -3.1877389   -1.5953824    0.1421549   -3.1877389    1.5923565   529789 
 3915000    1.2791577   -3.1862754   -1.5962912    0.1385441   -3.1862754    1.5899843   529842 
 3916000    1.2795645   -3.1864087   -1.5961199    0.1445364   -3.1864087    1.5902889   529909 
 3917000    1.2815197   -3.1886301   -1.5960705   0.13595724   -3.1886301    1.5925596   529962 
 3918000    1.2805786   -3.1878171   -1.5966132   0.14094015   -3.1878171    1.5912039   530024 
 3919000    1.2804054   -3.1893339   -1.5985493   0.14062251   -3.1893339    1.5907846   530092 
 3920000    1.2804731   -3.1885478   -1.5978951   0.14560151   -3.1885478    1.5906527   530164 
 3921000    1.2801925   -3.1878689   -1.5977478   0.14088803   -3.1878689    1.5901212   530225 
 3922000    1.2819123    -3.189556   -1.5975179   0.13776358    -3.189556    1.5920381   530298 
 3923000    1.2830231   -3.1910243   -1.5977719   0.13637504   -3.1910243    1.5932524   530353 
 3924000    1.2829126   -3.1902006   -1.5972446    0.1405606   -3.1902006     1.592956   530406 
 3925000    1.2837731   -3.1914646   -1.5976385   0.14351204   -3.1914646    1.5938261   530472 
 3926000    1.2846066   -3.1918454   -1.5971468   0.13780114   -3.1918454    1.5946986   530526 
 3927000    1.2848035   -3.1910482   -1.5962525   0.14492005   -3.1910482    1.5947957   530575 
 3928000    1.2843056   -3.1912244    -1.597179   0.13971445   -3.1912244    1.5940454   530619 
 3929000    1.2827827   -3.1891826   -1.5971683   0.14545825   -3.1891826    1.5920143   530666 
 3930000    1.2819774   -3.1895146   -1.5986916   0.14141669   -3.1895146     1.590823   530730 
 3931000    1.2844311   -3.1929055   -1.5991337   0.14193974   -3.1929055    1.5937717   530762 
 3932000    1.2821476   -3.1904694    -1.599675   0.14270183   -3.1904694    1.5907944   530810 
 3933000    1.2841941   -3.1916241   -1.5983895   0.14034169   -3.1916241    1.5932346   530843 
 3934000    1.2841828   -3.1914894   -1.5983949   0.14033257   -3.1914894    1.5930945   530885 
 3935000    1.2837555   -3.1913155   -1.5989041   0.13880507   -3.1913155    1.5924113   530936 
 3936000    1.2833545   -3.1909141    -1.599099    0.1450081   -3.1909141    1.5918151   530969 
 3937000    1.2850878   -3.1936407   -1.5998019   0.14078116   -3.1936407    1.5938388   531011 
 3938000    1.2850305   -3.1929715   -1.5993687   0.14190148   -3.1929715    1.5936028   531066 
 3939000    1.2843211   -3.1910696   -1.5985145   0.14354193   -3.1910696    1.5925551   531122 
 3940000    1.2850089    -3.193024   -1.5997451   0.13791438    -3.193024    1.5932789   531165 
 3941000    1.2856589   -3.1941041   -1.6001603   0.13527161   -3.1941041    1.5939438   531212 
 3942000    1.2836015   -3.1928213    -1.601566   0.14176331   -3.1928213    1.5912553   531258 
 3943000    1.2830644   -3.1911155   -1.6006876   0.14476519   -3.1911155    1.5904279   531312 
 3944000    1.2825571   -3.1913531   -1.6016948   0.13732131   -3.1913531    1.5896584   531359 
 3945000    1.2833302   -3.1924518   -1.6019879   0.13475769   -3.1924518    1.5904639   531410 
 3946000    1.2842253   -3.1930666   -1.6016461   0.14040298   -3.1930666    1.5914205   531461 
 3947000    1.2847917   -3.1932557   -1.6012142   0.14327417   -3.1932557    1.5920415   531488 
 3948000    1.2845391    -3.192651   -1.6010332   0.14117624    -3.192651    1.5916177   531525 
 3949000     1.285599   -3.1933941    -1.600559   0.13485527   -3.1933941    1.5928351   531557 
 3950000    1.2841003   -3.1928819   -1.6020264   0.14345628   -3.1928819    1.5908555   531598 
 3951000    1.2837922   -3.1933313   -1.6029621   0.14318578   -3.1933313    1.5903692   531633 
 3952000     1.284212   -3.1941012   -1.6033617   0.13699504   -3.1941012    1.5907395   531683 
 3953000    1.2834328   -3.1934173   -1.6038044    0.1432043   -3.1934173    1.5896129   531737 
 3954000    1.2848644   -3.1954478   -1.6042621    0.1416422   -3.1954478    1.5911856   531804 
 3955000    1.2832308   -3.1926866   -1.6036376   0.13548183   -3.1926866    1.5890489   531842 
 3956000    1.2845311   -3.1958249   -1.6053332   0.13770349   -3.1958249    1.5904917   531898 
 3957000    1.2838738   -3.1946184    -1.605105   0.13411666   -3.1946184    1.5895135   531953 
 3958000    1.2831676   -3.1934829    -1.605005   0.14185622   -3.1934829    1.5884779   532007 
 3959000     1.284327   -3.1953133   -1.6055227   0.13953464   -3.1953133    1.5897907   532048 
 3960000    1.2853492   -3.1950428   -1.6041244   0.13954827   -3.1950428    1.5909183   532094 
 3961000    1.2846297   -3.1940207   -1.6041722   0.14384451   -3.1940207    1.5898485   532154 
 3962000    1.2878959   -3.1969818   -1.6032378    0.1384144   -3.1969818     1.593744   532203 
 3963000     1.286664   -3.1955397   -1.6035504   0.14171744   -3.1955397    1.5919893   532280 
 3964000    1.2872533   -3.1953749   -1.6028061   0.14723959   -3.1953749    1.5925689   532330 
 3965000    1.2884281   -3.1962393   -1.6023878   0.14445986   -3.1962393    1.5938515   532387 
 3966000    1.2890107    -3.196897   -1.6024804   0.14002675    -3.196897    1.5944165   532439 
 3967000    1.2870519   -3.1959093   -1.6040831   0.14221897   -3.1959093    1.5918263   532495 
 3968000    1.2859395   -3.1954846   -1.6052104   0.13638467   -3.1954846    1.5902742   532554 
 3969000    1.2882173   -3.1980479   -1.6051153   0.13834544   -3.1980479    1.5929325   532607 
 3970000    1.2872055   -3.1962168    -1.604634   0.14104756   -3.1962168    1.5915828   532640 
 3971000     1.287936   -3.1978794   -1.6055577    0.1413254   -3.1978794    1.5923217   532695 
 3972000    1.2867278   -3.1968937   -1.6062092    0.1395885   -3.1968937    1.5906845   532743 
 3973000    1.2862055   -3.1957057   -1.6058429   0.14186119   -3.1957057    1.5898627   532802 
 3974000    1.2868185   -3.1962188   -1.6057356   0.13809372   -3.1962188    1.5904832   532848 
 3975000    1.2886548   -3.1978681   -1.6052825   0.13755756   -3.1978681    1.5925855   532904 
 3976000    1.2864985   -3.1964253   -1.6065912   0.13914823   -3.1964253    1.5898341   532933 
 3977000    1.2868034   -3.1962066   -1.6061479   0.13411266   -3.1962066    1.5900587   532984 
 3978000    1.2871622   -3.1963327   -1.6059441   0.13789614   -3.1963327    1.5903887   533022 
 3979000    1.2880886   -3.1963517   -1.6049736   0.14135927   -3.1963517    1.5913781   533074 
 3980000    1.2890773   -3.1976067   -1.6051566    0.1427532   -3.1976067    1.5924502   533124 
 3981000    1.2883732   -3.1976875   -1.6062176   0.14349345   -3.1976875    1.5914699   533161 
 3982000     1.288091   -3.1973621   -1.6064317   0.14255007   -3.1973621    1.5909304   533225 
 3983000    1.2889963   -3.1991456   -1.6072224   0.14100384   -3.1991456    1.5919232   533267 
 3984000    1.2887719   -3.1988276   -1.6073397   0.14666123   -3.1988276    1.5914879   533320 
 3985000    1.2874518   -3.1989102   -1.6091986   0.14142607   -3.1989102    1.5897116   533369 
 3986000    1.2869507   -3.1985753   -1.6096702   0.13989821   -3.1985753    1.5889052   533432 
 3987000    1.2888869   -3.2003482   -1.6091719   0.13748843   -3.2003482    1.5911763   533472 
 3988000    1.2887936   -3.2005962   -1.6097111   0.13963049   -3.2005962    1.5908852   533531 
 3989000    1.2885533   -3.2009671   -1.6105396   0.14249127   -3.2009671    1.5904276   533585 
 3990000    1.2890357   -3.2015285   -1.6107083   0.13889837   -3.2015285    1.5908203   533653 
 3991000    1.2894308   -3.2027895   -1.6116366   0.14370608   -3.2027895    1.5911528   533705 
 3992000    1.2889013   -3.2028208   -1.6124465   0.14422014   -3.2028208    1.5903743   533747 
 3993000    1.2899549   -3.2031484    -1.611641   0.13976147   -3.2031484    1.5915074   533803 
 3994000     1.291743   -3.2053372   -1.6117671   0.13700499   -3.2053372    1.5935702   533851 
 3995000    1.2879411   -3.2019199   -1.6131352   0.14321627   -3.2019199    1.5887847   533883 
 3996000    1.2890639   -3.2027142   -1.6127202   0.14597238   -3.2027142     1.589994   533942 
 3997000    1.2900846   -3.2036549   -1.6125895   0.14005732   -3.2036549    1.5910653   534005 
 3998000    1.2907769    -3.204084   -1.6122841   0.14202037    -3.204084    1.5917999   534045 
 3999000    1.2911927    -3.203987   -1.6118056   0.14404203    -3.203987    1.5921815   534089 
 4000000    1.2936282   -3.2063522   -1.6112841   0.14129918   -3.2063522    1.5950682   534128 
 4001000    1.2921276    -3.203944   -1.6108931   0.14320309    -3.203944     1.593051   534184 
 4002000    1.2912737   -3.2029636   -1.6110638   0.14474391   -3.2029636    1.5918998   534217 
 4003000    1.2930641   -3.2047726   -1.6108027   0.13964502   -3.2047726    1.5939698   534263 
 4004000    1.2920672   -3.2048018   -1.6122606   0.14401912   -3.2048018    1.5925412   534330 
 4005000    1.2908997   -3.2025802    -1.611612   0.14061737   -3.2025802    1.5909682   534375 
 4006000    1.2910563   -3.2037504   -1.6127649   0.13768145   -3.2037504    1.5909855   534434 
 4007000    1.2907628   -3.2023671   -1.6119217   0.13663491   -3.2023671    1.5904454   534494 
 4008000    1.2917191   -3.2040286   -1.6125301   0.14109881   -3.2040286    1.5914985   534536 
 4009000     1.292061   -3.2046029   -1.6129182    0.1380548   -3.2046029    1.5916846   534615 
 4010000    1.2913288   -3.2043057   -1.6136749   0.14010178   -3.2043057    1.5906308   534666 
 4011000    1.2887912   -3.2011665   -1.6138157   0.14576862   -3.2011665    1.5873508   534718 
 4012000    1.2929575   -3.2058325   -1.6134992   0.13364508   -3.2058325    1.5923333   534768 
 4013000    1.2923986   -3.2048279   -1.6132543   0.14120632   -3.2048279    1.5915736   534792 
 4014000    1.2921917   -3.2044097   -1.6132575   0.13791391   -3.2044097    1.5911522   534848 
 4015000    1.2909193   -3.2021276     -1.61267   0.14241323   -3.2021276    1.5894576   534891 
 4016000    1.2928524   -3.2058458   -1.6141687   0.13626403   -3.2058458    1.5916771   534945 
 4017000    1.2928523   -3.2047344    -1.613227   0.14014456   -3.2047344    1.5915074   535002 
 4018000    1.2922152   -3.2037581    -1.613157    0.1435032   -3.2037581    1.5906011   535043 
 4019000    1.2925373   -3.2045434   -1.6136648   0.13973004   -3.2045434    1.5908786   535083 
 4020000    1.2935299   -3.2046986   -1.6128094   0.13955242   -3.2046986    1.5918892   535154 
 4021000    1.2924647   -3.2056688   -1.6151915   0.14262805   -3.2056688    1.5904772   535188 
 4022000    1.2930555   -3.2066949   -1.6155976   0.13805264   -3.2066949    1.5910973   535224 
 4023000     1.292712   -3.2070241   -1.6164832   0.14502774   -3.2070241    1.5905409   535269 
 4024000     1.292065   -3.2062795   -1.6166684   0.14469146   -3.2062795    1.5896111   535314 
 4025000    1.2937532    -3.208291   -1.6167842   0.14153123    -3.208291    1.5915067   535375 
 4026000    1.2917039   -3.2079306    -1.619022   0.13782701   -3.2079306    1.5889086   535401 
 4027000    1.2920461   -3.2074685   -1.6182962     0.143017   -3.2074685    1.5891723   535454 
 4028000    1.2923229    -3.205873   -1.6165384   0.14253269    -3.205873    1.5893346   535514 
 4029000    1.2948272   -3.2090958   -1.6168508    0.1398728   -3.2090958     1.592245   535571 
 4030000    1.2952532   -3.2102905   -1.6176644   0.14238201   -3.2102905    1.5926261   535619 
 4031000    1.2959595   -3.2105519   -1.6171645   0.14526945   -3.2105519    1.5933874   535655 
 4032000    1.2967157   -3.2120819   -1.6179135   0.14082469   -3.2120819    1.5941684   535705 
 4033000    1.2960568   -3.2119257   -1.6187101   0.14599842   -3.2119257    1.5932156   535753 
 4034000    1.2955072   -3.2111833   -1.6188008   0.14174136   -3.2111833    1.5923825   535806 
 4035000    1.2983188   -3.2131793    -1.617472    0.1361851   -3.2131793    1.5957073   535850 
 4036000    1.2981371   -3.2121509   -1.6168157   0.14158122   -3.2121509    1.5953352   535900 
 4037000    1.2961621    -3.210737   -1.6179806   0.13909337    -3.210737    1.5927565   535951 
 4038000    1.2957915   -3.2096587   -1.6175389   0.14892141   -3.2096587    1.5921198   536012 
 4039000    1.2979578   -3.2122812   -1.6175979   0.14294692   -3.2122812    1.5946833   536045 
 4040000    1.2955421   -3.2090083   -1.6174651   0.14507067   -3.2090083    1.5915432   536103 
 4041000    1.2943135   -3.2102289   -1.6203729   0.14251254   -3.2102289     1.589856   536163 
 4042000    1.2953658   -3.2095163    -1.618525   0.14212024   -3.2095163    1.5909912   536216 
 4043000    1.2975478   -3.2126681    -1.619092   0.13389573   -3.2126681    1.5935761   536248 
 4044000    1.2963512   -3.2111083    -1.619079   0.14719198   -3.2111083    1.5920294   536274 
 4045000    1.2965464   -3.2116114   -1.6194819   0.14150787   -3.2116114    1.5921295   536321 
 4046000     1.296772   -3.2116865   -1.6193928   0.13860371   -3.2116865    1.5922937   536359 
 4047000    1.2958844   -3.2102971   -1.6191852   0.14035255   -3.2102971    1.5911118   536390 
 4048000    1.2953702   -3.2091569   -1.6188424   0.14131058   -3.2091569    1.5903145   536446 
 4049000    1.2950299   -3.2092356   -1.6194603    0.1435305   -3.2092356    1.5897753   536487 
 4050000    1.2961046   -3.2099211   -1.6189837   0.14127809   -3.2099211    1.5909374   536540 
 4051000    1.2975795   -3.2110244   -1.6184577   0.14092836   -3.2110244    1.5925667   536601 
 4052000    1.2965941   -3.2092578   -1.6180903   0.14713074   -3.2092578    1.5911675   536665 
 4053000    1.2975945   -3.2099268   -1.6176918   0.14778005   -3.2099268    1.5922349   536719 
 4054000     1.298089   -3.2100362   -1.6173132   0.14455595   -3.2100362    1.5927231   536759 
 4055000    1.2977269   -3.2100199   -1.6179191   0.14724358   -3.2100199    1.5921008   536819 
 4056000    1.2966287   -3.2089743   -1.6183601   0.14576984   -3.2089743    1.5906143   536866 
 4057000    1.2991482   -3.2117933   -1.6182041   0.14504036   -3.2117933    1.5935892   536905 
 4058000    1.2982946   -3.2118425   -1.6194546   0.14553466   -3.2118425    1.5923879   536957 
 4059000     1.298358   -3.2119254   -1.6196079   0.14141044   -3.2119254    1.5923175   537007 
 4060000    1.2985184   -3.2131381   -1.6207989    0.1450806   -3.2131381    1.5923391   537066 
 4061000    1.2973184   -3.2114861   -1.6207191   0.14351719   -3.2114861     1.590767   537100 
 4062000    1.2981996   -3.2127254   -1.6210409   0.14504397   -3.2127254    1.5916845   537155 
 4063000    1.2981121   -3.2135584   -1.6221561   0.14275809   -3.2135584    1.5914024   537214 
 4064000    1.2980212   -3.2140574   -1.6228701   0.14138841   -3.2140574    1.5911873   537249 
 4065000    1.2999745   -3.2159149   -1.6224488   0.13929085   -3.2159149    1.5934661   537288 
 4066000     1.298714    -3.214092   -1.6223013   0.14760249    -3.214092    1.5917907   537332 
 4067000    1.3001687   -3.2142892   -1.6208876   0.14494995   -3.2142892    1.5934016   537390 
 4068000    1.3011959     -3.21602   -1.6215109   0.14724115     -3.21602    1.5945091   537441 
 4069000    1.2998493   -3.2134697     -1.62075   0.14125804   -3.2134697    1.5927197   537488 
 4070000    1.3014299   -3.2162391   -1.6217339   0.14039954   -3.2162391    1.5945052   537539 
 4071000    1.3015219   -3.2169935   -1.6225179   0.14410237   -3.2169935    1.5944756   537587 
 4072000    1.3011469    -3.216599   -1.6227193   0.14298612    -3.216599    1.5938798   537633 
 4073000    1.2997872   -3.2150049   -1.6228766   0.14236215   -3.2150049    1.5921282   537662 
 4074000    1.3000061   -3.2158242   -1.6235937   0.14333134   -3.2158242    1.5922305   537718 
 4075000    1.3014226   -3.2169365   -1.6230955   0.14458368   -3.2169365     1.593841   537760 
 4076000     1.300319   -3.2161945   -1.6238561    0.1346997   -3.2161945    1.5923384   537811 
 4077000     1.298046    -3.213848   -1.6244408   0.14468851    -3.213848    1.5894071   537861 
 4078000    1.2994662   -3.2158519   -1.6248478   0.14123851   -3.2158519    1.5910041   537909 
 4079000    1.3001206   -3.2170559    -1.625434   0.13909027   -3.2170559    1.5916219   537971 
 4080000    1.2998376   -3.2172101   -1.6260411   0.14187456   -3.2172101     1.591169   538007 
 4081000    1.2992462   -3.2153849    -1.625073   0.14666548   -3.2153849     1.590312   538052 
 4082000    1.2981802   -3.2145048   -1.6256097   0.14585524   -3.2145048     1.588895   538090 
 4083000    1.3005859   -3.2173439    -1.625614   0.14617378   -3.2173439    1.5917299   538127 
 4084000    1.3020302   -3.2181145   -1.6247413   0.13967344   -3.2181145    1.5933732   538169 
 4085000    1.3009213   -3.2162706   -1.6243579   0.14721198   -3.2162706    1.5919127   538204 
 4086000    1.3015908   -3.2168327   -1.6242014   0.14432808   -3.2168327    1.5926313   538238 
 4087000    1.3018372   -3.2172476   -1.6244627   0.14149292   -3.2172476    1.5927848   538288 
 4088000    1.3017377   -3.2167054   -1.6241636   0.13768772   -3.2167054    1.5925418   538329 
 4089000    1.3023991   -3.2174097     -1.62418   0.14531799   -3.2174097    1.5932296   538370 
 4090000    1.3018835   -3.2170197   -1.6245834   0.14566305   -3.2170197    1.5924362   538425 
 4091000    1.3031125   -3.2184244   -1.6245738   0.14336979   -3.2184244    1.5938506   538455 
 4092000     1.302688    -3.218029   -1.6248247    0.1477718    -3.218029    1.5932043   538498 
 4093000    1.3015693   -3.2175658   -1.6259573   0.14200872   -3.2175658    1.5916085   538575 
 4094000    1.3029967   -3.2205337   -1.6272951   0.14521806   -3.2205337    1.5932385   538614 
 4095000    1.3023513   -3.2204106   -1.6281119   0.14787433   -3.2204106    1.5922987   538665 
 4096000    1.3013286   -3.2190253   -1.6281306   0.14870111   -3.2190253    1.5908947   538717 
 4097000    1.3027984    -3.220898   -1.6283425   0.14628833    -3.220898    1.5925555   538763 
 4098000    1.3007206   -3.2200971   -1.6301878   0.14016341   -3.2200971    1.5899094   538799 
 4099000    1.3019692   -3.2218239   -1.6305508   0.14187273   -3.2218239    1.5912731   538854 
 4100000    1.3007567   -3.2206274   -1.6309897   0.14266532   -3.2206274    1.5896378   538906 
 4101000    1.2995668   -3.2180475   -1.6299906   0.14304856   -3.2180475    1.5880569   538949 
 4102000    1.3016868   -3.2198636   -1.6293666   0.14979311   -3.2198636     1.590497   539000 
 4103000    1.3014366   -3.2197265   -1.6296354   0.14530614   -3.2197265    1.5900911   539034 
 4104000    1.3033865   -3.2212868   -1.6289669   0.14259013   -3.2212868    1.5923199   539086 
 4105000    1.3029642   -3.2203842   -1.6287781   0.14292708   -3.2203842     1.591606   539153 
 4106000    1.3029317   -3.2198018    -1.628383   0.14916636   -3.2198018    1.5914188   539203 
 4107000    1.3033788   -3.2206521   -1.6288466   0.14346283   -3.2206521    1.5918055   539257 
 4108000    1.3039965   -3.2216352   -1.6292053   0.14395813   -3.2216352      1.59243   539301 
 4109000    1.3042945   -3.2225424   -1.6298784   0.13777153   -3.2225424     1.592664   539345 
 4110000    1.3023065   -3.2212431   -1.6310981   0.14360793   -3.2212431     1.590145   539376 
 4111000    1.3035804   -3.2224216   -1.6308452   0.14055876   -3.2224216    1.5915765   539418 
 4112000    1.3018374   -3.2215513   -1.6321823   0.14859662   -3.2215513    1.5893689   539445 
 4113000     1.302324   -3.2217983   -1.6319503   0.14045621   -3.2217983    1.5898481   539484 
 4114000    1.3041282    -3.223862   -1.6319649   0.13869878    -3.223862    1.5918971   539536 
 4115000    1.3023406   -3.2213926   -1.6318219   0.14670936   -3.2213926    1.5895706   539585 
 4116000    1.3027061   -3.2220434    -1.632171   0.14939927   -3.2220434    1.5898724   539634 
 4117000    1.3041881    -3.223599   -1.6320241   0.14543758    -3.223599    1.5915749   539670 
 4118000    1.3042153    -3.224182   -1.6327006   0.14413492    -3.224182    1.5914814   539713 
 4119000    1.3051835   -3.2249317   -1.6324283    0.1402829   -3.2249317    1.5925034   539767 
 4120000    1.3056012   -3.2255881    -1.632696   0.14318823   -3.2255881     1.592892   539808 
 4121000    1.3060906   -3.2260723   -1.6327189   0.14304223   -3.2260723    1.5933534   539854 
 4122000     1.304031   -3.2253236   -1.6345712   0.13918401   -3.2253236    1.5907524   539884 
 4123000    1.3043868   -3.2251667    -1.634104    0.1467042   -3.2251667    1.5910627   539926 
 4124000    1.3057409   -3.2257193   -1.6331111   0.14339653   -3.2257193    1.5926082   539962 
 4125000    1.3051277   -3.2253832   -1.6336378   0.14403441   -3.2253832    1.5917454   540001 
 4126000    1.3042172   -3.2244011   -1.6339576   0.14345292   -3.2244011    1.5904434   540066 
 4127000    1.3061773   -3.2258626   -1.6332058   0.14542598   -3.2258626    1.5926567   540126 
 4128000    1.3046921   -3.2262448   -1.6355286   0.14938947   -3.2262448    1.5907162   540170 
 4129000    1.3055462   -3.2267246   -1.6350642   0.14320177   -3.2267246    1.5916603   540203 
 4130000    1.3047214   -3.2263517   -1.6358648   0.14344066   -3.2263517    1.5904869   540260 
 4131000    1.3056723   -3.2275626   -1.6360844   0.13783083   -3.2275626    1.5914782   540317 
 4132000    1.3047424   -3.2262383   -1.6360142   0.14457895   -3.2262383    1.5902241   540358 
 4133000    1.3047418   -3.2268674   -1.6367677   0.14740701   -3.2268674    1.5900998   540400 
 4134000    1.3062543   -3.2275363   -1.6358024   0.14745195   -3.2275363    1.5917339   540471 
 4135000    1.3034472   -3.2248095   -1.6366343   0.14748219   -3.2248095    1.5881752   540518 
 4136000    1.3057527   -3.2261832   -1.6353461   0.14466406   -3.2261832    1.5908371   540568 
 4137000    1.3073695   -3.2273008    -1.634597   0.14326688   -3.2273008    1.5927038   540603 
 4138000    1.3072416   -3.2265544   -1.6341124   0.14508729   -3.2265544     1.592442   540639 
 4139000    1.3057803   -3.2239842    -1.633437   0.15157753   -3.2239842    1.5905471   540678 
 4140000    1.3070504   -3.2251805   -1.6331952    0.1524162   -3.2251805    1.5919853   540715 
 4141000    1.3082147   -3.2270825   -1.6338353   0.14367589   -3.2270825    1.5932472   540768 
 4142000    1.3082608   -3.2276933   -1.6345431   0.14317155   -3.2276933    1.5931502   540820 
 4143000    1.3084856   -3.2273824   -1.6340645    0.1477992   -3.2273824    1.5933179   540856 
 4144000      1.30802   -3.2275481   -1.6349797   0.14185585   -3.2275481    1.5925684   540918 
 4145000    1.3088208   -3.2282723   -1.6348261   0.14000089   -3.2282723    1.5934462   540951 
 4146000    1.3071572   -3.2262699   -1.6350286    0.1422291   -3.2262699    1.5912413   541012 
 4147000    1.3081802   -3.2259478   -1.6335935   0.14411691   -3.2259478    1.5923542   541057 
 4148000    1.3091788   -3.2278128   -1.6344315   0.14050935   -3.2278128    1.5933813   541121 
 4149000    1.3077693   -3.2264264   -1.6348723   0.14524289   -3.2264264    1.5915541   541159 
 4150000    1.3056757   -3.2247373   -1.6357958   0.15045193   -3.2247373    1.5889415   541181 
 4151000    1.3074949   -3.2265003   -1.6354684   0.14664314   -3.2265003    1.5910319   541223 
 4152000    1.3082742    -3.227744   -1.6358639   0.13991649    -3.227744    1.5918802   541257 
 4153000    1.3090996   -3.2290528   -1.6362212    0.1440355   -3.2290528    1.5928316   541275 
 4154000      1.30874    -3.229441   -1.6371675   0.13878188    -3.229441    1.5922734   541316 
 4155000    1.3075957   -3.2287617   -1.6380862   0.13737365   -3.2287617    1.5906756   541386 
 4156000     1.307725   -3.2286738    -1.637985   0.14928746   -3.2286738    1.5906888   541435 
 4157000    1.3069704   -3.2301187   -1.6404417   0.14497798   -3.2301187    1.5896769   541467 
 4158000    1.3074343   -3.2297735   -1.6396849   0.14043998   -3.2297735    1.5900886   541519 
 4159000    1.3094945   -3.2323346   -1.6398375   0.13737938   -3.2323346    1.5924971   541552 
 4160000     1.309114    -3.231689   -1.6397869   0.14109932    -3.231689    1.5919021   541597 
 4161000    1.3094431   -3.2312229   -1.6390853   0.14681241   -3.2312229    1.5921376   541653 
 4162000    1.3094694   -3.2313827   -1.6393365   0.14155215   -3.2313827    1.5920462   541695 
 4163000    1.3108459    -3.233449   -1.6398764   0.14752116    -3.233449    1.5935726   541745 
 4164000    1.3080303   -3.2310418   -1.6409948   0.14687979   -3.2310418     1.590047   541780 
 4165000    1.3081666   -3.2318498   -1.6417339   0.14923313   -3.2318498    1.5901159   541813 
 4166000    1.3081233   -3.2315189   -1.6415907   0.14498081   -3.2315189    1.5899282   541859 
 4167000    1.3081722   -3.2315839   -1.6417341   0.14352587   -3.2315839    1.5898498   541906 
 4168000    1.3084343   -3.2331533   -1.6431082   0.14017876   -3.2331533    1.5900451   541948 
 4169000    1.3063861   -3.2305494   -1.6431955   0.14284809   -3.2305494    1.5873539   542017 
 4170000    1.3071364   -3.2318644   -1.6437805   0.14407827   -3.2318644    1.5880839   542079 
 4171000    1.3081638   -3.2319307   -1.6427275   0.14378226   -3.2319307    1.5892032   542123 
 4172000    1.3090961   -3.2335123   -1.6432586   0.13830743   -3.2335123    1.5902537   542151 
 4173000    1.3077699   -3.2327087   -1.6441861   0.14543459   -3.2327087    1.5885225   542192 
 4174000    1.3079308    -3.232715   -1.6441319   0.14454352    -3.232715    1.5885831   542238 
 4175000    1.3078599    -3.231865   -1.6435262   0.14031821    -3.231865    1.5883388   542292 
 4176000    1.3096415   -3.2333393   -1.6430099   0.14094606   -3.2333393    1.5903295   542351 
 4177000    1.3079067   -3.2304637   -1.6423638   0.14749655   -3.2304637    1.5880999   542393 
 4178000    1.3091906   -3.2313992   -1.6418371   0.15156936   -3.2313992    1.5895621   542426 
 4179000    1.3087562   -3.2309735   -1.6421146   0.14601547   -3.2309735    1.5888589   542486 
 4180000    1.3105872   -3.2342238   -1.6432065   0.13940438   -3.2342238    1.5910173   542508 
 4181000     1.309764   -3.2332923   -1.6433798   0.14356772   -3.2332923    1.5899125   542544 
 4182000    1.3094805   -3.2339327   -1.6444757   0.13876081   -3.2339327     1.589457   542582 
 4183000    1.3102074   -3.2343683   -1.6441286    0.1403978   -3.2343683    1.5902396   542616 
 4184000    1.3096303   -3.2332577   -1.6438649   0.14382992   -3.2332577    1.5893928   542666 
 4185000    1.3085663   -3.2329111   -1.6449325   0.14342671   -3.2329111    1.5879786   542708 
 4186000    1.3080059   -3.2324466   -1.6452416   0.14396437   -3.2324466    1.5872049   542740 
 4187000    1.3109834   -3.2360309   -1.6453302   0.13941553   -3.2360309    1.5907007   542780 
 4188000    1.3089917   -3.2345245   -1.6463341   0.14117035   -3.2345245    1.5881905   542812 
 4189000    1.3089694   -3.2338015    -1.645755   0.14733879   -3.2338015    1.5880464   542852 
 4190000    1.3118304   -3.2363775   -1.6449159   0.14133411   -3.2363775    1.5914616   542871 
 4191000     1.311153   -3.2367001   -1.6462008   0.13824764   -3.2367001    1.5904993   542919 
 4192000    1.3104833   -3.2365225   -1.6470054   0.14634076   -3.2365225    1.5895171   542977 
 4193000    1.3128538    -3.238673    -1.646398   0.14213154    -3.238673     1.592275   543017 
 4194000    1.3126145   -3.2376767   -1.6458356   0.14341194   -3.2376767    1.5918411   543066 
 4195000    1.3117486   -3.2364279   -1.6456983   0.14691463   -3.2364279    1.5907295   543087 
 4196000    1.3112169   -3.2358042   -1.6458747   0.14989317   -3.2358042    1.5899295   543140 
 4197000    1.3115099   -3.2363969   -1.6462496   0.14333988   -3.2363969    1.5901473   543187 
 4198000     1.314253   -3.2389926   -1.6456515   0.14713102   -3.2389926    1.5933411   543232 
 4199000    1.3110355   -3.2355971   -1.6462971   0.14608186   -3.2355971       1.5893   543280 
 4200000    1.3111892   -3.2369453    -1.647576    0.1429352   -3.2369453    1.5893693   543320 
 4201000    1.3125908   -3.2380134   -1.6470448   0.14917846   -3.2380134    1.5909686   543354 
 4202000    1.3093076   -3.2356714   -1.6487933   0.14678686   -3.2356714    1.5868781   543392 
 4203000    1.3090614   -3.2358705   -1.6494337   0.14905744   -3.2358705    1.5864367   543441 
 4204000     1.309668   -3.2376134   -1.6505029   0.14665083   -3.2376134    1.5871105   543462 
 4205000    1.3096221   -3.2386777   -1.6516929    0.1398473   -3.2386777    1.5869848   543486 
 4206000     1.310118   -3.2384737   -1.6509873   0.14254227   -3.2384737    1.5874864   543520 
 4207000    1.3108164   -3.2399508   -1.6517409   0.14324166   -3.2399508    1.5882099   543562 
 4208000    1.3105998   -3.2390489   -1.6512415   0.13974302   -3.2390489    1.5878073   543610 
 4209000    1.3100704   -3.2381272   -1.6511248   0.14345656   -3.2381272    1.5870024   543666 
 4210000    1.3096354     -3.23939   -1.6530926   0.13724652     -3.23939    1.5862975   543727 
 4211000    1.3102063   -3.2385076   -1.6516266    0.1462006   -3.2385076     1.586881   543764 
 4212000     1.312173   -3.2399574   -1.6507849   0.14229756   -3.2399574    1.5891725   543795 
 4213000    1.3104101   -3.2380917   -1.6511477   0.14039587   -3.2380917    1.5869439   543827 
 4214000    1.3122712   -3.2404879   -1.6514012   0.14350207   -3.2404879    1.5890868   543865 
 4215000    1.3123698   -3.2408692   -1.6517711   0.14307501   -3.2408692    1.5890981   543902 
 4216000    1.3108093   -3.2401658   -1.6530272    0.1470543   -3.2401658    1.5871386   543926 
 4217000    1.3113108   -3.2415006   -1.6539621   0.14251386   -3.2415006    1.5875385   543997 
 4218000    1.3096683   -3.2394532   -1.6540285   0.14322727   -3.2394532    1.5854247   544040 
 4219000    1.3107484   -3.2409934   -1.6543779   0.14567098   -3.2409934    1.5866156   544080 
 4220000     1.311173   -3.2416755   -1.6546247   0.14140919   -3.2416755    1.5870508   544107 
 4221000     1.310142   -3.2406726   -1.6549746   0.14673991   -3.2406726     1.585698   544143 
 4222000    1.3113889   -3.2416543   -1.6545405   0.14492028   -3.2416543    1.5871137   544175 
 4223000    1.3121557   -3.2430476   -1.6551546   0.14487146   -3.2430476    1.5878929   544226 
 4224000      1.31252   -3.2414104   -1.6531729   0.14238897   -3.2414104    1.5882375   544259 
 4225000    1.3116028   -3.2418531   -1.6548013   0.14757183   -3.2418531    1.5870518   544285 
 4226000    1.3111596   -3.2414952   -1.6550846   0.14342123   -3.2414952    1.5864106   544321 
 4227000    1.3121179    -3.243184   -1.6557102   0.14225331    -3.243184    1.5874738   544354 
 4228000    1.3134384   -3.2442813     -1.65535   0.14133135   -3.2442813    1.5889314   544402 
 4229000    1.3124059   -3.2434382    -1.655893   0.13925289   -3.2434382    1.5875452   544449 
 4230000     1.311807   -3.2428814   -1.6562151   0.14311398   -3.2428814    1.5866664   544502 
 4231000    1.3141249   -3.2454976   -1.6561649   0.14660851   -3.2454976    1.5893327   544549 
 4232000    1.3141725   -3.2452513   -1.6559399   0.13968553   -3.2452513    1.5893115   544576 
 4233000     1.313608   -3.2456652   -1.6571589   0.13974655   -3.2456652    1.5885062   544618 
 4234000    1.3116578   -3.2426789   -1.6566126   0.14852968   -3.2426789    1.5860664   544646 
 4235000    1.3124915    -3.244038   -1.6571325   0.14193071    -3.244038    1.5869055   544704 
 4236000    1.3152665   -3.2477371   -1.6575931   0.14244788   -3.2477371     1.590144   544744 
 4237000    1.3147543   -3.2463549   -1.6569586   0.14120492   -3.2463549    1.5893963   544788 
 4238000    1.3146162   -3.2455682   -1.6564584   0.13921962   -3.2455682    1.5891098   544829 
 4239000    1.3140961   -3.2453648   -1.6570178   0.14735457   -3.2453648     1.588347   544875 
 4240000    1.3148841   -3.2463514   -1.6571862   0.14332175   -3.2463514    1.5891652   544921 
 4241000    1.3137939   -3.2450973   -1.6573224   0.14667884   -3.2450973    1.5877748   544946 
 4242000    1.3142604   -3.2462591   -1.6580604   0.13823701   -3.2462591    1.5881987   544994 
 4243000    1.3158511   -3.2470735   -1.6570372   0.14226554   -3.2470735    1.5900364   545023 
 4244000    1.3148107   -3.2461213   -1.6574879   0.15158882   -3.2461213    1.5886334   545073 
 4245000    1.3148274   -3.2456299   -1.6571074   0.14248517   -3.2456299    1.5885225   545118 
 4246000    1.3130135   -3.2445162   -1.6583308   0.14210153   -3.2445162    1.5861854   545168 
 4247000     1.315043   -3.2466911   -1.6581384   0.14275656   -3.2466911    1.5885527   545197 
 4248000     1.315226    -3.247541   -1.6588954   0.14604147    -3.247541    1.5886456   545241 
 4249000    1.3132652    -3.245873   -1.6597239   0.14080037    -3.245873    1.5861491   545285 
 4250000    1.3132657   -3.2461637   -1.6601274   0.14409992   -3.2461637    1.5860363   545324 
 4251000    1.3137333   -3.2469191   -1.6604606    0.1456859   -3.2469191    1.5864585   545373 
 4252000    1.3126972   -3.2455532   -1.6604476   0.14672088   -3.2455532    1.5851055   545408 
 4253000    1.3139616   -3.2465793   -1.6601272   0.14424652   -3.2465793    1.5864521   545470 
 4254000    1.3141714   -3.2460539   -1.6594301   0.14447121   -3.2460539    1.5866239   545498 
 4255000    1.3134772   -3.2455816   -1.6599063   0.14289115   -3.2455816    1.5856753   545536 
 4256000    1.3149725   -3.2474878   -1.6601354   0.14967638   -3.2474878    1.5873525   545580 
 4257000    1.3159589   -3.2482433   -1.6598749   0.13933335   -3.2482433    1.5883684   545640 
 4258000    1.3165053   -3.2476595   -1.6587218    0.1413996   -3.2476595    1.5889377   545671 
 4259000    1.3171353   -3.2487853   -1.6592299   0.13951125   -3.2487853    1.5895553   545720 
 4260000    1.3152696   -3.2463194   -1.6591582   0.14669975   -3.2463194    1.5871613   545769 
 4261000    1.3159696   -3.2480591   -1.6601521   0.14220671   -3.2480591     1.587907   545803 
 4262000    1.3164233   -3.2484925   -1.6601923   0.14369726   -3.2484925    1.5883002   545856 
 4263000    1.3147398   -3.2476616   -1.6615436   0.14631383   -3.2476616     1.586118   545908 
 4264000    1.3162925   -3.2488605   -1.6609799    0.1467074   -3.2488605    1.5878806   545946 
 4265000    1.3173739   -3.2497365   -1.6607259   0.14571349   -3.2497365    1.5890105   546006 
 4266000    1.3173844   -3.2493363   -1.6604557   0.14643728   -3.2493363    1.5888806   546055 
 4267000    1.3160501   -3.2482021   -1.6610674   0.14204265   -3.2482021    1.5871348   546102 
 4268000    1.3166788   -3.2485964   -1.6608024   0.14148074   -3.2485964     1.587794   546136 
 4269000    1.3166599   -3.2488938   -1.6612215   0.14464954   -3.2488938    1.5876724   546170 
 4270000    1.3175215   -3.2482774   -1.6596795    0.1400028   -3.2482774    1.5885979   546209 
 4271000    1.3171142   -3.2475499   -1.6595681   0.14438926   -3.2475499    1.5879818   546252 
 4272000    1.3162289   -3.2467965   -1.6599664   0.13891277   -3.2467965    1.5868301   546281 
 4273000    1.3164198   -3.2477197   -1.6607349   0.14808457   -3.2477197    1.5869848   546307 
 4274000    1.3168132   -3.2491257   -1.6617712   0.13899496   -3.2491257    1.5873545   546343 
 4275000    1.3173438   -3.2497887   -1.6618731   0.14011838   -3.2497887    1.5879156   546370 
 4276000    1.3182855   -3.2507969   -1.6618975    0.1428548   -3.2507969    1.5888995   546422 
 4277000    1.3165899   -3.2478844   -1.6611912   0.14880019   -3.2478844    1.5866932   546478 
 4278000    1.3190465    -3.250779   -1.6612473    0.1451865    -3.250779    1.5895317   546520 
 4279000    1.3172339   -3.2500168   -1.6627624    0.1417646   -3.2500168    1.5872544   546552 
 4280000    1.3169543   -3.2484457   -1.6616821   0.14278376   -3.2484457    1.5867637   546605 
 4281000    1.3199188   -3.2513864   -1.6611731   0.14619226   -3.2513864    1.5902133   546647 
 4282000    1.3192239   -3.2517791   -1.6625222    0.1498272   -3.2517791    1.5892569   546688 
 4283000    1.3180404   -3.2506505   -1.6629732   0.14851623   -3.2506505    1.5876772   546741 
 4284000    1.3199493    -3.252481    -1.662673   0.14604817    -3.252481     1.589808   546799 
 4285000    1.3196702   -3.2523495   -1.6630434   0.14214412   -3.2523495    1.5893061   546856 
 4286000     1.319229   -3.2514975   -1.6628563   0.14798962   -3.2514975    1.5886412   546902 
 4287000    1.3182401   -3.2511033   -1.6638329    0.1454438   -3.2511033    1.5872704   546964 
 4288000    1.3194802   -3.2540691   -1.6654188   0.13839373   -3.2540691    1.5886503   547003 
 4289000    1.3189949   -3.2533041   -1.6653455   0.14420615   -3.2533041    1.5879586   547040 
 4290000    1.3193002   -3.2554931   -1.6672569   0.13566092   -3.2554931    1.5882361   547071 
 4291000    1.3192305   -3.2549032   -1.6668671   0.13899416   -3.2549032    1.5880361   547111 
 4292000    1.3178114   -3.2542566    -1.668062   0.13568744   -3.2542566    1.5861945   547157 
 4293000    1.3183148   -3.2555792   -1.6688484   0.14179633   -3.2555792    1.5867308   547181 
 4294000    1.3185751   -3.2552711    -1.668372   0.14554859   -3.2552711    1.5868991   547231 
 4295000    1.3187027   -3.2565106   -1.6695797   0.14856141   -3.2565106    1.5869309   547273 
 4296000    1.3183081   -3.2561044   -1.6697556   0.14335394   -3.2561044    1.5863488   547310 
 4297000    1.3167757   -3.2549653   -1.6705966   0.14160998   -3.2549653    1.5843687   547357 
 4298000    1.3173285   -3.2566971   -1.6717502   0.14334597   -3.2566971    1.5849469   547387 
 4299000    1.3190364   -3.2562252    -1.669348   0.14947983   -3.2562252    1.5868771   547430 
 4300000    1.3201829   -3.2563627   -1.6682165   0.14803906   -3.2563627    1.5881463   547468 
 4301000    1.3193222   -3.2558222   -1.6688011   0.14288878   -3.2558222     1.587021   547499 
 4302000    1.3195391   -3.2549688   -1.6677739   0.14253699   -3.2549688    1.5871949   547529 
 4303000    1.3200514    -3.255671   -1.6679498   0.13986482    -3.255671    1.5877212   547560 
 4304000    1.3217786    -3.258108    -1.668408   0.14522886    -3.258108       1.5897   547594 
 4305000    1.3198881   -3.2565725   -1.6693115   0.14467439   -3.2565725     1.587261   547651 
 4306000    1.3192074   -3.2573345   -1.6710137   0.14051357   -3.2573345    1.5863208   547693 
 4307000     1.317742   -3.2546467    -1.670198   0.14802591   -3.2546467    1.5844487   547731 
 4308000    1.3192021   -3.2561387   -1.6700936   0.14598629   -3.2561387    1.5860451   547786 
 4309000    1.3182172   -3.2548016   -1.6700505   0.14565551   -3.2548016    1.5847511   547824 
 4310000    1.3192234   -3.2554719   -1.6695661   0.15337097   -3.2554719    1.5859058   547843 
 4311000    1.3207595   -3.2573943   -1.6698101   0.14371733   -3.2573943    1.5875843   547901 
 4312000    1.3181847    -3.255062   -1.6706681   0.14801843    -3.255062    1.5843939   547934 
 4313000    1.3191304    -3.257204   -1.6717574   0.14291342    -3.257204    1.5854466   547963 
 4314000      1.31921    -3.256569   -1.6711048   0.14129617    -3.256569    1.5854642   547990 
 4315000     1.321177   -3.2580203    -1.670308   0.14399903   -3.2580203    1.5877123   548030 
 4316000    1.3202986   -3.2563492   -1.6698344    0.1409208   -3.2563492    1.5865148   548079 
 4317000    1.3214293   -3.2586454   -1.6708791   0.14522729   -3.2586454    1.5877663   548116 
 4318000    1.3213739   -3.2588073   -1.6712263   0.14296596   -3.2588073     1.587581   548157 
 4319000    1.3191475   -3.2566206   -1.6717926   0.14546072   -3.2566206     1.584828   548184 
 4320000    1.3211384   -3.2585812   -1.6714337   0.14315495   -3.2585812    1.5871475   548209 
 4321000    1.3222325   -3.2589159   -1.6705757   0.14431009   -3.2589159    1.5883402   548251 
 4322000    1.3245494   -3.2596784   -1.6687002   0.14647727   -3.2596784    1.5909782   548301 
 4323000    1.3219621   -3.2572953   -1.6695376   0.14812221   -3.2572953    1.5877577   548340 
 4324000    1.3235207    -3.258894   -1.6693977   0.14421375    -3.258894    1.5894963   548386 
 4325000    1.3232438    -3.257903   -1.6688262   0.14752887    -3.257903    1.5890768   548416 
 4326000    1.3225557   -3.2590528   -1.6708834    0.1459858   -3.2590528    1.5881693   548444 
 4327000    1.3202365   -3.2565303   -1.6712326   0.14517871   -3.2565303    1.5852977   548474 
 4328000    1.3208936   -3.2580052   -1.6720197   0.14408039   -3.2580052    1.5859855   548509 
 4329000    1.3217258   -3.2597592   -1.6728671   0.14493865   -3.2597592    1.5868921   548541 
 4330000    1.3208322   -3.2577717   -1.6720651    0.1422901   -3.2577717    1.5857065   548580 
 4331000    1.3226601   -3.2595746   -1.6717691   0.14766192   -3.2595746    1.5878054   548613 
 4332000    1.3217537   -3.2593929   -1.6727912   0.14630652   -3.2593929    1.5866017   548653 
 4333000    1.3199106   -3.2591231   -1.6748291   0.14277974   -3.2591231     1.584294   548686 
 4334000    1.3210291   -3.2596642   -1.6741433   0.14621239   -3.2596642    1.5855209   548726 
 4335000    1.3213846   -3.2602129    -1.674375   0.14637339   -3.2602129    1.5858378   548764 
 4336000    1.3234571   -3.2617063   -1.6734884   0.14339014   -3.2617063    1.5882179   548801 
 4337000    1.3214248    -3.259606   -1.6740003   0.14574635    -3.259606    1.5856057   548861 
 4338000    1.3237851   -3.2620328   -1.6737742   0.14475807   -3.2620328    1.5882586   548923 
 4339000    1.3243548   -3.2619619   -1.6731212   0.14241803   -3.2619619    1.5888407   548958 
 4340000    1.3251212    -3.263204   -1.6735365   0.14568049    -3.263204    1.5896675   548990 
 4341000    1.3237359   -3.2620409   -1.6741133   0.15004147   -3.2620409    1.5879276   549017 
 4342000    1.3227944   -3.2611679   -1.6744853   0.14174312   -3.2611679    1.5866825   549057 
 4343000    1.3229634   -3.2614329   -1.6746633   0.14311918   -3.2614329    1.5867697   549097 
 4344000    1.3246992   -3.2640338   -1.6753067   0.14478973   -3.2640338    1.5887272   549140 
 4345000    1.3234361   -3.2630971   -1.6760062   0.14957581   -3.2630971    1.5870909   549182 
 4346000     1.324791   -3.2646562   -1.6760475   0.14379645   -3.2646562    1.5886087   549219 
 4347000    1.3245397   -3.2635709   -1.6754111   0.14469574   -3.2635709    1.5881599   549270 
 4348000    1.3239003   -3.2623359   -1.6750698   0.14745606   -3.2623359    1.5872661   549314 
 4349000    1.3252905   -3.2650916   -1.6763004    0.1450846   -3.2650916    1.5887911   549363 
 4350000    1.3249642   -3.2646643    -1.676403   0.14068098   -3.2646643    1.5882612   549411 
 4351000    1.3232103   -3.2629934   -1.6769645   0.14568654   -3.2629934    1.5860289   549456 
 4352000    1.3230528   -3.2637806   -1.6780646   0.14671225   -3.2637806    1.5857159   549499 
 4353000    1.3221227   -3.2630026   -1.6785052   0.14656821   -3.2630026    1.5844975   549535 
 4354000    1.3227091   -3.2638399   -1.6787752   0.14337618   -3.2638399    1.5850647   549582 
 4355000    1.3230775   -3.2651284   -1.6797319   0.14235906   -3.2651284    1.5853965   549620 
 4356000    1.3221748   -3.2646203   -1.6803718   0.13919483   -3.2646203    1.5842485   549643 
 4357000     1.323012   -3.2653689   -1.6802383   0.14353318   -3.2653689    1.5851305   549685 
 4358000    1.3223486   -3.2640648   -1.6797982   0.14680748   -3.2640648    1.5842666   549709 
 4359000    1.3223698   -3.2630537   -1.6788829   0.14334194   -3.2630537    1.5841708   549751 
 4360000     1.322122   -3.2621073   -1.6782822   0.14425524   -3.2621073    1.5838251   549768 
 4361000    1.3244134   -3.2651358   -1.6786639   0.15001738   -3.2651358    1.5864719   549802 
 4362000    1.3249214   -3.2660876   -1.6791083   0.14668584   -3.2660876    1.5869793   549837 
 4363000    1.3257952   -3.2664357   -1.6784791   0.13998184   -3.2664357    1.5879567   549861 
 4364000    1.3255389   -3.2667511   -1.6792197   0.14776188   -3.2667511    1.5875314   549902 
 4365000    1.3255604   -3.2669402   -1.6795159    0.1434032   -3.2669402    1.5874243   549948 
 4366000    1.3261543   -3.2673507   -1.6793394   0.14249075   -3.2673507    1.5880114   549991 
 4367000    1.3242653   -3.2651454    -1.679471   0.14960343   -3.2651454    1.5856744   550017 
 4368000    1.3257725   -3.2677288   -1.6803796   0.14928743   -3.2677288    1.5873493   550062 
 4369000    1.3254413   -3.2674963   -1.6806531   0.14939191   -3.2674963    1.5868432   550100 
 4370000    1.3260818   -3.2675024   -1.6799935   0.14330346   -3.2675024    1.5875089   550135 
 4371000     1.324332   -3.2661905   -1.6808714   0.14959016   -3.2661905    1.5853191   550168 
 4372000    1.3238074   -3.2654482   -1.6808695   0.14496979   -3.2654482    1.5845787   550207 
 4373000    1.3243207   -3.2669075   -1.6818267   0.13904272   -3.2669075    1.5850808   550246 
 4374000    1.3248584   -3.2679819   -1.6823929   0.14972524   -3.2679819    1.5855889   550293 
 4375000    1.3248502   -3.2686407   -1.6832172   0.14559297   -3.2686407    1.5854235   550347 
 4376000    1.3259089    -3.269776   -1.6832007   0.14094075    -3.269776    1.5865752   550387 
 4377000    1.3249983   -3.2691624    -1.683746   0.14209353   -3.2691624    1.5854164   550411 
 4378000    1.3234809   -3.2670028   -1.6835344    0.1492948   -3.2670028    1.5834684   550457 
 4379000    1.3257896   -3.2691141   -1.6829612   0.14957074   -3.2691141    1.5861529   550484 
 4380000    1.3251612   -3.2687421   -1.6834793   0.14808378   -3.2687421    1.5852628   550532 
 4381000    1.3256881   -3.2699244   -1.6841551   0.14769459   -3.2699244    1.5857693   550575 
 4382000    1.3252133    -3.268985    -1.683824   0.14629328    -3.268985     1.585161   550589 
 4383000    1.3266932   -3.2703747   -1.6835069   0.14542972   -3.2703747    1.5868678   550611 
 4384000    1.3255613    -3.269836   -1.6843912   0.14544348    -3.269836    1.5854448   550635 
 4385000    1.3247952   -3.2683822   -1.6839802   0.14250809   -3.2683822     1.584402   550679 
 4386000    1.3267429   -3.2718631   -1.6852154    0.1431363   -3.2718631    1.5866477   550708 
 4387000    1.3271695   -3.2713213   -1.6842815   0.14792879   -3.2713213    1.5870398   550749 
 4388000    1.3260264   -3.2714978   -1.6859546   0.14238378   -3.2714978    1.5855433   550794 
 4389000    1.3254308   -3.2699135   -1.6851917   0.14700656   -3.2699135    1.5847217   550832 
 4390000    1.3269665   -3.2710103   -1.6845963   0.14276296   -3.2710103    1.5864139   550882 
 4391000    1.3257211   -3.2712804    -1.686433   0.14807596   -3.2712804    1.5848474   550909 
 4392000    1.3293542   -3.2759974   -1.6868587   0.13970314   -3.2759974    1.5891387   550927 
 4393000    1.3258639   -3.2726415   -1.6877846   0.14127514   -3.2726415    1.5848569   550965 
 4394000    1.3248958   -3.2709055   -1.6872919   0.14866081   -3.2709055    1.5836136   550995 
 4395000    1.3270516   -3.2746353   -1.6886235   0.14272633   -3.2746353    1.5860118   551057 
 4396000    1.3250404   -3.2726735   -1.6891687   0.14864833   -3.2726735    1.5835047   551093 
 4397000    1.3259258   -3.2738863   -1.6894356   0.14362252   -3.2738863    1.5844507   551132 
 4398000    1.3245617   -3.2724693   -1.6897837   0.14316616   -3.2724693    1.5826857   551179 
 4399000    1.3249322   -3.2730999   -1.6900434   0.14003232   -3.2730999    1.5830565   551204 
 4400000    1.3263134   -3.2751449   -1.6905559     0.137904   -3.2751449     1.584589   551245 
 4401000    1.3247201   -3.2738242   -1.6912565   0.14254384   -3.2738242    1.5825677   551286 
 4402000    1.3242084   -3.2731248   -1.6913262   0.14374291   -3.2731248    1.5817986   551341 
 4403000    1.3260352   -3.2736077   -1.6897159   0.14367745   -3.2736077    1.5838917   551372 
 4404000    1.3255127   -3.2714256   -1.6882672   0.14637697   -3.2714256    1.5831585   551410 
 4405000    1.3254693   -3.2731847   -1.6901756   0.14356561   -3.2731847     1.583009   551444 
 4406000    1.3265347   -3.2744102   -1.6902753   0.14730452   -3.2744102    1.5841349   551495 
 4407000      1.32618   -3.2738389   -1.6902482   0.13792067   -3.2738389    1.5835907   551537 
 4408000    1.3266024    -3.273511   -1.6894675   0.14383565    -3.273511    1.5840435   551555 
 4409000    1.3282626    -3.274526   -1.6885979   0.14392936    -3.274526    1.5859281   551589 
 4410000    1.3278845   -3.2733988   -1.6880371   0.14518443   -3.2733988    1.5853617   551629 
 4411000    1.3276054   -3.2722797   -1.6873518   0.14387361   -3.2722797    1.5849279   551664 
 4412000    1.3291513   -3.2754797    -1.688827     0.139517   -3.2754797    1.5866526   551706 
 4413000    1.3289604   -3.2751962   -1.6889066   0.14597438   -3.2751962    1.5862896   551753 
 4414000    1.3270847   -3.2730001   -1.6890298   0.14918029   -3.2730001    1.5839703   551781 
 4415000     1.327435   -3.2733834   -1.6890897   0.14313313   -3.2733834    1.5842937   551814 
 4416000    1.3280457   -3.2729732   -1.6880712   0.14648142   -3.2729732    1.5849019   551856 
 4417000    1.3272298    -3.274224   -1.6904193   0.14519313    -3.274224    1.5838048   551899 
 4418000    1.3293615   -3.2766632   -1.6904239   0.14477566   -3.2766632    1.5862393   551937 
 4419000    1.3274485   -3.2752699   -1.6913878   0.14310268   -3.2752699    1.5838821   551963 
 4420000    1.3275567   -3.2750593   -1.6911399    0.1433687   -3.2750593    1.5839194   551995 
 4421000    1.3268912    -3.274369   -1.6913182   0.14730621    -3.274369    1.5830508   552021 
 4422000    1.3294292   -3.2758813    -1.689929   0.14281784   -3.2758813    1.5859523   552065 
 4423000     1.328897   -3.2750311   -1.6898371   0.14275692   -3.2750311     1.585194   552108 
 4424000    1.3279107   -3.2748673   -1.6909215   0.14339607   -3.2748673    1.5839458   552133 
 4425000    1.3289389   -3.2759579   -1.6909407    0.1445646   -3.2759579    1.5850172   552187 
 4426000    1.3289122   -3.2758169   -1.6909205   0.14566932   -3.2758169    1.5848964   552218 
 4427000    1.3279487   -3.2752981   -1.6916083   0.14081373   -3.2752981    1.5836899   552238 
 4428000    1.3286478   -3.2759683   -1.6915681   0.14616758   -3.2759683    1.5844002   552281 
 4429000    1.3290323   -3.2782332   -1.6935094   0.13866763   -3.2782332    1.5847239   552328 
 4430000    1.3293249   -3.2784942   -1.6935391   0.14285607   -3.2784942    1.5849552   552369 
 4431000    1.3295031   -3.2782068   -1.6931052   0.14471055   -3.2782068    1.5851017   552392 
 4432000    1.3291387   -3.2771701   -1.6925976   0.14826361   -3.2771701    1.5845725   552425 
 4433000    1.3295087   -3.2778347   -1.6929503   0.14793682   -3.2778347    1.5848845   552470 
 4434000    1.3313454   -3.2791525   -1.6921676    0.1443031   -3.2791525     1.586985   552501 
 4435000     1.330934   -3.2794498   -1.6930214    0.1449389   -3.2794498    1.5864284   552524 
 4436000    1.3304302   -3.2788311   -1.6931007   0.15023427   -3.2788311    1.5857304   552558 
 4437000    1.3293099   -3.2781996   -1.6938561   0.14463809   -3.2781996    1.5843436   552576 
 4438000    1.3283813   -3.2774159    -1.694268   0.14575901   -3.2774159    1.5831479   552607 
 4439000    1.3281063   -3.2777028   -1.6950229   0.14875729   -3.2777028    1.5826798   552656 
 4440000    1.3306276   -3.2797172   -1.6941848   0.14159943   -3.2797172    1.5855324   552709 
 4441000    1.3302944   -3.2802649     -1.69523   0.13778628   -3.2802649     1.585035   552744 
 4442000     1.328086   -3.2776098   -1.6953063   0.14693215   -3.2776098    1.5823035   552779 
 4443000    1.3301401   -3.2802734   -1.6956774    0.1463483   -3.2802734     1.584596   552833 
 4444000    1.3303823   -3.2800924   -1.6953168   0.14484426   -3.2800924    1.5847756   552871 
 4445000     1.328385   -3.2773785   -1.6950738   0.14698231   -3.2773785    1.5823048   552903 
 4446000    1.3285082   -3.2789966   -1.6966424   0.14302962   -3.2789966    1.5823543   552937 
 4447000    1.3294157   -3.2798736   -1.6965559   0.14681332   -3.2798736    1.5833178   552978 
 4448000    1.3291395   -3.2802109   -1.6972966   0.14581472   -3.2802109    1.5829144   553004 
 4449000    1.3265217   -3.2771299   -1.6974445   0.15518198   -3.2771299    1.5796854   553043 
 4450000    1.3287865   -3.2777936   -1.6955542   0.14521455   -3.2777936    1.5822394   553093 
 4451000    1.3300104   -3.2803273   -1.6966907   0.14551696   -3.2803273    1.5836366   553114 
 4452000    1.3295742   -3.2811245   -1.6981047   0.14726069   -3.2811245    1.5830198   553148 
 4453000    1.3315543   -3.2835963   -1.6983106   0.13951774   -3.2835963    1.5852857   553180 
 4454000    1.3315692   -3.2821984   -1.6969551   0.14235208   -3.2821984    1.5852433   553201 
 4455000    1.3288041   -3.2792205   -1.6973921   0.14507034   -3.2792205    1.5818284   553244 
 4456000    1.3291813   -3.2794199   -1.6972798   0.14236076   -3.2794199    1.5821401   553292 
 4457000    1.3322191   -3.2819216   -1.6962686    0.1464697   -3.2819216     1.585653   553328 
 4458000     1.332233   -3.2832505   -1.6976728   0.14779624   -3.2832505    1.5855777   553360 
 4459000    1.3296057   -3.2809428   -1.6986292   0.14595557   -3.2809428    1.5823136   553408 
 4460000    1.3316327   -3.2821226    -1.697474   0.14699576   -3.2821226    1.5846485   553435 
 4461000    1.3316405   -3.2816381   -1.6970918   0.14352542   -3.2816381    1.5845462   553474 
 4462000      1.33207   -3.2837436   -1.6987608    0.1443338   -3.2837436    1.5849828   553500 
 4463000    1.3305415   -3.2821872   -1.6991575   0.14373814   -3.2821872    1.5830297   553547 
 4464000    1.3306508   -3.2821055   -1.6991288   0.14555077   -3.2821055    1.5829767   553611 
 4465000    1.3301552   -3.2820651   -1.6997922   0.14675049   -3.2820651    1.5822728   553651 
 4466000    1.3313298   -3.2833473   -1.6997659   0.14146199   -3.2833473    1.5835814   553682 
 4467000    1.3301087   -3.2821138   -1.7000992   0.14577205   -3.2821138    1.5820146   553722 
 4468000    1.3314721   -3.2835712    -1.700035   0.14003781   -3.2835712    1.5835362   553757 
 4469000    1.3303526   -3.2825704   -1.7004458    0.1458151   -3.2825704    1.5821246   553785 
 4470000    1.3297587   -3.2821943   -1.7009015   0.14347755   -3.2821943    1.5812928   553829 
 4471000    1.3292029   -3.2810508    -1.700536   0.14292397   -3.2810508    1.5805148   553870 
 4472000    1.3318152   -3.2839327   -1.7003888   0.13860616   -3.2839327    1.5835439   553897 
 4473000    1.3319046   -3.2841674   -1.7006088   0.14697269   -3.2841674    1.5835586   553929 
 4474000    1.3311237   -3.2840585    -1.701554   0.14168878   -3.2840585    1.5825045   553973 
 4475000     1.332205   -3.2835813   -1.6999142   0.14181315   -3.2835813    1.5836671   554016 
 4476000    1.3327144   -3.2844276   -1.7002979   0.14152819   -3.2844276    1.5841296   554066 
 4477000    1.3313128   -3.2832879    -1.700967   0.14179183   -3.2832879    1.5823209   554116 
 4478000    1.3321522   -3.2837315   -1.7005244   0.14076131   -3.2837315     1.583207   554155 
 4479000    1.3314251   -3.2836444   -1.7014357   0.15178054   -3.2836444    1.5822088   554202 
 4480000    1.3334916   -3.2863205    -1.701696   0.14489793   -3.2863205    1.5846245   554216 
 4481000    1.3331092   -3.2860392    -1.701992    0.1429456   -3.2860392    1.5840472   554259 
 4482000     1.331996   -3.2854641   -1.7028253   0.14328502   -3.2854641    1.5826388   554289 
 4483000    1.3325985   -3.2859889   -1.7027285   0.15019926   -3.2859889    1.5832604   554322 
 4484000    1.3328714   -3.2858349   -1.7023846   0.14459095   -3.2858349    1.5834503   554369 
 4485000    1.3310578   -3.2852778   -1.7040533   0.15020461   -3.2852778    1.5812245   554394 
 4486000    1.3328778   -3.2882279   -1.7049956   0.14788292   -3.2882279    1.5832323   554448 
 4487000    1.3318959   -3.2880856   -1.7061366    0.1385016   -3.2880856    1.5819491   554489 
 4488000    1.3324788   -3.2876074   -1.7051002   0.14471173   -3.2876074    1.5825072   554536 
 4489000    1.3321918   -3.2875916   -1.7055736   0.14654845   -3.2875916    1.5820181   554588 
 4490000    1.3335853    -3.288912   -1.7053276   0.14770485    -3.288912    1.5835844   554619 
 4491000    1.3326512   -3.2884342   -1.7061131   0.14779927   -3.2884342    1.5823211   554673 
 4492000    1.3328245    -3.289398   -1.7069254   0.14577482    -3.289398    1.5824726   554692 
 4493000    1.3335921   -3.2895025   -1.7062356   0.14418631   -3.2895025     1.583267   554733 
 4494000    1.3340263   -3.2899292   -1.7062552   0.14380491   -3.2899292     1.583674   554771 
 4495000    1.3331287   -3.2885384   -1.7060726   0.14509512   -3.2885384    1.5824658   554821 
 4496000    1.3330604   -3.2879875   -1.7057027   0.15175472   -3.2879875    1.5822848   554856 
 4497000     1.333652   -3.2889818   -1.7060831   0.14665254   -3.2889818    1.5828987   554887 
 4498000    1.3350486   -3.2895783    -1.705182   0.14497513   -3.2895783    1.5843964   554943 
 4499000    1.3348372   -3.2892618   -1.7052105   0.15098789   -3.2892618    1.5840513   554976 
 4500000    1.3340073   -3.2892806   -1.7063111   0.14505993   -3.2892806    1.5829694   555010 
 4501000    1.3342909   -3.2909666   -1.7077775   0.13987752   -3.2909666    1.5831891   555051 
 4502000    1.3331042   -3.2913937   -1.7096811   0.14629653   -3.2913937    1.5817126   555075 
 4503000    1.3330247   -3.2912581   -1.7097623   0.14255284   -3.2912581    1.5814957   555118 
 4504000    1.3330668   -3.2914009   -1.7099493   0.13679157   -3.2914009    1.5814516   555151 
 4505000    1.3316427   -3.2883246   -1.7086336   0.14769913   -3.2883246     1.579691   555176 
 4506000    1.3336675    -3.289634   -1.7076094   0.14282124    -3.289634    1.5820246   555200 
 4507000    1.3345951   -3.2915057   -1.7084663   0.14963807   -3.2915057    1.5830394   555230 
 4508000     1.333373   -3.2901383   -1.7086624   0.14169612   -3.2901383    1.5814759   555270 
 4509000    1.3330785    -3.289873   -1.7088319   0.14389765    -3.289873    1.5810411   555300 
 4510000    1.3326535   -3.2897611   -1.7092723   0.14422863   -3.2897611    1.5804887   555317 
 4511000    1.3338779   -3.2906994    -1.708844   0.14440714   -3.2906994    1.5818554   555347 
 4512000    1.3344617   -3.2911047   -1.7086624     0.147732   -3.2911047    1.5824422   555384 
 4513000    1.3335167   -3.2893148   -1.7080842    0.1444108   -3.2893148    1.5812306   555416 
 4514000    1.3346303      -3.2915   -1.7090315   0.14287456      -3.2915    1.5824684   555445 
 4515000    1.3343831    -3.291429   -1.7093193   0.14650572    -3.291429    1.5821098   555468 
 4516000    1.3330737   -3.2902183   -1.7097435   0.14287616   -3.2902183    1.5804747   555497 
 4517000    1.3336631   -3.2909848   -1.7099222   0.14849475   -3.2909848    1.5810626   555536 
 4518000    1.3345887   -3.2926714   -1.7105514   0.13719227   -3.2926714      1.58212   555550 
 4519000     1.333962   -3.2928757   -1.7115983   0.14138292   -3.2928757    1.5812774   555585 
 4520000    1.3342696   -3.2926545   -1.7110666   0.14451503   -3.2926545    1.5815879   555604 
 4521000    1.3358947   -3.2943851   -1.7109677    0.1457511   -3.2943851    1.5834174   555638 
 4522000    1.3347238   -3.2933796   -1.7114184   0.13909142   -3.2933796    1.5819612   555662 
 4523000    1.3347848   -3.2933937   -1.7114485   0.14323029   -3.2933937    1.5819452   555693 
 4524000    1.3336103   -3.2925762    -1.712185   0.14124738   -3.2925762    1.5803911   555750 
 4525000    1.3337522   -3.2924312   -1.7120026    0.1486221   -3.2924312    1.5804285   555796 
 4526000    1.3346075   -3.2957962   -1.7144453   0.14240599   -3.2957962     1.581351   555828 
 4527000    1.3329329    -3.293628   -1.7143976   0.14463137    -3.293628    1.5792304   555876 
 4528000    1.3338308   -3.2937063   -1.7135343   0.14372811   -3.2937063     1.580172   555919 
 4529000    1.3340849   -3.2936372   -1.7133006   0.15387947   -3.2936372    1.5803366   555967 
 4530000    1.3338285   -3.2940267   -1.7141245   0.14134232   -3.2940267    1.5799021   556013 
 4531000    1.3327844   -3.2933998   -1.7148849   0.14320158   -3.2933998    1.5785149   556066 
 4532000    1.3352091   -3.2960335   -1.7147493   0.14384266   -3.2960335    1.5812843   556102 
 4533000    1.3345494   -3.2953212   -1.7149091   0.14478092   -3.2953212    1.5804121   556134 
 4534000    1.3347902   -3.2965498   -1.7159634    0.1471666   -3.2965498    1.5805864   556173 
 4535000     1.334919   -3.2973987   -1.7167622   0.13612708   -3.2973987    1.5806366   556209 
 4536000    1.3362471   -3.2977085   -1.7156586     0.145267   -3.2977085    1.5820499   556265 
 4537000    1.3359614    -3.297318   -1.7157003   0.14712437    -3.297318    1.5816178   556298 
 4538000    1.3356941   -3.2981994    -1.717006   0.14462607   -3.2981994    1.5811934   556336 
 4539000    1.3356205   -3.2959831   -1.7149593   0.14667528   -3.2959831    1.5810238   556365 
 4540000    1.3366762    -3.297556   -1.7153707   0.14676634    -3.297556    1.5821853   556396 
 4541000    1.3363597    -3.297697   -1.7159744   0.14742275    -3.297697    1.5817226   556427 
 4542000    1.3359077   -3.2957722   -1.7146387   0.14768569   -3.2957722    1.5811336   556446 
 4543000    1.3369493   -3.2974357   -1.7151518   0.14980276   -3.2974357    1.5822839   556475 
 4544000    1.3354627   -3.2959483   -1.7155317   0.14723704   -3.2959483    1.5804166   556513 
 4545000    1.3357197   -3.2965732   -1.7159547   0.14210532   -3.2965732    1.5806185   556549 
 4546000    1.3359148   -3.2971886   -1.7164415   0.14510923   -3.2971886    1.5807471   556585 
 4547000    1.3379443   -3.2999076   -1.7168813   0.14237596   -3.2999076    1.5830262   556628 
 4548000    1.3354317    -3.297448   -1.7174713   0.14559999    -3.297448    1.5799767   556655 
 4549000    1.3364692   -3.2973707   -1.7162772    0.1425602   -3.2973707    1.5810935   556694 
 4550000    1.3366957   -3.2978769   -1.7166036   0.14395542   -3.2978769    1.5812733   556725 
 4551000      1.33602   -3.2965454   -1.7161735   0.14384473   -3.2965454    1.5803719   556761 
 4552000     1.337476   -3.2995533   -1.7176155   0.14248469   -3.2995533    1.5819379   556816 
 4553000    1.3355112   -3.2979269   -1.7184037   0.14500338   -3.2979269    1.5795232   556848 
 4554000    1.3361486   -3.2990516   -1.7188852   0.14321082   -3.2990516    1.5801664   556887 
 4555000    1.3351236   -3.2980688   -1.7192394    0.1494235   -3.2980688    1.5788294   556931 
 4556000    1.3341154    -3.297886    -1.720331   0.14332822    -3.297886     1.577555   556960 
 4557000    1.3372759   -3.2998834   -1.7187075   0.14589053   -3.2998834    1.5811759   557001 
 4558000    1.3347347   -3.2984096   -1.7203235   0.14299086   -3.2984096    1.5780861   557031 
 4559000    1.3348298   -3.2994174   -1.7213094   0.14522914   -3.2994174     1.578108   557063 
 4560000    1.3358024   -3.2997937   -1.7206238   0.14517161   -3.2997937    1.5791699   557094 
 4561000    1.3372375   -3.3014035   -1.7206363   0.14329039   -3.3014035    1.5807672   557129 
 4562000    1.3364016   -3.3007141   -1.7210513   0.14749985   -3.3007141    1.5796628   557170 
 4563000    1.3364557   -3.3012588   -1.7216455   0.14210008   -3.3012588    1.5796133   557210 
 4564000    1.3357314   -3.3010032   -1.7223225   0.14760028   -3.3010032    1.5786808   557237 
 4565000    1.3365456   -3.3018135    -1.722281   0.15004323   -3.3018135    1.5795325   557276 
 4566000    1.3357894   -3.3024654   -1.7239426   0.14468038   -3.3024654    1.5785228   557317 
 4567000    1.3366487   -3.3030399   -1.7235868   0.14487834   -3.3030399    1.5794531   557347 
 4568000      1.33686   -3.3026914   -1.7230623    0.1480639   -3.3026914    1.5796291   557373 
 4569000    1.3386667   -3.3039601   -1.7223125   0.14437486   -3.3039601    1.5816476   557414 
 4570000    1.3380843   -3.3041606   -1.7232549   0.14134764   -3.3041606    1.5809056   557433 
 4571000    1.3380896   -3.3040705   -1.7232494   0.14657113   -3.3040705    1.5808211   557465 
 4572000     1.337145   -3.3032112   -1.7236392   0.14704372   -3.3032112     1.579572   557512 
 4573000    1.3374203   -3.3038932   -1.7240838   0.14654253   -3.3038932    1.5798094   557543 
 4574000     1.337767   -3.3043054   -1.7241715   0.13905282   -3.3043054    1.5801339   557573 
 4575000    1.3383481   -3.3058135   -1.7250925   0.14424476   -3.3058135     1.580721   557608 
 4576000    1.3360811   -3.3024736   -1.7245264   0.15145247   -3.3024736    1.5779472   557642 
 4577000    1.3376265   -3.3043966   -1.7247375   0.14779464   -3.3043966    1.5796591   557682 
 4578000    1.3386757   -3.3040337   -1.7232347   0.14798835   -3.3040337    1.5807989   557717 
 4579000    1.3395655   -3.3048716   -1.7231751   0.14149248   -3.3048716    1.5816965   557771 
 4580000    1.3385668   -3.3042142     -1.72383   0.14322753   -3.3042142    1.5803842   557818 
 4581000    1.3393949   -3.3044745   -1.7232261   0.14032557   -3.3044745    1.5812484   557858 
 4582000    1.3384603   -3.3032661   -1.7232116   0.14742003   -3.3032661    1.5800545   557890 
 4583000    1.3372298   -3.3015918   -1.7231089   0.14860603   -3.3015918    1.5784829   557932 
 4584000    1.3376563   -3.3027572   -1.7238614   0.14690434   -3.3027572    1.5788959   557964 
 4585000    1.3369433   -3.3033314   -1.7253846   0.15207562   -3.3033314    1.5779468   558002 
 4586000    1.3382252   -3.3040876   -1.7247269   0.14722741   -3.3040876    1.5793608   558037 
 4587000     1.338435   -3.3042123   -1.7247313   0.14256455   -3.3042123     1.579481   558082 
 4588000    1.3399127   -3.3057251   -1.7246051   0.14271189   -3.3057251    1.5811199   558119 
 4589000    1.3383704   -3.3037203   -1.7245277   0.14610279   -3.3037203    1.5791926   558157 
 4590000    1.3396739   -3.3048655   -1.7242822   0.14998363   -3.3048655    1.5805833   558209 
 4591000    1.3396777   -3.3060796   -1.7255598   0.14445611   -3.3060796    1.5805198   558233 
 4592000    1.3393843   -3.3055961   -1.7255412   0.14751064   -3.3055961    1.5800549   558275 
 4593000    1.3393425   -3.3054315   -1.7255279    0.1445741   -3.3054315    1.5799036   558311 
 4594000    1.3398057   -3.3074543   -1.7271232    0.1425205   -3.3074543    1.5803312   558353 
 4595000    1.3394002   -3.3073208   -1.7275613   0.14492595   -3.3073208    1.5797594   558386 
 4596000    1.3375812   -3.3051066   -1.7275632   0.15024885   -3.3051066    1.5775434   558411 
 4597000    1.3393487   -3.3078953   -1.7284257   0.14954206   -3.3078953    1.5794696   558467 
 4598000    1.3395965   -3.3081354   -1.7284584   0.14505776   -3.3081354    1.5796769   558497 
 4599000    1.3391441   -3.3079343   -1.7289152    0.1436297   -3.3079343    1.5790192   558541 
 4600000    1.3389625   -3.3081925   -1.7295034   0.14414727   -3.3081925    1.5786891   558582 
 4601000     1.338945   -3.3085746   -1.7299937   0.14283763   -3.3085746    1.5785809   558613 
 4602000    1.3400053   -3.3094731   -1.7297609   0.14646735   -3.3094731    1.5797122   558655 
 4603000    1.3402261   -3.3098209   -1.7299446    0.1481153   -3.3098209    1.5798763   558689 
 4604000    1.3400298   -3.3098333   -1.7302788   0.14857466   -3.3098333    1.5795544   558721 
 4605000    1.3408695   -3.3099963   -1.7295879   0.14293742   -3.3099963    1.5804084   558769 
 4606000    1.3398403   -3.3101725   -1.7310704   0.15157495   -3.3101725    1.5791021   558802 
 4607000    1.3394211   -3.3100981   -1.7315945   0.14202368   -3.3100981    1.5785035   558839 
 4608000    1.3401231   -3.3099577   -1.7307485   0.14560614   -3.3099577    1.5792093   558882 
 4609000    1.3402291   -3.3097106   -1.7305176   0.14661868   -3.3097106     1.579193   558932 
 4610000    1.3393097   -3.3087294   -1.7308032   0.14922662   -3.3087294    1.5779262   558997 
 4611000    1.3419067   -3.3120079   -1.7311323   0.14387679   -3.3120079    1.5808756   559036 
 4612000    1.3392284    -3.309844   -1.7322226   0.14529079    -3.309844    1.5776214   559071 
 4613000    1.3385945   -3.3087508   -1.7319804   0.14321788   -3.3087508    1.5767704   559108 
 4614000    1.3400557   -3.3097246   -1.7313149   0.14391081   -3.3097246    1.5784097   559137 
 4615000    1.3396183   -3.3092484   -1.7314752   0.14640353   -3.3092484    1.5777732   559180 
 4616000    1.3404548   -3.3106802   -1.7320094   0.14356365   -3.3106802    1.5786708   559211 
 4617000    1.3385395   -3.3091429   -1.7328348   0.14215789   -3.3091429    1.5763081   559249 
 4618000    1.3404275   -3.3112266    -1.732791   0.14307457   -3.3112266    1.5784355   559283 
 4619000     1.339201   -3.3090916    -1.732199   0.14322015   -3.3090916    1.5768926   559318 
 4620000     1.339325   -3.3096618   -1.7327134   0.14920251   -3.3096618    1.5769484   559350 
 4621000    1.3395933   -3.3107262   -1.7335635   0.14236651   -3.3107262    1.5771628   559386 
 4622000    1.3416473   -3.3126021   -1.7331029   0.14957113   -3.3126021    1.5794992   559415 
 4623000    1.3409219    -3.312557   -1.7339936   0.14961537    -3.312557    1.5785633   559444 
 4624000    1.3418411   -3.3126734   -1.7331551   0.14289554   -3.3126734    1.5795183   559489 
 4625000    1.3405405   -3.3122086   -1.7343059   0.14184974   -3.3122086    1.5779027   559519 
 4626000    1.3404714   -3.3129029   -1.7352083   0.14753943   -3.3129029    1.5776945   559564 
 4627000     1.341612    -3.314228   -1.7352785   0.14869614    -3.314228    1.5789495   559595 
 4628000    1.3418451   -3.3141388   -1.7349911   0.14455364   -3.3141388    1.5791477   559622 
 4629000    1.3403707   -3.3123238   -1.7349846   0.14322737   -3.3123238    1.5773392   559648 
 4630000    1.3420859   -3.3155115   -1.7362441    0.1441395   -3.3155115    1.5792674   559680 
 4631000    1.3410265   -3.3142502   -1.7363535   0.14803788   -3.3142502    1.5778967   559724 
 4632000    1.3413507   -3.3137464   -1.7355416   0.14504115   -3.3137464    1.5782048   559750 
 4633000    1.3421407   -3.3151935   -1.7361917   0.14947052   -3.3151935    1.5790018   559797 
 4634000    1.3410571   -3.3151355   -1.7374566   0.14681871   -3.3151355     1.577679   559814 
 4635000    1.3391584   -3.3134303   -1.7380751   0.14790767   -3.3134303    1.5753552   559846 
 4636000    1.3404367   -3.3137448   -1.7369589   0.14882139   -3.3137448    1.5767858   559872 
 4637000    1.3400028   -3.3123853   -1.7362056   0.14999286   -3.3123853    1.5761796   559906 
 4638000    1.3411537   -3.3133449   -1.7359101   0.14077652   -3.3133449    1.5774348   559941 
 4639000    1.3416643   -3.3135066   -1.7355501   0.15047022   -3.3135066    1.5779565   559969 
 4640000    1.3421535   -3.3144275   -1.7359887   0.14497459   -3.3144275    1.5784388   560002 
 4641000    1.3432705   -3.3169817   -1.7373195   0.14303521   -3.3169817    1.5796622   560034 
 4642000    1.3397493   -3.3124077   -1.7369736   0.14473609   -3.3124077    1.5754341   560065 
 4643000    1.3422016   -3.3147657   -1.7365324   0.14302141   -3.3147657    1.5782333   560095 
 4644000    1.3409493   -3.3115944   -1.7349041    0.1522143   -3.3115944    1.5766903   560120 
 4645000    1.3417098   -3.3131927   -1.7357095   0.14312552   -3.3131927    1.5774831   560156 
 4646000    1.3420582   -3.3134945   -1.7356384   0.14120574   -3.3134945    1.5778561   560169 
 4647000    1.3431437   -3.3152173   -1.7361666   0.15253444   -3.3152173    1.5790507   560198 
 4648000    1.3427509   -3.3150123   -1.7365107   0.14373342   -3.3150123    1.5785015   560229 
 4649000     1.343014   -3.3142151   -1.7354804   0.14750606   -3.3142151    1.5787347   560256 
 4650000    1.3414027   -3.3128676    -1.736134    0.1471569   -3.3128676    1.5767337   560294 
 4651000    1.3419303   -3.3128176   -1.7355426   0.14480752   -3.3128176     1.577275   560322 
 4652000    1.3426518   -3.3141796   -1.7361523   0.14460593   -3.3141796    1.5780273   560356 
 4653000    1.3432263   -3.3151267   -1.7365172   0.14411053   -3.3151267    1.5786095   560389 
 4654000    1.3414255   -3.3137306    -1.737305    0.1508862   -3.3137306    1.5764256   560413 
 4655000    1.3426849   -3.3144456   -1.7366104   0.15250125   -3.3144456    1.5778352   560438 
 4656000    1.3432547   -3.3153742   -1.7369735    0.1415089   -3.3153742    1.5784007   560475 
 4657000    1.3434066    -3.315537   -1.7370565   0.14662742    -3.315537    1.5784805   560510 
 4658000    1.3452935   -3.3175228   -1.7369295   0.13988886   -3.3175228    1.5805933   560547 
 4659000    1.3438838   -3.3154024   -1.7365075    0.1476113   -3.3154024    1.5788948   560562 
 4660000    1.3437926   -3.3151843   -1.7364727   0.14733392   -3.3151843    1.5787117   560589 
 4661000    1.3450082    -3.315908   -1.7358584    0.1464948    -3.315908    1.5800496   560621 
 4662000    1.3431477   -3.3144166   -1.7366174   0.14402552   -3.3144166    1.5777992   560644 
 4663000    1.3432688   -3.3157822   -1.7379703   0.14954607   -3.3157822    1.5778119   560690 
 4664000    1.3427678   -3.3149088   -1.7378203   0.14656023   -3.3149088    1.5770885   560738 
 4665000    1.3425842   -3.3152982   -1.7385209   0.15022512   -3.3152982    1.5767773   560772 
 4666000     1.342065   -3.3155697   -1.7395146   0.14930528   -3.3155697    1.5760551   560812 
 4667000    1.3416175   -3.3164505   -1.7410559   0.14978107   -3.3164505    1.5753946   560860 
 4668000    1.3409091   -3.3163892   -1.7419134   0.14643805   -3.3163892    1.5744758   560891 
 4669000    1.3424152   -3.3168755   -1.7407155    0.1480279   -3.3168755    1.5761599   560921 
 4670000    1.3429154   -3.3164306   -1.7397649   0.14662449   -3.3164306    1.5766657   560950 
 4671000     1.343122   -3.3183803   -1.7415872   0.14598636   -3.3183803     1.576793   560991 
 4672000     1.343683   -3.3178299   -1.7404569   0.14484771   -3.3178299     1.577373   561019 
 4673000    1.3431311   -3.3174809   -1.7408879   0.14391312   -3.3174809     1.576593   561066 
 4674000    1.3461249   -3.3198511   -1.7398679   0.14172531   -3.3198511    1.5799833   561110 
 4675000    1.3458061   -3.3199588   -1.7404539   0.14488671   -3.3199588    1.5795049   561147 
 4676000    1.3452357   -3.3196042   -1.7408419   0.14259188   -3.3196042    1.5787623   561173 
 4677000    1.3443076   -3.3198252   -1.7422392    0.1470449   -3.3198252     1.577586   561204 
 4678000     1.346218   -3.3202034   -1.7405163   0.14855467   -3.3202034    1.5796871   561254 
 4679000    1.3457925   -3.3204242   -1.7413152   0.14968462   -3.3204242     1.579109   561282 
 4680000    1.3441086    -3.318386   -1.7413428   0.14908547    -3.318386    1.5770433   561314 
 4681000    1.3450042   -3.3194672   -1.7414349   0.14920557   -3.3194672    1.5780323   561336 
 4682000    1.3443588   -3.3192357   -1.7420759   0.15202066   -3.3192357    1.5771598   561377 
 4683000    1.3440117     -3.31942   -1.7427966   0.14825537     -3.31942    1.5766234   561423 
 4684000    1.3455159    -3.321156   -1.7428777    0.1501192    -3.321156    1.5782784   561462 
 4685000    1.3453199   -3.3213722   -1.7434193   0.14168431   -3.3213722    1.5779529   561496 
 4686000    1.3438974   -3.3194103   -1.7432241   0.14607326   -3.3194103    1.5761862   561531 
 4687000    1.3443736   -3.3193863   -1.7427596   0.14718114   -3.3193863    1.5766267   561573 
 4688000    1.3432392   -3.3190642   -1.7438605   0.15255418   -3.3190642    1.5752038   561606 
 4689000    1.3440899   -3.3210511   -1.7449507   0.14043985   -3.3210511    1.5761004   561642 
 4690000    1.3453424   -3.3218969   -1.7443952   0.14722537   -3.3218969    1.5775017   561666 
 4691000     1.343935   -3.3206376   -1.7449013   0.14512396   -3.3206376    1.5757364   561707 
 4692000    1.3451133   -3.3229404   -1.7458899   0.14200967   -3.3229404    1.5770505   561731 
 4693000    1.3443026   -3.3214489   -1.7454331   0.14889669   -3.3214489    1.5760158   561761 
 4694000    1.3428348   -3.3189721    -1.744792   0.14243459   -3.3189721    1.5741801   561802 
 4695000    1.3424678   -3.3191776    -1.745509   0.14368217   -3.3191776    1.5736687   561831 
 4696000    1.3428015   -3.3213863   -1.7474077   0.14558369   -3.3213863    1.5739786   561860 
 4697000    1.3419931   -3.3203908   -1.7474773   0.14497123   -3.3203908    1.5729134   561902 
 4698000    1.3442942   -3.3223715   -1.7469123   0.14483736   -3.3223715    1.5754591   561956 
 4699000    1.3446086   -3.3227326   -1.7469947   0.14626505   -3.3227326    1.5757379   561988 
 4700000    1.3443003   -3.3226701   -1.7473552   0.14390939   -3.3226701    1.5753149   562010 
 4701000    1.3455229   -3.3242205   -1.7475767   0.14824994   -3.3242205    1.5766438   562047 
 4702000    1.3458502   -3.3245378   -1.7476143   0.14597597   -3.3245378    1.5769235   562084 
 4703000    1.3455608   -3.3240433   -1.7475823   0.14888969   -3.3240433     1.576461   562128 
 4704000    1.3459402   -3.3241825   -1.7473808   0.14687166   -3.3241825    1.5768017   562165 
 4705000    1.3454713   -3.3236919   -1.7475403   0.14979002   -3.3236919    1.5761515   562201 
 4706000    1.3469915   -3.3252036   -1.7473274   0.13964556   -3.3252036    1.5778762   562221 
 4707000    1.3459661   -3.3248655   -1.7482858    0.1522291   -3.3248655    1.5765797   562255 
 4708000    1.3438048    -3.322903   -1.7489166   0.15305171    -3.322903    1.5739865   562277 
 4709000    1.3444939     -3.32433   -1.7496708   0.14673549     -3.32433    1.5746592   562325 
 4710000    1.3471462   -3.3277532   -1.7500745   0.14450998   -3.3277532    1.5776786   562356 
 4711000    1.3445727   -3.3249826   -1.7504355    0.1491578   -3.3249826    1.5745471   562398 
 4712000    1.3434629   -3.3238984   -1.7507487   0.14397468   -3.3238984    1.5731496   562433 
 4713000    1.3448364   -3.3260789    -1.751405   0.13916782   -3.3260789    1.5746739   562463 
 4714000    1.3457338   -3.3270221   -1.7514095   0.14116208   -3.3270221    1.5756126   562503 
 4715000    1.3452458   -3.3263346   -1.7513886   0.14638424   -3.3263346     1.574946   562537 
 4716000    1.3455509   -3.3266659   -1.7514523   0.14314324   -3.3266659    1.5752136   562569 
 4717000    1.3441688   -3.3250492   -1.7515431   0.14238916   -3.3250492    1.5735061   562601 
 4718000    1.3454077    -3.326197   -1.7513077   0.14099905    -3.326197    1.5748893   562625 
 4719000    1.3453713   -3.3267795   -1.7520421   0.14778751   -3.3267795    1.5747374   562664 
 4720000    1.3467078   -3.3270819   -1.7508838   0.14582957   -3.3270819    1.5761981   562701 
 4721000     1.345887    -3.326393   -1.7512283   0.14646714    -3.326393    1.5751647   562727 
 4722000     1.347652   -3.3275075   -1.7503948   0.14116473   -3.3275075    1.5771127   562769 
 4723000    1.3461148   -3.3269038   -1.7516768   0.14926543   -3.3269038     1.575227   562800 
 4724000     1.346196   -3.3273974    -1.752179   0.14387304   -3.3273974    1.5752185   562837 
 4725000    1.3459511   -3.3259993   -1.7511457   0.14774406   -3.3259993    1.5748536   562865 
 4726000    1.3454191   -3.3257715   -1.7516271    0.1509107   -3.3257715    1.5741444   562896 
 4727000    1.3486385    -3.328862    -1.751077   0.14106361    -3.328862     1.577785   562941 
 4728000    1.3460963   -3.3262828   -1.7515699   0.14116673   -3.3262828    1.5747128   562976 
 4729000     1.346986   -3.3274966    -1.751852   0.14304611   -3.3274966    1.5756446   563015 
 4730000    1.3472532    -3.327932   -1.7520672   0.14508069    -3.327932    1.5758648   563048 
 4731000     1.346798   -3.3284573   -1.7532398   0.14889195   -3.3284573    1.5752175   563089 
 4732000    1.3481612   -3.3304818   -1.7537651   0.14083294   -3.3304818    1.5767168   563123 
 4733000    1.3461389   -3.3285645   -1.7543052   0.14614389   -3.3285645    1.5742593   563156 
 4734000      1.34936    -3.332586   -1.7546689    0.1415075    -3.332586    1.5779171   563195 
 4735000    1.3466699   -3.3287951   -1.7540881   0.14774081   -3.3287951     1.574707   563218 
 4736000    1.3476565   -3.3298944   -1.7541008   0.14305023   -3.3298944    1.5757936   563242 
 4737000    1.3467082   -3.3276221   -1.7529989   0.15257221   -3.3276221    1.5746232   563264 
 4738000    1.3472688   -3.3279928   -1.7528065   0.14749447   -3.3279928    1.5751863   563297 
 4739000    1.3472831   -3.3284571   -1.7533659   0.14818969   -3.3284571    1.5750912   563337 
 4740000    1.3471982   -3.3291945   -1.7542808   0.14360572   -3.3291945    1.5749137   563365 
 4741000    1.3467937     -3.32902   -1.7546826   0.14915033     -3.32902    1.5743374   563402 
 4742000    1.3472361   -3.3294909   -1.7547369   0.14330324   -3.3294909     1.574754   563438 
 4743000    1.3482098   -3.3308276   -1.7550418   0.14720465   -3.3308276    1.5757859   563476 
 4744000    1.3475052   -3.3300759   -1.7552086   0.14660892   -3.3300759    1.5748673   563510 
 4745000    1.3475832    -3.330597   -1.7557532   0.14664519    -3.330597    1.5748438   563551 
 4746000    1.3476939   -3.3300681   -1.7551788   0.13926369   -3.3300681    1.5748893   563581 
 4747000    1.3471417   -3.3304259   -1.7562349   0.14325084   -3.3304259     1.574191   563600 
 4748000     1.346456   -3.3297316   -1.7564145   0.13870507   -3.3297316    1.5733171   563626 
 4749000    1.3461188   -3.3291139   -1.7562688   0.14630921   -3.3291139    1.5728451   563654 
 4750000     1.347105   -3.3289517   -1.7550662    0.1496724   -3.3289517    1.5738856   563694 
 4751000    1.3493173   -3.3321121   -1.7557173   0.14083508   -3.3321121    1.5763948   563721 
 4752000    1.3494787   -3.3307574   -1.7542327   0.14755824   -3.3307574    1.5765247   563742 
 4753000    1.3487271   -3.3302372   -1.7546576   0.14260999   -3.3302372    1.5755796   563766 
 4754000    1.3502842   -3.3303958   -1.7530728   0.14697538   -3.3303958     1.577323   563793 
 4755000    1.3499007   -3.3313036   -1.7544678   0.14386488   -3.3313036    1.5768358   563807 
 4756000    1.3482256   -3.3294502   -1.7546269   0.15224801   -3.3294502    1.5748233   563827 
 4757000    1.3494408    -3.330885   -1.7546926   0.14591324    -3.330885    1.5761925   563845 
 4758000    1.3505318   -3.3321148   -1.7547488   0.15110099   -3.3321148     1.577366   563881 
 4759000    1.3492528   -3.3306367   -1.7548986   0.14855789   -3.3306367    1.5757381   563929 
 4760000    1.3498214   -3.3314519   -1.7551532   0.14344914   -3.3314519    1.5762988   563966 
 4761000    1.3487004   -3.3304099   -1.7554874   0.14938167   -3.3304099    1.5749226   563990 
 4762000     1.351158   -3.3328588   -1.7551978   0.14587173   -3.3328588     1.577661   564037 
 4763000    1.3492538   -3.3305827   -1.7552149   0.14793476   -3.3305827    1.5753677   564062 
 4764000    1.3501223   -3.3322682   -1.7559536   0.14796442   -3.3322682    1.5763146   564086 
 4765000     1.350069   -3.3329396   -1.7568128    0.1482581   -3.3329396    1.5761267   564131 
 4766000    1.3488258   -3.3325187   -1.7579104   0.14305452   -3.3325187    1.5746084   564155 
 4767000    1.3493323   -3.3326435   -1.7574885   0.14396197   -3.3326435     1.575155   564171 
 4768000    1.3495362   -3.3327727   -1.7575053   0.15567871   -3.3327727    1.5752673   564216 
 4769000    1.3503868   -3.3340758   -1.7579022    0.1444858   -3.3340758    1.5761736   564247 
 4770000    1.3490969   -3.3333463   -1.7587703   0.14427477   -3.3333463    1.5745759   564280 
 4771000    1.3484706   -3.3321051   -1.7583048   0.14820115   -3.3321051    1.5738003   564296 
 4772000    1.3508238   -3.3345176   -1.7580686      0.13864   -3.3345176     1.576449   564331 
 4773000    1.3500534   -3.3340149   -1.7585542   0.15076558   -3.3340149    1.5754606   564363 
 4774000    1.3506254   -3.3339422   -1.7578979   0.15087514   -3.3339422    1.5760443   564393 
 4775000    1.3517798   -3.3348991   -1.7576809   0.15094269   -3.3348991    1.5772181   564455 
 4776000    1.3490296   -3.3341512   -1.7601559    0.1440202   -3.3341512    1.5739953   564460 
 4777000    1.3488578   -3.3337488   -1.7600376   0.15041541   -3.3337488    1.5737113   564490 
 4778000     1.350979    -3.335985   -1.7599022   0.14078041    -3.335985    1.5760827   564527 
 4779000    1.3496718   -3.3343559   -1.7598624    0.1429529   -3.3343559    1.5744935   564550 
 4780000    1.3495841   -3.3336478   -1.7593513   0.14716856   -3.3336478    1.5742964   564584 
 4781000    1.3508794   -3.3354038   -1.7596801   0.14311713   -3.3354038    1.5757237   564614 
 4782000    1.3485611    -3.333433   -1.7604747   0.14237534    -3.333433    1.5729583   564636 
 4783000    1.3513019    -3.335235   -1.7591469    0.1460029    -3.335235    1.5760881   564660 
 4784000    1.3504125   -3.3328218   -1.7578742   0.14567184   -3.3328218    1.5749476   564697 
 4785000    1.3502935   -3.3339621   -1.7592286   0.14970833   -3.3339621    1.5747335   564724 
 4786000    1.3505586   -3.3344258   -1.7594502   0.14400662   -3.3344258    1.5749757   564748 
 4787000    1.3528029   -3.3349172   -1.7573718    0.1444087   -3.3349172    1.5775454   564765 
 4788000    1.3522939    -3.333786   -1.7569402   0.15013895    -3.333786    1.5768458   564803 
 4789000      1.35267   -3.3346115   -1.7574221   0.15118256   -3.3346115    1.5771894   564837 
 4790000    1.3521528   -3.3347391    -1.758242    0.1527959   -3.3347391    1.5764971   564869 
 4791000     1.351553   -3.3345181   -1.7588208   0.14058271   -3.3345181    1.5756973   564905 
 4792000    1.3508859   -3.3350287   -1.7602373   0.14312587   -3.3350287    1.5747914   564951 
 4793000     1.351646    -3.334624   -1.7590665   0.14608061    -3.334624    1.5755575   564994 
 4794000     1.350505   -3.3342104   -1.7600693   0.15073194   -3.3342104    1.5741411   565025 
 4795000    1.3513909   -3.3347593   -1.7596413   0.14973299   -3.3347593    1.5751179   565045 
 4796000    1.3524286   -3.3361533   -1.7598984   0.14640152   -3.3361533    1.5762549   565071 
 4797000    1.3522566   -3.3369789   -1.7610081   0.14520655   -3.3369789    1.5759708   565101 
 4798000    1.3519355   -3.3365135   -1.7610033   0.15147312   -3.3365135    1.5755102   565132 
 4799000    1.3535918   -3.3380249   -1.7606543   0.14741972   -3.3380249    1.5773706   565157 
 4800000    1.3528789   -3.3379815   -1.7615253   0.14410657   -3.3379815    1.5764561   565187 
 4801000    1.3520855   -3.3364968   -1.7610488   0.14534566   -3.3364968     1.575448   565217 
 4802000    1.3526635   -3.3385576   -1.7624891   0.14784046   -3.3385576    1.5760685   565236 
 4803000    1.3535576   -3.3388975   -1.7618598   0.14562064   -3.3388975    1.5770377   565262 
 4804000    1.3518812   -3.3376936   -1.7626843    0.1512618   -3.3376936    1.5750093   565289 
 4805000    1.3524212   -3.3392243   -1.7636667   0.14774587   -3.3392243    1.5755576   565318 
 4806000    1.3530781   -3.3399133    -1.763674   0.14562258   -3.3399133    1.5762392   565348 
 4807000    1.3524438   -3.3402176   -1.7647897   0.14546882   -3.3402176    1.5754279   565374 
 4808000    1.3524379   -3.3409911   -1.7656592   0.14610607   -3.3409911    1.5753319   565406 
 4809000    1.3518562   -3.3403156   -1.7657477   0.14700447   -3.3403156     1.574568   565437 
 4810000    1.3513259   -3.3385247   -1.7646635    0.1456912   -3.3385247    1.5738612   565469 
 4811000     1.351991   -3.3388262   -1.7642795   0.15326192   -3.3388262    1.5745467   565501 
 4812000    1.3523883   -3.3401387   -1.7651961   0.15044014   -3.3401387    1.5749426   565525 
 4813000    1.3529842   -3.3407529   -1.7652388   0.14600631   -3.3407529     1.575514   565569 
 4814000     1.353435   -3.3413958   -1.7654014   0.14549292   -3.3413958    1.5759944   565585 
 4815000    1.3521715   -3.3413055   -1.7668437   0.14227422   -3.3413055    1.5744619   565607 
 4816000    1.3518718    -3.339591   -1.7655784   0.15045971    -3.339591    1.5740126   565643 
 4817000    1.3511892   -3.3398277   -1.7666877   0.14842171   -3.3398277    1.5731401   565671 
 4818000    1.3511379   -3.3395301   -1.7665471    0.1480496   -3.3395301    1.5729829   565706 
 4819000    1.3512619   -3.3394066   -1.7663877   0.14651291   -3.3394066    1.5730189   565745 
 4820000    1.3542144    -3.341864   -1.7654972   0.14254955    -3.341864    1.5763667   565777 
 4821000    1.3537918   -3.3419224   -1.7661311   0.14636792   -3.3419224    1.5757913   565807 
 4822000    1.3524126   -3.3397358   -1.7656333   0.14590282   -3.3397358    1.5741025   565837 
 4823000     1.353634   -3.3416901   -1.7662496   0.14592761   -3.3416901    1.5754405   565867 
 4824000    1.3531906   -3.3406585   -1.7657953   0.14839723   -3.3406585    1.5748632   565889 
 4825000    1.3531295   -3.3419537   -1.7672479   0.14515636   -3.3419537    1.5747058   565920 
 4826000    1.3537299   -3.3414083   -1.7660677   0.14615361   -3.3414083    1.5753406   565943 
 4827000    1.3530335   -3.3409581    -1.766503   0.14306315   -3.3409581    1.5744551   565970 
 4828000    1.3534309   -3.3417658   -1.7669178   0.14970427   -3.3417658    1.5748479   565995 
 4829000    1.3543719   -3.3427486   -1.7668864   0.14192183   -3.3427486    1.5758622   566024 
 4830000    1.3527554   -3.3406587   -1.7667748   0.14696408   -3.3406587    1.5738839   566059 
 4831000    1.3549757   -3.3422736     -1.76589   0.14502261   -3.3422736    1.5763836   566089 
 4832000    1.3527999   -3.3397199   -1.7659315   0.15049732   -3.3397199    1.5737884   566112 
 4833000    1.3540125   -3.3416835   -1.7665262   0.14782246   -3.3416835    1.5751573   566127 
 4834000    1.3547338   -3.3410307   -1.7651289   0.14834324   -3.3410307    1.5759018   566161 
 4835000    1.3549543   -3.3433303   -1.7672444   0.15054518   -3.3433303    1.5760859   566187 
 4836000    1.3561573   -3.3435137   -1.7660897   0.14105842   -3.3435137     1.577424   566209 
 4837000    1.3540793   -3.3417498   -1.7668153   0.15321836   -3.3417498    1.5749346   566235 
 4838000     1.354991   -3.3436671   -1.7677583   0.14671865   -3.3436671    1.5759088   566266 
 4839000    1.3532587   -3.3416102   -1.7677551   0.14629769   -3.3416102    1.5738551   566280 
 4840000    1.3546032   -3.3429197   -1.7675956   0.14538378   -3.3429197    1.5753242   566314 
 4841000    1.3540124   -3.3413174   -1.7667943   0.14826006   -3.3413174    1.5745231   566355 
 4842000    1.3554734    -3.343357   -1.7672297   0.14434433    -3.343357    1.5761274   566389 
 4843000    1.3542272   -3.3436503   -1.7690415   0.14806548   -3.3436503    1.5746088   566414 
 4844000    1.3546669    -3.345047   -1.7700215   0.14507009    -3.345047    1.5750256   566448 
 4845000    1.3543143   -3.3445622   -1.7700356   0.14421778   -3.3445622    1.5745266   566480 
 4846000    1.3526892   -3.3424014   -1.7698557   0.14776442   -3.3424014    1.5725457   566513 
 4847000    1.3553889   -3.3450587   -1.7694385   0.14555697   -3.3450587    1.5756202   566536 
 4848000    1.3517317   -3.3423139   -1.7710172   0.14849146   -3.3423139    1.5712966   566562 
 4849000    1.3536985   -3.3442588    -1.770723    0.1475692   -3.3442588    1.5735357   566579 
 4850000     1.352883   -3.3428826   -1.7703587   0.14683121   -3.3428826    1.5725239   566602 
 4851000    1.3553014   -3.3451987   -1.7699249   0.14405804   -3.3451987    1.5752739   566624 
 4852000    1.3550121   -3.3452553   -1.7704122    0.1488767   -3.3452553    1.5748431   566658 
 4853000    1.3546782    -3.344828   -1.7704286   0.14936257    -3.344828    1.5743994   566678 
 4854000    1.3545098   -3.3447977   -1.7707162   0.14631028   -3.3447977    1.5740815   566722 
 4855000    1.3558982   -3.3463384   -1.7707296   0.14724895   -3.3463384    1.5756088   566753 
 4856000    1.3558886   -3.3457195   -1.7701969    0.1528323   -3.3457195    1.5755226   566780 
 4857000    1.3551195   -3.3446541   -1.7700725   0.15013677   -3.3446541    1.5745816   566797 
 4858000    1.3553223   -3.3445057   -1.7697412    0.1476467   -3.3445057    1.5747645   566816 
 4859000     1.356526   -3.3460415   -1.7699368   0.15314102   -3.3460415    1.5761047   566837 
 4860000    1.3555481   -3.3446175   -1.7697101   0.15434089   -3.3446175    1.5749074   566859 
 4861000    1.3547446   -3.3442293   -1.7703165   0.15468693   -3.3442293    1.5739128   566881 
 4862000    1.3555325    -3.346382   -1.7716094   0.14706024    -3.346382    1.5747725   566901 
 4863000    1.3561643   -3.3467482   -1.7713139   0.14221292   -3.3467482    1.5754343   566927 
 4864000    1.3559936   -3.3463008   -1.7711371    0.1453603   -3.3463008    1.5751638   566953 
 4865000    1.3546753   -3.3440545   -1.7704942   0.14905407   -3.3440545    1.5735603   566979 
 4866000    1.3558741   -3.3472163   -1.7723914    0.1511041   -3.3472163     1.574825   567025 
 4867000    1.3555382   -3.3456707   -1.7713248   0.14708541   -3.3456707    1.5743459   567057 
 4868000    1.3565091   -3.3448982   -1.7695386   0.15359859   -3.3448982    1.5753596   567098 
 4869000    1.3570723   -3.3457099   -1.7697823   0.14814206   -3.3457099    1.5759276   567129 
 4870000    1.3548229   -3.3440649    -1.770816   0.15506386   -3.3440649    1.5732489   567153 
 4871000    1.3565988   -3.3465856   -1.7713718    0.1431518   -3.3465856    1.5752138   567188 
 4872000    1.3565983    -3.346512   -1.7713765   0.14611268    -3.346512    1.5751355   567216 
 4873000    1.3574392   -3.3473628   -1.7713538    0.1510806   -3.3473628    1.5760091   567253 
 4874000    1.3577174   -3.3467252   -1.7705209    0.1510946   -3.3467252    1.5762043   567299 
 4875000    1.3575839   -3.3463761   -1.7704157   0.14855688   -3.3463761    1.5759604   567331 
 4876000    1.3566683   -3.3464171   -1.7715668   0.15139172   -3.3464171    1.5748503   567348 
 4877000    1.3558716   -3.3451316   -1.7712727   0.14836262   -3.3451316    1.5738589   567372 
 4878000    1.3563735   -3.3454798   -1.7711161   0.14427022   -3.3454798    1.5743638   567400 
 4879000    1.3567083    -3.346685   -1.7720352   0.15504739    -3.346685    1.5746498   567437 
 4880000    1.3564834   -3.3486478    -1.774334   0.14984984   -3.3486478    1.5743138   567464 
 4881000    1.3555055   -3.3493513   -1.7762806   0.15136862   -3.3493513    1.5730707   567503 
 4882000    1.3550706   -3.3479801   -1.7754972   0.14262885   -3.3479801    1.5724829   567533 
 4883000    1.3548764   -3.3490912   -1.7768697   0.14618657   -3.3490912    1.5722215   567546 
 4884000    1.3547052   -3.3483564   -1.7764581   0.14886842   -3.3483564    1.5718983   567591 
 4885000    1.3557088   -3.3493589   -1.7763849   0.15138837   -3.3493589     1.572974   567623 
 4886000    1.3563678    -3.349829   -1.7761985    0.1488728    -3.349829    1.5736306   567662 
 4887000    1.3552139   -3.3483179   -1.7761285   0.14707484   -3.3483179    1.5721894   567699 
 4888000     1.355912   -3.3494972   -1.7765755   0.15106388   -3.3494972    1.5729217   567727 
 4889000    1.3574403   -3.3506461   -1.7760153   0.15280568   -3.3506461    1.5746307   567750 
 4890000    1.3576959   -3.3507404   -1.7759213   0.15101672   -3.3507404    1.5748191   567789 
 4891000    1.3565952   -3.3497518   -1.7762953   0.15035888   -3.3497518    1.5734565   567820 
 4892000    1.3584346   -3.3528017   -1.7772812    0.1462111   -3.3528017    1.5755205   567845 
 4893000     1.357018   -3.3520887   -1.7782778   0.15057644   -3.3520887     1.573811   567869 
 4894000    1.3566221   -3.3514969   -1.7782448   0.14981471   -3.3514969    1.5732521   567905 
 4895000    1.3556161   -3.3512838   -1.7792454   0.14925857   -3.3512838    1.5720384   567922 
 4896000    1.3574278   -3.3519765   -1.7778953   0.15214736   -3.3519765    1.5740812   567943 
 4897000    1.3568599   -3.3516189   -1.7782877   0.15452502   -3.3516189    1.5733312   567976 
 4898000    1.3576554   -3.3519843   -1.7777806   0.14479149   -3.3519843    1.5742037   567994 
 4899000    1.3576072   -3.3518643     -1.77783   0.14881678   -3.3518643    1.5740343   568035 
 4900000    1.3564341   -3.3518473   -1.7792784   0.14735379   -3.3518473    1.5725689   568073 
 4901000    1.3570028   -3.3518092   -1.7786364   0.14836343   -3.3518092    1.5731728   568093 
 4902000    1.3580221   -3.3517492      -1.7775   0.15284176   -3.3517492    1.5742492   568131 
 4903000    1.3579121   -3.3526375   -1.7786211   0.15215715   -3.3526375    1.5740164   568169 
 4904000    1.3584286    -3.352811   -1.7782901   0.14860579    -3.352811    1.5745209   568203 
 4905000    1.3569414   -3.3515731   -1.7788562   0.14681207   -3.3515731    1.5727169   568232 
 4906000    1.3587936    -3.352411   -1.7776749   0.14978532    -3.352411    1.5747361   568278 
 4907000    1.3577035   -3.3516464   -1.7782622   0.15354348   -3.3516464    1.5733842   568310 
 4908000    1.3575333   -3.3524975   -1.7793742   0.14888169   -3.3524975    1.5731233   568333 
 4909000    1.3573405   -3.3521648   -1.7793065   0.15052297   -3.3521648    1.5728584   568348 
 4910000    1.3583878   -3.3531632   -1.7791522   0.14543769   -3.3531632     1.574011   568370 
 4911000    1.3572536   -3.3513736   -1.7787626   0.14671656   -3.3513736     1.572611   568401 
 4912000    1.3578788   -3.3535314   -1.7802791   0.14573949   -3.3535314    1.5732523   568431 
 4913000    1.3583991    -3.353129   -1.7793404    0.1465758    -3.353129    1.5737887   568455 
 4914000    1.3562317   -3.3518672   -1.7806614   0.14628245   -3.3518672    1.5712057   568481 
 4915000    1.3581955   -3.3539696   -1.7806077    0.1455594   -3.3539696    1.5733618   568524 
 4916000    1.3578849   -3.3525237   -1.7795907   0.14854003   -3.3525237    1.5729329   568549 
 4917000    1.3571499   -3.3517643   -1.7797713   0.14789789   -3.3517643     1.571993   568581 
 4918000    1.3580609   -3.3529128   -1.7799586   0.15124973   -3.3529128    1.5729542   568615 
 4919000    1.3599087   -3.3551223   -1.7800917   0.14383442   -3.3551223    1.5750306   568638 
 4920000    1.3576373   -3.3527186   -1.7803906    0.1562614   -3.3527186    1.5723281   568664 
 4921000    1.3594568    -3.355926     -1.78156    0.1525132    -3.355926     1.574366   568689 
 4922000    1.3585111   -3.3541711    -1.780975   0.15047859   -3.3541711    1.5731961   568716 
 4923000    1.3592459   -3.3559129   -1.7819737   0.14866116   -3.3559129    1.5739392   568755 
 4924000    1.3574439   -3.3534963   -1.7817129   0.15782325   -3.3534963    1.5717834   568780 
 4925000    1.3599474   -3.3565852   -1.7819915   0.14869761   -3.3565852    1.5745937   568812 
 4926000    1.3595243   -3.3553926   -1.7813719    0.1525776   -3.3553926    1.5740208   568842 
 4927000    1.3598448   -3.3562219   -1.7819242   0.14938545   -3.3562219    1.5742977   568876 
 4928000    1.3601361   -3.3559173    -1.781371    0.1536244   -3.3559173    1.5745463   568908 
 4929000    1.3596913   -3.3556966   -1.7817593   0.14354777   -3.3556966    1.5739374   568942 
 4930000    1.3589505   -3.3560789   -1.7830903   0.14958038   -3.3560789    1.5729886   568975 
 4931000    1.3591496   -3.3573179   -1.7841679   0.14193477   -3.3573179      1.57315   569000 
 4932000    1.3595486   -3.3578116   -1.7842413   0.14780957   -3.3578116    1.5735703   569015 
 4933000    1.3578329   -3.3568252   -1.7853124   0.14911601   -3.3568252    1.5715127   569041 
 4934000    1.3590942   -3.3570187   -1.7841595   0.15188429   -3.3570187    1.5728592   569082 
 4935000    1.3593193   -3.3556999   -1.7826465   0.15307828   -3.3556999    1.5730533   569106 
 4936000    1.3580249   -3.3561281    -1.784661   0.15140698   -3.3561281    1.5714671   569138 
 4937000    1.3602917   -3.3581352   -1.7841363   0.15116359   -3.3581352    1.5739989   569171 
 4938000     1.359786   -3.3573428   -1.7840396    0.1482055   -3.3573428    1.5733032   569211 
 4939000     1.359886   -3.3567721   -1.7834444   0.15298994   -3.3567721    1.5733277   569244 
 4940000    1.3595584   -3.3568837   -1.7840124   0.15093899   -3.3568837    1.5728713   569272 
 4941000    1.3579089   -3.3550347   -1.7841352   0.14756587   -3.3550347    1.5708995   569295 
 4942000    1.3589227   -3.3563716   -1.7843794   0.14474153   -3.3563716    1.5719923   569324 
 4943000    1.3591696   -3.3559951   -1.7838112   0.14922079   -3.3559951    1.5721839   569358 
 4944000     1.361854    -3.358118   -1.7828953   0.14932827    -3.358118    1.5752227   569382 
 4945000    1.3605075   -3.3571343   -1.7835355   0.15094217   -3.3571343    1.5735989   569406 
 4946000    1.3600457   -3.3565559   -1.7835769   0.15412507   -3.3565559     1.572979   569437 
 4947000    1.3612534    -3.357164   -1.7828683   0.15289488    -3.357164    1.5742957   569466 
 4948000    1.3605816   -3.3567833   -1.7833474   0.15473683   -3.3567833    1.5734359   569496 
 4949000    1.3606848   -3.3564592   -1.7829923   0.14896679   -3.3564592    1.5734669   569528 
 4950000    1.3601641   -3.3563875   -1.7836056   0.15366616   -3.3563875    1.5727819   569558 
 4951000    1.3604712   -3.3576655   -1.7845728   0.14586683   -3.3576655    1.5730927   569574 
 4952000    1.3602753   -3.3575326   -1.7847354    0.1456904   -3.3575326    1.5727972   569599 
 4953000    1.3599781   -3.3563693   -1.7839985   0.14999873   -3.3563693    1.5723708   569629 
 4954000    1.3609639   -3.3582404   -1.7848156   0.15050639   -3.3582404    1.5734248   569660 
 4955000    1.3607503   -3.3591147   -1.7860417   0.14824776   -3.3591147     1.573073   569698 
 4956000    1.3603755   -3.3581306   -1.7855626   0.14766234   -3.3581306     1.572568   569724 
 4957000    1.3613567   -3.3596047   -1.7859716   0.14689688   -3.3596047    1.5736332   569749 
 4958000    1.3601371   -3.3593397   -1.7872295   0.14701301   -3.3593397    1.5721102   569790 
 4959000    1.3601293   -3.3583923     -1.78636   0.14420706   -3.3583923    1.5720323   569815 
 4960000    1.3600583   -3.3580076   -1.7860933   0.14645911   -3.3580076    1.5719143   569828 
 4961000    1.3612836   -3.3594173   -1.7861835   0.15302584   -3.3594173    1.5732338   569863 
 4962000    1.3611299   -3.3588191    -1.785796    0.1545673   -3.3588191    1.5730231   569875 
 4963000    1.3611097   -3.3593244   -1.7864185    0.1537582   -3.3593244    1.5729059   569909 
 4964000    1.3645915   -3.3616501   -1.7847483   0.15304993   -3.3616501    1.5769018   569919 
 4965000    1.3630506   -3.3606011   -1.7855793   0.15077575   -3.3606011    1.5750218   569955 
 4966000     1.362604    -3.360475   -1.7860495   0.14848729    -3.360475    1.5744255   569984 
 4967000    1.3610809   -3.3592096   -1.7866185   0.15312713   -3.3592096    1.5725911   570011 
 4968000    1.3612941   -3.3595051   -1.7867615   0.15241678   -3.3595051    1.5727437   570045 
 4969000    1.3622642   -3.3604823   -1.7867089   0.14664279   -3.3604823    1.5737733   570078 
 4970000    1.3617813    -3.359492   -1.7863786   0.14948887    -3.359492    1.5731134   570115 
 4971000    1.3629431   -3.3611255   -1.7867721   0.14645648   -3.3611255    1.5743534   570152 
 4972000    1.3616193   -3.3604186   -1.7877158    0.1468588   -3.3604186    1.5727028   570196 
 4973000    1.3626586   -3.3602797   -1.7864621   0.14940682   -3.3602797    1.5738176   570227 
 4974000    1.3630023    -3.361115   -1.7869611   0.15306162    -3.361115    1.5741539   570249 
 4975000    1.3627252   -3.3611764   -1.7873977   0.14861632   -3.3611764    1.5737787   570269 
 4976000    1.3615124   -3.3611862   -1.7888662   0.14565657   -3.3611862    1.5723201   570290 
 4977000    1.3602616   -3.3597112   -1.7889263   0.14698506   -3.3597112    1.5707848   570323 
 4978000    1.3612056   -3.3601706   -1.7883949   0.14361663   -3.3601706    1.5717757   570359 
 4979000    1.3626102   -3.3610031   -1.7876442   0.14933968   -3.3610031     1.573359   570373 
 4980000    1.3615353   -3.3593313   -1.7873072   0.15469978   -3.3593313    1.5720241   570407 
 4981000     1.362007   -3.3600351   -1.7875628   0.15241503   -3.3600351    1.5724722   570442 
 4982000    1.3622968   -3.3609063   -1.7881574    0.1456235   -3.3609063    1.5727489   570463 
 4983000    1.3623529    -3.360904   -1.7881344   0.14436621    -3.360904    1.5727696   570479 
 4984000    1.3618508   -3.3603104    -1.788195   0.14725896   -3.3603104    1.5721155   570506 
 4985000    1.3640091   -3.3625932   -1.7880525   0.14859512   -3.3625932    1.5745407   570530 
 4986000    1.3646804   -3.3629847   -1.7877325   0.14573918   -3.3629847    1.5752522   570553 
 4987000    1.3630173   -3.3624161   -1.7891416   0.14403652   -3.3624161    1.5732745   570574 
 4988000     1.364006   -3.3630153   -1.7886851    0.1508739   -3.3630153    1.5743302   570605 
 4989000    1.3649709   -3.3641446   -1.7887365   0.14838182   -3.3641446    1.5754081   570618 
 4990000    1.3625068   -3.3613413    -1.788882   0.14801853   -3.3613413    1.5724594   570656 
 4991000    1.3649401   -3.3637717   -1.7885648   0.14873695   -3.3637717    1.5752069   570678 
 4992000    1.3641649   -3.3634671   -1.7892018   0.15088458   -3.3634671    1.5742653   570695 
 4993000    1.3635471   -3.3636691   -1.7902022   0.14944707   -3.3636691    1.5734669   570726 
 4994000    1.3628182   -3.3633519   -1.7907949    0.1502683   -3.3633519    1.5725569   570751 
 4995000     1.362192   -3.3633189    -1.791559   0.15022694   -3.3633189    1.5717599   570778 
 4996000    1.3614525   -3.3635949   -1.7927735   0.14844714   -3.3635949    1.5708214   570809 
 4997000    1.3617737   -3.3629292   -1.7918033   0.15406246   -3.3629292    1.5711259   570833 
 4998000    1.3616614   -3.3634098   -1.7924795   0.14309649   -3.3634098    1.5709303   570857 
 4999000    1.3630882   -3.3653669   -1.7928759   0.14372059   -3.3653669     1.572491   570888 
 5000000    1.3610727   -3.3625785   -1.7924401   0.14586522   -3.3625785    1.5701384   570898 
 5001000    1.3610435   -3.3626295   -1.7925936   0.15614902   -3.3626295    1.5700359   570923 
 5002000    1.3631852   -3.3647613   -1.7923098   0.14540304   -3.3647613    1.5724514   570943 
 5003000    1.3631281   -3.3641439   -1.7918355   0.15369014   -3.3641439    1.5723084   570971 
 5004000    1.3612576   -3.3625315   -1.7924493   0.15299455   -3.3625315    1.5700822   570996 
 5005000    1.3623126   -3.3650696   -1.7938119   0.15016526   -3.3650696    1.5712577   571011 
 5006000    1.3620375   -3.3647799    -1.793922   0.15186563   -3.3647799    1.5708579   571041 
 5007000     1.362483   -3.3639206   -1.7926066    0.1505158   -3.3639206    1.5713139   571062 
 5008000    1.3613178    -3.362483   -1.7926036   0.14949971    -3.362483    1.5698794   571095 
 5009000    1.3626143   -3.3642677   -1.7929728   0.14653568   -3.3642677    1.5712948   571124 
 5010000    1.3633187   -3.3649998   -1.7929395   0.15487192   -3.3649998    1.5720603   571141 
 5011000    1.3635703   -3.3651855   -1.7928957     0.148634   -3.3651855    1.5722898   571163 
 5012000    1.3635781   -3.3647471   -1.7925006   0.14885649   -3.3647471    1.5722465   571182 
 5013000    1.3624539   -3.3635264   -1.7926449   0.14980428   -3.3635264    1.5708815   571207 
 5014000    1.3629011   -3.3647969   -1.7934878   0.14312315   -3.3647969    1.5713091   571239 
 5015000    1.3639091   -3.3655328   -1.7931662    0.1462964   -3.3655328    1.5723666   571277 
 5016000    1.3617115   -3.3632763   -1.7935064   0.15091339   -3.3632763    1.5697699   571300 
 5017000    1.3630761    -3.365243   -1.7939769   0.15281025    -3.365243    1.5712661   571328 
 5018000    1.3645498   -3.3678716   -1.7949755   0.14895059   -3.3678716    1.5728961   571353 
 5019000    1.3627477   -3.3661306   -1.7953861   0.15105052   -3.3661306    1.5707446   571380 
 5020000    1.3636201   -3.3667103   -1.7950593   0.15102341   -3.3667103     1.571651   571416 
 5021000    1.3643336   -3.3680689    -1.795667   0.14870306   -3.3680689    1.5724019   571442 
 5022000    1.3624445   -3.3659012   -1.7957672   0.14934225   -3.3659012     1.570134   571475 
 5023000    1.3633096   -3.3667308   -1.7956905   0.14456103   -3.3667308    1.5710402   571508 
 5024000    1.3655238   -3.3689559   -1.7954246   0.14711679   -3.3689559    1.5735313   571530 
 5025000    1.3641221   -3.3674572   -1.7956128   0.15781905   -3.3674572    1.5718445   571556 
 5026000    1.3646556   -3.3682456   -1.7958551   0.14729438   -3.3682456    1.5723905   571581 
 5027000    1.3651919   -3.3694336   -1.7965324   0.14910487   -3.3694336    1.5729011   571620 
 5028000    1.3640877   -3.3679946   -1.7964564   0.15050024   -3.3679946    1.5715382   571653 
 5029000    1.3652952   -3.3686998   -1.7958447   0.15198778   -3.3686998    1.5728551   571680 
 5030000    1.3652701   -3.3691549   -1.7963784   0.14914357   -3.3691549    1.5727766   571698 
 5031000     1.362853   -3.3659451   -1.7960546    0.1543867   -3.3659451    1.5698906   571735 
 5032000    1.3645542   -3.3694618   -1.7976831   0.14875841   -3.3694618    1.5717787   571761 
 5033000    1.3635575   -3.3683383   -1.7977846   0.15511531   -3.3683383    1.5705537   571789 
 5034000    1.3645063   -3.3708313   -1.7993029   0.14683675   -3.3708313    1.5715284   571832 
 5035000    1.3648539   -3.3711281   -1.7992737   0.14491222   -3.3711281    1.5718544   571859 
 5036000    1.3642635   -3.3698022   -1.7987073   0.14998894   -3.3698022    1.5710948   571888 
 5037000    1.3624146   -3.3683163   -1.7994219    0.1480901   -3.3683163    1.5688943   571914 
 5038000    1.3635797   -3.3695934    -1.799437   0.15001117   -3.3695934    1.5701564   571943 
 5039000    1.3650678    -3.369766   -1.7979648   0.14885569    -3.369766    1.5718013   571968 
 5040000    1.3634181    -3.368018   -1.7982014   0.14953461    -3.368018    1.5698167   571999 
 5041000    1.3635003   -3.3679098   -1.7980863   0.15047361   -3.3679098    1.5698235   572031 
 5042000    1.3653327   -3.3694208   -1.7975646   0.14731658   -3.3694208    1.5718562   572059 
 5043000    1.3659554   -3.3706966    -1.798206   0.15232831   -3.3706966    1.5724906   572089 
 5044000    1.3655129   -3.3710758   -1.7991551    0.1467148   -3.3710758    1.5719207   572111 
 5045000    1.3642673    -3.369312   -1.7989075   0.15388276    -3.369312    1.5704045   572141 
 5046000    1.3641287   -3.3697264   -1.7995583   0.15008403   -3.3697264    1.5701681   572169 
 5047000    1.3657735   -3.3715278   -1.7995296   0.14885314   -3.3715278    1.5719982   572192 
 5048000    1.3649325   -3.3697368   -1.7987863    0.1513255   -3.3697368    1.5709505   572221 
 5049000    1.3645995   -3.3695776   -1.7991009   0.15406094   -3.3695776    1.5704767   572254 
 5050000    1.3651009   -3.3703338   -1.7993486   0.14993436   -3.3703338    1.5709852   572279 
 5051000    1.3660882    -3.371731   -1.7996811   0.15149314    -3.371731    1.5720499   572305 
 5052000    1.3661057   -3.3718639   -1.7998845    0.1462207   -3.3718639    1.5719794   572338 
 5053000    1.3639752   -3.3715592   -1.8020917   0.14737611   -3.3715592    1.5694675   572360 
 5054000    1.3646168   -3.3713828   -1.8012649   0.15293768   -3.3713828     1.570118   572392 
 5055000    1.3638876   -3.3715458    -1.802297   0.14929789   -3.3715458    1.5692488   572403 
 5056000    1.3633666   -3.3703546   -1.8017517   0.15505666   -3.3703546    1.5686028   572420 
 5057000    1.3659265   -3.3724612     -1.80099   0.14960067   -3.3724612    1.5714712   572448 
 5058000    1.3655946    -3.372087   -1.8010663   0.14918441    -3.372087    1.5710207   572473 
 5059000    1.3658662   -3.3732206   -1.8019917   0.15532133   -3.3732206    1.5712289   572511 
 5060000     1.366116   -3.3725801   -1.8011708   0.14908077   -3.3725801    1.5714092   572550 
 5061000    1.3652308   -3.3717143   -1.8013919   0.15300255   -3.3717143    1.5703224   572575 
 5062000    1.3658574   -3.3728588   -1.8019035   0.15274248   -3.3728588    1.5709553   572607 
 5063000    1.3667076   -3.3738355   -1.8019599   0.14642598   -3.3738355    1.5718756   572628 
 5064000    1.3659684   -3.3739109   -1.8029596   0.15581709   -3.3739109    1.5709514   572655 
 5065000    1.3633235   -3.3714808   -1.8036397   0.15348491   -3.3714808    1.5678411   572680 
 5066000    1.3656053   -3.3741015   -1.8037241   0.15171572   -3.3741015    1.5703774   572712 
 5067000    1.3664659   -3.3739548   -1.8027111   0.15253313   -3.3739548    1.5712437   572757 
 5068000    1.3660917   -3.3737416   -1.8029777   0.14966198   -3.3737416    1.5707639   572775 
 5069000    1.3667822   -3.3748554   -1.8033688   0.14767414   -3.3748554    1.5714865   572801 
 5070000    1.3664104   -3.3740895   -1.8030716    0.1520844   -3.3740895    1.5710179   572816 
 5071000     1.365143   -3.3730069   -1.8035036   0.15171091   -3.3730069    1.5695033   572837 
 5072000    1.3662065   -3.3747983   -1.8041025   0.14853969   -3.3747983    1.5706958   572848 
 5073000    1.3666091   -3.3754215   -1.8043507    0.1484303   -3.3754215    1.5710708   572880 
 5074000     1.367403   -3.3763943   -1.8044876   0.14998483   -3.3763943    1.5719067   572908 
 5075000      1.36552   -3.3749056   -1.8052074   0.14784548   -3.3749056    1.5696982   572924 
 5076000    1.3667343    -3.374917   -1.8038475   0.15214811    -3.374917    1.5710694   572933 
 5077000    1.3663837   -3.3731513   -1.8025341   0.15788286   -3.3731513    1.5706171   572951 
 5078000    1.3674624   -3.3759045   -1.8041297   0.15427149   -3.3759045    1.5717748   572981 
 5079000    1.3666557   -3.3748557   -1.8040794   0.15286739   -3.3748557    1.5707762   573007 
 5080000    1.3650065   -3.3738732   -1.8050828    0.1513962   -3.3738732    1.5687904   573040 
 5081000    1.3651939   -3.3727548   -1.8038092    0.1541893   -3.3727548    1.5689455   573062 
 5082000     1.366705   -3.3743395   -1.8037478   0.15427766   -3.3743395    1.5705917   573095 
 5083000    1.3663692   -3.3748744    -1.804737   0.14792894   -3.3748744    1.5701373   573120 
 5084000    1.3670523   -3.3759455   -1.8051247   0.15238974   -3.3759455    1.5708208   573157 
 5085000    1.3677386   -3.3772637     -1.80572   0.14848682   -3.3772637    1.5715437   573181 
 5086000    1.3671835   -3.3767249   -1.8059095   0.15054059   -3.3767249    1.5708154   573214 
 5087000    1.3657644   -3.3749306   -1.8058251   0.15347436   -3.3749306    1.5691055   573243 
 5088000    1.3664432   -3.3766009   -1.8068086   0.15247966   -3.3766009    1.5697924   573277 
 5089000    1.3674705   -3.3788302   -1.8079563   0.14251655   -3.3788302    1.5708738   573313 
 5090000    1.3671996   -3.3775921   -1.8071117   0.15307143   -3.3775921    1.5704805   573343 
 5091000    1.3648431   -3.3748156   -1.8071213   0.15112065   -3.3748156    1.5676943   573372 
 5092000    1.3656935   -3.3759256   -1.8073147   0.14613392   -3.3759256    1.5686109   573394 
 5093000    1.3649586   -3.3751134   -1.8074231   0.14921916   -3.3751134    1.5676903   573422 
 5094000    1.3660015   -3.3761215   -1.8072882   0.14512811   -3.3761215    1.5688333   573442 
 5095000      1.36529   -3.3749608   -1.8070239   0.15887825   -3.3749608    1.5679369   573471 
 5096000     1.367455   -3.3775729   -1.8072181   0.15511126   -3.3775729    1.5703548   573496 
 5097000    1.3671118   -3.3780041   -1.8080928   0.15241365   -3.3780041    1.5699113   573514 
 5098000    1.3674017   -3.3791489   -1.8089676   0.15277263   -3.3791489    1.5701813   573537 
 5099000    1.3669512   -3.3793707   -1.8097751   0.15147465   -3.3793707    1.5695956   573562 
 5100000    1.3668626   -3.3790578    -1.809657   0.14944973   -3.3790578    1.5694008   573596 
 5101000    1.3679247   -3.3802597   -1.8096887   0.15292709   -3.3802597     1.570571   573614 
 5102000    1.3688434   -3.3808301   -1.8093057   0.14756053   -3.3808301    1.5715245   573651 
 5103000    1.3684173   -3.3800958   -1.8091509   0.15003067   -3.3800958    1.5709449   573684 
 5104000    1.3667041   -3.3791767   -1.8102861   0.15106588   -3.3791767    1.5688906   573716 
 5105000     1.365904   -3.3788421    -1.810971    0.1493684   -3.3788421     1.567871   573753 
 5106000    1.3666296   -3.3795254   -1.8108817   0.14319216   -3.3795254    1.5686437   573775 
 5107000    1.3662168   -3.3806028   -1.8124848   0.14514528   -3.3806028     1.568118   573794 
 5108000    1.3667433   -3.3818798   -1.8132449   0.14953724   -3.3818798    1.5686349   573826 
 5109000    1.3661587   -3.3804138   -1.8125291   0.15003722   -3.3804138    1.5678847   573855 
 5110000    1.3671635    -3.380878   -1.8118894   0.14638092    -3.380878    1.5689887   573873 
 5111000     1.365285   -3.3788202   -1.8120338   0.14838134   -3.3788202    1.5667865   573890 
 5112000    1.3680132   -3.3808203   -1.8109933   0.15327104   -3.3808203     1.569827   573923 
 5113000    1.3688547   -3.3812713   -1.8105115   0.15131903   -3.3812713    1.5707598   573935 
 5114000    1.3675054   -3.3798342   -1.8107102   0.15222794   -3.3798342     1.569124   573967 
 5115000    1.3683026   -3.3818026   -1.8118241   0.14787461   -3.3818026    1.5699786   573989 
 5116000    1.3660325   -3.3797067   -1.8123929   0.15148018   -3.3797067    1.5673138   574011 
 5117000    1.3661592   -3.3799311   -1.8125567   0.14814522   -3.3799311    1.5673745   574042 
 5118000     1.366374   -3.3805867   -1.8130477   0.15258838   -3.3805867     1.567539   574072 
 5119000    1.3677454   -3.3821858   -1.8131363   0.14912699   -3.3821858    1.5690495   574095 
 5120000     1.366924   -3.3802041   -1.8121542   0.15306632   -3.3802041    1.5680498   574116 
 5121000    1.3660414    -3.380048   -1.8130543   0.15308913    -3.380048    1.5669937   574132 
 5122000    1.3665431   -3.3803707   -1.8128752   0.15209297   -3.3803707    1.5674955   574159 
 5123000    1.3688781   -3.3819919   -1.8119138   0.15169106   -3.3819919    1.5700781   574194 
 5124000     1.369265   -3.3816772   -1.8112401   0.15140973   -3.3816772    1.5704371   574225 
 5125000    1.3699758   -3.3824717   -1.8113234   0.14827625   -3.3824717    1.5711483   574263 
 5126000    1.3676292    -3.379947   -1.8115609   0.15185376    -3.379947    1.5683862   574289 
 5127000    1.3686666   -3.3824654    -1.812966   0.15065745   -3.3824654    1.5694994   574317 
 5128000    1.3690376   -3.3826993   -1.8128155   0.14274952   -3.3826993    1.5698837   574332 
 5129000    1.3682731   -3.3813149   -1.8124061    0.1482426   -3.3813149    1.5689088   574368 
 5130000    1.3695705   -3.3816803   -1.8113686   0.15415467   -3.3816803    1.5703117   574399 
 5131000    1.3693767   -3.3826715   -1.8126395   0.14957557   -3.3826715     1.570032   574420 
 5132000    1.3677984   -3.3825562   -1.8144075   0.15019505   -3.3825562    1.5681487   574447 
 5133000    1.3681898   -3.3825941    -1.814024   0.14987351   -3.3825941    1.5685702   574457 
 5134000    1.3674373   -3.3818994   -1.8142711   0.14874059   -3.3818994    1.5676283   574486 
 5135000    1.3679796   -3.3823782   -1.8142101   0.15396661   -3.3823782    1.5681681   574516 
 5136000    1.3684045   -3.3827212   -1.8141534   0.15202928   -3.3827212    1.5685678   574548 
 5137000    1.3686131   -3.3828064   -1.8140868   0.15109089   -3.3828064    1.5687196   574580 
 5138000     1.370631   -3.3844269   -1.8134546   0.14662426   -3.3844269    1.5709724   574602 
 5139000    1.3691042   -3.3821335    -1.812993   0.15338928   -3.3821335    1.5691405   574632 
 5140000    1.3699284   -3.3825711   -1.8126007   0.15132268   -3.3825711    1.5699703   574674 
 5141000     1.370022   -3.3830369   -1.8130221   0.15142449   -3.3830369    1.5700147   574697 
 5142000    1.3720726   -3.3855899   -1.8133318   0.15036158   -3.3855899    1.5722581   574736 
 5143000    1.3696784   -3.3830597   -1.8136435   0.15289663   -3.3830597    1.5694162   574772 
 5144000    1.3704297   -3.3838383   -1.8136268   0.15459664   -3.3838383    1.5702115   574796 
 5145000    1.3695746   -3.3831839   -1.8139849   0.15332711   -3.3831839     1.569199   574808 
 5146000     1.369392   -3.3834321   -1.8144969   0.14726928   -3.3834321    1.5689352   574828 
 5147000    1.3688943   -3.3833911   -1.8150943   0.15471337   -3.3833911    1.5682968   574853 
 5148000    1.3694886   -3.3836298   -1.8147232   0.15307302   -3.3836298    1.5689067   574879 
 5149000     1.370457   -3.3853297   -1.8153873    0.1488411   -3.3853297    1.5699423   574906 
 5150000    1.3686005   -3.3829459   -1.8151794   0.15755793   -3.3829459    1.5677665   574924 
 5151000    1.3710699    -3.384692    -1.814135   0.14935606    -3.384692     1.570557   574938 
 5152000     1.369433   -3.3826852   -1.8140523   0.15328464   -3.3826852    1.5686328   574956 
 5153000    1.3705485   -3.3841716   -1.8143401    0.1560985   -3.3841716    1.5698314   574985 
 5154000    1.3702924   -3.3850928   -1.8156421   0.15097234   -3.3850928    1.5694508   575017 
 5155000    1.3715131   -3.3862853   -1.8154965   0.14913149   -3.3862853    1.5707888   575039 
 5156000    1.3712064   -3.3856267    -1.815293   0.15349258   -3.3856267    1.5703337   575077 
 5157000    1.3691133   -3.3843293   -1.8164771   0.15166855   -3.3843293    1.5678522   575108 
 5158000    1.3718086   -3.3869628   -1.8160869   0.15128471   -3.3869628    1.5708759   575131 
 5159000    1.3713276   -3.3865931   -1.8163281   0.14550774   -3.3865931     1.570265   575153 
 5160000    1.3694461   -3.3850334   -1.8170183   0.15016642   -3.3850334    1.5680151   575188 
 5161000    1.3705852    -3.386119   -1.8168896   0.14967974    -3.386119    1.5692294   575221 
 5162000    1.3696758    -3.385082   -1.8169701   0.15033453    -3.385082    1.5681119   575249 
 5163000    1.3699566   -3.3868151   -1.8184854   0.14222787   -3.3868151    1.5683297   575287 
 5164000    1.3696559   -3.3863694   -1.8184357   0.15046253   -3.3863694    1.5679337   575306 
 5165000    1.3704393   -3.3873596   -1.8186027   0.14870765   -3.3873596    1.5687569   575333 
 5166000    1.3692132   -3.3861484   -1.8188659   0.15290452   -3.3861484    1.5672825   575359 
 5167000     1.368341   -3.3859641   -1.8197507   0.14807483   -3.3859641    1.5662134   575385 
 5168000    1.3681563   -3.3857385   -1.8198291   0.15046692   -3.3857385    1.5659094   575419 
 5169000    1.3707987     -3.38819   -1.8193162    0.1525505     -3.38819    1.5688738   575441 
 5170000     1.369898   -3.3877744   -1.8199614   0.15158912   -3.3877744     1.567813   575452 
 5171000    1.3709162   -3.3882988   -1.8193996   0.14733353   -3.3882988    1.5688992   575481 
 5172000    1.3699311   -3.3871447   -1.8193947   0.15857754   -3.3871447      1.56775   575489 
 5173000    1.3701887   -3.3875643    -1.819563   0.15067142   -3.3875643    1.5680013   575505 
 5174000    1.3702668   -3.3867298   -1.8187074   0.14700952   -3.3867298    1.5680225   575530 
 5175000    1.3691676   -3.3857106   -1.8190031   0.15676204   -3.3857106    1.5667075   575551 
 5176000     1.370395   -3.3859547   -1.8179217   0.14994771   -3.3859547     1.568033   575580 
 5177000    1.3712942   -3.3870688   -1.8180859   0.15309852   -3.3870688    1.5689829   575609 
 5178000    1.3713556   -3.3876148   -1.8185944   0.15067225   -3.3876148    1.5690204   575621 
 5179000    1.3716117   -3.3875443    -1.818269   0.14967378   -3.3875443    1.5692753   575635 
 5180000    1.3714043   -3.3874639    -1.818505   0.14780054   -3.3874639    1.5689589   575664 
 5181000    1.3705519   -3.3875898   -1.8196932   0.14879932   -3.3875898    1.5678966   575696 
 5182000    1.3691074   -3.3869863   -1.8208266    0.1512676   -3.3869863    1.5661597   575727 
 5183000    1.3693676   -3.3860475   -1.8196419   0.15080583   -3.3860475    1.5664056   575746 
 5184000    1.3692025   -3.3866921   -1.8205296   0.15196799   -3.3866921    1.5661625   575766 
 5185000    1.3708054   -3.3882182   -1.8203176   0.14890214   -3.3882182    1.5679006   575801 
 5186000    1.3702241   -3.3875499   -1.8203768   0.15108752   -3.3875499    1.5671731   575824 
 5187000    1.3697249   -3.3873429   -1.8208169   0.14999202   -3.3873429     1.566526   575852 
 5188000    1.3701988   -3.3880288    -1.821037   0.14943632   -3.3880288    1.5669918   575880 
 5189000    1.3702485   -3.3890797   -1.8221072   0.14507584   -3.3890797    1.5669725   575908 
 5190000    1.3714776   -3.3898509   -1.8215355    0.1456814   -3.3898509    1.5683154   575931 
 5191000    1.3705831   -3.3883495   -1.8210952   0.14539878   -3.3883495    1.5672543   575945 
 5192000    1.3679257   -3.3875392   -1.8234431   0.15176282   -3.3875392    1.5640962   575989 
 5193000    1.3701505   -3.3904395    -1.823892   0.14537401   -3.3904395    1.5665475   576023 
 5194000    1.3693974   -3.3893394   -1.8237426   0.15091296   -3.3893394    1.5655968   576056 
 5195000    1.3686712   -3.3895403   -1.8248335   0.14772183   -3.3895403    1.5647068   576078 
 5196000    1.3694034   -3.3901882   -1.8246905   0.14708916   -3.3901882    1.5654977   576095 
 5197000    1.3707617   -3.3922693   -1.8253032   0.15157131   -3.3922693    1.5669661   576126 
 5198000    1.3694874   -3.3898791   -1.8244538   0.15331525   -3.3898791    1.5654252   576157 
 5199000    1.3724189    -3.393163   -1.8244304   0.15193355    -3.393163    1.5687326   576173 
 5200000    1.3704416    -3.391435   -1.8250331   0.15349382    -3.391435    1.5664018   576199 
 5201000    1.3713088   -3.3915946   -1.8242696   0.14555474   -3.3915946    1.5673249   576224 
 5202000    1.3716392   -3.3923557   -1.8247402   0.15196027   -3.3923557    1.5676155   576256 
 5203000    1.3701617     -3.39068   -1.8248238    0.1526232     -3.39068    1.5658562   576282 
 5204000    1.3707171   -3.3916703   -1.8252363   0.14861034   -3.3916703     1.566434   576303 
 5205000    1.3680496   -3.3901382   -1.8268177   0.15997919   -3.3901382    1.5633205   576327 
 5206000    1.3690923   -3.3903185   -1.8258527   0.15856473   -3.3903185    1.5644658   576344 
 5207000    1.3704911   -3.3919263   -1.8259328   0.14800997   -3.3919263    1.5659936   576370 
 5208000    1.3695744   -3.3915579   -1.8266743   0.14714156   -3.3915579    1.5648837   576393 
 5209000    1.3711331   -3.3926542   -1.8260656    0.1488787   -3.3926542    1.5665886   576421 
 5210000    1.3688999   -3.3904309   -1.8264834   0.15628532   -3.3904309    1.5639474   576454 
 5211000    1.3696665   -3.3914135   -1.8266499   0.15083482   -3.3914135    1.5647636   576476 
 5212000    1.3678519   -3.3896227   -1.8269864   0.15562058   -3.3896227    1.5626363   576496 
 5213000     1.370553   -3.3910713   -1.8254144   0.15297659   -3.3910713    1.5656569   576520 
 5214000    1.3722588   -3.3931701    -1.825657   0.14791046   -3.3931701    1.5675131   576554 
 5215000    1.3692683   -3.3913825   -1.8273912   0.15146236   -3.3913825    1.5639913   576593 
 5216000    1.3698669   -3.3911679   -1.8265771   0.15539679   -3.3911679    1.5645908   576624 
 5217000    1.3715769   -3.3934008    -1.826952   0.14780391   -3.3934008    1.5664489   576659 
 5218000    1.3705194   -3.3919296   -1.8267509   0.14613293   -3.3919296    1.5651787   576682 
 5219000    1.3722163   -3.3945186   -1.8275053   0.14682398   -3.3945186    1.5670133   576720 
 5220000    1.3713673   -3.3931955   -1.8271952   0.14742764   -3.3931955    1.5660003   576736 
 5221000    1.3725043   -3.3937213   -1.8265013   0.15073642   -3.3937213      1.56722   576765 
 5222000    1.3719988   -3.3934281   -1.8268505   0.15050302   -3.3934281    1.5665776   576789 
 5223000    1.3701158    -3.391424   -1.8270481   0.15497528    -3.391424    1.5643759   576808 
 5224000    1.3725567   -3.3947037   -1.8276495   0.15218189   -3.3947037    1.5670543   576848 
 5225000    1.3722027   -3.3942895   -1.8276801   0.15431131   -3.3942895    1.5666094   576863 
 5226000    1.3724219    -3.394762   -1.8279894   0.14718962    -3.394762    1.5667727   576895 
 5227000    1.3726154   -3.3946467   -1.8277074   0.14919582   -3.3946467    1.5669393   576915 
 5228000    1.3746185   -3.3955326   -1.8263665   0.15036011   -3.3955326    1.5691661   576937 
 5229000    1.3738759   -3.3952383   -1.8270069   0.15311949   -3.3952383    1.5682314   576969 
 5230000    1.3737258   -3.3957984   -1.8277465   0.14929611   -3.3957984    1.5680519   576972 
 5231000    1.3734298   -3.3965407   -1.8288919   0.15080641   -3.3965407    1.5676489   576996 
 5232000    1.3739124   -3.3963713   -1.8282476   0.14707795   -3.3963713    1.5681237   577024 
 5233000    1.3729918   -3.3967849   -1.8297935    0.1470787   -3.3967849    1.5669914   577054 
 5234000    1.3715395   -3.3949572   -1.8296694   0.14933199   -3.3949572    1.5652878   577071 
 5235000    1.3737531   -3.3958624   -1.8281542   0.15562512   -3.3958624    1.5677082   577110 
 5236000    1.3726277   -3.3961347   -1.8297299   0.15053378   -3.3961347    1.5664048   577117 
 5237000    1.3712199   -3.3949391   -1.8302031   0.15682269   -3.3949391     1.564736   577140 
 5238000    1.3729477   -3.3962015   -1.8295509   0.15047693   -3.3962015    1.5666506   577161 
 5239000    1.3742181   -3.3968198   -1.8287956   0.15161063   -3.3968198    1.5680242   577189 
 5240000    1.3732412   -3.3963431   -1.8295124   0.14718012   -3.3963431    1.5668307   577218 
 5241000    1.3717308   -3.3949765   -1.8299233   0.14835346   -3.3949765    1.5650532   577238 
 5242000    1.3733189   -3.3968382   -1.8300273   0.14581851   -3.3968382    1.5668109   577258 
 5243000    1.3745775   -3.3968982   -1.8287221   0.14856557   -3.3968982    1.5681761   577284 
 5244000     1.374489   -3.3967291   -1.8287462   0.15160561   -3.3967291    1.5679828   577318 
 5245000    1.3740514   -3.3970556   -1.8296642   0.15338776   -3.3970556    1.5673914   577352 
 5246000    1.3747151   -3.3968987   -1.8288291   0.15802609   -3.3968987    1.5680696   577381 
 5247000    1.3740838   -3.3965346   -1.8292774   0.15543433   -3.3965346    1.5672572   577415 
 5248000    1.3736095   -3.3962074   -1.8295508   0.15877932   -3.3962074    1.5666566   577437 
 5249000    1.3758323   -3.3992776     -1.83017   0.15283745   -3.3992776    1.5691075   577468 
 5250000    1.3747352   -3.3977724   -1.8299757   0.14805007   -3.3977724    1.5677966   577490 
 5251000    1.3735075   -3.3958941   -1.8295871   0.15616769   -3.3958941     1.566307   577523 
 5252000    1.3737156    -3.396058   -1.8295978   0.15317873    -3.396058    1.5664602   577554 
 5253000    1.3744971   -3.3970212    -1.829754   0.15116058   -3.3970212    1.5672672   577585 
 5254000    1.3735132   -3.3960561   -1.8299622   0.15109044   -3.3960561    1.5660939   577604 
 5255000    1.3739086   -3.3960253   -1.8295377   0.15252901   -3.3960253    1.5664877   577625 
 5256000    1.3750405   -3.3969598   -1.8292141   0.15049854   -3.3969598    1.5677457   577637 
 5257000    1.3742348   -3.3970368   -1.8302803    0.1481102   -3.3970368    1.5667565   577663 
 5258000    1.3749928   -3.3984453   -1.8308924   0.15086136   -3.3984453    1.5675529   577688 
 5259000    1.3738748   -3.3970961   -1.8308883   0.14945308   -3.3970961    1.5662078   577714 
 5260000    1.3743626   -3.3969552   -1.8302591   0.15235347   -3.3969552    1.5666962   577739 
 5261000    1.3762206   -3.3991028    -1.830381   0.14966661   -3.3991028    1.5687219   577773 
 5262000    1.3749978   -3.3984294   -1.8311774   0.14833515   -3.3984294    1.5672521   577801 
 5263000    1.3737986   -3.3981938   -1.8323818   0.14951348   -3.3981938     1.565812   577828 
 5264000    1.3734415   -3.3976383   -1.8323282   0.14756141   -3.3976383    1.5653102   577863 
 5265000    1.3743877   -3.3986552   -1.8323452   0.15048974   -3.3986552    1.5663099   577892 
 5266000    1.3743416   -3.3981478   -1.8319391   0.15150605   -3.3981478    1.5662087   577910 
 5267000     1.374823   -3.3991808   -1.8325048   0.15445864   -3.3991808     1.566676   577940 
 5268000    1.3745066   -3.3995732   -1.8333256   0.15104341   -3.3995732    1.5662477   577965 
 5269000    1.3734817    -3.398437   -1.8334277   0.15422891    -3.398437    1.5650094   577991 
 5270000    1.3751942   -3.3998571   -1.8329452   0.15399215   -3.3998571    1.5669118   578009 
 5271000    1.3740105   -3.3989782   -1.8335098   0.15288727   -3.3989782    1.5654683   578044 
 5272000    1.3770204   -3.4027197   -1.8339061   0.14935859   -3.4027197    1.5688135   578075 
 5273000    1.3759387   -3.4010858   -1.8335995   0.15220541   -3.4010858    1.5674863   578110 
 5274000    1.3743684   -3.4002293    -1.834578   0.15641964   -3.4002293    1.5656513   578127 
 5275000    1.3755925   -3.4021531    -1.835167   0.15413016   -3.4021531    1.5669861   578149 
 5276000    1.3739605   -3.4008924   -1.8358384   0.14946844   -3.4008924    1.5650539   578176 
 5277000    1.3759913   -3.4030555    -1.835737   0.14940643   -3.4030555    1.5673185   578194 
 5278000    1.3755724    -3.403211   -1.8364646   0.15211257    -3.403211    1.5667464   578229 
 5279000    1.3742408   -3.4024732   -1.8372759   0.14788174   -3.4024732    1.5651973   578241 
 5280000    1.3736584   -3.4008402   -1.8363306   0.15506985   -3.4008402    1.5645096   578250 
 5281000    1.3735518   -3.4017508   -1.8374194   0.15574623   -3.4017508    1.5643314   578271 
 5282000    1.3738575   -3.4024262    -1.837817   0.15562764   -3.4024262    1.5646092   578297 
 5283000      1.37374   -3.4024904   -1.8380772   0.15378036   -3.4024904    1.5644131   578320 
 5284000    1.3739578   -3.4029873   -1.8384018    0.1529232   -3.4029873    1.5645854   578348 
 5285000    1.3758349   -3.4049893   -1.8383152   0.14334786   -3.4049893    1.5666742   578366 
 5286000    1.3730631   -3.4018114   -1.8383745   0.15387457   -3.4018114    1.5634368   578396 
 5287000     1.374533   -3.4033304   -1.8382712   0.15040099   -3.4033304    1.5650592   578415 
 5288000    1.3747995   -3.4029955   -1.8376924    0.1494909   -3.4029955    1.5653031   578437 
 5289000    1.3746371   -3.4033894   -1.8383768   0.15067341   -3.4033894    1.5650126   578476 
 5290000    1.3750885   -3.4041095   -1.8386425   0.14949626   -3.4041095     1.565467   578498 
 5291000    1.3750585   -3.4039979   -1.8386138   0.15297034   -3.4039979    1.5653841   578516 
 5292000    1.3758433   -3.4047949   -1.8385714   0.15346276   -3.4047949    1.5662235   578536 
 5293000    1.3751549   -3.4037647   -1.8383953   0.14845808   -3.4037647    1.5653695   578562 
 5294000     1.375477   -3.4039005    -1.838251   0.15563534   -3.4039005    1.5656495   578594 
 5295000     1.374698   -3.4035466   -1.8388082    0.1555932   -3.4035466    1.5647384   578603 
 5296000    1.3751831   -3.4047471   -1.8394997   0.15161738   -3.4047471    1.5652474   578619 
 5297000    1.3746921   -3.4036664   -1.8390536      0.15293   -3.4036664    1.5646128   578647 
 5298000    1.3753717   -3.4043442    -1.838958   0.15355483   -3.4043442    1.5653862   578647 
 5299000    1.3754237   -3.4037769    -1.838418   0.15189076   -3.4037769    1.5653589   578679 
 5300000    1.3767769   -3.4059472   -1.8391052   0.15304747   -3.4059472    1.5668421   578700 
 5301000    1.3746785   -3.4043634   -1.8399635   0.15106193   -3.4043634    1.5643999   578720 
 5302000    1.3765608   -3.4064605   -1.8399645   0.14729422   -3.4064605     1.566496   578737 
 5303000    1.3754743   -3.4051031    -1.839941   0.15052446   -3.4051031    1.5651621   578773 
 5304000     1.374411   -3.4035952   -1.8396835   0.15191407   -3.4035952    1.5639118   578788 
 5305000    1.3758671   -3.4048793   -1.8393243   0.15190545   -3.4048793     1.565555   578793 
 5306000    1.3755043   -3.4052256   -1.8401402   0.15187799   -3.4052256    1.5650855   578814 
 5307000    1.3744261   -3.4029614   -1.8391703   0.15567594   -3.4029614    1.5637911   578839 
 5308000    1.3754604   -3.4047951   -1.8398541    0.1510404   -3.4047951    1.5649409   578849 
 5309000    1.3758455   -3.4055334   -1.8402111   0.15070048   -3.4055334    1.5653223   578870 
 5310000    1.3763541   -3.4059987   -1.8401789   0.14968976   -3.4059987    1.5658197   578900 
 5311000     1.375496   -3.4058974   -1.8411052   0.14869739   -3.4058974    1.5647922   578919 
 5312000    1.3749725   -3.4054312   -1.8412724   0.15112248   -3.4054312    1.5641588   578933 
 5313000    1.3749422   -3.4045584   -1.8404745   0.14840585   -3.4045584    1.5640838   578948 
 5314000    1.3758844    -3.405077    -1.840016    0.1556032    -3.405077     1.565061   578983 
 5315000    1.3753523   -3.4059227   -1.8415534   0.15064773   -3.4059227    1.5643693   579015 
 5316000    1.3760907   -3.4045718   -1.8393978   0.14300412   -3.4045718     1.565174   579028 
 5317000    1.3782071   -3.4075279   -1.8400172    0.1520577   -3.4075279    1.5675108   579054 
 5318000    1.3770331   -3.4065516   -1.8404463    0.1532626   -3.4065516    1.5661052   579080 
 5319000    1.3770057   -3.4071684   -1.8411187   0.14759899   -3.4071684    1.5660497   579089 
 5320000    1.3755532   -3.4045492   -1.8402108    0.1589561   -3.4045492    1.5643384   579111 
 5321000    1.3757135   -3.4044578   -1.8399992   0.15067433   -3.4044578    1.5644586   579134 
 5322000    1.3750816   -3.4043152   -1.8406536    0.1466527   -3.4043152    1.5636617   579163 
 5323000    1.3778249   -3.4072251   -1.8404682   0.15254121   -3.4072251    1.5667569   579172 
 5324000    1.3770413   -3.4060159   -1.8402286   0.15164946   -3.4060159    1.5657874   579201 
 5325000    1.3758967   -3.4061493   -1.8417445   0.15347314   -3.4061493    1.5644049   579231 
 5326000    1.3766724   -3.4070652   -1.8418161   0.14694207   -3.4070652    1.5652491   579245 
 5327000    1.3762141   -3.4053804   -1.8406957   0.14642616   -3.4053804    1.5646847   579261 
 5328000     1.376794   -3.4059992   -1.8407092   0.15054431   -3.4059992      1.56529   579281 
 5329000    1.3761942   -3.4052548   -1.8406791   0.15452097   -3.4052548    1.5645757   579293 
 5330000    1.3769915   -3.4065813   -1.8411504   0.14866853   -3.4065813    1.5654308   579312 
 5331000    1.3773786   -3.4069386   -1.8411408   0.15045832   -3.4069386    1.5657978   579339 
 5332000    1.3761387   -3.4052841   -1.8409498   0.15489123   -3.4052841    1.5643344   579359 
 5333000    1.3780424   -3.4075035   -1.8410593   0.15504341   -3.4075035    1.5664443   579379 
 5334000    1.3756837   -3.4054185   -1.8416635   0.15564798   -3.4054185     1.563755   579382 
 5335000    1.3776965   -3.4081804   -1.8422536   0.15308986   -3.4081804    1.5659269   579425 
 5336000    1.3760925    -3.405631   -1.8415867   0.15291394    -3.405631    1.5640443   579447 
 5337000    1.3763762   -3.4071998   -1.8428952   0.15659583   -3.4071998    1.5643046   579470 
 5338000    1.3767231   -3.4079269   -1.8433171   0.15495598   -3.4079269    1.5646098   579503 
 5339000    1.3768544   -3.4079964   -1.8433048   0.15413646   -3.4079964    1.5646915   579528 
 5340000    1.3776941   -3.4079912    -1.842386   0.15447388   -3.4079912    1.5656052   579543 
 5341000    1.3754201   -3.4068086   -1.8438469   0.14678002   -3.4068086    1.5629617   579565 
 5342000    1.3759954   -3.4078059   -1.8442389   0.14768119   -3.4078059    1.5635669   579583 
 5343000    1.3756845   -3.4082922   -1.8451379   0.14878137   -3.4082922    1.5631543   579605 
 5344000    1.3748099   -3.4085262   -1.8464331   0.15178504   -3.4085262    1.5620931   579630 
 5345000    1.3749761   -3.4097287   -1.8475195   0.15164804   -3.4097287    1.5622092   579657 
 5346000    1.3759908   -3.4091404   -1.8458322   0.14618768   -3.4091404    1.5633081   579677 
 5347000    1.3748221   -3.4083847   -1.8464583   0.15581891   -3.4083847    1.5619264   579697 
 5348000    1.3760118    -3.409989   -1.8467729   0.15707411    -3.409989    1.5632161   579720 
 5349000    1.3768628   -3.4103844   -1.8462717    0.1483427   -3.4103844    1.5641127   579746 
 5350000    1.3765592   -3.4106492   -1.8469326   0.14757497   -3.4106492    1.5637165   579765 
 5351000    1.3765831   -3.4096858   -1.8460014   0.14400187   -3.4096858    1.5636844   579787 
 5352000    1.3760075   -3.4100947   -1.8470992   0.14813004   -3.4100947    1.5629955   579800 
 5353000     1.375885   -3.4108263   -1.8480319    0.1520954   -3.4108263    1.5627944   579823 
 5354000    1.3761942   -3.4113048    -1.848232   0.15215162   -3.4113048    1.5630728   579850 
 5355000    1.3765198    -3.411783    -1.848389   0.15211686    -3.411783     1.563394   579868 
 5356000    1.3748425    -3.410178   -1.8487348   0.15429278    -3.410178    1.5614433   579885 
 5357000    1.3782941   -3.4132603   -1.8479698   0.15358241   -3.4132603    1.5652905   579912 
 5358000    1.3754625   -3.4106471   -1.8486074    0.1551422   -3.4106471    1.5620397   579925 
 5359000    1.3752459   -3.4111192   -1.8494036   0.14815189   -3.4111192    1.5617156   579954 
 5360000     1.377116   -3.4129492   -1.8491666   0.14881237   -3.4129492    1.5637827   579975 
 5361000     1.376501   -3.4123512   -1.8493101    0.1491785   -3.4123512    1.5630411   579991 
 5362000    1.3755226   -3.4109528   -1.8490549   0.15323356   -3.4109528    1.5618978   580003 
 5363000    1.3767407   -3.4129673   -1.8497267    0.1469881   -3.4129673    1.5632406   580018 
 5364000    1.3755964   -3.4118445   -1.8499707   0.14698684   -3.4118445    1.5618739   580043 
 5365000    1.3764065   -3.4114481   -1.8487245   0.15127987   -3.4114481    1.5627236   580069 
 5366000    1.3781329   -3.4126402   -1.8480103   0.15591252   -3.4126402    1.5646298   580089 
 5367000    1.3787143   -3.4138828   -1.8486172   0.15084453   -3.4138828    1.5652656   580098 
 5368000    1.3776074   -3.4109982   -1.8470485   0.15360118   -3.4109982    1.5639497   580120 
 5369000    1.3793971   -3.4131755   -1.8472373   0.15407179   -3.4131755    1.5659383   580136 
 5370000    1.3779296   -3.4126679   -1.8484389    0.1496446   -3.4126679    1.5642291   580152 
 5371000    1.3785678   -3.4132761   -1.8483819   0.14618046   -3.4132761    1.5648942   580174 
 5372000    1.3775418    -3.412192   -1.8485379    0.1463137    -3.412192    1.5636541   580202 
 5373000    1.3773862   -3.4121193   -1.8486984   0.15558228   -3.4121193    1.5634209   580223 
 5374000    1.3779829   -3.4140644   -1.8500416   0.14452575   -3.4140644    1.5640228   580251 
 5375000    1.3768378    -3.412562   -1.8498928    0.1493954    -3.412562    1.5626691   580271 
 5376000    1.3768822   -3.4128573   -1.8502077   0.15081809   -3.4128573    1.5626495   580297 
 5377000    1.3766612   -3.4122876    -1.849983   0.14688614   -3.4122876    1.5623046   580332 
 5378000    1.3776631   -3.4127389   -1.8493325   0.14974619   -3.4127389    1.5634065   580345 
 5379000    1.3767009   -3.4116968    -1.849463    0.1604651   -3.4116968    1.5622338   580375 
 5380000    1.3791128   -3.4139407   -1.8489943   0.15569414   -3.4139407    1.5649464   580384 
 5381000     1.379818   -3.4144149   -1.8487221   0.15172319   -3.4144149    1.5656928   580404 
 5382000    1.3779804   -3.4125367   -1.8490018   0.15255606   -3.4125367    1.5635349   580431 
 5383000    1.3783229   -3.4137803   -1.8499053   0.15679578   -3.4137803     1.563875   580449 
 5384000    1.3781547   -3.4150047   -1.8513718    0.1553681   -3.4150047     1.563633   580468 
 5385000    1.3778637   -3.4146806   -1.8514343   0.14944308   -3.4146806    1.5632462   580489 
 5386000    1.3772357   -3.4132874   -1.8508128   0.14956424   -3.4132874    1.5624746   580511 
 5387000    1.3782129   -3.4138081    -1.850268   0.15311002   -3.4138081      1.56354   580527 
 5388000    1.3765732   -3.4121407   -1.8504958   0.15025551   -3.4121407    1.5616449   580540 
 5389000    1.3773253   -3.4125393   -1.8501273   0.15633699   -3.4125393     1.562412   580572 
 5390000    1.3794847   -3.4149754   -1.8501812   0.14769364   -3.4149754    1.5647942   580597 
 5391000    1.3767419   -3.4125554   -1.8509235   0.15556637   -3.4125554    1.5616318   580616 
 5392000    1.3773356   -3.4135059   -1.8512598   0.15289796   -3.4135059    1.5622461   580638 
 5393000     1.377194   -3.4138266    -1.851811   0.14883274   -3.4138266    1.5620156   580664 
 5394000    1.3779244     -3.41473   -1.8519668   0.15814529     -3.41473    1.5627632   580694 
 5395000    1.3778967   -3.4154733   -1.8528303   0.14954041   -3.4154733     1.562643   580727 
 5396000    1.3792506   -3.4160507   -1.8519315   0.15347528   -3.4160507    1.5641192   580749 
 5397000    1.3781633   -3.4151037   -1.8522687   0.15068038   -3.4151037     1.562835   580768 
 5398000    1.3779449   -3.4149683    -1.852467   0.14903641   -3.4149683    1.5625012   580800 
 5399000    1.3780546   -3.4147789   -1.8522043   0.15843738   -3.4147789    1.5625746   580819 
 5400000    1.3792671   -3.4149446   -1.8510302   0.15887815   -3.4149446    1.5639143   580832 
 5401000    1.3776641   -3.4151618   -1.8531295   0.15343267   -3.4151618    1.5620323   580856 
 5402000    1.3780511   -3.4153242   -1.8528881   0.15276718   -3.4153242    1.5624361   580869 
 5403000    1.3790226   -3.4156181   -1.8521585   0.15284311   -3.4156181    1.5634595   580898 
 5404000    1.3775331   -3.4150243   -1.8533235   0.14961752   -3.4150243    1.5617009   580924 
 5405000     1.378906   -3.4161111   -1.8529721   0.15134589   -3.4161111    1.5631389   580968 
 5406000    1.3789512   -3.4158641   -1.8526981   0.15231217   -3.4158641     1.563166   580977 
 5407000      1.37797   -3.4154466   -1.8534843   0.15175961   -3.4154466    1.5619623   581011 
 5408000    1.3781999   -3.4161169   -1.8539343   0.15264983   -3.4161169    1.5621825   581026 
 5409000    1.3777172   -3.4156817   -1.8541297   0.15323695   -3.4156817     1.561552   581057 
 5410000    1.3786525   -3.4174518   -1.8549283   0.15031976   -3.4174518    1.5625235   581090 
 5411000     1.378758   -3.4176585   -1.8550585   0.14625117   -3.4176585       1.5626   581106 
 5412000    1.3785972   -3.4178598   -1.8555119   0.15420622   -3.4178598    1.5623479   581132 
 5413000    1.3785801   -3.4170725   -1.8547843   0.15819041   -3.4170725    1.5622882   581147 
 5414000    1.3795883   -3.4184908   -1.8551246   0.15180714   -3.4184908    1.5633661   581171 
 5415000    1.3785785   -3.4177096   -1.8555604   0.15175484   -3.4177096    1.5621492   581198 
 5416000    1.3800896   -3.4181017   -1.8542778   0.15266992   -3.4181017    1.5638239   581212 
 5417000    1.3801426   -3.4190042   -1.8551714   0.14919426   -3.4190042    1.5638329   581231 
 5418000    1.3791084   -3.4176144   -1.8550045   0.15086542   -3.4176144    1.5626099   581250 
 5419000    1.3784021   -3.4171324   -1.8553738   0.15043759   -3.4171324    1.5617586   581269 
 5420000     1.379497   -3.4179043   -1.8549537    0.1533175   -3.4179043    1.5629507   581287 
 5421000    1.3787062   -3.4171957   -1.8551946   0.15035708   -3.4171957     1.562001   581307 
 5422000    1.3802814   -3.4188722   -1.8551565   0.14787441   -3.4188722    1.5637156   581333 
 5423000    1.3791024   -3.4175344   -1.8552351   0.15295936   -3.4175344    1.5622993   581363 
 5424000    1.3791203    -3.417769   -1.8555165    0.1539869    -3.417769    1.5622525   581388 
 5425000    1.3787096   -3.4180044    -1.856287   0.15514257   -3.4180044    1.5617173   581414 
 5426000    1.3785517   -3.4186942   -1.8572094   0.15110349   -3.4186942    1.5614849   581434 
 5427000    1.3781609   -3.4178386   -1.8568689   0.15472294   -3.4178386    1.5609696   581461 
 5428000    1.3786508   -3.4187501   -1.8572953   0.14917644   -3.4187501    1.5614548   581487 
 5429000    1.3785576   -3.4180264   -1.8567739   0.15677369   -3.4180264    1.5612525   581523 
 5430000    1.3787992   -3.4173906   -1.8559181   0.15433835   -3.4173906    1.5614725   581543 
 5431000    1.3790672   -3.4177667   -1.8560821   0.15280285   -3.4177667    1.5616847   581577 
 5432000    1.3811748   -3.4192351   -1.8552606   0.15292184   -3.4192351    1.5639745   581613 
 5433000    1.3815441   -3.4199563   -1.8556308   0.15169847   -3.4199563    1.5643254   581638 
 5434000    1.3794269   -3.4189258   -1.8570352   0.15173154   -3.4189258    1.5618905   581652 
 5435000    1.3789457   -3.4191207   -1.8578341   0.14964037   -3.4191207    1.5612867   581674 
 5436000    1.3786087   -3.4192625   -1.8584137   0.15273675   -3.4192625    1.5608487   581695 
 5437000    1.3817326   -3.4223813   -1.8580495   0.15022757   -3.4223813    1.5643318   581715 
 5438000    1.3791628   -3.4190908   -1.8577059   0.15513621   -3.4190908    1.5613849   581729 
 5439000    1.3791008   -3.4209019   -1.8596329   0.14648297   -3.4209019     1.561269   581746 
 5440000    1.3792099   -3.4207264   -1.8593957   0.15281839   -3.4207264    1.5613307   581769 
 5441000    1.3803956   -3.4233175   -1.8607223   0.15035986   -3.4233175    1.5625952   581798 
 5442000    1.3798524   -3.4221162   -1.8602245   0.15446866   -3.4221162    1.5618917   581831 
 5443000    1.3780238   -3.4206819   -1.8609243     0.153102   -3.4206819    1.5597575   581855 
 5444000    1.3793572   -3.4222017   -1.8609752   0.15377442   -3.4222017    1.5612265   581870 
 5445000    1.3792042   -3.4219908   -1.8610234    0.1547109   -3.4219908    1.5609674   581902 
 5446000     1.379577   -3.4217482   -1.8604205   0.15788425   -3.4217482    1.5613277   581925 
 5447000    1.3795697   -3.4209793   -1.8597188   0.16082052   -3.4209793    1.5612605   581947 
 5448000    1.3796597   -3.4216217   -1.8603051   0.15084073   -3.4216217    1.5613167   581964 
 5449000    1.3801944   -3.4213768   -1.8595329   0.14830287   -3.4213768    1.5618439   581993 
 5450000    1.3777999   -3.4189309   -1.8598529   0.15486307   -3.4189309     1.559078   582014 
 5451000    1.3797132   -3.4210864   -1.8598916   0.15244276   -3.4210864    1.5611948   582032 
 5452000    1.3815345   -3.4231884    -1.859965   0.15030723   -3.4231884    1.5632234   582044 
 5453000    1.3795498   -3.4216505   -1.8607237   0.15083116   -3.4216505    1.5609268   582063 
 5454000    1.3808962   -3.4234894   -1.8610688   0.14814659   -3.4234894    1.5624206   582074 
 5455000    1.3797116   -3.4211748   -1.8601722   0.15091877   -3.4211748    1.5610026   582103 
 5456000    1.3802161   -3.4210492   -1.8595617   0.15023662   -3.4210492    1.5614875   582135 
 5457000    1.3799871   -3.4214321   -1.8602814   0.14930218   -3.4214321    1.5611507   582164 
 5458000    1.3803563    -3.421495   -1.8599857   0.15149143    -3.421495    1.5615093   582186 
 5459000     1.381212   -3.4226778    -1.860273   0.15329642   -3.4226778    1.5624048   582213 
 5460000    1.3812662   -3.4222478   -1.8598729   0.14993816   -3.4222478     1.562375   582247 
 5461000     1.381181   -3.4222623   -1.8600535   0.15335393   -3.4222623    1.5622088   582273 
 5462000    1.3804968   -3.4220093   -1.8606306   0.15208297   -3.4220093    1.5613786   582294 
 5463000    1.3808899   -3.4227386   -1.8609314   0.15635245   -3.4227386    1.5618071   582300 
 5464000    1.3803747   -3.4231323   -1.8619937   0.15269598   -3.4231323    1.5611387   582332 
 5465000    1.3808462     -3.42328   -1.8616671     0.152844     -3.42328    1.5616128   582354 
 5466000    1.3804645   -3.4226291   -1.8614962   0.15495831   -3.4226291     1.561133   582372 
 5467000    1.3795948   -3.4219363   -1.8618511   0.15498671   -3.4219363    1.5600852   582396 
 5468000    1.3815005   -3.4236231   -1.8614178   0.14903162   -3.4236231    1.5622053   582409 
 5469000    1.3807093   -3.4232882   -1.8620285    0.1567378   -3.4232882    1.5612596   582428 
 5470000     1.382011   -3.4239018   -1.8612266   0.15208295   -3.4239018    1.5626752   582449 
 5471000     1.381109   -3.4231125   -1.8615269   0.15970791   -3.4231125    1.5615856   582475 
 5472000    1.3829131   -3.4248094    -1.861251   0.15053606   -3.4248094    1.5635584   582500 
 5473000    1.3814635   -3.4234854   -1.8616331    0.1551406   -3.4234854    1.5618524   582525 
 5474000    1.3832221   -3.4252985   -1.8615572   0.15396264   -3.4252985    1.5637413   582562 
 5475000     1.382701   -3.4247266   -1.8616039   0.15548366   -3.4247266    1.5631227   582573 
 5476000    1.3830041   -3.4247019   -1.8612715   0.15160128   -3.4247019    1.5634304   582586 
 5477000    1.3820186   -3.4245206   -1.8622526   0.15241297   -3.4245206    1.5622681   582604 
 5478000    1.3831458   -3.4264881   -1.8629941   0.15574224   -3.4264881     1.563494   582622 
 5479000    1.3816954   -3.4242887   -1.8624798   0.15322957   -3.4242887    1.5618089   582639 
 5480000    1.3806751   -3.4227889   -1.8622136   0.15694462   -3.4227889    1.5605752   582669 
 5481000    1.3822774   -3.4249595   -1.8626269   0.15428496   -3.4249595    1.5623327   582689 
 5482000    1.3818581   -3.4234529   -1.8616156   0.15471181   -3.4234529    1.5618373   582697 
 5483000    1.3817364    -3.422612   -1.8609766   0.15381365    -3.422612    1.5616354   582721 
 5484000    1.3816371   -3.4239093   -1.8624637   0.15078988   -3.4239093    1.5614456   582750 
 5485000    1.3819961   -3.4235585   -1.8617529   0.15516677   -3.4235585    1.5618057   582767 
 5486000    1.3811623   -3.4231908   -1.8623863   0.14975849   -3.4231908    1.5608045   582789 
 5487000    1.3820693   -3.4253773    -1.863572   0.15758277   -3.4253773    1.5618053   582798 
 5488000     1.383883   -3.4254065   -1.8616321   0.14576651   -3.4254065    1.5637744   582828 
 5489000     1.383763   -3.4260851   -1.8625241   0.15356459   -3.4260851     1.563561   582857 
 5490000    1.3826746   -3.4253457   -1.8630682   0.15781615   -3.4253457    1.5622775   582877 
 5491000    1.3802895   -3.4238805   -1.8643567    0.1545464   -3.4238805    1.5595238   582899 
 5492000    1.3819381   -3.4265525   -1.8652197   0.14751005   -3.4265525    1.5613329   582919 
 5493000    1.3814835   -3.4252301   -1.8644643   0.15785928   -3.4252301    1.5607657   582939 
 5494000     1.381382   -3.4252525   -1.8646925   0.15578079   -3.4252525      1.56056   582973 
 5495000    1.3830645   -3.4266794   -1.8642803   0.15748449   -3.4266794    1.5623991   582996 
 5496000    1.3827612   -3.4266362   -1.8646306   0.15038475   -3.4266362    1.5620056   583015 
 5497000    1.3800887   -3.4246875   -1.8657623   0.15712624   -3.4246875    1.5589252   583038 
 5498000     1.383431   -3.4283019   -1.8656496   0.15283229   -3.4283019    1.5626523   583056 
 5499000    1.3822161   -3.4265027   -1.8653084   0.15144303   -3.4265027    1.5611943   583088 
 5500000    1.3832035     -3.42793   -1.8656794   0.15542883     -3.42793    1.5622506   583110 
 5501000    1.3831734   -3.4273852   -1.8652302   0.15469938   -3.4273852     1.562155   583133 
 5502000    1.3829603   -3.4271356   -1.8652935   0.15576334   -3.4271356    1.5618421   583160 
 5503000    1.3820108   -3.4268629   -1.8661707   0.15428673   -3.4268629    1.5606922   583189 
 5504000    1.3829667   -3.4283062   -1.8666095   0.14850686   -3.4283062    1.5616967   583217 
 5505000    1.3825844   -3.4283125   -1.8670956   0.15379686   -3.4283125    1.5612168   583235 
 5506000     1.382505   -3.4288706   -1.8678371   0.14840375   -3.4288706    1.5610335   583270 
 5507000    1.3805607   -3.4274434   -1.8686561   0.15408869   -3.4274434    1.5587873   583289 
 5508000    1.3815938   -3.4288057   -1.8688948   0.15239952   -3.4288057    1.5599109   583305 
 5509000    1.3811503   -3.4280198   -1.8686523   0.15363128   -3.4280198    1.5593675   583321 
 5510000     1.382815   -3.4297268   -1.8685467   0.15205656   -3.4297268      1.56118   583346 
 5511000    1.3821717   -3.4280704   -1.8676754   0.15333304   -3.4280704    1.5603949   583368 
 5512000    1.3825843   -3.4285298   -1.8677199   0.14531337   -3.4285298    1.5608099   583387 
 5513000    1.3825661   -3.4298948   -1.8691456   0.15711442   -3.4298948    1.5607492   583402 
 5514000    1.3813769    -3.428708   -1.8693948   0.15052048    -3.428708    1.5593132   583437 
 5515000    1.3808686   -3.4296348   -1.8709541   0.15167819   -3.4296348    1.5586807   583459 
 5516000    1.3820359   -3.4300271   -1.8700849   0.15573218   -3.4300271    1.5599421   583480 
 5517000    1.3822236     -3.43086   -1.8707568   0.15146303     -3.43086    1.5601032   583499 
 5518000    1.3818692   -3.4300017   -1.8703546    0.1581207   -3.4300017    1.5596471   583520 
 5519000    1.3808961   -3.4307998    -1.872283   0.15098739   -3.4307998    1.5585167   583532 
 5520000    1.3837013   -3.4329333   -1.8713202   0.15022308   -3.4329333    1.5616131   583558 
 5521000      1.38239   -3.4320251   -1.8719266   0.14766906   -3.4320251    1.5600985   583571 
 5522000    1.3802339   -3.4302434   -1.8726209   0.15074434   -3.4302434    1.5576224   583587 
 5523000    1.3812145   -3.4329945   -1.8743081   0.14936643   -3.4329945    1.5586864   583603 
 5524000    1.3802091   -3.4319032   -1.8743674   0.15267441   -3.4319032    1.5575358   583609 
 5525000    1.3793883   -3.4305607   -1.8739965   0.15280487   -3.4305607    1.5565642   583626 
 5526000     1.380938   -3.4328466   -1.8745844   0.15533945   -3.4328466    1.5582622   583645 
 5527000     1.379004   -3.4315519   -1.8755386   0.15549794   -3.4315519    1.5560133   583670 
 5528000    1.3797433   -3.4318796   -1.8750775   0.14738353   -3.4318796    1.5568021   583687 
 5529000    1.3802461   -3.4323978   -1.8751298   0.14705297   -3.4323978     1.557268   583725 
 5530000    1.3807588   -3.4325384   -1.8747533   0.14088985   -3.4325384    1.5577851   583748 
 5531000    1.3804557   -3.4323224    -1.874922   0.15389921   -3.4323224    1.5574004   583764 
 5532000    1.3816165   -3.4320452   -1.8733753   0.15274993   -3.4320452      1.55867   583779 
 5533000    1.3810231   -3.4311247   -1.8731829    0.1529771   -3.4311247    1.5579419   583801 
 5534000    1.3829096    -3.434527   -1.8745211   0.14727883    -3.434527    1.5600059   583825 
 5535000    1.3818001   -3.4330968   -1.8743798   0.15029515   -3.4330968     1.558717   583839 
 5536000    1.3825041   -3.4330532   -1.8736356   0.15916312   -3.4330532    1.5594175   583874 
 5537000    1.3810945   -3.4315395    -1.873752   0.15611954   -3.4315395    1.5577876   583889 
 5538000     1.380285   -3.4312094   -1.8743696   0.15005508   -3.4312094    1.5568398   583902 
 5539000    1.3817145   -3.4313362    -1.872972   0.15025273   -3.4313362    1.5583642   583935 
 5540000     1.382225    -3.432165   -1.8733078   0.14889943    -3.432165    1.5588572   583966 
 5541000    1.3839105   -3.4330946   -1.8723847   0.14688876   -3.4330946    1.5607099   583984 
 5542000    1.3829263   -3.4315969   -1.8720584    0.1524427   -3.4315969    1.5595386   584007 
 5543000    1.3829089   -3.4313698   -1.8719443   0.15635568   -3.4313698    1.5594255   584042 
 5544000    1.3836392   -3.4328176   -1.8726114   0.15212852   -3.4328176    1.5602062   584058 
 5545000    1.3822228   -3.4312374   -1.8727244   0.14654121   -3.4312374    1.5585131   584094 
 5546000     1.381833   -3.4314045    -1.873403   0.15783606   -3.4314045    1.5580015   584121 
 5547000    1.3831766   -3.4336834   -1.8742391   0.14823809   -3.4336834    1.5594443   584148 
 5548000    1.3840828   -3.4342164   -1.8738039   0.15174042   -3.4342164    1.5604125   584168 
 5549000    1.3827356   -3.4329528   -1.8741044   0.15346959   -3.4329528    1.5588484   584185 
 5550000    1.3842183   -3.4356884   -1.8752219    0.1509874   -3.4356884    1.5604665   584205 
 5551000    1.3822999   -3.4334638   -1.8752319   0.14961199   -3.4334638    1.5582319   584232 
 5552000    1.3831613   -3.4341567   -1.8750179   0.14850962   -3.4341567    1.5591388   584256 
 5553000    1.3835666   -3.4346964   -1.8751541   0.15381616   -3.4346964    1.5595423   584276 
 5554000    1.3812948   -3.4327167   -1.8758071   0.15675363   -3.4327167    1.5569096   584303 
 5555000    1.3820864   -3.4331298   -1.8753947   0.15230218   -3.4331298    1.5577352   584328 
 5556000    1.3821928   -3.4330692    -1.875278   0.15338076   -3.4330692    1.5577911   584352 
 5557000    1.3844734   -3.4355006   -1.8751792   0.14997092   -3.4355006    1.5603214   584367 
 5558000    1.3833659   -3.4338365   -1.8748139   0.16410378   -3.4338365    1.5590226   584386 
 5559000    1.3858875   -3.4355666   -1.8737717    0.1520614   -3.4355666    1.5617948   584412 
 5560000    1.3835466    -3.434115   -1.8750062    0.1591876    -3.434115    1.5591088   584430 
 5561000    1.3829427   -3.4341163   -1.8758001   0.15205548   -3.4341163    1.5583162   584472 
 5562000    1.3844131   -3.4344972    -1.874572   0.15832711   -3.4344972    1.5599252   584490 
 5563000    1.3850389   -3.4338907   -1.8733245    0.1523343   -3.4338907    1.5605661   584514 
 5564000    1.3847893   -3.4342658   -1.8740556   0.15403816   -3.4342658    1.5602102   584542 
 5565000    1.3859892   -3.4361993   -1.8746987   0.15457736   -3.4361993    1.5615007   584565 
 5566000    1.3853638   -3.4370777   -1.8763484   0.14654793   -3.4370777    1.5607293   584590 
 5567000    1.3826748   -3.4349484   -1.8772912   0.15841756   -3.4349484    1.5576573   584606 
 5568000      1.38356   -3.4352199   -1.8766373   0.15789364   -3.4352199    1.5585825   584633 
 5569000    1.3830305   -3.4351415   -1.8772327   0.15221127   -3.4351415    1.5579088   584662 
 5570000    1.3828138   -3.4356704   -1.8780537   0.15258448   -3.4356704    1.5576167   584680 
 5571000    1.3856247   -3.4373402   -1.8766346   0.14687677   -3.4373402    1.5607055   584709 
 5572000    1.3856714   -3.4372649   -1.8765895   0.14560964   -3.4372649    1.5606754   584740 
 5573000       1.3839   -3.4359665   -1.8773368   0.14777607   -3.4359665    1.5586297   584759 
 5574000     1.384544   -3.4359568   -1.8766526   0.15632097   -3.4359568    1.5593043   584778 
 5575000     1.385902   -3.4377932   -1.8770503    0.1551804   -3.4377932    1.5607429   584812 
 5576000    1.3864609   -3.4379046   -1.8765857   0.15353763   -3.4379046     1.561319   584832 
 5577000     1.385941   -3.4363115   -1.8756608   0.16297497   -3.4363115    1.5606508   584863 
 5578000    1.3861418   -3.4367982   -1.8759801   0.15410776   -3.4367982    1.5608181   584885 
 5579000    1.3859517   -3.4373028   -1.8767388   0.15858303   -3.4373028     1.560564   584900 
 5580000    1.3867657   -3.4374154   -1.8759747   0.15438192   -3.4374154    1.5614406   584915 
 5581000     1.385058   -3.4363611    -1.876894    0.1543619   -3.4363611    1.5594671   584934 
 5582000    1.3848077   -3.4363063   -1.8772142   0.15130128   -3.4363063    1.5590921   584969 
 5583000    1.3863765   -3.4375807   -1.8767811   0.15798358   -3.4375807    1.5607996   584991 
 5584000    1.3847693   -3.4363518   -1.8773803   0.15133076   -3.4363518    1.5589715   584998 
 5585000    1.3861013   -3.4382026   -1.8778036   0.15519024   -3.4382026     1.560399   585025 
 5586000    1.3849564   -3.4374874   -1.8784306   0.15091416   -3.4374874    1.5590569   585045 
 5587000    1.3841987   -3.4363116   -1.8781715   0.15761668   -3.4363116      1.55814   585069 
 5588000    1.3837612   -3.4355265   -1.8779349     0.156997   -3.4355265    1.5575916   585090 
 5589000    1.3846824   -3.4369217   -1.8783544   0.15315778   -3.4369217    1.5585673   585113 
 5590000    1.3854893   -3.4380193   -1.8786237   0.15257027   -3.4380193    1.5593956   585143 
 5591000    1.3848588   -3.4373335   -1.8786849   0.14778139   -3.4373335    1.5586486   585157 
 5592000    1.3832727   -3.4356813   -1.8788737   0.15576144   -3.4356813    1.5568076   585178 
 5593000    1.3865169    -3.437807   -1.8774228   0.15395486    -3.437807    1.5603841   585206 
 5594000    1.3837182   -3.4354694   -1.8782721   0.15987855   -3.4354694    1.5571973   585220 
 5595000    1.3857391   -3.4374956   -1.8781227   0.15222096   -3.4374956    1.5593729   585257 
 5596000    1.3867214   -3.4381816   -1.8777593   0.15296732   -3.4381816    1.5604223   585278 
 5597000    1.3874682   -3.4391647   -1.8779234   0.15572845   -3.4391647    1.5612413   585286 
 5598000    1.3859099     -3.43698   -1.8775427   0.15776713     -3.43698    1.5594372   585305 
 5599000    1.3865773   -3.4386553   -1.8785525   0.15645759   -3.4386553    1.5601028   585337 
 5600000    1.3872857   -3.4392255   -1.8784055   0.15549768   -3.4392255      1.56082   585367 
 5601000    1.3883957   -3.4403165   -1.8783224   0.15008695   -3.4403165    1.5619941   585395 
 5602000    1.3867779   -3.4395123    -1.879405   0.15361353   -3.4395123    1.5601074   585420 
 5603000     1.385075   -3.4370081    -1.878859   0.15936392   -3.4370081    1.5581491   585436 
 5604000    1.3878875    -3.440162    -1.878929   0.15902966    -3.440162    1.5612329   585466 
 5605000    1.3868973   -3.4389788   -1.8788971   0.15951344   -3.4389788    1.5600818   585480 
 5606000    1.3884006    -3.439444   -1.8777378   0.15967027    -3.439444    1.5617062   585505 
 5607000    1.3887866   -3.4400467   -1.8779624   0.16216049   -3.4400467    1.5620843   585526 
 5608000    1.3872051   -3.4390341   -1.8787766   0.15756018   -3.4390341    1.5602575   585544 
 5609000    1.3873689   -3.4394805   -1.8791187   0.15984328   -3.4394805    1.5603618   585574 
 5610000    1.3867535   -3.4398398   -1.8802207   0.15439522   -3.4398398    1.5596191   585593 
 5611000    1.3862709   -3.4393858   -1.8803655    0.1574595   -3.4393858    1.5590204   585614 
 5612000    1.3857705   -3.4396929   -1.8812725   0.15776731   -3.4396929    1.5584204   585628 
 5613000    1.3859414   -3.4397852   -1.8812258   0.15724198   -3.4397852    1.5585593   585648 
 5614000    1.3868858   -3.4404223   -1.8808648   0.15313024   -3.4404223    1.5595574   585672 
 5615000    1.3864477   -3.4401095    -1.881082   0.15503587   -3.4401095    1.5590275   585686 
 5616000    1.3884088   -3.4401876   -1.8790028   0.15653895   -3.4401876    1.5611848   585704 
 5617000    1.3874607   -3.4393309   -1.8792362   0.15399845   -3.4393309    1.5600946   585713 
 5618000    1.3880889   -3.4400576   -1.8793125   0.15275425   -3.4400576    1.5607451   585734 
 5619000    1.3866925   -3.4391271   -1.8800239   0.15663937   -3.4391271    1.5591032   585761 
 5620000    1.3874726   -3.4404233   -1.8805283   0.15351338   -3.4404233    1.5598951   585793 
 5621000    1.3869883   -3.4404156   -1.8810997   0.15198183   -3.4404156    1.5593159   585806 
 5622000    1.3888746   -3.4419784   -1.8805712   0.15782621   -3.4419784    1.5614073   585817 
 5623000    1.3872581   -3.4401772   -1.8806538   0.15528819   -3.4401772    1.5595234   585842 
 5624000    1.3872319   -3.4396208   -1.8801908   0.16260428   -3.4396208    1.5594301   585866 
 5625000    1.3884846   -3.4400089   -1.8792452   0.15618211   -3.4400089    1.5607637   585894 
 5626000    1.3889402   -3.4398192   -1.8785941   0.15804052   -3.4398192    1.5612252   585913 
 5627000    1.3892774   -3.4406901   -1.8791445    0.1586195   -3.4406901    1.5615456   585935 
 5628000    1.3892241    -3.442065   -1.8806433   0.15578713    -3.442065    1.5614217   585959 
 5629000    1.3869207   -3.4393123   -1.8805355   0.16038671   -3.4393123    1.5587769   585980 
 5630000    1.3879695   -3.4415872    -1.881674   0.15932743   -3.4415872    1.5599131   585996 
 5631000    1.3883868   -3.4423015   -1.8819806   0.15991753   -3.4423015    1.5603209   586019 
 5632000    1.3890129   -3.4423976   -1.8814424   0.16265628   -3.4423976    1.5609552   586045 
 5633000    1.3874285   -3.4417966   -1.8826857   0.16074023   -3.4417966    1.5591109   586069 
 5634000    1.3868899   -3.4414381    -1.882983   0.15859759   -3.4414381    1.5584551   586088 
 5635000    1.3882831   -3.4432754   -1.8833427    0.1528224   -3.4432754    1.5599327   586121 
 5636000    1.3875075   -3.4425892   -1.8835944   0.15531621   -3.4425892    1.5589947   586146 
 5637000    1.3887124   -3.4436809   -1.8833882   0.15486016   -3.4436809    1.5602927   586167 
 5638000     1.387709   -3.4437671   -1.8846524   0.16129361   -3.4437671    1.5591148   586186 
 5639000    1.3884543   -3.4448804   -1.8849921   0.15556229   -3.4448804    1.5598883   586210 
 5640000    1.3854381   -3.4413017   -1.8849056   0.15612797   -3.4413017    1.5563961   586249 
 5641000    1.3855838   -3.4423127   -1.8858087   0.15026272   -3.4423127    1.5565041   586270 
 5642000    1.3876757   -3.4436998   -1.8849043   0.15550756   -3.4436998    1.5587955   586292 
 5643000    1.3874105   -3.4436424     -1.88519   0.15668533   -3.4436424    1.5584524   586309 
 5644000     1.388763   -3.4452267   -1.8853029   0.15460319   -3.4452267    1.5599237   586327 
 5645000    1.3865691   -3.4423281   -1.8849377   0.16522452   -3.4423281    1.5573904   586353 
 5646000    1.3869086   -3.4443736   -1.8866284   0.15393407   -3.4443736    1.5577452   586363 
 5647000    1.3887223   -3.4450613   -1.8853375   0.15213965   -3.4450613    1.5597238   586385 
 5648000     1.387579   -3.4451391   -1.8867234   0.15743306   -3.4451391    1.5584157   586394 
 5649000    1.3872217    -3.443963   -1.8860388   0.15601301    -3.443963    1.5579242   586428 
 5650000    1.3866141    -3.442949   -1.8857578   0.15964574    -3.442949    1.5571913   586447 
 5651000    1.3879328   -3.4443942   -1.8857884   0.15869318   -3.4443942    1.5586058   586472 
 5652000    1.3870092   -3.4440541   -1.8865306   0.15348028   -3.4440541    1.5575235   586489 
 5653000    1.3890028   -3.4464515   -1.8867292   0.15572033   -3.4464515    1.5597223   586504 
 5654000    1.3879968    -3.445802   -1.8872492   0.14846621    -3.445802    1.5585527   586519 
 5655000      1.38853   -3.4470326   -1.8879183   0.14759105   -3.4470326    1.5591143   586533 
 5656000    1.3866356   -3.4456273   -1.8886667   0.15258821   -3.4456273    1.5569606   586543 
 5657000    1.3865689   -3.4465292   -1.8897098   0.15034132   -3.4465292    1.5568194   586568 
 5658000    1.3875046    -3.446742   -1.8889306    0.1448738    -3.446742    1.5578115   586590 
 5659000     1.385034   -3.4442198   -1.8892485   0.15292193   -3.4442198    1.5549714   586615 
 5660000    1.3876101   -3.4472252   -1.8894254   0.15234427   -3.4472252    1.5577999   586639 
 5661000    1.3866618   -3.4466513   -1.8899717   0.15225413   -3.4466513    1.5566795   586660 
 5662000    1.3882963   -3.4481077   -1.8896198   0.15650509   -3.4481077    1.5584879   586670 
 5663000     1.388759   -3.4477873   -1.8888226   0.15053871   -3.4477873    1.5589647   586686 
 5664000    1.3879302   -3.4464735   -1.8885082   0.15780081   -3.4464735    1.5579653   586712 
 5665000     1.388811   -3.4478535   -1.8889499   0.15217953   -3.4478535    1.5589036   586731 
 5666000    1.3875448   -3.4469071   -1.8895125   0.15408062   -3.4469071    1.5573946   586764 
 5667000     1.387579   -3.4473643   -1.8899552   0.15997382   -3.4473643    1.5574091   586773 
 5668000    1.3883817   -3.4473275   -1.8890731   0.15545317   -3.4473275    1.5582544   586794 
 5669000    1.3897911   -3.4471617   -1.8873839   0.16115953   -3.4471617    1.5597778   586816 
 5670000    1.3897393   -3.4484612   -1.8887948   0.15331753   -3.4484612    1.5596664   586836 
 5671000    1.3892656   -3.4484336   -1.8893334   0.14938662   -3.4484336    1.5591002   586849 
 5672000    1.3886927   -3.4488473   -1.8904457   0.14741909   -3.4488473    1.5584016   586870 
 5673000    1.3884487   -3.4491007   -1.8910048   0.15170799   -3.4491007    1.5580958   586882 
 5674000    1.3887753   -3.4496028   -1.8911855   0.15219427   -3.4496028    1.5584172   586899 
 5675000    1.3865454   -3.4470545   -1.8911926   0.15234439   -3.4470545    1.5558619   586919 
 5676000    1.3879404   -3.4486871   -1.8912916   0.15158748   -3.4486871    1.5573955   586931 
 5677000    1.3858665   -3.4458931    -1.890883   0.15297235   -3.4458931    1.5550101   586953 
 5678000      1.38679   -3.4471608   -1.8911569   0.15209262   -3.4471608    1.5560039   586969 
 5679000    1.3869055   -3.4471956    -1.891094   0.15416546   -3.4471956    1.5561016   586981 
 5680000    1.3876375   -3.4471318   -1.8902778   0.15572521   -3.4471318     1.556854   587007 
 5681000     1.388988   -3.4483294   -1.8900186   0.15388509   -3.4483294    1.5583108   587029 
 5682000    1.3887398   -3.4470714   -1.8890869    0.1551498   -3.4470714    1.5579845   587047 
 5683000    1.3901513   -3.4488631   -1.8893561   0.15018474   -3.4488631     1.559507   587070 
 5684000    1.3893445   -3.4479697   -1.8894236   0.15729684   -3.4479697    1.5585461   587091 
 5685000    1.3898202   -3.4482216   -1.8891764   0.15308149   -3.4482216    1.5590452   587104 
 5686000    1.3910223   -3.4489576   -1.8886304   0.15200446   -3.4489576    1.5603272   587129 
 5687000    1.3913568   -3.4484953   -1.8878513   0.15837182   -3.4484953    1.5606439   587151 
 5688000    1.3882393    -3.446693   -1.8896068   0.16087163    -3.446693    1.5570861   587174 
 5689000    1.3894654   -3.4489986   -1.8905903   0.15649278   -3.4489986    1.5584084   587194 
 5690000    1.3885331   -3.4486199    -1.891289   0.15856582   -3.4486199    1.5573309   587206 
 5691000    1.3897243   -3.4494403   -1.8908372   0.15474418   -3.4494403    1.5586032   587230 
 5692000     1.391263   -3.4513103   -1.8910346   0.15027788   -3.4513103    1.5602757   587250 
 5693000    1.3876625   -3.4482617   -1.8920663   0.15447605   -3.4482617    1.5561954   587266 
 5694000    1.3883654   -3.4487863   -1.8918504   0.15443002   -3.4487863    1.5569359   587284 
 5695000    1.3889087   -3.4492967   -1.8917992   0.15704812   -3.4492967    1.5574975   587302 
 5696000    1.3880791   -3.4499962    -1.893482   0.15338004   -3.4499962    1.5565141   587322 
 5697000     1.388822   -3.4511809   -1.8938787   0.15536592   -3.4511809    1.5573021   587339 
 5698000    1.3884139   -3.4508413   -1.8940869   0.15164977   -3.4508413    1.5567544   587373 
 5699000     1.387095   -3.4498238   -1.8946382    0.1544758   -3.4498238    1.5551856   587407 
 5700000     1.387293   -3.4501501   -1.8948113   0.15610185   -3.4501501    1.5553388   587433 
 5701000      1.38928   -3.4516393   -1.8941206   0.15909527   -3.4516393    1.5575187   587451 
 5702000    1.3892512   -3.4527245   -1.8952646   0.15483006   -3.4527245    1.5574598   587461 
 5703000    1.3887969   -3.4519541   -1.8950566   0.14991157   -3.4519541    1.5568976   587481 
 5704000    1.3878062   -3.4518654   -1.8961473   0.14693421   -3.4518654    1.5557181   587507 
 5705000    1.3883019   -3.4513335   -1.8950942    0.1560245   -3.4513335    1.5562393   587520 
 5706000    1.3879977   -3.4525865   -1.8967332   0.15241727   -3.4525865    1.5558533   587537 
 5707000    1.3886653   -3.4534264   -1.8968803   0.14903753   -3.4534264    1.5565461   587558 
 5708000     1.388631    -3.452556   -1.8960881   0.15530043    -3.452556    1.5564679   587573 
 5709000    1.3889607   -3.4534475   -1.8966604   0.15137176   -3.4534475     1.556787   587592 
 5710000    1.3881551   -3.4515958   -1.8957647    0.1535394   -3.4515958    1.5558312   587612 
 5711000    1.3893378   -3.4522289   -1.8951145   0.15554047   -3.4522289    1.5571144   587628 
 5712000    1.3885215   -3.4518479   -1.8957199   0.15728129   -3.4518479     1.556128   587655 
 5713000    1.3891071   -3.4531859    -1.896444   0.15089778   -3.4531859    1.5567419   587671 
 5714000    1.3875766   -3.4510527   -1.8960843   0.16064093   -3.4510527    1.5549685   587693 
 5715000    1.3882933    -3.453364   -1.8976216   0.15299959    -3.453364    1.5557425   587704 
 5716000    1.3892439   -3.4548534   -1.8981278   0.14996066   -3.4548534    1.5567256   587735 
 5717000    1.3871449   -3.4527019    -1.898413   0.15439209   -3.4527019    1.5542889   587767 
 5718000    1.3865965   -3.4512787   -1.8976729   0.15773868   -3.4512787    1.5536058   587793 
 5719000    1.3876661   -3.4535612   -1.8988602   0.15406745   -3.4535612     1.554701   587832 
 5720000    1.3865628   -3.4527918    -1.899377   0.15873314   -3.4527918    1.5534147   587851 
 5721000     1.388672   -3.4541504   -1.8984468   0.15163215   -3.4541504    1.5557036   587879 
 5722000    1.3887897   -3.4539458   -1.8981633   0.15321305   -3.4539458    1.5557826   587899 
 5723000    1.3884961   -3.4535994   -1.8981721   0.15492237   -3.4535994    1.5554272   587909 
 5724000    1.3876057   -3.4526132   -1.8982179   0.15882924   -3.4526132    1.5543954   587922 
 5725000    1.3888177   -3.4534575   -1.8977229   0.15597633   -3.4534575    1.5557346   587929 
 5726000    1.3892786   -3.4542046   -1.8979935   0.15281616   -3.4542046    1.5562111   587944 
 5727000    1.3893703    -3.454072   -1.8978429   0.15823302    -3.454072    1.5562291   587976 
 5728000    1.3885487   -3.4529676    -1.897717   0.15581513   -3.4529676    1.5552507   587998 
 5729000    1.3886434    -3.454442   -1.8991434   0.14934603    -3.454442    1.5552985   588020 
 5730000     1.389089   -3.4544002   -1.8986607    0.1602868   -3.4544002    1.5557395   588042 
 5731000    1.3891579   -3.4534451   -1.8976709   0.15532556   -3.4534451    1.5557742   588058 
 5732000    1.3901471   -3.4538188   -1.8969843   0.16033069   -3.4538188    1.5568345   588076 
 5733000    1.3894392   -3.4539515   -1.8979627   0.15568922   -3.4539515    1.5559888   588096 
 5734000    1.3894091   -3.4537102   -1.8977896   0.15263031   -3.4537102    1.5559206   588109 
 5735000    1.3886507   -3.4526496   -1.8976258   0.15911616   -3.4526496    1.5550238   588127 
 5736000    1.3896353    -3.453991   -1.8979122   0.15242963    -3.453991    1.5560788   588145 
 5737000    1.3882647    -3.453157    -1.898658   0.15396792    -3.453157     1.554499   588162 
 5738000    1.3890332   -3.4538645   -1.8985367   0.15670903   -3.4538645    1.5553278   588174 
 5739000    1.3898712   -3.4542317   -1.8979842   0.15224433   -3.4542317    1.5562476   588181 
 5740000    1.3888929   -3.4530903    -1.897991   0.15643391   -3.4530903    1.5550993   588201 
 5741000    1.3889616   -3.4522864   -1.8971313   0.15927637   -3.4522864    1.5551551   588209 
 5742000    1.3917881   -3.4549706    -1.896709   0.15464041   -3.4549706    1.5582615   588231 
 5743000    1.3897861   -3.4538714   -1.8978937   0.15424565   -3.4538714    1.5559778   588247 
 5744000    1.3910792   -3.4554771    -1.898094   0.15872541   -3.4554771    1.5573831   588263 
 5745000    1.3908534   -3.4539046   -1.8968325   0.15810902   -3.4539046    1.5570721   588285 
 5746000     1.391871   -3.4552986   -1.8971748   0.15981266   -3.4552986    1.5581238   588318 
 5747000    1.3900172   -3.4531596   -1.8971744   0.15816281   -3.4531596    1.5559852   588342 
 5748000    1.3925739   -3.4560293   -1.8972351   0.15542815   -3.4560293    1.5587942   588362 
 5749000    1.3908414   -3.4544746   -1.8976646   0.15639753   -3.4544746    1.5568099   588379 
 5750000    1.3916416   -3.4557757   -1.8981019   0.15364989   -3.4557757    1.5576738   588391 
 5751000    1.3914177   -3.4551457   -1.8977728   0.15324139   -3.4551457    1.5573729   588410 
 5752000    1.3900981    -3.454777    -1.898897   0.15614592    -3.454777      1.55588   588416 
 5753000    1.3898101   -3.4548284   -1.8993104   0.15514703   -3.4548284     1.555518   588431 
 5754000     1.390781   -3.4554875   -1.8989225    0.1536635   -3.4554875     1.556565   588446 
 5755000    1.3910336   -3.4570646    -1.900238   0.14859503   -3.4570646    1.5568266   588454 
 5756000    1.3899383   -3.4570006    -1.901458   0.15240548   -3.4570006    1.5555426   588476 
 5757000    1.3882134   -3.4557724   -1.9022052   0.15880835   -3.4557724    1.5535672   588493 
 5758000    1.3900487   -3.4562175    -1.900673    0.1516944   -3.4562175    1.5555445   588522 
 5759000    1.3890564   -3.4558925   -1.9015007   0.15894771   -3.4558925    1.5543918   588538 
 5760000     1.389431   -3.4562459   -1.9014666    0.1496115   -3.4562459    1.5547793   588550 
 5761000    1.3898291   -3.4566929   -1.9014734   0.15126601   -3.4566929    1.5552194   588552 
 5762000    1.3889198   -3.4564081   -1.9022563   0.15421354   -3.4564081    1.5541518   588571 
 5763000    1.3901754   -3.4575413   -1.9020426    0.1516051   -3.4575413    1.5554987   588593 
 5764000     1.387886   -3.4549619   -1.9020777   0.16128891   -3.4549619    1.5528842   588613 
 5765000    1.3889048   -3.4564352   -1.9024955   0.15904346   -3.4564352    1.5539397   588645 
 5766000    1.3895703   -3.4568005   -1.9021717   0.15703664   -3.4568005    1.5546288   588666 
 5767000    1.3903457   -3.4589594   -1.9035212   0.15350012   -3.4589594    1.5554382   588688 
 5768000     1.389691    -3.457879   -1.9032235   0.15524407    -3.457879    1.5546555   588707 
 5769000    1.3898499   -3.4580343    -1.903238   0.15631598   -3.4580343    1.5547963   588721 
 5770000    1.3887231   -3.4571546    -1.903669   0.16189991   -3.4571546    1.5534856   588740 
 5771000    1.3907038   -3.4580344   -1.9023726   0.15764885   -3.4580344    1.5556618   588755 
 5772000    1.3901489   -3.4580619   -1.9030315   0.15555037   -3.4580619    1.5550304   588759 
 5773000    1.3901159   -3.4587767   -1.9038465   0.15203025   -3.4587767    1.5549302   588783 
 5774000    1.3901465   -3.4572273   -1.9022999   0.16198151   -3.4572273    1.5549274   588797 
 5775000    1.3902742   -3.4585475   -1.9035063   0.15826274   -3.4585475    1.5550412   588808 
 5776000    1.3900637   -3.4590001   -1.9042736   0.14949753   -3.4590001    1.5547265   588838 
 5777000    1.3880929   -3.4569821   -1.9045125   0.15624204   -3.4569821    1.5524696   588858 
 5778000    1.3904974   -3.4589886   -1.9038589   0.15292783   -3.4589886    1.5551297   588869 
 5779000    1.3887582   -3.4576416   -1.9045124   0.15633889   -3.4576416    1.5531292   588890 
 5780000    1.3916874   -3.4603495   -1.9039999   0.15550404   -3.4603495    1.5563496   588911 
 5781000    1.3904829   -3.4576687   -1.9027084   0.16473181   -3.4576687    1.5549603   588927 
 5782000    1.3922179   -3.4599764   -1.9031154    0.1555056   -3.4599764     1.556861   588942 
 5783000    1.3905693   -3.4578177   -1.9028558   0.15360384   -3.4578177    1.5549619   588963 
 5784000    1.3901263   -3.4579307   -1.9035275    0.1543867   -3.4579307    1.5544032   588987 
 5785000    1.3911573   -3.4601053   -1.9045942   0.15621396   -3.4601053    1.5555111   589004 
 5786000    1.3896786   -3.4583451   -1.9045453   0.15197195   -3.4583451    1.5537997   589026 
 5787000    1.3907746   -3.4602846   -1.9053175   0.15441103   -3.4602846    1.5549671   589048 
 5788000    1.3901003   -3.4595865   -1.9054393   0.15325925   -3.4595865    1.5541472   589073 
 5789000    1.3900778    -3.459361   -1.9052759   0.15947821    -3.459361    1.5540851   589087 
 5790000    1.3907012   -3.4595762   -1.9048364   0.15413255   -3.4595762    1.5547398   589103 
 5791000    1.3896733   -3.4586889   -1.9051746   0.15471489   -3.4586889    1.5535142   589132 
 5792000    1.3887357     -3.45797   -1.9055566   0.14402486     -3.45797    1.5524134   589152 
 5793000    1.3915626   -3.4605625   -1.9050551   0.15423348   -3.4605625    1.5555074   589177 
 5794000    1.3931884   -3.4621363   -1.9048406   0.14859961   -3.4621363    1.5572957   589188 
 5795000    1.3911424   -3.4601626   -1.9052146   0.15365708   -3.4601626     1.554948   589211 
 5796000    1.3917744   -3.4610898   -1.9054934   0.15688196   -3.4610898    1.5555964   589233 
 5797000    1.3905547   -3.4606596   -1.9064951   0.15236125   -3.4606596    1.5541645   589259 
 5798000    1.3921522   -3.4614879   -1.9055565    0.1588333   -3.4614879    1.5559314   589266 
 5799000    1.3915577   -3.4608235   -1.9056277   0.15499515   -3.4608235    1.5551958   589293 
 5800000    1.3902705   -3.4601093   -1.9064205   0.15585677   -3.4601093    1.5536887   589319 
 5801000    1.3926841   -3.4628836   -1.9065637   0.15322746   -3.4628836    1.5563199   589344 
 5802000    1.3927832   -3.4643151   -1.9079319   0.14995776   -3.4643151    1.5563832   589362 
 5803000    1.3898765   -3.4613563   -1.9082977   0.15746463   -3.4613563    1.5530586   589391 
 5804000    1.3894375   -3.4601177   -1.9075971   0.16083842   -3.4601177    1.5525206   589409 
 5805000    1.3903157   -3.4610095   -1.9075629   0.15773247   -3.4610095    1.5534466   589430 
 5806000    1.3916113   -3.4610562   -1.9062623   0.16055882   -3.4610562    1.5547939   589468 
 5807000    1.3919757    -3.462791   -1.9076162   0.15739379    -3.462791    1.5551748   589478 
 5808000     1.391184   -3.4622145   -1.9079613   0.15556964   -3.4622145    1.5542532   589492 
 5809000    1.3921434   -3.4635992   -1.9083241   0.15464866   -3.4635992     1.555275   589511 
 5810000     1.391715   -3.4636791    -1.908946   0.15131853   -3.4636791    1.5547331   589535 
 5811000    1.3909063   -3.4623466    -1.908617   0.15842857   -3.4623466    1.5537296   589573 
 5812000    1.3923933   -3.4642965   -1.9089772   0.15364636   -3.4642965    1.5553193   589600 
 5813000     1.390188   -3.4612327   -1.9084268   0.15460443   -3.4612327    1.5528059   589619 
 5814000    1.3917079   -3.4621716   -1.9077286   0.15256403   -3.4621716     1.554443   589642 
 5815000    1.3909554   -3.4605648    -1.907036   0.15269176   -3.4605648    1.5535288   589670 
 5816000    1.3909334   -3.4618157   -1.9083484   0.15296601   -3.4618157    1.5534673   589684 
 5817000    1.3904871    -3.460702   -1.9077831   0.15648358    -3.460702    1.5529188   589703 
 5818000    1.3916621   -3.4615587   -1.9073961   0.15986484   -3.4615587    1.5541626   589729 
 5819000    1.3917933   -3.4621375   -1.9078628   0.15637771   -3.4621375    1.5542748   589742 
 5820000    1.3913423   -3.4620342   -1.9083341    0.1544958   -3.4620342       1.5537   589769 
 5821000    1.3922137    -3.463034   -1.9084084   0.15162251    -3.463034    1.5546257   589787 
 5822000    1.3928651   -3.4640475    -1.908734   0.15562105   -3.4640475    1.5553135   589802 
 5823000    1.3922572   -3.4630247   -1.9084875   0.15533766   -3.4630247    1.5545372   589839 
 5824000    1.3912016   -3.4625744   -1.9092606    0.1614315   -3.4625744    1.5533138   589856 
 5825000    1.3920016   -3.4618408   -1.9077338   0.16166433   -3.4618408    1.5541069   589894 
 5826000    1.3926694   -3.4628387   -1.9080336   0.16212264   -3.4628387     1.554805   589912 
 5827000    1.3929543   -3.4635858   -1.9085101   0.15635042   -3.4635858    1.5550757   589930 
 5828000     1.394169   -3.4659677   -1.9096151   0.15368976   -3.4659677    1.5563526   589960 
 5829000    1.3923663   -3.4635967   -1.9093198   0.15190421   -3.4635967    1.5542769   589984 
 5830000    1.3930791   -3.4648145   -1.9098024   0.15288196   -3.4648145     1.555012   590007 
 5831000    1.3928559   -3.4644003   -1.9097139   0.15555195   -3.4644003    1.5546864   590036 
 5832000    1.3909792   -3.4628652   -1.9103419   0.15767834   -3.4628652    1.5525233   590062 
 5833000    1.3939348   -3.4658887    -1.910114   0.15587169   -3.4658887    1.5557747   590080 
 5834000    1.3928016   -3.4646532   -1.9101829   0.16093848   -3.4646532    1.5544703   590095 
 5835000     1.393881   -3.4663621   -1.9107371   0.15333012   -3.4663621     1.555625   590114 
 5836000    1.3933372   -3.4663289   -1.9113371   0.15079609   -3.4663289    1.5549918   590124 
 5837000    1.3934014   -3.4656752   -1.9106857   0.15809941   -3.4656752    1.5549896   590152 
 5838000    1.3925839   -3.4664162   -1.9123943    0.1545056   -3.4664162     1.554022   590173 
 5839000    1.3901544   -3.4630418   -1.9117809   0.16091098   -3.4630418    1.5512609   590192 
 5840000    1.3915623   -3.4653362   -1.9125806   0.15555028   -3.4653362    1.5527557   590221 
 5841000    1.3921378   -3.4648332   -1.9114801   0.15818453   -3.4648332    1.5533532   590238 
 5842000    1.3909564   -3.4645544   -1.9125747   0.15839472   -3.4645544    1.5519797   590259 
 5843000    1.3927303   -3.4664337   -1.9124985   0.15280478   -3.4664337    1.5539352   590268 
 5844000    1.3928666   -3.4654337   -1.9114253    0.1594946   -3.4654337    1.5540084   590298 
 5845000    1.3931528   -3.4655862   -1.9113191   0.15833802   -3.4655862    1.5542671   590321 
 5846000    1.3929097   -3.4647627   -1.9107959   0.16323287   -3.4647627    1.5539669   590332 
 5847000     1.392459   -3.4658549   -1.9124355   0.14947036   -3.4658549    1.5534194   590349 
 5848000    1.3935932   -3.4663687   -1.9117499   0.15142939   -3.4663687    1.5546188   590374 
 5849000    1.3917627   -3.4648159   -1.9122785   0.16487483   -3.4648159    1.5525374   590389 
 5850000    1.3926886    -3.465226   -1.9116874   0.15569786    -3.465226    1.5535386   590401 
 5851000    1.3933308   -3.4661066   -1.9119068   0.15374234   -3.4661066    1.5541998   590422 
 5852000    1.3924528   -3.4651239    -1.911935   0.15397336   -3.4651239    1.5531889   590434 
 5853000    1.3939753   -3.4674707   -1.9126311   0.15271431   -3.4674707    1.5548396   590452 
 5854000    1.3940006   -3.4681852   -1.9133621   0.15684765   -3.4681852    1.5548231   590469 
 5855000    1.3932802   -3.4669987    -1.913066   0.15475844   -3.4669987    1.5539327   590502 
 5856000    1.3922312    -3.466538   -1.9138225   0.16099166    -3.466538    1.5527155   590520 
 5857000    1.3934913   -3.4673932   -1.9133146   0.15711561   -3.4673932    1.5540787   590536 
 5858000    1.3934991   -3.4678999   -1.9138598   0.15922878   -3.4678999    1.5540401   590554 
 5859000    1.3947904   -3.4686281   -1.9131849   0.16185273   -3.4686281    1.5554432   590568 
 5860000     1.392385    -3.467243     -1.91454   0.16290273    -3.467243     1.552703   590590 
 5861000    1.3930657   -3.4675392   -1.9140982   0.15682757   -3.4675392     1.553441   590598 
 5862000    1.3939631   -3.4693239   -1.9149375   0.14674831   -3.4693239    1.5543864   590619 
 5863000    1.3927712   -3.4687103   -1.9157161   0.15442806   -3.4687103    1.5529942   590643 
 5864000    1.3923451   -3.4683598   -1.9159011   0.15792282   -3.4683598    1.5524587   590666 
 5865000    1.3917729   -3.4673474   -1.9155792   0.15855402   -3.4673474    1.5517681   590686 
 5866000    1.3942719   -3.4695618   -1.9150495   0.15563296   -3.4695618    1.5545123   590702 
 5867000    1.3955753   -3.4709467   -1.9150181   0.15309993   -3.4709467    1.5559287   590716 
 5868000    1.3922601    -3.467858   -1.9157016   0.15261489    -3.467858    1.5521564   590745 
 5869000    1.3932127   -3.4690872   -1.9159136   0.15029531   -3.4690872    1.5531736   590762 
 5870000    1.3923843   -3.4685196   -1.9163431   0.15257098   -3.4685196    1.5521765   590790 
 5871000    1.3938071   -3.4693082   -1.9155903   0.15025903   -3.4693082    1.5537179   590807 
 5872000    1.3956629   -3.4703896   -1.9146583   0.15061037   -3.4703896    1.5557313   590828 
 5873000    1.3943009   -3.4690781   -1.9149017    0.1568641   -3.4690781    1.5541763   590842 
 5874000    1.3942766   -3.4689563   -1.9148807   0.15888527   -3.4689563    1.5540755   590870 
 5875000    1.3937312    -3.470009   -1.9165886   0.15272075    -3.470009    1.5534203   590888 
 5876000      1.39328   -3.4687501   -1.9158748   0.15476262   -3.4687501    1.5528754   590904 
 5877000    1.3961878   -3.4720602   -1.9159782   0.15491271   -3.4720602     1.556082   590917 
 5878000     1.393636   -3.4696032   -1.9164257   0.15614711   -3.4696032    1.5531776   590940 
 5879000    1.3938921   -3.4704141   -1.9169906   0.15371077   -3.4704141    1.5534235   590955 
 5880000    1.3934614   -3.4701417   -1.9172797   0.15718758   -3.4701417     1.552862   590986 
 5881000    1.3940504   -3.4703255   -1.9168622   0.15456152   -3.4703255    1.5534632   591007 
 5882000    1.3924596   -3.4696363   -1.9180141   0.15856659   -3.4696363    1.5516223   591033 
 5883000    1.3934253   -3.4700668   -1.9174209   0.15339332   -3.4700668    1.5526459   591053 
 5884000    1.3936527   -3.4698439   -1.9169736   0.15505631   -3.4698439    1.5528703   591064 
 5885000    1.3950003   -3.4713942   -1.9170828    0.1549186   -3.4713942    1.5543114   591087 
 5886000    1.3938832   -3.4717416   -1.9187432   0.15274148   -3.4717416    1.5529984   591113 
 5887000    1.3935021   -3.4716131    -1.919105   0.15309801   -3.4716131    1.5525081   591138 
 5888000    1.3939356   -3.4720782   -1.9191449    0.1527563   -3.4720782    1.5529333   591160 
 5889000    1.3938379   -3.4722139   -1.9194315    0.1509641   -3.4722139    1.5527824   591176 
 5890000    1.3930293   -3.4714016   -1.9195804   0.15947895   -3.4714016    1.5518212   591199 
 5891000    1.3943394   -3.4720636   -1.9188434   0.15265722   -3.4720636    1.5532202   591222 
 5892000    1.3935897   -3.4714852   -1.9191578   0.15917618   -3.4714852    1.5523274   591244 
 5893000      1.39229   -3.4706463   -1.9198139   0.16341698   -3.4706463    1.5508324   591262 
 5894000    1.3929209   -3.4713966   -1.9198903   0.15618544   -3.4713966    1.5515063   591273 
 5895000    1.3935923   -3.4722184   -1.9199983   0.15553404   -3.4722184      1.55222   591286 
 5896000    1.3929393   -3.4719418   -1.9205566   0.15306874   -3.4719418    1.5513851   591327 
 5897000     1.392201   -3.4715014   -1.9209832   0.15446836   -3.4715014    1.5505182   591344 
 5898000    1.3941332   -3.4738972   -1.9212743   0.15433432   -3.4738972    1.5526229   591362 
 5899000    1.3940001   -3.4735226   -1.9211057   0.15640667   -3.4735226    1.5524169   591384 
 5900000    1.3947057   -3.4733991   -1.9202488   0.15373142   -3.4733991    1.5531502   591404 
 5901000    1.3927456   -3.4720193   -1.9210834   0.15287569   -3.4720193    1.5509359   591416 
 5902000    1.3917696   -3.4716462   -1.9218732    0.1597199   -3.4716462    1.5497731   591445 
 5903000    1.3931371   -3.4729628   -1.9217378    0.1540428   -3.4729628    1.5512251   591472 
 5904000    1.3937811   -3.4723579   -1.9204604   0.15873241   -3.4723579    1.5518974   591489 
 5905000    1.3937209   -3.4727963   -1.9209738   0.15209323   -3.4727963    1.5518226   591492 
 5906000    1.3942551    -3.473229    -1.920872   0.15298519    -3.473229     1.552357   591515 
 5907000    1.3932624    -3.472857   -1.9216341   0.15313369    -3.472857    1.5512229   591526 
 5908000    1.3945399   -3.4733298   -1.9207502   0.15909029   -3.4733298    1.5525797   591551 
 5909000    1.3948715   -3.4737782   -1.9208609   0.15224411   -3.4737782    1.5529173   591563 
 5910000    1.3929923   -3.4726136   -1.9218461   0.15547715   -3.4726136    1.5507675   591585 
 5911000    1.3935593   -3.4719705   -1.9206582   0.15925364   -3.4719705    1.5513122   591618 
 5912000    1.3950981   -3.4725254   -1.9195579   0.15854822   -3.4725254    1.5529675   591640 
 5913000    1.3963711   -3.4732684   -1.9189312   0.15773496   -3.4732684    1.5543372   591658 
 5914000    1.3961924   -3.4737744   -1.9197018   0.15504947   -3.4737744    1.5540726   591683 
 5915000    1.3953316   -3.4726265   -1.9195855   0.15559778   -3.4726265     1.553041   591711 
 5916000    1.3942571    -3.471345   -1.9195709   0.16066029    -3.471345    1.5517742   591738 
 5917000    1.3943127   -3.4721561   -1.9203489   0.15745568   -3.4721561    1.5518072   591749 
 5918000     1.395574   -3.4732023   -1.9200752   0.15905937   -3.4732023     1.553127   591781 
 5919000    1.3955158   -3.4737569   -1.9207366   0.15812496   -3.4737569    1.5530203   591797 
 5920000    1.3968641   -3.4755683   -1.9211106   0.14973906   -3.4755683    1.5544577   591821 
 5921000    1.3958903    -3.475067   -1.9218058   0.16135125    -3.475067    1.5532612   591864 
 5922000    1.3955257   -3.4742431   -1.9214349   0.15814762   -3.4742431    1.5528082   591882 
 5923000    1.3950674    -3.473498   -1.9212678    0.1597421    -3.473498    1.5522302   591908 
 5924000    1.3962643    -3.473007   -1.9195291   0.15804622    -3.473007    1.5534779   591940 
 5925000    1.3953624   -3.4724611   -1.9200679   0.16082247   -3.4724611    1.5523932   591971 
 5926000    1.3970152   -3.4741257   -1.9199489   0.16148346   -3.4741257    1.5541768   591992 
 5927000    1.3981958   -3.4758983   -1.9204501   0.15382476   -3.4758983    1.5554482   592008 
 5928000    1.3972247    -3.474976   -1.9206528   0.14974689    -3.474976    1.5543232   592025 
 5929000    1.3967667    -3.474975   -1.9212294   0.15835552    -3.474975    1.5537455   592051 
 5930000    1.3959217   -3.4740348   -1.9212581   0.15891336   -3.4740348    1.5527767   592062 
 5931000    1.3953139   -3.4737821    -1.921747   0.15834619   -3.4737821    1.5520351   592087 
 5932000    1.3956521    -3.474432   -1.9221073   0.15708391    -3.474432    1.5523247   592120 
 5933000    1.3966063   -3.4759955   -1.9226698   0.14966212   -3.4759955    1.5533257   592143 
 5934000    1.3960079   -3.4751508   -1.9225037    0.1590102   -3.4751508    1.5526471   592148 
 5935000    1.3953327   -3.4752393   -1.9234218   0.15874297   -3.4752393    1.5518175   592178 
 5936000    1.3966911   -3.4758937   -1.9226363   0.15802159   -3.4758937    1.5532574   592205 
 5937000    1.3961478   -3.4750235   -1.9224411   0.15957939   -3.4750235    1.5525824   592232 
 5938000    1.3963705   -3.4758898   -1.9231018   0.15820816   -3.4758898    1.5527881   592248 
 5939000    1.3949917   -3.4742536   -1.9230486    0.1541876   -3.4742536     1.551205   592267 
 5940000    1.3970983    -3.476822   -1.9233138   0.15824094    -3.476822    1.5535082   592282 
 5941000    1.3975659     -3.47763   -1.9236464   0.15584487     -3.47763    1.5539836   592299 
 5942000    1.3952741     -3.47474   -1.9233885   0.15987266     -3.47474    1.5513515   592331 
 5943000    1.3968564   -3.4759315   -1.9228994   0.16301806   -3.4759315    1.5530321   592361 
 5944000    1.3971557   -3.4771459   -1.9238361   0.15596044   -3.4771459    1.5533098   592382 
 5945000    1.3951514   -3.4736376   -1.9225849    0.1625724   -3.4736376    1.5510527   592393 
 5946000    1.3977412   -3.4762321   -1.9223552   0.15786658   -3.4762321    1.5538768   592414 
 5947000    1.3971085   -3.4768492   -1.9237281   0.15941159   -3.4768492     1.553121   592434 
 5948000    1.3974432   -3.4774238   -1.9239675    0.1510334   -3.4774238    1.5534563   592448 
 5949000    1.3966558   -3.4763586   -1.9238142   0.16182245   -3.4763586    1.5525444   592462 
 5950000    1.3950521   -3.4746079   -1.9239064    0.1666654   -3.4746079    1.5507015   592485 
 5951000    1.3980495   -3.4771225   -1.9231364   0.15607031   -3.4771225    1.5539861   592503 
 5952000    1.3980906   -3.4771349   -1.9231608   0.15817925   -3.4771349    1.5539741   592525 
 5953000    1.3964039    -3.476446   -1.9243833   0.15870612    -3.476446    1.5520627   592539 
 5954000    1.3962517   -3.4762034   -1.9243754   0.15581777   -3.4762034     1.551828   592564 
 5955000    1.3962389   -3.4772892   -1.9255409   0.15582811   -3.4772892    1.5517483   592589 
 5956000    1.3969992   -3.4774496   -1.9249271   0.15394274   -3.4774496    1.5525226   592616 
 5957000    1.3943382    -3.475606   -1.9260982   0.15818088    -3.475606    1.5495078   592638 
 5958000    1.3957444   -3.4778493    -1.926852   0.15209823   -3.4778493    1.5509972   592666 
 5959000    1.3967557   -3.4778032   -1.9257268   0.15683541   -3.4778032    1.5520764   592683 
 5960000     1.397384   -3.4788205   -1.9260798   0.15278349   -3.4788205    1.5527406   592696 
 5961000    1.3992718   -3.4804722   -1.9256837   0.15109909   -3.4804722    1.5547884   592715 
 5962000    1.3968637   -3.4780936    -1.926049   0.15648321   -3.4780936    1.5520446   592741 
 5963000     1.396893   -3.4775127   -1.9255141    0.1596678   -3.4775127    1.5519986   592771 
 5964000    1.3971515   -3.4787868   -1.9265377   0.15592368   -3.4787868    1.5522492   592785 
 5965000    1.3969456   -3.4793249   -1.9273569   0.15397237   -3.4793249     1.551968   592805 
 5966000    1.3974315   -3.4795553   -1.9270842   0.15570343   -3.4795553    1.5524712   592819 
 5967000    1.3962871   -3.4791826   -1.9280482   0.15186099   -3.4791826    1.5511344   592844 
 5968000    1.3968304   -3.4793605   -1.9276671   0.15578449   -3.4793605    1.5516935   592861 
 5969000    1.3973762    -3.479561    -1.927277   0.15806616    -3.479561     1.552284   592867 
 5970000    1.3976941   -3.4797104   -1.9271151   0.16018247   -3.4797104    1.5525953   592883 
 5971000    1.3959955   -3.4782364   -1.9275541   0.16103237   -3.4782364    1.5506822   592893 
 5972000    1.3957117   -3.4792294   -1.9289094   0.15542341   -3.4792294    1.5503199   592911 
 5973000    1.3952322   -3.4783831   -1.9286454   0.15929694   -3.4783831    1.5497377   592930 
 5974000    1.3946777   -3.4773679   -1.9282748   0.16508994   -3.4773679     1.549093   592941 
 5975000    1.3964131    -3.479193   -1.9282221   0.15811304    -3.479193    1.5509709   592960 
 5976000    1.3977851   -3.4799877   -1.9275375   0.15925211   -3.4799877    1.5524502   592977 
 5977000    1.3971623   -3.4797653   -1.9280722   0.16355807   -3.4797653    1.5516931   593002 
 5978000    1.3960961   -3.4801469   -1.9296798   0.16005224   -3.4801469    1.5504671   593018 
 5979000     1.396654   -3.4802976    -1.929271   0.15531191   -3.4802976    1.5510266   593041 
 5980000    1.3955615   -3.4795093   -1.9297508   0.15506992   -3.4795093    1.5497585   593062 
 5981000    1.3982581   -3.4813753   -1.9287087   0.16266073   -3.4813753    1.5526666   593095 
 5982000    1.3973901   -3.4805263   -1.9288889   0.16144949   -3.4805263    1.5516374   593120 
 5983000    1.3971354   -3.4802772   -1.9289619   0.15361894   -3.4802772    1.5513153   593135 
 5984000    1.3978992   -3.4818697   -1.9297429   0.15237856   -3.4818697    1.5521268   593149 
 5985000    1.3973611   -3.4806067   -1.9291323   0.15455773   -3.4806067    1.5514744   593170 
 5986000    1.3952944   -3.4791657   -1.9300303   0.16202704   -3.4791657    1.5491354   593187 
 5987000    1.3970278   -3.4813502   -1.9303609   0.15623423   -3.4813502    1.5509893   593214 
 5988000    1.3975219   -3.4822444   -1.9307459   0.16171165   -3.4822444    1.5514986   593229 
 5989000    1.3979261   -3.4814934   -1.9295827   0.15945652   -3.4814934    1.5519107   593243 
 5990000    1.3958892   -3.4800125   -1.9303944   0.15929219   -3.4800125    1.5496181   593255 
 5991000     1.396709   -3.4814593   -1.9309965   0.16005531   -3.4814593    1.5504628   593280 
 5992000    1.3975511   -3.4820105   -1.9306651   0.15582891   -3.4820105    1.5513453   593300 
 5993000    1.3981452   -3.4823507   -1.9303903   0.15632026   -3.4823507    1.5519604   593317 
 5994000    1.4002048   -3.4852348   -1.9310563   0.15184562   -3.4852348    1.5541784   593343 
 5995000    1.3980868   -3.4818558   -1.9300859   0.15950712   -3.4818558    1.5517699   593365 
 5996000    1.3990636   -3.4831296   -1.9303199   0.15857835   -3.4831296    1.5528097   593382 
 5997000    1.3976196   -3.4816073   -1.9304344   0.16172584   -3.4816073     1.551173   593395 
 5998000     1.397633   -3.4821305   -1.9310002   0.15864254   -3.4821305    1.5511303   593417 
 5999000    1.3990648   -3.4842572   -1.9315693   0.15783809   -3.4842572     1.552688   593429 
 6000000    1.3969727   -3.4812962   -1.9310006   0.16503506   -3.4812962    1.5502956   593456 
 6001000    1.3980256   -3.4825548   -1.9311351   0.15695073   -3.4825548    1.5514197   593473 
 6002000    1.3984876   -3.4826119   -1.9307344   0.16041181   -3.4826119    1.5518774   593494 
 6003000    1.3986842   -3.4839362   -1.9318746   0.15376376   -3.4839362    1.5520616   593507 
 6004000      1.39837   -3.4824024    -1.930747   0.15957944   -3.4824024    1.5516554   593529 
 6005000      1.39782   -3.4813935   -1.9303953   0.16118791   -3.4813935    1.5509982   593547 
 6006000    1.3978577    -3.481186   -1.9301695   0.15968089    -3.481186    1.5510164   593556 
 6007000    1.3995676   -3.4837732   -1.9308988   0.15135342   -3.4837732    1.5528745   593571 
 6008000    1.3979346   -3.4819985   -1.9309987    0.1518809   -3.4819985    1.5509998   593595 
 6009000      1.39844   -3.4826527   -1.9311339   0.15861133   -3.4826527    1.5515188   593611 
 6010000    1.3973672   -3.4809848   -1.9307033   0.16242974   -3.4809848    1.5502815   593629 
 6011000    1.3993179   -3.4833452   -1.9309126   0.15303035   -3.4833452    1.5524326   593634 
 6012000    1.3976534   -3.4820902   -1.9315618   0.15681141   -3.4820902    1.5505285   593656 
 6013000    1.3979432   -3.4835666   -1.9327532   0.15347592   -3.4835666    1.5508135   593670 
 6014000    1.3979526   -3.4818926   -1.9311367   0.15538291   -3.4818926    1.5507559   593696 
 6015000    1.3987434   -3.4823854   -1.9308254   0.15675592   -3.4823854      1.55156   593724 
 6016000    1.3985069   -3.4830077   -1.9317467   0.15308984   -3.4830077    1.5512611   593738 
 6017000    1.3988757   -3.4828446   -1.9312424   0.15639901   -3.4828446    1.5516022   593764 
 6018000    1.3992494   -3.4838449   -1.9318805   0.15629064   -3.4838449    1.5519644   593784 
 6019000    1.3985794   -3.4828117   -1.9316191   0.16416064   -3.4828117    1.5511926   593795 
 6020000    1.3998031   -3.4839695   -1.9314798   0.16565123   -3.4839695    1.5524897   593818 
 6021000    1.4003292   -3.4849898   -1.9319663    0.1652036   -3.4849898    1.5530235   593837 
 6022000    1.3992639     -3.48497   -1.9331985   0.15462633     -3.48497    1.5517714   593864 
 6023000    1.3982885   -3.4850309   -1.9343829    0.1594462   -3.4850309     1.550648   593880 
 6024000    1.3980539   -3.4843523   -1.9340245   0.16346892   -3.4843523    1.5503278   593903 
 6025000    1.3984202   -3.4857891   -1.9351073   0.15218679   -3.4857891    1.5506818   593923 
 6026000    1.3994302   -3.4869747   -1.9352279   0.15671496   -3.4869747    1.5517468   593944 
 6027000    1.4006117   -3.4879032   -1.9348881   0.15904972   -3.4879032    1.5530151   593960 
 6028000    1.3982327   -3.4846544   -1.9343267   0.16086607   -3.4846544    1.5503277   593979 
 6029000      1.39957   -3.4866513   -1.9349035    0.1601594   -3.4866513    1.5517478   594003 
 6030000    1.3992833   -3.4867921   -1.9353962   0.16113797   -3.4867921    1.5513959   594016 
 6031000    1.3984985   -3.4866349   -1.9361664   0.15631221   -3.4866349    1.5504684   594038 
 6032000    1.3993724   -3.4864943   -1.9350989    0.1566516   -3.4864943    1.5513955   594054 
 6033000    1.4005339   -3.4865358   -1.9339336   0.15272246   -3.4865358    1.5526021   594085 
 6034000    1.4004242   -3.4862586   -1.9338357   0.15939866   -3.4862586     1.552423   594107 
 6035000     1.397968   -3.4848469    -1.935191   0.16548833   -3.4848469    1.5496559   594124 
 6036000    1.3995086   -3.4858001   -1.9344704   0.16093288   -3.4858001    1.5513297   594137 
 6037000    1.3998138   -3.4879821   -1.9363951   0.15570703   -3.4879821     1.551587   594168 
 6038000    1.3983943   -3.4853373    -1.935381   0.16132618   -3.4853373    1.5499563   594190 
 6039000    1.3982251   -3.4855172   -1.9358319   0.15689465   -3.4855172    1.5496853   594222 
 6040000    1.4001222   -3.4887323   -1.9369993   0.15765633   -3.4887323     1.551733   594243 
 6041000    1.3984363   -3.4863989   -1.9365866   0.15620446   -3.4863989    1.5498124   594263 
 6042000    1.3987998   -3.4872413   -1.9370782    0.1592709   -3.4872413     1.550163   594283 
 6043000    1.3998457   -3.4886261    -1.937351   0.15615301   -3.4886261    1.5512751   594301 
 6044000    1.3983563   -3.4874498   -1.9378851    0.1605042   -3.4874498    1.5495646   594324 
 6045000    1.3981768   -3.4870637   -1.9377658   0.15590664   -3.4870637    1.5492979   594350 
 6046000    1.3992426   -3.4882364   -1.9378044   0.15511258   -3.4882364     1.550432   594368 
 6047000    1.3993641   -3.4892173   -1.9386742   0.15606493   -3.4892173    1.5505431   594377 
 6048000    1.3986885    -3.487961   -1.9382473   0.16022591    -3.487961    1.5497137   594408 
 6049000    1.3982403   -3.4882037   -1.9390777   0.15347203   -3.4882037     1.549126   594443 
 6050000    1.3983137    -3.488397   -1.9392809   0.16686998    -3.488397     1.549116   594478 
 6051000    1.3976784   -3.4884671   -1.9400862   0.15607894   -3.4884671     1.548381   594490 
 6052000    1.3998028   -3.4902057   -1.9395207   0.15721742   -3.4902057    1.5506849   594509 
 6053000    1.3977996    -3.487892    -1.939494   0.16200887    -3.487892     1.548398   594535 
 6054000    1.3978242   -3.4888288   -1.9404738   0.15998191   -3.4888288     1.548355   594562 
 6055000    1.3980839   -3.4892385   -1.9406219   0.15912921   -3.4892385    1.5486166   594572 
 6056000    1.3990903   -3.4898331   -1.9401095   0.15927807   -3.4898331    1.5497236   594575 
 6057000    1.4003639   -3.4915903   -1.9405186   0.15375148   -3.4915903    1.5510717   594599 
 6058000    1.3992715    -3.489797   -1.9399848   0.15962388    -3.489797    1.5498122   594618 
 6059000    1.3980953   -3.4893046   -1.9408525   0.15945326   -3.4893046    1.5484521   594640 
 6060000    1.3970469   -3.4876639   -1.9404302   0.15881066   -3.4876639    1.5472338   594662 
 6061000    1.3984187   -3.4896821   -1.9409838   0.15519044   -3.4896821    1.5486983   594683 
 6062000    1.4002103   -3.4907318   -1.9401145      0.15794   -3.4907318    1.5506173   594708 
 6063000    1.3992787    -3.489338   -1.9397993   0.15372903    -3.489338    1.5495387   594726 
 6064000     1.399876   -3.4909048   -1.9407542   0.15165643   -3.4909048    1.5501506   594745 
 6065000    1.4002205   -3.4905101    -1.940038   0.15375519   -3.4905101    1.5504721   594768 
 6066000    1.3997928   -3.4903668    -1.940436   0.16130809   -3.4903668    1.5499307   594794 
 6067000    1.3984465   -3.4892873   -1.9408837   0.15220747   -3.4892873    1.5484036   594808 
 6068000    1.3992412   -3.4900499   -1.9408211   0.15484027   -3.4900499    1.5492288   594829 
 6069000    1.3998824    -3.490374   -1.9404665   0.15166729    -3.490374    1.5499076   594841 
 6070000    1.3998832   -3.4898064   -1.9399579   0.16178517   -3.4898064    1.5498485   594864 
 6071000    1.3993921   -3.4894138   -1.9401742   0.15891546   -3.4894138    1.5492396   594889 
 6072000    1.3992125   -3.4893686   -1.9403746   0.15600978   -3.4893686     1.548994   594907 
 6073000    1.3997822   -3.4910509   -1.9414706   0.16148796   -3.4910509    1.5495804   594924 
 6074000    1.4012817   -3.4926487   -1.9414735   0.15692249   -3.4926487    1.5511751   594949 
 6075000    1.4004446   -3.4914952   -1.9412648   0.16129655   -3.4914952    1.5502303   594956 
 6076000    1.3989743    -3.490615   -1.9420305   0.16034459    -3.490615    1.5485845   594963 
 6077000    1.3992997    -3.490228   -1.9413562   0.16303517    -3.490228    1.5488718   594991 
 6078000    1.4013227   -3.4918564   -1.9407974   0.16071647   -3.4918564     1.551059   595011 
 6079000    1.4002388   -3.4904051   -1.9405614   0.16146954   -3.4904051    1.5498436   595017 
 6080000    1.3997429   -3.4905793   -1.9413237   0.16539007   -3.4905793    1.5492556   595032 
 6081000     1.399824   -3.4906525   -1.9413384   0.15994487   -3.4906525    1.5493141   595044 
 6082000    1.4019056   -3.4923848   -1.9408189   0.15663774   -3.4923848    1.5515659   595064 
 6083000    1.3995069   -3.4903532   -1.9414837   0.15994869   -3.4903532    1.5488695   595080 
 6084000    1.4007799   -3.4913924    -1.941161   0.16013747   -3.4913924    1.5502314   595098 
 6085000    1.3996321   -3.4899088   -1.9409919   0.15800458   -3.4899088    1.5489169   595115 
 6086000    1.4012932   -3.4924563   -1.9417663   0.15604858   -3.4924563      1.55069   595140 
 6087000    1.4000846   -3.4921001   -1.9427735    0.1573644   -3.4921001    1.5493266   595150 
 6088000    1.3998929   -3.4912365   -1.9421558   0.15629013   -3.4912365    1.5490807   595163 
 6089000    1.4003544   -3.4918411   -1.9422966   0.15418644   -3.4918411    1.5495444   595181 
 6090000    1.4012242   -3.4927058   -1.9422431   0.15658627   -3.4927058    1.5504627   595198 
 6091000    1.4008687    -3.492388   -1.9423917   0.15491748    -3.492388    1.5499963   595226 
 6092000    1.3990954   -3.4902555   -1.9422758    0.1571338   -3.4902555    1.5479797   595247 
 6093000    1.3999835   -3.4916246    -1.942743   0.15625775   -3.4916246    1.5488816   595278 
 6094000    1.4012425   -3.4918584   -1.9416333   0.15721631   -3.4918584     1.550225   595297 
 6095000    1.4020152   -3.4923062   -1.9412341   0.15553722   -3.4923062     1.551072   595300 
 6096000    1.4016724    -3.492007   -1.9413402   0.16073222    -3.492007    1.5506668   595310 
 6097000    1.4022006   -3.4930765   -1.9418776   0.15740841   -3.4930765    1.5511989   595330 
 6098000    1.4001999   -3.4917226    -1.942776   0.15689891   -3.4917226    1.5489467   595345 
 6099000    1.4012854   -3.4919564   -1.9418505   0.15939122   -3.4919564    1.5501059   595361 
 6100000    1.4014757   -3.4925916     -1.94233   0.15507219   -3.4925916    1.5502616   595382 
 6101000    1.4017603   -3.4935742   -1.9430577   0.15575856   -3.4935742    1.5505165   595405 
 6102000     1.402013   -3.4925441   -1.9417819    0.1635275   -3.4925441    1.5507622   595418 
 6103000    1.4027164    -3.492195   -1.9407095   0.15937978    -3.492195    1.5514855   595439 
 6104000    1.4016848    -3.491782   -1.9414661   0.15954185    -3.491782    1.5503159   595450 
 6105000    1.4016765   -3.4926238   -1.9423379   0.15406735   -3.4926238    1.5502859   595458 
 6106000    1.4006007   -3.4923162   -1.9432618   0.16353749   -3.4923162    1.5490544   595474 
 6107000    1.4010315   -3.4930129    -1.943521   0.16272928   -3.4930129    1.5494918   595489 
 6108000    1.4005358   -3.4925774   -1.9436728   0.15104789   -3.4925774    1.5489046   595504 
 6109000    1.3994734   -3.4917243   -1.9440622   0.15745354   -3.4917243    1.5476621   595530 
 6110000    1.3999366   -3.4924634   -1.9442996   0.16168516   -3.4924634    1.5481639   595534 
 6111000    1.3995711   -3.4928807   -1.9451521   0.15433616   -3.4928807    1.5477286   595546 
 6112000    1.4002876   -3.4924556   -1.9439919   0.16004847   -3.4924556    1.5484637   595568 
 6113000    1.4006357   -3.4929637   -1.9441307   0.16645659   -3.4929637     1.548833   595574 
 6114000    1.4004449   -3.4935499   -1.9449747   0.15822621   -3.4935499    1.5485752   595592 
 6115000    1.4013365    -3.493112   -1.9435926   0.15817895    -3.493112    1.5495194   595608 
 6116000    1.4014429   -3.4932553   -1.9436519   0.15944151   -3.4932553    1.5496034   595621 
 6117000    1.3992541   -3.4909908   -1.9438389   0.16541535   -3.4909908    1.5471519   595633 
 6118000    1.4027464   -3.4944245   -1.9434736   0.16508757   -3.4944245    1.5509508   595657 
 6119000     1.403815   -3.4953554    -1.943283   0.15988893   -3.4953554    1.5520725   595680 
 6120000    1.4015773   -3.4940912   -1.9445474   0.15803614   -3.4940912    1.5495439   595701 
 6121000    1.4001462   -3.4939772   -1.9460623   0.16323338   -3.4939772    1.5479149   595719 
 6122000    1.3994054   -3.4935246     -1.94646   0.15963819   -3.4935246    1.5470647   595731 
 6123000     1.402084   -3.4954843    -1.945487   0.16386796   -3.4954843    1.5499974   595742 
 6124000    1.4003928   -3.4949143   -1.9468282   0.16183411   -3.4949143    1.5480861   595758 
 6125000     1.401026   -3.4948512   -1.9461145   0.15979482   -3.4948512    1.5487367   595777 
 6126000    1.4009767   -3.4961065   -1.9474451   0.15671627   -3.4961065    1.5486614   595785 
 6127000    1.4012264   -3.4953064   -1.9464288   0.15831249   -3.4953064    1.5488776   595808 
 6128000    1.4005247   -3.4946916   -1.9466338   0.15386526   -3.4946916    1.5480578   595825 
 6129000    1.4010287   -3.4951194   -1.9465668   0.15885758   -3.4951194    1.5485526   595849 
 6130000    1.4030455   -3.4976466   -1.9469117   0.15757827   -3.4976466    1.5507349   595867 
 6131000    1.4001433   -3.4966722   -1.9492281   0.15524653   -3.4966722     1.547444   595899 
 6132000    1.4003164   -3.4965174   -1.9489418   0.15877902   -3.4965174    1.5475756   595922 
 6133000    1.4001919     -3.49605   -1.9486847   0.16416615     -3.49605    1.5473653   595950 
 6134000    1.4013568   -3.4984815   -1.9498626   0.16233559   -3.4984815    1.5486189   595963 
 6135000    1.3985698       -3.496   -1.9504843   0.15649791       -3.496    1.5455157   595972 
 6136000    1.4019175   -3.4984856   -1.9493146   0.15590969   -3.4984856     1.549171   595989 
 6137000    1.3996834   -3.4961561   -1.9495239   0.15651334   -3.4961561    1.5466322   596016 
 6138000    1.4019153   -3.4975224   -1.9484916   0.15434599   -3.4975224    1.5490307   596042 
 6139000    1.4011983    -3.496882   -1.9487006   0.15539516    -3.496882    1.5481813   596064 
 6140000    1.4015757   -3.4983396   -1.9497906   0.16295991   -3.4983396     1.548549   596083 
 6141000    1.4011159    -3.497832   -1.9498196   0.16200442    -3.497832    1.5480124   596094 
 6142000    1.4011234   -3.4976475    -1.949658   0.16410959   -3.4976475    1.5479895   596106 
 6143000    1.4026336   -3.4992186   -1.9495995   0.15530266   -3.4992186    1.5496191   596121 
 6144000    1.4003497   -3.4977522   -1.9506719   0.16242763   -3.4977522    1.5470803   596127 
 6145000    1.4011968   -3.4981752    -1.950198   0.16322242   -3.4981752    1.5479772   596142 
 6146000     1.401497   -3.4978979   -1.9496333    0.1588917   -3.4978979    1.5482647   596159 
 6147000    1.4000393   -3.4960366   -1.9494264   0.15395101   -3.4960366    1.5466102   596176 
 6148000    1.3994748   -3.4962969   -1.9503803   0.15630928   -3.4962969    1.5459166   596203 
 6149000    1.4012598   -3.4977196   -1.9499014   0.15286264   -3.4977196    1.5478182   596230 
 6150000    1.4026887   -3.4978611   -1.9485164   0.16084371   -3.4978611    1.5493446   596250 
 6151000    1.4026121   -3.4980544   -1.9488438   0.15959691   -3.4980544    1.5492106   596269 
 6152000    1.4009384   -3.4967765    -1.949482   0.16146968   -3.4967765    1.5472945   596295 
 6153000    1.4035145   -3.4998484   -1.9497996   0.15826356   -3.4998484    1.5500488   596330 
 6154000    1.4035218   -3.4989713   -1.9489586   0.15807598   -3.4989713    1.5500127   596347 
 6155000     1.402647   -3.4982608    -1.949235   0.15838888   -3.4982608    1.5490258   596355 
 6156000    1.4023526   -3.4981479   -1.9494783    0.1623664   -3.4981479    1.5486696   596367 
 6157000    1.4018033   -3.4978964   -1.9498932   0.16280929   -3.4978964    1.5480032   596390 
 6158000    1.4030637   -3.4991752   -1.9498373    0.1572252   -3.4991752    1.5493379   596412 
 6159000    1.4010605   -3.4978182   -1.9507053   0.15666691   -3.4978182    1.5471129   596417 
 6160000     1.403018   -3.4994343   -1.9502299   0.15988481   -3.4994343    1.5492043   596444 
 6161000    1.4015326   -3.4988656    -1.951387   0.15818999   -3.4988656    1.5474785   596477 
 6162000    1.4023421   -3.4996721   -1.9513412   0.14879694   -3.4996721    1.5483308   596493 
 6163000    1.4008854   -3.4980738   -1.9514109   0.15873893   -3.4980738    1.5466629   596516 
 6164000    1.4019054   -3.5003924    -1.952645   0.16081116   -3.5003924    1.5477474   596532 
 6165000    1.4021099   -3.5003837   -1.9524364   0.15935866   -3.5003837    1.5479473   596542 
 6166000    1.4013338   -3.5003084    -1.953288   0.15891309   -3.5003084    1.5470204   596569 
 6167000    1.4024066   -3.5010155   -1.9528938   0.16314544   -3.5010155    1.5481217   596601 
 6168000     1.402226   -3.5005057   -1.9526067   0.15706543   -3.5005057     1.547899   596610 
 6169000    1.4029137   -3.5008978   -1.9522864   0.15228158   -3.5008978    1.5486114   596628 
 6170000    1.4017754   -3.4997315   -1.9523922   0.15516703   -3.4997315    1.5473393   596634 
 6171000    1.4014291   -3.5003694   -1.9534693   0.16137614   -3.5003694    1.5469001   596656 
 6172000    1.4024775   -3.5015987   -1.9535855   0.15819636   -3.5015987    1.5480132   596673 
 6173000    1.4035649   -3.5024959   -1.9533422   0.15477958   -3.5024959    1.5491537   596696 
 6174000    1.4035678   -3.5026416   -1.9535367   0.15789496   -3.5026416    1.5491049   596716 
 6175000    1.4008776   -3.5010627   -1.9549735   0.16247932   -3.5010627    1.5460891   596734 
 6176000    1.4006344   -3.5001172   -1.9543638    0.1608191   -3.5001172    1.5457534   596760 
 6177000    1.4018711   -3.5014843   -1.9544179     0.161117   -3.5014843    1.5470664   596780 
 6178000    1.4009645   -3.5010279   -1.9550164   0.15653009   -3.5010279    1.5460115   596801 
 6179000    1.4019511   -3.5010354    -1.953987   0.16091984   -3.5010354    1.5470484   596821 
 6180000    1.4032236   -3.5016507   -1.9532267   0.16294356   -3.5016507     1.548424   596832 
 6181000    1.4019818   -3.5008065   -1.9537631   0.15791598   -3.5008065    1.5470434   596836 
 6182000     1.400213   -3.4996536   -1.9546241   0.16356251   -3.4996536    1.5450294   596860 
 6183000      1.40128   -3.5022179    -1.956081   0.16070877   -3.5022179    1.5461368   596887 
 6184000    1.4008492    -3.501605   -1.9559797   0.16081786    -3.501605    1.5456253   596901 
 6185000    1.4011818   -3.5010686   -1.9551073   0.16109866   -3.5010686    1.5459612   596913 
 6186000    1.4022559   -3.5008525   -1.9537503   0.15835469   -3.5008525    1.5471022   596930 
 6187000    1.4019597   -3.5006998   -1.9539632   0.15880374   -3.5006998    1.5467365   596945 
 6188000    1.4035354   -3.5022919   -1.9538507   0.15744959   -3.5022919    1.5484412   596958 
 6189000    1.4030922   -3.5026289   -1.9547259   0.15362245   -3.5026289     1.547903   596977 
 6190000    1.4024855   -3.5021294   -1.9549294   0.16036314   -3.5021294       1.5472   596990 
 6191000    1.4011865   -3.5007736   -1.9550583   0.15680468   -3.5007736    1.5457152   597010 
 6192000    1.4025942   -3.5013172    -1.954101   0.16072109   -3.5013172    1.5472162   597030 
 6193000    1.4027602   -3.5019746   -1.9546166   0.15884421   -3.5019746    1.5473579   597046 
 6194000    1.4023475   -3.5014902   -1.9546316   0.16046114   -3.5014902    1.5468586   597063 
 6195000    1.4045901   -3.5042606   -1.9549854    0.1518894   -3.5042606    1.5492752   597085 
 6196000    1.4026316   -3.5015868   -1.9545028    0.1600757   -3.5015868    1.5470839   597097 
 6197000    1.4033674   -3.5033692   -1.9555333   0.15850355   -3.5033692    1.5478359   597120 
 6198000     1.402803   -3.5025031   -1.9553649    0.1582401   -3.5025031    1.5471382   597149 
 6199000    1.4022287   -3.5021126    -1.955657   0.16105018   -3.5021126    1.5464556   597168 
 6200000    1.4026185   -3.5034046   -1.9565632   0.16373992   -3.5034046    1.5468415   597185 
 6201000    1.4028357   -3.5040485   -1.9569986   0.15796459   -3.5040485    1.5470499   597197 
 6202000    1.4042784   -3.5058814   -1.9572872   0.15491436   -3.5058814    1.5485942   597215 
 6203000    1.4033255   -3.5047348   -1.9572199   0.15597634   -3.5047348    1.5475149   597226 
 6204000    1.4020718   -3.5026679   -1.9565743   0.16232771   -3.5026679    1.5460936   597241 
 6205000    1.4015463   -3.5021099   -1.9566501   0.15980654   -3.5021099    1.5454598   597262 
 6206000    1.4025611   -3.5034313   -1.9568836    0.1559714   -3.5034313    1.5465477   597274 
 6207000    1.4021503   -3.5038385   -1.9577645   0.16017986   -3.5038385     1.546074   597282 
 6208000    1.4028942   -3.5037167   -1.9568847   0.15599016   -3.5037167    1.5468321   597306 
 6209000    1.4040973   -3.5056367   -1.9575143   0.15460364   -3.5056367    1.5481224   597320 
 6210000      1.40317   -3.5046053    -1.957539   0.15720423   -3.5046053    1.5470663   597333 
 6211000    1.4025959    -3.505175   -1.9587779   0.15791076    -3.505175     1.546397   597347 
 6212000    1.4028693   -3.5053315     -1.95869   0.15829315   -3.5053315    1.5466416   597369 
 6213000    1.4015134   -3.5035289   -1.9584314   0.16457676   -3.5035289    1.5450975   597388 
 6214000    1.4019827   -3.5046587   -1.9590904   0.16025204   -3.5046587    1.5455683   597406 
 6215000    1.4015544   -3.5043477   -1.9593059   0.15816627   -3.5043477    1.5450419   597427 
 6216000    1.4025164   -3.5043437   -1.9582854   0.16013746   -3.5043437    1.5460583   597444 
 6217000    1.4032605   -3.5050171   -1.9581774   0.16119494   -3.5050171    1.5468397   597459 
 6218000    1.4020122   -3.5045783   -1.9591559   0.16665443   -3.5045783    1.5454224   597475 
 6219000    1.4034842   -3.5052165   -1.9582415   0.15774582   -3.5052165     1.546975   597502 
 6220000    1.4032291   -3.5057409   -1.9590834   0.16108482   -3.5057409    1.5466576   597516 
 6221000    1.4021768   -3.5046575   -1.9592218   0.15882407   -3.5046575    1.5454357   597540 
 6222000    1.4046714   -3.5066378   -1.9584967   0.16048463   -3.5066378    1.5481411   597557 
 6223000    1.4048295   -3.5067432   -1.9584564   0.16109018   -3.5067432    1.5482868   597568 
 6224000    1.4040595   -3.5061146   -1.9587101   0.15677951   -3.5061146    1.5474046   597581 
 6225000    1.4031915   -3.5056305   -1.9592111   0.15746692   -3.5056305    1.5464194   597592 
 6226000    1.4038939   -3.5064135   -1.9592718   0.15641318   -3.5064135    1.5471417   597612 
 6227000    1.4029888   -3.5053976   -1.9593154   0.16307398   -3.5053976    1.5460822   597636 
 6228000    1.4029935   -3.5063164     -1.96026   0.15657082   -3.5063164    1.5460564   597648 
 6229000    1.4026413   -3.5063751   -1.9607482   0.15921121   -3.5063751    1.5456269   597664 
 6230000    1.4040139   -3.5081345   -1.9610132   0.16079088   -3.5081345    1.5471213   597671 
 6231000     1.402481   -3.5059465   -1.9605325   0.16378814   -3.5059465     1.545414   597678 
 6232000     1.403727   -3.5071824   -1.9604213   0.16098571   -3.5071824    1.5467611   597688 
 6233000    1.4029331   -3.5063682   -1.9605284   0.15752714   -3.5063682    1.5458397   597706 
 6234000    1.4026284   -3.5064001   -1.9609581   0.15957412   -3.5064001     1.545442   597730 
 6235000    1.4017654   -3.5059461   -1.9614834   0.16001165   -3.5059461    1.5444627   597741 
 6236000    1.4030592    -3.506208   -1.9603663   0.15767883    -3.506208    1.5458417   597759 
 6237000    1.4038564   -3.5073227   -1.9606829   0.16052463   -3.5073227    1.5466398   597790 
 6238000     1.402722   -3.5061573   -1.9607879   0.15902691   -3.5061573    1.5453694   597798 
 6239000    1.4025826   -3.5063348   -1.9611552   0.15385634   -3.5063348    1.5451796   597812 
 6240000    1.4017975   -3.5062967    -1.962057   0.15973155   -3.5062967    1.5442397   597841 
 6241000    1.4026451   -3.5067831   -1.9616639   0.15361729   -3.5067831    1.5451192   597862 
 6242000    1.4030597   -3.5074146   -1.9618853   0.16342456   -3.5074146    1.5455293   597880 
 6243000    1.4022518   -3.5064819   -1.9618683    0.1630637   -3.5064819    1.5446136   597890 
 6244000    1.4026453   -3.5066575   -1.9616518   0.15684658   -3.5066575    1.5450057   597906 
 6245000    1.4037857   -3.5075884   -1.9613576   0.15987849   -3.5075884    1.5462308   597918 
 6246000    1.4050891   -3.5082715   -1.9606309   0.15832476   -3.5082715    1.5476406   597928 
 6247000    1.4047674   -3.5075804   -1.9603563   0.16165401   -3.5075804    1.5472241   597952 
 6248000    1.4039169   -3.5069108   -1.9606674   0.15678332   -3.5069108    1.5462434   597969 
 6249000    1.4060648    -3.509067   -1.9604994   0.15894567    -3.509067    1.5485676   597985 
 6250000    1.4055863    -3.508697   -1.9607211   0.15929889    -3.508697    1.5479759   598010 
 6251000    1.4043608   -3.5074451   -1.9608861   0.15893658   -3.5074451    1.5465591   598036 
 6252000    1.4027219   -3.5064188   -1.9617215    0.1665307   -3.5064188    1.5446973   598058 
 6253000    1.4044399   -3.5091365   -1.9626248   0.15737299   -3.5091365    1.5465117   598088 
 6254000    1.4040181   -3.5092796   -1.9632712   0.16177634   -3.5092796    1.5460084   598103 
 6255000    1.4046844    -3.509646   -1.9629272   0.15882264    -3.509646    1.5467188   598112 
 6256000    1.4054992   -3.5104393   -1.9628646   0.15921731   -3.5104393    1.5475747   598128 
 6257000    1.4046194   -3.5092817   -1.9627095   0.16576828   -3.5092817    1.5465722   598141 
 6258000    1.4043463   -3.5082417   -1.9620037   0.15809862   -3.5082417     1.546238   598154 
 6259000    1.4038961   -3.5086388   -1.9629482    0.1586694   -3.5086388    1.5456906   598174 
 6260000    1.4042591   -3.5083402   -1.9622783   0.16092804   -3.5083402    1.5460619   598185 
 6261000    1.4035866   -3.5079589   -1.9626943   0.15790384   -3.5079589    1.5452646   598207 
 6262000    1.4050728   -3.5093701   -1.9624951    0.1598942   -3.5093701     1.546875   598217 
 6263000    1.4038938   -3.5077964   -1.9622867   0.16268876   -3.5077964    1.5455098   598243 
 6264000    1.4060553   -3.5094113   -1.9615996   0.16564898   -3.5094113    1.5478117   598273 
 6265000    1.4054252   -3.5088625   -1.9617651   0.16021253   -3.5088625    1.5470974   598281 
 6266000    1.4059059   -3.5091993   -1.9616037   0.16033774   -3.5091993    1.5475956   598293 
 6267000    1.4058202   -3.5090689   -1.9616065   0.16076421   -3.5090689    1.5474624   598308 
 6268000    1.4045444   -3.5084353   -1.9624263   0.16453655   -3.5084353    1.5460089   598327 
 6269000    1.4026651   -3.5063748   -1.9624731    0.1655414   -3.5063748    1.5439017   598342 
 6270000    1.4048464   -3.5082848   -1.9620081   0.16085975   -3.5082848    1.5462768   598352 
 6271000    1.4056265    -3.509357   -1.9622578   0.16057403    -3.509357    1.5470992   598366 
 6272000    1.4049474   -3.5087333   -1.9623997   0.15930983   -3.5087333    1.5463337   598373 
 6273000    1.4045957   -3.5096805   -1.9637676    0.1589352   -3.5096805    1.5459129   598386 
 6274000    1.4055641   -3.5104676    -1.963538   0.16266474   -3.5104676    1.5469297   598405 
 6275000    1.4070595   -3.5122922   -1.9637607   0.15335869   -3.5122922    1.5485315   598422 
 6276000    1.4040281   -3.5097658    -1.964635   0.15507555   -3.5097658    1.5451308   598447 
 6277000    1.4049247   -3.5108087   -1.9647325   0.16106778   -3.5108087    1.5460761   598463 
 6278000     1.405402   -3.5122338   -1.9656841   0.15578279   -3.5122338    1.5465497   598483 
 6279000    1.4049353   -3.5111617   -1.9651798   0.15304138   -3.5111617    1.5459819   598504 
 6280000    1.4055098   -3.5104612   -1.9639015   0.16244205   -3.5104612    1.5465598   598525 
 6281000    1.4073108    -3.512732   -1.9642137   0.15406603    -3.512732    1.5485183   598534 
 6282000    1.4050464   -3.5097055   -1.9637253   0.16771225   -3.5097055    1.5459802   598552 
 6283000    1.4059496   -3.5112607   -1.9643126   0.16120811   -3.5112607    1.5469481   598562 
 6284000    1.4057256   -3.5117627   -1.9651127   0.15732763   -3.5117627      1.54665   598582 
 6285000    1.4053227   -3.5104056   -1.9642402   0.15353128   -3.5104056    1.5461653   598598 
 6286000    1.4058059   -3.5116696   -1.9650088   0.15491448   -3.5116696    1.5466608   598612 
 6287000    1.4033618   -3.5103204   -1.9664106   0.16076257   -3.5103204    1.5439099   598636 
 6288000    1.4031668   -3.5109873   -1.9673306   0.15712529   -3.5109873    1.5436567   598651 
 6289000    1.4053971   -3.5129039   -1.9668272   0.15458098   -3.5129039    1.5460767   598664 
 6290000    1.4067534   -3.5141633   -1.9666307   0.15114488   -3.5141633    1.5475326   598678 
 6291000    1.4045556   -3.5119251   -1.9668541    0.1586126   -3.5119251     1.545071   598695 
 6292000    1.4045732   -3.5117374   -1.9666961   0.15665213   -3.5117374    1.5450413   598714 
 6293000    1.4057131   -3.5132839   -1.9670403     0.150661   -3.5132839    1.5462436   598734 
 6294000    1.4038553   -3.5113694   -1.9672287   0.16103408   -3.5113694    1.5441407   598757 
 6295000     1.406511   -3.5145318   -1.9675062   0.14912029   -3.5145318    1.5470256   598771 
 6296000    1.4053215   -3.5120979   -1.9664271   0.16176747   -3.5120979    1.5456709   598789 
 6297000    1.4048692   -3.5115674   -1.9664094   0.16053058   -3.5115674    1.5451579   598795 
 6298000    1.4048941   -3.5122225   -1.9670863   0.15844906   -3.5122225    1.5451363   598814 
 6299000    1.4034368   -3.5108154   -1.9673361   0.16349241   -3.5108154    1.5434794   598835 
 6300000      1.40468   -3.5124271   -1.9676012   0.16035622   -3.5124271    1.5448259   598843 
 6301000    1.4052544   -3.5126525   -1.9672645   0.16491153   -3.5126525     1.545388   598870 
 6302000    1.4051307   -3.5133614   -1.9681404   0.15548003   -3.5133614     1.545221   598882 
 6303000    1.4053066   -3.5139762   -1.9685798   0.15782395   -3.5139762    1.5453964   598889 
 6304000    1.4039619   -3.5119152   -1.9680517   0.16287552   -3.5119152    1.5438634   598910 
 6305000    1.4048821   -3.5128748   -1.9680536   0.16400348   -3.5128748    1.5448212   598931 
 6306000    1.4047208   -3.5130316   -1.9684265   0.15940088   -3.5130316    1.5446051   598946 
 6307000    1.4052242   -3.5136872   -1.9685724   0.16237216   -3.5136872    1.5451149   598963 
 6308000    1.4042726   -3.5131074    -1.969075   0.15641566   -3.5131074    1.5440324   598977 
 6309000    1.4048959   -3.5143727   -1.9696937   0.16195201   -3.5143727     1.544679   598992 
 6310000    1.4054148   -3.5144494   -1.9692436   0.15764482   -3.5144494    1.5452058   599009 
 6311000     1.405177   -3.5139528    -1.969024   0.15645842   -3.5139528    1.5449288   599015 
 6312000    1.4075196   -3.5157692   -1.9682855   0.16078967   -3.5157692    1.5474837   599023 
 6313000     1.406948   -3.5146733   -1.9678722    0.1625292   -3.5146733     1.546801   599044 
 6314000    1.4069271   -3.5145701   -1.9678566   0.16790699   -3.5145701    1.5467135   599069 
 6315000    1.4063439    -3.513619   -1.9675647   0.16119745    -3.513619    1.5460543   599076 
 6316000     1.406701   -3.5150309    -1.968664   0.15773243   -3.5150309    1.5463669   599107 
 6317000    1.4044631   -3.5123524   -1.9684688   0.16514217   -3.5123524    1.5438836   599116 
 6318000     1.404801   -3.5132088   -1.9690156   0.16425619   -3.5132088    1.5441931   599140 
 6319000    1.4064081   -3.5145415   -1.9685973   0.15839624   -3.5145415    1.5459442   599146 
 6320000    1.4059279    -3.513932   -1.9685465   0.16042896    -3.513932    1.5453855   599158 
 6321000    1.4050004   -3.5131016   -1.9687717   0.16278212   -3.5131016    1.5443299   599172 
 6322000    1.4058137   -3.5142023   -1.9690223   0.15868617   -3.5142023      1.54518   599189 
 6323000    1.4065862   -3.5147607   -1.9687755   0.16302573   -3.5147607    1.5459852   599206 
 6324000    1.4049558   -3.5127018   -1.9685498   0.16285087   -3.5127018     1.544152   599222 
 6325000    1.4080815   -3.5158672   -1.9683134   0.16201138   -3.5158672    1.5475538   599235 
 6326000    1.4076918   -3.5152684   -1.9681971   0.15966313   -3.5152684    1.5470713   599256 
 6327000    1.4057895    -3.513536   -1.9685812   0.16310357    -3.513536    1.5449549   599266 
 6328000    1.4077084    -3.515222   -1.9681944   0.15840418    -3.515222    1.5470276   599280 
 6329000    1.4052378   -3.5133438   -1.9690623   0.16515556   -3.5133438    1.5442815   599292 
 6330000    1.4056388   -3.5137974   -1.9691216    0.1652425   -3.5137974    1.5446758   599310 
 6331000    1.4052294   -3.5129486   -1.9687614   0.16521814   -3.5129486    1.5441872   599325 
 6332000    1.4052756   -3.5135003    -1.969319    0.1624551   -3.5135003    1.5441813   599347 
 6333000     1.406012    -3.514863   -1.9699214   0.16170259    -3.514863    1.5449416   599366 
 6334000    1.4067874   -3.5162923   -1.9705297   0.15889927   -3.5162923    1.5457626   599378 
 6335000     1.405577    -3.514681   -1.9702793   0.16378884    -3.514681    1.5444017   599390 
 6336000    1.4062462   -3.5149109   -1.9698718   0.16508285   -3.5149109    1.5450391   599428 
 6337000     1.406395    -3.515483   -1.9703011    0.1618752    -3.515483    1.5451819   599436 
 6338000    1.4070129   -3.5158395   -1.9700432   0.16781134   -3.5158395    1.5457964   599461 
 6339000    1.4067949   -3.5155524    -1.970078   0.16759497   -3.5155524    1.5454744   599493 
 6340000    1.4067671   -3.5160041   -1.9706014   0.16152212   -3.5160041    1.5454026   599509 
 6341000    1.4051211   -3.5138465   -1.9702752   0.16827037   -3.5138465    1.5435712   599518 
 6342000    1.4073921   -3.5171659   -1.9711206   0.16324078   -3.5171659    1.5460453   599526 
 6343000    1.4077793   -3.5167694   -1.9703142   0.16701577   -3.5167694    1.5464552   599532 
 6344000    1.4077934   -3.5168736   -1.9704391   0.16470572   -3.5168736    1.5464345   599546 
 6345000    1.4077733   -3.5179491   -1.9715753   0.15905255   -3.5179491    1.5463738   599561 
 6346000    1.4062245   -3.5158914    -1.971273   0.17063097   -3.5158914    1.5446184   599582 
 6347000    1.4075822   -3.5159573   -1.9698734   0.16844236   -3.5159573     1.546084   599592 
 6348000    1.4085535   -3.5176502   -1.9705639    0.1610125   -3.5176502    1.5470863   599617 
 6349000    1.4062052   -3.5146907   -1.9702198   0.17015513   -3.5146907     1.544471   599631 
 6350000    1.4067691   -3.5161218   -1.9710392   0.16471797   -3.5161218    1.5450826   599634 
 6351000    1.4063737   -3.5154852   -1.9708678   0.16329478   -3.5154852    1.5446174   599646 
 6352000    1.4076224   -3.5171807   -1.9712537   0.15886004   -3.5171807     1.545927   599670 
 6353000    1.4063849   -3.5172692   -1.9727581   0.16017502   -3.5172692    1.5445112   599692 
 6354000    1.4066728   -3.5173651   -1.9725556    0.1619905   -3.5173651    1.5448094   599699 
 6355000    1.4076507   -3.5192212   -1.9733662   0.15931143   -3.5192212     1.545855   599710 
 6356000    1.4061885     -3.51766   -1.9734443   0.15851782     -3.51766    1.5442158   599723 
 6357000    1.4076968   -3.5184179   -1.9725588   0.15592371   -3.5184179    1.5458592   599728 
 6358000     1.408009   -3.5192552   -1.9731229   0.15312054   -3.5192552    1.5461324   599755 
 6359000    1.4062894   -3.5175597   -1.9733593   0.15771233   -3.5175597    1.5442004   599772 
 6360000     1.406523   -3.5170626   -1.9726649    0.1671945   -3.5170626    1.5443977   599795 
 6361000    1.4061829   -3.5172372   -1.9732541   0.16258417   -3.5172372     1.543983   599811 
 6362000    1.4097237   -3.5212159   -1.9733761   0.15907844   -3.5212159    1.5478398   599823 
 6363000    1.4074417   -3.5170552   -1.9717956   0.16376586   -3.5170552    1.5452596   599852 
 6364000    1.4072858   -3.5172531   -1.9722214   0.15992783   -3.5172531    1.5450317   599874 
 6365000    1.4063482   -3.5165006   -1.9725497   0.16170567   -3.5165006    1.5439508   599894 
 6366000    1.4074496   -3.5179623   -1.9728229   0.16522781   -3.5179623    1.5451394   599902 
 6367000    1.4091234   -3.5199402   -1.9729968     0.158872   -3.5199402    1.5469434   599915 
 6368000    1.4064522   -3.5179168   -1.9739393    0.1617088   -3.5179168    1.5439775   599928 
 6369000    1.4060185   -3.5172752   -1.9738381   0.16472081   -3.5172752    1.5434372   599953 
 6370000    1.4075916   -3.5192218   -1.9741068   0.16343763   -3.5192218     1.545115   599972 
 6371000    1.4077913   -3.5188922   -1.9736249   0.16288524   -3.5188922    1.5452673   599998 
 6372000    1.4078276   -3.5193707   -1.9741048   0.15897788   -3.5193707    1.5452659   600014 
 6373000    1.4059744   -3.5181014   -1.9749081   0.15831736   -3.5181014    1.5431932   600029 
 6374000    1.4069768   -3.5191605   -1.9749108   0.15593248   -3.5191605    1.5442497   600046 
 6375000    1.4067007   -3.5191713   -1.9752684   0.15999356   -3.5191713    1.5439029   600063 
 6376000    1.4071857   -3.5203698    -1.975981   0.15261642   -3.5203698    1.5443889   600081 
 6377000    1.4072918     -3.51901   -1.9745793   0.16137111     -3.51901    1.5444307   600110 
 6378000    1.4073597   -3.5193196   -1.9748531   0.16118018   -3.5193196    1.5444666   600125 
 6379000    1.4074714   -3.5192084   -1.9746629   0.17171565   -3.5192084    1.5445455   600142 
 6380000    1.4054414   -3.5176355   -1.9753332   0.16307217   -3.5176355    1.5423023   600148 
 6381000     1.407157   -3.5197534   -1.9756173   0.15456245   -3.5197534    1.5441361   600167 
 6382000    1.4076893   -3.5210902   -1.9763958   0.16019477   -3.5210902    1.5446944   600177 
 6383000       1.4078   -3.5204864   -1.9756911   0.16158939   -3.5204864    1.5447953   600185 
 6384000    1.4089112   -3.5215469   -1.9755682   0.16008464   -3.5215469    1.5459786   600199 
 6385000    1.4067737   -3.5196374   -1.9760582   0.16180402   -3.5196374    1.5435792   600220 
 6386000    1.4078497   -3.5206246    -1.975906   0.16532486   -3.5206246    1.5447186   600236 
 6387000    1.4093942   -3.5226131   -1.9762282   0.16146251   -3.5226131    1.5463849   600247 
 6388000     1.405793   -3.5186354   -1.9762582   0.16677793   -3.5186354    1.5423772   600269 
 6389000    1.4082981   -3.5225138   -1.9774062   0.16407248   -3.5225138    1.5451076   600276 
 6390000    1.4077656   -3.5219993   -1.9775068   0.15806544   -3.5219993    1.5444926   600288 
 6391000    1.4066646   -3.5203144   -1.9770606   0.16032007   -3.5203144    1.5432538   600300 
 6392000     1.407341   -3.5211665   -1.9772222   0.16270259   -3.5211665    1.5439444   600320 
 6393000     1.407827   -3.5205679   -1.9761494   0.16822562   -3.5205679    1.5444185   600343 
 6394000    1.4085584   -3.5215766   -1.9763867   0.16162002   -3.5215766    1.5451899   600355 
 6395000    1.4090332   -3.5217659   -1.9761041   0.15609433   -3.5217659    1.5456618   600374 
 6396000    1.4079396   -3.5202383   -1.9758353   0.16288124   -3.5202383     1.544403   600397 
 6397000    1.4075703   -3.5204675   -1.9765184   0.16495029   -3.5204675    1.5439491   600416 
 6398000    1.4089188   -3.5208416   -1.9754778   0.16228799   -3.5208416    1.5453638   600441 
 6399000    1.4097624   -3.5216681   -1.9754278   0.16159029   -3.5216681    1.5462403   600460 
 6400000    1.4099095   -3.5214612   -1.9751138   0.16333566   -3.5214612    1.5463475   600481 
 6401000    1.4087817   -3.5207884   -1.9757113   0.16731661   -3.5207884    1.5450771   600494 
 6402000    1.4093806   -3.5216372   -1.9759444   0.15798696   -3.5216372    1.5456927   600510 
 6403000    1.4079337   -3.5198532    -1.975809   0.16499611   -3.5198532    1.5440442   600534 
 6404000    1.4093263   -3.5207421   -1.9752246   0.16179489   -3.5207421    1.5455174   600555 
 6405000    1.4093141   -3.5207679   -1.9753103   0.15980296   -3.5207679    1.5454577   600573 
 6406000    1.4086095   -3.5198107    -1.975172   0.16243474   -3.5198107    1.5446388   600591 
 6407000    1.4109621   -3.5229798   -1.9758051   0.15909058   -3.5229798    1.5471747   600608 
 6408000    1.4082994    -3.520479   -1.9762883   0.16195636    -3.520479    1.5441907   600633 
 6409000    1.4080943    -3.521524   -1.9776147   0.16329252    -3.521524    1.5439093   600655 
 6410000    1.4078807   -3.5206048   -1.9769657   0.16267492   -3.5206048    1.5436391   600669 
 6411000    1.4078857   -3.5214261   -1.9778484   0.16615473   -3.5214261    1.5435777   600695 
 6412000    1.4073586   -3.5218003   -1.9788416     0.160201   -3.5218003    1.5429587   600711 
 6413000    1.4091013   -3.5236409   -1.9788101   0.15392949   -3.5236409    1.5448308   600726 
 6414000    1.4074528   -3.5225111   -1.9795184   0.16087766   -3.5225111    1.5429927   600738 
 6415000    1.4077472    -3.521644   -1.9783748   0.16167519    -3.521644    1.5432692   600756 
 6416000     1.407624   -3.5215495   -1.9784616   0.16696879   -3.5215495    1.5430879   600774 
 6417000    1.4074997   -3.5213598   -1.9784416   0.16485728   -3.5213598    1.5429182   600787 
 6418000    1.4090024    -3.523077   -1.9785424   0.15912174    -3.523077    1.5445347   600799 
 6419000    1.4087203   -3.5234778   -1.9793037   0.16325189   -3.5234778    1.5441741   600819 
 6420000    1.4096137   -3.5242989   -1.9792047   0.16398147   -3.5242989    1.5450942   600842 
 6421000    1.4096276   -3.5244138   -1.9793507   0.15761253   -3.5244138    1.5450631   600860 
 6422000    1.4086181   -3.5226157    -1.978713   0.16840818   -3.5226157    1.5439027   600881 
 6423000    1.4098097   -3.5239708   -1.9788315   0.16922968   -3.5239708    1.5451393   600908 
 6424000    1.4090437   -3.5233504   -1.9790815   0.16502091   -3.5233504    1.5442689   600920 
 6425000     1.410122   -3.5246046   -1.9791976   0.16521636   -3.5246046     1.545407   600937 
 6426000    1.4098469   -3.5255616   -1.9805126   0.16885089   -3.5255616     1.545049   600959 
 6427000    1.4091163   -3.5249801   -1.9807627   0.16112496   -3.5249801    1.5442174   600971 
 6428000    1.4099673   -3.5261265   -1.9810124   0.16731356   -3.5261265    1.5451141   600985 
 6429000    1.4088305   -3.5246682   -1.9808436   0.16410985   -3.5246682    1.5438247   601002 
 6430000    1.4078888   -3.5236723   -1.9809437   0.16298819   -3.5236723    1.5427285   601027 
 6431000    1.4088327   -3.5244489    -1.980735   0.16153993   -3.5244489     1.543714   601046 
 6432000    1.4085348   -3.5241388    -1.980818   0.15947725   -3.5241388    1.5433208   601072 
 6433000    1.4087353   -3.5236794   -1.9801928   0.16559957   -3.5236794    1.5434866   601093 
 6434000    1.4096927   -3.5241232   -1.9796519   0.16526322   -3.5241232    1.5444714   601118 
 6435000    1.4097983   -3.5237586   -1.9792049   0.16435817   -3.5237586    1.5445537   601131 
 6436000    1.4109629    -3.524793   -1.9789712   0.15381367    -3.524793    1.5458218   601134 
 6437000    1.4102844   -3.5245262   -1.9794838   0.17119671   -3.5245262    1.5450425   601148 
 6438000    1.4097943   -3.5240717   -1.9796072   0.16725337   -3.5240717    1.5444645   601164 
 6439000    1.4105301   -3.5239333   -1.9787038   0.16449246   -3.5239333    1.5452294   601180 
 6440000     1.410405   -3.5243257   -1.9792848   0.16407395   -3.5243257    1.5450409   601200 
 6441000    1.4111373   -3.5249467   -1.9791498   0.16535111   -3.5249467    1.5457969   601218 
 6442000     1.411727   -3.5262351   -1.9798514   0.16813705   -3.5262351    1.5463837   601241 
 6443000    1.4100879    -3.524204   -1.9796646   0.16330166    -3.524204    1.5445394   601260 
 6444000    1.4107988   -3.5248378   -1.9795864   0.16916883   -3.5248378    1.5452514   601286 
 6445000    1.4121381    -3.526195   -1.9795256   0.16172051    -3.526195    1.5466694   601305 
 6446000    1.4112944   -3.5260823   -1.9803729   0.16308234   -3.5260823    1.5457094   601319 
 6447000    1.4105248   -3.5252403   -1.9804228   0.17475755   -3.5252403    1.5448176   601338 
 6448000    1.4116809   -3.5268586   -1.9808108   0.16107976   -3.5268586    1.5460477   601352 
 6449000    1.4107207   -3.5263038   -1.9813514   0.16505203   -3.5263038    1.5449525   601369 
 6450000    1.4120052   -3.5265381   -1.9802149   0.16081039   -3.5265381    1.5463232   601383 
 6451000     1.410631   -3.5256048   -1.9808558   0.16580528   -3.5256048    1.5447489   601410 
 6452000    1.4118204   -3.5275176   -1.9814688   0.15965035   -3.5275176    1.5460488   601411 
 6453000    1.4104208   -3.5247207   -1.9802815   0.16698641   -3.5247207    1.5444392   601441 
 6454000    1.4105973    -3.524629     -1.98003   0.16574797    -3.524629     1.544599   601454 
 6455000    1.4106405   -3.5246477   -1.9800321   0.16272707   -3.5246477    1.5446156   601466 
 6456000     1.410556   -3.5260157    -1.981521   0.16750274   -3.5260157    1.5444947   601477 
 6457000    1.4113144   -3.5265555   -1.9812766   0.16199969   -3.5265555    1.5452789   601495 
 6458000    1.4119228   -3.5264817     -1.98057   0.16547258   -3.5264817    1.5459117   601508 
 6459000    1.4109015    -3.525734   -1.9809842    0.1635309    -3.525734    1.5447498   601525 
 6460000    1.4099168   -3.5242423   -1.9805783   0.16814811   -3.5242423     1.543664   601528 
 6461000    1.4106338   -3.5251241    -1.980729   0.16636087   -3.5251241    1.5443951   601549 
 6462000    1.4118873   -3.5275683   -1.9818394   0.16217862   -3.5275683    1.5457289   601564 
 6463000    1.4097427   -3.5254031   -1.9820452   0.16348451   -3.5254031    1.5433579   601573 
 6464000    1.4097484   -3.5253962   -1.9820808   0.16681836   -3.5253962    1.5433154   601592 
 6465000    1.4107818   -3.5274388   -1.9830306   0.16144849   -3.5274388    1.5444082   601607 
 6466000    1.4097536   -3.5262266   -1.9830055   0.16539389   -3.5262266     1.543221   601631 
 6467000    1.4118864   -3.5278465   -1.9822984   0.15680216   -3.5278465    1.5455481   601634 
 6468000    1.4113434   -3.5276296   -1.9826991   0.16141702   -3.5276296    1.5449306   601643 
 6469000     1.411857   -3.5280991   -1.9826371   0.16007874   -3.5280991     1.545462   601655 
 6470000    1.4106484   -3.5274709   -1.9833652   0.16132075   -3.5274709    1.5441057   601668 
 6471000    1.4113013   -3.5277544   -1.9830188   0.16221418   -3.5277544    1.5447356   601701 
 6472000     1.411196   -3.5282703   -1.9836808   0.16555039   -3.5282703    1.5445895   601713 
 6473000    1.4110228    -3.528847    -1.984483   0.16839339    -3.528847     1.544364   601727 
 6474000    1.4112421   -3.5287928   -1.9842274   0.16822912   -3.5287928    1.5445655   601742 
 6475000    1.4110963   -3.5280795   -1.9837224   0.17041631   -3.5280795    1.5443571   601761 
 6476000    1.4100368   -3.5269351   -1.9837811   0.16661461   -3.5269351     1.543154   601778 
 6477000    1.4116187   -3.5286524   -1.9838057   0.16471211   -3.5286524    1.5448467   601793 
 6478000    1.4089761    -3.525653   -1.9837572   0.16666662    -3.525653    1.5418958   601816 
 6479000    1.4112599   -3.5281117   -1.9837295    0.1646443   -3.5281117    1.5443822   601821 
 6480000    1.4114031   -3.5286957   -1.9841747   0.16302825   -3.5286957     1.544521   601828 
 6481000    1.4099672   -3.5283664   -1.9854782   0.17290476   -3.5283664    1.5428881   601852 
 6482000    1.4112408   -3.5295464   -1.9853211   0.16059365   -3.5295464    1.5442253   601874 
 6483000    1.4105221   -3.5289083   -1.9855079   0.16460581   -3.5289083    1.5434004   601889 
 6484000    1.4110234   -3.5299705   -1.9860677    0.1593231   -3.5299705    1.5439028   601907 
 6485000    1.4107348   -3.5295901   -1.9860082   0.16183829   -3.5295901    1.5435819   601909 
 6486000    1.4093037   -3.5276921   -1.9857145   0.16240088   -3.5276921    1.5419776   601924 
 6487000     1.410959   -3.5293999   -1.9856547   0.16118945   -3.5293999    1.5437451   601941 
 6488000    1.4096425   -3.5280039    -1.985753   0.16250309   -3.5280039    1.5422509   601962 
 6489000    1.4110804   -3.5285031   -1.9847252   0.15928334   -3.5285031     1.543778   601980 
 6490000    1.4122722   -3.5288675   -1.9838242   0.16574799   -3.5288675    1.5450433   601995 
 6491000    1.4122936   -3.5289677   -1.9839523   0.16193897   -3.5289677    1.5450154   602015 
 6492000    1.4124257   -3.5295877    -1.984474   0.15987781   -3.5295877    1.5451137   602033 
 6493000    1.4109138   -3.5282481   -1.9848191   0.17010026   -3.5282481     1.543429   602045 
 6494000    1.4102307    -3.528983     -1.98635   0.16811639    -3.528983    1.5426331   602064 
 6495000    1.4100516   -3.5281613    -1.985755   0.16485027   -3.5281613    1.5424064   602076 
 6496000    1.4095868   -3.5271709    -1.985319   0.17353503   -3.5271709    1.5418519   602094 
 6497000     1.411852   -3.5288055   -1.9845527   0.16400401   -3.5288055    1.5442527   602124 
 6498000    1.4129015   -3.5295483   -1.9841862   0.16279383   -3.5295483    1.5453622   602139 
 6499000    1.4126539   -3.5309228   -1.9858596   0.16276037   -3.5309228    1.5450631   602150 
 6500000    1.4122871   -3.5313395   -1.9867212   0.15871795   -3.5313395    1.5446183   602167 
 6501000    1.4129065   -3.5312795     -1.98603   0.16114486   -3.5312795    1.5452495   602185 
 6502000    1.4132093   -3.5314451   -1.9859055   0.15972371   -3.5314451    1.5455396   602201 
 6503000     1.412471   -3.5307166    -1.986028   0.16662446   -3.5307166    1.5446886   602218 
 6504000     1.412965   -3.5310123    -1.985804   0.16525705   -3.5310123    1.5452083   602226 
 6505000    1.4104964   -3.5294728   -1.9870102   0.16582326   -3.5294728    1.5424626   602244 
 6506000    1.4126988   -3.5316324   -1.9867922   0.16269411   -3.5316324    1.5448402   602256 
 6507000    1.4104064    -3.529874   -1.9875662    0.1660922    -3.529874    1.5423078   602266 
 6508000    1.4107744    -3.530627   -1.9879629   0.16352157    -3.530627    1.5426641   602284 
 6509000    1.4114123   -3.5310398   -1.9876935   0.17135765   -3.5310398    1.5433463   602290 
 6510000    1.4131335   -3.5318543   -1.9866618   0.16343715   -3.5318543    1.5451925   602304 
 6511000    1.4106479   -3.5302828   -1.9878416   0.16462424   -3.5302828    1.5424413   602317 
 6512000    1.4113181   -3.5309796   -1.9878644   0.16768472   -3.5309796    1.5431152   602340 
 6513000    1.4119668   -3.5304581   -1.9866798   0.16381712   -3.5304581    1.5437783   602358 
 6514000     1.412302   -3.5319674   -1.9878635   0.16689938   -3.5319674    1.5441038   602374 
 6515000    1.4118887   -3.5312182   -1.9876175   0.16946927   -3.5312182    1.5436006   602394 
 6516000    1.4125923   -3.5315397   -1.9871955   0.16229333   -3.5315397    1.5443442   602404 
 6517000    1.4109905   -3.5297934   -1.9872285   0.16626228   -3.5297934    1.5425649   602415 
 6518000    1.4107918   -3.5308498   -1.9885636   0.16758575   -3.5308498    1.5422862   602439 
 6519000     1.410865   -3.5311363    -1.988834    0.1669245   -3.5311363    1.5423023   602464 
 6520000    1.4113471   -3.5310641    -1.988268   0.16335066   -3.5310641     1.542796   602477 
 6521000     1.411077   -3.5303033   -1.9878486   0.16164043   -3.5303033    1.5424547   602495 
 6522000    1.4119322   -3.5314533   -1.9880946   0.16630702   -3.5314533    1.5433587   602507 
 6523000    1.4145134   -3.5336865   -1.9875705   0.16207157   -3.5336865     1.546116   602532 
 6524000    1.4118348   -3.5317727   -1.9886152   0.16303993   -3.5317727    1.5431575   602544 
 6525000    1.4108152   -3.5297005   -1.9877188    0.1703612   -3.5297005    1.5419817   602568 
 6526000    1.4125574   -3.5309657   -1.9871363   0.17046729   -3.5309657    1.5438294   602590 
 6527000    1.4134065   -3.5318824   -1.9871429   0.16674313   -3.5318824    1.5447395   602597 
 6528000     1.412873   -3.5306601   -1.9865652   0.16963898   -3.5306601    1.5440949   602621 
 6529000    1.4144253   -3.5319399   -1.9861742   0.16992579   -3.5319399    1.5457657   602631 
 6530000     1.413717   -3.5313719   -1.9864212   0.16891523   -3.5313719    1.5449507   602647 
 6531000    1.4165243    -3.534056   -1.9860734     0.168343    -3.534056    1.5479826   602661 
 6532000    1.4147475   -3.5336715   -1.9876639   0.16357694   -3.5336715    1.5460076   602674 
 6533000    1.4143581   -3.5322216   -1.9866575    0.1643902   -3.5322216    1.5455641   602681 
 6534000     1.413436   -3.5313288   -1.9868313   0.17050721   -3.5313288    1.5444974   602704 
 6535000    1.4129605   -3.5324043   -1.9884751    0.1651326   -3.5324043    1.5439292   602723 
 6536000     1.412452   -3.5327786   -1.9894486   0.16250449   -3.5327786      1.54333   602740 
 6537000    1.4129257   -3.5329812   -1.9891899   0.16334073   -3.5329812    1.5437913   602762 
 6538000    1.4127212   -3.5325937   -1.9890642   0.16576463   -3.5325937    1.5435295   602777 
 6539000    1.4143184    -3.532961   -1.9877301   0.16710921    -3.532961    1.5452309   602794 
 6540000    1.4143811   -3.5331724   -1.9879397   0.16615698   -3.5331724    1.5452328   602820 
 6541000     1.413208   -3.5321892    -1.988297   0.16818258   -3.5321892    1.5438923   602843 
 6542000     1.413246   -3.5312311   -1.9873486   0.17030684   -3.5312311    1.5438825   602863 
 6543000     1.414827   -3.5322031   -1.9866293   0.16754871   -3.5322031    1.5455738   602877 
 6544000    1.4154985   -3.5330888   -1.9868019   0.17084647   -3.5330888    1.5462869   602885 
 6545000    1.4153594   -3.5321359     -1.98606   0.16442922   -3.5321359    1.5460759   602908 
 6546000    1.4150812   -3.5323139   -1.9866033   0.16327536   -3.5323139    1.5457105   602932 
 6547000    1.4155802   -3.5324306   -1.9862032   0.16643679   -3.5324306    1.5462273   602943 
 6548000    1.4146787    -3.532224   -1.9870198   0.16472312    -3.532224    1.5452042   602958 
 6549000    1.4146816   -3.5318973   -1.9867309    0.1651685   -3.5318973    1.5451664   602974 
 6550000    1.4155699   -3.5336679   -1.9875697   0.16421532   -3.5336679    1.5460982   602989 
 6551000    1.4139143    -3.532332   -1.9880883   0.16627803    -3.532332    1.5442438   603007 
 6552000    1.4124409   -3.5307674   -1.9881687    0.1709495   -3.5307674    1.5425987   603021 
 6553000    1.4154688   -3.5334666   -1.9876045   0.16895623   -3.5334666    1.5458622   603038 
 6554000    1.4149208   -3.5331596   -1.9879447   0.17481361   -3.5331596    1.5452149   603057 
 6555000    1.4165356   -3.5341686   -1.9872697   0.17137661   -3.5341686     1.546899   603088 
 6556000    1.4182375   -3.5348117   -1.9861081   0.16447178   -3.5348117    1.5487036   603109 
 6557000    1.4170239   -3.5344429   -1.9871159   0.16204238   -3.5344429     1.547327   603129 
 6558000    1.4164375   -3.5340264    -1.987386    0.1720833   -3.5340264    1.5466405   603147 
 6559000    1.4158343   -3.5344374    -1.988458   0.17077366   -3.5344374    1.5459793   603148 
 6560000    1.4148816   -3.5346857   -1.9897826   0.16361915   -3.5346857    1.5449031   603162 
 6561000    1.4145661   -3.5344032   -1.9898856   0.16875847   -3.5344032    1.5445176   603178 
 6562000    1.4135803   -3.5331888    -1.989791   0.16664418   -3.5331888    1.5433979   603195 
 6563000    1.4163084   -3.5356275   -1.9892947    0.1630053   -3.5356275    1.5463329   603212 
 6564000    1.4149666   -3.5342525   -1.9894204   0.16520982   -3.5342525    1.5448321   603226 
 6565000    1.4154996   -3.5356876   -1.9903044   0.16828351   -3.5356876    1.5453832   603238 
 6566000    1.4141314   -3.5348682   -1.9910273   0.16179057   -3.5348682    1.5438409   603257 
 6567000    1.4139118   -3.5342659   -1.9907006   0.16297825   -3.5342659    1.5435652   603271 
 6568000    1.4137281   -3.5336964   -1.9903956   0.16709097   -3.5336964    1.5433008   603296 
 6569000    1.4153446   -3.5349638   -1.9899393   0.16988542   -3.5349638    1.5450245   603312 
 6570000    1.4165792   -3.5363554    -1.990014   0.16856062   -3.5363554    1.5463414   603324 
 6571000      1.41619   -3.5367442   -1.9908635   0.15881747   -3.5367442    1.5458807   603338 
 6572000    1.4143009   -3.5349585   -1.9912013   0.16909706   -3.5349585    1.5437572   603362 
 6573000    1.4134342    -3.534425    -1.991642   0.16871211    -3.534425     1.542783   603373 
 6574000    1.4151572   -3.5364686    -1.991851   0.16625113   -3.5364686    1.5446176   603391 
 6575000    1.4138085   -3.5351879   -1.9920679   0.16359758   -3.5351879      1.54312   603401 
 6576000    1.4140688   -3.5343177   -1.9909648   0.16933333   -3.5343177     1.543353   603421 
 6577000    1.4139155   -3.5339488   -1.9907785   0.16966376   -3.5339488    1.5431703   603427 
 6578000    1.4143058   -3.5344884   -1.9909459   0.16887449   -3.5344884    1.5435425   603448 
 6579000    1.4155691   -3.5356508   -1.9907833   0.16210273   -3.5356508    1.5448675   603469 
 6580000     1.416203   -3.5364205   -1.9909201   0.17087617   -3.5364205    1.5455004   603492 
 6581000     1.414797   -3.5354581   -1.9915561   0.16794607   -3.5354581    1.5439021   603517 
 6582000    1.4149544   -3.5359459   -1.9919053   0.17283853   -3.5359459    1.5440406   603530 
 6583000    1.4171525   -3.5370227   -1.9906015   0.17165309   -3.5370227    1.5464212   603537 
 6584000    1.4138084   -3.5342426   -1.9914959   0.17165444   -3.5342426    1.5427466   603547 
 6585000     1.415136   -3.5345712   -1.9904372   0.17256799   -3.5345712    1.5441339   603571 
 6586000    1.4166814   -3.5362532   -1.9904818   0.16606406   -3.5362532    1.5457715   603590 
 6587000     1.416911   -3.5365591   -1.9905601   0.17084775   -3.5365591     1.545999   603599 
 6588000    1.4169199   -3.5370669   -1.9910684   0.16316249   -3.5370669    1.5459984   603603 
 6589000    1.4144253   -3.5347602   -1.9914939    0.1738512   -3.5347602    1.5432663   603607 
 6590000    1.4161921   -3.5363848   -1.9912471   0.16955174   -3.5363848    1.5451377   603629 
 6591000    1.4158392   -3.5363964    -1.991677   0.17030428   -3.5363964    1.5447194   603642 
 6592000    1.4155022   -3.5367442   -1.9924052   0.16407742   -3.5367442     1.544339   603647 
 6593000    1.4160781   -3.5371251   -1.9921962    0.1717227   -3.5371251    1.5449289   603662 
 6594000    1.4162226   -3.5371463   -1.9921007   0.16710895   -3.5371463    1.5450456   603678 
 6595000    1.4161282   -3.5368013    -1.991938   0.17466784   -3.5368013    1.5448633   603709 
 6596000    1.4146984   -3.5358555   -1.9925724   0.16735626   -3.5358555    1.5432831   603717 
 6597000    1.4178681   -3.5375994   -1.9908893   0.16764555   -3.5375994    1.5467101   603729 
 6598000    1.4175695   -3.5371866   -1.9908791   0.17135981   -3.5371866    1.5463075   603759 
 6599000    1.4179793   -3.5383953   -1.9916791   0.17245726   -3.5383953    1.5467161   603774 
 6600000    1.4155054   -3.5370225   -1.9930739   0.16854211   -3.5370225    1.5439486   603801 
 6601000    1.4152123   -3.5364781   -1.9928671   0.17642612   -3.5364781     1.543611   603808 
 6602000    1.4157538   -3.5371873   -1.9930369   0.17022926   -3.5371873    1.5441505   603828 
 6603000     1.416571   -3.5386542   -1.9936482   0.16720576   -3.5386542     1.545006   603842 
 6604000    1.4155202   -3.5381224   -1.9942983   0.17127494   -3.5381224    1.5438241   603856 
 6605000    1.4159733   -3.5385451   -1.9942754   0.16304243   -3.5385451    1.5442697   603875 
 6606000     1.417969   -3.5395484    -1.993133   0.16659013   -3.5395484    1.5464155   603887 
 6607000    1.4162619   -3.5383922   -1.9938666   0.17407954   -3.5383922    1.5445256   603898 
 6608000    1.4167447    -3.538808   -1.9937763   0.17026152    -3.538808    1.5450317   603906 
 6609000    1.4165311   -3.5383814   -1.9936159   0.17215043   -3.5383814    1.5447655   603919 
 6610000    1.4170937   -3.5386873   -1.9933518   0.17455678   -3.5386873    1.5453355   603936 
 6611000    1.4178219   -3.5387217   -1.9926279   0.17074851   -3.5387217    1.5460938   603950 
 6612000    1.4189615   -3.5391814   -1.9919115   0.17432209   -3.5391814    1.5472699   603976 
 6613000    1.4157488   -3.5361558    -1.992384   0.17015791   -3.5361558    1.5437718   603974 
 6614000    1.4165678   -3.5373672   -1.9927459   0.16946692   -3.5373672    1.5446213   603991 
 6615000    1.4164557   -3.5387009   -1.9942325   0.16676825   -3.5387009    1.5444685   604003 
 6616000    1.4183912    -3.539597   -1.9930565   0.16941364    -3.539597    1.5465405   604018 
 6617000    1.4179033   -3.5393334   -1.9933864   0.16364416   -3.5393334     1.545947   604042 
 6618000    1.4182384   -3.5398918   -1.9936459    0.1707537   -3.5398918    1.5462459   604068 
 6619000    1.4170666   -3.5383803   -1.9934606   0.17136107   -3.5383803    1.5449197   604087 
 6620000    1.4159003   -3.5373549   -1.9937528   0.16550719   -3.5373549    1.5436022   604105 
 6621000    1.4167603   -3.5371257   -1.9926397   0.17082654   -3.5371257     1.544486   604126 
 6622000     1.418131    -3.538823   -1.9928939   0.17344008    -3.538823    1.5459291   604146 
 6623000    1.4189986   -3.5392397   -1.9923981   0.16927707   -3.5392397    1.5468416   604159 
 6624000    1.4184484   -3.5385449   -1.9923543   0.16774056   -3.5385449    1.5461906   604179 
 6625000    1.4171024    -3.537411   -1.9927208   0.17329853    -3.537411    1.5446902   604192 
 6626000    1.4190637   -3.5393399   -1.9925579   0.16842217   -3.5393399     1.546782   604210 
 6627000    1.4176071   -3.5377391   -1.9925883    0.1760671   -3.5377391    1.5451509   604227 
 6628000    1.4194671    -3.539774   -1.9926444   0.16961257    -3.539774    1.5471295   604246 
 6629000    1.4182285     -3.53973   -1.9940144   0.17120051     -3.53973    1.5457156   604271 
 6630000    1.4156402    -3.536972   -1.9941029   0.17403268    -3.536972    1.5428691   604281 
 6631000    1.4169698   -3.5387071   -1.9944324   0.17098335   -3.5387071    1.5442747   604298 
 6632000    1.4186907    -3.540609   -1.9945048    0.1628595    -3.540609    1.5461042   604316 
 6633000     1.418156   -3.5404293   -1.9949538   0.16768819   -3.5404293    1.5454755   604334 
 6634000    1.4168221    -3.540585   -1.9965913   0.16860639    -3.540585    1.5439936   604345 
 6635000    1.4159362   -3.5402494   -1.9972645   0.16596941   -3.5402494    1.5429849   604362 
 6636000    1.4159979   -3.5409288   -1.9979252   0.17065652   -3.5409288    1.5430036   604381 
 6637000    1.4177851   -3.5433047   -1.9983868   0.16585448   -3.5433047    1.5449178   604394 
 6638000    1.4181661   -3.5422414   -1.9969544   0.16865851   -3.5422414     1.545287   604412 
 6639000    1.4176009   -3.5418485   -1.9972463   0.16953155   -3.5418485    1.5446022   604439 
 6640000    1.4182563   -3.5422537   -1.9969912   0.16686086   -3.5422537    1.5452625   604460 
 6641000    1.4176999    -3.540778   -1.9961804   0.17086189    -3.540778    1.5445976   604483 
 6642000    1.4189332   -3.5424495   -1.9965312   0.16832909   -3.5424495    1.5459183   604492 
 6643000    1.4180199   -3.5417419   -1.9968595   0.16996398   -3.5417419    1.5448824   604508 
 6644000    1.4170542   -3.5413889   -1.9975893   0.17178143   -3.5413889    1.5437996   604520 
 6645000    1.4171889   -3.5412959   -1.9973777    0.1701165   -3.5412959    1.5439182   604531 
 6646000    1.4178236   -3.5415406   -1.9970127   0.16883515   -3.5415406    1.5445279   604563 
 6647000    1.4176405   -3.5425622   -1.9982822   0.16757731   -3.5425622      1.54428   604582 
 6648000    1.4166776   -3.5413963   -1.9981985   0.16449544   -3.5413963    1.5431978   604595 
 6649000    1.4167251   -3.5415297   -1.9983184    0.1702997   -3.5415297    1.5432113   604610 
 6650000    1.4170576   -3.5405739   -1.9970182   0.17495457   -3.5405739    1.5435556   604617 
 6651000    1.4172282   -3.5407468   -1.9970334   0.17526628   -3.5407468    1.5437134   604628 
 6652000    1.4196799   -3.5432074   -1.9968824   0.17220662   -3.5432074     1.546325   604651 
 6653000    1.4187743   -3.5440312   -1.9987386   0.16337058   -3.5440312    1.5452926   604669 
 6654000    1.4183317   -3.5428702   -1.9981286   0.16623745   -3.5428702    1.5447416   604696 
 6655000    1.4178619   -3.5419244   -1.9977328   0.16959693   -3.5419244    1.5441916   604711 
 6656000    1.4174571   -3.5431281   -1.9994079    0.1726708   -3.5431281    1.5437202   604723 
 6657000       1.4178   -3.5432919   -1.9992417   0.17122798   -3.5432919    1.5440502   604740 
 6658000     1.417871   -3.5444671   -2.0003906   0.16648869   -3.5444671    1.5440765   604760 
 6659000    1.4162926    -3.542837   -2.0005253   0.16626111    -3.542837    1.5423117   604778 
 6660000    1.4175861   -3.5433048   -1.9996663   0.16713164   -3.5433048    1.5436385   604810 
 6661000    1.4171503   -3.5428954    -1.999808   0.16164758   -3.5428954    1.5430874   604840 
 6662000    1.4174367   -3.5441272   -2.0007738   0.16533901   -3.5441272    1.5433534   604858 
 6663000     1.417024   -3.5437548   -2.0008763   0.16579639   -3.5437548    1.5428785   604868 
 6664000    1.4181419   -3.5446147   -2.0005675   0.17043374   -3.5446147    1.5440472   604887 
 6665000    1.4173044   -3.5440933   -2.0010038   0.16996514   -3.5440933    1.5430895   604905 
 6666000      1.41809   -3.5454853    -2.001566   0.16318631   -3.5454853    1.5439192   604915 
 6667000    1.4184546   -3.5454342   -2.0011894   0.17265071   -3.5454342    1.5442447   604943 
 6668000     1.418537   -3.5452434   -2.0009421   0.17203929   -3.5452434    1.5443012   604956 
 6669000    1.4177425   -3.5434733    -2.000088   0.17356075   -3.5434733    1.5433853   604976 
 6670000    1.4171965   -3.5424358   -1.9996883   0.17284983   -3.5424358    1.5427475   604993 
 6671000    1.4185377   -3.5436438   -1.9994541   0.17425433   -3.5436438    1.5441896   605000 
 6672000    1.4182782   -3.5438899   -2.0000389   0.17112645   -3.5438899     1.543851   605022 
 6673000    1.4178968   -3.5438339   -2.0004389   0.17102031   -3.5438339     1.543395   605038 
 6674000    1.4174607   -3.5443058   -2.0014339   0.16772024   -3.5443058    1.5428719   605057 
 6675000    1.4189043   -3.5451783    -2.000804   0.17151728   -3.5451783    1.5443743   605084 
 6676000    1.4177121   -3.5443204   -2.0012998   0.17477896   -3.5443204    1.5430206   605106 
 6677000    1.4179451   -3.5438588   -2.0006382   0.16904888   -3.5438588    1.5432206   605127 
 6678000    1.4195897   -3.5450248   -2.0000219     0.168777   -3.5450248    1.5450029   605130 
 6679000      1.41901   -3.5428169   -1.9984934   0.17315426   -3.5428169    1.5443235   605149 
 6680000    1.4176673   -3.5425551   -1.9997235    0.1754257   -3.5425551    1.5428316   605161 
 6681000    1.4197855   -3.5444736   -1.9993904   0.16922085   -3.5444736    1.5450832   605182 
 6682000    1.4180106   -3.5430982   -1.9999695   0.17465274   -3.5430982    1.5431286   605191 
 6683000    1.4188828   -3.5442601   -2.0002308   0.17154343   -3.5442601    1.5440293   605210 
 6684000    1.4193772   -3.5448709    -2.000352    0.1752272   -3.5448709    1.5445189   605229 
 6685000    1.4183069   -3.5444597   -2.0011361   0.17356278   -3.5444597    1.5433237   605241 
 6686000    1.4190903   -3.5452629   -2.0011532   0.17233217   -3.5452629    1.5441097   605267 
 6687000    1.4186366   -3.5447047   -2.0011217   0.16432519   -3.5447047     1.543583   605280 
 6688000    1.4195018   -3.5446066   -2.0000873   0.17032416   -3.5446066    1.5445192   605282 
 6689000    1.4197941   -3.5459341   -2.0011249   0.16953663   -3.5459341    1.5448092   605293 
 6690000    1.4182893   -3.5451144   -2.0019604   0.17680412   -3.5451144    1.5431541   605300 
 6691000    1.4194147   -3.5458763   -2.0015054    0.1740401   -3.5458763    1.5443709   605303 
 6692000    1.4189801   -3.5461057   -2.0022434   0.17291305   -3.5461057    1.5438623   605317 
 6693000      1.41971   -3.5475803    -2.002952   0.16863763   -3.5475803    1.5446283   605328 
 6694000    1.4199009   -3.5477268   -2.0029239   0.17507372   -3.5477268    1.5448029   605341 
 6695000    1.4194005   -3.5471179   -2.0028823   0.16668832   -3.5471179    1.5442356   605350 
 6696000    1.4195632   -3.5471095   -2.0027353   0.16564224   -3.5471095    1.5443742   605365 
 6697000    1.4205733   -3.5478034   -2.0023634   0.16563015   -3.5478034      1.54544   605378 
 6698000    1.4196551   -3.5470733   -2.0026858    0.1793437   -3.5470733    1.5443875   605399 
 6699000    1.4189536   -3.5472286   -2.0036604   0.16941105   -3.5472286    1.5435683   605421 
 6700000    1.4191588    -3.548012   -2.0042561   0.15865222    -3.548012    1.5437558   605435 
 6701000    1.4177827   -3.5457295   -2.0034987   0.16793535   -3.5457295    1.5422308   605446 
 6702000    1.4187548   -3.5469998   -2.0037523   0.17656394   -3.5469998    1.5432475   605462 
 6703000    1.4202633   -3.5486931   -2.0038354    0.1717211   -3.5486931    1.5448577   605474 
 6704000     1.419076   -3.5468334     -2.00329   0.17215757   -3.5468334    1.5435434   605483 
 6705000    1.4195357   -3.5476205   -2.0036153   0.16537748   -3.5476205    1.5440051   605498 
 6706000    1.4193571   -3.5464033   -2.0026409   0.17270358   -3.5464033    1.5437624   605517 
 6707000     1.419841   -3.5473287   -2.0030756   0.16934549   -3.5473287    1.5442531   605531 
 6708000    1.4192316   -3.5471572   -2.0036001    0.1724396   -3.5471572    1.5435571   605544 
 6709000    1.4194563   -3.5479487   -2.0041702   0.16963705   -3.5479487    1.5437785   605553 
 6710000    1.4196242   -3.5473723   -2.0034621   0.17127327   -3.5473723    1.5439102   605573 
 6711000    1.4183308   -3.5465484   -2.0040653   0.17417691   -3.5465484    1.5424831   605581 
 6712000    1.4170446   -3.5450423   -2.0039936   0.17721156   -3.5450423    1.5410487   605595 
 6713000    1.4188696   -3.5469283   -2.0039255    0.1690951   -3.5469283    1.5430028   605607 
 6714000      1.41855   -3.5469592   -2.0043574   0.17248258   -3.5469592    1.5426018   605628 
 6715000    1.4186794   -3.5468336   -2.0041344   0.17233775   -3.5468336    1.5426992   605645 
 6716000    1.4193659   -3.5471437   -2.0037336    0.1746817   -3.5471437    1.5434101   605659 
 6717000    1.4192705   -3.5485073   -2.0052469   0.16615994   -3.5485073    1.5432604   605677 
 6718000    1.4169007    -3.547083   -2.0064273   0.16736815    -3.547083    1.5406557   605688 
 6719000    1.4186233   -3.5489096   -2.0064294   0.16592951   -3.5489096    1.5424803   605707 
 6720000    1.4184794   -3.5483732   -2.0060698   0.16754116   -3.5483732    1.5423034   605715 
 6721000     1.419751   -3.5495918    -2.005972   0.16760813   -3.5495918    1.5436198   605741 
 6722000    1.4180502     -3.54905   -2.0073429      0.16543     -3.54905     1.541707   605766 
 6723000    1.4187415   -3.5489436   -2.0065131   0.17194944   -3.5489436    1.5424305   605777 
 6724000    1.4182944    -3.548751   -2.0068421   0.16989239    -3.548751    1.5419089   605791 
 6725000    1.4181587   -3.5492574   -2.0075113   0.16786683   -3.5492574    1.5417461   605797 
 6726000    1.4177879   -3.5485048   -2.0072127   0.17256047   -3.5485048    1.5412921   605817 
 6727000    1.4168416   -3.5480778   -2.0078679   0.17014733   -3.5480778    1.5402099   605838 
 6728000    1.4191762   -3.5493395   -2.0066197   0.17143881   -3.5493395    1.5427198   605849 
 6729000    1.4194386   -3.5495793   -2.0066176   0.16907249   -3.5495793    1.5429617   605866 
 6730000    1.4197046   -3.5504878    -2.007265   0.16987714   -3.5504878    1.5432229   605877 
 6731000    1.4199135   -3.5512654   -2.0078817   0.17282631   -3.5512654    1.5433837   605903 
 6732000    1.4185028   -3.5508447   -2.0090427   0.16904682   -3.5508447     1.541802   605922 
 6733000    1.4195746   -3.5515928   -2.0086641   0.16538788   -3.5515928    1.5429288   605937 
 6734000    1.4203764   -3.5510976   -2.0073407   0.16916453   -3.5510976    1.5437569   605954 
 6735000     1.417957   -3.5488745   -2.0077828   0.17001587   -3.5488745    1.5410917   605968 
 6736000    1.4174822    -3.548885    -2.008355   0.16598388    -3.548885      1.54053   605986 
 6737000     1.419659   -3.5515436   -2.0086861   0.16928867   -3.5515436    1.5428575   606001 
 6738000    1.4182944   -3.5494523   -2.0081185   0.17601973   -3.5494523    1.5413338   606017 
 6739000    1.4187431   -3.5504726   -2.0086741   0.17142189   -3.5504726    1.5417985   606026 
 6740000     1.419928   -3.5500757   -2.0070277   0.16747134   -3.5500757    1.5430481   606041 
 6741000    1.4180453   -3.5483379   -2.0073612   0.17412166   -3.5483379    1.5409766   606051 
 6742000    1.4205011   -3.5517577   -2.0081505   0.17192434   -3.5517577    1.5436072   606066 
 6743000    1.4218845   -3.5523065   -2.0072292   0.17115588   -3.5523065    1.5450773   606079 
 6744000     1.419918   -3.5508687   -2.0079995    0.1723447   -3.5508687    1.5428692   606107 
 6745000    1.4176275   -3.5488162   -2.0084918   0.17182293   -3.5488162    1.5403245   606129 
 6746000    1.4201741   -3.5524095   -2.0093639   0.16683634   -3.5524095    1.5430456   606147 
 6747000    1.4191299   -3.5505278   -2.0086498   0.16810303   -3.5505278     1.541878   606160 
 6748000    1.4203575   -3.5511928   -2.0079963   0.16874282   -3.5511928    1.5431965   606166 
 6749000    1.4208059   -3.5532328   -2.0095772   0.16985934   -3.5532328    1.5436556   606177 
 6750000    1.4191692   -3.5506318     -2.00879   0.16536667   -3.5506318    1.5418419   606191 
 6751000    1.4200395   -3.5515495   -2.0087952   0.16765383   -3.5515495    1.5427542   606204 
 6752000    1.4186061   -3.5502303    -2.009079   0.17307586   -3.5502303    1.5411512   606222 
 6753000    1.4184068   -3.5502029   -2.0092986   0.17217565   -3.5502029    1.5409043   606234 
 6754000    1.4191228   -3.5506138   -2.0089572   0.17599316   -3.5506138    1.5416567   606244 
 6755000    1.4211932   -3.5519004   -2.0080226   0.17411296   -3.5519004    1.5438778   606255 
 6756000    1.4212158   -3.5521508   -2.0082993   0.17194906   -3.5521508    1.5438514   606275 
 6757000    1.4216673   -3.5522981   -2.0080071   0.17053984   -3.5522981    1.5442909   606295 
 6758000    1.4215963   -3.5521331   -2.0079524   0.17197276   -3.5521331    1.5441807   606308 
 6759000    1.4206285   -3.5509975   -2.0079037   0.17776195   -3.5509975    1.5430938   606322 
 6760000    1.4206855   -3.5516453   -2.0085176     0.164124   -3.5516453    1.5431277   606333 
 6761000    1.4185476   -3.5487493   -2.0079768   0.17721513   -3.5487493    1.5407725   606346 
 6762000    1.4205173   -3.5505633   -2.0077098   0.17447611   -3.5505633    1.5428534   606369 
 6763000    1.4193378   -3.5503164   -2.0087872   0.17332314   -3.5503164    1.5415292   606386 
 6764000    1.4204075   -3.5508206   -2.0081729    0.1684054   -3.5508206    1.5426477   606403 
 6765000     1.420361   -3.5497684   -2.0071966   0.17591873   -3.5497684    1.5425718   606413 
 6766000    1.4225186    -3.552255   -2.0073782   0.17101715    -3.552255    1.5448768   606428 
 6767000    1.4203081   -3.5499113   -2.0074708   0.17706073   -3.5499113    1.5424405   606442 
 6768000    1.4214041   -3.5518821   -2.0083098   0.16757141   -3.5518821    1.5435722   606465 
 6769000     1.422199   -3.5534134    -2.009011   0.17036606   -3.5534134    1.5444024   606478 
 6770000    1.4207361   -3.5522839    -2.009516   0.17869577   -3.5522839    1.5427679   606496 
 6771000    1.4212467   -3.5529394   -2.0096551   0.17431393   -3.5529394    1.5432842   606511 
 6772000    1.4208367   -3.5524543   -2.0096686   0.17308016   -3.5524543    1.5427857   606532 
 6773000    1.4204481   -3.5522523    -2.009942   0.16960887   -3.5522523    1.5423103   606553 
 6774000    1.4212197    -3.552297     -2.00921   0.17022201    -3.552297     1.543087   606577 
 6775000    1.4205203   -3.5530053   -2.0107412   0.17316886   -3.5530053    1.5422641   606602 
 6776000    1.4199289   -3.5522823   -2.0107163   0.17286947   -3.5522823    1.5415661   606624 
 6777000    1.4211712   -3.5521339   -2.0092369   0.17334627   -3.5521339     1.542897   606631 
 6778000    1.4218288   -3.5540481   -2.0104779    0.1717755   -3.5540481    1.5435702   606647 
 6779000    1.4225214   -3.5545107   -2.0102345   0.17664084   -3.5545107    1.5442762   606665 
 6780000    1.4229819   -3.5543768   -2.0096235   0.17153273   -3.5543768    1.5447533   606674 
 6781000    1.4211154   -3.5526111   -2.0098994    0.1797646   -3.5526111    1.5427118   606680 
 6782000     1.424088   -3.5557792   -2.0098965   0.17197866   -3.5557792    1.5458827   606702 
 6783000    1.4220204    -3.553197   -2.0095918   0.17716486    -3.553197    1.5436052   606715 
 6784000    1.4225899   -3.5529021   -2.0087195   0.17604213   -3.5529021    1.5441827   606731 
 6785000    1.4232489    -3.554435   -2.0095447   0.17166351    -3.554435    1.5448903   606734 
 6786000    1.4234047   -3.5555306   -2.0105018   0.17110602   -3.5555306    1.5450288   606746 
 6787000    1.4218049   -3.5536888   -2.0104372   0.17788435   -3.5536888    1.5432517   606762 
 6788000    1.4221091   -3.5528845   -2.0093408   0.17365056   -3.5528845    1.5435437   606777 
 6789000     1.421846   -3.5537057   -2.0104984   0.17152386   -3.5537057    1.5432073   606797 
 6790000    1.4229328   -3.5559213   -2.0115625   0.16920325   -3.5559213    1.5443589   606808 
 6791000    1.4223097   -3.5549366   -2.0112972     0.171224   -3.5549366    1.5436394   606825 
 6792000       1.4195   -3.5524279    -2.011843   0.17222647   -3.5524279    1.5405849   606827 
 6793000    1.4203558   -3.5531951   -2.0117195   0.17923591   -3.5531951    1.5414756   606842 
 6794000    1.4200056   -3.5532154   -2.0121605   0.17515024   -3.5532154    1.5410549   606858 
 6795000    1.4208197   -3.5541677   -2.0122928   0.17309159   -3.5541677    1.5418749   606883 
 6796000    1.4209355   -3.5548042   -2.0128137   0.17031825   -3.5548042    1.5419904   606887 
 6797000    1.4205624   -3.5544649   -2.0129099   0.17131616   -3.5544649     1.541555   606899 
 6798000    1.4200969   -3.5529729   -2.0119636   0.17386721   -3.5529729    1.5410093   606915 
 6799000    1.4213695   -3.5533526   -2.0110031   0.17521465   -3.5533526    1.5423495   606931 
 6800000    1.4229925   -3.5549057   -2.0108358   0.17751089   -3.5549057    1.5440699   606947 
 6801000    1.4211607    -3.553388   -2.0113362   0.17702091    -3.553388    1.5420518   606959 
 6802000    1.4207664   -3.5527201   -2.0111444   0.17943558   -3.5527201    1.5415757   606978 
 6803000    1.4226599   -3.5542579   -2.0106836   0.17351507   -3.5542579    1.5435743   607000 
 6804000    1.4218127   -3.5538077   -2.0111907   0.18140848   -3.5538077     1.542617   607015 
 6805000    1.4231376   -3.5551549   -2.0111514   0.17309683   -3.5551549    1.5440035   607035 
 6806000    1.4214304   -3.5535734   -2.0114296   0.17803128   -3.5535734    1.5421438   607038 
 6807000    1.4225939   -3.5553003   -2.0119298    0.1719065   -3.5553003    1.5433705   607052 
 6808000    1.4218266   -3.5547769   -2.0122491   0.17282251   -3.5547769    1.5425278   607056 
 6809000    1.4204644   -3.5551347   -2.0141126   0.17253016   -3.5551347    1.5410221   607067 
 6810000     1.420784   -3.5548081   -2.0134748    0.1713678   -3.5548081    1.5413333   607081 
 6811000    1.4224097   -3.5562581   -2.0131993   0.16925737   -3.5562581    1.5430588   607096 
 6812000     1.422289   -3.5559013   -2.0130218   0.16919172   -3.5559013    1.5428795   607115 
 6813000    1.4216682   -3.5552671   -2.0130966   0.17701752   -3.5552671    1.5421706   607129 
 6814000      1.42444   -3.5564632   -2.0113293   0.16747235   -3.5564632     1.545134   607146 
 6815000    1.4233612   -3.5565832   -2.0126474   0.16735492   -3.5565832    1.5439358   607157 
 6816000    1.4223024   -3.5556295   -2.0128955   0.16968607   -3.5556295     1.542734   607178 
 6817000    1.4222972   -3.5554011   -2.0127006   0.17305844   -3.5554011    1.5427004   607189 
 6818000    1.4245388   -3.5571896   -2.0120782   0.17332624   -3.5571896    1.5451114   607197 
 6819000    1.4215603   -3.5549131    -2.013045   0.18016767   -3.5549131    1.5418681   607202 
 6820000    1.4223662   -3.5568475   -2.0141358   0.17490602   -3.5568475    1.5427117   607214 
 6821000    1.4206215   -3.5561698   -2.0153834   0.17127576   -3.5561698    1.5407864   607227 
 6822000    1.4214824   -3.5569806   -2.0152959   0.16534786   -3.5569806    1.5416846   607241 
 6823000    1.4222264   -3.5577657   -2.0153453     0.168422   -3.5577657    1.5424204   607269 
 6824000    1.4198939   -3.5565049   -2.0166522   0.17771265   -3.5565049    1.5398527   607284 
 6825000    1.4212204   -3.5575533   -2.0162899   0.16834386   -3.5575533    1.5412634   607295 
 6826000    1.4212554   -3.5580686   -2.0167952   0.17157802   -3.5580686    1.5412734   607306 
 6827000     1.419759   -3.5557501   -2.0161653   0.17328152   -3.5557501    1.5395847   607332 
 6828000    1.4222699   -3.5580274    -2.015768   0.17422866   -3.5580274    1.5422594   607351 
 6829000    1.4222504   -3.5584504   -2.0162198   0.17543996   -3.5584504    1.5422306   607354 
 6830000    1.4204922   -3.5565818   -2.0163212   0.17833318   -3.5565818    1.5402606   607379 
 6831000    1.4202539   -3.5562993   -2.0163326   0.17480516   -3.5562993    1.5399667   607393 
 6832000    1.4216046   -3.5575215   -2.0161638   0.17300643   -3.5575215    1.5413577   607422 
 6833000    1.4223443   -3.5584419   -2.0163279   0.16866786   -3.5584419     1.542114   607440 
 6834000     1.422969   -3.5593201   -2.0165974   0.16989157   -3.5593201    1.5427228   607467 
 6835000    1.4204918   -3.5570467   -2.0170629   0.17544199   -3.5570467    1.5399838   607488 
 6836000    1.4213045   -3.5572104   -2.0163861   0.17994784   -3.5572104    1.5408243   607504 
 6837000    1.4214107   -3.5573055    -2.016394   0.17322181   -3.5573055    1.5409116   607515 
 6838000    1.4228391   -3.5589244   -2.0165228   0.17025789   -3.5589244    1.5424016   607538 
 6839000     1.422509   -3.5581435   -2.0161454   0.17598571   -3.5581435    1.5419981   607556 
 6840000    1.4226212    -3.558615   -2.0165307   0.17794312    -3.558615    1.5420842   607570 
 6841000    1.4232028   -3.5589169    -2.016253   0.16938223   -3.5589169    1.5426638   607590 
 6842000    1.4226648   -3.5581082   -2.0160808   0.17250499   -3.5581082    1.5420274   607611 
 6843000     1.423737   -3.5594458   -2.0162893   0.17047218   -3.5594458    1.5431565   607624 
 6844000    1.4227442   -3.5584293   -2.0163895    0.1676696   -3.5584293    1.5420399   607640 
 6845000    1.4223897   -3.5576134    -2.015978   0.17181936   -3.5576134    1.5416353   607648 
 6846000    1.4218548   -3.5583583   -2.0173433   0.17443413   -3.5583583    1.5410151   607664 
 6847000    1.4230554   -3.5591254   -2.0168777   0.17456565   -3.5591254    1.5422477   607691 
 6848000    1.4225825   -3.5571855   -2.0154985   0.17830195   -3.5571855     1.541687   607710 
 6849000    1.4232716   -3.5590392   -2.0166308   0.17453378   -3.5590392    1.5424084   607720 
 6850000    1.4241995   -3.5600232   -2.0166474   0.16944622   -3.5600232    1.5433759   607735 
 6851000    1.4223713   -3.5599112   -2.0185622   0.17218027   -3.5599112     1.541349   607753 
 6852000    1.4228188   -3.5596118   -2.0178387   0.17693569   -3.5596118    1.5417731   607777 
 6853000    1.4226588    -3.559187   -2.0176329   0.17563802    -3.559187    1.5415541   607795 
 6854000    1.4253117   -3.5609393   -2.0165461   0.16907461   -3.5609393    1.5443931   607809 
 6855000     1.424674   -3.5609986   -2.0173448   0.17016816   -3.5609986    1.5436538   607828 
 6856000    1.4223304   -3.5581981    -2.017114   0.17500631   -3.5581981    1.5410842   607840 
 6857000    1.4235602   -3.5590775   -2.0167142   0.17846918   -3.5590775    1.5423633   607861 
 6858000    1.4237216   -3.5589055   -2.0163775   0.17507028   -3.5589055     1.542528   607865 
 6859000      1.42314   -3.5592357   -2.0173784   0.17447746   -3.5592357    1.5418573   607881 
 6860000    1.4246212   -3.5604769   -2.0170529   0.17057786   -3.5604769     1.543424   607896 
 6861000    1.4243127   -3.5590605   -2.0160189   0.17617377   -3.5590605    1.5430416   607915 
 6862000    1.4240495   -3.5583404   -2.0156449   0.17661506   -3.5583404    1.5426955   607939 
 6863000     1.423928    -3.558219   -2.0156907    0.1763958    -3.558219    1.5425283   607953 
 6864000    1.4250888   -3.5590357   -2.0152727   0.17815229   -3.5590357     1.543763   607962 
 6865000    1.4253711   -3.5594409   -2.0153772    0.1784931   -3.5594409    1.5440637   607964 
 6866000     1.425098    -3.560303   -2.0165809    0.1744003    -3.560303    1.5437222   607982 
 6867000    1.4243885    -3.559901   -2.0169931   0.17303714    -3.559901    1.5429079   608000 
 6868000    1.4262883   -3.5616556   -2.0167177    0.1783609   -3.5616556    1.5449379   608011 
 6869000    1.4252807   -3.5602409   -2.0164655   0.17606557   -3.5602409    1.5437754   608039 
 6870000      1.42385   -3.5589291   -2.0167466   0.17126162   -3.5589291    1.5421825   608056 
 6871000    1.4242342   -3.5594793   -2.0169211    0.1756948   -3.5594793    1.5425581   608072 
 6872000    1.4260822    -3.559271   -2.0147343   0.17509926    -3.559271    1.5445368   608081 
 6873000     1.426484   -3.5600216    -2.015075   0.17214025   -3.5600216    1.5449466   608091 
 6874000     1.424213   -3.5595232   -2.0170768   0.17365227   -3.5595232    1.5424464   608107 
 6875000    1.4249524   -3.5601124   -2.0169235   0.17425977   -3.5601124    1.5431888   608130 
 6876000    1.4238663    -3.559633   -2.0176737   0.17303129    -3.559633    1.5419593   608151 
 6877000    1.4227734   -3.5596266   -2.0189192   0.17451303   -3.5596266    1.5407074   608178 
 6878000    1.4251946   -3.5617017   -2.0184308   0.17735565   -3.5617017    1.5432709   608201 
 6879000    1.4246447   -3.5612232   -2.0185858   0.17594122   -3.5612232    1.5426374   608216 
 6880000    1.4248027   -3.5613061   -2.0185508   0.17254159   -3.5613061    1.5427553   608237 
 6881000    1.4251928   -3.5621166   -2.0189644   0.17214292   -3.5621166    1.5431523   608247 
 6882000    1.4226012    -3.560811   -2.0204877   0.17502207    -3.560811    1.5403234   608256 
 6883000    1.4234673   -3.5610459    -2.019838   0.17468488   -3.5610459    1.5412079   608277 
 6884000    1.4259152   -3.5627836   -2.0189609   0.17735674   -3.5627836    1.5438227   608291 
 6885000    1.4242246   -3.5618424   -2.0198779   0.17790578   -3.5618424    1.5419645   608302 
 6886000    1.4228895   -3.5605443   -2.0200531   0.17767798   -3.5605443    1.5404912   608313 
 6887000    1.4235392   -3.5616296   -2.0205136   0.17851729   -3.5616296     1.541116   608344 
 6888000    1.4267089   -3.5641913   -2.0196895   0.16740758   -3.5641913    1.5445018   608362 
 6889000    1.4238095   -3.5618132   -2.0204704   0.17302926   -3.5618132    1.5413428   608370 
 6890000    1.4243636   -3.5620629    -2.020133   0.18021867   -3.5620629      1.54193   608375 
 6891000    1.4254669   -3.5627052   -2.0196164   0.17192496   -3.5627052    1.5430888   608389 
 6892000    1.4241302   -3.5622753   -2.0206614   0.17505869   -3.5622753    1.5416139   608400 
 6893000    1.4258192   -3.5636457   -2.0202619   0.18038427   -3.5636457    1.5433839   608423 
 6894000    1.4255211   -3.5645503   -2.0215169   0.17382318   -3.5645503    1.5430333   608434 
 6895000    1.4251616   -3.5644785    -2.021885   0.17203343   -3.5644785    1.5425935   608454 
 6896000    1.4243153   -3.5638348   -2.0221928   0.17539591   -3.5638348     1.541642   608468 
 6897000    1.4235397   -3.5622775    -2.021546   0.17413713   -3.5622775    1.5407315   608496 
 6898000    1.4244824   -3.5639228   -2.0222165   0.17448956   -3.5639228    1.5417063   608514 
 6899000     1.423784   -3.5632016    -2.022274   0.17456668   -3.5632016    1.5409276   608523 
 6900000    1.4237876   -3.5636802   -2.0227891   0.17487401   -3.5636802    1.5408911   608539 
 6901000     1.425313   -3.5638543   -2.0213479   0.17639679   -3.5638543    1.5425064   608553 
 6902000    1.4248543   -3.5635088   -2.0215216   0.17712765   -3.5635088    1.5419872   608562 
 6903000    1.4262244   -3.5639907   -2.0205741   0.17017927   -3.5639907    1.5434166   608583 
 6904000    1.4281078   -3.5671332   -2.0217064   0.17199952   -3.5671332    1.5454269   608594 
 6905000    1.4267765    -3.566185   -2.0222648   0.17366544    -3.566185    1.5439202   608620 
 6906000    1.4265603    -3.565174   -2.0215004   0.17560052    -3.565174    1.5436736   608625 
 6907000    1.4241954   -3.5628392   -2.0217651   0.17747917   -3.5628392     1.541074   608641 
 6908000    1.4258317   -3.5658621   -2.0230352   0.17532528   -3.5658621    1.5428269   608648 
 6909000    1.4250231   -3.5656341   -2.0237328   0.16959903   -3.5656341    1.5419012   608668 
 6910000    1.4250764    -3.566152   -2.0242438   0.17493895    -3.566152    1.5419083   608688 
 6911000    1.4266535   -3.5661083   -2.0225266   0.17201172   -3.5661083    1.5435817   608701 
 6912000     1.424364   -3.5646069   -2.0235226   0.17140437   -3.5646069    1.5410843   608709 
 6913000    1.4242304   -3.5644775   -2.0235782   0.17209099   -3.5644775    1.5408992   608725 
 6914000     1.423428   -3.5637905   -2.0237897   0.17585324   -3.5637905    1.5400008   608737 
 6915000    1.4255828   -3.5652765   -2.0229773   0.17444193   -3.5652765    1.5422991   608750 
 6916000    1.4244445   -3.5642069   -2.0231671    0.1770081   -3.5642069    1.5410398   608761 
 6917000    1.4256748   -3.5654178   -2.0230875   0.17906625   -3.5654178    1.5423302   608777 
 6918000    1.4253528   -3.5665738   -2.0246325   0.17030372   -3.5665738    1.5419414   608793 
 6919000    1.4235091   -3.5639586   -2.0240396   0.17671576   -3.5639586     1.539919   608804 
 6920000    1.4243103   -3.5639082   -2.0231427   0.17389233   -3.5639082    1.5407655   608812 
 6921000    1.4259189   -3.5645674   -2.0221074   0.17631398   -3.5645674      1.54246   608830 
 6922000    1.4249178   -3.5646572   -2.0233029   0.17172104   -3.5646572    1.5413543   608839 
 6923000    1.4258649   -3.5654583   -2.0230997   0.17447289   -3.5654583    1.5423586   608847 
 6924000    1.4246417   -3.5634517   -2.0224289   0.17548774   -3.5634517    1.5410228   608852 
 6925000    1.4260784   -3.5650671   -2.0225385   0.17074151   -3.5650671    1.5425286   608871 
 6926000    1.4250878    -3.564809   -2.0234025   0.17203305    -3.564809    1.5414066   608891 
 6927000    1.4252428   -3.5642668   -2.0227281   0.17482287   -3.5642668    1.5415387   608905 
 6928000     1.426108   -3.5664233   -2.0239791   0.16464976   -3.5664233    1.5424442   608917 
 6929000    1.4248258   -3.5656833   -2.0246538   0.17995787   -3.5656833    1.5410295   608928 
 6930000    1.4244056   -3.5652921   -2.0247474   0.17810855   -3.5652921    1.5405447   608940 
 6931000    1.4250671   -3.5661995   -2.0249621   0.17625393   -3.5661995    1.5412374   608949 
 6932000    1.4241609   -3.5661015   -2.0258746   0.17536725   -3.5661015    1.5402269   608961 
 6933000    1.4234608   -3.5650605    -2.025616   0.17648689   -3.5650605    1.5394445   608971 
 6934000    1.4246514   -3.5671489   -2.0264953   0.17443919   -3.5671489    1.5406537   609002 
 6935000    1.4251221   -3.5684477   -2.0273205   0.16430465   -3.5684477    1.5411272   609016 
 6936000    1.4236228   -3.5665543   -2.0270938   0.16925249   -3.5665543    1.5394605   609034 
 6937000    1.4235753   -3.5655745   -2.0262463    0.1778192   -3.5655745    1.5393282   609066 
 6938000    1.4245944    -3.567817   -2.0274096   0.17607546    -3.567817    1.5404074   609075 
 6939000    1.4238745   -3.5684727    -2.028864   0.16841327   -3.5684727    1.5396087   609083 
 6940000    1.4223859   -3.5671744   -2.0292207   0.17626029   -3.5671744    1.5379537   609101 
 6941000     1.425396   -3.5688097   -2.0276367   0.17209956   -3.5688097    1.5411729   609115 
 6942000    1.4247549    -3.567177   -2.0267276   0.17520534    -3.567177    1.5404494   609127 
 6943000    1.4264181    -3.568477   -2.0262901   0.17467759    -3.568477    1.5421869   609151 
 6944000    1.4250208   -3.5678206   -2.0271798   0.17353488   -3.5678206    1.5406408   609165 
 6945000    1.4252732   -3.5669801   -2.0261221   0.18169887   -3.5669801     1.540858   609187 
 6946000    1.4268244   -3.5682596   -2.0257626   0.18142721   -3.5682596     1.542497   609202 
 6947000    1.4260096    -3.568056   -2.0264778   0.17589546    -3.568056    1.5415782   609217 
 6948000    1.4252025   -3.5668022   -2.0261546   0.17584432   -3.5668022    1.5406476   609240 
 6949000    1.4259959   -3.5678505   -2.0263883   0.17440219   -3.5678505    1.5414622   609257 
 6950000    1.4258066   -3.5677934   -2.0265586   0.16958898   -3.5677934    1.5412348   609266 
 6951000    1.4269869    -3.568812   -2.0263291   0.17183714    -3.568812    1.5424828   609277 
 6952000    1.4236808   -3.5658725   -2.0269862   0.17711673   -3.5658725    1.5388864   609286 
 6953000    1.4248306   -3.5661399   -2.0260638   0.18024534   -3.5661399    1.5400762   609307 
 6954000    1.4271619   -3.5672161   -2.0246631   0.17871192   -3.5672161     1.542553   609324 
 6955000    1.4257385   -3.5662772   -2.0252906   0.17599655   -3.5662772    1.5409866   609335 
 6956000    1.4259497   -3.5666533    -2.025484   0.17380522   -3.5666533    1.5411694   609353 
 6957000    1.4258906    -3.566807   -2.0257394   0.17695585    -3.566807    1.5410676   609368 
 6958000    1.4266774   -3.5677512   -2.0258712   0.18270389   -3.5677512    1.5418801   609383 
 6959000    1.4280731    -3.568909   -2.0255231   0.17933409    -3.568909    1.5433859   609384 
 6960000    1.4280129   -3.5681984   -2.0249307    0.1764814   -3.5681984    1.5432676   609405 
 6961000    1.4278992   -3.5684411   -2.0253343   0.18126084   -3.5684411    1.5431068   609420 
 6962000     1.428087   -3.5699818   -2.0267076   0.17122935   -3.5699818    1.5432742   609434 
 6963000    1.4273468   -3.5691611   -2.0267272   0.17320145   -3.5691611    1.5424339   609450 
 6964000    1.4271853   -3.5681599   -2.0259512   0.18047157   -3.5681599    1.5422087   609470 
 6965000    1.4264382    -3.567216   -2.0258803   0.17766249    -3.567216    1.5413357   609496 
 6966000    1.4261709   -3.5676647   -2.0266356   0.17425755   -3.5676647    1.5410291   609503 
 6967000    1.4260538   -3.5683402   -2.0274957   0.17736953   -3.5683402    1.5408445   609526 
 6968000    1.4265879   -3.5699471   -2.0285661   0.17330961   -3.5699471    1.5413811   609542 
 6969000    1.4263358   -3.5701633   -2.0290977   0.18300675   -3.5701633    1.5410657   609559 
 6970000    1.4239832   -3.5676719   -2.0291682   0.17629445   -3.5676719    1.5385038   609567 
 6971000    1.4249905   -3.5683251   -2.0287658   0.17828747   -3.5683251    1.5395592   609580 
 6972000    1.4255106   -3.5685234   -2.0284326   0.17553663   -3.5685234    1.5400908   609592 
 6973000     1.427303   -3.5709508    -2.029007   0.17382433   -3.5709508    1.5419438   609625 
 6974000    1.4262557   -3.5701781   -2.0293986   0.17857097   -3.5701781    1.5407795   609638 
 6975000    1.4246783    -3.568337   -2.0293196   0.17611307    -3.568337    1.5390174   609661 
 6976000    1.4245836   -3.5694549   -2.0305701   0.16925464   -3.5694549    1.5388848   609673 
 6977000    1.4247277   -3.5688804   -2.0298727    0.1731207   -3.5688804    1.5390077   609686 
 6978000    1.4255884   -3.5700102   -2.0301335   0.16956435   -3.5700102    1.5398767   609710 
 6979000    1.4245554   -3.5685081   -2.0297901   0.17533736   -3.5685081     1.538718   609727 
 6980000     1.425734   -3.5707066   -2.0307483    0.1698297   -3.5707066    1.5399583   609740 
 6981000    1.4264173   -3.5706377   -2.0300019   0.17090866   -3.5706377    1.5406357   609764 
 6982000    1.4253485   -3.5691571   -2.0297036   0.17764798   -3.5691571    1.5394535   609775 
 6983000    1.4249836   -3.5688509   -2.0298066   0.17975239   -3.5688509    1.5390443   609781 
 6984000     1.426243   -3.5699234   -2.0295517   0.17721803   -3.5699234    1.5403717   609794 
 6985000    1.4258804   -3.5692397   -2.0292874   0.16939415   -3.5692397    1.5399523   609805 
 6986000    1.4257528   -3.5697487   -2.0299747   0.17512867   -3.5697487     1.539774   609821 
 6987000    1.4278495   -3.5714879   -2.0294849   0.17038273   -3.5714879     1.542003   609835 
 6988000    1.4275348   -3.5720063   -2.0303937   0.16666711   -3.5720063    1.5416126   609855 
 6989000    1.4259355   -3.5705192   -2.0306666   0.17429759   -3.5705192    1.5398526   609868 
 6990000    1.4257063   -3.5712722    -2.031715   0.17610592   -3.5712722    1.5395572   609887 
 6991000     1.425256   -3.5710703   -2.0320271   0.18103062   -3.5710703    1.5390432   609898 
 6992000    1.4273875   -3.5732127   -2.0319108   0.17623848   -3.5732127    1.5413019   609915 
 6993000    1.4264065   -3.5716939   -2.0315018    0.1754923   -3.5716939    1.5401921   609935 
 6994000     1.426184   -3.5724546    -2.032528   0.17504555   -3.5724546    1.5399266   609945 
 6995000    1.4267926    -3.571777   -2.0312387   0.17461259    -3.571777    1.5405383   609963 
 6996000    1.4269201   -3.5728173   -2.0321666   0.17166595   -3.5728173    1.5406507   609973 
 6997000    1.4259187    -3.571327   -2.0318131   0.17453196    -3.571327    1.5395139   609995 
 6998000    1.4259946   -3.5723257    -2.032803   0.17412235   -3.5723257    1.5395227   610024 
 6999000    1.4257522   -3.5711473    -2.031909   0.18077827   -3.5711473    1.5392383   610033 
 7000000     1.424999   -3.5701865   -2.0317917   0.17666597   -3.5701865    1.5383949   610045 
 7001000    1.4259942   -3.5708207   -2.0314018   0.17534256   -3.5708207    1.5394188   610065 
 7002000    1.4271765    -3.571486   -2.0308211   0.17285021    -3.571486    1.5406649   610077 
 7003000    1.4278803   -3.5716309   -2.0302316    0.1745862   -3.5716309    1.5413994   610087 
 7004000    1.4254533    -3.569662   -2.0309179    0.1807014    -3.569662    1.5387441   610101 
 7005000    1.4276021   -3.5722419   -2.0312086   0.17557255   -3.5722419    1.5410333   610113 
 7006000    1.4271639   -3.5726359    -2.032116   0.17345351   -3.5726359    1.5405199   610129 
 7007000    1.4285087   -3.5736966   -2.0317579   0.17427601   -3.5736966    1.5419386   610142 
 7008000    1.4279548   -3.5730275   -2.0316943   0.17280472   -3.5730275    1.5413332   610145 
 7009000    1.4269045   -3.5715399   -2.0313959    0.1833312   -3.5715399    1.5401439   610167 
 7010000    1.4280698   -3.5715343   -2.0301679   0.17935874   -3.5715343    1.5413664   610181 
 7011000    1.4285766   -3.5712952   -2.0293919   0.17669542   -3.5712952    1.5419033   610185 
 7012000    1.4299442   -3.5714216   -2.0280751   0.17949457   -3.5714216    1.5433465   610198 
 7013000     1.428076   -3.5703959   -2.0290683   0.17583402   -3.5703959    1.5413276   610199 
 7014000    1.4267189   -3.5703285   -2.0305059   0.18212477   -3.5703285    1.5398226   610215 
 7015000    1.4289907   -3.5713861    -2.029137   0.18416763   -3.5713861    1.5422491   610225 
 7016000    1.4294206   -3.5733582   -2.0306627   0.17757526   -3.5733582    1.5426954   610232 
 7017000    1.4287742   -3.5725096   -2.0305269   0.17424746   -3.5725096    1.5419827   610238 
 7018000    1.4291914   -3.5724417   -2.0300441   0.18019516   -3.5724417    1.5423975   610252 
 7019000    1.4284004   -3.5718713   -2.0303754   0.18165234   -3.5718713    1.5414959   610271 
 7020000    1.4290826   -3.5718745   -2.0296626   0.17723349   -3.5718745    1.5422119   610279 
 7021000     1.429732   -3.5726986   -2.0298087   0.18059927   -3.5726986      1.54289   610288 
 7022000    1.4273557   -3.5700304   -2.0297099   0.18422587   -3.5700304    1.5403205   610290 
 7023000    1.4283279   -3.5714125   -2.0300707   0.17658557   -3.5714125    1.5413418   610301 
 7024000    1.4282808   -3.5721756   -2.0309047   0.17862252   -3.5721756    1.5412709   610309 
 7025000    1.4279352   -3.5720693   -2.0312144   0.18149933   -3.5720693    1.5408549   610326 
 7026000    1.4281091   -3.5723611   -2.0313512   0.17390848   -3.5723611    1.5410098   610339 
 7027000    1.4274884   -3.5725427   -2.0322305    0.1755539   -3.5725427    1.5403122   610350 
 7028000    1.4284059   -3.5743261   -2.0330617   0.17589315   -3.5743261    1.5412644   610365 
 7029000    1.4253299   -3.5713699   -2.0334599   0.18276796   -3.5713699      1.53791   610379 
 7030000    1.4280218   -3.5733532   -2.0325891   0.17601048   -3.5733532    1.5407641   610399 
 7031000    1.4262015   -3.5717353    -2.032968   0.17799539   -3.5717353    1.5387673   610412 
 7032000    1.4288262   -3.5742127   -2.0326236   0.17644547   -3.5742127    1.5415891   610416 
 7033000    1.4288459   -3.5749185    -2.033351   0.17322113   -3.5749185    1.5415675   610433 
 7034000    1.4289104   -3.5743731   -2.0327437   0.17755479   -3.5743731    1.5416294   610436 
 7035000    1.4291177   -3.5736118   -2.0318068   0.17906262   -3.5736118    1.5418051   610455 
 7036000    1.4297349   -3.5739489   -2.0315108   0.18196721   -3.5739489    1.5424381   610468 
 7037000    1.4305834   -3.5758916   -2.0325709   0.17724449   -3.5758916    1.5433207   610481 
 7038000    1.4292801   -3.5742743   -2.0324127   0.17847515   -3.5742743    1.5418616   610502 
 7039000    1.4304261   -3.5749384   -2.0318835   0.17815373   -3.5749384    1.5430549   610519 
 7040000    1.4302059   -3.5754759   -2.0327092   0.17404875   -3.5754759    1.5427668   610539 
 7041000    1.4282536   -3.5739407   -2.0333228   0.17941214   -3.5739407    1.5406179   610556 
 7042000    1.4288419   -3.5758342   -2.0346195   0.16707002   -3.5758342    1.5412146   610571 
 7043000    1.4262268   -3.5722058   -2.0338623    0.1833345   -3.5722058    1.5383436   610591 
 7044000    1.4286107   -3.5748703   -2.0339983   0.17299009   -3.5748703     1.540872   610608 
 7045000    1.4277111   -3.5747862   -2.0349275   0.17205871   -3.5747862    1.5398588   610625 
 7046000    1.4289447   -3.5753392   -2.0342181   0.17116899   -3.5753392    1.5411211   610652 
 7047000    1.4282697   -3.5740097    -2.033667   0.18011159   -3.5740097    1.5403427   610672 
 7048000     1.430181   -3.5754373   -2.0330485   0.17831695   -3.5754373    1.5423887   610678 
 7049000    1.4278832   -3.5733012   -2.0334409   0.18752023   -3.5733012    1.5398603   610698 
 7050000     1.429683   -3.5748214   -2.0330505   0.18232419   -3.5748214    1.5417709   610710 
 7051000    1.4310705   -3.5770734   -2.0338492   0.17913836   -3.5770734    1.5432242   610727 
 7052000    1.4294029   -3.5751089   -2.0337384   0.18254339   -3.5751089    1.5413705   610749 
 7053000     1.429032   -3.5746184   -2.0336958   0.18080458   -3.5746184    1.5409226   610768 
 7054000    1.4289614   -3.5747321   -2.0339134   0.17242387   -3.5747321    1.5408187   610779 
 7055000    1.4284577   -3.5746128   -2.0343852   0.18071289   -3.5746128    1.5402276   610798 
 7056000    1.4271884   -3.5735745   -2.0347558   0.18364688   -3.5735745    1.5388187   610814 
 7057000    1.4281831   -3.5751843   -2.0353134   0.18128298   -3.5751843     1.539871   610822 
 7058000    1.4298736   -3.5758965   -2.0342079   0.17943761   -3.5758965    1.5416887   610824 
 7059000    1.4279039   -3.5750771   -2.0355626   0.18162384   -3.5750771    1.5395145   610844 
 7060000    1.4286034   -3.5762742   -2.0360181   0.17682208   -3.5762742    1.5402561   610849 
 7061000    1.4298572   -3.5770177   -2.0354577   0.17278231   -3.5770177      1.54156   610868 
 7062000    1.4300276   -3.5774079   -2.0356919   0.18058624   -3.5774079    1.5417159   610879 
 7063000    1.4282686   -3.5763501   -2.0365708   0.17808639   -3.5763501    1.5397793   610895 
 7064000    1.4287593   -3.5769663   -2.0366985   0.17921763   -3.5769663    1.5402679   610911 
 7065000    1.4292787   -3.5773332   -2.0365458   0.18089501   -3.5773332    1.5407874   610927 
 7066000      1.42973   -3.5769697   -2.0357386     0.175008   -3.5769697    1.5412311   610944 
 7067000    1.4286714   -3.5774953   -2.0374281    0.1700628   -3.5774953    1.5400672   610953 
 7068000    1.4278844   -3.5757965    -2.036633   0.17807052   -3.5757965    1.5391635   610975 
 7069000    1.4284629   -3.5762725   -2.0365157   0.18247169   -3.5762725    1.5397568   610987 
 7070000    1.4277154   -3.5751419    -2.036221   0.18351279   -3.5751419    1.5389209   610999 
 7071000    1.4290534     -3.57669   -2.0363648   0.17623618     -3.57669    1.5403252   611014 
 7072000    1.4281123   -3.5768465   -2.0375281   0.17928171   -3.5768465    1.5393184   611011 
 7073000    1.4275553   -3.5763458   -2.0376681   0.17976198   -3.5763458    1.5386777   611027 
 7074000    1.4279793   -3.5765842   -2.0375099   0.18042544   -3.5765842    1.5390743   611051 
 7075000    1.4298663   -3.5783778   -2.0373226   0.17745895   -3.5783778    1.5410551   611072 
 7076000    1.4306315   -3.5792402   -2.0373956   0.17626356   -3.5792402    1.5418445   611086 
 7077000    1.4277128   -3.5759542   -2.0372704    0.1744966   -3.5759542    1.5386838   611092 
 7078000    1.4288275   -3.5769755   -2.0371307   0.17931327   -3.5769755    1.5398448   611108 
 7079000    1.4298069   -3.5783626   -2.0375077   0.17721284   -3.5783626    1.5408549   611126 
 7080000     1.428564   -3.5766815   -2.0371963   0.17931361   -3.5766815    1.5394853   611138 
 7081000    1.4301896   -3.5786424   -2.0374456   0.17422492   -3.5786424    1.5411968   611154 
 7082000    1.4286634   -3.5760292   -2.0365099   0.18055602   -3.5760292    1.5395193   611167 
 7083000    1.4304621   -3.5782414   -2.0368165   0.17736702   -3.5782414    1.5414249   611180 
 7084000     1.430731   -3.5779057    -2.036229    0.1802233   -3.5779057    1.5416768   611195 
 7085000    1.4301158   -3.5774108   -2.0364222   0.18047427   -3.5774108    1.5409886   611205 
 7086000    1.4287711   -3.5767095   -2.0372051   0.18370057   -3.5767095    1.5395044   611219 
 7087000    1.4293538   -3.5776924    -2.037603   0.17701794   -3.5776924    1.5400894   611236 
 7088000     1.429622   -3.5783289   -2.0379858   0.17613269   -3.5783289    1.5403431   611250 
 7089000    1.4285832   -3.5772437   -2.0380627   0.17575494   -3.5772437    1.5391811   611267 
 7090000    1.4278694   -3.5768285   -2.0384266   0.18020048   -3.5768285     1.538402   611271 
 7091000    1.4279703   -3.5780964   -2.0396159   0.17489639   -3.5780964    1.5384805   611283 
 7092000     1.428014   -3.5784755   -2.0399882   0.17819447   -3.5784755    1.5384873   611299 
 7093000     1.427058   -3.5786164   -2.0411741   0.17219339   -3.5786164    1.5374423   611305 
 7094000    1.4292432   -3.5803001   -2.0405364   0.17221257   -3.5803001    1.5397637   611318 
 7095000    1.4270373   -3.5775789   -2.0402294    0.1798251   -3.5775789    1.5373495   611333 
 7096000    1.4287149   -3.5784984   -2.0393693   0.17926064   -3.5784984    1.5391291   611344 
 7097000    1.4296919   -3.5795691   -2.0394278   0.17649833   -3.5795691    1.5401413   611360 
 7098000    1.4293545   -3.5787942   -2.0390364   0.18223676   -3.5787942    1.5397577   611368 
 7099000    1.4300103   -3.5787051   -2.0382661   0.18179147   -3.5787051    1.5404389   611378 
 7100000    1.4298984   -3.5793223   -2.0390392   0.18069121   -3.5793223    1.5402831   611392 
 7101000    1.4290261   -3.5782505   -2.0389499   0.17677586   -3.5782505    1.5393006   611409 
 7102000     1.429302    -3.578622   -2.0390442   0.17396654    -3.578622    1.5395778   611417 
 7103000     1.430037   -3.5782764   -2.0379574   0.18088673   -3.5782764    1.5403191   611437 
 7104000    1.4301975   -3.5783395   -2.0378653   0.18161566   -3.5783395    1.5404743   611444 
 7105000    1.4313188   -3.5789253    -2.037281   0.18064403   -3.5789253    1.5416443   611459 
 7106000    1.4295227   -3.5783505   -2.0387037   0.17755855   -3.5783505    1.5396468   611484 
 7107000    1.4301541   -3.5791196   -2.0388231   0.18271717   -3.5791196    1.5402966   611496 
 7108000    1.4302241    -3.579402    -2.039088   0.17863741    -3.579402    1.5403141   611519 
 7109000    1.4303853   -3.5801341   -2.0396465   0.17507709   -3.5801341    1.5404876   611519 
 7110000    1.4290463   -3.5791874   -2.0401494   0.17846927   -3.5791874     1.539038   611522 
 7111000    1.4302731   -3.5788708   -2.0385216   0.18077362   -3.5788708    1.5403491   611526 
 7112000    1.4319492   -3.5806498   -2.0385257   0.17421627   -3.5806498     1.542124   611538 
 7113000    1.4307243   -3.5801644   -2.0393721   0.17956528   -3.5801644    1.5407923   611543 
 7114000    1.4299597   -3.5796694   -2.0397283   0.17904389   -3.5796694    1.5399411   611554 
 7115000    1.4293333   -3.5797476   -2.0405087   0.17552685   -3.5797476    1.5392389   611565 
 7116000    1.4272457   -3.5781877    -2.041212   0.18155204   -3.5781877    1.5369757   611571 
 7117000    1.4294388   -3.5804358   -2.0411663   0.18064647   -3.5804358    1.5392694   611598 
 7118000    1.4299221   -3.5816935    -2.041939   0.17540318   -3.5816935    1.5397546   611612 
 7119000    1.4285769   -3.5806194   -2.0423661    0.1786881   -3.5806194    1.5382533   611633 
 7120000    1.4275106   -3.5805469   -2.0434619   0.17961309   -3.5805469     1.537085   611641 
 7121000    1.4293963   -3.5817694   -2.0426892   0.17042359   -3.5817694    1.5390802   611655 
 7122000    1.4289945   -3.5810063   -2.0423788   0.17730506   -3.5810063    1.5386275   611663 
 7123000    1.4292795   -3.5811254   -2.0422615   0.18023871   -3.5811254    1.5388639   611691 
 7124000      1.43093   -3.5822645   -2.0416715   0.17670692   -3.5822645    1.5405931   611710 
 7125000    1.4299835   -3.5804351   -2.0409064   0.18445655   -3.5804351    1.5395287   611728 
 7126000    1.4293846     -3.58097   -2.0421465    0.1733826     -3.58097    1.5388235   611752 
 7127000    1.4308019   -3.5817738   -2.0414647   0.17904127   -3.5817738    1.5403091   611768 
 7128000    1.4309394   -3.5821847   -2.0417653   0.17424402   -3.5821847    1.5404194   611783 
 7129000    1.4321408   -3.5833434   -2.0416483   0.17563963   -3.5833434    1.5416951   611790 
 7130000    1.4310566   -3.5824685   -2.0420111   0.17786026   -3.5824685    1.5404574   611818 
 7131000    1.4292281   -3.5817191   -2.0432577   0.17471013   -3.5817191    1.5384614   611829 
 7132000      1.43014   -3.5808142   -2.0413787   0.17285181   -3.5808142    1.5394355   611832 
 7133000     1.429604   -3.5813233   -2.0425176   0.18153669   -3.5813233    1.5388057   611853 
 7134000    1.4301231   -3.5818898   -2.0425656   0.17830335   -3.5818898    1.5393242   611869 
 7135000    1.4276726   -3.5795111   -2.0428596   0.18177467   -3.5795111    1.5366515   611883 
 7136000    1.4290617   -3.5804523   -2.0423384   0.17683403   -3.5804523    1.5381139   611896 
 7137000    1.4292839   -3.5807654   -2.0424476   0.18021092   -3.5807654    1.5383178   611910 
 7138000     1.429357   -3.5804557   -2.0420893   0.17988668   -3.5804557    1.5383664   611922 
 7139000    1.4294431   -3.5811539   -2.0427527   0.17919441   -3.5811539    1.5384012   611945 
 7140000    1.4310762    -3.582934   -2.0428104    0.1733937    -3.582934    1.5401236   611959 
 7141000    1.4304096   -3.5814945   -2.0421261   0.18136721   -3.5814945    1.5393684   611974 
 7142000    1.4301496   -3.5814781   -2.0424473    0.1818655   -3.5814781    1.5390308   611997 
 7143000    1.4289754   -3.5807007   -2.0429711   0.18431761   -3.5807007    1.5377295   612012 
 7144000    1.4298421   -3.5813316   -2.0427373   0.18205166   -3.5813316    1.5385943   612039 
 7145000    1.4300867   -3.5819654   -2.0431155   0.18585737   -3.5819654    1.5388499   612042 
 7146000    1.4313471   -3.5822691   -2.0420831   0.18228237   -3.5822691     1.540186   612050 
 7147000    1.4309808   -3.5830177   -2.0432584   0.17587033   -3.5830177    1.5397593   612063 
 7148000    1.4304733   -3.5818162   -2.0426232   0.18037177   -3.5818162     1.539193   612071 
 7149000    1.4316862   -3.5830227   -2.0425498   0.17331311   -3.5830227    1.5404729   612081 
 7150000     1.432124    -3.583265   -2.0423487   0.17446426    -3.583265    1.5409164   612092 
 7151000    1.4306325   -3.5817599   -2.0424483   0.18637378   -3.5817599    1.5393116   612092 
 7152000    1.4333672   -3.5836289   -2.0414202   0.17609518   -3.5836289    1.5422086   612110 
 7153000     1.431458   -3.5831067   -2.0429875   0.17454199   -3.5831067    1.5401192   612124 
 7154000    1.4311423   -3.5830936   -2.0433442   0.18185021   -3.5830936    1.5397493   612136 
 7155000    1.4320704   -3.5828948   -2.0421772   0.17577672   -3.5828948    1.5407177   612148 
 7156000    1.4312142   -3.5821796   -2.0424333   0.17881898   -3.5821796    1.5397462   612168 
 7157000     1.432729   -3.5822722   -2.0409241   0.17808201   -3.5822722    1.5413482   612179 
 7158000    1.4303419   -3.5799087   -2.0411663   0.18515581   -3.5799087    1.5387424   612194 
 7159000     1.432009   -3.5811831   -2.0406724   0.17863263   -3.5811831    1.5405107   612204 
 7160000    1.4322858   -3.5811037   -2.0403405   0.18649881   -3.5811037    1.5407632   612222 
 7161000    1.4335365   -3.5823899   -2.0402863   0.17894631   -3.5823899    1.5421036   612224 
 7162000     1.431419   -3.5810295   -2.0412541   0.18987324   -3.5810295    1.5397754   612244 
 7163000    1.4326836   -3.5825255   -2.0414175   0.18094619   -3.5825255     1.541108   612255 
 7164000    1.4339644   -3.5837835   -2.0413053   0.18029159   -3.5837835    1.5424782   612258 
 7165000    1.4332139   -3.5837298   -2.0420966   0.17892399   -3.5837298    1.5416332   612273 
 7166000    1.4334683   -3.5832003   -2.0413212   0.17965429   -3.5832003    1.5418791   612284 
 7167000     1.432941    -3.581983   -2.0406963   0.18641915    -3.581983    1.5412867   612294 
 7168000    1.4327156   -3.5820039   -2.0409772   0.18363868   -3.5820039    1.5410267   612301 
 7169000    1.4338034   -3.5834031    -2.041234   0.17740084   -3.5834031     1.542169   612312 
 7170000    1.4305419   -3.5819429    -2.043297   0.18322885   -3.5819429    1.5386459   612318 
 7171000    1.4299625   -3.5817366   -2.0437365   0.18292514   -3.5817366    1.5380001   612327 
 7172000    1.4308899   -3.5830668   -2.0441145   0.18084135   -3.5830668    1.5389524   612345 
 7173000    1.4308315   -3.5820197   -2.0431779   0.18746904   -3.5820197    1.5388418   612364 
 7174000    1.4322625   -3.5845822   -2.0442164   0.17615067   -3.5845822    1.5403658   612370 
 7175000    1.4338264   -3.5859485   -2.0439713   0.17768632   -3.5859485    1.5419772   612398 
 7176000    1.4322472   -3.5843231    -2.044097   0.17929111   -3.5843231    1.5402261   612419 
 7177000    1.4310862   -3.5832693   -2.0443095   0.17679612   -3.5832693    1.5389599   612426 
 7178000    1.4309392   -3.5835454   -2.0447838   0.17865523   -3.5835454    1.5387616   612442 
 7179000    1.4334968   -3.5853627   -2.0438709    0.1729451   -3.5853627    1.5414918   612450 
 7180000     1.432417    -3.584062   -2.0437741   0.18991839    -3.584062    1.5402879   612467 
 7181000    1.4308214   -3.5823771   -2.0438652   0.19196534   -3.5823771    1.5385119   612491 
 7182000    1.4315182   -3.5835865   -2.0443505    0.1828284   -3.5835865     1.539236   612501 
 7183000    1.4337879   -3.5861683   -2.0445472   0.17862769   -3.5861683    1.5416211   612523 
 7184000      1.43224   -3.5847616   -2.0448551   0.18311275   -3.5847616    1.5399065   612543 
 7185000    1.4315623   -3.5843323    -2.045172   0.18685595   -3.5843323    1.5391603   612550 
 7186000    1.4307763   -3.5842253   -2.0459654   0.18522115   -3.5842253    1.5382599   612572 
 7187000     1.433838   -3.5872946   -2.0457606   0.17899902   -3.5872946     1.541534   612579 
 7188000    1.4320068   -3.5849265   -2.0454115   0.17721873   -3.5849265     1.539515   612599 
 7189000     1.431133    -3.584955    -2.046392   0.17916414    -3.584955     1.538563   612604 
 7190000     1.432065    -3.585001   -2.0454636   0.17468835    -3.585001    1.5395374   612615 
 7191000    1.4335983    -3.587472   -2.0463139   0.17454471    -3.587472    1.5411581   612626 
 7192000    1.4312705   -3.5849772   -2.0463468   0.18196967   -3.5849772    1.5386305   612636 
 7193000     1.431427   -3.5854379   -2.0466793   0.17962988   -3.5854379    1.5387586   612652 
 7194000    1.4329989   -3.5875236   -2.0471104   0.17617232   -3.5875236    1.5404132   612666 
 7195000    1.4318174   -3.5858318   -2.0467339   0.18589696   -3.5858318    1.5390979   612684 
 7196000    1.4328264   -3.5870154   -2.0468782   0.18204958   -3.5870154    1.5401372   612702 
 7197000    1.4330089   -3.5857059   -2.0454027   0.18753418   -3.5857059    1.5403032   612714 
 7198000    1.4328966   -3.5856867   -2.0455244   0.18597796   -3.5856867    1.5401624   612722 
 7199000    1.4325712   -3.5846505   -2.0448906   0.18569825   -3.5846505    1.5397599   612743 
 7200000    1.4325614   -3.5855035   -2.0457768   0.18062069   -3.5855035    1.5397267   612752 
 7201000    1.4322454   -3.5863348   -2.0469854   0.18005969   -3.5863348    1.5393494   612767 
 7202000    1.4309299    -3.584524   -2.0466262     0.185617    -3.584524    1.5378978   612782 
 7203000    1.4325937   -3.5864197   -2.0467488   0.18218671   -3.5864197    1.5396709   612788 
 7204000    1.4328157   -3.5861017   -2.0462198   0.18464556   -3.5861017    1.5398819   612799 
 7205000    1.4324898   -3.5854511   -2.0459672   0.18166943   -3.5854511    1.5394839   612818 
 7206000    1.4338642   -3.5872855   -2.0463346   0.18343377   -3.5872855    1.5409509   612822 
 7207000    1.4344194   -3.5879078   -2.0463778   0.18316649   -3.5879078      1.54153   612829 
 7208000    1.4331424    -3.587204   -2.0470992   0.18217034    -3.587204    1.5401048   612850 
 7209000    1.4342473   -3.5880517   -2.0467897   0.17748363   -3.5880517     1.541262   612862 
 7210000    1.4321065   -3.5868303   -2.0478688   0.18051591   -3.5868303    1.5389615   612862 
 7211000    1.4312615    -3.585672   -2.0476386   0.18338107    -3.585672    1.5380334   612870 
 7212000     1.433794   -3.5877866   -2.0470645   0.18241403   -3.5877866    1.5407221   612883 
 7213000    1.4335204   -3.5887374   -2.0483671   0.17954767   -3.5887374    1.5403703   612906 
 7214000    1.4331062   -3.5872515    -2.047359   0.18340655   -3.5872515    1.5398925   612919 
 7215000    1.4325137   -3.5877496   -2.0485213   0.17926226   -3.5877496    1.5392283   612930 
 7216000    1.4333934   -3.5889497   -2.0487938   0.17679827   -3.5889497     1.540156   612937 
 7217000    1.4304503    -3.585532   -2.0485885   0.18482989    -3.585532    1.5369435   612957 
 7218000    1.4327725    -3.586919   -2.0475382   0.18143188    -3.586919    1.5393808   612980 
 7219000    1.4343169   -3.5886492   -2.0476618   0.18203143   -3.5886492    1.5409873   613001 
 7220000    1.4345008   -3.5890835   -2.0479564   0.17744644   -3.5890835    1.5411271   613024 
 7221000    1.4349754   -3.5914205   -2.0498289   0.17712152   -3.5914205    1.5415916   613042 
 7222000    1.4342388   -3.5899061   -2.0491334   0.17817926   -3.5899061    1.5407727   613053 
 7223000    1.4329483   -3.5882762   -2.0489275   0.18199782   -3.5882762    1.5393487   613068 
 7224000    1.4348097   -3.5903727   -2.0490571   0.18017809   -3.5903727    1.5413156   613081 
 7225000    1.4328608   -3.5883402   -2.0491684    0.1815039   -3.5883402    1.5391719   613101 
 7226000    1.4337513   -3.5903973   -2.0503091   0.17906561   -3.5903973    1.5400882   613117 
 7227000    1.4318104   -3.5889199   -2.0509466   0.18308915   -3.5889199    1.5379733   613129 
 7228000    1.4320722   -3.5890279   -2.0508011   0.18226348   -3.5890279    1.5382268   613140 
 7229000     1.434703   -3.5911823   -2.0501799   0.17812475   -3.5911823    1.5410024   613160 
 7230000    1.4332644   -3.5892076    -2.049798     0.180296   -3.5892076    1.5394096   613179 
 7231000    1.4336827   -3.5887656   -2.0489294   0.17920852   -3.5887656    1.5398363   613188 
 7232000    1.4323462   -3.5880962    -2.049718   0.17896133   -3.5880962    1.5383782   613197 
 7233000    1.4327696   -3.5879085   -2.0491056   0.18341712   -3.5879085    1.5388028   613209 
 7234000     1.432742   -3.5876917   -2.0489437   0.18648309   -3.5876917     1.538748   613219 
 7235000    1.4320914   -3.5879805   -2.0499764    0.1831367   -3.5879805    1.5380042   613237 
 7236000    1.4342948   -3.5902712   -2.0499106   0.17919637   -3.5902712    1.5403605   613241 
 7237000    1.4338879   -3.5898203    -2.049932   0.18537515   -3.5898203    1.5398883   613255 
 7238000    1.4339614   -3.5902984   -2.0503764   0.17792512   -3.5902984     1.539922   613273 
 7239000    1.4335471   -3.5893672   -2.0499353   0.18136362   -3.5893672    1.5394319   613291 
 7240000    1.4316405   -3.5878248   -2.0504703   0.18081234   -3.5878248    1.5373545   613303 
 7241000    1.4327017   -3.5888532   -2.0504018    0.1820697   -3.5888532    1.5384514   613320 
 7242000    1.4326991    -3.588674   -2.0502405   0.18346097    -3.588674    1.5384336   613326 
 7243000    1.4336716   -3.5903061   -2.0508634   0.17856505   -3.5903061    1.5394427   613340 
 7244000    1.4331704   -3.5896391   -2.0507546   0.18167666   -3.5896391    1.5388845   613348 
 7245000    1.4346153   -3.5910446   -2.0506288   0.18630664   -3.5910446    1.5404158   613356 
 7246000     1.432362   -3.5880404   -2.0501042   0.18872635   -3.5880404    1.5379362   613380 
 7247000    1.4351385   -3.5912631   -2.0503961    0.1832713   -3.5912631    1.5408671   613400 
 7248000    1.4327659    -3.587861   -2.0495765   0.18679597    -3.587861    1.5382845   613414 
 7249000    1.4365317   -3.5920014   -2.0497014   0.18485426   -3.5920014       1.5423   613425 
 7250000    1.4349647   -3.5905696   -2.0499745   0.18277186   -3.5905696    1.5405951   613434 
 7251000    1.4350655   -3.5905903   -2.0499172   0.18494757   -3.5905903    1.5406731   613446 
 7252000    1.4344479   -3.5901381   -2.0501205   0.18376531   -3.5901381    1.5400176   613443 
 7253000    1.4352336   -3.5904563   -2.0496177   0.18359055   -3.5904563    1.5408386   613452 
 7254000    1.4338073   -3.5897473   -2.0504776   0.18919444   -3.5897473    1.5392697   613467 
 7255000     1.432649   -3.5885793   -2.0505883   0.19022575   -3.5885793     1.537991   613481 
 7256000    1.4337625   -3.5902321   -2.0510732   0.18074644   -3.5902321    1.5391589   613492 
 7257000    1.4340442   -3.5908002   -2.0513841   0.17641658   -3.5908002    1.5394161   613510 
 7258000      1.43311   -3.5904398   -2.0520767   0.18347547   -3.5904398    1.5383631   613530 
 7259000    1.4337797   -3.5907545   -2.0517001   0.17957694   -3.5907545    1.5390544   613541 
 7260000    1.4306258   -3.5886588    -2.053015   0.18287446   -3.5886588    1.5356439   613551 
 7261000    1.4339764   -3.5917081   -2.0524852   0.17320554   -3.5917081    1.5392229   613558 
 7262000    1.4336812   -3.5908032   -2.0519298   0.17894063   -3.5908032    1.5388734   613571 
 7263000    1.4335109   -3.5911135    -2.052453   0.18951316   -3.5911135    1.5386605   613583 
 7264000    1.4347657   -3.5919346   -2.0519574   0.17902121   -3.5919346    1.5399772   613595 
 7265000    1.4336702   -3.5907956   -2.0520192   0.17941517   -3.5907956    1.5387763   613605 
 7266000    1.4336723   -3.5922614   -2.0534978   0.17743453   -3.5922614    1.5387636   613611 
 7267000    1.4323179   -3.5915999   -2.0543301   0.17785091   -3.5915999    1.5372698   613627 
 7268000    1.4325205   -3.5916442   -2.0542071   0.18286206   -3.5916442    1.5374372   613647 
 7269000    1.4345539   -3.5934731   -2.0538813   0.18167526   -3.5934731    1.5395918   613658 
 7270000    1.4338981    -3.593009   -2.0541737   0.18552897    -3.593009    1.5388354   613679 
 7271000    1.4327405   -3.5930421   -2.0555092   0.18063467   -3.5930421    1.5375329   613703 
 7272000    1.4340583   -3.5933594     -2.05447   0.17911511   -3.5933594    1.5388894   613726 
 7273000    1.4329125    -3.592471   -2.0548413    0.1905481    -3.592471    1.5376298   613738 
 7274000    1.4348207   -3.5927717   -2.0531319   0.18482656   -3.5927717    1.5396398   613753 
 7275000    1.4337401   -3.5920307    -2.053578   0.18534286   -3.5920307    1.5384527   613764 
 7276000    1.4332142   -3.5927347   -2.0548664   0.18633519   -3.5927347    1.5378683   613772 
 7277000    1.4328677    -3.593105   -2.0556335   0.18322284    -3.593105    1.5374715   613782 
 7278000    1.4332809   -3.5920902   -2.0542355   0.18393191   -3.5920902    1.5378547   613806 
 7279000    1.4331154   -3.5920199   -2.0543879   0.18559118   -3.5920199    1.5376321   613824 
 7280000    1.4331801    -3.592533   -2.0548816   0.17754182    -3.592533    1.5376514   613844 
 7281000    1.4339711   -3.5920143   -2.0535543   0.18268265   -3.5920143    1.5384599   613860 
 7282000     1.434037   -3.5909414   -2.0524484   0.18371184   -3.5909414    1.5384931   613875 
 7283000    1.4344795   -3.5911605   -2.0522252   0.18411388   -3.5911605    1.5389352   613888 
 7284000     1.436855   -3.5928602   -2.0514142   0.18077546   -3.5928602     1.541446   613903 
 7285000    1.4365389   -3.5917831   -2.0506888   0.18634686   -3.5917831    1.5410943   613908 
 7286000    1.4347315   -3.5900419   -2.0509216   0.18608763   -3.5900419    1.5391203   613922 
 7287000    1.4361074   -3.5926324   -2.0520461   0.18330004   -3.5926324    1.5405863   613926 
 7288000    1.4372501   -3.5929947   -2.0512178   0.18875904   -3.5929947    1.5417769   613940 
 7289000    1.4377579   -3.5921044   -2.0498053    0.1807708   -3.5921044    1.5422991   613949 
 7290000    1.4360274   -3.5908745    -2.050487   0.18460048   -3.5908745    1.5403875   613971 
 7291000    1.4347432   -3.5912841   -2.0523292   0.18679569   -3.5912841    1.5389549   613993 
 7292000     1.435826    -3.592574   -2.0524778   0.17981176    -3.592574    1.5400962   614001 
 7293000    1.4364843   -3.5929819   -2.0522021   0.17978606   -3.5929819    1.5407798   614010 
 7294000    1.4377939   -3.5943812   -2.0522068   0.18294694   -3.5943812    1.5421744   614014 
 7295000    1.4338615   -3.5912352   -2.0533012   0.18676658   -3.5912352     1.537934   614023 
 7296000    1.4346613   -3.5932209   -2.0544642   0.18062168   -3.5932209    1.5387567   614037 
 7297000    1.4347944    -3.592462   -2.0536026   0.18399728    -3.592462    1.5388594   614053 
 7298000     1.434789   -3.5930219   -2.0542009   0.18394375   -3.5930219     1.538821   614066 
 7299000    1.4341377   -3.5929906   -2.0549057   0.18214206   -3.5929906    1.5380849   614081 
 7300000    1.4357518   -3.5944123   -2.0546589   0.18836791   -3.5944123    1.5397533   614106 
 7301000    1.4363751   -3.5954274   -2.0550407   0.17796018   -3.5954274    1.5403867   614120 
 7302000    1.4350641   -3.5940227   -2.0550921   0.18525917   -3.5940227    1.5389306   614140 
 7303000    1.4340109   -3.5930572   -2.0552835   0.18187314   -3.5930572    1.5377736   614151 
 7304000    1.4346782   -3.5938442   -2.0553599   0.18147659   -3.5938442    1.5384842   614153 
 7305000    1.4345696   -3.5944802   -2.0561299   0.18031511   -3.5944802    1.5383503   614160 
 7306000     1.433702   -3.5930683   -2.0556959   0.18234857   -3.5930683    1.5373723   614179 
 7307000     1.435558   -3.5945499   -2.0552275   0.18030832   -3.5945499    1.5393224   614195 
 7308000    1.4355573    -3.593835   -2.0545384     0.182371    -3.593835    1.5392966   614205 
 7309000    1.4358606   -3.5941047   -2.0545154   0.18580313   -3.5941047    1.5395892   614218 
 7310000    1.4344622   -3.5936501   -2.0555953   0.18082226   -3.5936501    1.5380548   614232 
 7311000    1.4357087   -3.5958693   -2.0564779   0.17700099   -3.5958693    1.5393913   614232 
 7312000    1.4340679   -3.5932057   -2.0556012   0.18336113   -3.5932057    1.5376044   614243 
 7313000    1.4350467   -3.5939846   -2.0553507   0.18245015   -3.5939846    1.5386339   614251 
 7314000    1.4353877   -3.5943587   -2.0553742   0.18219835   -3.5943587    1.5389845   614257 
 7315000    1.4356889   -3.5947491   -2.0554842   0.18622872   -3.5947491    1.5392648   614274 
 7316000     1.433932   -3.5940195   -2.0566659   0.18885871   -3.5940195    1.5373537   614285 
 7317000    1.4349262   -3.5951456   -2.0567461   0.18018507   -3.5951456    1.5383995   614293 
 7318000    1.4349149   -3.5943373   -2.0559625   0.18372209   -3.5943373    1.5383748   614298 
 7319000    1.4350714   -3.5947144   -2.0561843   0.18270793   -3.5947144    1.5385301   614303 
 7320000     1.434859   -3.5942376   -2.0559828   0.18646839   -3.5942376    1.5382548   614322 
 7321000     1.434489   -3.5950166   -2.0571834   0.18195953   -3.5950166    1.5378332   614332 
 7322000    1.4342919   -3.5947179   -2.0571361     0.184594   -3.5947179    1.5375818   614348 
 7323000    1.4355776   -3.5966622   -2.0577472   0.17838838   -3.5966622     1.538915   614366 
 7324000    1.4347638   -3.5966172   -2.0586246   0.17993701   -3.5966172    1.5379926   614386 
 7325000    1.4351523    -3.595934    -2.057545   0.18048084    -3.595934    1.5383889   614394 
 7326000    1.4339192   -3.5951629   -2.0581257   0.18324433   -3.5951629    1.5370372   614406 
 7327000    1.4349955    -3.596959   -2.0588157   0.18079142    -3.596959    1.5381433   614425 
 7328000    1.4343497   -3.5963444   -2.0589108   0.17590902   -3.5963444    1.5374336   614432 
 7329000    1.4348788   -3.5949187   -2.0569556   0.18532159   -3.5949187    1.5379631   614447 
 7330000     1.436862   -3.5959172   -2.0558785   0.18663815   -3.5959172    1.5400387   614467 
 7331000    1.4355695   -3.5950598    -2.056429   0.18407253   -3.5950598    1.5386309   614476 
 7332000    1.4354585   -3.5956747    -2.057213   0.18787667   -3.5956747    1.5384617   614496 
 7333000    1.4355253   -3.5959168   -2.0574309   0.18551439   -3.5959168    1.5384858   614515 
 7334000    1.4348612   -3.5953546    -2.057603   0.18801351   -3.5953546    1.5377516   614524 
 7335000    1.4359786   -3.5964675   -2.0575661     0.190885   -3.5964675    1.5389015   614543 
 7336000    1.4365959   -3.5968538   -2.0573133   0.18469516   -3.5968538    1.5395405   614552 
 7337000    1.4361166   -3.5966758   -2.0576991   0.17845861   -3.5966758    1.5389767   614572 
 7338000    1.4368381    -3.596958   -2.0572255   0.17954728    -3.596958    1.5397324   614579 
 7339000    1.4355023   -3.5950332   -2.0567823   0.18694296   -3.5950332    1.5382509   614599 
 7340000    1.4358703   -3.5960708   -2.0574531   0.18686782   -3.5960708    1.5386177   614610 
 7341000    1.4350906   -3.5957452    -2.057993   0.18572995   -3.5957452    1.5377522   614622 
 7342000    1.4346883   -3.5961161   -2.0588576   0.18733897   -3.5961161    1.5372586   614647 
 7343000    1.4367458   -3.5978734   -2.0584478   0.17939265   -3.5978734    1.5394256   614662 
 7344000    1.4364584   -3.5972442   -2.0581541   0.18631506   -3.5972442    1.5390901   614673 
 7345000    1.4344492   -3.5952866   -2.0583767   0.18687703   -3.5952866    1.5369099   614684 
 7346000    1.4361448   -3.5970979   -2.0584039   0.18181228   -3.5970979     1.538694   614697 
 7347000    1.4341439   -3.5957569   -2.0592391   0.18867421   -3.5957569    1.5365178   614710 
 7348000     1.436831   -3.5980716   -2.0587024   0.18079697   -3.5980716    1.5393692   614721 
 7349000    1.4346566   -3.5960538   -2.0590417   0.18571862   -3.5960538    1.5370121   614732 
 7350000    1.4354068   -3.5981785   -2.0604002   0.18109354   -3.5981785    1.5377783   614747 
 7351000    1.4335647   -3.5959559   -2.0601886   0.18852888   -3.5959559    1.5357673   614762 
 7352000    1.4344996   -3.5963349   -2.0595986   0.18419224   -3.5963349    1.5367363   614775 
 7353000    1.4360472   -3.5981491   -2.0597649   0.18217954   -3.5981491    1.5383842   614779 
 7354000     1.435372   -3.5965738   -2.0589454   0.18746186   -3.5965738    1.5376284   614792 
 7355000    1.4370809   -3.5984512   -2.0590447   0.18520949   -3.5984512    1.5394064   614813 
 7356000    1.4352163   -3.5968031   -2.0594241   0.18619081   -3.5968031    1.5373791   614825 
 7357000    1.4375825   -3.5986083   -2.0587721   0.18765169   -3.5986083    1.5398361   614856 
 7358000    1.4369912   -3.5977397   -2.0585621   0.18678585   -3.5977397    1.5391777   614866 
 7359000    1.4380363   -3.5981514   -2.0578743   0.18501812   -3.5981514    1.5402771   614874 
 7360000    1.4370195   -3.5978635   -2.0587206    0.1882115   -3.5978635    1.5391429   614892 
 7361000    1.4382569   -3.5979484   -2.0575077   0.18194982   -3.5979484    1.5404407   614903 
 7362000    1.4370329   -3.5962374   -2.0571452   0.19420999   -3.5962374    1.5390922   614918 
 7363000    1.4365583   -3.5956368   -2.0570905   0.18162391   -3.5956368    1.5385463   614933 
 7364000    1.4373415   -3.5972308   -2.0578831   0.18518275   -3.5972308    1.5393477   614948 
 7365000    1.4375272   -3.5976854   -2.0581889    0.1905929   -3.5976854    1.5394964   614968 
 7366000    1.4375199   -3.5978438   -2.0583978   0.18862549   -3.5978438     1.539446   614985 
 7367000    1.4375015   -3.5982732   -2.0588718   0.18584849   -3.5982732    1.5394013   614995 
 7368000    1.4377979   -3.5976651   -2.0579638   0.18362879   -3.5976651    1.5397012   615002 
 7369000    1.4394887   -3.5988214   -2.0573371    0.1851767   -3.5988214    1.5414843   615013 
 7370000    1.4384891   -3.5978948    -2.057516   0.18783073   -3.5978948    1.5403788   615027 
 7371000    1.4382453   -3.5973232   -2.0572254   0.18621089   -3.5973232    1.5400977   615035 
 7372000    1.4380183   -3.5980486    -2.058204   0.18848163   -3.5980486    1.5398446   615039 
 7373000    1.4379395    -3.598632   -2.0589068    0.1879018    -3.598632    1.5397252   615053 
 7374000    1.4363602   -3.5972256    -2.059239   0.18903603   -3.5972256    1.5379865   615072 
 7375000    1.4374065   -3.5983581   -2.0592787   0.18716975   -3.5983581    1.5390793   615083 
 7376000    1.4379389   -3.5984468     -2.05884   0.18755132   -3.5984468    1.5396068   615100 
 7377000    1.4374808   -3.5980759   -2.0590071   0.18901977   -3.5980759    1.5390689   615119 
 7378000    1.4385979   -3.5997855   -2.0595531     0.183154   -3.5997855    1.5402323   615132 
 7379000    1.4389554   -3.6001453   -2.0595853   0.18272019   -3.6001453      1.54056   615154 
 7380000    1.4390495   -3.6000571    -2.059444   0.18648123   -3.6000571    1.5406131   615173 
 7381000    1.4391025   -3.6003065   -2.0596692   0.18404757   -3.6003065    1.5406373   615186 
 7382000    1.4371403    -3.598981   -2.0604669   0.18681721    -3.598981    1.5385141   615195 
 7383000    1.4376558   -3.5996912   -2.0606476   0.18400524   -3.5996912    1.5390435   615204 
 7384000    1.4372125   -3.5996843   -2.0611329   0.18905021   -3.5996843    1.5385514   615211 
 7385000    1.4356838   -3.5984496   -2.0615696   0.18590367   -3.5984496      1.53688   615225 
 7386000    1.4374777   -3.5995036   -2.0607533   0.18558663   -3.5995036    1.5387503   615245 
 7387000    1.4364273   -3.5989677   -2.0613868   0.19227236   -3.5989677     1.537581   615263 
 7388000    1.4375337   -3.5999833   -2.0612605   0.18512395   -3.5999833    1.5387228   615280 
 7389000    1.4383663   -3.6004309    -2.060837   0.19294248   -3.6004309    1.5395939   615288 
 7390000    1.4358666   -3.5988173   -2.0619339   0.18878023   -3.5988173    1.5368834   615302 
 7391000    1.4379198   -3.6011091   -2.0620507   0.18737027   -3.6011091    1.5390584   615311 
 7392000    1.4389469   -3.6019092   -2.0617588   0.18485959   -3.6019092    1.5401503   615314 
 7393000    1.4371752   -3.6011155    -2.062904   0.18357633   -3.6011155    1.5382115   615331 
 7394000    1.4365812   -3.5989804   -2.0614422   0.18974468   -3.5989804    1.5375383   615346 
 7395000     1.436951   -3.5997903   -2.0618813   0.18594715   -3.5997903     1.537909   615356 
 7396000    1.4370356   -3.5991152   -2.0611557   0.19201502   -3.5991152    1.5379596   615372 
 7397000    1.4379945   -3.6007042   -2.0617709   0.18188942   -3.6007042    1.5389333   615393 
 7398000    1.4384873   -3.6010154   -2.0616022   0.18638298   -3.6010154    1.5394132   615412 
 7399000    1.4374346   -3.5989961    -2.060752   0.19547925   -3.5989961    1.5382442   615429 
 7400000    1.4377941   -3.5997273   -2.0611235   0.18525809   -3.5997273    1.5386038   615439 
 7401000     1.438367   -3.6002492   -2.0610573   0.18542858   -3.6002492    1.5391919   615449 
 7402000    1.4377385   -3.5991871   -2.0607002    0.1917712   -3.5991871    1.5384869   615462 
 7403000    1.4388621   -3.6010299   -2.0613883   0.18407601   -3.6010299    1.5396417   615481 
 7404000    1.4375899   -3.6005847   -2.0623418   0.18423332   -3.6005847    1.5382429   615496 
 7405000    1.4364506    -3.598498   -2.0615092    0.1859879    -3.598498    1.5369888   615510 
 7406000    1.4371819   -3.5998264   -2.0621001   0.19084993   -3.5998264    1.5377263   615528 
 7407000    1.4377266   -3.6006994   -2.0624253   0.18052813   -3.6006994    1.5382742   615542 
 7408000    1.4366942   -3.6005188   -2.0633892   0.18759373   -3.6005188    1.5371296   615558 
 7409000    1.4369897   -3.6002649   -2.0628392   0.18372239   -3.6002649    1.5374257   615566 
 7410000    1.4371013   -3.6004871   -2.0629618    0.1808943   -3.6004871    1.5375253   615574 
 7411000    1.4373621   -3.5999408   -2.0621665    0.1853425   -3.5999408    1.5377743   615586 
 7412000    1.4364142   -3.6006332    -2.063898   0.19255892   -3.6006332    1.5367352   615596 
 7413000    1.4385455   -3.6020384   -2.0630756   0.18612768   -3.6020384    1.5389628   615617 
 7414000    1.4396343   -3.6034455   -2.0633428   0.18912986   -3.6034455    1.5401026   615627 
 7415000    1.4385685   -3.6020915   -2.0631716   0.18764983   -3.6020915    1.5389199   615644 
 7416000    1.4375377   -3.6011749   -2.0633876   0.19340995   -3.6011749    1.5377872   615656 
 7417000    1.4382405   -3.6026886    -2.064202   0.18395693   -3.6026886    1.5384866   615677 
 7418000    1.4378647   -3.6015185   -2.0634539   0.18858215   -3.6015185    1.5380646   615685 
 7419000    1.4369368   -3.6010292   -2.0640121    0.1872068   -3.6010292    1.5370171   615707 
 7420000    1.4381614   -3.6021405   -2.0638435   0.18307034   -3.6021405    1.5382971   615719 
 7421000    1.4385062   -3.6023745   -2.0637262   0.18353426   -3.6023745    1.5386484   615726 
 7422000    1.4379525   -3.6021902   -2.0641741   0.18432054   -3.6021902    1.5380161   615742 
 7423000    1.4362684   -3.6014167   -2.0652518   0.18670958   -3.6014167     1.536165   615762 
 7424000    1.4382263   -3.6026807   -2.0644616    0.1793683   -3.6026807     1.538219   615778 
 7425000    1.4361116   -3.6000318   -2.0640893   0.19267384   -3.6000318    1.5359424   615784 
 7426000    1.4394356   -3.6041713   -2.0647213   0.18173363   -3.6041713      1.53945   615803 
 7427000     1.437053    -3.601598   -2.0647436   0.18408357    -3.601598    1.5368544   615822 
 7428000    1.4383394   -3.6019672   -2.0637496   0.18954576   -3.6019672    1.5382177   615827 
 7429000    1.4380899   -3.6005078   -2.0626045   0.19248925   -3.6005078    1.5379033   615846 
 7430000    1.4404654    -3.603325   -2.0628988   0.18825658    -3.603325    1.5404262   615853 
 7431000    1.4401634    -3.602221   -2.0621328   0.19390343    -3.602221    1.5400882   615859 
 7432000    1.4398353    -3.602062   -2.0623671   0.19485761    -3.602062    1.5396949   615876 
 7433000    1.4395029   -3.6018351   -2.0625207   0.19361183   -3.6018351    1.5393144   615886 
 7434000     1.440601   -3.6032242   -2.0628031   0.18965625   -3.6032242    1.5404212   615913 
 7435000    1.4411764   -3.6035014   -2.0624851   0.18734607   -3.6035014    1.5410164   615921 
 7436000     1.441901   -3.6042725   -2.0625089   0.18500164   -3.6042725    1.5417636   615932 
 7437000    1.4388115   -3.6024225   -2.0639773   0.19557574   -3.6024225    1.5384452   615938 
 7438000    1.4390077   -3.6026274   -2.0640024   0.18685547   -3.6026274     1.538625   615950 
 7439000    1.4394974    -3.602941   -2.0638373   0.19100588    -3.602941    1.5391037   615968 
 7440000     1.440367   -3.6039952   -2.0640068   0.18689533   -3.6039952    1.5399884   615986 
 7441000    1.4406776   -3.6048625    -2.064567   0.18146581   -3.6048625    1.5402955   615996 
 7442000    1.4394847   -3.6034734   -2.0644933   0.18723935   -3.6034734    1.5389801   616012 
 7443000    1.4376097   -3.6014368   -2.0644912   0.18841509   -3.6014368    1.5369456   616024 
 7444000    1.4409099   -3.6054479   -2.0650191   0.18655363   -3.6054479    1.5404288   616042 
 7445000    1.4386722   -3.6026738   -2.0646646   0.18666379   -3.6026738    1.5380091   616053 
 7446000    1.4397553    -3.603654    -2.064507   0.19256231    -3.603654     1.539147   616061 
 7447000    1.4398134   -3.6038802   -2.0646862    0.1845227   -3.6038802    1.5391941   616067 
 7448000     1.439163   -3.6044803   -2.0660064   0.18070028   -3.6044803    1.5384739   616077 
 7449000    1.4375353   -3.6026278   -2.0659265   0.18764863   -3.6026278    1.5367014   616090 
 7450000    1.4393647   -3.6046721   -2.0660525   0.18513538   -3.6046721    1.5386196   616105 
 7451000    1.4384622   -3.6030782   -2.0654434   0.18883837   -3.6030782    1.5376349   616113 
 7452000    1.4379118    -3.602617   -2.0656079   0.18874361    -3.602617    1.5370091   616128 
 7453000    1.4396517   -3.6042614      -2.0654   0.19071012   -3.6042614    1.5388614   616131 
 7454000    1.4399764   -3.6043684   -2.0651775   0.19080351   -3.6043684    1.5391909   616138 
 7455000    1.4412219   -3.6061728   -2.0656654   0.18089479   -3.6061728    1.5405073   616144 
 7456000    1.4394506   -3.6047981   -2.0662166   0.18064939   -3.6047981    1.5385815   616157 
 7457000    1.4385395   -3.6043796   -2.0667919   0.19233249   -3.6043796    1.5375877   616165 
 7458000    1.4389437    -3.604541   -2.0665412   0.18833407    -3.604541    1.5379998   616173 
 7459000    1.4402151   -3.6057544   -2.0664282    0.1819279   -3.6057544    1.5393262   616186 
 7460000     1.439589   -3.6059647   -2.0673352   0.17943653   -3.6059647    1.5386296   616197 
 7461000    1.4382701   -3.6050087   -2.0678262   0.18815386   -3.6050087    1.5371825   616212 
 7462000    1.4357445    -3.603384   -2.0689531   0.18786703    -3.603384    1.5344309   616233 
 7463000    1.4378001   -3.6053484   -2.0687431   0.18636989   -3.6053484    1.5366054   616242 
 7464000    1.4385031   -3.6074698    -2.070163   0.17892522   -3.6074698    1.5373068   616262 
 7465000    1.4375401   -3.6071301   -2.0708724   0.17964547   -3.6071301    1.5362577   616270 
 7466000    1.4377845   -3.6058327   -2.0693537   0.18074407   -3.6058327     1.536479   616286 
 7467000    1.4379634   -3.6058799   -2.0692446   0.18900686   -3.6058799    1.5366352   616300 
 7468000    1.4373351   -3.6054977   -2.0695936   0.18571209   -3.6054977    1.5359041   616324 
 7469000    1.4386034   -3.6068918   -2.0696599   0.18509709   -3.6068918    1.5372319   616335 
 7470000    1.4365157   -3.6039164   -2.0689353   0.19981595   -3.6039164    1.5349811   616343 
 7471000    1.4386675   -3.6068203   -2.0695797   0.19228297   -3.6068203    1.5372406   616359 
 7472000    1.4383291   -3.6050126    -2.068176   0.19317932   -3.6050126    1.5368366   616376 
 7473000    1.4391957   -3.6076938   -2.0699662   0.18588562   -3.6076938    1.5377276   616390 
 7474000    1.4391015   -3.6073869   -2.0698048   0.18254242   -3.6073869    1.5375821   616408 
 7475000    1.4388111   -3.6056262   -2.0683868   0.19211165   -3.6056262    1.5372394   616421 
 7476000    1.4375948   -3.6043045   -2.0683871   0.19100605   -3.6043045    1.5359174   616430 
 7477000    1.4410449   -3.6073766   -2.0677956   0.18636892   -3.6073766     1.539581   616439 
 7478000    1.4412287   -3.6077801   -2.0680378   0.18627594   -3.6077801    1.5397424   616453 
 7479000    1.4376797   -3.6050006   -2.0690772   0.18272525   -3.6050006    1.5359234   616464 
 7480000    1.4395956   -3.6060773    -2.068147   0.18589179   -3.6060773    1.5379303   616480 
 7481000    1.4410871   -3.6081614   -2.0686702    0.1847459   -3.6081614    1.5394912   616493 
 7482000    1.4389454   -3.6060445   -2.0688637   0.18811948   -3.6060445    1.5371808   616502 
 7483000    1.4396809   -3.6075962   -2.0696471   0.18175659   -3.6075962    1.5379491   616509 
 7484000    1.4380431   -3.6054082   -2.0692437   0.18558258   -3.6054082    1.5361645   616523 
 7485000    1.4367142   -3.6030619   -2.0683319   0.19103714   -3.6030619    1.5347301   616529 
 7486000    1.4388859   -3.6067377   -2.0697475   0.18737445   -3.6067377    1.5369901   616553 
 7487000    1.4397671   -3.6079073   -2.0699883   0.18408668   -3.6079073    1.5379189   616558 
 7488000    1.4397955   -3.6076395   -2.0697376   0.18309757   -3.6076395    1.5379019   616577 
 7489000    1.4399359   -3.6077572   -2.0697478   0.18574692   -3.6077572    1.5380094   616594 
 7490000     1.438978   -3.6074407   -2.0704794   0.18890222   -3.6074407    1.5369613   616604 
 7491000    1.4398348   -3.6075526    -2.069686   0.19122542   -3.6075526    1.5378665   616608 
 7492000    1.4389048    -3.606856   -2.0700327   0.18579166    -3.606856    1.5368233   616628 
 7493000    1.4389819    -3.606366   -2.0694778   0.18653435    -3.606366    1.5368882   616635 
 7494000     1.439247   -3.6075704   -2.0704414   0.18589295   -3.6075704     1.537129   616652 
 7495000    1.4378262   -3.6067417   -2.0711799    0.1921734   -3.6067417    1.5355618   616672 
 7496000    1.4381212    -3.607055   -2.0712031   0.19114113    -3.607055    1.5358519   616682 
 7497000    1.4405103   -3.6087405    -2.070382   0.19140823   -3.6087405    1.5383585   616700 
 7498000     1.439282    -3.607786   -2.0707592   0.18665317    -3.607786    1.5370268   616708 
 7499000    1.4398582   -3.6082316   -2.0706518   0.18711859   -3.6082316    1.5375798   616733 
 7500000    1.4392721   -3.6091648   -2.0722756   0.18466566   -3.6091648    1.5368892   616759 
 7501000     1.438305   -3.6080457   -2.0722241   0.18532193   -3.6080457    1.5358216   616773 
 7502000    1.4374503     -3.60739    -2.072506   0.19005125     -3.60739     1.534884   616783 
 7503000    1.4393609   -3.6088649   -2.0719882    0.1829396   -3.6088649    1.5368768   616802 
 7504000    1.4402918   -3.6094851   -2.0716717   0.19003323   -3.6094851    1.5378134   616825 
 7505000    1.4386007   -3.6077467   -2.0717588   0.19301692   -3.6077467    1.5359879   616833 
 7506000    1.4409902   -3.6113314   -2.0727947   0.18355855   -3.6113314    1.5385367   616834 
 7507000    1.4393215   -3.6088551   -2.0721474   0.18728278   -3.6088551    1.5367077   616853 
 7508000    1.4372546   -3.6062494   -2.0717683   0.18547969   -3.6062494    1.5344811   616861 
 7509000    1.4382211   -3.6063789   -2.0708734   0.19471676   -3.6063789    1.5355055   616864 
 7510000    1.4402709   -3.6089827   -2.0713262   0.17964942   -3.6089827    1.5376565   616879 
 7511000    1.4407582   -3.6099547   -2.0718104   0.18481065   -3.6099547    1.5381444   616892 
 7512000    1.4409402   -3.6092302    -2.070919   0.18307137   -3.6092302    1.5383112   616903 
 7513000    1.4419237   -3.6093785   -2.0700348    0.1839866   -3.6093785    1.5393438   616910 
 7514000    1.4410092   -3.6094826   -2.0711476   0.18274523   -3.6094826     1.538335   616923 
 7515000    1.4397681   -3.6083052     -2.07135   0.18548506   -3.6083052    1.5369552   616945 
 7516000    1.4417656   -3.6097725   -2.0707073   0.18586177   -3.6097725    1.5390651   616954 
 7517000    1.4404521   -3.6094038   -2.0717906   0.18361178   -3.6094038    1.5376132   616974 
 7518000    1.4410282   -3.6098025   -2.0715869   0.19025775   -3.6098025    1.5382157   616979 
 7519000    1.4388852   -3.6077449   -2.0718666   0.18889291   -3.6077449    1.5358783   616999 
 7520000     1.440907   -3.6098763   -2.0718772   0.18541135   -3.6098763    1.5379991   617014 
 7521000    1.4392266   -3.6078526   -2.0716821   0.18599287   -3.6078526    1.5361705   617028 
 7522000    1.4415394    -3.609356   -2.0707268   0.18671124    -3.609356    1.5386292   617032 
 7523000    1.4399855   -3.6085515   -2.0716057   0.18798577   -3.6085515    1.5369458   617042 
 7524000    1.4409463   -3.6094248   -2.0715009   0.18523885   -3.6094248    1.5379239   617061 
 7525000    1.4395489   -3.6078527   -2.0714627   0.18804972   -3.6078527      1.53639   617078 
 7526000     1.441389   -3.6091048   -2.0707708    0.1897842   -3.6091048     1.538334   617086 
 7527000     1.442753   -3.6112047   -2.0714498   0.18731214   -3.6112047    1.5397549   617100 
 7528000    1.4397816   -3.6083813    -2.071835   0.19333265   -3.6083813    1.5365463   617115 
 7529000    1.4389385      -3.6089   -2.0732808   0.19084666      -3.6089    1.5356192   617126 
 7530000    1.4395715   -3.6081155   -2.0718507   0.19551022   -3.6081155    1.5362648   617138 
 7531000    1.4385869   -3.6077824   -2.0725957   0.18830421   -3.6077824    1.5351867   617149 
 7532000    1.4394867     -3.60969   -2.0735554   0.18971537     -3.60969    1.5361345   617154 
 7533000    1.4415051    -3.611614    -2.073363   0.18627469    -3.611614     1.538251   617169 
 7534000    1.4383036   -3.6078491   -2.0730517   0.19168342   -3.6078491    1.5347974   617184 
 7535000    1.4400501   -3.6096941   -2.0730729   0.19046989   -3.6096941    1.5366212   617200 
 7536000    1.4412997   -3.6105516   -2.0726145   0.18722014   -3.6105516    1.5379372   617207 
 7537000    1.4422576   -3.6108509    -2.071949   0.18624031   -3.6108509    1.5389019   617230 
 7538000    1.4411506   -3.6112196   -2.0735487   0.18365957   -3.6112196    1.5376709   617250 
 7539000    1.4409298   -3.6100861   -2.0726956   0.18622604   -3.6100861    1.5373905   617268 
 7540000    1.4401304   -3.6097888   -2.0732686   0.19059044   -3.6097888    1.5365202   617275 
 7541000    1.4414282    -3.611038   -2.0731631   0.18590571    -3.611038    1.5378749   617287 
 7542000    1.4409459   -3.6092627   -2.0719622   0.18809959   -3.6092627    1.5373005   617311 
 7543000    1.4409869   -3.6097047   -2.0723952   0.18744196   -3.6097047    1.5373095   617325 
 7544000    1.4409888   -3.6106056   -2.0733414   0.19003806   -3.6106056    1.5372642   617344 
 7545000    1.4414391   -3.6100473   -2.0723451   0.18877987   -3.6100473    1.5377022   617361 
 7546000     1.440192   -3.6088268   -2.0725098   0.19426183   -3.6088268     1.536317   617383 
 7547000    1.4415977    -3.609875   -2.0721032   0.18873622    -3.609875    1.5377718   617401 
 7548000    1.4418639   -3.6094254   -2.0713796   0.19151062   -3.6094254    1.5380457   617405 
 7549000    1.4412464   -3.6100332   -2.0726636   0.18566538   -3.6100332    1.5373696   617412 
 7550000    1.4409691   -3.6096115    -2.072575    0.1966742   -3.6096115    1.5370365   617427 
 7551000    1.4425339   -3.6111724   -2.0724917   0.18747318   -3.6111724    1.5386807   617437 
 7552000    1.4400439   -3.6102187   -2.0742113    0.1886168   -3.6102187    1.5360074   617444 
 7553000    1.4399091   -3.6095856   -2.0737419   0.19067473   -3.6095856    1.5358437   617452 
 7554000    1.4409092   -3.6099688   -2.0730659   0.19101662   -3.6099688    1.5369029   617455 
 7555000    1.4407284   -3.6116653   -2.0749901   0.19086683   -3.6116653    1.5366752   617469 
 7556000    1.4414511    -3.612534   -2.0751152   0.18343132    -3.612534    1.5374187   617480 
 7557000    1.4399099   -3.6102373   -2.0744998   0.19055921   -3.6102373    1.5357375   617495 
 7558000    1.4402149   -3.6116322   -2.0756042   0.18882543   -3.6116322     1.536028   617509 
 7559000    1.4403164   -3.6120579   -2.0759565   0.18464219   -3.6120579    1.5361014   617523 
 7560000    1.4410945   -3.6127876   -2.0758987   0.19089726   -3.6127876     1.536889   617540 
 7561000    1.4403347   -3.6116991   -2.0756801   0.18453756   -3.6116991     1.536019   617564 
 7562000    1.4419152   -3.6129406   -2.0752735   0.18844538   -3.6129406    1.5376671   617579 
 7563000     1.441055   -3.6128311   -2.0760988    0.1865001   -3.6128311    1.5367324   617586 
 7564000    1.4409733   -3.6130195   -2.0764091   0.19143156   -3.6130195    1.5366104   617600 
 7565000     1.442079   -3.6146205   -2.0768833    0.1836966   -3.6146205    1.5377372   617621 
 7566000     1.439834   -3.6137867   -2.0784658   0.18349907   -3.6137867    1.5353209   617630 
 7567000    1.4388936   -3.6121814   -2.0778682   0.19307126   -3.6121814    1.5343132   617632 
 7568000    1.4398171   -3.6137313   -2.0784732    0.1921026   -3.6137313    1.5352581   617648 
 7569000    1.4408548   -3.6141162   -2.0777888   0.18210007   -3.6141162    1.5363274   617663 
 7570000    1.4408132   -3.6144146   -2.0781664   0.19327942   -3.6144146    1.5362482   617677 
 7571000    1.4385801   -3.6129087   -2.0790688   0.18586977   -3.6129087    1.5338399   617688 
 7572000    1.4390301   -3.6130728   -2.0787805   0.19452132   -3.6130728    1.5342923   617699 
 7573000    1.4382044   -3.6114954   -2.0780983   0.18831589   -3.6114954     1.533397   617705 
 7574000    1.4384127   -3.6130355   -2.0794362   0.18907748   -3.6130355    1.5335992   617713 
 7575000    1.4386389   -3.6128633   -2.0790527   0.18696431   -3.6128633    1.5338107   617725 
 7576000    1.4391532   -3.6125753   -2.0782611   0.18716581   -3.6125753    1.5343142   617743 
 7577000    1.4412732   -3.6144778   -2.0779356   0.18405102   -3.6144778    1.5365422   617756 
 7578000    1.4416743   -3.6141488   -2.0772263   0.18825493   -3.6141488    1.5369225   617775 
 7579000    1.4415231   -3.6140547   -2.0773332   0.18939915   -3.6140547    1.5367215   617791 
 7580000    1.4406562   -3.6141179   -2.0783603   0.18885526   -3.6141179    1.5357576   617807 
 7581000    1.4419471   -3.6154503    -2.078359   0.18949434   -3.6154503    1.5370914   617824 
 7582000    1.4409828   -3.6139374   -2.0778914   0.18407274   -3.6139374     1.536046   617831 
 7583000    1.4424915   -3.6158292   -2.0782098   0.18395941   -3.6158292    1.5376194   617845 
 7584000    1.4414666   -3.6160437   -2.0795417   0.18187299   -3.6160437     1.536502   617855 
 7585000    1.4398981   -3.6140887   -2.0792858   0.18281801   -3.6140887    1.5348029   617866 
 7586000    1.4408503   -3.6147403   -2.0789573   0.18930877   -3.6147403     1.535783   617880 
 7587000    1.4406972   -3.6143754   -2.0787829   0.18841172   -3.6143754    1.5355925   617891 
 7588000    1.4412683   -3.6154066   -2.0792476   0.18981902   -3.6154066     1.536159   617908 
 7589000    1.4406878   -3.6155099   -2.0799797   0.18383764   -3.6155099    1.5355303   617912 
 7590000     1.440601   -3.6150401   -2.0796272   0.18435624   -3.6150401    1.5354129   617922 
 7591000    1.4406555   -3.6154391   -2.0799954   0.19110989   -3.6154391    1.5354437   617933 
 7592000    1.4396174   -3.6143184   -2.0800109   0.19129069   -3.6143184    1.5343075   617945 
 7593000    1.4411413   -3.6159765   -2.0800746   0.18501521   -3.6159765    1.5359018   617957 
 7594000    1.4407437   -3.6153972    -2.079949   0.18596673   -3.6153972    1.5354482   617969 
 7595000     1.441482   -3.6153037    -2.079091   0.19085403   -3.6153037    1.5362127   617978 
 7596000    1.4392964   -3.6147557   -2.0809219   0.18455855   -3.6147557    1.5338338   617998 
 7597000    1.4418858   -3.6166177   -2.0800418     0.185604   -3.6166177    1.5365759   618005 
 7598000    1.4405957   -3.6160148   -2.0808385   0.18934701   -3.6160148    1.5351762   618015 
 7599000    1.4413496   -3.6163623   -2.0804076   0.18436506   -3.6163623    1.5359548   618025 
 7600000    1.4408565   -3.6169364   -2.0815419   0.18826053   -3.6169364    1.5353945   618039 
 7601000    1.4394305     -3.61527   -2.0814099   0.19137588     -3.61527      1.53386   618045 
 7602000    1.4420489   -3.6180226   -2.0814047   0.18675589   -3.6180226    1.5366179   618058 
 7603000    1.4417788   -3.6167028   -2.0804299   0.18712645   -3.6167028    1.5362729   618081 
 7604000    1.4401579   -3.6156666   -2.0811481    0.1891575   -3.6156666    1.5345185   618092 
 7605000    1.4418687    -3.617261   -2.0809519   0.18309909    -3.617261     1.536309   618105 
 7606000    1.4414979   -3.6157223   -2.0798407   0.18691083   -3.6157223    1.5358817   618118 
 7607000     1.440868   -3.6160688   -2.0808906   0.18685858   -3.6160688    1.5351782   618131 
 7608000    1.4413924   -3.6160951   -2.0803781   0.18376346   -3.6160951    1.5357171   618139 
 7609000    1.4413107   -3.6157996   -2.0801993   0.18865179   -3.6157996    1.5356003   618151 
 7610000    1.4409383   -3.6161292   -2.0809928   0.18563955   -3.6161292    1.5351364   618178 
 7611000    1.4422468   -3.6169801   -2.0804844   0.18464687   -3.6169801    1.5364957   618192 
 7612000    1.4417399   -3.6168282   -2.0808899   0.19142832   -3.6168282    1.5359383   618199 
 7613000     1.442631   -3.6176342   -2.0807691   0.18232241   -3.6176342    1.5368652   618208 
 7614000    1.4415735   -3.6162327   -2.0805239   0.19026658   -3.6162327    1.5357088   618220 
 7615000    1.4422765   -3.6160934    -2.079658   0.18210904   -3.6160934    1.5364353   618229 
 7616000    1.4417919   -3.6153913   -2.0795194   0.19007484   -3.6153913    1.5358719   618248 
 7617000    1.4434449   -3.6163388   -2.0787234   0.18485284   -3.6163388    1.5376154   618255 
 7618000    1.4422954   -3.6155988   -2.0792378   0.18895517   -3.6155988    1.5363611   618267 
 7619000    1.4409464   -3.6143475   -2.0794583   0.18835392   -3.6143475    1.5348893   618281 
 7620000    1.4415542   -3.6156892   -2.0801749    0.1865884   -3.6156892    1.5355144   618290 
 7621000     1.442681   -3.6168191   -2.0801119   0.18577655   -3.6168191    1.5367072   618293 
 7622000    1.4409156   -3.6156443   -2.0808499   0.19274755   -3.6156443    1.5347944   618306 
 7623000    1.4425696   -3.6170153   -2.0805039    0.1863215   -3.6170153    1.5365115   618324 
 7624000    1.4425616   -3.6172933   -2.0808276   0.18840329   -3.6172933    1.5364657   618339 
 7625000    1.4423977   -3.6176745   -2.0814107   0.18834415   -3.6176745    1.5362637   618350 
 7626000    1.4411323   -3.6164208   -2.0815395   0.19114046   -3.6164208    1.5348813   618364 
 7627000    1.4423909   -3.6177211   -2.0815292   0.18397632   -3.6177211    1.5361919   618376 
 7628000    1.4410008   -3.6159814   -2.0812849   0.19400411   -3.6159814    1.5346966   618382 
 7629000    1.4424109    -3.618158   -2.0820218   0.19064547    -3.618158    1.5361363   618407 
 7630000    1.4422509   -3.6177317   -2.0817857   0.19271106   -3.6177317     1.535946   618415 
 7631000    1.4414986   -3.6176735   -2.0825412   0.18525395   -3.6176735    1.5351324   618420 
 7632000    1.4421432   -3.6192974   -2.0834959   0.18176497   -3.6192974    1.5358015   618427 
 7633000    1.4412749   -3.6183171   -2.0834627   0.18814806   -3.6183171    1.5348544   618436 
 7634000     1.443444   -3.6194576   -2.0823081   0.18335885   -3.6194576    1.5371495   618442 
 7635000     1.442836   -3.6187762   -2.0823016   0.18394751   -3.6187762    1.5364746   618453 
 7636000    1.4404078   -3.6173919   -2.0835526     0.194146   -3.6173919    1.5338393   618473 
 7637000    1.4406974   -3.6182083   -2.0840731    0.1870314   -3.6182083    1.5341352   618478 
 7638000    1.4423846   -3.6199406   -2.0840336   0.18536847   -3.6199406     1.535907   618488 
 7639000    1.4418257   -3.6184543   -2.0831722     0.191484   -3.6184543    1.5352821   618500 
 7640000    1.4429485   -3.6190613   -2.0825886   0.18305212   -3.6190613    1.5364727   618502 
 7641000     1.442026   -3.6177346   -2.0822714   0.19045049   -3.6177346    1.5354632   618513 
 7642000    1.4415692    -3.617109   -2.0821546   0.18932233    -3.617109    1.5349544   618522 
 7643000    1.4407394   -3.6167645   -2.0827185    0.1941474   -3.6167645     1.534046   618532 
 7644000    1.4408192   -3.6166026   -2.0825089   0.19139194   -3.6166026    1.5340938   618547 
 7645000    1.4420711   -3.6181154   -2.0827235   0.18874473   -3.6181154     1.535392   618561 
 7646000    1.4424322   -3.6179778   -2.0822411   0.18618987   -3.6179778    1.5357367   618577 
 7647000    1.4427059   -3.6189544    -2.082966   0.18972168   -3.6189544    1.5359884   618593 
 7648000    1.4436779   -3.6183647   -2.0813564   0.18977231   -3.6183647    1.5370083   618599 
 7649000    1.4432992   -3.6182817   -2.0816965     0.188685   -3.6182817    1.5365853   618607 
 7650000    1.4431061   -3.6184609   -2.0821011   0.18913018   -3.6184609    1.5363598   618615 
 7651000    1.4417941    -3.617465   -2.0825392   0.18876809    -3.617465    1.5349258   618630 
 7652000    1.4438052   -3.6201032   -2.0830811   0.18537689   -3.6201032    1.5370221   618648 
 7653000    1.4432905   -3.6186203   -2.0821784   0.19212538   -3.6186203    1.5364419   618661 
 7654000    1.4428759   -3.6183015   -2.0823406   0.19140397   -3.6183015    1.5359609   618677 
 7655000    1.4423554   -3.6183866   -2.0830419   0.19330074   -3.6183866    1.5353447   618702 
 7656000    1.4426172   -3.6189125   -2.0833139   0.19401047   -3.6189125    1.5355986   618712 
 7657000    1.4417592   -3.6190171   -2.0843244   0.19144359   -3.6190171    1.5346927   618709 
 7658000    1.4417661   -3.6184898   -2.0838146   0.18440912   -3.6184898    1.5346752   618719 
 7659000    1.4414146   -3.6185558   -2.0842696   0.19357342   -3.6185558    1.5342862   618725 
 7660000    1.4427467   -3.6190825   -2.0834206   0.19427875   -3.6190825    1.5356619   618742 
 7661000    1.4425135   -3.6201484   -2.0847645   0.18913472   -3.6201484    1.5353839   618754 
 7662000    1.4409551   -3.6189765   -2.0852884   0.19299632   -3.6189765    1.5336881   618769 
 7663000    1.4432313   -3.6209093   -2.0848407   0.18388963   -3.6209093    1.5360686   618786 
 7664000    1.4416019   -3.6193912    -2.085094   0.18895181   -3.6193912    1.5342971   618801 
 7665000     1.440454   -3.6190521   -2.0859915   0.18803378   -3.6190521    1.5330606   618807 
 7666000    1.4412847   -3.6189659   -2.0850436   0.19014753   -3.6189659    1.5339223   618816 
 7667000    1.4415233   -3.6192721   -2.0851231   0.19101547   -3.6192721     1.534149   618827 
 7668000    1.4416248   -3.6193052   -2.0850704   0.19136999   -3.6193052    1.5342348   618836 
 7669000     1.443705   -3.6214808   -2.0850447   0.18929441   -3.6214808    1.5364361   618841 
 7670000    1.4425349   -3.6204324   -2.0852563    0.1863235   -3.6204324     1.535176   618847 
 7671000    1.4429621   -3.6212777   -2.0856718    0.1838644   -3.6212777    1.5356058   618857 
 7672000    1.4416692   -3.6201557    -2.085953   0.19367661   -3.6201557    1.5342027   618868 
 7673000    1.4403167   -3.6189747   -2.0862337   0.18864988   -3.6189747     1.532741   618877 
 7674000    1.4411458   -3.6193847   -2.0857811   0.18922507   -3.6193847    1.5336036   618885 
 7675000    1.4421765   -3.6199905   -2.0853224    0.1901285   -3.6199905    1.5346681   618898 
 7676000    1.4412066   -3.6186096   -2.0850231   0.19294738   -3.6186096    1.5335865   618918 
 7677000    1.4428572   -3.6198047   -2.0844965   0.18514541   -3.6198047    1.5353081   618932 
 7678000    1.4430773    -3.620355   -2.0848523   0.18438425    -3.620355    1.5355027   618948 
 7679000     1.442629   -3.6199904   -2.0849846   0.19194324   -3.6199904    1.5350058   618956 
 7680000    1.4441664   -3.6207083    -2.084094   0.18964438   -3.6207083    1.5366143   618967 
 7681000     1.443115   -3.6193728    -2.083897   0.18955119   -3.6193728    1.5354757   618975 
 7682000    1.4433011   -3.6199894   -2.0843529    0.1875106   -3.6199894    1.5356365   618990 
 7683000    1.4434922    -3.619257   -2.0834493   0.19147179    -3.619257    1.5358076   619003 
 7684000    1.4421054   -3.6198647   -2.0855995   0.19021109   -3.6198647    1.5342652   619030 
 7685000    1.4424721   -3.6206281   -2.0860075   0.18819095   -3.6206281    1.5346207   619044 
 7686000    1.4433927   -3.6213304   -2.0857551   0.19107765   -3.6213304    1.5355753   619054 
 7687000    1.4425152   -3.6195992   -2.0849898   0.18917497   -3.6195992    1.5346094   619067 
 7688000    1.4438542   -3.6212234   -2.0852167   0.19167818   -3.6212234    1.5360067   619078 
 7689000    1.4429692   -3.6205228   -2.0854874   0.19200673   -3.6205228    1.5350354   619090 
 7690000    1.4427575   -3.6191327   -2.0843646   0.19650694   -3.6191327    1.5347681   619107 
 7691000     1.442589   -3.6191382   -2.0845964   0.19041109   -3.6191382    1.5345418   619126 
 7692000     1.442792   -3.6205272   -2.0858092   0.19681544   -3.6205272     1.534718   619142 
 7693000    1.4426624   -3.6207746   -2.0862564   0.19385429   -3.6207746    1.5345182   619167 
 7694000    1.4444424   -3.6214955   -2.0851138   0.18884971   -3.6214955    1.5363817   619179 
 7695000        1.445   -3.6225551   -2.0856175   0.19459091   -3.6225551    1.5369377   619194 
 7696000    1.4433679    -3.621404    -2.086242    0.1918969    -3.621404     1.535162   619210 
 7697000    1.4429127   -3.6206158   -2.0859802   0.19351705   -3.6206158    1.5346357   619227 
 7698000    1.4435431   -3.6220994   -2.0868378   0.18764531   -3.6220994    1.5352616   619245 
 7699000    1.4436914   -3.6212123   -2.0858178   0.19260519   -3.6212123    1.5353945   619255 
 7700000    1.4453882   -3.6243297   -2.0871654   0.18580935   -3.6243297    1.5371644   619269 
 7701000    1.4436518   -3.6217696   -2.0864668   0.18631924   -3.6217696    1.5353028   619275 
 7702000     1.444508   -3.6226565   -2.0864977   0.18965756   -3.6226565    1.5361588   619297 
 7703000    1.4451115   -3.6214482   -2.0846924   0.19182129   -3.6214482    1.5367559   619315 
 7704000     1.444674   -3.6211277   -2.0848519   0.19324642   -3.6211277    1.5362758   619321 
 7705000    1.4447817   -3.6212708   -2.0848929   0.19212212   -3.6212708    1.5363779   619326 
 7706000    1.4435767   -3.6210382   -2.0859715   0.19180466   -3.6210382    1.5350667   619338 
 7707000    1.4449878   -3.6236304   -2.0871003   0.18626262   -3.6236304    1.5365301   619353 
 7708000    1.4425218   -3.6192214   -2.0853557   0.19423545   -3.6192214    1.5338657   619370 
 7709000    1.4444458   -3.6213932   -2.0855038   0.19512533   -3.6213932    1.5358893   619379 
 7710000    1.4432641   -3.6198346   -2.0852366   0.19463494   -3.6198346    1.5345981   619393 
 7711000    1.4446124   -3.6223201   -2.0863231   0.19262716   -3.6223201    1.5359969   619407 
 7712000    1.4437127   -3.6209655   -2.0859425   0.19439134   -3.6209655     1.535023   619414 
 7713000    1.4452403   -3.6229459   -2.0863457   0.19313892   -3.6229459    1.5366001   619433 
 7714000    1.4434653   -3.6210176   -2.0863245     0.191673   -3.6210176    1.5346931   619441 
 7715000    1.4447811   -3.6225785   -2.0865187   0.19364243   -3.6225785    1.5360598   619454 
 7716000     1.446198   -3.6234918   -2.0859454    0.1951508   -3.6234918    1.5375464   619462 
 7717000    1.4456761    -3.622328   -2.0853886   0.19379225    -3.622328    1.5369394   619483 
 7718000    1.4459308   -3.6234043   -2.0861991   0.19335601   -3.6234043    1.5372052   619485 
 7719000    1.4451057   -3.6219797   -2.0856739    0.1909728   -3.6219797    1.5363057   619494 
 7720000    1.4442625   -3.6214359   -2.0860762   0.19097307   -3.6214359    1.5353597   619514 
 7721000     1.444527   -3.6234759   -2.0878573   0.19296477   -3.6234759    1.5356186   619523 
 7722000    1.4443506   -3.6234395   -2.0880059   0.19188499   -3.6234395    1.5354336   619522 
 7723000    1.4442032   -3.6226022     -2.08737   0.19465148   -3.6226022    1.5352322   619540 
 7724000    1.4450477   -3.6238666   -2.0877738   0.19194381   -3.6238666    1.5360928   619555 
 7725000    1.4453511   -3.6238325   -2.0874495   0.18923793   -3.6238325    1.5363831   619568 
 7726000    1.4450503   -3.6228681   -2.0868419   0.19172274   -3.6228681    1.5360262   619583 
 7727000    1.4450618   -3.6228601   -2.0868565   0.18818469   -3.6228601    1.5360036   619597 
 7728000    1.4451096   -3.6227537   -2.0867166   0.19174279   -3.6227537    1.5360371   619604 
 7729000    1.4439721   -3.6211721   -2.0863515   0.19528931   -3.6211721    1.5348205   619607 
 7730000    1.4448878   -3.6228188   -2.0870472   0.18577328   -3.6228188    1.5357716   619616 
 7731000    1.4460323   -3.6225331   -2.0855798   0.19883463   -3.6225331    1.5369534   619630 
 7732000    1.4463245   -3.6226593   -2.0854301   0.19233702   -3.6226593    1.5372292   619644 
 7733000    1.4462436   -3.6221704   -2.0850719   0.19237924   -3.6221704    1.5370986   619662 
 7734000    1.4468949   -3.6227438   -2.0849778    0.1907797   -3.6227438    1.5377659   619672 
 7735000    1.4461324   -3.6215048   -2.0845715   0.19878754   -3.6215048    1.5369333   619681 
 7736000    1.4465322   -3.6219409   -2.0845928   0.19629953   -3.6219409    1.5373482   619685 
 7737000    1.4463967   -3.6231375   -2.0859457   0.19703172   -3.6231375    1.5371919   619690 
 7738000    1.4459687   -3.6235545   -2.0868622   0.19598222   -3.6235545    1.5366923   619708 
 7739000    1.4446185   -3.6215211   -2.0863232   0.19411113   -3.6215211    1.5351979   619732 
 7740000    1.4462085   -3.6226032   -2.0857379   0.19681935   -3.6226032    1.5368653   619741 
 7741000    1.4454111   -3.6218292   -2.0858484   0.19376719   -3.6218292    1.5359808   619756 
 7742000    1.4450529   -3.6214859   -2.0859056   0.18899676   -3.6214859    1.5355803   619764 
 7743000     1.445899    -3.624117   -2.0876896   0.20086273    -3.624117    1.5364274   619785 
 7744000    1.4455418   -3.6234334   -2.0873906   0.19279921   -3.6234334    1.5360428   619787 
 7745000    1.4459163   -3.6236774   -2.0872663   0.19425706   -3.6236774     1.536411   619799 
 7746000    1.4460702    -3.623909   -2.0873816   0.19491411    -3.623909    1.5365274   619818 
 7747000    1.4461872   -3.6240398   -2.0874252   0.19884081   -3.6240398    1.5366145   619833 
 7748000    1.4467622   -3.6238183    -2.086625   0.19229568   -3.6238183    1.5371933   619846 
 7749000    1.4457487   -3.6227629   -2.0866762   0.20007521   -3.6227629    1.5360867   619858 
 7750000    1.4455765   -3.6228423   -2.0869707   0.19367988   -3.6228423    1.5358716   619871 
 7751000    1.4462502    -3.623914    -2.087344   0.19534173    -3.623914      1.53657   619878 
 7752000     1.445638   -3.6241478   -2.0882655   0.19383146   -3.6241478    1.5358823   619893 
 7753000    1.4450357   -3.6242053   -2.0889876   0.18713635   -3.6242053    1.5352177   619903 
 7754000    1.4458735   -3.6254311   -2.0893654   0.19266035   -3.6254311    1.5360657   619920 
 7755000     1.444437   -3.6242367   -2.0897294    0.1928919   -3.6242367    1.5345074   619933 
 7756000    1.4438279   -3.6235568   -2.0897063   0.19757669   -3.6235568    1.5338505   619937 
 7757000    1.4437147   -3.6225374   -2.0888444   0.19683629   -3.6225374    1.5336931   619952 
 7758000    1.4456544   -3.6253408    -2.089654   0.19281828   -3.6253408    1.5356868   619979 
 7759000    1.4475575    -3.627011   -2.0893324   0.18875931    -3.627011    1.5376786   619991 
 7760000    1.4460368   -3.6257208   -2.0896898   0.19890517   -3.6257208     1.536031   620004 
 7761000    1.4455661   -3.6242195   -2.0887207   0.19858499   -3.6242195    1.5354988   620017 
 7762000    1.4472111   -3.6249231   -2.0877315   0.19431312   -3.6249231    1.5371917   620039 
 7763000     1.446969   -3.6258376   -2.0889428   0.19340929   -3.6258376    1.5368948   620055 
 7764000    1.4477631   -3.6255147   -2.0877888    0.1955924   -3.6255147    1.5377259   620060 
 7765000     1.447689   -3.6259176   -2.0883052   0.19593611   -3.6259176    1.5376124   620074 
 7766000    1.4465362   -3.6249967   -2.0886384   0.19658393   -3.6249967    1.5363583   620086 
 7767000    1.4458146   -3.6236726   -2.0881079    0.1994561   -3.6236726    1.5355647   620097 
 7768000    1.4479339   -3.6257869    -2.088011   0.19477845   -3.6257869    1.5377758   620113 
 7769000    1.4470452   -3.6250815   -2.0882792    0.1960626   -3.6250815    1.5368023   620125 
 7770000    1.4458187   -3.6250522   -2.0895698    0.1976503   -3.6250522    1.5354823   620132 
 7771000     1.448861   -3.6266756   -2.0879945   0.19634795   -3.6266756     1.538681   620145 
 7772000    1.4474861   -3.6259736   -2.0887775   0.19790249   -3.6259736    1.5371961   620155 
 7773000    1.4460227   -3.6264069   -2.0907995    0.2004807   -3.6264069    1.5356074   620169 
 7774000     1.447019   -3.6266842    -2.090056   0.19545088   -3.6266842    1.5366282   620184 
 7775000    1.4465638   -3.6266621   -2.0905618   0.19592954   -3.6266621    1.5361003   620202 
 7776000    1.4479096   -3.6271564   -2.0896592   0.19489364   -3.6271564    1.5374971   620215 
 7777000    1.4478784   -3.6271082   -2.0896888   0.18876919   -3.6271082    1.5374194   620233 
 7778000    1.4433513   -3.6236877   -2.0911051   0.19431072   -3.6236877    1.5325826   620245 
 7779000    1.4462336   -3.6274062   -2.0917903   0.18830083   -3.6274062    1.5356159   620256 
 7780000    1.4462841    -3.626702   -2.0910696   0.19264795    -3.626702    1.5356324   620271 
 7781000    1.4454956   -3.6271486   -2.0923807   0.19042938   -3.6271486     1.534768   620282 
 7782000    1.4460773   -3.6270907   -2.0917521   0.19560096   -3.6270907    1.5353386   620301 
 7783000     1.446201   -3.6274088   -2.0919785   0.18882562   -3.6274088    1.5354303   620317 
 7784000    1.4457292   -3.6263758   -2.0914737   0.19707348   -3.6263758    1.5349021   620328 
 7785000    1.4465353   -3.6278709   -2.0921278   0.19531676   -3.6278709    1.5357431   620334 
 7786000    1.4468363   -3.6278817   -2.0918561   0.19242458   -3.6278817    1.5360255   620349 
 7787000    1.4452304   -3.6269947   -2.0927161    0.2014132   -3.6269947    1.5342786   620366 
 7788000    1.4484613   -3.6285894   -2.0909129     0.193999   -3.6285894    1.5376764   620379 
 7789000     1.447867   -3.6282046   -2.0912038   0.18902001   -3.6282046    1.5370009   620397 
 7790000    1.4480871   -3.6280841   -2.0908819   0.19612257   -3.6280841    1.5372023   620410 
 7791000    1.4473886   -3.6277759   -2.0913175   0.19764142   -3.6277759    1.5364584   620411 
 7792000    1.4468485   -3.6274862   -2.0916259   0.19531766   -3.6274862    1.5358602   620421 
 7793000    1.4487243    -3.629222   -2.0914151   0.19741356    -3.629222    1.5378069   620439 
 7794000    1.4470749   -3.6278266    -2.091778   0.19781598   -3.6278266    1.5360486   620442 
 7795000     1.447181   -3.6285138   -2.0923873   0.19657031   -3.6285138    1.5361265   620456 
 7796000    1.4460317   -3.6278539   -2.0929893   0.19586252   -3.6278539    1.5348646   620473 
 7797000    1.4462195   -3.6275367   -2.0925074   0.19687784   -3.6275367    1.5350293   620487 
 7798000    1.4475442   -3.6283664   -2.0919634   0.19481133   -3.6283664    1.5364031   620500 
 7799000    1.4455869   -3.6267229   -2.0924516   0.19249418   -3.6267229    1.5342713   620522 
 7800000    1.4462448   -3.6267762   -2.0918388   0.19517973   -3.6267762    1.5349374   620535 
 7801000    1.4471053   -3.6283875   -2.0925616   0.19690184   -3.6283875    1.5358259   620545 
 7802000    1.4474063   -3.6276547   -2.0915539     0.191901   -3.6276547    1.5361008   620563 
 7803000    1.4482274   -3.6292904   -2.0923628   0.18989877   -3.6292904    1.5369276   620581 
 7804000    1.4463967   -3.6271546   -2.0921946   0.19934713   -3.6271546    1.5349601   620591 
 7805000    1.4474357   -3.6280261   -2.0919956   0.19662453   -3.6280261    1.5360305   620604 
 7806000     1.448142   -3.6286271   -2.0918767   0.18852121   -3.6286271    1.5367503   620616 
 7807000    1.4483371    -3.628187   -2.0912668   0.19843236    -3.628187    1.5369203   620631 
 7808000    1.4463878   -3.6279596   -2.0931178   0.20122409   -3.6279596    1.5348418   620635 
 7809000    1.4469731   -3.6293596   -2.0939388   0.19479332   -3.6293596    1.5354208   620652 
 7810000    1.4467874   -3.6280373   -2.0928259   0.19174653   -3.6280373    1.5352114   620657 
 7811000    1.4475513   -3.6301109   -2.0941286   0.19133648   -3.6301109    1.5359824   620673 
 7812000    1.4461494    -3.629013   -2.0945553    0.1944475    -3.629013    1.5344577   620688 
 7813000    1.4469721   -3.6294585   -2.0941722   0.18801495   -3.6294585    1.5352862   620706 
 7814000    1.4483628   -3.6301538   -2.0934093   0.19295942   -3.6301538    1.5367445   620713 
 7815000    1.4481235   -3.6299554   -2.0934847    0.1920805   -3.6299554    1.5364707   620721 
 7816000    1.4468492   -3.6278207   -2.0927267   0.19911668   -3.6278207     1.535094   620731 
 7817000    1.4483998   -3.6287516   -2.0920299   0.20210889   -3.6287516    1.5367218   620738 
 7818000    1.4482777   -3.6287447   -2.0921796   0.20103856   -3.6287447     1.536565   620749 
 7819000     1.450471   -3.6305441   -2.0916892   0.19509872   -3.6305441    1.5388548   620764 
 7820000    1.4461672   -3.6267679   -2.0925137    0.2031498   -3.6267679    1.5342542   620778 
 7821000    1.4484785   -3.6286569   -2.0919778   0.19579515   -3.6286569     1.536679   620789 
 7822000    1.4459132   -3.6269141   -2.0929862   0.19543811   -3.6269141    1.5339279   620801 
 7823000    1.4464976   -3.6282028   -2.0936797   0.19554265   -3.6282028    1.5345231   620811 
 7824000    1.4465594   -3.6286529   -2.0940741    0.1941945   -3.6286529    1.5345788   620815 
 7825000    1.4476725   -3.6296067   -2.0938743   0.19430477   -3.6296067    1.5357324   620826 
 7826000    1.4479821   -3.6299888   -2.0939725   0.19230126   -3.6299888    1.5360163   620844 
 7827000    1.4471219   -3.6290167   -2.0939524   0.19646062   -3.6290167    1.5350642   620860 
 7828000    1.4469752   -3.6293021   -2.0944157   0.19213569   -3.6293021    1.5348864   620869 
 7829000    1.4464802    -3.629257   -2.0949104   0.19665416    -3.629257    1.5343465   620875 
 7830000    1.4490529   -3.6308829   -2.0938173   0.19197049   -3.6308829    1.5370656   620879 
 7831000    1.4460957   -3.6289947   -2.0950882   0.19858875   -3.6289947    1.5339065   620888 
 7832000    1.4469158   -3.6293848   -2.0946405    0.2018841   -3.6293848    1.5347443   620901 
 7833000    1.4511335   -3.6331738    -2.093988   0.19234148   -3.6331738    1.5391858   620914 
 7834000    1.4477336   -3.6300292   -2.0944966   0.20292928   -3.6300292    1.5355326   620933 
 7835000    1.4481261   -3.6311231   -2.0952286   0.19821497   -3.6311231    1.5358945   620955 
 7836000    1.4469818   -3.6304454   -2.0957695   0.20167484   -3.6304454    1.5346759   620957 
 7837000    1.4469023   -3.6297823   -2.0952253   0.19850985   -3.6297823     1.534557   620971 
 7838000    1.4464292   -3.6303277   -2.0963145   0.19899766   -3.6303277    1.5340132   620988 
 7839000    1.4476622   -3.6319186   -2.0966225   0.19050797   -3.6319186    1.5352961   620998 
 7840000    1.4459792   -3.6307539   -2.0972747   0.19277302   -3.6307539    1.5334792   621011 
 7841000    1.4463444   -3.6302898   -2.0964307     0.195809   -3.6302898    1.5338591   621014 
 7842000    1.4457718   -3.6301809   -2.0969562   0.20340047   -3.6301809    1.5332247   621025 
 7843000    1.4483159   -3.6330318   -2.0971067   0.19402795   -3.6330318    1.5359251   621024 
 7844000    1.4477334   -3.6317524   -2.0964722   0.19301925   -3.6317524    1.5352802   621035 
 7845000     1.448674    -3.632798   -2.0965425   0.19080323    -3.632798    1.5362555   621044 
 7846000    1.4476239   -3.6307369   -2.0956297   0.19773044   -3.6307369    1.5351073   621058 
 7847000    1.4490601   -3.6319963    -2.095376   0.18908743   -3.6319963    1.5366203   621062 
 7848000     1.447133   -3.6303446   -2.0958049   0.19394165   -3.6303446    1.5345397   621077 
 7849000    1.4485177   -3.6312603   -2.0952868    0.1950252   -3.6312603    1.5359735   621091 
 7850000    1.4484827   -3.6312711    -2.095362   0.19153753   -3.6312711    1.5359091   621102 
 7851000    1.4487709     -3.63152   -2.0953448    0.1953595     -3.63152    1.5361752   621118 
 7852000    1.4484058   -3.6310343   -2.0952784   0.19176014   -3.6310343    1.5357559   621131 
 7853000    1.4495464   -3.6334592   -2.0965138   0.18862336   -3.6334592    1.5369454   621139 
 7854000    1.4463168   -3.6311901   -2.0976911   0.19693694   -3.6311901     1.533499   621148 
 7855000    1.4471228   -3.6316795   -2.0973359   0.19618445   -3.6316795    1.5343436   621152 
 7856000    1.4475329   -3.6317218   -2.0969878   0.19640476   -3.6317218    1.5347339   621170 
 7857000    1.4477901   -3.6321721   -2.0971852    0.1959685   -3.6321721    1.5349869   621178 
 7858000     1.448172   -3.6321577   -2.0967833   0.19344208   -3.6321577    1.5353744   621185 
 7859000    1.4484628   -3.6319538   -2.0963155   0.20197648   -3.6319538    1.5356383   621203 
 7860000    1.4484044   -3.6323186   -2.0967644   0.18866965   -3.6323186    1.5355542   621212 
 7861000    1.4489973   -3.6323806    -2.096235   0.19801998   -3.6323806    1.5361456   621227 
 7862000    1.4484872   -3.6327151   -2.0971498   0.19697744   -3.6327151    1.5355653   621243 
 7863000    1.4462193   -3.6319541   -2.0988202   0.19128944   -3.6319541    1.5331339   621254 
 7864000    1.4468454   -3.6339717   -2.1002111   0.18816649   -3.6339717    1.5337606   621269 
 7865000    1.4453519   -3.6321005   -2.0999576   0.19906925   -3.6321005    1.5321429   621283 
 7866000    1.4472372   -3.6339262   -2.0998095   0.19495236   -3.6339262    1.5341166   621293 
 7867000    1.4478406   -3.6339279   -2.0992234   0.19047832   -3.6339279    1.5347044   621314 
 7868000    1.4464279   -3.6317338    -2.098544    0.1961597   -3.6317338    1.5331897   621321 
 7869000    1.4469798   -3.6332655   -2.0995204   0.19460256   -3.6332655     1.533745   621333 
 7870000    1.4470266   -3.6331016   -2.0993316   0.19222266   -3.6331016      1.53377   621343 
 7871000     1.447702   -3.6330279   -2.0985667   0.19792711   -3.6330279    1.5344612   621353 
 7872000    1.4476338   -3.6321552   -2.0978008    0.1961319   -3.6321552    1.5343544   621367 
 7873000    1.4481475   -3.6331534   -2.0982817   0.18930504   -3.6331534    1.5348716   621378 
 7874000    1.4490402   -3.6324654    -2.096702   0.19957905   -3.6324654    1.5357635   621400 
 7875000    1.4484598   -3.6327006   -2.0975869   0.19951265   -3.6327006    1.5351137   621414 
 7876000    1.4472164    -3.632055   -2.0982764   0.19594511    -3.632055    1.5337786   621421 
 7877000    1.4490473   -3.6342633   -2.0985838   0.18824359   -3.6342633    1.5356794   621437 
 7878000    1.4480607   -3.6328752   -2.0982635   0.19752709   -3.6328752    1.5346117   621446 
 7879000    1.4488333    -3.634302   -2.0988838   0.19119855    -3.634302    1.5354182   621451 
 7880000    1.4474546   -3.6331258    -2.099196   0.19218743   -3.6331258    1.5339298   621462 
 7881000    1.4475112   -3.6335968   -2.0996488   0.19380718   -3.6335968    1.5339479   621479 
 7882000    1.4473616   -3.6326899   -2.0989129   0.19706706   -3.6326899     1.533777   621484 
 7883000    1.4489185   -3.6352577   -2.0998679   0.19177522   -3.6352577    1.5353898   621499 
 7884000    1.4477681   -3.6340256   -2.0999141   0.18992303   -3.6340256    1.5341115   621523 
 7885000    1.4467014   -3.6322034   -2.0992641   0.20028071   -3.6322034    1.5329393   621540 
 7886000    1.4491399   -3.6342318   -2.0987334   0.19730914   -3.6342318    1.5354984   621550 
 7887000    1.4487942   -3.6333104   -2.0981856   0.19960226   -3.6333104    1.5351248   621553 
 7888000    1.4496745    -3.634447   -2.0984266   0.19868929    -3.634447    1.5360204   621568 
 7889000     1.450777   -3.6352944    -2.098128   0.19771749   -3.6352944    1.5371663   621577 
 7890000    1.4500524   -3.6350737   -2.0987098    0.1930519   -3.6350737     1.536364   621591 
 7891000    1.4483566   -3.6336752   -2.0991351   0.20147768   -3.6336752    1.5345401   621602 
 7892000    1.4495373    -3.634589   -2.0988252   0.19520188    -3.634589    1.5357638   621613 
 7893000    1.4498255   -3.6350027   -2.0989805   0.19447971   -3.6350027    1.5360222   621632 
 7894000    1.4484334   -3.6337858   -2.0992631   0.19251712   -3.6337858    1.5345227   621642 
 7895000    1.4497486   -3.6345537   -2.0986574   0.19343408   -3.6345537    1.5358962   621650 
 7896000    1.4493921   -3.6340563   -2.0985377   0.19938168   -3.6340563    1.5355186   621650 
 7897000    1.4486987     -3.63412   -2.0993631    0.1995498     -3.63412    1.5347569   621661 
 7898000    1.4506199   -3.6359797   -2.0992073    0.1943889   -3.6359797    1.5367724   621669 
 7899000    1.4479221   -3.6338722   -2.1000023   0.20001259   -3.6338722    1.5338699   621687 
 7900000    1.4487844   -3.6348012   -2.1000449   0.19308306   -3.6348012    1.5347563   621698 
 7901000    1.4497105   -3.6355473   -2.0998495   0.19638866   -3.6355473    1.5356978   621714 
 7902000    1.4483794   -3.6338819   -2.0996263   0.19941914   -3.6338819    1.5342556   621727 
 7903000     1.450611   -3.6337736   -2.0971714   0.19963137   -3.6337736    1.5366023   621734 
 7904000    1.4512888     -3.63394    -2.096637   0.19926835     -3.63394    1.5373029   621741 
 7905000    1.4494424   -3.6336321   -2.0982998    0.2010008   -3.6336321    1.5353323   621747 
 7906000     1.451098   -3.6356263   -2.0985625   0.19422949   -3.6356263    1.5370637   621756 
 7907000    1.4513139   -3.6362295   -2.0989667   0.19773139   -3.6362295    1.5372628   621768 
 7908000    1.4497957   -3.6360203   -2.1003977   0.19261496   -3.6360203    1.5356226   621781 
 7909000    1.4516638   -3.6374975   -2.0998986   0.19769906   -3.6374975    1.5375989   621782 
 7910000    1.4496392   -3.6355091   -2.1000696   0.19911061   -3.6355091    1.5354396   621788 
 7911000    1.4500907   -3.6353421   -2.0994441    0.1983869   -3.6353421     1.535898   621796 
 7912000    1.4484083   -3.6330889   -2.0990024   0.20097729   -3.6330889    1.5340865   621808 
 7913000     1.448604   -3.6345285   -2.1002595   0.19921644   -3.6345285     1.534269   621818 
 7914000    1.4495797   -3.6356732   -2.1003832   0.19550635   -3.6356732    1.5352901   621823 
 7915000    1.4486936   -3.6361981   -2.1018736   0.19387497   -3.6361981    1.5343245   621834 
 7916000    1.4489093   -3.6354993   -2.1009612   0.20107498   -3.6354993    1.5345382   621840 
 7917000    1.4477728   -3.6358786   -2.1025959   0.19451636   -3.6358786    1.5332827   621861 
 7918000    1.4485868   -3.6366627   -2.1025304   0.19355779   -3.6366627    1.5341324   621866 
 7919000    1.4490287   -3.6367038   -2.1021379   0.19221946   -3.6367038    1.5345659   621880 
 7920000    1.4495965     -3.63696   -2.1018274   0.19194853     -3.63696    1.5351326   621894 
 7921000      1.44857   -3.6355507   -2.1015176   0.19539453   -3.6355507    1.5340332   621899 
 7922000    1.4493532   -3.6366271   -2.1017892    0.1951071   -3.6366271    1.5348379   621909 
 7923000     1.447195    -3.634783   -2.1022552   0.20148773    -3.634783    1.5325278   621919 
 7924000    1.4487276   -3.6364274   -2.1023137   0.19829414   -3.6364274    1.5341137   621934 
 7925000    1.4494141   -3.6369785   -2.1021649   0.19907737   -3.6369785    1.5348136   621945 
 7926000    1.4516047   -3.6386063   -2.1015102    0.1937434   -3.6386063    1.5370961   621960 
 7927000    1.4483634   -3.6348758   -2.1012291   0.20505694   -3.6348758    1.5336468   621967 
 7928000    1.4478174   -3.6357845   -2.1027455   0.19505049   -3.6357845     1.533039   621979 
 7929000    1.4502568   -3.6374908    -2.101896   0.19884658   -3.6374908    1.5355948   621990 
 7930000    1.4509964   -3.6384732   -2.1021224   0.19542282   -3.6384732    1.5363508   622001 
 7931000    1.4504174   -3.6365994   -2.1008791   0.19358998   -3.6365994    1.5357204   622008 
 7932000    1.4485434    -3.635886   -2.1021621   0.19612221    -3.635886    1.5337239   622013 
 7933000    1.4473704   -3.6355116   -2.1030518   0.19877337   -3.6355116    1.5324598   622022 
 7934000      1.44937   -3.6362103   -2.1016408   0.19890361   -3.6362103    1.5345695   622025 
 7935000    1.4492205   -3.6364668   -2.1020901    0.1977391   -3.6364668    1.5343767   622039 
 7936000    1.4486303   -3.6361051   -2.1023878   0.20080927   -3.6361051    1.5337173   622053 
 7937000    1.4507602     -3.63831   -2.1023921   0.19639965     -3.63831     1.535918   622075 
 7938000    1.4495263   -3.6368359   -2.1022735   0.19550941   -3.6368359    1.5345623   622095 
 7939000    1.4483657   -3.6366273   -2.1033133    0.1979951   -3.6366273    1.5333139   622103 
 7940000    1.4491853   -3.6365257   -2.1023638   0.20123094   -3.6365257    1.5341619   622111 
 7941000    1.4500774   -3.6375347    -2.102458   0.19666251   -3.6375347    1.5350766   622123 
 7942000    1.4486391   -3.6357735    -2.102254   0.19471107   -3.6357735    1.5335195   622137 
 7943000     1.449747    -3.637262   -2.1026092   0.19619663    -3.637262    1.5346528   622153 
 7944000     1.449531   -3.6371664   -2.1027693   0.19624087   -3.6371664     1.534397   622164 
 7945000    1.4515808   -3.6394692   -2.1029443   0.18935585   -3.6394692    1.5365249   622181 
 7946000     1.450319   -3.6375237   -2.1023665   0.19514521   -3.6375237    1.5351572   622194 
 7947000    1.4505864   -3.6372691   -2.1018412   0.20348757   -3.6372691    1.5354279   622199 
 7948000    1.4521659   -3.6396914   -2.1026287   0.19449038   -3.6396914    1.5370627   622214 
 7949000    1.4507567   -3.6385376   -2.1029961    0.2022228   -3.6385376    1.5355415   622226 
 7950000     1.450194   -3.6383994   -2.1034904   0.19310713   -3.6383994    1.5349089   622241 
 7951000    1.4509906   -3.6387352   -2.1030103   0.19370622   -3.6387352    1.5357249   622252 
 7952000    1.4502262   -3.6373555   -2.1024643   0.20324143   -3.6373555    1.5348913   622262 
 7953000    1.4497918    -3.637032   -2.1026326   0.19757144    -3.637032    1.5343994   622275 
 7954000    1.4515534   -3.6397762   -2.1035346   0.19824084   -3.6397762    1.5362416   622284 
 7955000    1.4496535    -3.637183   -2.1029866   0.20147252    -3.637183    1.5341963   622298 
 7956000    1.4484845   -3.6370242   -2.1040972   0.19829447   -3.6370242    1.5329271   622311 
 7957000    1.4489738   -3.6386358   -2.1052081   0.19539312   -3.6386358    1.5334277   622318 
 7958000    1.4483171   -3.6375201   -2.1048268   0.19830789   -3.6375201    1.5326933   622334 
 7959000    1.4493191   -3.6381417   -2.1044053   0.19980852   -3.6381417    1.5337365   622341 
 7960000    1.4497712   -3.6391654   -2.1049997   0.18885989   -3.6391654    1.5341656   622361 
 7961000     1.449043   -3.6390655   -2.1056805   0.18998888   -3.6390655    1.5333851   622365 
 7962000    1.4498166   -3.6398036   -2.1056491   0.19334239   -3.6398036    1.5341545   622385 
 7963000    1.4496626   -3.6388497   -2.1048878   0.19929611   -3.6388497    1.5339619   622397 
 7964000    1.4492581   -3.6393359   -2.1058389   0.19244535   -3.6393359    1.5334969   622412 
 7965000    1.4480092    -3.638334   -2.1061832   0.19741466    -3.638334    1.5321508   622422 
 7966000     1.448524   -3.6391946   -2.1065164   0.20015367   -3.6391946    1.5326783   622429 
 7967000    1.4484623   -3.6394449   -2.1068762   0.19494831   -3.6394449    1.5325687   622447 
 7968000     1.448963   -3.6394084   -2.1063543   0.19765585   -3.6394084    1.5330541   622465 
 7969000    1.4496954   -3.6407684   -2.1069788   0.19237265   -3.6407684    1.5337896   622481 
 7970000    1.4489365   -3.6389149   -2.1059528   0.20048202   -3.6389149    1.5329621   622491 
 7971000    1.4496577   -3.6405603   -2.1068575   0.19965025   -3.6405603    1.5337029   622500 
 7972000    1.4485553   -3.6394327   -2.1069257   0.19918657   -3.6394327     1.532507   622512 
 7973000    1.4501041   -3.6409434   -2.1068076   0.19563321   -3.6409434    1.5341358   622516 
 7974000    1.4481846   -3.6395813   -2.1075009   0.19442066   -3.6395813    1.5320804   622526 
 7975000    1.4504844   -3.6408773   -2.1063836   0.20112423   -3.6408773    1.5344937   622534 
 7976000    1.4484057    -3.639314   -2.1070367   0.20310746    -3.639314    1.5322774   622541 
 7977000    1.4514163   -3.6416377    -2.106195   0.19702804   -3.6416377    1.5354426   622549 
 7978000    1.4515733   -3.6418225   -2.1062459   0.19321603   -3.6418225    1.5355766   622562 
 7979000     1.449681   -3.6403073   -2.1067694   0.19683605   -3.6403073    1.5335379   622577 
 7980000    1.4496795   -3.6386859   -2.1051816   0.20099109   -3.6386859    1.5335042   622590 
 7981000    1.4508727   -3.6412476   -2.1065157   0.19674664   -3.6412476    1.5347319   622604 
 7982000    1.4493809   -3.6391741   -2.1060375   0.19745186   -3.6391741    1.5331367   622611 
 7983000    1.4497615   -3.6387355   -2.1052307   0.20261147   -3.6387355    1.5335048   622625 
 7984000    1.4505503   -3.6396883   -2.1053615   0.19472631   -3.6396883    1.5343268   622630 
 7985000     1.449214   -3.6382286   -2.1053718   0.20650467   -3.6382286    1.5328568   622653 
 7986000    1.4511353   -3.6402854   -2.1054261   0.19300892   -3.6402854    1.5348593   622665 
 7987000    1.4518638   -3.6411214   -2.1055112   0.20043267   -3.6411214    1.5356102   622673 
 7988000    1.4503877   -3.6406458   -2.1066535   0.19675792   -3.6406458    1.5339923   622696 
 7989000    1.4512528   -3.6407316    -2.105854   0.19817751   -3.6407316    1.5348776   622708 
 7990000    1.4524233   -3.6417453   -2.1056717   0.19788056   -3.6417453    1.5360736   622725 
 7991000    1.4517849   -3.6411628   -2.1058013   0.19817695   -3.6411628    1.5353615   622740 
 7992000    1.4509778   -3.6409732   -2.1064825   0.19881892   -3.6409732    1.5344907   622747 
 7993000    1.4519254   -3.6404345   -2.1049663   0.20285121   -3.6404345    1.5354682   622757 
 7994000    1.4509884   -3.6408272   -2.1063944   0.20376416   -3.6408272    1.5344329   622775 
 7995000    1.4522477   -3.6420275   -2.1062777   0.19772399   -3.6420275    1.5357498   622781 
 7996000    1.4510849    -3.641591   -2.1070929   0.19858881    -3.641591     1.534498   622790 
 7997000    1.4506311   -3.6412145   -2.1072259   0.19756387   -3.6412145    1.5339885   622802 
 7998000    1.4493496   -3.6410301    -2.108409   0.19833803   -3.6410301    1.5326211   622807 
 7999000    1.4509518   -3.6421339   -2.1078555   0.19638807   -3.6421339    1.5342784   622822 
 8000000    1.4486972   -3.6397593   -2.1078895   0.19937091   -3.6397593    1.5318697   622832 
Loop time of 10369.2 on 192 procs for 5000000 steps with 622832 atoms

Performance: 208308.388 tau/day, 482.195 timesteps/s
99.2% CPU use with 192 MPI tasks x 1 OpenMP threads

MPI task timing breakdown:
Section |  min time  |  avg time  |  max time  |%varavg|  %CPU | %total
-----------------------------------------------------------------------
Pair    | 3692.4     | 4429       | 4811.5     | 461.0 |  99.1 | 42.71
Bond    | 3.3113     | 3.4987     | 3.7596     |   3.6 | 100.0 |  0.03
Neigh   | 1875.4     | 2120.2     | 2246.7     | 194.0 |  99.5 | 20.45
Comm    | 1352.9     | 2264.4     | 3160.9     | 901.6 |  99.0 | 21.84
Output  | 282.72     | 286.16     | 286.2      |   1.5 |  98.3 |  2.76
Modify  | 959.48     | 1057.5     | 1642.7     | 628.3 |  99.1 | 10.20
Other   |            | 208.5      |            |       |       |  2.01

Nlocal:        3243.92 ave        3357 max        3103 min
Histogram: 1 2 5 14 41 58 39 26 5 1
Nghost:        4310.93 ave        4641 max        3556 min
Histogram: 29 19 0 0 0 0 0 1 69 74
Neighs:        99744.7 ave      106497 max       86536 min
Histogram: 2 3 10 10 7 22 47 43 34 14

Total # of neighbors = 19150978
Ave neighs/atom = 30.748224
Ave special neighs/atom = 0.0000000
Neighbor list builds = 505000
Dangerous builds = 450000

write_restart   restart_write.dat
System init for write_restart ...
write_data	data.write
System init for write_data ...
WARNING: Not all mixed pair coeffs generated from mixing. Use write_data with 'pair ij' option to store all pair coeffs. (src/write_data.cpp:312)

Total wall time: 2:52:56
