LAMMPS (29 Oct 2020)
  using 1 OpenMP thread(s) per MPI task
# Simple rigid body system
# needed variables:

#variable	startTemp equal 0.5
#variable 	temp 	  equal 0.8

units		lj
atom_style	full
dimension 	3
boundary	p p f
pair_style	lj/cut/opt 2.5

variable 	sigma		equal 1.0
variable 	epsilon 	equal 1.0

region		box block 0 80 0 80 0 160
create_box 	3 box
Created orthogonal box = (0.0000000 0.0000000 0.0000000) to (80.000000 80.000000 160.00000)
  2 by 4 by 8 MPI processor grid



lattice 	sc 0.66
Lattice spacing in x,y,z = 1.1485556 1.1485556 1.1485556
region		fluid block EDGE EDGE EDGE EDGE 2 100 units box
create_atoms 	1 region fluid
Created 421400 atoms
  create_atoms CPU = 0.044 seconds

lattice 	sc 0.045
Lattice spacing in x,y,z = 2.8114422 2.8114422 2.8114422
region		gas block EDGE EDGE EDGE EDGE 101 158 units box
create_atoms    1 region gas
Created 17661 atoms
  create_atoms CPU = 0.006 seconds

group		solvent type 1
439061 atoms in group solvent

mass		1 1.0
mass		2 1.0
mass		3 1.0



neighbor 	0.4 bin

pair_coeff	1 1 1.0 1.0
pair_coeff	2 2 0.0 0.0
pair_coeff	3 3 0.0 0.0
pair_coeff	2 3 0.0 0.0
pair_coeff	1 2*3 0.0 0.0

pair_modify 	shift yes

delete_atoms	overlap 0.5 solvent solvent
System init for delete_atoms ...
Neighbor list info ...
  update every 1 steps, delay 10 steps, check yes
  max neighbors/atom: 2000, page size: 100000
  master list distance cutoff = 2.9
  ghost atom cutoff = 2.9
  binsize = 1.45, bins = 56 56 111
  2 neighbor lists, perpetual/occasional/extra = 1 1 0
  (1) command delete_atoms, occasional
      attributes: full, newton on
      pair build: full/bin
      stencil: full/bin/3d
      bin: standard
  (2) pair lj/cut/opt, perpetual
      attributes: half, newton on
      pair build: half/bin/newton
      stencil: half/bin/3d/newton
      bin: standard
WARNING: Ignoring 'compress yes' for molecular system (src/delete_atoms.cpp:125)
Deleted 0 atoms, new total = 439061

velocity 	solvent create ${startTemp} 563435 loop geom
velocity 	solvent create .95 563435 loop geom

balance 	1.05 shift z 10 1.05
Balancing ...
Neighbor list info ...
  update every 1 steps, delay 10 steps, check yes
  max neighbors/atom: 2000, page size: 100000
  master list distance cutoff = 2.9
  ghost atom cutoff = 2.9
  binsize = 1.45, bins = 56 56 111
  1 neighbor lists, perpetual/occasional/extra = 1 0 0
  (1) pair lj/cut/opt, perpetual
      attributes: half, newton on
      pair build: half/bin/newton
      stencil: half/bin/3d/newton
      bin: standard
 rebalancing time: 0.054 seconds
  iteration count = 5
  initial/final maximal load/proc = 11340.000 8190.0000
  initial/final imbalance factor  = 1.6529822 1.1938204
  x cuts: 0.0000000 0.5 1.0000000
  y cuts: 0.0000000 0.25 0.5 0.75 1.0000000
  z cuts: 0.0000000 0.08984375 0.17578125 0.25390625 0.3359375 0.4140625 0.50390625 0.58203125 1.0000000


####################### WALLS ###########################


variable       epsilonWall equal 2*${epsilon}
variable       epsilonWall equal 2*1

variable       cutoffTop   equal   0.7147*${sigma}
variable       cutoffTop   equal   0.7147*1

variable       cutoffLow   equal   3*${sigma}
variable       cutoffLow   equal   3*1


fix            topWall all wall/lj93 zhi EDGE                ${epsilonWall} ${sigma} ${cutoffTop} units box
fix            topWall all wall/lj93 zhi EDGE                2 ${sigma} ${cutoffTop} units box
fix            topWall all wall/lj93 zhi EDGE                2 1 ${cutoffTop} units box
fix            topWall all wall/lj93 zhi EDGE                2 1 0.7147 units box

fix            lowWall all wall/lj93 zlo EDGE                ${epsilonWall} ${sigma} ${cutoffLow} units box
fix            lowWall all wall/lj93 zlo EDGE                2 ${sigma} ${cutoffLow} units box
fix            lowWall all wall/lj93 zlo EDGE                2 1 ${cutoffLow} units box
fix            lowWall all wall/lj93 zlo EDGE                2 1 3 units box


###################### COMPUTES ##########################

compute        bin1 solvent chunk/atom bin/1d z upper 1.0


######################	FIXES ############################


fix 		peclet solvent ave/chunk 1000 1 1000 bin1 density/number norm 		 none ave one file density.profile

fix 		 temp solvent ave/chunk 1000 1 1000 bin1 temp norm 		 none ave one file temp.profile

fix 		2 solvent nve


## Thermostat


region		regthermo block EDGE EDGE EDGE EDGE 0 20 units box

group 		thermo dynamic solvent region regthermo every 1000
dynamic group thermo defined

fix 		3 thermo langevin ${startTemp} ${temp} 10 156453
fix 		3 thermo langevin .95 ${temp} 10 156453
fix 		3 thermo langevin .95 .95 10 156453



#### Load balancing


fix 		bal all balance 1000 1.05 shift z 10 1.05


############### Diagnostics and computes ###################
#compute 	com cube	  rigid/local	1 mol x y z
#compute 	quat cube	  rigid/local	1 mol quatw quati quatj quatk

thermo 		1000
thermo_style 	custom step temp epair evdwl etotal press pe ke atoms

dump		1 all custom 100000 dump.lammpstrj id mol type x y z
dump 		2 all image 10000 image.*.png type type
dump 		3 all movie 1000 movie.avi type type

#dump 		com cube local 1000 dump.*.xyz c_com[*]
#dump		quat cube      local 1000 dump.*.quat c_quat[*]


restart 	1000000 restart.dat
timestep 	0.005
timer 		full
New timer settings: style=full  mode=nosync  timeout=off

run		5000000
Per MPI rank memory allocation (min/avg/max) = 11.32 | 15.17 | 18.40 Mbytes
Step Temp E_pair E_vdwl TotEng Press PotEng KinEng Atoms 
       0         0.95   -1.2273921   -1.2273921    0.1976047    4.0391849   -1.2273921    1.4249968   439061 
    1000    1.9743672   -3.2444254   -3.2444254  -0.28288131    2.0195705   -3.2444254    2.9615441   439061 
    2000    1.8433117   -3.2319082   -3.2319082    -0.466947    1.1663541   -3.2319082    2.7649612   439061 
    3000    1.6575583   -3.1121894   -3.1121894  -0.62585749   0.83115772   -3.1121894    2.4863319   439061 
    4000    1.5675751   -3.0842701   -3.0842701  -0.73291287    0.6388413   -3.0842701    2.3513572   439061 
    5000    1.5147041    -3.048232    -3.048232  -0.77618095    0.5066681    -3.048232     2.272051   439061 
    6000    1.4763112   -2.9997575   -2.9997575  -0.78529569   0.40932731   -2.9997575    2.2144618   439061 
    7000    1.4498426   -2.9516324   -2.9516324  -0.77687343   0.37488452   -2.9516324    2.1747589   439061 
    8000    1.4323389   -2.9121051   -2.9121051  -0.76360175   0.38611832   -2.9121051    2.1485034   439061 
    9000    1.4368972   -2.9044099   -2.9044099  -0.74906907   0.44162747   -2.9044099    2.1553408   439061 
   10000    1.4533749   -2.9174255   -2.9174255  -0.73736811   0.49430584   -2.9174255    2.1800574   439061 
   11000    1.4669313   -2.9290408   -2.9290408  -0.72864883   0.52182128   -2.9290408     2.200392   439061 
   12000    1.4704417   -2.9314608   -2.9314608   -0.7258032   0.53798818   -2.9314608    2.2056576   439061 
   13000    1.4637081   -2.9181425   -2.9181425  -0.72258526   0.52415664   -2.9181425    2.1955572   439061 
   14000    1.4471997   -2.8906137   -2.8906137   -0.7198191   0.47858793   -2.8906137    2.1707946   439061 
   15000    1.4255774   -2.8572741   -2.8572741  -0.71891285   0.42854948   -2.8572741    2.1383612   439061 
   16000    1.4042705   -2.8246813   -2.8246813  -0.71828028   0.40204813   -2.8246813     2.106401   439061 
   17000    1.3865845   -2.7968714   -2.7968714   -0.7169993   0.38743646   -2.7968714    2.0798721   439061 
   18000    1.3775427   -2.7852392   -2.7852392  -0.71892982   0.38842082   -2.7852392    2.0663094   439061 
   19000    1.3695354    -2.793891    -2.793891  -0.73959254   0.40968955    -2.793891    2.0542984   439061 
   20000    1.3575587   -2.8147138   -2.8147138  -0.77838046   0.43068902   -2.8147138    2.0363334   439061 
   21000    1.3375068   -2.8273795   -2.8273795  -0.82112386   0.42970825   -2.8273795    2.0062556   439061 
   22000    1.3235118   -2.8416704   -2.8416704  -0.85640724   0.41920602   -2.8416704    1.9852632   439061 
   23000    1.3128604   -2.8548428   -2.8548428  -0.88555677   0.42735244   -2.8548428    1.9692861   439061 
   24000    1.3103078    -2.875517    -2.875517  -0.91005985   0.42703229    -2.875517    1.9654572   439061 
   25000    1.3043421   -2.8908535   -2.8908535  -0.93434486   0.44359578   -2.8908535    1.9565087   439061 
   26000    1.2976086   -2.9002538   -2.9002538  -0.95384527   0.43399384   -2.9002538    1.9464085   439061 
   27000    1.2891695   -2.9045846   -2.9045846  -0.97083483   0.41398442   -2.9045846    1.9337498   439061 
   28000    1.2798891   -2.9021064   -2.9021064  -0.98227705     0.394266   -2.9021064    1.9198294   439061 
   29000    1.2680368   -2.8951385   -2.8951385  -0.99308772   0.38103411   -2.8951385    1.9020508   439061 
   30000    1.2562178   -2.8859241   -2.8859241   -1.0016018   0.35513955   -2.8859241    1.8843223   439061 
   31000    1.2441058   -2.8745004   -2.8745004   -1.0083459   0.32856747   -2.8745004    1.8661545   439061 
   32000    1.2321819   -2.8613404   -2.8613404   -1.0130717   0.30616737   -2.8613404    1.8482686   439061 
   33000    1.2176225   -2.8436425   -2.8436425   -1.0172129     0.289623   -2.8436425    1.8264296   439061 
   34000     1.206011   -2.8263246   -2.8263246   -1.0173122    0.2595512   -2.8263246    1.8090124   439061 
   35000    1.1971838   -2.8143239   -2.8143239   -1.0185522   0.25135756   -2.8143239    1.7957717   439061 
   36000    1.1905324   -2.8040897   -2.8040897   -1.0182951   0.23862187   -2.8040897    1.7857945   439061 
   37000    1.1883415   -2.8007119   -2.8007119   -1.0182037   0.23498634   -2.8007119    1.7825082   439061 
   38000    1.1874412   -2.7973514   -2.7973514   -1.0161936   0.23104818   -2.7973514    1.7811577   439061 
   39000    1.1849225   -2.7931358   -2.7931358    -1.015756   0.22553218   -2.7931358    1.7773798   439061 
   40000    1.1823364   -2.7883356   -2.7883356    -1.014835   0.22842809   -2.7883356    1.7735006   439061 
   41000    1.1833742   -2.7897094   -2.7897094   -1.0146521   0.22504318   -2.7897094    1.7750573   439061 
   42000    1.1858961   -2.7918703   -2.7918703   -1.0130302   0.22533933   -2.7918703    1.7788401   439061 
   43000    1.1862957   -2.7909628   -2.7909628   -1.0115234   0.23072414   -2.7909628    1.7794394   439061 
   44000    1.1884406    -2.791002    -2.791002   -1.0083452   0.23249564    -2.791002    1.7826568   439061 
   45000    1.1858278   -2.7875358   -2.7875358    -1.008798   0.22857651   -2.7875358    1.7787377   439061 
   46000    1.1822775   -2.7827523   -2.7827523   -1.0093401   0.22369939   -2.7827523    1.7734122   439061 
   47000    1.1797366   -2.7775433   -2.7775433   -1.0079425   0.21957335   -2.7775433    1.7696008   439061 
   48000    1.1783752   -2.7742724   -2.7742724   -1.0067136   0.20971711   -2.7742724    1.7675588   439061 
   49000    1.1774983   -2.7718244   -2.7718244   -1.0055809   0.21180372   -2.7718244    1.7662434   439061 
   50000    1.1770282   -2.7718858   -2.7718858   -1.0063475   0.21746162   -2.7718858    1.7655383   439061 
   51000    1.1758137   -2.7749934   -2.7749934   -1.0112768   0.21726414   -2.7749934    1.7637166   439061 
   52000    1.1741925   -2.7810418   -2.7810418    -1.019757   0.22972556   -2.7810418    1.7612847   439061 
   53000    1.1724676   -2.7908703   -2.7908703   -1.0321728   0.23309301   -2.7908703    1.7586975   439061 
   54000    1.1712489   -2.8003361   -2.8003361   -1.0434668    0.2364521   -2.8003361    1.7568693   439061 
   55000    1.1697297   -2.8076762   -2.8076762   -1.0530856   0.24102089   -2.8076762    1.7545906   439061 
   56000     1.169747   -2.8171299   -2.8171299   -1.0625133   0.24003169   -2.8171299    1.7546165   439061 
   57000    1.1693151   -2.8253549   -2.8253549   -1.0713863     0.241201   -2.8253549    1.7539687   439061 
   58000    1.1672496   -2.8293204   -2.8293204   -1.0784501    0.2466423   -2.8293204    1.7508704   439061 
   59000    1.1681956   -2.8352114   -2.8352114    -1.082922   0.24553152   -2.8352114    1.7522894   439061 
   60000     1.167579   -2.8414654   -2.8414654   -1.0901009   0.24564863   -2.8414654    1.7513646   439061 
   61000    1.1669045   -2.8464901   -2.8464901   -1.0961374   0.24343202   -2.8464901    1.7503527   439061 
   62000     1.163569   -2.8481564   -2.8481564   -1.1028069   0.23574781   -2.8481564    1.7453495   439061 
   63000    1.1609244   -2.8488781   -2.8488781   -1.1074956   0.23625452   -2.8488781    1.7413826   439061 
   64000    1.1579432   -2.8486281   -2.8486281   -1.1117172   0.22556877   -2.8486281    1.7369108   439061 
   65000     1.153753   -2.8439839   -2.8439839   -1.1133583   0.22787343   -2.8439839    1.7306256   439061 
   66000    1.1478815   -2.8391997   -2.8391997   -1.1173814   0.21711149   -2.8391997    1.7218183   439061 
   67000    1.1434009   -2.8357725   -2.8357725   -1.1206751   0.21071526   -2.8357725    1.7150974   439061 
   68000    1.1389939   -2.8297369   -2.8297369     -1.12125   0.20370238   -2.8297369    1.7084869   439061 
   69000     1.134942   -2.8239291   -2.8239291     -1.12152   0.19574863   -2.8239291    1.7024091   439061 
   70000    1.1294782    -2.817882    -2.817882   -1.1236685   0.18656391    -2.817882    1.6942135   439061 
   71000    1.1276704   -2.8150379   -2.8150379    -1.123536   0.18885237   -2.8150379    1.6915018   439061 
   72000    1.1257118   -2.8124111   -2.8124111   -1.1238473    0.1755825   -2.8124111    1.6885638   439061 
   73000    1.1231108   -2.8092133   -2.8092133   -1.1245509   0.17237217   -2.8092133    1.6846624   439061 
   74000    1.1218786   -2.8062755   -2.8062755   -1.1234614   0.17128239   -2.8062755     1.682814   439061 
   75000    1.1204812   -2.8038511   -2.8038511   -1.1231332   0.17454293   -2.8038511     1.680718   439061 
   76000    1.1192396   -2.8025116   -2.8025116    -1.123656   0.16737036   -2.8025116    1.6788556   439061 
   77000    1.1208285   -2.8028355   -2.8028355   -1.1215966   0.16370198   -2.8028355    1.6812389   439061 
   78000    1.1192987   -2.7990821   -2.7990821   -1.1201378   0.16592622   -2.7990821    1.6789443   439061 
   79000    1.1178031   -2.7958516   -2.7958516   -1.1191507   0.16322651   -2.7958516    1.6767009   439061 
   80000    1.1178057   -2.7948825   -2.7948825   -1.1181778   0.16455456   -2.7948825    1.6767047   439061 
   81000    1.1198551   -2.7966681   -2.7966681   -1.1168892   0.16061183   -2.7966681    1.6797789   439061 
   82000     1.117699   -2.7952921   -2.7952921   -1.1187475   0.15523021   -2.7952921    1.6765446   439061 
   83000    1.1179094   -2.7939547   -2.7939547   -1.1170944   0.16330067   -2.7939547    1.6768602   439061 
   84000    1.1164945   -2.7928175   -2.7928175   -1.1180796   0.16024414   -2.7928175     1.674738   439061 
   85000    1.1185046   -2.7979569   -2.7979569   -1.1202039   0.16106191   -2.7979569     1.677753   439061 
   86000    1.1204203   -2.8024749   -2.8024749   -1.1218483   0.15619722   -2.8024749    1.6806266   439061 
   87000    1.1206997   -2.8047116   -2.8047116   -1.1236658   0.16189806   -2.8047116    1.6810458   439061 
   88000    1.1193978   -2.8060371   -2.8060371   -1.1269442   0.17357484   -2.8060371    1.6790929   439061 
   89000    1.1202039   -2.8121918   -2.8121918   -1.1318898   0.17773481   -2.8121918     1.680302   439061 
   90000    1.1207934   -2.8180344   -2.8180344   -1.1368481   0.17440083   -2.8180344    1.6811863   439061 
   91000    1.1196618   -2.8217539   -2.8217539   -1.1422649   0.17924057   -2.8217539    1.6794889   439061 
   92000    1.1204278   -2.8253664   -2.8253664   -1.1447286   0.18606911   -2.8253664    1.6806379   439061 
   93000    1.1219581   -2.8328134   -2.8328134     -1.14988    0.1813438   -2.8328134    1.6829334   439061 
   94000    1.1200454   -2.8341291   -2.8341291   -1.1540649   0.18981489   -2.8341291    1.6800642   439061 
   95000    1.1205742   -2.8396816   -2.8396816   -1.1588242   0.18425659   -2.8396816    1.6808574   439061 
   96000    1.1191713   -2.8410904   -2.8410904   -1.1623372   0.18512966   -2.8410904    1.6787531   439061 
   97000    1.1189741   -2.8437569   -2.8437569   -1.1652995   0.18692453   -2.8437569    1.6784574   439061 
   98000    1.1183624   -2.8488218   -2.8488218   -1.1712821   0.18079668   -2.8488218    1.6775397   439061 
   99000    1.1172727   -2.8476467   -2.8476467   -1.1717415   0.18862416   -2.8476467    1.6759052   439061 
  100000    1.1143796   -2.8484059   -2.8484059   -1.1768403   0.18194982   -2.8484059    1.6715656   439061 
  101000    1.1131736   -2.8489543   -2.8489543   -1.1791977   0.18179226   -2.8489543    1.6697566   439061 
  102000    1.1129602   -2.8500131   -2.8500131   -1.1805766   0.18168203   -2.8500131    1.6694365   439061 
  103000    1.1108405   -2.8494066   -2.8494066   -1.1831496   0.17514491   -2.8494066     1.666257   439061 
  104000    1.1078212   -2.8482611   -2.8482611   -1.1865331   0.17051726   -2.8482611     1.661728   439061 
  105000    1.1041823   -2.8453887   -2.8453887   -1.1891191   0.16929269   -2.8453887    1.6562697   439061 
  106000    1.1030879   -2.8446475   -2.8446475   -1.1900195   0.16356793   -2.8446475     1.654628   439061 
  107000    1.1003833   -2.8424151   -2.8424151   -1.1918439   0.15981275   -2.8424151    1.6505712   439061 
  108000    1.0986743   -2.8397624   -2.8397624   -1.1917547   0.15511256   -2.8397624    1.6480077   439061 
  109000    1.0969224   -2.8370949   -2.8370949   -1.1917151   0.15253541   -2.8370949    1.6453798   439061 
  110000    1.0956975    -2.835395    -2.835395   -1.1918525   0.15531519    -2.835395    1.6435425   439061 
  111000    1.0948532   -2.8345757   -2.8345757   -1.1922997   0.14560095   -2.8345757     1.642276   439061 
  112000    1.0924054   -2.8321696   -2.8321696   -1.1935652   0.15164271   -2.8321696    1.6386043   439061 
  113000     1.092343   -2.8302731   -2.8302731   -1.1917623   0.14140808   -2.8302731    1.6385108   439061 
  114000    1.0923386   -2.8299114   -2.8299114   -1.1914072   0.14371055   -2.8299114    1.6385042   439061 
  115000    1.0913422   -2.8282104   -2.8282104   -1.1912009   0.14004511   -2.8282104    1.6370095   439061 
  116000    1.0907978   -2.8277815   -2.8277815   -1.1915886    0.1416096   -2.8277815    1.6361929   439061 
  117000    1.0909441   -2.8276787   -2.8276787   -1.1912663   0.14255466   -2.8276787    1.6364124   439061 
  118000    1.0904132    -2.827713    -2.827713   -1.1920969   0.13502187    -2.827713    1.6356161   439061 
  119000    1.0898239   -2.8260914   -2.8260914   -1.1913593   0.14141753   -2.8260914    1.6347321   439061 
  120000    1.0907069   -2.8277495   -2.8277495   -1.1916928   0.13693829   -2.8277495    1.6360566   439061 
  121000    1.0916746   -2.8282951   -2.8282951   -1.1907869   0.14030046   -2.8282951    1.6375082   439061 
  122000    1.0895672    -2.827432    -2.827432   -1.1930849   0.14407507    -2.827432    1.6343471   439061 
  123000    1.0914362   -2.8299947   -2.8299947   -1.1928442   0.14494314   -2.8299947    1.6371505   439061 
  124000    1.0912527   -2.8318953   -2.8318953     -1.19502   0.14360712   -2.8318953    1.6368753   439061 
  125000    1.0929808   -2.8352109   -2.8352109   -1.1957435   0.14589459   -2.8352109    1.6394675   439061 
  126000    1.0917281   -2.8356147   -2.8356147   -1.1980263   0.14208574   -2.8356147    1.6375884   439061 
  127000    1.0945044   -2.8434439   -2.8434439    -1.201691    0.1546245   -2.8434439    1.6417529   439061 
  128000    1.0945093   -2.8447129   -2.8447129   -1.2029527   0.15758637   -2.8447129    1.6417602   439061 
  129000    1.0946795   -2.8490771   -2.8490771   -1.2070616   0.15696055   -2.8490771    1.6420155   439061 
  130000    1.0928525   -2.8492866   -2.8492866   -1.2100116   0.15244874   -2.8492866     1.639275   439061 
  131000      1.09405   -2.8550112   -2.8550112   -1.2139399    0.1572591   -2.8550112    1.6410713   439061 
  132000    1.0944277   -2.8577292   -2.8577292   -1.2160914   0.15507298   -2.8577292    1.6416378   439061 
  133000    1.0937241   -2.8597943   -2.8597943   -1.2192118   0.15973657   -2.8597943    1.6405824   439061 
  134000    1.0929157   -2.8617528   -2.8617528   -1.2223831   0.15676818   -2.8617528    1.6393697   439061 
  135000    1.0938112   -2.8651611   -2.8651611   -1.2244481   0.15553631   -2.8651611     1.640713   439061 
  136000    1.0919965   -2.8654292   -2.8654292   -1.2274382   0.15824147   -2.8654292     1.637991   439061 
  137000    1.0914285   -2.8654021   -2.8654021   -1.2282631   0.16169708   -2.8654021     1.637139   439061 
  138000     1.090029    -2.866496    -2.866496   -1.2314563   0.16307564    -2.866496    1.6350397   439061 
  139000    1.0897138   -2.8668562   -2.8668562   -1.2322892   0.15211044   -2.8668562     1.634567   439061 
  140000    1.0868061   -2.8648796   -2.8648796   -1.2346743   0.14962794   -2.8648796    1.6302054   439061 
  141000    1.0869266   -2.8651084   -2.8651084   -1.2347222   0.15124257   -2.8651084    1.6303863   439061 
  142000    1.0870899   -2.8659065   -2.8659065   -1.2352754   0.14792704   -2.8659065    1.6306311   439061 
  143000    1.0847292    -2.864584    -2.864584   -1.2374938   0.14754972    -2.864584    1.6270902   439061 
  144000     1.084351   -2.8632684   -2.8632684   -1.2367456   0.14329092   -2.8632684    1.6265228   439061 
  145000    1.0827881   -2.8611316   -2.8611316   -1.2369532   0.14602715   -2.8611316    1.6241784   439061 
  146000    1.0813868   -2.8601243   -2.8601243   -1.2380478   0.14421288   -2.8601243    1.6220765   439061 
  147000    1.0812992   -2.8598671   -2.8598671   -1.2379221   0.13883967   -2.8598671     1.621945   439061 
  148000    1.0805006   -2.8586507   -2.8586507   -1.2379035   0.13842618   -2.8586507    1.6207472   439061 
  149000    1.0778555   -2.8567543   -2.8567543   -1.2399748   0.13445209   -2.8567543    1.6167795   439061 
  150000    1.0767523   -2.8537929   -2.8537929   -1.2386682   0.13102378   -2.8537929    1.6151247   439061 
  151000    1.0788559   -2.8560625   -2.8560625   -1.2377824   0.13678421   -2.8560625    1.6182801   439061 
  152000    1.0769058   -2.8542371   -2.8542371   -1.2388821   0.13367301   -2.8542371     1.615355   439061 
  153000    1.0774254   -2.8540396   -2.8540396   -1.2379053   0.13113545   -2.8540396    1.6161344   439061 
  154000    1.0763928   -2.8525876   -2.8525876    -1.238002   0.12833189   -2.8525876    1.6145856   439061 
  155000    1.0771901    -2.854149    -2.854149   -1.2383674   0.13103957    -2.854149    1.6157815   439061 
  156000    1.0752692   -2.8516548   -2.8516548   -1.2387547   0.12630599   -2.8516548    1.6129002   439061 
  157000    1.0750479   -2.8522034   -2.8522034   -1.2396352   0.13432569   -2.8522034    1.6125682   439061 
  158000    1.0752389   -2.8518927   -2.8518927   -1.2390381   0.13311809   -2.8518927    1.6128547   439061 
  159000    1.0760959   -2.8545031   -2.8545031    -1.240363   0.13703651   -2.8545031    1.6141401   439061 
  160000    1.0769468   -2.8581888   -2.8581888   -1.2427723   0.13512187   -2.8581888    1.6154166   439061 
  161000    1.0770822   -2.8600425   -2.8600425   -1.2444229   0.13093465   -2.8600425    1.6156196   439061 
  162000    1.0766641   -2.8607776   -2.8607776   -1.2457851   0.13396556   -2.8607776    1.6149925   439061 
  163000    1.0768584    -2.862318    -2.862318    -1.247034   0.13555321    -2.862318     1.615284   439061 
  164000    1.0763508   -2.8631757   -2.8631757   -1.2486532   0.13449024   -2.8631757    1.6145225   439061 
  165000    1.0765606   -2.8654474   -2.8654474   -1.2506102   0.13643775   -2.8654474    1.6148372   439061 
  166000    1.0781553   -2.8697282   -2.8697282    -1.252499   0.13966975   -2.8697282    1.6172293   439061 
  167000    1.0753952   -2.8682859   -2.8682859   -1.2551969   0.13778998   -2.8682859    1.6130891   439061 
  168000    1.0774982   -2.8729285   -2.8729285   -1.2566848   0.14020381   -2.8729285    1.6162437   439061 
  169000    1.0767985   -2.8748534   -2.8748534   -1.2596593   0.14027259   -2.8748534    1.6151941   439061 
  170000    1.0776624   -2.8775038   -2.8775038    -1.261014   0.14795903   -2.8775038    1.6164898   439061 
  171000     1.079034   -2.8814478   -2.8814478   -1.2629005   0.14435225   -2.8814478    1.6185473   439061 
  172000     1.076948    -2.880022    -2.880022   -1.2646036   0.13606214    -2.880022    1.6154184   439061 
  173000    1.0764628   -2.8812511   -2.8812511   -1.2665605    0.1420645   -2.8812511    1.6146906   439061 
  174000     1.075426   -2.8817836   -2.8817836   -1.2686482   0.14130966   -2.8817836    1.6131354   439061 
  175000    1.0767146   -2.8849136   -2.8849136   -1.2698453   0.13962175   -2.8849136    1.6150683   439061 
  176000    1.0760043   -2.8861269   -2.8861269   -1.2721241   0.13477961   -2.8861269    1.6140028   439061 
  177000    1.0743239   -2.8839462   -2.8839462   -1.2724639   0.13981283   -2.8839462    1.6114822   439061 
  178000    1.0748658   -2.8855493   -2.8855493   -1.2732543   0.13334254   -2.8855493     1.612295   439061 
  179000    1.0731045   -2.8834518   -2.8834518   -1.2737987   0.14108708   -2.8834518    1.6096531   439061 
  180000     1.072449    -2.883686    -2.883686   -1.2750162   0.13394966    -2.883686    1.6086699   439061 
  181000    1.0720447   -2.8826982   -2.8826982   -1.2746348   0.13165218   -2.8826982    1.6080634   439061 
  182000    1.0695893   -2.8812359   -2.8812359   -1.2768556   0.13577485   -2.8812359    1.6043802   439061 
  183000    1.0705014   -2.8825121   -2.8825121   -1.2767637   0.13476145   -2.8825121    1.6057485   439061 
  184000    1.0702063   -2.8834513   -2.8834513   -1.2781456   0.13475469   -2.8834513    1.6053057   439061 
  185000    1.0690342   -2.8817215   -2.8817215   -1.2781738   0.13615779   -2.8817215    1.6035477   439061 
  186000    1.0683141   -2.8817534   -2.8817534   -1.2792859    0.1233772   -2.8817534    1.6024676   439061 
  187000    1.0680455   -2.8813561   -2.8813561   -1.2792915   0.12702781   -2.8813561    1.6020646   439061 
  188000     1.066411   -2.8788821   -2.8788821   -1.2792692   0.13214345   -2.8788821    1.5996129   439061 
  189000    1.0667457   -2.8786756   -2.8786756   -1.2785608   0.12230452   -2.8786756    1.6001148   439061 
  190000    1.0676682   -2.8799778   -2.8799778   -1.2784792   0.12392058   -2.8799778    1.6014986   439061 
  191000    1.0658682   -2.8759875   -2.8759875   -1.2771889    0.1239066   -2.8759875    1.5987987   439061 
  192000    1.0662609   -2.8778096   -2.8778096   -1.2784219   0.12258159   -2.8778096    1.5993878   439061 
  193000    1.0646787   -2.8761234   -2.8761234    -1.279109   0.12154688   -2.8761234    1.5970144   439061 
  194000    1.0657615   -2.8774941   -2.8774941   -1.2788555   0.12497903   -2.8774941    1.5986386   439061 
  195000    1.0643917   -2.8762513   -2.8762513   -1.2796673   0.12921075   -2.8762513    1.5965839   439061 
  196000    1.0651622   -2.8791564   -2.8791564   -1.2814166    0.1225119   -2.8791564    1.5977397   439061 
  197000    1.0667878   -2.8817529   -2.8817529   -1.2815748   0.12688413   -2.8817529    1.6001781   439061 
  198000    1.0658893   -2.8814893   -2.8814893    -1.282659   0.12862374   -2.8814893    1.5988303   439061 
  199000    1.0646672   -2.8812431   -2.8812431   -1.2842459   0.12571256   -2.8812431    1.5969972   439061 
  200000    1.0667221   -2.8853557   -2.8853557   -1.2852761   0.12475607   -2.8853557    1.6000795   439061 
  201000    1.0662554    -2.886929    -2.886929   -1.2875495   0.13201776    -2.886929    1.5993795   439061 
  202000    1.0659688   -2.8886917   -2.8886917   -1.2897422   0.12355164   -2.8886917    1.5989496   439061 
  203000    1.0635262   -2.8862061   -2.8862061   -1.2909203   0.12638832   -2.8862061    1.5952857   439061 
  204000    1.0651765   -2.8882864   -2.8882864   -1.2905253   0.12848085   -2.8882864    1.5977611   439061 
  205000    1.0670334   -2.8923607   -2.8923607   -1.2918143   0.12889022   -2.8923607    1.6005464   439061 
  206000    1.0671043   -2.8946146   -2.8946146   -1.2939618   0.12636336   -2.8946146    1.6006528   439061 
  207000     1.067344   -2.8975721   -2.8975721   -1.2965597   0.12712817   -2.8975721    1.6010124   439061 
  208000    1.0662611   -2.8978137   -2.8978137   -1.2984257   0.13270484   -2.8978137     1.599388   439061 
  209000    1.0649131   -2.8965877   -2.8965877   -1.2992217    0.1323407   -2.8965877     1.597366   439061 
  210000    1.0646418   -2.8990783   -2.8990783   -1.3021192   0.12928787   -2.8990783    1.5969591   439061 
  211000    1.0648983   -2.9008695   -2.9008695   -1.3035257    0.1294069   -2.9008695    1.5973438   439061 
  212000    1.0642491   -2.9008924   -2.9008924   -1.3045223   0.13153513   -2.9008924      1.59637   439061 
  213000    1.0644206   -2.9033052   -2.9033052   -1.3066779   0.13088264   -2.9033052    1.5966273   439061 
  214000    1.0645949   -2.9039808   -2.9039808   -1.3070921   0.12804706   -2.9039808    1.5968887   439061 
  215000    1.0626965   -2.9039172   -2.9039172    -1.309876   0.12737447   -2.9039172    1.5940412   439061 
  216000    1.0633001   -2.9034217   -2.9034217   -1.3084752   0.13001987   -2.9034217    1.5949465   439061 
  217000    1.0639499   -2.9040451   -2.9040451   -1.3081239   0.12537841   -2.9040451    1.5959212   439061 
  218000    1.0619376   -2.9026617   -2.9026617    -1.309759   0.12536409   -2.9026617    1.5929027   439061 
  219000    1.0616628   -2.9031092   -2.9031092   -1.3106187    0.1340151   -2.9031092    1.5924905   439061 
  220000    1.0611344   -2.9036888   -2.9036888   -1.3119909   0.13020951   -2.9036888    1.5916979   439061 
  221000    1.0609544   -2.9047223   -2.9047223   -1.3132943   0.12584819   -2.9047223     1.591428   439061 
  222000    1.0598767   -2.9042194   -2.9042194   -1.3144079   0.12329604   -2.9042194    1.5898115   439061 
  223000    1.0599484   -2.9035536   -2.9035536   -1.3136347   0.12208882   -2.9035536     1.589919   439061 
  224000    1.0591444     -2.90448     -2.90448   -1.3157671   0.12285979     -2.90448    1.5887129   439061 
  225000    1.0579376   -2.9050433   -2.9050433   -1.3181405   0.12238809   -2.9050433    1.5869029   439061 
  226000     1.058017   -2.9039747   -2.9039747   -1.3169528   0.12195401   -2.9039747    1.5870219   439061 
  227000    1.0576496   -2.9033219   -2.9033219   -1.3168511   0.12701894   -2.9033219    1.5864707   439061 
  228000    1.0577654     -2.90363     -2.90363   -1.3169855   0.11995619     -2.90363    1.5866445   439061 
  229000    1.0575963   -2.9023247   -2.9023247   -1.3159338   0.11955116   -2.9023247    1.5863908   439061 
  230000    1.0565849   -2.9010036   -2.9010036   -1.3161299   0.12108663   -2.9010036    1.5848737   439061 
  231000    1.0568977   -2.9026341   -2.9026341   -1.3172912   0.11731634   -2.9026341    1.5853429   439061 
  232000    1.0553468   -2.9006058   -2.9006058   -1.3175893   0.11562812   -2.9006058    1.5830165   439061 
  233000    1.0577603   -2.9045023   -2.9045023   -1.3178654   0.11954972   -2.9045023    1.5866368   439061 
  234000    1.0560674    -2.902903    -2.902903   -1.3188056   0.11888792    -2.902903    1.5840974   439061 
  235000    1.0580783   -2.9066596   -2.9066596   -1.3195457   0.11842953   -2.9066596    1.5871139   439061 
  236000    1.0562045   -2.9038019   -2.9038019   -1.3194988   0.12057992   -2.9038019    1.5843031   439061 
  237000    1.0552615   -2.9040881   -2.9040881   -1.3211995   0.12125844   -2.9040881    1.5828886   439061 
  238000    1.0546793   -2.9063234   -2.9063234   -1.3243079   0.12377141   -2.9063234    1.5820154   439061 
  239000     1.055631   -2.9103367   -2.9103367   -1.3268937    0.1177758   -2.9103367    1.5834429   439061 
  240000    1.0571335   -2.9116354   -2.9116354   -1.3259388   0.11977964   -2.9116354    1.5856966   439061 
  241000    1.0566487   -2.9108558   -2.9108558   -1.3258864   0.12008788   -2.9108558    1.5849694   439061 
  242000    1.0573783   -2.9136538   -2.9136538   -1.3275899   0.12087332   -2.9136538    1.5860639   439061 
  243000    1.0581299   -2.9157711   -2.9157711   -1.3285798   0.12373678   -2.9157711    1.5871912   439061 
  244000    1.0573181    -2.915864    -2.915864   -1.3298905   0.12447727    -2.915864    1.5859735   439061 
  245000    1.0566723   -2.9161497   -2.9161497   -1.3311448   0.11869045   -2.9161497    1.5850049   439061 
  246000    1.0566703   -2.9168963   -2.9168963   -1.3318946   0.12881858   -2.9168963    1.5850018   439061 
  247000    1.0565356   -2.9194146   -2.9194146   -1.3346148   0.12456393   -2.9194146    1.5847998   439061 
  248000    1.0547903   -2.9191018   -2.9191018   -1.3369199   0.12312274   -2.9191018    1.5821818   439061 
  249000    1.0547772   -2.9202072   -2.9202072    -1.338045   0.12076526   -2.9202072    1.5821622   439061 
  250000    1.0535806     -2.91944     -2.91944   -1.3390727   0.12534738     -2.91944    1.5803673   439061 
  251000    1.0547201    -2.921117    -2.921117   -1.3390404   0.11792871    -2.921117    1.5820765   439061 
  252000    1.0537251   -2.9208422   -2.9208422   -1.3402581   0.11925935   -2.9208422    1.5805841   439061 
  253000     1.054201   -2.9238448   -2.9238448   -1.3425468   0.11626993   -2.9238448     1.581298   439061 
  254000    1.0548566   -2.9233174   -2.9233174   -1.3410361   0.12227178   -2.9233174    1.5822813   439061 
  255000    1.0533715   -2.9206548   -2.9206548   -1.3406011   0.12057463   -2.9206548    1.5800536   439061 
  256000    1.0526253   -2.9204769   -2.9204769   -1.3415425   0.12017078   -2.9204769    1.5789344   439061 
  257000    1.0529018   -2.9225717   -2.9225717   -1.3432226      0.11682   -2.9225717    1.5793491   439061 
  258000    1.0538197   -2.9225145   -2.9225145   -1.3417885   0.11912345   -2.9225145     1.580726   439061 
  259000    1.0531719   -2.9219132   -2.9219132   -1.3421588   0.12111483   -2.9219132    1.5797543   439061 
  260000    1.0522717   -2.9222994   -2.9222994   -1.3438954   0.11172218   -2.9222994     1.578404   439061 
  261000    1.0510134   -2.9205673   -2.9205673   -1.3440509   0.11258132   -2.9205673    1.5765165   439061 
  262000    1.0524744   -2.9227452   -2.9227452   -1.3440373   0.11898222   -2.9227452     1.578708   439061 
  263000    1.0533964   -2.9245582   -2.9245582   -1.3444672    0.1154499   -2.9245582     1.580091   439061 
  264000    1.0531323   -2.9253971   -2.9253971   -1.3457022   0.11750909   -2.9253971    1.5796949   439061 
  265000    1.0534296   -2.9277627   -2.9277627   -1.3476219   0.11579711   -2.9277627    1.5801408   439061 
  266000    1.0501502   -2.9237521   -2.9237521   -1.3485305   0.11720545   -2.9237521    1.5752216   439061 
  267000    1.0509911   -2.9262382   -2.9262382   -1.3497551   0.11559217   -2.9262382    1.5764831   439061 
  268000    1.0502807   -2.9255691   -2.9255691   -1.3501517   0.11481003   -2.9255691    1.5754174   439061 
  269000    1.0500804   -2.9258742   -2.9258742   -1.3507572   0.11557205   -2.9258742    1.5751171   439061 
  270000    1.0499026   -2.9254838   -2.9254838   -1.3506335   0.11781262   -2.9254838    1.5748503   439061 
  271000    1.0488315   -2.9262555   -2.9262555   -1.3530117   0.11508314   -2.9262555    1.5732437   439061 
  272000    1.0500602    -2.927131    -2.927131   -1.3520444   0.11507374    -2.927131    1.5750867   439061 
  273000    1.0498041   -2.9286338   -2.9286338   -1.3539313   0.11436572   -2.9286338    1.5747025   439061 
  274000    1.0487223   -2.9274322   -2.9274322   -1.3543523   0.11864188   -2.9274322    1.5730799   439061 
  275000    1.0487766   -2.9280386   -2.9280386   -1.3548773   0.11405402   -2.9280386    1.5731613   439061 
  276000    1.0481513   -2.9285756   -2.9285756   -1.3563523   0.11374562   -2.9285756    1.5722233   439061 
  277000    1.0490684   -2.9310758   -2.9310758   -1.3574768   0.11695285   -2.9310758     1.573599   439061 
  278000    1.0493618    -2.930562    -2.930562   -1.3565229   0.11069518    -2.930562    1.5740391   439061 
  279000    1.0496378   -2.9314356   -2.9314356   -1.3569825   0.11516701   -2.9314356    1.5744531   439061 
  280000    1.0500572   -2.9338709   -2.9338709   -1.3587887   0.11271175   -2.9338709    1.5750822   439061 
  281000    1.0486551   -2.9326424   -2.9326424   -1.3596633   0.11378806   -2.9326424    1.5729791   439061 
  282000    1.0467488    -2.930601    -2.930601   -1.3604814   0.11625172    -2.930601    1.5701197   439061 
  283000    1.0486028    -2.933965    -2.933965   -1.3610643   0.11846472    -2.933965    1.5729007   439061 
  284000    1.0502051   -2.9353816   -2.9353816   -1.3600776   0.11536989   -2.9353816     1.575304   439061 
  285000    1.0490942   -2.9352541   -2.9352541   -1.3616164   0.11972679   -2.9352541    1.5736377   439061 
  286000    1.0491909   -2.9357293   -2.9357293   -1.3619465   0.11490853   -2.9357293    1.5737828   439061 
  287000    1.0475949   -2.9347401   -2.9347401   -1.3633513   0.11465275   -2.9347401    1.5713888   439061 
  288000    1.0471484   -2.9351488   -2.9351488   -1.3644298   0.11430426   -2.9351488    1.5707191   439061 
  289000    1.0487966   -2.9387977   -2.9387977   -1.3656064   0.11645507   -2.9387977    1.5731913   439061 
  290000    1.0489384   -2.9398369   -2.9398369   -1.3664328   0.11540321   -2.9398369     1.573404   439061 
  291000    1.0498606   -2.9422112   -2.9422112   -1.3674239   0.11381721   -2.9422112    1.5747874   439061 
  292000    1.0474681   -2.9396559   -2.9396559   -1.3684573   0.11309232   -2.9396559    1.5711986   439061 
  293000    1.0474504   -2.9411063   -2.9411063   -1.3699343   0.11524842   -2.9411063     1.571172   439061 
  294000     1.047446    -2.941552    -2.941552   -1.3703865   0.11167921    -2.941552    1.5711655   439061 
  295000    1.0468535   -2.9409054   -2.9409054   -1.3706287   0.11298591   -2.9409054    1.5702767   439061 
  296000    1.0469262   -2.9409356   -2.9409356   -1.3705498   0.11834308   -2.9409356    1.5703858   439061 
  297000    1.0470086   -2.9424752   -2.9424752   -1.3719659   0.11537068   -2.9424752    1.5705093   439061 
  298000    1.0461775   -2.9422855   -2.9422855   -1.3730228   0.11990979   -2.9422855    1.5692627   439061 
  299000    1.0461649   -2.9420206   -2.9420206   -1.3727768   0.11156188   -2.9420206    1.5692437   439061 
  300000    1.0459353   -2.9421916   -2.9421916   -1.3732922   0.11182643   -2.9421916    1.5688993   439061 
  301000    1.0468682   -2.9442531   -2.9442531   -1.3739544   0.10927737   -2.9442531    1.5702987   439061 
  302000    1.0458134   -2.9422404   -2.9422404   -1.3735238    0.1115812   -2.9422404    1.5687166   439061 
  303000    1.0451636   -2.9416739   -2.9416739    -1.373932   0.11201441   -2.9416739    1.5677419   439061 
  304000    1.0439061   -2.9412124   -2.9412124   -1.3753568   0.11377099   -2.9412124    1.5658557   439061 
  305000    1.0431898   -2.9419933   -2.9419933   -1.3772121   0.11770693   -2.9419933    1.5647812   439061 
  306000    1.0435742   -2.9425649   -2.9425649   -1.3772071   0.11538539   -2.9425649    1.5653578   439061 
  307000     1.043793   -2.9435706   -2.9435706   -1.3778847   0.11152114   -2.9435706    1.5656859   439061 
  308000    1.0421285   -2.9422716   -2.9422716   -1.3790823   0.10998518   -2.9422716    1.5631892   439061 
  309000    1.0433188    -2.944965    -2.944965   -1.3799904   0.10994675    -2.944965    1.5649747   439061 
  310000    1.0438139   -2.9464805   -2.9464805   -1.3807632   0.11017542   -2.9464805    1.5657173   439061 
  311000    1.0428798   -2.9449859   -2.9449859   -1.3806698   0.11545693   -2.9449859    1.5643161   439061 
  312000     1.044953   -2.9496404   -2.9496404   -1.3822145   0.11441284   -2.9496404    1.5674259   439061 
  313000    1.0429786   -2.9463239   -2.9463239   -1.3818597   0.11389394   -2.9463239    1.5644643   439061 
  314000    1.0419338    -2.946077    -2.946077   -1.3831799   0.11047012    -2.946077    1.5628971   439061 
  315000    1.0416238   -2.9476936   -2.9476936   -1.3852615   0.10766828   -2.9476936    1.5624321   439061 
  316000    1.0432454    -2.950263    -2.950263   -1.3853984   0.10892159    -2.950263    1.5648646   439061 
  317000    1.0425599   -2.9490142   -2.9490142   -1.3851779   0.11322759   -2.9490142    1.5638363   439061 
  318000    1.0431255   -2.9504494   -2.9504494   -1.3857646   0.11013721   -2.9504494    1.5646847   439061 
  319000    1.0428387   -2.9520805   -2.9520805   -1.3878261   0.11252063   -2.9520805    1.5642544   439061 
  320000    1.0436138   -2.9539971   -2.9539971   -1.3885799   0.11140123   -2.9539971    1.5654172   439061 
  321000    1.0414954   -2.9520356   -2.9520356    -1.389796    0.1135392   -2.9520356    1.5622396   439061 
  322000    1.0414689   -2.9522292   -2.9522292   -1.3900295   0.10994082   -2.9522292    1.5621997   439061 
  323000    1.0418583   -2.9525543   -2.9525543   -1.3897705   0.11278161   -2.9525543    1.5627838   439061 
  324000    1.0415697   -2.9544054   -2.9544054   -1.3920544   0.11113457   -2.9544054     1.562351   439061 
  325000     1.042306   -2.9548407   -2.9548407   -1.3913854   0.11407669   -2.9548407    1.5634554   439061 
  326000    1.0432875   -2.9560588   -2.9560588   -1.3911311   0.10961382   -2.9560588    1.5649277   439061 
  327000    1.0440636   -2.9577731   -2.9577731   -1.3916813   0.10927746   -2.9577731    1.5660918   439061 
  328000    1.0429234    -2.956055    -2.956055   -1.3916734   0.10955129    -2.956055    1.5643816   439061 
  329000    1.0415476   -2.9540981   -2.9540981   -1.3917804   0.10909378   -2.9540981    1.5623178   439061 
  330000    1.0399439   -2.9536763   -2.9536763   -1.3937641   0.11304197   -2.9536763    1.5599123   439061 
  331000    1.0410732   -2.9572181   -2.9572181   -1.3956119   0.10609328   -2.9572181    1.5616062   439061 
  332000    1.0398181   -2.9537428   -2.9537428   -1.3940193   0.11240796   -2.9537428    1.5597235   439061 
  333000    1.0409813   -2.9563595   -2.9563595   -1.3948911   0.11322494   -2.9563595    1.5614684   439061 
  334000    1.0409001   -2.9578101   -2.9578101   -1.3964635    0.1097901   -2.9578101    1.5613466   439061 
  335000    1.0410667   -2.9589317   -2.9589317   -1.3973352   0.10869622   -2.9589317    1.5615965   439061 
  336000    1.0394139   -2.9575443   -2.9575443   -1.3984269   0.11111403   -2.9575443    1.5591174   439061 
  337000    1.0389927   -2.9559749   -2.9559749   -1.3974894   0.11219696   -2.9559749    1.5584855   439061 
  338000    1.0391508   -2.9566778   -2.9566778   -1.3979552   0.10976777   -2.9566778    1.5587227   439061 
  339000     1.039831   -2.9580766   -2.9580766   -1.3983337   0.10991517   -2.9580766    1.5597429   439061 
  340000    1.0398445   -2.9598755   -2.9598755   -1.4001123   0.10967511   -2.9598755    1.5597632   439061 
  341000    1.0405794   -2.9620727   -2.9620727   -1.4012071   0.10938665   -2.9620727    1.5608656   439061 
  342000    1.0409962   -2.9629232   -2.9629232   -1.4014324   0.10530004   -2.9629232    1.5614908   439061 
  343000    1.0376047    -2.959237    -2.959237   -1.4028335   0.10985212    -2.959237    1.5564035   439061 
  344000    1.0371338    -2.959089    -2.959089   -1.4033918   0.11078046    -2.959089    1.5556971   439061 
  345000    1.0381463   -2.9620863   -2.9620863   -1.4048704   0.10874232   -2.9620863    1.5572159   439061 
  346000    1.0393251   -2.9624953   -2.9624953   -1.4035112   0.10769528   -2.9624953    1.5589841   439061 
  347000     1.037737   -2.9605454   -2.9605454   -1.4039435   0.10701504   -2.9605454    1.5566019   439061 
  348000    1.0387928   -2.9625924   -2.9625924   -1.4044068   0.10943237   -2.9625924    1.5581856   439061 
  349000    1.0385595   -2.9633826   -2.9633826   -1.4055469   0.10612702   -2.9633826    1.5578357   439061 
  350000    1.0380092   -2.9633104   -2.9633104   -1.4063001   0.10715212   -2.9633104    1.5570102   439061 
  351000    1.0372055   -2.9617922   -2.9617922   -1.4059876    0.1101835   -2.9617922    1.5558046   439061 
  352000    1.0391004   -2.9645677   -2.9645677   -1.4059207   0.10646347   -2.9645677     1.558647   439061 
  353000    1.0377718    -2.963904    -2.963904   -1.4072499   0.10517259    -2.963904    1.5566541   439061 
  354000    1.0378728   -2.9644803   -2.9644803   -1.4076746   0.10602751   -2.9644803    1.5568057   439061 
  355000    1.0376774   -2.9662675   -2.9662675   -1.4097549   0.11158478   -2.9662675    1.5565126   439061 
  356000    1.0359177   -2.9638476   -2.9638476   -1.4099746   0.10592857   -2.9638476     1.553873   439061 
  357000    1.0379015   -2.9683735   -2.9683735   -1.4115249   0.10331348   -2.9683735    1.5568487   439061 
  358000    1.0366622   -2.9660769   -2.9660769   -1.4110872   0.10807913   -2.9660769    1.5549898   439061 
  359000    1.0369668   -2.9674274   -2.9674274   -1.4119808   0.10726511   -2.9674274    1.5554466   439061 
  360000    1.0366194   -2.9653459   -2.9653459   -1.4104203    0.1053651   -2.9653459    1.5549256   439061 
  361000    1.0368515    -2.966034    -2.966034   -1.4107604    0.1118505    -2.966034    1.5552737   439061 
  362000    1.0373499   -2.9675918   -2.9675918   -1.4115705   0.10768527   -2.9675918    1.5560212   439061 
  363000    1.0372347   -2.9684013   -2.9684013   -1.4125528     0.102014   -2.9684013    1.5558485   439061 
  364000    1.0374168    -2.968937    -2.968937   -1.4128153   0.10461454    -2.968937    1.5561217   439061 
  365000    1.0377338   -2.9699798   -2.9699798   -1.4133825   0.10327029   -2.9699798    1.5565972   439061 
  366000    1.0369087   -2.9697046   -2.9697046   -1.4143451   0.10345791   -2.9697046    1.5553595   439061 
  367000    1.0363958   -2.9694253   -2.9694253   -1.4148352  0.098604215   -2.9694253    1.5545902   439061 
  368000    1.0348016   -2.9674594   -2.9674594   -1.4152606   0.10557156   -2.9674594    1.5521989   439061 
  369000    1.0367636   -2.9711531   -2.9711531   -1.4160112   0.10316994   -2.9711531    1.5551419   439061 
  370000    1.0369449   -2.9711511   -2.9711511   -1.4157374   0.10542225   -2.9711511    1.5554137   439061 
  371000    1.0369602   -2.9716321   -2.9716321   -1.4161954   0.10771337   -2.9716321    1.5554367   439061 
  372000    1.0360484   -2.9716738   -2.9716738   -1.4176048   0.10277373   -2.9716738     1.554069   439061 
  373000    1.0367959   -2.9728836   -2.9728836   -1.4176933   0.10229326   -2.9728836    1.5551903   439061 
  374000     1.036244   -2.9728661   -2.9728661   -1.4185037   0.10639451   -2.9728661    1.5543625   439061 
  375000    1.0350301   -2.9728686   -2.9728686    -1.420327   0.10187284   -2.9728686    1.5525417   439061 
  376000     1.035705   -2.9720943   -2.9720943   -1.4185403   0.10485814   -2.9720943    1.5535539   439061 
  377000    1.0357107   -2.9721312   -2.9721312   -1.4185686   0.10802973   -2.9721312    1.5535626   439061 
  378000    1.0336684   -2.9716641   -2.9716641    -1.421165   0.10418613   -2.9716641    1.5504991   439061 
  379000    1.0371295   -2.9751513   -2.9751513   -1.4194606   0.10366418   -2.9751513    1.5556907   439061 
  380000    1.0360103   -2.9744749   -2.9744749    -1.420463   0.10334202   -2.9744749    1.5540118   439061 
  381000    1.0376835   -2.9765488   -2.9765488    -1.420027   0.10485855   -2.9765488    1.5565218   439061 
  382000    1.0363382   -2.9740336   -2.9740336   -1.4195299   0.10820115   -2.9740336    1.5545037   439061 
  383000    1.0365417   -2.9748683   -2.9748683   -1.4200593   0.10349659   -2.9748683     1.554809   439061 
  384000    1.0350897    -2.974212    -2.974212    -1.421581   0.10604944    -2.974212    1.5526311   439061 
  385000    1.0357786   -2.9752234   -2.9752234    -1.421559   0.10338404   -2.9752234    1.5536644   439061 
  386000      1.03632   -2.9770533   -2.9770533   -1.4225768   0.10399039   -2.9770533    1.5544765   439061 
  387000    1.0354606   -2.9791171   -2.9791171   -1.4259298   0.10207003   -2.9791171    1.5531874   439061 
  388000    1.0337447   -2.9780393   -2.9780393   -1.4274258   0.10683257   -2.9780393    1.5506135   439061 
  389000    1.0330606   -2.9772999   -2.9772999   -1.4277125    0.1060832   -2.9772999    1.5495873   439061 
  390000    1.0340561   -2.9794268   -2.9794268   -1.4283462   0.10328489   -2.9794268    1.5510806   439061 
  391000    1.0352896   -2.9812162   -2.9812162   -1.4282853   0.10338402   -2.9812162    1.5529309   439061 
  392000    1.0342737   -2.9808883   -2.9808883   -1.4294813   0.10600817   -2.9808883     1.551407   439061 
  393000     1.034453   -2.9818863   -2.9818863   -1.4302104   0.10897186   -2.9818863    1.5516759   439061 
  394000    1.0335936   -2.9790349   -2.9790349    -1.428648   0.10882118   -2.9790349    1.5503869   439061 
  395000    1.0352268   -2.9821911   -2.9821911   -1.4293545   0.10747858   -2.9821911    1.5528366   439061 
  396000    1.0339295   -2.9831194   -2.9831194   -1.4322286   0.11131727   -2.9831194    1.5508907   439061 
  397000    1.0328379   -2.9825026   -2.9825026   -1.4332493   0.10787392   -2.9825026    1.5492533   439061 
  398000    1.0326604   -2.9827049   -2.9827049   -1.4337178  0.098478095   -2.9827049    1.5489871   439061 
  399000    1.0329802   -2.9834433   -2.9834433   -1.4339766   0.10110032   -2.9834433    1.5494668   439061 
  400000    1.0336864   -2.9839371   -2.9839371    -1.433411   0.10144626   -2.9839371    1.5505261   439061 
  401000    1.0324834   -2.9835924   -2.9835924   -1.4348709   0.10532453   -2.9835924    1.5487215   439061 
  402000      1.03093   -2.9807665   -2.9807665    -1.434375   0.10444956   -2.9807665    1.5463915   439061 
  403000    1.0323564   -2.9833258   -2.9833258   -1.4347947    0.1020666   -2.9833258    1.5485311   439061 
  404000    1.0319046   -2.9837243   -2.9837243    -1.435871   0.10018468   -2.9837243    1.5478533   439061 
  405000    1.0316703   -2.9834511   -2.9834511   -1.4359492   0.10248504   -2.9834511    1.5475019   439061 
  406000    1.0330911   -2.9852368   -2.9852368   -1.4356037   0.10040432   -2.9852368    1.5496332   439061 
  407000    1.0324244    -2.984991    -2.984991    -1.436358  0.099756846    -2.984991     1.548633   439061 
  408000     1.032438   -2.9855932   -2.9855932   -1.4369397   0.10175232   -2.9855932    1.5486535   439061 
  409000    1.0323084   -2.9855767   -2.9855767   -1.4371176   0.10605686   -2.9855767    1.5484591   439061 
  410000    1.0337077   -2.9874107   -2.9874107   -1.4368528   0.10369448   -2.9874107     1.550558   439061 
  411000    1.0323434    -2.986202    -2.986202   -1.4376905   0.10268959    -2.986202    1.5485115   439061 
  412000    1.0310711   -2.9857658   -2.9857658   -1.4391626  0.097596635   -2.9857658    1.5466032   439061 
  413000    1.0316582   -2.9878251   -2.9878251   -1.4403413   0.10267202   -2.9878251    1.5474837   439061 
  414000    1.0335293   -2.9909773   -2.9909773    -1.440687   0.10275416   -2.9909773    1.5502904   439061 
  415000    1.0326186   -2.9897251   -2.9897251   -1.4408008   0.10470081   -2.9897251    1.5489243   439061 
  416000    1.0318183   -2.9901448   -2.9901448   -1.4424208   0.10314777   -2.9901448    1.5477239   439061 
  417000    1.0315065   -2.9907025   -2.9907025   -1.4434463   0.10023292   -2.9907025    1.5472563   439061 
  418000    1.0317319   -2.9921646   -2.9921646   -1.4445703  0.098836047   -2.9921646    1.5475943   439061 
  419000    1.0299509   -2.9896924   -2.9896924   -1.4447696   0.10038296   -2.9896924    1.5449228   439061 
  420000    1.0320406   -2.9915083   -2.9915083   -1.4434509   0.10668533   -2.9915083    1.5480574   439061 
  421000    1.0326674   -2.9925645   -2.9925645   -1.4435669    0.1072743   -2.9925645    1.5489976   439061 
  422000    1.0328234   -2.9937067   -2.9937067   -1.4444751   0.10809388   -2.9937067    1.5492316   439061 
  423000    1.0330451   -2.9941072   -2.9941072    -1.444543   0.10098518   -2.9941072    1.5495642   439061 
  424000    1.0315232   -2.9939352   -2.9939352   -1.4466539    0.1017444   -2.9939352    1.5472813   439061 
  425000    1.0324522   -2.9955377   -2.9955377   -1.4468629  0.094736427   -2.9955377    1.5486748   439061 
  426000    1.0296767   -2.9911316   -2.9911316     -1.44662  0.099571466   -2.9911316    1.5445116   439061 
  427000    1.0299111   -2.9936914   -2.9936914   -1.4488283    0.1007532   -2.9936914    1.5448631   439061 
  428000    1.0299158    -2.993733    -2.993733   -1.4488629   0.10421241    -2.993733    1.5448701   439061 
  429000    1.0307492   -2.9948227   -2.9948227   -1.4487024   0.10124054   -2.9948227    1.5461203   439061 
  430000    1.0296213   -2.9940514   -2.9940514    -1.449623  0.099892622   -2.9940514    1.5444284   439061 
  431000    1.0311168   -2.9967536   -2.9967536    -1.450082   0.10270017   -2.9967536    1.5466716   439061 
  432000    1.0307626   -2.9969338   -2.9969338   -1.4507934   0.10211807   -2.9969338    1.5461404   439061 
  433000     1.030393   -2.9964513   -2.9964513   -1.4508653   0.10442957   -2.9964513     1.545586   439061 
  434000    1.0317738    -2.998531    -2.998531   -1.4508738   0.10122323    -2.998531    1.5476571   439061 
  435000    1.0304068   -2.9984322   -2.9984322   -1.4528255   0.10055201   -2.9984322    1.5456067   439061 
  436000    1.0307679   -3.0006184   -3.0006184   -1.4544701   0.10224697   -3.0006184    1.5461483   439061 
  437000    1.0287274   -2.9985079   -2.9985079   -1.4554203    0.1009256   -2.9985079    1.5430876   439061 
  438000    1.0313763   -3.0037622   -3.0037622   -1.4567013  0.095656748   -3.0037622    1.5470609   439061 
  439000    1.0295398   -3.0002566   -3.0002566   -1.4559504  0.099518918   -3.0002566    1.5443062   439061 
  440000    1.0295204   -3.0003358   -3.0003358   -1.4560588   0.10299248   -3.0003358     1.544277   439061 
  441000     1.029225   -2.9999264   -2.9999264   -1.4560924  0.099750669   -2.9999264    1.5438339   439061 
  442000    1.0304824   -3.0028582   -3.0028582   -1.4571382   0.10390203   -3.0028582      1.54572   439061 
  443000    1.0278297   -3.0005854   -3.0005854   -1.4588444   0.10396653   -3.0005854     1.541741   439061 
  444000    1.0294844   -3.0040148   -3.0040148   -1.4597918  0.095761764   -3.0040148     1.544223   439061 
  445000    1.0304889    -3.005363    -3.005363   -1.4596331  0.096528895    -3.005363    1.5457299   439061 
  446000    1.0272737   -3.0012637   -3.0012637   -1.4603566  0.097287911   -3.0012637    1.5409071   439061 
  447000    1.0264252    -3.000904    -3.000904   -1.4612697  0.097959886    -3.000904    1.5396343   439061 
  448000    1.0276332   -3.0026849   -3.0026849   -1.4612387  0.094808836   -3.0026849    1.5414462   439061 
  449000    1.0292349   -3.0049439   -3.0049439   -1.4610951  0.098524366   -3.0049439    1.5438488   439061 
  450000    1.0286637   -3.0041713   -3.0041713   -1.4611793  0.099352168   -3.0041713     1.542992   439061 
  451000    1.0288443   -3.0045801   -3.0045801   -1.4613172  0.099879739   -3.0045801    1.5432629   439061 
  452000    1.0265971   -3.0026815   -3.0026815   -1.4627893  0.097194521   -3.0026815    1.5398921   439061 
  453000    1.0281647   -3.0055995   -3.0055995    -1.463356  0.096697342   -3.0055995    1.5422435   439061 
  454000    1.0282641   -3.0056207   -3.0056207   -1.4632281  0.099569658   -3.0056207    1.5423926   439061 
  455000    1.0271868   -3.0052374   -3.0052374   -1.4644607  0.095412758   -3.0052374    1.5407767   439061 
  456000    1.0271813   -3.0043552   -3.0043552   -1.4635867   0.10168945   -3.0043552    1.5407685   439061 
  457000    1.0286324   -3.0079159   -3.0079159   -1.4649709  0.098692615   -3.0079159     1.542945   439061 
  458000    1.0276836    -3.007457    -3.007457   -1.4659351    0.1041465    -3.007457    1.5415219   439061 
  459000    1.0271801   -3.0088205   -3.0088205   -1.4680539  0.099817414   -3.0088205    1.5407666   439061 
  460000    1.0270699   -3.0091136   -3.0091136   -1.4685123  0.097705062   -3.0091136    1.5406013   439061 
  461000    1.0282944   -3.0124195   -3.0124195   -1.4699815   0.10342396   -3.0124195     1.542438   439061 
  462000    1.0270146   -3.0127832   -3.0127832   -1.4722648  0.099079341   -3.0127832    1.5405184   439061 
  463000    1.0254871    -3.010513    -3.010513   -1.4722859  0.098080255    -3.010513    1.5382272   439061 
  464000    1.0278009   -3.0127966   -3.0127966   -1.4710988  0.099808554   -3.0127966    1.5416978   439061 
  465000    1.0269116   -3.0125373   -3.0125373   -1.4721734   0.10338042   -3.0125373    1.5403639   439061 
  466000    1.0261275   -3.0125804   -3.0125804   -1.4733927    0.0973567   -3.0125804    1.5391877   439061 
  467000    1.0264105   -3.0114303   -3.0114303   -1.4718181  0.098441345   -3.0114303    1.5396122   439061 
  468000    1.0271189   -3.0147597   -3.0147597   -1.4740848  0.098905019   -3.0147597    1.5406748   439061 
  469000    1.0268036   -3.0150202   -3.0150202   -1.4748183  0.095646644   -3.0150202    1.5402019   439061 
  470000    1.0245657   -3.0121004   -3.0121004   -1.4752554  0.098101496   -3.0121004    1.5368451   439061 
  471000     1.026707   -3.0138218   -3.0138218   -1.4737647  0.097516575   -3.0138218    1.5400571   439061 
  472000    1.0237889   -3.0105384   -3.0105384   -1.4748586  0.097408667   -3.0105384    1.5356798   439061 
  473000    1.0241124   -3.0115954   -3.0115954   -1.4754304   0.10013156   -3.0115954    1.5361651   439061 
  474000    1.0258565   -3.0143023   -3.0143023    -1.475521  0.094949822   -3.0143023    1.5387813   439061 
  475000     1.025845   -3.0148277   -3.0148277   -1.4760637  0.093790718   -3.0148277     1.538764   439061 
  476000    1.0266714   -3.0147461   -3.0147461   -1.4747425  0.095633501   -3.0147461    1.5400036   439061 
  477000    1.0254447   -3.0114078   -3.0114078   -1.4732442  0.091681042   -3.0114078    1.5381635   439061 
  478000    1.0258085   -3.0124395   -3.0124395   -1.4737303   0.09758517   -3.0124395    1.5387092   439061 
  479000    1.0247843   -3.0125357   -3.0125357   -1.4753629   0.10155142   -3.0125357    1.5371729   439061 
  480000    1.0264675   -3.0150234   -3.0150234   -1.4753257  0.092031545   -3.0150234    1.5396977   439061 
  481000    1.0262168   -3.0157775   -3.0157775   -1.4764559  0.090387534   -3.0157775    1.5393216   439061 
  482000    1.0245339   -3.0141047   -3.0141047   -1.4773074  0.097941153   -3.0141047    1.5367974   439061 
  483000    1.0260894   -3.0171289   -3.0171289   -1.4779983   0.09735569   -3.0171289    1.5391306   439061 
  484000    1.0262029   -3.0165044   -3.0165044   -1.4772035  0.094584653   -3.0165044    1.5393009   439061 
  485000    1.0246061    -3.015741    -3.015741   -1.4788353  0.096294322    -3.015741    1.5369057   439061 
  486000    1.0262626    -3.016648    -3.016648   -1.4772577   0.10170305    -3.016648    1.5393903   439061 
  487000    1.0249088   -3.0170704   -3.0170704   -1.4797107  0.099663224   -3.0170704    1.5373596   439061 
  488000    1.0245194   -3.0177203   -3.0177203   -1.4809448  0.099539675   -3.0177203    1.5367756   439061 
  489000    1.0243942   -3.0189382   -3.0189382   -1.4823504  0.098051325   -3.0189382    1.5365878   439061 
  490000    1.0254937   -3.0220012   -3.0220012   -1.4837641  0.091509871   -3.0220012     1.538237   439061 
  491000    1.0234892   -3.0195641   -3.0195641   -1.4843337  0.098840849   -3.0195641    1.5352303   439061 
  492000    1.0233498   -3.0188954   -3.0188954   -1.4838742  0.098324832   -3.0188954    1.5350212   439061 
  493000     1.022061   -3.0177782   -3.0177782   -1.4846901  0.097600464   -3.0177782    1.5330881   439061 
  494000    1.0239866   -3.0210999   -3.0210999   -1.4851236  0.092730093   -3.0210999    1.5359764   439061 
  495000    1.0227873   -3.0194737   -3.0194737   -1.4852963  0.097107975   -3.0194737    1.5341774   439061 
  496000    1.0239947   -3.0206437   -3.0206437   -1.4846551  0.092227835   -3.0206437    1.5359886   439061 
  497000    1.0230717   -3.0197383   -3.0197383   -1.4851342  0.093876608   -3.0197383    1.5346041   439061 
  498000    1.0226353   -3.0200107   -3.0200107   -1.4860612  0.089525747   -3.0200107    1.5339495   439061 
  499000    1.0225075   -3.0197579   -3.0197579   -1.4860002  0.096308611   -3.0197579    1.5337577   439061 
  500000    1.0224162   -3.0192032   -3.0192032   -1.4855824  0.090591995   -3.0192032    1.5336208   439061 
  501000    1.0220218   -3.0199369   -3.0199369   -1.4869077  0.093805635   -3.0199369    1.5330293   439061 
  502000    1.0219633   -3.0204328   -3.0204328   -1.4874913  0.091004777   -3.0204328    1.5329415   439061 
  503000    1.0226707   -3.0209804   -3.0209804   -1.4869778  0.099139074   -3.0209804    1.5340026   439061 
  504000    1.0247743   -3.0247976   -3.0247976   -1.4876398   0.09290227   -3.0247976    1.5371579   439061 
  505000    1.0250177   -3.0258479   -3.0258479   -1.4883249   0.09708262   -3.0258479     1.537523   439061 
  506000    1.0245345   -3.0258594   -3.0258594   -1.4890612  0.093037639   -3.0258594    1.5367982   439061 
  507000    1.0248187   -3.0279512   -3.0279512   -1.4907267  0.094720818   -3.0279512    1.5372245   439061 
  508000    1.0227509   -3.0267035   -3.0267035   -1.4925806  0.096548333   -3.0267035    1.5341229   439061 
  509000    1.0226218    -3.027341    -3.027341   -1.4934117   0.10084624    -3.027341    1.5339293   439061 
  510000    1.0240778   -3.0302634   -3.0302634   -1.4941501  0.096547137   -3.0302634    1.5361133   439061 
  511000    1.0228563   -3.0294398   -3.0294398   -1.4951588  0.098181377   -3.0294398     1.534281   439061 
  512000    1.0228207   -3.0299182   -3.0299182   -1.4956907  0.097613745   -3.0299182    1.5342276   439061 
  513000     1.022727   -3.0300948   -3.0300948   -1.4960078   0.10286362   -3.0300948     1.534087   439061 
  514000    1.0230448   -3.0307864   -3.0307864   -1.4962228  0.097596566   -3.0307864    1.5345637   439061 
  515000    1.0219385   -3.0302266   -3.0302266   -1.4973223  0.095261889   -3.0302266    1.5329043   439061 
  516000    1.0227579   -3.0328754   -3.0328754   -1.4987421  0.093653505   -3.0328754    1.5341333   439061 
  517000     1.022791   -3.0323309   -3.0323309   -1.4981479  0.097490905   -3.0323309     1.534183   439061 
  518000    1.0222771   -3.0328606   -3.0328606   -1.4994485  0.090960812   -3.0328606    1.5334121   439061 
  519000    1.0221911   -3.0327934   -3.0327934   -1.4995103  0.097710241   -3.0327934    1.5332832   439061 
  520000    1.0217982   -3.0330668   -3.0330668    -1.500373  0.094383664   -3.0330668    1.5326938   439061 
  521000    1.0218484   -3.0328532   -3.0328532   -1.5000841  0.091811391   -3.0328532    1.5327691   439061 
  522000    1.0203778   -3.0308241   -3.0308241    -1.500261  0.095471683   -3.0308241    1.5305631   439061 
  523000    1.0205517   -3.0313808   -3.0313808   -1.5005568  0.093627125   -3.0313808     1.530824   439061 
  524000    1.0215406   -3.0331993   -3.0331993   -1.5008919  0.092190631   -3.0331993    1.5323074   439061 
  525000    1.0220859   -3.0336996   -3.0336996   -1.5005742  0.094094435   -3.0336996    1.5331253   439061 
  526000    1.0236002   -3.0352731   -3.0352731   -1.4998763  0.094873441   -3.0352731    1.5353968   439061 
  527000    1.0211298   -3.0332421   -3.0332421   -1.5015509   0.09895287   -3.0332421    1.5316912   439061 
  528000    1.0213537    -3.033523    -3.033523   -1.5014959  0.096692924    -3.033523    1.5320271   439061 
  529000    1.0228827   -3.0363695   -3.0363695   -1.5020489  0.095012765   -3.0363695    1.5343206   439061 
  530000    1.0221038   -3.0351566   -3.0351566   -1.5020044  0.096019368   -3.0351566    1.5331522   439061 
  531000    1.0229081   -3.0374005   -3.0374005   -1.5030419  0.096008647   -3.0374005    1.5343586   439061 
  532000    1.0225714   -3.0381254   -3.0381254   -1.5042718  0.094053219   -3.0381254    1.5338537   439061 
  533000    1.0220096    -3.037139    -3.037139    -1.504128  0.095241803    -3.037139     1.533011   439061 
  534000    1.0215479   -3.0358665   -3.0358665   -1.5035481  0.095209628   -3.0358665    1.5323184   439061 
  535000    1.0232463    -3.039855    -3.039855   -1.5049889  0.093149038    -3.039855     1.534866   439061 
  536000    1.0212858   -3.0379769   -3.0379769   -1.5060517  0.096040352   -3.0379769    1.5319252   439061 
  537000    1.0217697   -3.0385769   -3.0385769   -1.5059258  0.092203315   -3.0385769    1.5326511   439061 
  538000     1.019824   -3.0371527   -3.0371527   -1.5074201  0.093560016   -3.0371527    1.5297326   439061 
  539000     1.019324   -3.0365244   -3.0365244    -1.507542  0.091492545   -3.0365244    1.5289825   439061 
  540000     1.020771   -3.0380388   -3.0380388   -1.5068858   0.09278817   -3.0380388     1.531153   439061 
  541000    1.0193457   -3.0358852   -3.0358852   -1.5068701  0.090017967   -3.0358852    1.5290151   439061 
  542000     1.019603   -3.0370466   -3.0370466   -1.5076456  0.096882366   -3.0370466    1.5294009   439061 
  543000    1.0205275   -3.0385759   -3.0385759   -1.5077881  0.095714645   -3.0385759    1.5307878   439061 
  544000    1.0190822   -3.0374123   -3.0374123   -1.5087925   0.09313437   -3.0374123    1.5286198   439061 
  545000    1.0190132   -3.0392373   -3.0392373   -1.5107209  0.094429166   -3.0392373    1.5285164   439061 
  546000    1.0203077   -3.0410115   -3.0410115   -1.5105535  0.094579834   -3.0410115     1.530458   439061 
  547000    1.0199686   -3.0401885   -3.0401885   -1.5102391  0.096239921   -3.0401885    1.5299494   439061 
  548000    1.0193523   -3.0410503   -3.0410503   -1.5120253  0.090997932   -3.0410503     1.529025   439061 
  549000    1.0202107   -3.0420405   -3.0420405   -1.5117279  0.093034177   -3.0420405    1.5303126   439061 
  550000    1.0197325   -3.0408029   -3.0408029   -1.5112077   0.10163014   -3.0408029    1.5295952   439061 
  551000    1.0210144   -3.0439292   -3.0439292   -1.5124111  0.094025157   -3.0439292    1.5315181   439061 
  552000    1.0193048   -3.0424296   -3.0424296   -1.5134758   0.08983137   -3.0424296    1.5289538   439061 
  553000    1.0206458   -3.0452017   -3.0452017   -1.5142365  0.092762512   -3.0452017    1.5309652   439061 
  554000    1.0192525   -3.0444713   -3.0444713   -1.5155961  0.092719162   -3.0444713    1.5288752   439061 
  555000    1.0199817   -3.0461071   -3.0461071   -1.5161379  0.098951302   -3.0461071    1.5299691   439061 
  556000     1.018619   -3.0442169   -3.0442169   -1.5162918  0.097466684   -3.0442169     1.527925   439061 
  557000      1.01984   -3.0454011   -3.0454011   -1.5156447  0.096388895   -3.0454011    1.5297565   439061 
  558000    1.0184006   -3.0456653   -3.0456653   -1.5180679  0.093525517   -3.0456653    1.5275974   439061 
  559000    1.0200472   -3.0478346   -3.0478346   -1.5177672  0.096990772   -3.0478346    1.5300674   439061 
  560000     1.021257   -3.0493541   -3.0493541    -1.517472  0.099482952   -3.0493541    1.5318821   439061 
  561000    1.0203683   -3.0484883   -3.0484883   -1.5179393  0.098478732   -3.0484883    1.5305489   439061 
  562000    1.0212278    -3.049513    -3.049513   -1.5176748  0.099046129    -3.049513    1.5318382   439061 
  563000    1.0206056   -3.0485427   -3.0485427   -1.5176377  0.094475465   -3.0485427    1.5309049   439061 
  564000    1.0219097   -3.0511785   -3.0511785   -1.5183175  0.091210252   -3.0511785     1.532861   439061 
  565000    1.0197611   -3.0492748   -3.0492748   -1.5196367  0.095376279   -3.0492748    1.5296382   439061 
  566000    1.0189235   -3.0482373   -3.0482373   -1.5198555  0.093955697   -3.0482373    1.5283818   439061 
  567000    1.0196528    -3.048137    -3.048137   -1.5186613  0.096068028    -3.048137    1.5294757   439061 
  568000    1.0193884   -3.0474316   -3.0474316   -1.5183526   0.09297859   -3.0474316    1.5290791   439061 
  569000      1.01835   -3.0449573   -3.0449573   -1.5174358  0.098299381   -3.0449573    1.5275216   439061 
  570000    1.0201478   -3.0487532   -3.0487532    -1.518535   0.09150506   -3.0487532    1.5302182   439061 
  571000    1.0192964   -3.0492589   -3.0492589   -1.5203177  0.094429089   -3.0492589    1.5289412   439061 
  572000    1.0195652   -3.0492123   -3.0492123    -1.519868  0.094713384   -3.0492123    1.5293443   439061 
  573000    1.0194733   -3.0501248   -3.0501248   -1.5209184  0.090015766   -3.0501248    1.5292064   439061 
  574000    1.0187973   -3.0495882   -3.0495882   -1.5213958  0.093887777   -3.0495882    1.5281924   439061 
  575000    1.0174154   -3.0493368   -3.0493368   -1.5232172  0.090146913   -3.0493368    1.5261196   439061 
  576000    1.0171627   -3.0495203   -3.0495203   -1.5237798  0.092343147   -3.0495203    1.5257405   439061 
  577000    1.0168626    -3.049019    -3.049019   -1.5237285  0.095894521    -3.049019    1.5252904   439061 
  578000    1.0170449   -3.0499952   -3.0499952   -1.5244314  0.093234729   -3.0499952    1.5255638   439061 
  579000    1.0170707   -3.0511902   -3.0511902   -1.5255876  0.093687897   -3.0511902    1.5256026   439061 
  580000    1.0182906   -3.0523778   -3.0523778   -1.5249455  0.092592826   -3.0523778    1.5274324   439061 
  581000    1.0178156   -3.0523258   -3.0523258   -1.5256059   0.09222808   -3.0523258    1.5267199   439061 
  582000    1.0164142   -3.0506434   -3.0506434   -1.5260255   0.08482682   -3.0506434    1.5246179   439061 
  583000     1.017246    -3.054308    -3.054308   -1.5284424  0.091636879    -3.054308    1.5258656   439061 
  584000    1.0182018    -3.055906    -3.055906   -1.5286069  0.089784084    -3.055906    1.5272992   439061 
  585000    1.0173715   -3.0542909   -3.0542909   -1.5282371  0.092925866   -3.0542909    1.5260538   439061 
  586000    1.0183906   -3.0563395   -3.0563395    -1.528757  0.089955871   -3.0563395    1.5275825   439061 
  587000    1.0171718   -3.0571623   -3.0571623   -1.5314081   0.09427425   -3.0571623    1.5257542   439061 
  588000    1.0164584   -3.0573487   -3.0573487   -1.5326647  0.092321824   -3.0573487    1.5246841   439061 
  589000    1.0163597   -3.0584435   -3.0584435   -1.5339073   0.09243332   -3.0584435    1.5245361   439061 
  590000    1.0166441   -3.0600101   -3.0600101   -1.5350473  0.094855263   -3.0600101    1.5249627   439061 
  591000    1.0167305   -3.0603061   -3.0603061   -1.5352137  0.097848866   -3.0603061    1.5250923   439061 
  592000    1.0173868   -3.0623095   -3.0623095   -1.5362328  0.090332285   -3.0623095    1.5260768   439061 
  593000    1.0164372   -3.0612549   -3.0612549   -1.5366026  0.095675233   -3.0612549    1.5246523   439061 
  594000    1.0172287   -3.0619159   -3.0619159   -1.5360763  0.096514129   -3.0619159    1.5258396   439061 
  595000    1.0181745   -3.0647279   -3.0647279   -1.5374697  0.091327732   -3.0647279    1.5272582   439061 
  596000    1.0175524   -3.0627459   -3.0627459   -1.5364208  0.095110632   -3.0627459    1.5263252   439061 
  597000    1.0174682   -3.0636506   -3.0636506   -1.5374518  0.091821349   -3.0636506    1.5261988   439061 
  598000    1.0186511   -3.0661317   -3.0661317   -1.5381586  0.089541175   -3.0661317    1.5279731   439061 
  599000    1.0176179   -3.0631461   -3.0631461   -1.5367227  0.097995223   -3.0631461    1.5264234   439061 
  600000    1.0193572   -3.0656221   -3.0656221   -1.5365898  0.099109653   -3.0656221    1.5290322   439061 
  601000    1.0166852   -3.0624587   -3.0624587   -1.5374344  0.095255014   -3.0624587    1.5250243   439061 
  602000    1.0167538    -3.063214    -3.063214   -1.5380868  0.089081709    -3.063214    1.5251272   439061 
  603000    1.0178813   -3.0641282   -3.0641282   -1.5373097  0.093356798   -3.0641282    1.5268185   439061 
  604000     1.018161   -3.0652282   -3.0652282   -1.5379902  0.088006117   -3.0652282     1.527238   439061 
  605000    1.0172562   -3.0629111   -3.0629111   -1.5370302  0.093308794   -3.0629111    1.5258809   439061 
  606000    1.0157578   -3.0636511   -3.0636511    -1.540018  0.090078371   -3.0636511    1.5236332   439061 
  607000    1.0161204   -3.0641614   -3.0641614   -1.5399843  0.091606417   -3.0641614    1.5241771   439061 
  608000    1.0166971   -3.0644621   -3.0644621   -1.5394199  0.091948095   -3.0644621    1.5250422   439061 
  609000    1.0141315   -3.0624951   -3.0624951   -1.5413013  0.093706132   -3.0624951    1.5211938   439061 
  610000    1.0152076   -3.0629232   -3.0629232   -1.5401153  0.090196648   -3.0629232     1.522808   439061 
  611000    1.0141554   -3.0627742   -3.0627742   -1.5415446  0.086259193   -3.0627742    1.5212296   439061 
  612000    1.0143117   -3.0639952   -3.0639952   -1.5425311  0.083329766   -3.0639952    1.5214641   439061 
  613000    1.0154594   -3.0643743   -3.0643743   -1.5411886   0.08178145   -3.0643743    1.5231857   439061 
  614000    1.0137218   -3.0633908   -3.0633908   -1.5428115  0.091685837   -3.0633908    1.5205793   439061 
  615000    1.0163576   -3.0674407   -3.0674407   -1.5429078  0.085370298   -3.0674407    1.5245329   439061 
  616000    1.0137752   -3.0630109   -3.0630109   -1.5423515  0.089026536   -3.0630109    1.5206594   439061 
  617000    1.0156367    -3.065623    -3.065623   -1.5421714  0.087898473    -3.065623    1.5234516   439061 
  618000     1.015364   -3.0660997   -3.0660997   -1.5430572  0.088566746   -3.0660997    1.5230425   439061 
  619000    1.0162783   -3.0671026   -3.0671026   -1.5426885   0.08928307   -3.0671026     1.524414   439061 
  620000    1.0151725   -3.0652232   -3.0652232    -1.542468  0.093398597   -3.0652232    1.5227552   439061 
  621000    1.0145979    -3.065141    -3.065141   -1.5432475  0.089980437    -3.065141    1.5218934   439061 
  622000    1.0156604   -3.0681206   -3.0681206   -1.5446335  0.090902589   -3.0681206    1.5234871   439061 
  623000     1.014437   -3.0663013   -3.0663013   -1.5446492  0.089031752   -3.0663013    1.5216521   439061 
  624000    1.0161145   -3.0691508   -3.0691508   -1.5449825  0.087398465   -3.0691508    1.5241683   439061 
  625000     1.015026   -3.0671687   -3.0671687   -1.5446331  0.087531751   -3.0671687    1.5225356   439061 
  626000    1.0147799   -3.0685554   -3.0685554    -1.546389   0.09388658   -3.0685554    1.5221664   439061 
  627000     1.013919   -3.0692699   -3.0692699   -1.5483949  0.093123782   -3.0692699     1.520875   439061 
  628000    1.0143912   -3.0705919   -3.0705919   -1.5490086   0.09282862   -3.0705919    1.5215833   439061 
  629000    1.0156796   -3.0728711   -3.0728711   -1.5493552  0.090383929   -3.0728711    1.5235159   439061 
  630000    1.0143839   -3.0703788   -3.0703788   -1.5488065  0.095254615   -3.0703788    1.5215724   439061 
  631000    1.0165657   -3.0726453   -3.0726453   -1.5478003  0.091348847   -3.0726453    1.5248451   439061 
  632000    1.0166394   -3.0731971   -3.0731971   -1.5482415  0.094072528   -3.0731971    1.5249556   439061 
  633000    1.0150104    -3.072621    -3.072621   -1.5501089  0.093915622    -3.072621    1.5225121   439061 
  634000    1.0143129   -3.0730991   -3.0730991   -1.5516332  0.092200383   -3.0730991    1.5214659   439061 
  635000    1.0152133   -3.0738916   -3.0738916   -1.5510751  0.087385802   -3.0738916    1.5228164   439061 
  636000    1.0154843   -3.0753379   -3.0753379    -1.552115  0.087242271   -3.0753379     1.523223   439061 
  637000    1.0144881   -3.0745914   -3.0745914   -1.5528627  0.095513187   -3.0745914    1.5217286   439061 
  638000    1.0144644   -3.0744961   -3.0744961    -1.552803   0.09245507   -3.0744961    1.5216931   439061 
  639000    1.0151568   -3.0753364   -3.0753364   -1.5526046   0.08869512   -3.0753364    1.5227317   439061 
  640000     1.014411   -3.0752947   -3.0752947   -1.5536817  0.090656974   -3.0752947     1.521613   439061 
  641000    1.0118029    -3.071678    -3.071678   -1.5539771    0.0929169    -3.071678    1.5177009   439061 
  642000    1.0129442   -3.0764434   -3.0764434   -1.5570305   0.08804052   -3.0764434    1.5194129   439061 
  643000      1.01354   -3.0770919   -3.0770919   -1.5567853  0.088727764   -3.0770919    1.5203065   439061 
  644000    1.0127689   -3.0766534   -3.0766534   -1.5575035  0.091534893   -3.0766534    1.5191499   439061 
  645000    1.0143287   -3.0772546   -3.0772546   -1.5557649  0.088542151   -3.0772546    1.5214897   439061 
  646000    1.0125856   -3.0757118   -3.0757118   -1.5568368  0.092810449   -3.0757118     1.518875   439061 
  647000    1.0147346    -3.079528    -3.079528   -1.5574296  0.087641977    -3.079528    1.5220984   439061 
  648000    1.0125679     -3.07544     -3.07544   -1.5565916  0.089384428     -3.07544    1.5188484   439061 
  649000    1.0144214   -3.0766141   -3.0766141   -1.5549855  0.091696588   -3.0766141    1.5216286   439061 
  650000    1.0146919   -3.0784129   -3.0784129   -1.5563785  0.090766541   -3.0784129    1.5220345   439061 
  651000    1.0122463   -3.0746735   -3.0746735   -1.5563075   0.09330804   -3.0746735     1.518366   439061 
  652000    1.0134891   -3.0779345   -3.0779345   -1.5577043  0.091529988   -3.0779345    1.5202302   439061 
  653000    1.0147229   -3.0792631   -3.0792631   -1.5571821  0.090661228   -3.0792631     1.522081   439061 
  654000    1.0142141   -3.0791935   -3.0791935   -1.5578758   0.09273422   -3.0791935    1.5213177   439061 
  655000     1.014089   -3.0793106   -3.0793106   -1.5581806  0.085545537   -3.0793106    1.5211301   439061 
  656000    1.0113602   -3.0761902   -3.0761902   -1.5591533  0.088731007   -3.0761902    1.5170369   439061 
  657000     1.013529   -3.0803978   -3.0803978   -1.5601077  0.091488747   -3.0803978    1.5202901   439061 
  658000    1.0144837   -3.0817111   -3.0817111    -1.559989  0.090385757   -3.0817111    1.5217221   439061 
  659000    1.0135379    -3.080621    -3.080621   -1.5603177  0.086145127    -3.080621    1.5203033   439061 
  660000    1.0135664   -3.0812453   -3.0812453   -1.5608991  0.093450294   -3.0812453    1.5203462   439061 
  661000    1.0139072   -3.0814341   -3.0814341   -1.5605767  0.091419783   -3.0814341    1.5208574   439061 
  662000    1.0143379   -3.0823004   -3.0823004    -1.560797  0.090174425   -3.0823004    1.5215034   439061 
  663000    1.0150832   -3.0848496   -3.0848496   -1.5622283  0.092018732   -3.0848496    1.5226213   439061 
  664000    1.0166023   -3.0866149   -3.0866149    -1.561715   0.08939526   -3.0866149    1.5248999   439061 
  665000     1.014964   -3.0844671   -3.0844671   -1.5620246  0.092083134   -3.0844671    1.5224426   439061 
  666000    1.0157653   -3.0839362   -3.0839362   -1.5602918  0.094403647   -3.0839362    1.5236445   439061 
  667000    1.0166883   -3.0863359   -3.0863359   -1.5613069  0.092835229   -3.0863359     1.525029   439061 
  668000    1.0151466   -3.0860363   -3.0860363   -1.5633198  0.089778822   -3.0860363    1.5227165   439061 
  669000    1.0128664   -3.0836525   -3.0836525   -1.5643563  0.090269033   -3.0836525    1.5192962   439061 
  670000    1.0132091   -3.0852546   -3.0852546   -1.5654444  0.087915719   -3.0852546    1.5198102   439061 
  671000    1.0125636   -3.0859865   -3.0859865   -1.5671446  0.087619332   -3.0859865     1.518842   439061 
  672000    1.0125466   -3.0859666   -3.0859666   -1.5671501  0.087076631   -3.0859666    1.5188164   439061 
  673000    1.0110706   -3.0840518   -3.0840518   -1.5674493  0.088845661   -3.0840518    1.5166024   439061 
  674000    1.0102746   -3.0845515   -3.0845515    -1.569143  0.085723447   -3.0845515    1.5154085   439061 
  675000    1.0119507   -3.0867696   -3.0867696    -1.568847  0.085415204   -3.0867696    1.5179226   439061 
  676000    1.0122489   -3.0868909   -3.0868909    -1.568521  0.082999272   -3.0868909    1.5183699   439061 
  677000    1.0130087   -3.0866836   -3.0866836   -1.5671741  0.087089086   -3.0866836    1.5195096   439061 
  678000    1.0125152   -3.0854027   -3.0854027   -1.5666334  0.093123213   -3.0854027    1.5187693   439061 
  679000    1.0124373   -3.0852201   -3.0852201   -1.5665677  0.086869227   -3.0852201    1.5186524   439061 
  680000    1.0115209   -3.0845095   -3.0845095   -1.5672316  0.091461739   -3.0845095    1.5172779   439061 
  681000    1.0126122   -3.0859438   -3.0859438    -1.567029  0.085945476   -3.0859438    1.5189149   439061 
  682000    1.0132279    -3.086986    -3.086986   -1.5671476  0.085911242    -3.086986    1.5198384   439061 
  683000    1.0131151    -3.086502    -3.086502   -1.5668328  0.089728579    -3.086502    1.5196692   439061 
  684000    1.0121152   -3.0866265   -3.0866265   -1.5684572  0.087588028   -3.0866265    1.5181693   439061 
  685000    1.0129843   -3.0882477   -3.0882477   -1.5687747  0.090388923   -3.0882477     1.519473   439061 
  686000    1.0123366   -3.0876756   -3.0876756   -1.5691742  0.093761597   -3.0876756    1.5185014   439061 
  687000    1.0140529   -3.0909452   -3.0909452   -1.5698694  0.090814996   -3.0909452    1.5210759   439061 
  688000     1.013821   -3.0908808   -3.0908808   -1.5701527  0.091438552   -3.0908808    1.5207281   439061 
  689000    1.0128701    -3.090289    -3.090289   -1.5709874   0.08806571    -3.090289    1.5193016   439061 
  690000    1.0109128   -3.0879724   -3.0879724   -1.5716066    0.0919906   -3.0879724    1.5163658   439061 
  691000    1.0109844   -3.0902338   -3.0902338   -1.5737606  0.087377356   -3.0902338    1.5164732   439061 
  692000    1.0125585   -3.0923056   -3.0923056   -1.5734712  0.085569225   -3.0923056    1.5188343   439061 
  693000    1.0100952   -3.0899833   -3.0899833   -1.5748439  0.090410211   -3.0899833    1.5151393   439061 
  694000    1.0122671   -3.0914188   -3.0914188   -1.5730215  0.085939755   -3.0914188    1.5183973   439061 
  695000    1.0117022   -3.0917781   -3.0917781   -1.5742282  0.083239451   -3.0917781    1.5175499   439061 
  696000    1.0119447    -3.091193    -3.091193   -1.5732795  0.088602995    -3.091193    1.5179135   439061 
  697000    1.0124374   -3.0929169   -3.0929169   -1.5742643  0.088792101   -3.0929169    1.5186526   439061 
  698000     1.011363   -3.0900408   -3.0900408   -1.5729997  0.088672356   -3.0900408    1.5170411   439061 
  699000    1.0115559   -3.0899592   -3.0899592   -1.5726288   0.08724685   -3.0899592    1.5173305   439061 
  700000    1.0111619   -3.0896978   -3.0896978   -1.5729584  0.090957435   -3.0896978    1.5167394   439061 
  701000    1.0102669   -3.0895424   -3.0895424   -1.5741454  0.094053969   -3.0895424     1.515397   439061 
  702000    1.0103676   -3.0909596   -3.0909596   -1.5754116  0.088214184   -3.0909596     1.515548   439061 
  703000    1.0097972   -3.0906611   -3.0906611   -1.5759687   0.09588193   -3.0906611    1.5146924   439061 
  704000    1.0120285   -3.0927223   -3.0927223    -1.574683   0.08708552   -3.0927223    1.5180392   439061 
  705000    1.0115739   -3.0926669   -3.0926669   -1.5753095  0.087370512   -3.0926669    1.5173574   439061 
  706000    1.0105443   -3.0905881   -3.0905881   -1.5747751  0.093639034   -3.0905881     1.515813   439061 
  707000    1.0101959   -3.0919233   -3.0919233   -1.5766329  0.091394714   -3.0919233    1.5152904   439061 
  708000    1.0101423   -3.0930108   -3.0930108   -1.5778009   0.08688146   -3.0930108      1.51521   439061 
  709000    1.0089599   -3.0916201   -3.0916201   -1.5781837  0.086017611   -3.0916201    1.5134364   439061 
  710000    1.0113658   -3.0946478   -3.0946478   -1.5776025  0.084222957   -3.0946478    1.5170453   439061 
  711000    1.0102609   -3.0924219   -3.0924219   -1.5770341   0.09111881   -3.0924219    1.5153878   439061 
  712000    1.0101041   -3.0942038   -3.0942038   -1.5790512  0.085530607   -3.0942038    1.5151527   439061 
  713000    1.0098602   -3.0934304   -3.0934304   -1.5786436  0.087473383   -3.0934304    1.5147868   439061 
  714000    1.0108886   -3.0958714   -3.0958714   -1.5795419  0.085852679   -3.0958714    1.5163295   439061 
  715000    1.0098764   -3.0951853   -3.0951853   -1.5803741  0.086905975   -3.0951853    1.5148112   439061 
  716000    1.0099385   -3.0956148   -3.0956148   -1.5807105  0.091134616   -3.0956148    1.5149043   439061 
  717000    1.0093741   -3.0959533   -3.0959533   -1.5818957  0.088874268   -3.0959533    1.5140577   439061 
  718000    1.0088113   -3.0943032   -3.0943032   -1.5810896   0.09052102   -3.0943032    1.5132136   439061 
  719000    1.0096638   -3.0949436   -3.0949436   -1.5804513   0.08847345   -3.0949436    1.5144923   439061 
  720000    1.0116232   -3.0981629   -3.0981629   -1.5807315  0.087506705   -3.0981629    1.5174314   439061 
  721000    1.0120185   -3.0979362   -3.0979362   -1.5799119  0.088829498   -3.0979362    1.5180242   439061 
  722000    1.0103316   -3.0965196   -3.0965196   -1.5810256  0.091662098   -3.0965196     1.515494   439061 
  723000    1.0103075   -3.0990054   -3.0990054   -1.5835476  0.087597598   -3.0990054    1.5154578   439061 
  724000    1.0092539   -3.0973364   -3.0973364    -1.583459  0.092088915   -3.0973364    1.5138774   439061 
  725000    1.0088354   -3.0965906   -3.0965906   -1.5833409  0.084906951   -3.0965906    1.5132497   439061 
  726000    1.0096345   -3.0994007   -3.0994007   -1.5849524  0.083487304   -3.0994007    1.5144483   439061 
  727000    1.0089226   -3.0991813   -3.0991813   -1.5858008  0.085195867   -3.0991813    1.5133805   439061 
  728000    1.0089919   -3.0995509   -3.0995509   -1.5860665  0.088939251   -3.0995509    1.5134844   439061 
  729000    1.0109303   -3.1018922   -3.1018922   -1.5855002  0.091805446   -3.1018922     1.516392   439061 
  730000    1.0112418   -3.1027095   -3.1027095   -1.5858503  0.088708185   -3.1027095    1.5168592   439061 
  731000     1.010243    -3.101302    -3.101302   -1.5859409  0.086620673    -3.101302    1.5153611   439061 
  732000    1.0102998   -3.1023379   -3.1023379   -1.5868916  0.083648142   -3.1023379    1.5154463   439061 
  733000    1.0096567   -3.1008254   -3.1008254   -1.5863439  0.083193956   -3.1008254    1.5144815   439061 
  734000    1.0104981   -3.1026008   -3.1026008   -1.5868571  0.089392996   -3.1026008    1.5157437   439061 
  735000     1.010486   -3.1031933   -3.1031933   -1.5874678   0.09013659   -3.1031933    1.5157256   439061 
  736000    1.0108169   -3.1042565   -3.1042565   -1.5880346  0.087735371   -3.1042565    1.5162219   439061 
  737000    1.0096195   -3.1041035   -3.1041035   -1.5896777  0.089348166   -3.1041035    1.5144258   439061 
  738000     1.009315   -3.1046298   -3.1046298   -1.5906608  0.086675653   -3.1046298     1.513969   439061 
  739000    1.0085819    -3.104399    -3.104399   -1.5915296  0.079462265    -3.104399    1.5128694   439061 
  740000    1.0098024    -3.105465    -3.105465   -1.5907649  0.082505633    -3.105465    1.5147001   439061 
  741000    1.0098957   -3.1062389   -3.1062389   -1.5913989  0.082916557   -3.1062389      1.51484   439061 
  742000    1.0078681   -3.1039232   -3.1039232   -1.5921244  0.087072387   -3.1039232    1.5117988   439061 
  743000    1.0086289   -3.1050782   -3.1050782   -1.5921384  0.088014617   -3.1050782    1.5129398   439061 
  744000    1.0088827   -3.1045217   -3.1045217    -1.591201  0.089344286   -3.1045217    1.5133206   439061 
  745000    1.0106589   -3.1073221   -3.1073221   -1.5913373  0.085124508   -3.1073221    1.5159849   439061 
  746000    1.0101485   -3.1072953   -3.1072953   -1.5920759  0.083915424   -3.1072953    1.5152194   439061 
  747000    1.0094339   -3.1065787   -3.1065787   -1.5924312  0.083795485   -3.1065787    1.5141475   439061 
  748000    1.0095826   -3.1074625   -3.1074625    -1.593092  0.085187723   -3.1074625    1.5143704   439061 
  749000     1.008801    -3.107468    -3.107468     -1.59427  0.085579607    -3.107468     1.513198   439061 
  750000    1.0079867    -3.104961    -3.104961   -1.5929843  0.085261741    -3.104961    1.5119766   439061 
  751000    1.0087842   -3.1070769   -3.1070769   -1.5939041  0.085662649   -3.1070769    1.5131728   439061 
  752000    1.0082526   -3.1051677   -3.1051677   -1.5927922  0.088756108   -3.1051677    1.5123755   439061 
  753000    1.0072091   -3.1042542   -3.1042542   -1.5934441  0.086963198   -3.1042542    1.5108102   439061 
  754000    1.0091873   -3.1080839   -3.1080839   -1.5943064  0.083183918   -3.1080839    1.5137775   439061 
  755000    1.0092891   -3.1091191   -3.1091191   -1.5951889  0.087364463   -3.1091191    1.5139302   439061 
  756000    1.0075218   -3.1074445   -3.1074445   -1.5961653   0.08532596   -3.1074445    1.5112792   439061 
  757000    1.0070106   -3.1059075   -3.1059075    -1.595395  0.087028182   -3.1059075    1.5105125   439061 
  758000    1.0080869   -3.1097184   -3.1097184   -1.5975914  0.088513112   -3.1097184     1.512127   439061 
  759000    1.0074141   -3.1074854   -3.1074854   -1.5963676  0.086813688   -3.1074854    1.5111178   439061 
  760000    1.0074626   -3.1081207   -3.1081207   -1.5969302  0.082584062   -3.1081207    1.5111905   439061 
  761000    1.0077632   -3.1094738   -3.1094738   -1.5978325  0.085185775   -3.1094738    1.5116413   439061 
  762000    1.0081489   -3.1090198   -3.1090198   -1.5967999  0.088713337   -3.1090198    1.5122199   439061 
  763000    1.0079662   -3.1102334   -3.1102334   -1.5982875  0.082957564   -3.1102334    1.5119459   439061 
  764000    1.0077352   -3.1089771   -3.1089771   -1.5973777  0.084957556   -3.1089771    1.5115993   439061 
  765000    1.0077401   -3.1102932   -3.1102932   -1.5986866  0.086604104   -3.1102932    1.5116067   439061 
  766000    1.0068229   -3.1101091   -3.1101091   -1.5998783  0.090409291   -3.1101091    1.5102308   439061 
  767000    1.0096228   -3.1131546   -3.1131546   -1.5987239  0.083094267   -3.1131546    1.5144307   439061 
  768000    1.0100247   -3.1130586   -3.1130586   -1.5980249  0.088201125   -3.1130586    1.5150337   439061 
  769000    1.0103119   -3.1138142   -3.1138142   -1.5983498   0.08586585   -3.1138142    1.5154644   439061 
  770000    1.0089869   -3.1129222   -3.1129222   -1.5994454  0.092088447   -3.1129222    1.5134768   439061 
  771000    1.0087223     -3.11434     -3.11434   -1.6012599  0.087410325     -3.11434    1.5130801   439061 
  772000    1.0090936   -3.1154899   -3.1154899   -1.6018529  0.086244783   -3.1154899     1.513637   439061 
  773000    1.0085034   -3.1143506   -3.1143506   -1.6015989  0.085945297   -3.1143506    1.5127517   439061 
  774000    1.0074982   -3.1134716   -3.1134716   -1.6022278   0.08133905   -3.1134716    1.5112439   439061 
  775000    1.0065875   -3.1129863   -3.1129863   -1.6031086  0.086685377   -3.1129863    1.5098777   439061 
  776000     1.008337   -3.1141511   -3.1141511   -1.6016491  0.082659219   -3.1141511     1.512502   439061 
  777000    1.0087249   -3.1152217   -3.1152217   -1.6021378   0.08498735   -3.1152217    1.5130839   439061 
  778000    1.0084781   -3.1147774   -3.1147774   -1.6020637  0.081195386   -3.1147774    1.5127137   439061 
  779000     1.008425   -3.1147313   -3.1147313   -1.6020972  0.085529303   -3.1147313    1.5126341   439061 
  780000    1.0088994   -3.1167882   -3.1167882   -1.6034426  0.088096237   -3.1167882    1.5133456   439061 
  781000    1.0072809    -3.113741    -3.113741   -1.6028231  0.087423661    -3.113741    1.5109179   439061 
  782000    1.0085892   -3.1143902   -3.1143902   -1.6015098  0.088656926   -3.1143902    1.5128803   439061 
  783000    1.0086049   -3.1139258   -3.1139258   -1.6010219  0.085820734   -3.1139258     1.512904   439061 
  784000    1.0090995   -3.1135836   -3.1135836   -1.5999377  0.086351832   -3.1135836    1.5136459   439061 
  785000    1.0085716   -3.1136183   -3.1136183   -1.6007644  0.086560599   -3.1136183    1.5128539   439061 
  786000    1.0090111   -3.1142932   -3.1142932     -1.60078  0.087495526   -3.1142932    1.5135132   439061 
  787000    1.0090512   -3.1157399   -3.1157399   -1.6021666  0.085866176   -3.1157399    1.5135733   439061 
  788000    1.0087616    -3.115529    -3.115529   -1.6023901  0.084992317    -3.115529    1.5131389   439061 
  789000    1.0080306   -3.1139104   -3.1139104    -1.601868  0.086443827   -3.1139104    1.5120424   439061 
  790000    1.0072388   -3.1157163   -3.1157163   -1.6048615  0.084440656   -3.1157163    1.5108548   439061 
  791000    1.0069396   -3.1151153   -3.1151153   -1.6047093  0.081475045   -3.1151153    1.5104059   439061 
  792000    1.0056578   -3.1138606   -3.1138606   -1.6053773     0.084783   -3.1138606    1.5084833   439061 
  793000    1.0056538   -3.1148448   -3.1148448   -1.6063675  0.081693673   -3.1148448    1.5084773   439061 
  794000    1.0078725   -3.1176673   -3.1176673   -1.6058619  0.083954689   -3.1176673    1.5118053   439061 
  795000    1.0082527   -3.1176578   -3.1176578   -1.6052822   0.08355339   -3.1176578    1.5123756   439061 
  796000    1.0072285   -3.1180801   -3.1180801   -1.6072407   0.08574612   -3.1180801    1.5108393   439061 
  797000    1.0075366    -3.118205    -3.118205   -1.6069036  0.082243891    -3.118205    1.5113014   439061 
  798000     1.007435   -3.1182641   -3.1182641    -1.607115  0.085270664   -3.1182641    1.5111491   439061 
  799000    1.0066486   -3.1180482   -3.1180482   -1.6080787  0.088254214   -3.1180482    1.5099695   439061 
  800000    1.0058132   -3.1178453   -3.1178453   -1.6091288  0.084775955   -3.1178453    1.5087164   439061 
  801000    1.0082863   -3.1215433   -3.1215433   -1.6091173  0.087814435   -3.1215433     1.512426   439061 
  802000    1.0084206   -3.1219379   -3.1219379   -1.6093105  0.087444503   -3.1219379    1.5126274   439061 
  803000    1.0073559   -3.1214898   -3.1214898   -1.6104594  0.086639345   -3.1214898    1.5110304   439061 
  804000     1.006565   -3.1220278   -3.1220278   -1.6121837   0.08520585   -3.1220278    1.5098441   439061 
  805000    1.0065762   -3.1226978   -3.1226978    -1.612837  0.089721056   -3.1226978    1.5098608   439061 
  806000    1.0079336   -3.1251811   -3.1251811   -1.6132842  0.084368415   -3.1251811    1.5118969   439061 
  807000    1.0070533   -3.1251325   -3.1251325    -1.614556  0.085065822   -3.1251325    1.5105765   439061 
  808000    1.0078332   -3.1263757   -3.1263757   -1.6146293  0.087713813   -3.1263757    1.5117464   439061 
  809000     1.006723     -3.12571     -3.12571    -1.615629  0.089228563     -3.12571     1.510081   439061 
  810000    1.0058401   -3.1258312   -3.1258312   -1.6170745  0.083382426   -3.1258312    1.5087566   439061 
  811000    1.0068765   -3.1276332   -3.1276332    -1.617322  0.086192769   -3.1276332    1.5103113   439061 
  812000    1.0073489   -3.1291704   -3.1291704   -1.6181505  0.084283094   -3.1291704    1.5110198   439061 
  813000    1.0073114   -3.1287658   -3.1287658   -1.6178022  0.086736301   -3.1287658    1.5109636   439061 
  814000    1.0061143   -3.1287338   -3.1287338   -1.6195658  0.088410501   -3.1287338     1.509168   439061 
  815000    1.0071187   -3.1303115   -3.1303115   -1.6196369  0.083966087   -3.1303115    1.5106746   439061 
  816000    1.0070083   -3.1303605   -3.1303605   -1.6198515  0.089748159   -3.1303605     1.510509   439061 
  817000    1.0068595   -3.1304028   -3.1304028    -1.620117  0.085195154   -3.1304028    1.5102859   439061 
  818000    1.0073896    -3.132584    -3.132584    -1.621503  0.078736759    -3.132584    1.5110809   439061 
  819000    1.0079145   -3.1328701   -3.1328701   -1.6210018  0.083893986   -3.1328701    1.5118683   439061 
  820000    1.0087304   -3.1336196   -3.1336196   -1.6205275  0.089758013   -3.1336196    1.5130921   439061 
  821000    1.0076323   -3.1339266   -3.1339266   -1.6224816  0.092258022   -3.1339266    1.5114451   439061 
  822000    1.0060471   -3.1317558   -3.1317558   -1.6226886   0.08683529   -3.1317558    1.5090672   439061 
  823000    1.0071717   -3.1329145   -3.1329145   -1.6221604  0.091115585   -3.1329145    1.5107541   439061 
  824000    1.0063298   -3.1320065   -3.1320065   -1.6225152  0.089354875   -3.1320065    1.5094913   439061 
  825000    1.0060412   -3.1323227   -3.1323227   -1.6232643  0.087487904   -3.1323227    1.5090584   439061 
  826000    1.0067956   -3.1339828   -3.1339828   -1.6237928  0.089539089   -3.1339828      1.51019   439061 
  827000    1.0062099   -3.1351261   -3.1351261   -1.6258147  0.083744333   -3.1351261    1.5093115   439061 
  828000    1.0043648   -3.1326049   -3.1326049   -1.6260611  0.083009668   -3.1326049    1.5065438   439061 
  829000      1.00486   -3.1325757   -3.1325757   -1.6252892  0.078523354   -3.1325757    1.5072865   439061 
  830000    1.0061585   -3.1347993   -3.1347993   -1.6255649  0.081374793   -3.1347993    1.5092344   439061 
  831000    1.0045729   -3.1310676   -3.1310676   -1.6242118  0.086062043   -3.1310676    1.5068559   439061 
  832000    1.0042916   -3.1309575   -3.1309575   -1.6245236  0.082027077   -3.1309575    1.5064339   439061 
  833000    1.0031523   -3.1303314   -3.1303314   -1.6256063  0.084367217   -3.1303314    1.5047251   439061 
  834000    1.0068891   -3.1347724   -3.1347724   -1.6244422  0.077502351   -3.1347724    1.5103302   439061 
  835000    1.0041867   -3.1308834   -3.1308834   -1.6246068  0.086650411   -3.1308834    1.5062766   439061 
  836000    1.0067037   -3.1342367   -3.1342367   -1.6241846  0.082656383   -3.1342367    1.5100522   439061 
  837000    1.0053098   -3.1330622   -3.1330622    -1.625101  0.079421914   -3.1330622    1.5079612   439061 
  838000    1.0052216   -3.1326209   -3.1326209   -1.6247918  0.083959539   -3.1326209     1.507829   439061 
  839000    1.0044432   -3.1321967   -3.1321967   -1.6255352  0.086288421   -3.1321967    1.5066614   439061 
  840000    1.0048033    -3.133914    -3.133914   -1.6267125  0.085323501    -3.133914    1.5072014   439061 
  841000    1.0069448   -3.1370856   -3.1370856   -1.6266718  0.086412413   -3.1370856    1.5104138   439061 
  842000    1.0040953   -3.1347855   -3.1347855   -1.6286461  0.088198637   -3.1347855    1.5061395   439061 
  843000    1.0041315    -3.136071    -3.136071   -1.6298772  0.082580404    -3.136071    1.5061938   439061 
  844000    1.0049961   -3.1375782   -3.1375782   -1.6300874  0.079638854   -3.1375782    1.5074908   439061 
  845000    1.0054457   -3.1395333   -3.1395333   -1.6313683  0.083378162   -3.1395333     1.508165   439061 
  846000    1.0068095   -3.1402823   -3.1402823   -1.6300715  0.083476436   -3.1402823    1.5102108   439061 
  847000    1.0034269   -3.1374734   -3.1374734   -1.6323365  0.087643975   -3.1374734    1.5051369   439061 
  848000    1.0051593   -3.1397975   -3.1397975    -1.632062  0.086616047   -3.1397975    1.5077355   439061 
  849000    1.0055132   -3.1412493   -3.1412493    -1.632983  0.080190917   -3.1412493    1.5082663   439061 
  850000    1.0043148   -3.1398033   -3.1398033   -1.6333345  0.083997556   -3.1398033    1.5064687   439061 
  851000    1.0072894   -3.1436396   -3.1436396   -1.6327089  0.084893975   -3.1436396    1.5109307   439061 
  852000     1.005756   -3.1417193   -3.1417193   -1.6330888  0.085696676   -3.1417193    1.5086305   439061 
  853000     1.005742   -3.1414801   -3.1414801   -1.6328705  0.084549927   -3.1414801    1.5086096   439061 
  854000    1.0041146   -3.1405028   -3.1405028   -1.6343343  0.087465301   -3.1405028    1.5061685   439061 
  855000    1.0052072   -3.1421065   -3.1421065   -1.6342991  0.085000547   -3.1421065    1.5078074   439061 
  856000    1.0048134   -3.1423228   -3.1423228   -1.6351061  0.084184934   -3.1423228    1.5072167   439061 
  857000     1.005187   -3.1441966   -3.1441966   -1.6364196  0.082324593   -3.1441966     1.507777   439061 
  858000    1.0043242   -3.1445088   -3.1445088    -1.638026   0.08049322   -3.1445088    1.5064828   439061 
  859000    1.0036021     -3.14453     -3.14453   -1.6391304  0.081586373     -3.14453    1.5053997   439061 
  860000    1.0035624   -3.1430939   -3.1430939   -1.6377538  0.084974266   -3.1430939    1.5053401   439061 
  861000    1.0044287   -3.1445625   -3.1445625   -1.6379229  0.086367606   -3.1445625    1.5066396   439061 
  862000    1.0039067   -3.1437733   -3.1437733   -1.6379167  0.083202026   -3.1437733    1.5058566   439061 
  863000    1.0040161    -3.144292    -3.144292   -1.6382712  0.086658654    -3.144292    1.5060207   439061 
  864000    1.0043426   -3.1456859   -3.1456859   -1.6391755   0.08250638   -3.1456859    1.5065104   439061 
  865000    1.0058127   -3.1465834   -3.1465834   -1.6378678   0.08594391   -3.1465834    1.5087157   439061 
  866000    1.0053621   -3.1466745   -3.1466745   -1.6386349  0.082476563   -3.1466745    1.5080397   439061 
  867000    1.0045755   -3.1454215   -3.1454215   -1.6385618   0.08216071   -3.1454215    1.5068597   439061 
  868000    1.0048901   -3.1453862   -3.1453862   -1.6380545  0.084058777   -3.1453862    1.5073318   439061 
  869000    1.0033919   -3.1451002   -3.1451002   -1.6400159  0.085102808   -3.1451002    1.5050844   439061 
  870000    1.0041035   -3.1469828   -3.1469828   -1.6408309   0.08236391   -3.1469828    1.5061519   439061 
  871000      1.00307   -3.1461674   -3.1461674   -1.6415658  0.080420929   -3.1461674    1.5046015   439061 
  872000    1.0037643   -3.1494388   -3.1494388   -1.6437959  0.083677221   -3.1494388    1.5056429   439061 
  873000    1.0036352   -3.1501744   -3.1501744    -1.644725  0.078719867   -3.1501744    1.5054494   439061 
  874000    1.0014599    -3.147106    -3.147106   -1.6449195  0.084809837    -3.147106    1.5021865   439061 
  875000    1.0025287   -3.1501335   -3.1501335   -1.6463439  0.076543517   -3.1501335    1.5037896   439061 
  876000    1.0013571    -3.148489    -3.148489   -1.6464568  0.082633513    -3.148489    1.5020322   439061 
  877000    1.0006152    -3.148297    -3.148297   -1.6473776  0.082672026    -3.148297    1.5009194   439061 
  878000    1.0024906   -3.1511491   -3.1511491   -1.6474166  0.080517616   -3.1511491    1.5037325   439061 
  879000    1.0033597   -3.1522543   -3.1522543   -1.6472182  0.081368124   -3.1522543    1.5050361   439061 
  880000    1.0040606   -3.1528685   -3.1528685    -1.646781  0.082371169   -3.1528685    1.5060875   439061 
  881000    1.0029844   -3.1514137   -3.1514137   -1.6469406  0.081567806   -3.1514137    1.5044731   439061 
  882000    1.0028671   -3.1530054   -3.1530054   -1.6487082  0.081657527   -3.1530054    1.5042972   439061 
  883000    1.0037634   -3.1520232   -3.1520232   -1.6463816   0.08721623   -3.1520232    1.5056416   439061 
  884000    1.0035476     -3.15355     -3.15355    -1.648232  0.085704559     -3.15355     1.505318   439061 
  885000    1.0038593   -3.1543263   -3.1543263   -1.6485408  0.086609986   -3.1543263    1.5057856   439061 
  886000    1.0036914   -3.1547474   -3.1547474   -1.6492138  0.084388451   -3.1547474    1.5055337   439061 
  887000    1.0032479   -3.1556881   -3.1556881   -1.6508197  0.084843689   -3.1556881    1.5048684   439061 
  888000    1.0035834   -3.1570373   -3.1570373   -1.6516656  0.085801586   -3.1570373    1.5053717   439061 
  889000    1.0024424   -3.1558136   -3.1558136   -1.6521534  0.082362273   -3.1558136    1.5036602   439061 
  890000    1.0022903   -3.1540514   -3.1540514   -1.6506194  0.086636679   -3.1540514     1.503432   439061 
  891000      1.00254   -3.1553264   -3.1553264   -1.6515199  0.081282804   -3.1553264    1.5038065   439061 
  892000    1.0024803   -3.1560786   -3.1560786   -1.6523616  0.077892971   -3.1560786     1.503717   439061 
  893000    1.0015975   -3.1553906   -3.1553906   -1.6529978  0.081172597   -3.1553906    1.5023928   439061 
  894000    1.0033869   -3.1579307   -3.1579307   -1.6528538  0.081185827   -3.1579307    1.5050769   439061 
  895000    1.0021837   -3.1559731   -3.1559731   -1.6527009  0.083654977   -3.1559731    1.5032721   439061 
  896000    1.0025477   -3.1558814   -3.1558814   -1.6520632   0.08382303   -3.1558814    1.5038182   439061 
  897000    1.0031493   -3.1568546   -3.1568546    -1.652134  0.082494486   -3.1568546    1.5047205   439061 
  898000    1.0039866   -3.1586342   -3.1586342   -1.6526578  0.086477807   -3.1586342    1.5059764   439061 
  899000    1.0024988   -3.1555952   -3.1555952   -1.6518504  0.085065434   -3.1555952    1.5037448   439061 
  900000    1.0029818   -3.1565246   -3.1565246   -1.6520553  0.083400627   -3.1565246    1.5044693   439061 
  901000    1.0030145   -3.1551711   -3.1551711   -1.6506527  0.083366758   -3.1551711    1.5045184   439061 
  902000     1.002316   -3.1557091   -3.1557091   -1.6522386  0.077305387   -3.1557091    1.5034706   439061 
  903000    1.0026131   -3.1559583   -3.1559583   -1.6520421  0.083340995   -3.1559583    1.5039162   439061 
  904000    1.0048788    -3.158474    -3.158474   -1.6511593  0.082079961    -3.158474    1.5073148   439061 
  905000    1.0028168   -3.1565332   -3.1565332   -1.6523115  0.081592072   -3.1565332    1.5042217   439061 
  906000     1.003405   -3.1575031   -3.1575031   -1.6523991   0.07719614   -3.1575031    1.5051041   439061 
  907000    1.0013107   -3.1560845   -3.1560845    -1.654122  0.078462473   -3.1560845    1.5019626   439061 
  908000    1.0027446   -3.1565804   -3.1565804   -1.6524669  0.080103266   -3.1565804    1.5041135   439061 
  909000    1.0018263   -3.1544157   -3.1544157   -1.6516797  0.078315702   -3.1544157     1.502736   439061 
  910000    1.0009647   -3.1547997   -3.1547997    -1.653356  0.085432354   -3.1547997    1.5014437   439061 
  911000    1.0011962   -3.1554017   -3.1554017   -1.6536108   0.08306261   -3.1554017    1.5017909   439061 
  912000    1.0018699   -3.1573551   -3.1573551   -1.6545537  0.083155152   -3.1573551    1.5028014   439061 
  913000    1.0012919   -3.1564247   -3.1564247   -1.6544903  0.080295382   -3.1564247    1.5019344   439061 
  914000    1.0000019   -3.1548829   -3.1548829   -1.6548834  0.082135489   -3.1548829    1.4999995   439061 
  915000    1.0012811   -3.1577719   -3.1577719   -1.6558537  0.079532632   -3.1577719    1.5019182   439061 
  916000    1.0023685   -3.1592248   -3.1592248   -1.6556755  0.085186235   -3.1592248    1.5035493   439061 
  917000    1.0019976   -3.1592285   -3.1592285   -1.6562355  0.083658605   -3.1592285     1.502993   439061 
  918000    1.0031045   -3.1611829   -3.1611829   -1.6565296   0.08305546   -3.1611829    1.5046533   439061 
  919000    1.0032738   -3.1597909   -3.1597909   -1.6548837  0.081584364   -3.1597909    1.5049072   439061 
  920000    1.0038087   -3.1604493   -3.1604493   -1.6547396  0.087041833   -3.1604493    1.5057097   439061 
  921000    1.0044856   -3.1617572   -3.1617572   -1.6550322  0.082677153   -3.1617572     1.506725   439061 
  922000    1.0035355   -3.1621963   -3.1621963   -1.6568965  0.085608224   -3.1621963    1.5052998   439061 
  923000    1.0023053   -3.1623617   -3.1623617   -1.6589071  0.084172388   -3.1623617    1.5034545   439061 
  924000    1.0028262   -3.1634092   -3.1634092   -1.6591733  0.081819262   -3.1634092    1.5042359   439061 
  925000    1.0021526   -3.1637447   -3.1637447   -1.6605193  0.077666642   -3.1637447    1.5032254   439061 
  926000    1.0034815   -3.1651149   -3.1651149   -1.6598961  0.086683994   -3.1651149    1.5052188   439061 
  927000    1.0006597   -3.1631291   -3.1631291   -1.6621429  0.084565127   -3.1631291    1.5009862   439061 
  928000    1.0014655    -3.165354    -3.165354   -1.6631591  0.084225127    -3.165354    1.5021949   439061 
  929000    1.0021904   -3.1653759   -3.1653759   -1.6620937  0.085807641   -3.1653759    1.5032822   439061 
  930000    1.0023567   -3.1643522   -3.1643522   -1.6608205   0.08776573   -3.1643522    1.5035317   439061 
  931000    1.0030554    -3.166428    -3.166428   -1.6618484  0.087389054    -3.166428    1.5045797   439061 
  932000     1.002648   -3.1668477   -3.1668477   -1.6628791  0.082741476   -3.1668477    1.5039686   439061 
  933000    1.0020809   -3.1682314   -3.1682314   -1.6651134  0.083120382   -3.1682314     1.503118   439061 
  934000    1.0013799   -3.1682514   -3.1682514    -1.666185   0.08267559   -3.1682514    1.5020664   439061 
  935000    1.0028028   -3.1695598   -3.1695598    -1.665359   0.08637781   -3.1695598    1.5042008   439061 
  936000    1.0035705   -3.1719342   -3.1719342   -1.6665818  0.083180711   -3.1719342    1.5053524   439061 
  937000    1.0021391   -3.1711382   -3.1711382   -1.6679329  0.083833847   -3.1711382    1.5032053   439061 
  938000    1.0015969   -3.1694255   -3.1694255   -1.6670337  0.083556235   -3.1694255    1.5023919   439061 
  939000    1.0033017   -3.1720447   -3.1720447   -1.6670955  0.083737224   -3.1720447    1.5049492   439061 
  940000     1.001401   -3.1701368   -3.1701368   -1.6680387  0.086261988   -3.1701368    1.5020981   439061 
  941000    1.0027668   -3.1717286   -3.1717286   -1.6675819  0.081910841   -3.1717286    1.5041467   439061 
  942000    1.0004966   -3.1691132   -3.1691132   -1.6683717   0.08712739   -3.1691132    1.5007415   439061 
  943000    1.0015083   -3.1707775   -3.1707775   -1.6685185  0.076975595   -3.1707775     1.502259   439061 
  944000    1.0022861   -3.1708687   -3.1708687    -1.667443  0.086820987   -3.1708687    1.5034258   439061 
  945000    1.0007946   -3.1684764   -3.1684764   -1.6672879   0.08181935   -3.1684764    1.5011885   439061 
  946000    1.0023927   -3.1704546   -3.1704546    -1.666869  0.083647028   -3.1704546    1.5035856   439061 
  947000    1.0012068   -3.1685289   -3.1685289   -1.6667221  0.089523761   -3.1685289    1.5018068   439061 
  948000    1.0019524   -3.1691941   -3.1691941   -1.6662689  0.086553629   -3.1691941    1.5029252   439061 
  949000   0.99926415   -3.1654786   -3.1654786   -1.6665858  0.083229383   -3.1654786    1.4988928   439061 
  950000    1.0009256   -3.1671399   -3.1671399    -1.665755  0.084651759   -3.1671399    1.5013849   439061 
  951000    1.0004205   -3.1675489   -3.1675489   -1.6669216  0.079284261   -3.1675489    1.5006273   439061 
  952000    1.0001316   -3.1669798   -3.1669798   -1.6667858  0.085185936   -3.1669798     1.500194   439061 
  953000    1.0001765   -3.1685342   -3.1685342   -1.6682728  0.078922081   -3.1685342    1.5002614   439061 
  954000   0.99987745   -3.1674708   -3.1674708    -1.667658  0.082853371   -3.1674708    1.4998128   439061 
  955000    1.0022019   -3.1713755   -3.1713755   -1.6680761  0.078681367   -3.1713755    1.5032994   439061 
  956000    1.0003669   -3.1689334   -3.1689334   -1.6683864  0.081028473   -3.1689334    1.5005469   439061 
  957000    1.0015291   -3.1693268   -3.1693268   -1.6670365  0.083412531   -3.1693268    1.5022902   439061 
  958000    1.0004277   -3.1699647   -3.1699647   -1.6693265  0.086994765   -3.1699647    1.5006382   439061 
  959000    1.0011971    -3.171203    -3.171203   -1.6694109  0.078735276    -3.171203    1.5017922   439061 
  960000    1.0009579   -3.1711176   -3.1711176   -1.6696842   0.08258753   -3.1711176    1.5014334   439061 
  961000    1.0007908   -3.1722665   -3.1722665   -1.6710837  0.079253634   -3.1722665    1.5011828   439061 
  962000    1.0008888   -3.1719969   -3.1719969   -1.6706671   0.08451527   -3.1719969    1.5013298   439061 
  963000    1.0016449   -3.1736538   -3.1736538   -1.6711898  0.086467752   -3.1736538    1.5024639   439061 
  964000     1.001132   -3.1740517   -3.1740517   -1.6723571  0.084825754   -3.1740517    1.5016945   439061 
  965000   0.99966428   -3.1713775   -3.1713775   -1.6718845  0.088081218   -3.1713775     1.499493   439061 
  966000    1.0019151   -3.1760029   -3.1760029   -1.6731337  0.086454655   -3.1760029    1.5028692   439061 
  967000    1.0011432    -3.176583    -3.176583   -1.6748716  0.082617733    -3.176583    1.5017114   439061 
  968000    1.0011983   -3.1770056   -3.1770056   -1.6752116   0.08592798   -3.1770056     1.501794   439061 
  969000   0.99979879   -3.1759311   -3.1759311   -1.6762364  0.086933355   -3.1759311    1.4996948   439061 
  970000    1.0001863   -3.1755735   -3.1755735   -1.6752975  0.079983325   -3.1755735     1.500276   439061 
  971000    1.0005586   -3.1759151   -3.1759151   -1.6750806  0.080904455   -3.1759151    1.5008345   439061 
  972000    1.0014285   -3.1773454   -3.1773454    -1.675206  0.080324866   -3.1773454    1.5021393   439061 
  973000    1.0020941   -3.1776817   -3.1776817    -1.674544  0.082244708   -3.1776817    1.5031377   439061 
  974000    1.0013937   -3.1773676   -3.1773676   -1.6752806  0.084528283   -3.1773676    1.5020871   439061 
  975000    1.0018994   -3.1763929   -3.1763929   -1.6735472  0.085267182   -3.1763929    1.5028457   439061 
  976000    1.0013979   -3.1756855   -3.1756855   -1.6735921  0.084254075   -3.1756855    1.5020935   439061 
  977000    1.0025574   -3.1771094   -3.1771094   -1.6732768  0.079897218   -3.1771094    1.5038326   439061 
  978000    1.0020064   -3.1758206   -3.1758206   -1.6728144  0.078640805   -3.1758206    1.5030061   439061 
  979000    1.0017052   -3.1757256   -3.1757256   -1.6731712  0.082429169   -3.1757256    1.5025544   439061 
  980000    1.0010539   -3.1764475   -3.1764475   -1.6748701  0.081945077   -3.1764475    1.5015775   439061 
  981000    1.0005913   -3.1758207   -3.1758207   -1.6749371  0.077214153   -3.1758207    1.5008836   439061 
  982000    1.0013268   -3.1762983   -3.1762983   -1.6743115  0.082840367   -3.1762983    1.5019868   439061 
  983000    1.0010657   -3.1760952   -3.1760952   -1.6745001  0.080427686   -3.1760952    1.5015951   439061 
  984000   0.99895457   -3.1747474   -3.1747474    -1.676319  0.081793399   -3.1747474    1.4984284   439061 
  985000   0.99895036   -3.1758665   -3.1758665   -1.6774444  0.076610957   -3.1758665    1.4984221   439061 
  986000   0.99916961   -3.1768386   -3.1768386   -1.6780876  0.077998946   -3.1768386     1.498751   439061 
  987000   0.99839413   -3.1766341   -3.1766341   -1.6790463  0.080185751   -3.1766341    1.4975878   439061 
  988000    0.9989805   -3.1774635   -3.1774635   -1.6789962  0.080314566   -3.1774635    1.4984673   439061 
  989000   0.99814953   -3.1761791   -3.1761791   -1.6789583  0.076247198   -3.1761791    1.4972209   439061 
  990000   0.99995786   -3.1793062   -3.1793062   -1.6793728  0.082491874   -3.1793062    1.4999334   439061 
  991000   0.99850311    -3.176915    -3.176915   -1.6791638  0.078280384    -3.176915    1.4977512   439061 
  992000   0.99964797   -3.1789736   -3.1789736   -1.6795051  0.079893222   -3.1789736    1.4994685   439061 
  993000   0.99920261   -3.1796679   -3.1796679   -1.6808674  0.081050034   -3.1796679    1.4988005   439061 
  994000   0.99899984   -3.1798035   -3.1798035   -1.6813072  0.082660825   -3.1798035    1.4984964   439061 
  995000   0.99931202    -3.180092    -3.180092   -1.6811274   0.08559678    -3.180092    1.4989646   439061 
  996000      1.00025   -3.1829914   -3.1829914   -1.6826198  0.082037554   -3.1829914    1.5003716   439061 
  997000    1.0006115   -3.1844357   -3.1844357   -1.6835218   0.08591703   -3.1844357    1.5009139   439061 
  998000    1.0002003   -3.1846564   -3.1846564   -1.6843594  0.080632457   -3.1846564     1.500297   439061 
  999000   0.99937228   -3.1840421   -3.1840421   -1.6849871  0.075261284   -3.1840421     1.499055   439061 
 1000000    1.0001237   -3.1839464   -3.1839464   -1.6837644  0.080890252   -3.1839464    1.5001821   439061 
 1001000   0.99890459    -3.182289    -3.182289   -1.6839355  0.082864144    -3.182289    1.4983535   439061 
 1002000   0.99826015   -3.1825729   -3.1825729   -1.6851861  0.079100807   -3.1825729    1.4973868   439061 
 1003000   0.99950694   -3.1834371   -3.1834371   -1.6841801  0.085732674   -3.1834371     1.499257   439061 
 1004000    1.0005425   -3.1845409   -3.1845409   -1.6837305  0.079186584   -3.1845409    1.5008104   439061 
 1005000   0.99929673   -3.1825799   -3.1825799   -1.6836382  0.079718365   -3.1825799    1.4989417   439061 
 1006000   0.99928035   -3.1821446   -3.1821446   -1.6832275  0.080190257   -3.1821446    1.4989171   439061 
 1007000   0.99964304    -3.184303    -3.184303   -1.6848418   0.08229063    -3.184303    1.4994611   439061 
 1008000   0.99995732   -3.1845702   -3.1845702   -1.6846376  0.077891845   -3.1845702    1.4999326   439061 
 1009000    1.0001418   -3.1842003   -3.1842003   -1.6839911  0.081469393   -3.1842003    1.5002093   439061 
 1010000   0.99840214   -3.1823632   -3.1823632   -1.6847634  0.083874298   -3.1823632    1.4975998   439061 
 1011000   0.99952621   -3.1846452   -3.1846452   -1.6853593  0.078550166   -3.1846452    1.4992859   439061 
 1012000   0.99881073   -3.1851991   -3.1851991   -1.6869864  0.076316533   -3.1851991    1.4982127   439061 
 1013000    1.0004024   -3.1863875   -3.1863875   -1.6857874  0.078774629   -3.1863875    1.5006001   439061 
 1014000    0.9982388   -3.1838623   -3.1838623   -1.6865075   0.07802412   -3.1838623    1.4973548   439061 
 1015000    1.0000162   -3.1868332   -3.1868332   -1.6868123  0.080118408   -3.1868332    1.5000209   439061 
 1016000   0.99879335   -3.1854238   -3.1854238   -1.6872372  0.079400098   -3.1854238    1.4981866   439061 
 1017000    0.9990691   -3.1858325   -3.1858325   -1.6872323   0.08216533   -3.1858325    1.4986002   439061 
 1018000    1.0007319   -3.1885921   -3.1885921   -1.6874977  0.079474459   -3.1885921    1.5010945   439061 
 1019000   0.99960294   -3.1876632   -3.1876632   -1.6882622  0.081841938   -3.1876632     1.499401   439061 
 1020000    1.0001952   -3.1903557   -3.1903557   -1.6900663  0.078254716   -3.1903557    1.5002894   439061 
 1021000    1.0001391    -3.190317    -3.190317   -1.6901118  0.078754417    -3.190317    1.5002052   439061 
 1022000    1.0000055   -3.1901745   -3.1901745   -1.6901696   0.08328712   -3.1901745    1.5000049   439061 
 1023000   0.99921281   -3.1889836   -3.1889836   -1.6901678  0.082681134   -3.1889836    1.4988158   439061 
 1024000   0.99944092   -3.1917225   -3.1917225   -1.6925645  0.077098421   -3.1917225     1.499158   439061 
 1025000    1.0003749   -3.1931603   -3.1931603   -1.6926014  0.081721101   -3.1931603    1.5005589   439061 
 1026000    0.9994976   -3.1924329   -3.1924329   -1.6931899  0.084474317   -3.1924329     1.499243   439061 
 1027000     0.998772   -3.1928275   -3.1928275   -1.6946729  0.080365436   -3.1928275    1.4981546   439061 
 1028000   0.99864838   -3.1919935   -3.1919935   -1.6940244  0.081271435   -3.1919935    1.4979692   439061 
 1029000    1.0007989   -3.1955635   -3.1955635   -1.6943686  0.080620342   -3.1955635    1.5011949   439061 
 1030000    1.0002144   -3.1954864   -3.1954864   -1.6951683  0.084577766   -3.1954864    1.5003181   439061 
 1031000    1.0002197   -3.1949045   -3.1949045   -1.6945783  0.083918425   -3.1949045    1.5003262   439061 
 1032000    1.0005313   -3.1943615   -3.1943615   -1.6935679  0.084888282   -3.1943615    1.5007935   439061 
 1033000    1.0005052   -3.1950452   -3.1950452   -1.6942909  0.085290265   -3.1950452    1.5007543   439061 
 1034000     1.000734   -3.1955953   -3.1955953   -1.6944977  0.082264075   -3.1955953    1.5010976   439061 
 1035000   0.99852314   -3.1944927   -3.1944927   -1.6967115  0.084000727   -3.1944927    1.4977813   439061 
 1036000    0.9995953   -3.1945694   -3.1945694   -1.6951799  0.082547823   -3.1945694    1.4993895   439061 
 1037000   0.99878925   -3.1941888   -3.1941888   -1.6960083  0.082889171   -3.1941888    1.4981805   439061 
 1038000   0.99921265   -3.1945122   -3.1945122   -1.6956966   0.07987779   -3.1945122    1.4988156   439061 
 1039000   0.99948474   -3.1948134   -3.1948134   -1.6955897  0.078327423   -3.1948134    1.4992237   439061 
 1040000    1.0000351    -3.194847    -3.194847   -1.6947978  0.080670899    -3.194847    1.5000492   439061 
 1041000     1.000017    -3.195285    -3.195285   -1.6952628  0.079136952    -3.195285    1.5000221   439061 
 1042000   0.99839482   -3.1938355   -3.1938355   -1.6962467  0.086406312   -3.1938355    1.4975888   439061 
 1043000   0.99818484   -3.1936451   -3.1936451   -1.6963713  0.080077472   -3.1936451    1.4972738   439061 
 1044000   0.99863393   -3.1938593   -3.1938593   -1.6959119  0.080414871   -3.1938593    1.4979475   439061 
 1045000   0.99918416   -3.1944615   -3.1944615   -1.6956887  0.080605539   -3.1944615    1.4987728   439061 
 1046000    1.0005966   -3.1952529   -3.1952529   -1.6943614  0.078560675   -3.1952529    1.5008915   439061 
 1047000    1.0002012    -3.195328    -3.195328   -1.6950296  0.080672531    -3.195328    1.5002984   439061 
 1048000    1.0005669    -3.197267    -3.197267   -1.6964201  0.080461433    -3.197267    1.5008469   439061 
 1049000   0.99827704   -3.1936214   -3.1936214   -1.6962093  0.085127554   -3.1936214    1.4974122   439061 
 1050000    1.0000291   -3.1958009   -3.1958009   -1.6957607   0.08092379   -3.1958009    1.5000402   439061 
 1051000   0.99931453    -3.194396    -3.194396   -1.6954276  0.083936443    -3.194396    1.4989684   439061 
 1052000   0.99934285    -3.195325    -3.195325   -1.6963142  0.081079269    -3.195325    1.4990109   439061 
 1053000   0.99883809   -3.1963386   -3.1963386   -1.6980849   0.08019818   -3.1963386    1.4982537   439061 
 1054000   0.99841603    -3.195211    -3.195211   -1.6975903  0.083185043    -3.195211    1.4976206   439061 
 1055000   0.99915493   -3.1968059   -3.1968059   -1.6980769  0.083709792   -3.1968059     1.498729   439061 
 1056000   0.99920783   -3.1965349   -3.1965349   -1.6977265  0.082009869   -3.1965349    1.4988083   439061 
 1057000   0.99976378   -3.1989268   -3.1989268   -1.6992846  0.078585528   -3.1989268    1.4996422   439061 
 1058000   0.99991233   -3.1984051   -3.1984051   -1.6985401  0.083984963   -3.1984051    1.4998651   439061 
 1059000    0.9978036   -3.1961296   -3.1961296   -1.6994276  0.081449156   -3.1961296     1.496702   439061 
 1060000   0.99711715   -3.1964337   -3.1964337   -1.7007614   0.08261718   -3.1964337    1.4956723   439061 
 1061000   0.99813515    -3.198656    -3.198656   -1.7014567  0.083709099    -3.198656    1.4971993   439061 
 1062000   0.99900937   -3.1995846   -3.1995846   -1.7010739  0.078196155   -3.1995846    1.4985106   439061 
 1063000    0.9997792   -3.1997495   -3.1997495   -1.7000841  0.081745827   -3.1997495    1.4996654   439061 
 1064000   0.99794329   -3.1971661   -3.1971661   -1.7002545  0.081750032   -3.1971661    1.4969115   439061 
 1065000   0.99871422   -3.1982481   -3.1982481   -1.7001802  0.079456593   -3.1982481    1.4980679   439061 
 1066000   0.99842519   -3.1975224   -3.1975224    -1.699888  0.079107571   -3.1975224    1.4976344   439061 
 1067000   0.99784635   -3.1965045   -3.1965045   -1.6997384  0.083610602   -3.1965045    1.4967661   439061 
 1068000   0.99765182   -3.1973635   -3.1973635   -1.7008892  0.082999178   -3.1973635    1.4964743   439061 
 1069000   0.99852839   -3.1988382   -3.1988382   -1.7010491    0.0800188   -3.1988382    1.4977892   439061 
 1070000   0.99858545   -3.1996022   -3.1996022   -1.7017274  0.077797372   -3.1996022    1.4978748   439061 
 1071000   0.99775903   -3.1977699   -3.1977699   -1.7011348  0.084544021   -3.1977699    1.4966351   439061 
 1072000   0.99652466   -3.1966797   -3.1966797   -1.7018961  0.083168541   -3.1966797    1.4947836   439061 
 1073000   0.99731943   -3.1979358   -3.1979358     -1.70196  0.085866483   -3.1979358    1.4959757   439061 
 1074000   0.99754057   -3.1990124   -3.1990124   -1.7027049  0.079274381   -3.1990124    1.4963074   439061 
 1075000   0.99603327   -3.1978582   -3.1978582   -1.7038117  0.079651674   -3.1978582    1.4940465   439061 
 1076000   0.99740251   -3.2006074   -3.2006074    -1.704507  0.084391187   -3.2006074    1.4961004   439061 
 1077000   0.99656775   -3.2006258   -3.2006258   -1.7057776  0.077393751   -3.2006258    1.4948482   439061 
 1078000   0.99561052   -3.1994012   -3.1994012   -1.7059888   0.07560414   -3.1994012    1.4934124   439061 
 1079000   0.99539311   -3.2002327   -3.2002327   -1.7071465  0.079295325   -3.2002327    1.4930863   439061 
 1080000   0.99623682   -3.2010171   -3.2010171   -1.7066653  0.080929031   -3.2010171    1.4943518   439061 
 1081000   0.99625806   -3.2010491   -3.2010491   -1.7066654  0.077700849   -3.2010491    1.4943837   439061 
 1082000   0.99584627   -3.1998034   -3.1998034   -1.7060374  0.079468559   -3.1998034     1.493766   439061 
 1083000   0.99797639   -3.2030527   -3.2030527   -1.7060915   0.07219484   -3.2030527    1.4969612   439061 
 1084000   0.99683798   -3.2013117   -3.2013117   -1.7060581  0.076003956   -3.2013117    1.4952536   439061 
 1085000   0.99626698   -3.2021282   -3.2021282   -1.7077312  0.080367982   -3.2021282    1.4943971   439061 
 1086000     0.996152    -3.201886    -3.201886   -1.7076614  0.084658184    -3.201886    1.4942246   439061 
 1087000   0.99609117   -3.2023492   -3.2023492   -1.7082158  0.080756338   -3.2023492    1.4941333   439061 
 1088000   0.99871956   -3.2049664   -3.2049664   -1.7068905  0.080846457   -3.2049664    1.4980759   439061 
 1089000   0.99946734   -3.2080646   -3.2080646    -1.708867  0.078874762   -3.2080646    1.4991976   439061 
 1090000   0.99498307   -3.2023212   -3.2023212     -1.70985   0.07752002   -3.2023212    1.4924712   439061 
 1091000   0.99708893   -3.2042708   -3.2042708   -1.7086408  0.077303024   -3.2042708      1.49563   439061 
 1092000    0.9961019   -3.2035092   -3.2035092   -1.7093597  0.082469086   -3.2035092    1.4941494   439061 
 1093000   0.99724996   -3.2041376   -3.2041376   -1.7082661  0.085133608   -3.2041376    1.4958715   439061 
 1094000   0.99580598   -3.2037222   -3.2037222   -1.7100166  0.083975081   -3.2037222    1.4937056   439061 
 1095000   0.99486751   -3.2038528   -3.2038528   -1.7115549  0.083145815   -3.2038528    1.4922979   439061 
 1096000   0.99641019   -3.2054922   -3.2054922   -1.7108803  0.076962735   -3.2054922    1.4946119   439061 
 1097000   0.99635582   -3.2049916   -3.2049916   -1.7104613  0.079090967   -3.2049916    1.4945303   439061 
 1098000   0.99641599   -3.2064883   -3.2064883   -1.7118678  0.077016403   -3.2064883    1.4946206   439061 
 1099000   0.99723004   -3.2071979   -3.2071979   -1.7113562  0.080351377   -3.2071979    1.4958416   439061 
 1100000   0.99556093   -3.2045879   -3.2045879   -1.7112499  0.079054973   -3.2045879     1.493338   439061 
 1101000   0.99723615   -3.2068109   -3.2068109   -1.7109601  0.080409158   -3.2068109    1.4958508   439061 
 1102000   0.99480945   -3.2050025   -3.2050025   -1.7127917  0.081361684   -3.2050025    1.4922108   439061 
 1103000   0.99672358   -3.2077664   -3.2077664   -1.7126844  0.075584924   -3.2077664     1.495082   439061 
 1104000   0.99599311     -3.20787     -3.20787   -1.7138837  0.077918328     -3.20787    1.4939863   439061 
 1105000   0.99475963   -3.2062509   -3.2062509   -1.7141149  0.080043858   -3.2062509     1.492136   439061 
 1106000   0.99590582   -3.2078066   -3.2078066   -1.7139513  0.079015501   -3.2078066    1.4938553   439061 
 1107000    0.9961779    -3.208286    -3.208286   -1.7140225  0.082669387    -3.208286    1.4942634   439061 
 1108000     0.995313   -3.2077895   -3.2077895   -1.7148234  0.075793871   -3.2077895    1.4929661   439061 
 1109000   0.99525588   -3.2087962   -3.2087962   -1.7159157  0.077672488   -3.2087962    1.4928804   439061 
 1110000   0.99522537   -3.2087919   -3.2087919   -1.7159573  0.081159768   -3.2087919    1.4928347   439061 
 1111000   0.99533358   -3.2092933   -3.2092933   -1.7162963  0.081618612   -3.2092933     1.492997   439061 
 1112000   0.99428756   -3.2102734   -3.2102734   -1.7188455  0.077720849   -3.2102734    1.4914279   439061 
 1113000   0.99463177   -3.2100141   -3.2100141   -1.7180698  0.080863308   -3.2100141    1.4919443   439061 
 1114000     0.996799   -3.2135935   -3.2135935   -1.7183984   0.07430793   -3.2135935    1.4951951   439061 
 1115000   0.99612812   -3.2130216   -3.2130216   -1.7188328  0.080399981   -3.2130216    1.4941888   439061 
 1116000   0.99617593   -3.2126775   -3.2126775    -1.718417  0.081372793   -3.2126775    1.4942605   439061 
 1117000   0.99723468   -3.2143979   -3.2143979   -1.7185492  0.080094596   -3.2143979    1.4958486   439061 
 1118000   0.99572148   -3.2116476   -3.2116476   -1.7180687  0.084277503   -3.2116476    1.4935788   439061 
 1119000   0.99605547    -3.213207    -3.213207   -1.7191272  0.075439344    -3.213207    1.4940798   439061 
 1120000   0.99678762     -3.21496     -3.21496   -1.7197819  0.078089802     -3.21496     1.495178   439061 
 1121000   0.99636791   -3.2136202   -3.2136202   -1.7190717  0.076161329   -3.2136202    1.4945485   439061 
 1122000   0.99690358   -3.2153765   -3.2153765   -1.7200245  0.076802704   -3.2153765     1.495352   439061 
 1123000   0.99532943    -3.213535    -3.213535   -1.7205443   0.08070309    -3.213535    1.4929907   439061 
 1124000   0.99598713     -3.21344     -3.21344   -1.7194627  0.079090136     -3.21344    1.4939773   439061 
 1125000   0.99537652   -3.2116707   -3.2116707   -1.7186093  0.082847047   -3.2116707    1.4930614   439061 
 1126000   0.99628833   -3.2135965   -3.2135965   -1.7191674  0.076564359   -3.2135965    1.4944291   439061 
 1127000   0.99582869   -3.2133117   -3.2133117   -1.7195721  0.081423558   -3.2133117    1.4937396   439061 
 1128000   0.99569805    -3.213594    -3.213594   -1.7200503  0.086313078    -3.213594    1.4935437   439061 
 1129000   0.99625613    -3.214045    -3.214045   -1.7196642  0.082574357    -3.214045    1.4943808   439061 
 1130000   0.99637236   -3.2158945   -3.2158945   -1.7213394  0.076351959   -3.2158945    1.4945551   439061 
 1131000    0.9958757   -3.2159932   -3.2159932   -1.7221831  0.076122336   -3.2159932    1.4938102   439061 
 1132000   0.99493411   -3.2139379   -3.2139379   -1.7215402  0.073799235   -3.2139379    1.4923978   439061 
 1133000   0.99496948   -3.2146127   -3.2146127   -1.7221619  0.078076677   -3.2146127    1.4924508   439061 
 1134000   0.99561179   -3.2155431   -3.2155431   -1.7221288  0.074686387   -3.2155431    1.4934143   439061 
 1135000   0.99506346   -3.2159155   -3.2159155   -1.7233238  0.074954953   -3.2159155    1.4925918   439061 
 1136000   0.99411268   -3.2154443   -3.2154443   -1.7242786  0.077706777   -3.2154443    1.4911656   439061 
 1137000     0.995965   -3.2196305   -3.2196305   -1.7256864  0.074086407   -3.2196305    1.4939441   439061 
 1138000    0.9955057   -3.2176685   -3.2176685   -1.7244133  0.082255832   -3.2176685    1.4932551   439061 
 1139000   0.99553934   -3.2186713   -3.2186713   -1.7253657  0.072448808   -3.2186713    1.4933056   439061 
 1140000   0.99640093   -3.2197326   -3.2197326   -1.7251347  0.076301177   -3.2197326     1.494598   439061 
 1141000    0.9955652   -3.2180467   -3.2180467   -1.7247023  0.081333546   -3.2180467    1.4933444   439061 
 1142000   0.99583985   -3.2195021   -3.2195021   -1.7257457  0.082286421   -3.2195021    1.4937564   439061 
 1143000   0.99607878   -3.2208081   -3.2208081   -1.7266934   0.08251186   -3.2208081    1.4941148   439061 
 1144000   0.99528867   -3.2211633   -3.2211633   -1.7282337  0.077632532   -3.2211633    1.4929296   439061 
 1145000   0.99511807   -3.2203845   -3.2203845   -1.7277108  0.081901083   -3.2203845    1.4926737   439061 
 1146000   0.99487138   -3.2207526   -3.2207526   -1.7284489  0.074256132   -3.2207526    1.4923037   439061 
 1147000   0.99631287   -3.2223048   -3.2223048   -1.7278389  0.075195423   -3.2223048    1.4944659   439061 
 1148000   0.99439023   -3.2210143   -3.2210143   -1.7294323  0.077684998   -3.2210143     1.491582   439061 
 1149000   0.99485535   -3.2208832   -3.2208832   -1.7286036  0.078676664   -3.2208832    1.4922796   439061 
 1150000   0.99634158   -3.2242983   -3.2242983   -1.7297894  0.075965841   -3.2242983     1.494509   439061 
 1151000   0.99601847   -3.2235038   -3.2235038   -1.7294795   0.07730883   -3.2235038    1.4940243   439061 
 1152000   0.99626151    -3.223646    -3.223646   -1.7292571  0.081151215    -3.223646    1.4943889   439061 
 1153000   0.99406191   -3.2200687   -3.2200687   -1.7289792  0.080436457   -3.2200687    1.4910895   439061 
 1154000   0.99650818   -3.2233935   -3.2233935   -1.7286346  0.080489941   -3.2233935    1.4947589   439061 
 1155000   0.99747147      -3.2242      -3.2242   -1.7279962  0.077214895      -3.2242    1.4962038   439061 
 1156000   0.99541752   -3.2217032   -3.2217032   -1.7285804  0.080010474   -3.2217032    1.4931229   439061 
 1157000    0.9978891   -3.2243911   -3.2243911   -1.7275609  0.073264883   -3.2243911    1.4968302   439061 
 1158000   0.99573871   -3.2206891   -3.2206891   -1.7270844  0.084177743   -3.2206891    1.4936047   439061 
 1159000   0.99470167   -3.2209528   -3.2209528   -1.7289037   0.07785251   -3.2209528    1.4920491   439061 
 1160000   0.99421285   -3.2209972   -3.2209972   -1.7296813   0.07565924   -3.2209972    1.4913159   439061 
 1161000   0.99399885    -3.220437    -3.220437   -1.7294421  0.080539895    -3.220437    1.4909949   439061 
 1162000    0.9943203   -3.2201147   -3.2201147   -1.7286377  0.077589111   -3.2201147    1.4914771   439061 
 1163000    0.9945572    -3.220829    -3.220829   -1.7289966  0.072817497    -3.220829    1.4918324   439061 
 1164000   0.99375054   -3.2204644   -3.2204644    -1.729842   0.07438907   -3.2204644    1.4906224   439061 
 1165000   0.99182859   -3.2183646   -3.2183646   -1.7306251  0.077496426   -3.2183646    1.4877395   439061 
 1166000   0.99296914   -3.2199789   -3.2199789   -1.7305286  0.077072722   -3.2199789    1.4894503   439061 
 1167000   0.99377028   -3.2199862   -3.2199862   -1.7293342  0.071779236   -3.2199862     1.490652   439061 
 1168000   0.99329511   -3.2194954   -3.2194954   -1.7295561  0.073912027   -3.2194954    1.4899393   439061 
 1169000   0.99170628   -3.2176506   -3.2176506   -1.7300945  0.078130847   -3.2176506     1.487556   439061 
 1170000   0.99238008   -3.2180366   -3.2180366   -1.7294699  0.078209839   -3.2180366    1.4885667   439061 
 1171000   0.99344865   -3.2208798   -3.2208798   -1.7307103  0.075776824   -3.2208798    1.4901696   439061 
 1172000   0.99327174   -3.2209377   -3.2209377   -1.7310335   0.07573453   -3.2209377    1.4899042   439061 
 1173000   0.99240703   -3.2200858   -3.2200858   -1.7314787  0.076937344   -3.2200858    1.4886072   439061 
 1174000   0.99466119   -3.2218384   -3.2218384     -1.72985  0.079999327   -3.2218384    1.4919884   439061 
 1175000   0.99444539      -3.2216      -3.2216   -1.7299353  0.081984312      -3.2216    1.4916647   439061 
 1176000   0.99542366   -3.2236491   -3.2236491    -1.730517  0.079346997   -3.2236491    1.4931321   439061 
 1177000   0.99484907   -3.2250469   -3.2250469   -1.7327767  0.078014337   -3.2250469    1.4922702   439061 
 1178000   0.99538371   -3.2261814   -3.2261814   -1.7331093   0.07864922   -3.2261814    1.4930722   439061 
 1179000   0.99471601   -3.2261342   -3.2261342   -1.7340636  0.080142923   -3.2261342    1.4920706   439061 
 1180000   0.99419775   -3.2267532   -3.2267532   -1.7354599  0.080140407   -3.2267532    1.4912932   439061 
 1181000   0.99364411   -3.2265814   -3.2265814   -1.7361186  0.080103873   -3.2265814    1.4904628   439061 
 1182000   0.99454982   -3.2286004   -3.2286004    -1.736779  0.082843087   -3.2286004    1.4918213   439061 
 1183000   0.99366972   -3.2279947   -3.2279947   -1.7374935  0.082693534   -3.2279947    1.4905012   439061 
 1184000   0.99401307   -3.2286244   -3.2286244   -1.7376081  0.083708437   -3.2286244    1.4910162   439061 
 1185000   0.99628116   -3.2318446   -3.2318446   -1.7374263  0.082655228   -3.2318446    1.4944183   439061 
 1186000   0.99396547   -3.2297617   -3.2297617   -1.7388169  0.084289898   -3.2297617    1.4909448   439061 
 1187000   0.99539168   -3.2323674   -3.2323674   -1.7392833   0.08157949   -3.2323674    1.4930841   439061 
 1188000   0.99448473    -3.230962    -3.230962   -1.7392383   0.07756902    -3.230962    1.4917237   439061 
 1189000   0.99437744   -3.2305501   -3.2305501   -1.7389873  0.078407977   -3.2305501    1.4915628   439061 
 1190000   0.99425742   -3.2317626   -3.2317626   -1.7403799  0.079607732   -3.2317626    1.4913827   439061 
 1191000   0.99278679   -3.2302024   -3.2302024   -1.7410256  0.079027704   -3.2302024    1.4891768   439061 
 1192000   0.99387675   -3.2317706   -3.2317706   -1.7409589  0.079750812   -3.2317706    1.4908117   439061 
 1193000   0.99418837   -3.2313035   -3.2313035   -1.7400244  0.083073569   -3.2313035    1.4912792   439061 
 1194000   0.99368406   -3.2309765   -3.2309765   -1.7404538  0.075116864   -3.2309765    1.4905227   439061 
 1195000   0.99375226   -3.2312546   -3.2312546   -1.7406296  0.077996476   -3.2312546     1.490625   439061 
 1196000   0.99327916    -3.231437    -3.231437   -1.7415217  0.078078758    -3.231437    1.4899153   439061 
 1197000   0.99377265   -3.2319774   -3.2319774   -1.7413218  0.075329669   -3.2319774    1.4906556   439061 
 1198000   0.99362659   -3.2300374   -3.2300374   -1.7396009  0.078412579   -3.2300374    1.4904365   439061 
 1199000   0.99375978    -3.231312    -3.231312   -1.7406757  0.074882066    -3.231312    1.4906363   439061 
 1200000   0.99212974   -3.2283862   -3.2283862    -1.740195  0.074273631   -3.2283862    1.4881912   439061 
 1201000   0.99346481   -3.2301124   -3.2301124   -1.7399186  0.078592005   -3.2301124    1.4901938   439061 
 1202000   0.99271911    -3.228819    -3.228819   -1.7397437   0.07515503    -3.228819    1.4890753   439061 
 1203000   0.99247655   -3.2300457   -3.2300457   -1.7413343  0.077941411   -3.2300457    1.4887114   439061 
 1204000   0.99148133   -3.2302827   -3.2302827   -1.7430641  0.076948162   -3.2302827    1.4872186   439061 
 1205000   0.99113891   -3.2290948   -3.2290948   -1.7423899  0.071820446   -3.2290948     1.486705   439061 
 1206000   0.99122622   -3.2293147   -3.2293147   -1.7424787  0.072481534   -3.2293147    1.4868359   439061 
 1207000   0.99174628   -3.2309845   -3.2309845   -1.7433685   0.07095286   -3.2309845     1.487616   439061 
 1208000   0.99057647   -3.2292147   -3.2292147   -1.7433534  0.071575363   -3.2292147    1.4858613   439061 
 1209000   0.99117387   -3.2299763   -3.2299763   -1.7432188  0.073824129   -3.2299763    1.4867574   439061 
 1210000   0.99300007   -3.2322753   -3.2322753   -1.7427786  0.077219866   -3.2322753    1.4894967   439061 
 1211000   0.99088855   -3.2302778   -3.2302778   -1.7439483  0.074489516   -3.2302778    1.4863294   439061 
 1212000   0.99341278   -3.2351624   -3.2351624   -1.7450467  0.076249474   -3.2351624    1.4901158   439061 
 1213000   0.99147054   -3.2332337   -3.2332337   -1.7460313  0.075712852   -3.2332337    1.4872024   439061 
 1214000   0.99144949   -3.2339203   -3.2339203   -1.7467495  0.076845197   -3.2339203    1.4871708   439061 
 1215000   0.99228259   -3.2339841   -3.2339841   -1.7455636  0.076693151   -3.2339841    1.4884205   439061 
 1216000   0.99277504    -3.235834    -3.235834   -1.7466749  0.072110624    -3.235834    1.4891592   439061 
 1217000   0.99390777   -3.2374519   -3.2374519   -1.7465937  0.078560169   -3.2374519    1.4908583   439061 
 1218000    0.9918738   -3.2375985   -3.2375985   -1.7497912  0.073417134   -3.2375985    1.4878073   439061 
 1219000   0.99232476   -3.2367991   -3.2367991   -1.7483154   0.07601202   -3.2367991    1.4884838   439061 
 1220000   0.99313738   -3.2376947   -3.2376947    -1.747992  0.074573217   -3.2376947    1.4897027   439061 
 1221000   0.99369344   -3.2379522   -3.2379522   -1.7474154  0.084035384   -3.2379522    1.4905368   439061 
 1222000   0.99386487   -3.2397437   -3.2397437   -1.7489498  0.073992762   -3.2397437    1.4907939   439061 
 1223000   0.99371256   -3.2403173   -3.2403173   -1.7497518  0.078622666   -3.2403173    1.4905654   439061 
 1224000   0.99283904   -3.2389991   -3.2389991   -1.7497439  0.078405445   -3.2389991    1.4892552   439061 
 1225000   0.99368749   -3.2397015   -3.2397015   -1.7491737  0.080965693   -3.2397015    1.4905278   439061 
 1226000   0.99453478   -3.2408557   -3.2408557   -1.7490569   0.07327227   -3.2408557    1.4917988   439061 
 1227000   0.99249092   -3.2390358   -3.2390358   -1.7503028   0.07408471   -3.2390358     1.488733   439061 
 1228000   0.99268593   -3.2406624   -3.2406624   -1.7516369  0.076847712   -3.2406624    1.4890255   439061 
 1229000   0.99201225   -3.2385562   -3.2385562   -1.7505412  0.078703566   -3.2385562     1.488015   439061 
 1230000   0.99071109    -3.237378    -3.237378   -1.7513147  0.073446209    -3.237378    1.4860632   439061 
 1231000   0.99161854   -3.2399994   -3.2399994    -1.752575  0.076809419   -3.2399994    1.4874244   439061 
 1232000    0.9905292   -3.2379698   -3.2379698   -1.7521793  0.075731317   -3.2379698    1.4857904   439061 
 1233000    0.9904904   -3.2384659   -3.2384659   -1.7527336  0.069387458   -3.2384659    1.4857322   439061 
 1234000   0.99000001    -3.236599    -3.236599   -1.7516024  0.076507926    -3.236599    1.4849966   439061 
 1235000   0.98946144   -3.2368341   -3.2368341   -1.7526453  0.076368209   -3.2368341    1.4841888   439061 
 1236000   0.99059707    -3.237804    -3.237804   -1.7519117  0.072224703    -3.237804    1.4858922   439061 
 1237000   0.98978559   -3.2378421   -3.2378421   -1.7531671  0.066913228   -3.2378421     1.484675   439061 
 1238000   0.99027194   -3.2375252   -3.2375252   -1.7521207  0.074099832   -3.2375252    1.4854045   439061 
 1239000   0.98886566   -3.2364644   -3.2364644   -1.7531693  0.075268606   -3.2364644    1.4832951   439061 
 1240000   0.99078746   -3.2379851   -3.2379851   -1.7518072  0.074526592   -3.2379851    1.4861778   439061 
 1241000   0.99091234   -3.2380186   -3.2380186   -1.7516535  0.073782263   -3.2380186    1.4863651   439061 
 1242000   0.99185567   -3.2406664   -3.2406664   -1.7528863  0.071122895   -3.2406664    1.4877801   439061 
 1243000   0.99037797   -3.2403136   -3.2403136   -1.7547501  0.072587605   -3.2403136    1.4855636   439061 
 1244000   0.99029532   -3.2400627   -3.2400627   -1.7546231  0.075469634   -3.2400627    1.4854396   439061 
 1245000   0.99128581    -3.242463    -3.242463   -1.7555377  0.082502692    -3.242463    1.4869253   439061 
 1246000    0.9916168   -3.2433765   -3.2433765   -1.7559547  0.075683239   -3.2433765    1.4874218   439061 
 1247000   0.99096876   -3.2428531   -3.2428531   -1.7564034  0.076464416   -3.2428531    1.4864498   439061 
 1248000   0.98980393   -3.2415733   -3.2415733   -1.7568708  0.073385294   -3.2415733    1.4847025   439061 
 1249000   0.99205419   -3.2459599   -3.2459599    -1.757882  0.076478591   -3.2459599    1.4880779   439061 
 1250000   0.99159414   -3.2445323   -3.2445323   -1.7571444  0.084443867   -3.2445323    1.4873878   439061 
 1251000   0.99197326   -3.2457762   -3.2457762   -1.7578197  0.083562668   -3.2457762    1.4879565   439061 
 1252000   0.99381223   -3.2488981   -3.2488981   -1.7581831  0.079437358   -3.2488981    1.4907149   439061 
 1253000   0.99143162   -3.2455837   -3.2455837   -1.7584397  0.082349281   -3.2455837     1.487144   439061 
 1254000   0.99284742   -3.2473033   -3.2473033   -1.7580356  0.082500794   -3.2473033    1.4892677   439061 
 1255000   0.99375741   -3.2484697   -3.2484697    -1.757837  0.078299395   -3.2484697    1.4906327   439061 
 1256000   0.99224492      -3.2467      -3.2467    -1.758336   0.08072311      -3.2467     1.488364   439061 
 1257000   0.99162499   -3.2466445   -3.2466445   -1.7592104  0.074141791   -3.2466445    1.4874341   439061 
 1258000   0.99210647   -3.2466804   -3.2466804   -1.7585241  0.074608816   -3.2466804    1.4881563   439061 
 1259000   0.99200136   -3.2467496   -3.2467496   -1.7587509  0.078389177   -3.2467496    1.4879987   439061 
 1260000   0.99170243    -3.246155    -3.246155   -1.7586047  0.074874582    -3.246155    1.4875503   439061 
 1261000   0.99044263   -3.2441288   -3.2441288   -1.7584682  0.073595713   -3.2441288    1.4856606   439061 
 1262000    0.9915612   -3.2454359   -3.2454359   -1.7580975   0.07402962   -3.2454359    1.4873384   439061 
 1263000    0.9889506   -3.2428312   -3.2428312   -1.7594086  0.072176342   -3.2428312    1.4834225   439061 
 1264000     0.991684   -3.2451417   -3.2451417   -1.7576191  0.073832613   -3.2451417    1.4875226   439061 
 1265000    0.9899819   -3.2437701   -3.2437701   -1.7588007  0.073518016   -3.2437701    1.4849695   439061 
 1266000   0.98959718   -3.2437246   -3.2437246   -1.7593322  0.074090373   -3.2437246    1.4843924   439061 
 1267000   0.98961487   -3.2440331   -3.2440331   -1.7596142  0.072603569   -3.2440331    1.4844189   439061 
 1268000   0.98978741   -3.2444592   -3.2444592   -1.7597815  0.074943597   -3.2444592    1.4846777   439061 
 1269000    0.9901169   -3.2455436   -3.2455436   -1.7603717  0.070901145   -3.2455436     1.485172   439061 
 1270000   0.98983247   -3.2446896   -3.2446896   -1.7599442  0.073209023   -3.2446896    1.4847453   439061 
 1271000   0.98937796   -3.2438035   -3.2438035     -1.75974  0.074258982   -3.2438035    1.4840636   439061 
 1272000   0.99102574    -3.246593    -3.246593   -1.7600578  0.069308761    -3.246593    1.4865352   439061 
 1273000   0.99005184   -3.2447577   -3.2447577   -1.7596833   0.07898322   -3.2447577    1.4850744   439061 
 1274000   0.99082724   -3.2460093   -3.2460093   -1.7597718  0.076425983   -3.2460093    1.4862375   439061 
 1275000   0.99165848   -3.2475553   -3.2475553   -1.7600709  0.074354875   -3.2475553    1.4874843   439061 
 1276000   0.99118271   -3.2470744   -3.2470744   -1.7603037     0.077262   -3.2470744    1.4867707   439061 
 1277000    0.9911936   -3.2477451   -3.2477451   -1.7609581  0.078756205   -3.2477451     1.486787   439061 
 1278000   0.99116143   -3.2486817   -3.2486817    -1.761943  0.080363091   -3.2486817    1.4867388   439061 
 1279000   0.99195455   -3.2488576   -3.2488576   -1.7609291  0.076418857   -3.2488576    1.4879284   439061 
 1280000    0.9931813   -3.2490442   -3.2490442   -1.7592756  0.078186068   -3.2490442    1.4897686   439061 
 1281000   0.99236626    -3.249362    -3.249362    -1.760816  0.075330433    -3.249362     1.488546   439061 
 1282000   0.99066388   -3.2469908   -3.2469908   -1.7609983  0.078455662   -3.2469908    1.4859924   439061 
 1283000   0.99060509   -3.2493671   -3.2493671   -1.7634629  0.077334948   -3.2493671    1.4859043   439061 
 1284000   0.99025241   -3.2486975   -3.2486975   -1.7633223  0.074700688   -3.2486975    1.4853752   439061 
 1285000   0.99103659   -3.2500911   -3.2500911   -1.7635396  0.078908047   -3.2500911    1.4865515   439061 
 1286000   0.99090013   -3.2495464   -3.2495464   -1.7631996   0.07397247   -3.2495464    1.4863468   439061 
 1287000   0.99093579   -3.2483678   -3.2483678   -1.7619675  0.079332501   -3.2483678    1.4864003   439061 
 1288000   0.99152243   -3.2503834   -3.2503834   -1.7631031  0.075707918   -3.2503834    1.4872803   439061 
 1289000   0.99233303   -3.2513088   -3.2513088   -1.7628126  0.072938396   -3.2513088    1.4884962   439061 
 1290000   0.99293653   -3.2510703   -3.2510703   -1.7616689  0.077718992   -3.2510703    1.4894014   439061 
 1291000   0.99121509   -3.2473889   -3.2473889   -1.7605697  0.078170242   -3.2473889    1.4868193   439061 
 1292000   0.99190732   -3.2506819   -3.2506819   -1.7628243    0.0770163   -3.2506819    1.4878576   439061 
 1293000    0.9899174   -3.2481825   -3.2481825   -1.7633098  0.077672566   -3.2481825    1.4848727   439061 
 1294000   0.99177759    -3.250723    -3.250723     -1.76306  0.073362949    -3.250723     1.487663   439061 
 1295000   0.99030081   -3.2492249   -3.2492249    -1.763777  0.077060087   -3.2492249    1.4854478   439061 
 1296000   0.99065508   -3.2505868   -3.2505868   -1.7646075   0.07728945   -3.2505868    1.4859792   439061 
 1297000   0.99018096    -3.249851    -3.249851    -1.764583  0.075437205    -3.249851    1.4852681   439061 
 1298000   0.98839308   -3.2480489   -3.2480489   -1.7654626  0.076718999   -3.2480489    1.4825862   439061 
 1299000   0.99125806   -3.2512148   -3.2512148   -1.7643311  0.071993545   -3.2512148    1.4868837   439061 
 1300000   0.99204064   -3.2523113   -3.2523113   -1.7642537   0.07632413   -3.2523113    1.4880576   439061 
 1301000   0.99029592   -3.2500662   -3.2500662   -1.7646257  0.081843769   -3.2500662    1.4854405   439061 
 1302000   0.99136726   -3.2515828   -3.2515828   -1.7645353  0.074200058   -3.2515828    1.4870475   439061 
 1303000   0.99098461   -3.2502397   -3.2502397   -1.7637662  0.081807906   -3.2502397    1.4864735   439061 
 1304000   0.99142184   -3.2506363   -3.2506363    -1.763507   0.08144388   -3.2506363    1.4871294   439061 
 1305000   0.99095418   -3.2490152   -3.2490152   -1.7625873  0.075271119   -3.2490152    1.4864279   439061 
 1306000   0.99141246   -3.2491405   -3.2491405   -1.7620252  0.076983423   -3.2491405    1.4871153   439061 
 1307000   0.99118925   -3.2494288   -3.2494288   -1.7626483   0.07549435   -3.2494288    1.4867805   439061 
 1308000   0.99144272   -3.2492382   -3.2492382   -1.7620775  0.076935476   -3.2492382    1.4871607   439061 
 1309000   0.99057352   -3.2498611   -3.2498611   -1.7640042   0.07407499   -3.2498611    1.4858569   439061 
 1310000     0.990621   -3.2509842   -3.2509842   -1.7650561  0.074992732   -3.2509842    1.4859281   439061 
 1311000   0.98934587   -3.2503258   -3.2503258   -1.7663103  0.075383945   -3.2503258    1.4840154   439061 
 1312000   0.98799183   -3.2494758   -3.2494758   -1.7674914  0.075028885   -3.2494758    1.4819844   439061 
 1313000    0.9889185   -3.2503434   -3.2503434   -1.7669691   0.07215968   -3.2503434    1.4833744   439061 
 1314000   0.98929212   -3.2517411   -3.2517411   -1.7678063  0.075689857   -3.2517411    1.4839348   439061 
 1315000   0.98995815   -3.2529143   -3.2529143   -1.7679805  0.067402039   -3.2529143    1.4849338   439061 
 1316000   0.98840481   -3.2499745   -3.2499745   -1.7673707  0.074678005   -3.2499745    1.4826038   439061 
 1317000   0.98951934   -3.2513791   -3.2513791   -1.7671034  0.074346269   -3.2513791    1.4842756   439061 
 1318000   0.99126279   -3.2550571   -3.2550571   -1.7681663  0.077722914   -3.2550571    1.4868908   439061 
 1319000   0.99163405   -3.2554988   -3.2554988   -1.7680511  0.075898658   -3.2554988    1.4874477   439061 
 1320000    0.9898293   -3.2542799   -3.2542799   -1.7695393  0.077391724   -3.2542799    1.4847406   439061 
 1321000   0.99068171   -3.2552715   -3.2552715   -1.7692524  0.075755865   -3.2552715    1.4860192   439061 
 1322000   0.99111679   -3.2565737   -3.2565737   -1.7699019  0.081027613   -3.2565737    1.4866718   439061 
 1323000   0.98924059   -3.2534712   -3.2534712   -1.7696137  0.079165787   -3.2534712    1.4838575   439061 
 1324000    0.9907846    -3.256469    -3.256469   -1.7702955  0.077839904    -3.256469    1.4861735   439061 
 1325000   0.99015045    -3.256802    -3.256802   -1.7715797  0.080129357    -3.256802    1.4852223   439061 
 1326000   0.99015946   -3.2566681   -3.2566681   -1.7714323  0.068776833   -3.2566681    1.4852358   439061 
 1327000   0.98944331   -3.2566928   -3.2566928   -1.7725312  0.074631876   -3.2566928    1.4841616   439061 
 1328000   0.98874687   -3.2562122   -3.2562122   -1.7730953  0.081011618   -3.2562122    1.4831169   439061 
 1329000   0.99138313   -3.2604379   -3.2604379   -1.7733666  0.070335158   -3.2604379    1.4870713   439061 
 1330000   0.99123325   -3.2595575   -3.2595575    -1.772711  0.071613816   -3.2595575    1.4868465   439061 
 1331000   0.99079249   -3.2587258   -3.2587258   -1.7725405  0.070774378   -3.2587258    1.4861853   439061 
 1332000    0.9898504   -3.2577439   -3.2577439   -1.7729717  0.076641823   -3.2577439    1.4847722   439061 
 1333000   0.98934918   -3.2570407   -3.2570407   -1.7730204  0.078947577   -3.2570407    1.4840204   439061 
 1334000   0.99200821   -3.2593687   -3.2593687   -1.7713598  0.073148989   -3.2593687    1.4880089   439061 
 1335000   0.99118664   -3.2586169   -3.2586169   -1.7718403  0.078701696   -3.2586169    1.4867766   439061 
 1336000    0.9905311    -3.259003    -3.259003   -1.7732097  0.074019411    -3.259003    1.4857933   439061 
 1337000   0.99055934   -3.2589639   -3.2589639   -1.7731283  0.074049377   -3.2589639    1.4858356   439061 
 1338000   0.99002201   -3.2586714   -3.2586714   -1.7736418  0.072845682   -3.2586714    1.4850296   439061 
 1339000   0.99018271   -3.2593355   -3.2593355   -1.7740648  0.081485967   -3.2593355    1.4852707   439061 
 1340000   0.98909157   -3.2581038   -3.2581038   -1.7744699  0.073584915   -3.2581038     1.483634   439061 
 1341000   0.98992792   -3.2597518   -3.2597518   -1.7748633  0.074490302   -3.2597518    1.4848885   439061 
 1342000   0.98995149   -3.2602147   -3.2602147   -1.7752908  0.076553941   -3.2602147    1.4849239   439061 
 1343000   0.98959927   -3.2612368   -3.2612368   -1.7768413    0.0748537   -3.2612368    1.4843955   439061 
 1344000   0.98831769    -3.260763    -3.260763   -1.7782898   0.07204293    -3.260763    1.4824732   439061 
 1345000   0.98826419    -3.261487    -3.261487   -1.7790941  0.071984582    -3.261487    1.4823929   439061 
 1346000   0.98710681   -3.2588279   -3.2588279    -1.778171  0.076449072   -3.2588279    1.4806568   439061 
 1347000   0.98808361   -3.2607141   -3.2607141   -1.7785921  0.076180523   -3.2607141     1.482122   439061 
 1348000   0.98923211   -3.2616002   -3.2616002   -1.7777554  0.075194046   -3.2616002    1.4838448   439061 
 1349000    0.9884352   -3.2610195   -3.2610195     -1.77837  0.074004994   -3.2610195    1.4826494   439061 
 1350000   0.98920568   -3.2621599   -3.2621599   -1.7783548     0.075201   -3.2621599    1.4838051   439061 
 1351000   0.98938662    -3.262273    -3.262273   -1.7781964  0.076222588    -3.262273    1.4840765   439061 
 1352000   0.99012528   -3.2640665   -3.2640665    -1.778882   0.07628444   -3.2640665    1.4851845   439061 
 1353000   0.98932361   -3.2632742   -3.2632742   -1.7792921  0.072910854   -3.2632742     1.483982   439061 
 1354000   0.99099253   -3.2646202   -3.2646202   -1.7781348  0.077200199   -3.2646202    1.4864854   439061 
 1355000    0.9895639   -3.2627056   -3.2627056   -1.7783631  0.076252631   -3.2627056    1.4843425   439061 
 1356000   0.98867108   -3.2626739   -3.2626739   -1.7796706  0.077921543   -3.2626739    1.4830032   439061 
 1357000   0.98854442    -3.263141    -3.263141   -1.7803277  0.078328454    -3.263141    1.4828132   439061 
 1358000   0.98968039   -3.2653674   -3.2653674   -1.7808502  0.075942191   -3.2653674    1.4845172   439061 
 1359000   0.98957014   -3.2665627   -3.2665627   -1.7822109  0.074609021   -3.2665627    1.4843518   439061 
 1360000    0.9877409   -3.2635387   -3.2635387   -1.7819307  0.076147102   -3.2635387     1.481608   439061 
 1361000   0.98912439   -3.2649863   -3.2649863    -1.781303  0.074329459   -3.2649863    1.4836832   439061 
 1362000   0.98776791   -3.2630962   -3.2630962   -1.7814477  0.075920608   -3.2630962    1.4816485   439061 
 1363000   0.98761406   -3.2642308   -3.2642308   -1.7828131  0.077010862   -3.2642308    1.4814177   439061 
 1364000   0.98834408   -3.2648253   -3.2648253   -1.7823126  0.077820263   -3.2648253    1.4825127   439061 
 1365000   0.98819936   -3.2653882   -3.2653882   -1.7830925  0.075255702   -3.2653882    1.4822957   439061 
 1366000   0.98838194   -3.2649938   -3.2649938   -1.7824243  0.078965019   -3.2649938    1.4825695   439061 
 1367000   0.98780412    -3.265129    -3.265129   -1.7834262  0.073303417    -3.265129    1.4817028   439061 
 1368000   0.98804059   -3.2649195   -3.2649195    -1.782862  0.073717606   -3.2649195    1.4820575   439061 
 1369000   0.98849954   -3.2670222   -3.2670222   -1.7842762  0.079890134   -3.2670222    1.4827459   439061 
 1370000   0.98796937   -3.2655986   -3.2655986    -1.783648  0.074263884   -3.2655986    1.4819507   439061 
 1371000   0.98795501   -3.2661259   -3.2661259   -1.7841967   0.06972776   -3.2661259    1.4819291   439061 
 1372000   0.98743732    -3.266207    -3.266207   -1.7850544  0.077799966    -3.266207    1.4811526   439061 
 1373000   0.98791979   -3.2661816   -3.2661816   -1.7843053   0.07576866   -3.2661816    1.4818763   439061 
 1374000   0.98585264   -3.2631302   -3.2631302   -1.7843547  0.077292823   -3.2631302    1.4787756   439061 
 1375000   0.98700953   -3.2660586   -3.2660586   -1.7855477   0.07381417   -3.2660586    1.4805109   439061 
 1376000   0.98636259   -3.2649551   -3.2649551   -1.7854146  0.076982477   -3.2649551    1.4795405   439061 
 1377000   0.99027716   -3.2696313   -3.2696313   -1.7842189  0.071080267   -3.2696313    1.4854124   439061 
 1378000   0.98976086   -3.2680423   -3.2680423   -1.7834044  0.070413841   -3.2680423    1.4846379   439061 
 1379000   0.98890704   -3.2669332   -3.2669332   -1.7835761  0.075196721   -3.2669332    1.4833572   439061 
 1380000   0.98798607   -3.2649711   -3.2649711   -1.7829953  0.074072745   -3.2649711    1.4819757   439061 
 1381000   0.98874088   -3.2654433   -3.2654433   -1.7823353  0.080044111   -3.2654433    1.4831079   439061 
 1382000   0.98706415   -3.2642152   -3.2642152   -1.7836224  0.082111369   -3.2642152    1.4805929   439061 
 1383000   0.98779652   -3.2658198   -3.2658198   -1.7841284  0.070543899   -3.2658198    1.4816914   439061 
 1384000   0.98655517   -3.2646485   -3.2646485   -1.7848191  0.076915157   -3.2646485    1.4798294   439061 
 1385000   0.98723228   -3.2664909   -3.2664909   -1.7856459  0.071824965   -3.2664909     1.480845   439061 
 1386000   0.98670735   -3.2661269   -3.2661269   -1.7860692  0.073937776   -3.2661269    1.4800577   439061 
 1387000   0.98878323    -3.269148    -3.269148   -1.7859765  0.072368396    -3.269148    1.4831715   439061 
 1388000   0.98824955   -3.2690109   -3.2690109     -1.78664  0.070156997   -3.2690109    1.4823709   439061 
 1389000   0.98671487   -3.2665585   -3.2665585   -1.7864896  0.076512291   -3.2665585    1.4800689   439061 
 1390000   0.98701615   -3.2677954   -3.2677954   -1.7872746  0.075113124   -3.2677954    1.4805208   439061 
 1391000   0.98772475   -3.2686726   -3.2686726   -1.7870888  0.077097174   -3.2686726    1.4815838   439061 
 1392000   0.98836333   -3.2698139   -3.2698139   -1.7872723  0.068486941   -3.2698139    1.4825416   439061 
 1393000   0.98679015   -3.2686005   -3.2686005   -1.7884186  0.072049159   -3.2686005    1.4801819   439061 
 1394000   0.98636411   -3.2688077   -3.2688077   -1.7892649  0.073373761   -3.2688077    1.4795428   439061 
 1395000   0.98747855   -3.2714308   -3.2714308   -1.7902164  0.074675055   -3.2714308    1.4812144   439061 
 1396000   0.98862435   -3.2732365   -3.2732365   -1.7903033   0.07205911   -3.2732365    1.4829332   439061 
 1397000   0.98803441   -3.2734397   -3.2734397   -1.7913914  0.071547818   -3.2734397    1.4820482   439061 
 1398000   0.98685489    -3.270939    -3.270939     -1.79066  0.074166751    -3.270939     1.480279   439061 
 1399000   0.98783538   -3.2736316   -3.2736316   -1.7918819  0.075681295   -3.2736316    1.4817497   439061 
 1400000   0.98815392    -3.273873    -3.273873   -1.7916455  0.075085564    -3.273873    1.4822275   439061 
 1401000   0.98778924   -3.2742347   -3.2742347   -1.7925543  0.073718783   -3.2742347    1.4816805   439061 
 1402000   0.98976813   -3.2771602   -3.2771602   -1.7925114  0.075235491   -3.2771602    1.4846488   439061 
 1403000   0.98849825   -3.2756193   -3.2756193   -1.7928753  0.075668059   -3.2756193     1.482744   439061 
 1404000   0.98733224   -3.2739173   -3.2739173   -1.7929223  0.074859879   -3.2739173     1.480995   439061 
 1405000   0.98928138   -3.2770687   -3.2770687     -1.79315  0.073467533   -3.2770687    1.4839187   439061 
 1406000   0.98825223   -3.2745087   -3.2745087   -1.7921337  0.077094672   -3.2745087     1.482375   439061 
 1407000    0.9887946   -3.2748852   -3.2748852   -1.7916967  0.074609845   -3.2748852    1.4831885   439061 
 1408000   0.98911695   -3.2766666   -3.2766666   -1.7929945  0.077303503   -3.2766666     1.483672   439061 
 1409000   0.98682927   -3.2747423   -3.2747423   -1.7945018  0.077847504   -3.2747423    1.4802405   439061 
 1410000   0.98751066   -3.2751999   -3.2751999   -1.7939372  0.075022845   -3.2751999    1.4812626   439061 
 1411000   0.98856288   -3.2765393   -3.2765393   -1.7936983  0.071714078   -3.2765393    1.4828409   439061 
 1412000   0.98712228    -3.275509    -3.275509    -1.794829  0.072383427    -3.275509      1.48068   439061 
 1413000    0.9862189   -3.2748319   -3.2748319    -1.795507  0.081801595   -3.2748319     1.479325   439061 
 1414000   0.98560828   -3.2750503   -3.2750503   -1.7966412  0.073556087   -3.2750503    1.4784091   439061 
 1415000   0.98537867   -3.2751438   -3.2751438   -1.7970792  0.074731945   -3.2751438    1.4780646   439061 
 1416000   0.98587591   -3.2757795   -3.2757795    -1.796969  0.070562502   -3.2757795    1.4788105   439061 
 1417000   0.98634072   -3.2771134   -3.2771134   -1.7976056  0.072276559   -3.2771134    1.4795077   439061 
 1418000   0.98546978   -3.2762284   -3.2762284   -1.7980271  0.073214612   -3.2762284    1.4782013   439061 
 1419000   0.98673348   -3.2782031   -3.2782031   -1.7981062  0.075032821   -3.2782031    1.4800969   439061 
 1420000    0.9870031   -3.2778295   -3.2778295   -1.7973282  0.070578153   -3.2778295    1.4805013   439061 
 1421000   0.98571387   -3.2761665   -3.2761665    -1.797599   0.07630047   -3.2761665    1.4785674   439061 
 1422000   0.98628801   -3.2783091   -3.2783091   -1.7988804  0.072616659   -3.2783091    1.4794286   439061 
 1423000   0.98750773    -3.280101    -3.280101   -1.7988428  0.073782368    -3.280101    1.4812582   439061 
 1424000   0.98729974    -3.279271    -3.279271   -1.7983248  0.077223005    -3.279271    1.4809462   439061 
 1425000    0.9868527   -3.2780993   -3.2780993   -1.7978236  0.077963035   -3.2780993    1.4802757   439061 
 1426000   0.98826135   -3.2786494   -3.2786494   -1.7962607  0.075884451   -3.2786494    1.4823887   439061 
 1427000    0.9875129   -3.2795212   -3.2795212   -1.7982552  0.075130654   -3.2795212     1.481266   439061 
 1428000   0.98831923   -3.2808822   -3.2808822   -1.7984067  0.065725033   -3.2808822    1.4824755   439061 
 1429000   0.98713127    -3.280258    -3.280258   -1.7995645  0.074370844    -3.280258    1.4806935   439061 
 1430000   0.98578926   -3.2786795   -3.2786795    -1.799999  0.071607779   -3.2786795    1.4786805   439061 
 1431000   0.98605371   -3.2786025   -3.2786025   -1.7995253  0.076225452   -3.2786025    1.4790772   439061 
 1432000   0.98482532   -3.2781386   -3.2781386   -1.8009039  0.073617457   -3.2781386    1.4772346   439061 
 1433000   0.98667071   -3.2803087   -3.2803087    -1.800306  0.065971069   -3.2803087    1.4800027   439061 
 1434000    0.9866783   -3.2797279   -3.2797279   -1.7997138  0.072538969   -3.2797279    1.4800141   439061 
 1435000   0.98594974    -3.278497    -3.278497   -1.7995758  0.073185777    -3.278497    1.4789212   439061 
 1436000   0.98700849   -3.2813231   -3.2813231   -1.8008137  0.069683816   -3.2813231    1.4805094   439061 
 1437000   0.98598896   -3.2795897   -3.2795897   -1.8006097  0.073258918   -3.2795897    1.4789801   439061 
 1438000   0.98631497   -3.2809861   -3.2809861    -1.801517   0.07247187   -3.2809861    1.4794691   439061 
 1439000   0.98598809   -3.2800241   -3.2800241   -1.8010453  0.071458172   -3.2800241    1.4789788   439061 
 1440000   0.98694893   -3.2801736   -3.2801736   -1.7997536  0.077342567   -3.2801736      1.48042   439061 
 1441000   0.98640451   -3.2789389   -3.2789389   -1.7993355  0.075574653   -3.2789389    1.4796034   439061 
 1442000   0.98612685   -3.2787822   -3.2787822   -1.7995953  0.069259545   -3.2787822    1.4791869   439061 
 1443000   0.98603274   -3.2802429   -3.2802429   -1.8011972  0.073762877   -3.2802429    1.4790457   439061 
 1444000   0.98662981   -3.2812662   -3.2812662   -1.8013249  0.067356205   -3.2812662    1.4799413   439061 
 1445000   0.98561231   -3.2799751   -3.2799751     -1.80156  0.076229515   -3.2799751    1.4784151   439061 
 1446000   0.98622215   -3.2813844   -3.2813844   -1.8020545  0.071092939   -3.2813844    1.4793299   439061 
 1447000   0.98549972   -3.2814774   -3.2814774   -1.8032311  0.075301016   -3.2814774    1.4782462   439061 
 1448000   0.98493338   -3.2818528   -3.2818528    -1.804456  0.067842693   -3.2818528    1.4773967   439061 
 1449000   0.98536761   -3.2832185   -3.2832185   -1.8051705  0.069059913   -3.2832185     1.478048   439061 
 1450000   0.98619929   -3.2843795   -3.2843795   -1.8050839  0.072750158   -3.2843795    1.4792956   439061 
 1451000   0.98637578   -3.2856254   -3.2856254   -1.8060651  0.072305403   -3.2856254    1.4795603   439061 
 1452000   0.98680855   -3.2871454   -3.2871454    -1.806936   0.06850432   -3.2871454    1.4802095   439061 
 1453000   0.98615381   -3.2856347   -3.2856347   -1.8064074  0.072743439   -3.2856347    1.4792274   439061 
 1454000   0.98495399    -3.284229    -3.284229   -1.8068014  0.074600499    -3.284229    1.4774276   439061 
 1455000   0.98635967   -3.2851079   -3.2851079   -1.8055717  0.077898638   -3.2851079    1.4795361   439061 
 1456000   0.98648553    -3.285761    -3.285761   -1.8060361  0.070518259    -3.285761    1.4797249   439061 
 1457000    0.9862121   -3.2855338   -3.2855338    -1.806219  0.077462065   -3.2855338    1.4793148   439061 
 1458000   0.98614865   -3.2851287   -3.2851287   -1.8059091  0.078665953   -3.2851287    1.4792196   439061 
 1459000   0.98656469   -3.2873063   -3.2873063   -1.8074626  0.074421261   -3.2873063    1.4798437   439061 
 1460000   0.98790133   -3.2889428   -3.2889428   -1.8070941  0.069362482   -3.2889428    1.4818486   439061 
 1461000   0.98646323   -3.2871589   -3.2871589   -1.8074674  0.074985025   -3.2871589    1.4796915   439061 
 1462000   0.98586239   -3.2869452   -3.2869452    -1.808155  0.074236114   -3.2869452    1.4787902   439061 
 1463000   0.98681206   -3.2881408   -3.2881408   -1.8079261  0.068869329   -3.2881408    1.4802147   439061 
 1464000   0.98502732     -3.28601     -3.28601   -1.8084723   0.07553393     -3.28601    1.4775376   439061 
 1465000    0.9858379    -3.286533    -3.286533   -1.8077795  0.071212188    -3.286533    1.4787535   439061 
 1466000   0.98494048   -3.2863784   -3.2863784   -1.8089711  0.073647447   -3.2863784    1.4774073   439061 
 1467000   0.98612932   -3.2865536   -3.2865536    -1.807363  0.076898931   -3.2865536    1.4791906   439061 
 1468000   0.98544935    -3.285569    -3.285569   -1.8073983  0.074676329    -3.285569    1.4781707   439061 
 1469000   0.98694603   -3.2861123   -3.2861123   -1.8056967  0.077690056   -3.2861123    1.4804157   439061 
 1470000   0.98521142   -3.2833418   -3.2833418    -1.805528  0.070673732   -3.2833418    1.4778138   439061 
 1471000   0.98660994   -3.2843739   -3.2843739   -1.8044623   0.06830275   -3.2843739    1.4799115   439061 
 1472000   0.98537891   -3.2831378   -3.2831378   -1.8050728  0.077283011   -3.2831378     1.478065   439061 
 1473000   0.98546925   -3.2831186   -3.2831186   -1.8049181  0.073182249   -3.2831186    1.4782005   439061 
 1474000   0.98574389    -3.285207    -3.285207   -1.8065946   0.07100494    -3.285207    1.4786125   439061 
 1475000   0.98470634   -3.2831965   -3.2831965   -1.8061403   0.07253183   -3.2831965    1.4770561   439061 
 1476000   0.98579312   -3.2848279   -3.2848279   -1.8061415  0.070642006   -3.2848279    1.4786863   439061 
 1477000   0.98416539   -3.2835193   -3.2835193   -1.8072746  0.072440548   -3.2835193    1.4762447   439061 
 1478000   0.98417257   -3.2832721   -3.2832721   -1.8070166  0.068322306   -3.2832721    1.4762555   439061 
 1479000   0.98528261   -3.2842925   -3.2842925    -1.806372  0.077094148   -3.2842925    1.4779206   439061 
 1480000   0.98539646    -3.285203    -3.285203   -1.8071117  0.068874448    -3.285203    1.4780913   439061 
 1481000   0.98443963   -3.2855641   -3.2855641    -1.808908  0.071957966   -3.2855641    1.4766561   439061 
 1482000   0.98559103   -3.2869288   -3.2869288   -1.8085457  0.069496496   -3.2869288    1.4783832   439061 
 1483000   0.98446191   -3.2857943   -3.2857943   -1.8091048  0.069210135   -3.2857943    1.4766895   439061 
 1484000   0.98429874   -3.2860086   -3.2860086   -1.8095638  0.074738067   -3.2860086    1.4764447   439061 
 1485000   0.98482791   -3.2861421   -3.2861421   -1.8089036  0.070670422   -3.2861421    1.4772385   439061 
 1486000   0.98424472   -3.2848447   -3.2848447    -1.808481  0.072007482   -3.2848447    1.4763637   439061 
 1487000   0.98436234   -3.2842527   -3.2842527   -1.8077125  0.074191167   -3.2842527    1.4765402   439061 
 1488000   0.98641429   -3.2872888   -3.2872888   -1.8076707  0.072794363   -3.2872888    1.4796181   439061 
 1489000   0.98706425   -3.2873145   -3.2873145   -1.8067215  0.074595315   -3.2873145     1.480593   439061 
 1490000   0.98536906   -3.2865554   -3.2865554   -1.8085052  0.074002399   -3.2865554    1.4780502   439061 
 1491000   0.98785408   -3.2898972   -3.2898972   -1.8081195  0.071337207   -3.2898972    1.4817777   439061 
 1492000   0.98549671   -3.2868657   -3.2868657    -1.808624  0.075531318   -3.2868657    1.4782417   439061 
 1493000   0.98792197   -3.2891971   -3.2891971   -1.8073175  0.070749845   -3.2891971    1.4818796   439061 
 1494000    0.9868707   -3.2890904   -3.2890904   -1.8087877  0.074320936   -3.2890904    1.4803027   439061 
 1495000   0.98556635   -3.2886298   -3.2886298   -1.8102837  0.077485375   -3.2886298    1.4783462   439061 
 1496000   0.98600742   -3.2893849   -3.2893849   -1.8103771  0.077494169   -3.2893849    1.4790078   439061 
 1497000   0.98653501   -3.2895094   -3.2895094   -1.8097102   0.07467025   -3.2895094    1.4797992   439061 
 1498000   0.98580837   -3.2885107   -3.2885107   -1.8098015  0.075977921   -3.2885107    1.4787092   439061 
 1499000   0.98466724   -3.2880547   -3.2880547   -1.8110572  0.069015959   -3.2880547    1.4769975   439061 
 1500000   0.98412064   -3.2874641   -3.2874641   -1.8112865  0.072151757   -3.2874641    1.4761776   439061 
 1501000   0.98477935   -3.2882144   -3.2882144   -1.8110487  0.070279407   -3.2882144    1.4771657   439061 
 1502000   0.98427425   -3.2884883   -3.2884883   -1.8120803  0.073479284   -3.2884883     1.476408   439061 
 1503000    0.9855448   -3.2899644   -3.2899644   -1.8116506  0.074369075   -3.2899644    1.4783138   439061 
 1504000   0.98453791   -3.2897741   -3.2897741   -1.8129706  0.075323129   -3.2897741    1.4768035   439061 
 1505000   0.98417008   -3.2891985   -3.2891985   -1.8129468  0.076242042   -3.2891985    1.4762518   439061 
 1506000   0.98490427   -3.2903008   -3.2903008   -1.8129478  0.072563075   -3.2903008     1.477353   439061 
 1507000   0.98588907   -3.2921785   -3.2921785   -1.8133483  0.066369115   -3.2921785    1.4788302   439061 
 1508000   0.98584833   -3.2920394   -3.2920394   -1.8132703   0.07380496   -3.2920394    1.4787691   439061 
 1509000   0.98653316   -3.2932377   -3.2932377   -1.8134413  0.073061118   -3.2932377    1.4797964   439061 
 1510000   0.98463945   -3.2919807   -3.2919807   -1.8150249  0.073875592   -3.2919807    1.4769558   439061 
 1511000   0.98481321   -3.2935338   -3.2935338   -1.8163173  0.072250411   -3.2935338    1.4772165   439061 
 1512000   0.98625026   -3.2950255   -3.2950255   -1.8156535  0.072804105   -3.2950255     1.479372   439061 
 1513000   0.98558996   -3.2942018   -3.2942018   -1.8158202  0.075820671   -3.2942018    1.4783816   439061 
 1514000   0.98567772   -3.2949111   -3.2949111   -1.8163979  0.073840609   -3.2949111    1.4785132   439061 
 1515000   0.98566371    -3.296346    -3.296346   -1.8178538  0.072795268    -3.296346    1.4784922   439061 
 1516000   0.98510097   -3.2956934   -3.2956934   -1.8180453  0.076509453   -3.2956934    1.4776481   439061 
 1517000   0.98405308    -3.295154    -3.295154   -1.8190778    0.0759142    -3.295154    1.4760763   439061 
 1518000   0.98427383   -3.2945676   -3.2945676   -1.8181602   0.07535116   -3.2945676    1.4764074   439061 
 1519000   0.98387677     -3.29458     -3.29458   -1.8187682  0.071829428     -3.29458    1.4758118   439061 
 1520000   0.98597402   -3.2968522   -3.2968522   -1.8178946  0.068420683   -3.2968522    1.4789577   439061 
 1521000   0.98506225   -3.2965597   -3.2965597   -1.8189696  0.068496563   -3.2965597      1.47759   439061 
 1522000   0.98568789   -3.2963027   -3.2963027   -1.8177743  0.066209911   -3.2963027    1.4785285   439061 
 1523000   0.98548659   -3.2967021   -3.2967021   -1.8184756   0.06752292   -3.2967021    1.4782265   439061 
 1524000   0.98533928   -3.2956154   -3.2956154   -1.8176098  0.070959361   -3.2956154    1.4780055   439061 
 1525000   0.98502365   -3.2965597   -3.2965597   -1.8190276  0.071846147   -3.2965597    1.4775321   439061 
 1526000   0.98576348   -3.2961928   -3.2961928    -1.817551  0.077838813   -3.2961928    1.4786419   439061 
 1527000   0.98634601   -3.2956915   -3.2956915   -1.8161758  0.066956867   -3.2956915    1.4795156   439061 
 1528000   0.98469011     -3.29242     -3.29242   -1.8153882  0.078975499     -3.29242    1.4770318   439061 
 1529000   0.98652973   -3.2962837   -3.2962837   -1.8164924  0.073679097   -3.2962837    1.4797912   439061 
 1530000   0.98726599     -3.29725     -3.29725   -1.8163544  0.067224326     -3.29725    1.4808956   439061 
 1531000   0.98576465   -3.2955589   -3.2955589   -1.8169152  0.075900869   -3.2955589    1.4786436   439061 
 1532000   0.98622469   -3.2964502   -3.2964502   -1.8171165  0.070342925   -3.2964502    1.4793337   439061 
 1533000   0.98462561    -3.295057    -3.295057    -1.818122  0.066522714    -3.295057    1.4769351   439061 
 1534000   0.98323846   -3.2915792   -3.2915792   -1.8167248  0.069209729   -3.2915792    1.4748543   439061 
 1535000   0.98592301   -3.2964363   -3.2964363   -1.8175551  0.066512317   -3.2964363    1.4788811   439061 
 1536000   0.98374087   -3.2934874   -3.2934874   -1.8178795  0.073181734   -3.2934874    1.4756079   439061 
 1537000   0.98404764   -3.2932254   -3.2932254   -1.8171573  0.071404507   -3.2932254    1.4760681   439061 
 1538000   0.98434356   -3.2937649   -3.2937649    -1.817253  0.072144139   -3.2937649     1.476512   439061 
 1539000   0.98448842   -3.2943308   -3.2943308   -1.8176016  0.070908672   -3.2943308    1.4767293   439061 
 1540000   0.98420268   -3.2951414   -3.2951414   -1.8188407  0.067718365   -3.2951414    1.4763007   439061 
 1541000   0.98306265     -3.29447     -3.29447   -1.8198794  0.067925153     -3.29447    1.4745906   439061 
 1542000   0.98245886    -3.294893    -3.294893    -1.821208  0.066197902    -3.294893    1.4736849   439061 
 1543000   0.98270988    -3.295566    -3.295566   -1.8215045  0.062776137    -3.295566    1.4740615   439061 
 1544000   0.98293093   -3.2952091   -3.2952091   -1.8208161  0.070716683   -3.2952091     1.474393   439061 
 1545000   0.98340066   -3.2969697   -3.2969697    -1.821872  0.067094627   -3.2969697    1.4750976   439061 
 1546000   0.98496376   -3.2987582   -3.2987582   -1.8213159  0.074237432   -3.2987582    1.4774423   439061 
 1547000   0.98555162   -3.2980681   -3.2980681    -1.819744  0.072911639   -3.2980681    1.4783241   439061 
 1548000   0.98502211   -3.2971685   -3.2971685   -1.8196387  0.072517926   -3.2971685    1.4775298   439061 
 1549000   0.98554945   -3.2985756   -3.2985756   -1.8202548  0.071349339   -3.2985756    1.4783208   439061 
 1550000   0.98568827   -3.2997518   -3.2997518   -1.8212228  0.069146873   -3.2997518     1.478529   439061 
 1551000   0.98662489   -3.3029752   -3.3029752   -1.8230412  0.071618093   -3.3029752     1.479934   439061 
 1552000   0.98470106   -3.3001265   -3.3001265   -1.8230782  0.072848158   -3.3001265    1.4770482   439061 
 1553000   0.98652468    -3.302717    -3.302717   -1.8229333  0.071596658    -3.302717    1.4797836   439061 
 1554000   0.98510633   -3.3001282   -3.3001282   -1.8224721  0.070766986   -3.3001282    1.4776561   439061 
 1555000   0.98468318   -3.3003506   -3.3003506   -1.8233292  0.072518601   -3.3003506    1.4770214   439061 
 1556000   0.98330347   -3.2989534   -3.2989534   -1.8240016  0.075991652   -3.2989534    1.4749518   439061 
 1557000   0.98455566    -3.300257    -3.300257   -1.8234268  0.076530121    -3.300257    1.4768301   439061 
 1558000   0.98405223   -3.3012318   -3.3012318   -1.8251568   0.07481321   -3.3012318     1.476075   439061 
 1559000     0.982875   -3.2998412   -3.2998412    -1.825532  0.068589789   -3.2998412    1.4743091   439061 
 1560000   0.98398286   -3.3018274   -3.3018274   -1.8258565  0.072184626   -3.3018274    1.4759709   439061 
 1561000    0.9827276    -3.299805    -3.299805    -1.825717  0.073286769    -3.299805     1.474088   439061 
 1562000   0.98428667   -3.3026543   -3.3026543   -1.8262276  0.072437258   -3.3026543    1.4764266   439061 
 1563000   0.98474368   -3.3025374   -3.3025374   -1.8254252  0.071787021   -3.3025374    1.4771122   439061 
 1564000   0.98499359   -3.3024315   -3.3024315   -1.8249445   0.07268688   -3.3024315     1.477487   439061 
 1565000   0.98439751   -3.3027031   -3.3027031   -1.8261102  0.074497039   -3.3027031    1.4765929   439061 
 1566000   0.98299453   -3.3013609   -3.3013609   -1.8268725  0.070492609   -3.3013609    1.4744884   439061 
 1567000   0.98302835   -3.3009394   -3.3009394   -1.8264002  0.070779665   -3.3009394    1.4745392   439061 
 1568000   0.98283576   -3.3022222   -3.3022222   -1.8279719  0.067385659   -3.3022222    1.4742503   439061 
 1569000   0.98183092   -3.3012365   -3.3012365   -1.8284935  0.077298498   -3.3012365     1.472743   439061 
 1570000   0.98346753   -3.3042311   -3.3042311   -1.8290331  0.069880702   -3.3042311    1.4751979   439061 
 1571000   0.98439988   -3.3043684   -3.3043684   -1.8277719  0.065491766   -3.3043684    1.4765965   439061 
 1572000   0.98371767    -3.302009    -3.302009   -1.8264358   0.07208383    -3.302009    1.4755731   439061 
 1573000   0.98251645    -3.302201    -3.302201   -1.8284297   0.06933086    -3.302201    1.4737713   439061 
 1574000   0.98384965   -3.3038049   -3.3038049   -1.8280338  0.070831381   -3.3038049    1.4757711   439061 
 1575000   0.98360575   -3.3047133   -3.3047133    -1.829308  0.072341688   -3.3047133    1.4754053   439061 
 1576000   0.98443981   -3.3053333   -3.3053333    -1.828677  0.072164759   -3.3053333    1.4766563   439061 
 1577000    0.9811651   -3.3018235   -3.3018235   -1.8300792  0.076413119   -3.3018235    1.4717443   439061 
 1578000   0.98171985   -3.3026517   -3.3026517   -1.8300753  0.070702737   -3.3026517    1.4725764   439061 
 1579000    0.9828315   -3.3046819   -3.3046819    -1.830438  0.069953774   -3.3046819    1.4742439   439061 
 1580000   0.98140452   -3.3039489   -3.3039489   -1.8318455  0.072955706   -3.3039489    1.4721034   439061 
 1581000   0.98182276   -3.3041108   -3.3041108     -1.83138   0.06738543   -3.3041108    1.4727308   439061 
 1582000   0.98221968   -3.3056075   -3.3056075   -1.8322814   0.07292123   -3.3056075    1.4733262   439061 
 1583000   0.98134361   -3.3052804   -3.3052804   -1.8332683  0.076357058   -3.3052804    1.4720121   439061 
 1584000    0.9827808   -3.3078486   -3.3078486   -1.8336807  0.069140301   -3.3078486    1.4741678   439061 
 1585000   0.98335232   -3.3078489   -3.3078489   -1.8328238  0.070650757   -3.3078489    1.4750251   439061 
 1586000   0.98192252   -3.3068255   -3.3068255   -1.8339451  0.073591695   -3.3068255    1.4728804   439061 
 1587000   0.98285742   -3.3088473   -3.3088473   -1.8345645  0.074811618   -3.3088473    1.4742828   439061 
 1588000   0.98394828   -3.3104569   -3.3104569   -1.8345378  0.072797309   -3.3104569    1.4759191   439061 
 1589000   0.98300373   -3.3085107   -3.3085107   -1.8340084  0.069648953   -3.3085107    1.4745022   439061 
 1590000   0.98359444   -3.3103027   -3.3103027   -1.8349144  0.068892246   -3.3103027    1.4753883   439061 
 1591000   0.98158062   -3.3082103   -3.3082103   -1.8358427  0.073553551   -3.3082103    1.4723676   439061 
 1592000   0.98170366   -3.3093141   -3.3093141    -1.836762  0.070990527   -3.3093141    1.4725521   439061 
 1593000   0.98190398   -3.3096698   -3.3096698   -1.8368172  0.069679965   -3.3096698    1.4728526   439061 
 1594000   0.98330048   -3.3121973   -3.3121973     -1.83725  0.070312651   -3.3121973    1.4749474   439061 
 1595000   0.98306306   -3.3120416   -3.3120416   -1.8374504  0.072085282   -3.3120416    1.4745912   439061 
 1596000   0.98322937   -3.3119791   -3.3119791   -1.8371384  0.076834044   -3.3119791    1.4748407   439061 
 1597000   0.98368701   -3.3123179   -3.3123179   -1.8367908  0.071616856   -3.3123179    1.4755271   439061 
 1598000   0.98476818   -3.3150343   -3.3150343   -1.8378854  0.073432199   -3.3150343    1.4771489   439061 
 1599000   0.98450166   -3.3149618   -3.3149618   -1.8382127  0.065387097   -3.3149618    1.4767491   439061 
 1600000   0.98267488   -3.3121153   -3.3121153   -1.8381063  0.073707993   -3.3121153     1.474009   439061 
 1601000   0.98299928   -3.3115584   -3.3115584   -1.8370629  0.072667618   -3.3115584    1.4744956   439061 
 1602000   0.98377191   -3.3138749   -3.3138749   -1.8382204  0.072223186   -3.3138749    1.4756545   439061 
 1603000   0.98517297   -3.3158393   -3.3158393   -1.8380832   0.07066423   -3.3158393    1.4777561   439061 
 1604000   0.98233063   -3.3143926   -3.3143926      -1.8409   0.06597074   -3.3143926    1.4734926   439061 
 1605000   0.98356326   -3.3157269   -3.3157269   -1.8403854  0.067745181   -3.3157269    1.4753415   439061 
 1606000   0.98117662   -3.3118797   -3.3118797   -1.8401181  0.073793862   -3.3118797    1.4717616   439061 
 1607000   0.98299899   -3.3141774   -3.3141774   -1.8396823  0.067457096   -3.3141774    1.4744951   439061 
 1608000   0.98147381    -3.312393    -3.312393   -1.8401856  0.075425273    -3.312393    1.4722074   439061 
 1609000    0.9812086   -3.3122336   -3.3122336   -1.8404241  0.075560318   -3.3122336    1.4718096   439061 
 1610000   0.98374335   -3.3149488   -3.3149488   -1.8393371  0.066863564   -3.3149488    1.4756117   439061 
 1611000   0.98356051   -3.3154288   -3.3154288   -1.8400914  0.072040339   -3.3154288    1.4753374   439061 
 1612000   0.98311165   -3.3149775   -3.3149775   -1.8403134  0.071418862   -3.3149775    1.4746641   439061 
 1613000   0.98274693   -3.3134484   -3.3134484   -1.8393313  0.069284117   -3.3134484     1.474117   439061 
 1614000   0.98224693   -3.3131681   -3.3131681    -1.839801  0.074112954   -3.3131681     1.473367   439061 
 1615000   0.98217623   -3.3134416   -3.3134416   -1.8401807  0.071155314   -3.3134416     1.473261   439061 
 1616000   0.98417036   -3.3165454   -3.3165454   -1.8402932  0.068154094   -3.3165454    1.4762522   439061 
 1617000   0.98353668   -3.3161747   -3.3161747   -1.8408731  0.070230697   -3.3161747    1.4753017   439061 
 1618000   0.98375106   -3.3153749   -3.3153749   -1.8397517  0.068720871   -3.3153749    1.4756232   439061 
 1619000    0.9848874   -3.3167018   -3.3167018   -1.8393741  0.071103494   -3.3167018    1.4773277   439061 
 1620000   0.98440571   -3.3163084   -3.3163084   -1.8397032   0.06700014   -3.3163084    1.4766052   439061 
 1621000   0.98342741   -3.3150846   -3.3150846   -1.8399468  0.072448401   -3.3150846    1.4751377   439061 
 1622000   0.98206015   -3.3147075   -3.3147075   -1.8416207  0.071041884   -3.3147075    1.4730869   439061 
 1623000   0.98177533    -3.314121    -3.314121   -1.8414614  0.078583204    -3.314121    1.4726596   439061 
 1624000   0.98236703    -3.314507    -3.314507   -1.8409598   0.06516249    -3.314507    1.4735472   439061 
 1625000   0.98269809   -3.3147525   -3.3147525   -1.8407088  0.069059473   -3.3147525    1.4740438   439061 
 1626000   0.98214611   -3.3138097   -3.3138097   -1.8405939  0.072495018   -3.3138097    1.4732158   439061 
 1627000   0.98214249   -3.3133998   -3.3133998   -1.8401894  0.069846842   -3.3133998    1.4732104   439061 
 1628000    0.9837597   -3.3155715   -3.3155715   -1.8399353  0.070965496   -3.3155715    1.4756362   439061 
 1629000   0.98343273   -3.3150711   -3.3150711   -1.8399254   0.07271838   -3.3150711    1.4751457   439061 
 1630000   0.98150133   -3.3122294   -3.3122294   -1.8399807  0.072070764   -3.3122294    1.4722486   439061 
 1631000   0.98329272   -3.3149659   -3.3149659   -1.8400301  0.070545558   -3.3149659    1.4749357   439061 
 1632000   0.98268509   -3.3133496   -3.3133496   -1.8393254  0.071024343   -3.3133496    1.4740243   439061 
 1633000   0.98371338    -3.314757    -3.314757   -1.8391903   0.06764777    -3.314757    1.4755667   439061 
 1634000   0.98230452   -3.3134941   -3.3134941   -1.8400407  0.071152737   -3.3134941    1.4734534   439061 
 1635000   0.98235417   -3.3137698   -3.3137698   -1.8402419  0.067412445   -3.3137698    1.4735279   439061 
 1636000   0.98292329   -3.3156749   -3.3156749   -1.8412933  0.066123714   -3.3156749    1.4743816   439061 
 1637000   0.98143931   -3.3133066   -3.3133066    -1.841151  0.072585923   -3.3133066    1.4721556   439061 
 1638000   0.98295378   -3.3141959   -3.3141959   -1.8397686  0.076102451   -3.3141959    1.4744273   439061 
 1639000   0.98296078   -3.3159103   -3.3159103   -1.8414725  0.070433344   -3.3159103    1.4744378   439061 
 1640000   0.98273996   -3.3155192   -3.3155192   -1.8414126  0.067629327   -3.3155192    1.4741066   439061 
 1641000   0.98163408   -3.3143877   -3.3143877   -1.8419399  0.069833707   -3.3143877    1.4724478   439061 
 1642000   0.98177868   -3.3150118   -3.3150118   -1.8423471  0.070280445   -3.3150118    1.4726647   439061 
 1643000   0.98221579   -3.3160611   -3.3160611   -1.8427408   0.06925312   -3.3160611    1.4733203   439061 
 1644000   0.98182517   -3.3166815   -3.3166815   -1.8439471  0.068506543   -3.3166815    1.4727344   439061 
 1645000   0.98191192   -3.3170375   -3.3170375    -1.844173  0.071482389   -3.3170375    1.4728645   439061 
 1646000   0.98069957    -3.316334    -3.316334    -1.845288  0.067823655    -3.316334     1.471046   439061 
 1647000   0.98068218   -3.3151249   -3.3151249    -1.844105   0.06718583   -3.3151249    1.4710199   439061 
 1648000    0.9821277   -3.3188276   -3.3188276   -1.8456395   0.07051345   -3.3188276    1.4731882   439061 
 1649000   0.98217292    -3.319541    -3.319541    -1.846285  0.071518712    -3.319541     1.473256   439061 
 1650000   0.98060766   -3.3183338   -3.3183338   -1.8474257  0.069054893   -3.3183338    1.4709081   439061 
 1651000   0.98144477   -3.3192419   -3.3192419   -1.8470781   0.06541061   -3.3192419    1.4721638   439061 
 1652000   0.98203262   -3.3196788   -3.3196788   -1.8466332  0.076421494   -3.3196788    1.4730456   439061 
 1653000   0.98304074   -3.3221973   -3.3221973   -1.8476396  0.071678915   -3.3221973    1.4745577   439061 
 1654000   0.98229792   -3.3224125   -3.3224125    -1.848969  0.066212324   -3.3224125    1.4734435   439061 
 1655000   0.98159822   -3.3196921   -3.3196921   -1.8472981  0.072052334   -3.3196921     1.472394   439061 
 1656000   0.98289404   -3.3211836   -3.3211836   -1.8468459  0.073568114   -3.3211836    1.4743377   439061 
 1657000   0.98356872   -3.3219041   -3.3219041   -1.8465544  0.070059468   -3.3219041    1.4753497   439061 
 1658000   0.98274983   -3.3203475   -3.3203475   -1.8462261  0.077242867   -3.3203475    1.4741214   439061 
 1659000   0.98208511   -3.3202321   -3.3202321   -1.8471077  0.077701476   -3.3202321    1.4731243   439061 
 1660000   0.98164864   -3.3192887   -3.3192887   -1.8468191  0.073341017   -3.3192887    1.4724696   439061 
 1661000   0.98211239   -3.3198952   -3.3198952   -1.8467299  0.071927828   -3.3198952    1.4731652   439061 
 1662000    0.9831808   -3.3212779   -3.3212779     -1.84651  0.070385352   -3.3212779    1.4747678   439061 
 1663000   0.98121679   -3.3201995   -3.3201995   -1.8483776  0.067034832   -3.3201995    1.4718218   439061 
 1664000   0.98010094   -3.3176532   -3.3176532   -1.8475051    0.0700097   -3.3176532    1.4701481   439061 
 1665000    0.9826314   -3.3202433   -3.3202433   -1.8462995  0.068235521   -3.3202433    1.4739437   439061 
 1666000   0.98153232   -3.3191652   -3.3191652   -1.8468701  0.066356682   -3.3191652    1.4722951   439061 
 1667000   0.98197268   -3.3188608   -3.3188608   -1.8459051  0.068745896   -3.3188608    1.4729557   439061 
 1668000   0.98310458   -3.3198459   -3.3198459   -1.8451924  0.064723546   -3.3198459    1.4746535   439061 
 1669000   0.98246385   -3.3194827   -3.3194827   -1.8457902  0.070046376   -3.3194827    1.4736924   439061 
 1670000   0.98187523   -3.3192433   -3.3192433   -1.8464338  0.065677982   -3.3192433    1.4728095   439061 
 1671000   0.98059956   -3.3164351   -3.3164351   -1.8455391  0.072543235   -3.3164351     1.470896   439061 
 1672000   0.98001209   -3.3166449   -3.3166449   -1.8466301  0.063510767   -3.3166449    1.4700148   439061 
 1673000   0.98130991   -3.3183848   -3.3183848   -1.8464233  0.065227191   -3.3183848    1.4719615   439061 
 1674000   0.98092863   -3.3176263   -3.3176263   -1.8462368  0.067029222   -3.3176263    1.4713896   439061 
 1675000   0.97963558   -3.3157533   -3.3157533   -1.8463033   0.06365312   -3.3157533      1.46945   439061 
 1676000    0.9795047    -3.316681    -3.316681   -1.8474273  0.068862259    -3.316681    1.4692537   439061 
 1677000   0.98038463   -3.3181382   -3.3181382   -1.8475646    0.0660578   -3.3181382    1.4705736   439061 
 1678000   0.98138142   -3.3192856   -3.3192856   -1.8472168  0.067688284   -3.3192856    1.4720688   439061 
 1679000   0.98026474   -3.3181042   -3.3181042   -1.8477105  0.069120236   -3.3181042    1.4703938   439061 
 1680000   0.98166535   -3.3197388   -3.3197388   -1.8472441  0.069326247   -3.3197388    1.4724947   439061 
 1681000   0.98207311   -3.3192623   -3.3192623    -1.846156  0.069201802   -3.3192623    1.4731063   439061 
 1682000   0.98118229   -3.3186678   -3.3186678   -1.8468977  0.070158373   -3.3186678    1.4717701   439061 
 1683000   0.98249518    -3.320233    -3.320233   -1.8464936  0.070531985    -3.320233    1.4737394   439061 
 1684000   0.98130509   -3.3197929   -3.3197929   -1.8478386  0.071711616   -3.3197929    1.4719543   439061 
 1685000   0.98038224    -3.319653    -3.319653    -1.849083  0.069112091    -3.319653      1.47057   439061 
 1686000   0.98188392   -3.3214286   -3.3214286   -1.8486061  0.070563595   -3.3214286    1.4728225   439061 
 1687000   0.98229224   -3.3220293   -3.3220293   -1.8485943  0.076225317   -3.3220293     1.473435   439061 
 1688000   0.98178068   -3.3219414   -3.3219414   -1.8492738  0.074091051   -3.3219414    1.4726677   439061 
 1689000   0.98079489   -3.3217129   -3.3217129   -1.8505239  0.072527597   -3.3217129     1.471189   439061 
 1690000   0.98239675   -3.3236568   -3.3236568    -1.850065  0.070160475   -3.3236568    1.4735918   439061 
 1691000   0.98167944   -3.3232401   -3.3232401   -1.8507243  0.070312327   -3.3232401    1.4725158   439061 
 1692000   0.97989314   -3.3215503   -3.3215503   -1.8517139  0.075561405   -3.3215503    1.4698364   439061 
 1693000   0.98146319   -3.3250838   -3.3250838   -1.8528924  0.069607068   -3.3250838    1.4721914   439061 
 1694000   0.98090467   -3.3250814   -3.3250814   -1.8537278  0.069577875   -3.3250814    1.4713536   439061 
 1695000   0.98036538   -3.3249298   -3.3249298   -1.8543851  0.070980312   -3.3249298    1.4705447   439061 
 1696000   0.97950462   -3.3240873   -3.3240873   -1.8548337  0.066717131   -3.3240873    1.4692536   439061 
 1697000   0.98117411   -3.3255397   -3.3255397   -1.8537819  0.068627092   -3.3255397    1.4717578   439061 
 1698000   0.98017338   -3.3245502   -3.3245502   -1.8542934  0.071502338   -3.3245502    1.4702567   439061 
 1699000   0.98160724   -3.3264666   -3.3264666   -1.8540591  0.075592483   -3.3264666    1.4724075   439061 
 1700000   0.98149819   -3.3259079   -3.3259079   -1.8536639  0.071686773   -3.3259079    1.4722439   439061 
 1701000   0.98163057   -3.3270454   -3.3270454   -1.8546029  0.073884673   -3.3270454    1.4724425   439061 
 1702000   0.98142942   -3.3261878   -3.3261878    -1.854047  0.073252018   -3.3261878    1.4721408   439061 
 1703000   0.98213408   -3.3278974   -3.3278974   -1.8546997  0.067780975   -3.3278974    1.4731978   439061 
 1704000    0.9799958    -3.326379    -3.326379   -1.8563886  0.067165116    -3.326379    1.4699903   439061 
 1705000   0.97972477   -3.3265854   -3.3265854   -1.8570016  0.070020422   -3.3265854    1.4695838   439061 
 1706000   0.97965914   -3.3275855   -3.3275855   -1.8581002  0.060543694   -3.3275855    1.4694854   439061 
 1707000   0.97986561   -3.3281639   -3.3281639   -1.8583688  0.067189912   -3.3281639    1.4697951   439061 
 1708000   0.97855176    -3.325372    -3.325372   -1.8575477  0.066880801    -3.325372    1.4678243   439061 
 1709000   0.98005836   -3.3263371   -3.3263371   -1.8562529  0.070671304   -3.3263371    1.4700842   439061 
 1710000   0.98132433   -3.3292433   -3.3292433   -1.8572602  0.068153811   -3.3292433    1.4719831   439061 
 1711000    0.9795478   -3.3270592   -3.3270592   -1.8577408  0.069271403   -3.3270592    1.4693184   439061 
 1712000   0.97998129   -3.3268492   -3.3268492   -1.8568807  0.069668749   -3.3268492    1.4699686   439061 
 1713000   0.98007626   -3.3264698   -3.3264698   -1.8563587   0.07174042   -3.3264698     1.470111   439061 
 1714000   0.97906653   -3.3262862   -3.3262862   -1.8576897   0.06391548   -3.3262862    1.4685964   439061 
 1715000    0.9792455   -3.3267018   -3.3267018   -1.8578369  0.064605922   -3.3267018    1.4688649   439061 
 1716000   0.97971366   -3.3280996   -3.3280996   -1.8585325   0.06774123   -3.3280996    1.4695671   439061 
 1717000   0.97995509   -3.3298717   -3.3298717   -1.8599424  0.065692198   -3.3298717    1.4699293   439061 
 1718000   0.98059349   -3.3306692   -3.3306692   -1.8597823  0.063590221   -3.3306692    1.4708869   439061 
 1719000   0.98063102   -3.3297465   -3.3297465   -1.8588033   0.06476947   -3.3297465    1.4709432   439061 
 1720000   0.97994561   -3.3292693   -3.3292693   -1.8593543  0.068113244   -3.3292693    1.4699151   439061 
 1721000   0.97983343   -3.3274048   -3.3274048    -1.857658  0.072854356   -3.3274048    1.4697468   439061 
 1722000   0.97866652   -3.3254533   -3.3254533   -1.8574568  0.071344294   -3.3254533    1.4679964   439061 
 1723000   0.98155111   -3.3289909   -3.3289909   -1.8566676  0.070084071   -3.3289909    1.4723233   439061 
 1724000   0.98115741   -3.3282724   -3.3282724   -1.8565397  0.074626468   -3.3282724    1.4717328   439061 
 1725000   0.98302195   -3.3311525   -3.3311525    -1.856623  0.073205468   -3.3311525    1.4745296   439061 
 1726000   0.98140507   -3.3295209   -3.3295209   -1.8574166  0.076251104   -3.3295209    1.4721043   439061 
 1727000   0.98038444   -3.3280104   -3.3280104   -1.8574371  0.073854614   -3.3280104    1.4705733   439061 
 1728000    0.9806652   -3.3292272   -3.3292272   -1.8582328  0.069325311   -3.3292272    1.4709944   439061 
 1729000   0.98176136    -3.330722    -3.330722   -1.8580833  0.071066705    -3.330722    1.4726387   439061 
 1730000   0.97973864   -3.3283049   -3.3283049   -1.8587003  0.069542679   -3.3283049    1.4696046   439061 
 1731000    0.9802361   -3.3284462   -3.3284462   -1.8580954  0.070726516   -3.3284462    1.4703508   439061 
 1732000   0.97974773   -3.3288514   -3.3288514   -1.8592332  0.067630897   -3.3288514    1.4696182   439061 
 1733000   0.98046404   -3.3297002   -3.3297002   -1.8590075  0.063611866   -3.3297002    1.4706927   439061 
 1734000   0.97979887   -3.3297926   -3.3297926   -1.8600976  0.063146864   -3.3297926     1.469695   439061 
 1735000   0.97893399   -3.3277419   -3.3277419   -1.8593442  0.066515959   -3.3277419    1.4683976   439061 
 1736000   0.97855827   -3.3275559   -3.3275559   -1.8597219  0.067000372   -3.3275559    1.4678341   439061 
 1737000   0.98004667   -3.3298586   -3.3298586   -1.8597919  0.063794371   -3.3298586    1.4700667   439061 
 1738000   0.97816543   -3.3272464   -3.3272464   -1.8600016   0.06590713   -3.3272464    1.4672448   439061 
 1739000   0.97860403   -3.3276402   -3.3276402   -1.8597375  0.066264159   -3.3276402    1.4679027   439061 
 1740000   0.98015827   -3.3295236   -3.3295236   -1.8592895  0.069243442   -3.3295236    1.4702341   439061 
 1741000   0.97817658   -3.3267094   -3.3267094   -1.8594478  0.069878103   -3.3267094    1.4672615   439061 
 1742000   0.98028665   -3.3296945   -3.3296945   -1.8592679  0.065377541   -3.3296945    1.4704266   439061 
 1743000   0.98035918   -3.3299742   -3.3299742   -1.8594388  0.067766655   -3.3299742    1.4705354   439061 
 1744000   0.98054815   -3.3319804   -3.3319804   -1.8611615  0.064216118   -3.3319804    1.4708189   439061 
 1745000   0.98111088   -3.3327108   -3.3327108   -1.8610478  0.064497151   -3.3327108     1.471663   439061 
 1746000    0.9798761   -3.3319073   -3.3319073   -1.8620965  0.070475126   -3.3319073    1.4698108   439061 
 1747000    0.9797488   -3.3298059   -3.3298059    -1.860186  0.074032443   -3.3298059    1.4696199   439061 
 1748000   0.98099358   -3.3322913   -3.3322913   -1.8608043  0.068904439   -3.3322913     1.471487   439061 
 1749000   0.97912317   -3.3302032   -3.3302032   -1.8615218  0.071337231   -3.3302032    1.4686814   439061 
 1750000   0.98170373   -3.3342391   -3.3342391   -1.8616869  0.072650106   -3.3342391    1.4725522   439061 
 1751000   0.98066211   -3.3333072   -3.3333072   -1.8623174  0.067242395   -3.3333072    1.4709898   439061 
 1752000   0.98085333   -3.3344454   -3.3344454   -1.8631688  0.073223206   -3.3344454    1.4712766   439061 
 1753000   0.97918636   -3.3342869   -3.3342869   -1.8655107  0.065997943   -3.3342869    1.4687762   439061 
 1754000   0.97836419   -3.3339326   -3.3339326   -1.8663897  0.070400112   -3.3339326    1.4675429   439061 
 1755000   0.97933618    -3.334668    -3.334668   -1.8656671  0.064917187    -3.334668    1.4690009   439061 
 1756000    0.9801782   -3.3353324   -3.3353324   -1.8650685  0.064761667   -3.3353324    1.4702639   439061 
 1757000   0.97898411    -3.333992    -3.333992   -1.8655191  0.068264964    -3.333992    1.4684728   439061 
 1758000   0.97931222   -3.3351478   -3.3351478   -1.8661829  0.071502867   -3.3351478     1.468965   439061 
 1759000   0.97987523   -3.3349157   -3.3349157   -1.8651062  0.067763266   -3.3349157    1.4698095   439061 
 1760000   0.97864738   -3.3335053   -3.3335053   -1.8655376  0.064109561   -3.3335053    1.4679677   439061 
 1761000   0.97932717   -3.3350755   -3.3350755   -1.8660881  0.068957766   -3.3350755    1.4689874   439061 
 1762000   0.97792303   -3.3343258   -3.3343258   -1.8674446   0.07249934   -3.3343258    1.4668812   439061 
 1763000   0.98018852   -3.3374014   -3.3374014    -1.867122  0.063818289   -3.3374014    1.4702794   439061 
 1764000   0.97876188    -3.335559    -3.335559   -1.8674195  0.070057341    -3.335559    1.4681395   439061 
 1765000   0.97943195   -3.3355699   -3.3355699   -1.8664253  0.070412274   -3.3355699    1.4691446   439061 
 1766000   0.97934564   -3.3365148   -3.3365148   -1.8674996  0.070383191   -3.3365148    1.4690151   439061 
 1767000   0.97818199    -3.336268    -3.336268   -1.8689984  0.067816253    -3.336268    1.4672696   439061 
 1768000   0.97860177   -3.3366528   -3.3366528   -1.8687535  0.062732871   -3.3366528    1.4678993   439061 
 1769000   0.97898646   -3.3368041   -3.3368041   -1.8683277  0.065311605   -3.3368041    1.4684763   439061 
 1770000   0.98053474   -3.3394788   -3.3394788   -1.8686801  0.069196062   -3.3394788    1.4707988   439061 
 1771000   0.97894785   -3.3374926   -3.3374926   -1.8690741  0.063074971   -3.3374926    1.4684184   439061 
 1772000   0.97909512   -3.3382552   -3.3382552   -1.8696159  0.067635222   -3.3382552    1.4686393   439061 
 1773000   0.97930443   -3.3373845   -3.3373845   -1.8684312  0.071139653   -3.3373845    1.4689533   439061 
 1774000   0.97929777   -3.3368319   -3.3368319   -1.8678885  0.065015654   -3.3368319    1.4689433   439061 
 1775000   0.97867968   -3.3353592   -3.3353592    -1.867343  0.064052751   -3.3353592    1.4680162   439061 
 1776000   0.97868338   -3.3360132   -3.3360132   -1.8679915  0.065466111   -3.3360132    1.4680217   439061 
 1777000   0.98039086   -3.3376763   -3.3376763   -1.8670934  0.068625339   -3.3376763    1.4705829   439061 
 1778000   0.97982514    -3.337647    -3.337647   -1.8679126  0.068914842    -3.337647    1.4697344   439061 
 1779000   0.97963968   -3.3370047   -3.3370047   -1.8675485  0.068881986   -3.3370047    1.4694562   439061 
 1780000   0.97895384   -3.3374717   -3.3374717   -1.8690443  0.066776726   -3.3374717    1.4684274   439061 
 1781000   0.97914741   -3.3373252   -3.3373252   -1.8686074  0.070023729   -3.3373252    1.4687178   439061 
 1782000   0.97870331   -3.3367341   -3.3367341   -1.8686825  0.068084574   -3.3367341    1.4680516   439061 
 1783000   0.97877528   -3.3370574   -3.3370574   -1.8688979  0.069026736   -3.3370574    1.4681596   439061 
 1784000   0.97866712    -3.337252    -3.337252   -1.8692547  0.062486014    -3.337252    1.4679973   439061 
 1785000   0.97801516    -3.335985    -3.335985   -1.8689657   0.06340832    -3.335985    1.4670194   439061 
 1786000   0.97799711   -3.3364173   -3.3364173    -1.869425  0.065997982   -3.3364173    1.4669923   439061 
 1787000   0.97861894   -3.3380454   -3.3380454   -1.8701203  0.062893656   -3.3380454    1.4679251   439061 
 1788000   0.97885719   -3.3379414   -3.3379414    -1.869659  0.067287754   -3.3379414    1.4682824   439061 
 1789000   0.97857008   -3.3383284   -3.3383284   -1.8704767  0.066169014   -3.3383284    1.4678518   439061 
 1790000   0.98034639   -3.3389976   -3.3389976   -1.8684814  0.064866462   -3.3389976    1.4705162   439061 
 1791000   0.97916269   -3.3360435   -3.3360435   -1.8673028  0.068813796   -3.3360435    1.4687407   439061 
 1792000   0.97892354   -3.3365316   -3.3365316   -1.8681496  0.069480692   -3.3365316     1.468382   439061 
 1793000   0.97964264   -3.3381104   -3.3381104   -1.8686498  0.064393475   -3.3381104    1.4694606   439061 
 1794000   0.97911032   -3.3378408   -3.3378408   -1.8691787  0.067413979   -3.3378408    1.4686621   439061 
 1795000   0.97980461   -3.3383011   -3.3383011   -1.8685976  0.069650352   -3.3383011    1.4697036   439061 
 1796000   0.97831764   -3.3378055   -3.3378055   -1.8703324   0.07428484   -3.3378055    1.4674731   439061 
 1797000   0.97756441   -3.3374306   -3.3374306   -1.8710873  0.066622354   -3.3374306    1.4663433   439061 
 1798000   0.97946576   -3.3402731   -3.3402731   -1.8710778  0.063231516   -3.3402731    1.4691953   439061 
 1799000   0.98023327   -3.3403184   -3.3403184   -1.8699718  0.069165351   -3.3403184    1.4703465   439061 
 1800000   0.97883005   -3.3384551   -3.3384551   -1.8702133  0.068590741   -3.3384551    1.4682417   439061 
 1801000   0.97941503    -3.341682    -3.341682   -1.8725628  0.061913558    -3.341682    1.4691192   439061 
 1802000   0.97849438   -3.3401886   -3.3401886   -1.8724503  0.063706607   -3.3401886    1.4677382   439061 
 1803000    0.9797601   -3.3407253   -3.3407253   -1.8710885  0.061819114   -3.3407253    1.4696368   439061 
 1804000   0.97917981    -3.338775    -3.338775   -1.8700087  0.075767081    -3.338775    1.4687664   439061 
 1805000   0.98018238   -3.3423099   -3.3423099   -1.8720397   0.06458277   -3.3423099    1.4702702   439061 
 1806000   0.97857837   -3.3412279   -3.3412279   -1.8733637  0.067273192   -3.3412279    1.4678642   439061 
 1807000   0.97890703   -3.3421569   -3.3421569   -1.8737997  0.069903215   -3.3421569    1.4683572   439061 
 1808000   0.97849543   -3.3413657   -3.3413657   -1.8736259  0.065703328   -3.3413657    1.4677398   439061 
 1809000   0.98029781   -3.3439662   -3.3439662   -1.8735228  0.068865613   -3.3439662    1.4704434   439061 
 1810000   0.97944317   -3.3429052   -3.3429052   -1.8737438  0.064419154   -3.3429052    1.4691614   439061 
 1811000   0.97933809   -3.3439572   -3.3439572   -1.8749534   0.06625494   -3.3439572    1.4690038   439061 
 1812000   0.97855977   -3.3428425   -3.3428425   -1.8750062  0.069512188   -3.3428425    1.4678363   439061 
 1813000   0.97839892   -3.3428116   -3.3428116   -1.8752166   0.07298318   -3.3428116     1.467595   439061 
 1814000   0.97873101   -3.3432909   -3.3432909   -1.8751977  0.064920075   -3.3432909    1.4680932   439061 
 1815000   0.97901409   -3.3438127   -3.3438127   -1.8752949  0.071506948   -3.3438127    1.4685178   439061 
 1816000   0.97921114    -3.342926    -3.342926   -1.8741126  0.070011963    -3.342926    1.4688134   439061 
 1817000   0.97964576    -3.342268    -3.342268   -1.8728028  0.073330211    -3.342268    1.4694653   439061 
 1818000   0.97887277   -3.3417801   -3.3417801   -1.8734743  0.062626598   -3.3417801    1.4683058   439061 
 1819000   0.97784181   -3.3400052   -3.3400052   -1.8732458  0.066580256   -3.3400052    1.4667594   439061 
 1820000   0.97860545   -3.3419606   -3.3419606   -1.8740558  0.071771345   -3.3419606    1.4679048   439061 
 1821000   0.97790246   -3.3398858   -3.3398858   -1.8730354  0.072543284   -3.3398858    1.4668504   439061 
 1822000   0.97696429    -3.340144    -3.340144   -1.8747009  0.066457625    -3.340144    1.4654431   439061 
 1823000    0.9773801   -3.3408743   -3.3408743   -1.8748075  0.063610226   -3.3408743    1.4660668   439061 
 1824000   0.97575657   -3.3398099   -3.3398099   -1.8761784  0.061777018   -3.3398099    1.4636315   439061 
 1825000   0.97751701   -3.3413305   -3.3413305   -1.8750583   0.06569702   -3.3413305    1.4662722   439061 
 1826000   0.97801199   -3.3410631   -3.3410631   -1.8740485  0.062840214   -3.3410631    1.4670146   439061 
 1827000   0.97891745   -3.3425471   -3.3425471   -1.8741743  0.067296966   -3.3425471    1.4683728   439061 
 1828000   0.97846047   -3.3419018   -3.3419018   -1.8742145  0.066823456   -3.3419018    1.4676874   439061 
 1829000   0.97946339   -3.3433225   -3.3433225   -1.8741308  0.069555848   -3.3433225    1.4691917   439061 
 1830000   0.97783347     -3.34124     -3.34124   -1.8744931  0.066881098     -3.34124    1.4667469   439061 
 1831000   0.97827731   -3.3406737   -3.3406737   -1.8732611  0.067551241   -3.3406737    1.4674126   439061 
 1832000   0.97904816   -3.3440614   -3.3440614   -1.8754925   0.06769866   -3.3440614    1.4685689   439061 
 1833000    0.9779204   -3.3427235   -3.3427235   -1.8758462  0.069918114   -3.3427235    1.4668773   439061 
 1834000   0.97695825   -3.3423757   -3.3423757   -1.8769416  0.064405707   -3.3423757     1.465434   439061 
 1835000   0.97917549   -3.3458241   -3.3458241   -1.8770642  0.064613532   -3.3458241    1.4687599   439061 
 1836000   0.97547096   -3.3411793   -3.3411793   -1.8779762  0.068571944   -3.3411793    1.4632031   439061 
 1837000   0.97755497    -3.343919    -3.343919   -1.8775899   0.07361473    -3.343919    1.4663291   439061 
 1838000    0.9772413   -3.3420625   -3.3420625   -1.8762039   0.07125869   -3.3420625    1.4658586   439061 
 1839000   0.97911946   -3.3465205   -3.3465205   -1.8778447  0.067282047   -3.3465205    1.4686758   439061 
 1840000   0.97917155   -3.3468296   -3.3468296   -1.8780756  0.065132167   -3.3468296     1.468754   439061 
 1841000   0.97872754   -3.3467507   -3.3467507   -1.8786627  0.067825288   -3.3467507     1.468088   439061 
 1842000   0.97957337   -3.3472779   -3.3472779   -1.8779212    0.0703981   -3.3472779    1.4693567   439061 
 1843000   0.97915918   -3.3463548   -3.3463548   -1.8776194  0.069187145   -3.3463548    1.4687354   439061 
 1844000   0.98047944   -3.3488798   -3.3488798    -1.878164  0.067103854   -3.3488798    1.4707158   439061 
 1845000   0.97956153   -3.3463837   -3.3463837   -1.8770448  0.064429159   -3.3463837    1.4693389   439061 
 1846000   0.97816946   -3.3440683   -3.3440683   -1.8768175  0.074674223   -3.3440683    1.4672509   439061 
 1847000   0.97949497   -3.3464669   -3.3464669   -1.8772278  0.071527197   -3.3464669    1.4692391   439061 
 1848000   0.97920178   -3.3471807   -3.3471807   -1.8783813  0.067411339   -3.3471807    1.4687993   439061 
 1849000   0.97893398   -3.3477361   -3.3477361   -1.8793384  0.064917021   -3.3477361    1.4683976   439061 
 1850000   0.97782962   -3.3463169   -3.3463169   -1.8795758  0.061507219   -3.3463169    1.4667411   439061 
 1851000   0.97914926   -3.3486751   -3.3486751   -1.8799545  0.060276921   -3.3486751    1.4687205   439061 
 1852000   0.97811977   -3.3463842   -3.3463842   -1.8792079  0.067687475   -3.3463842    1.4671763   439061 
 1853000   0.97698036   -3.3459616   -3.3459616   -1.8804944  0.069339785   -3.3459616    1.4654672   439061 
 1854000    0.9771288   -3.3470356   -3.3470356   -1.8813457  0.064597081   -3.3470356    1.4656899   439061 
 1855000   0.97535979   -3.3444781   -3.3444781   -1.8814418  0.066667853   -3.3444781    1.4630364   439061 
 1856000   0.97712848   -3.3467484   -3.3467484    -1.881059  0.062803902   -3.3467484    1.4656894   439061 
 1857000   0.97845638   -3.3480656   -3.3480656   -1.8803843  0.065620285   -3.3480656    1.4676812   439061 
 1858000   0.97677687   -3.3444661   -3.3444661   -1.8793041  0.068851069   -3.3444661     1.465162   439061 
 1859000   0.97936851   -3.3486054   -3.3486054   -1.8795559  0.064771963   -3.3486054    1.4690494   439061 
 1860000   0.97805854   -3.3480835   -3.3480835    -1.880999  0.067387155   -3.3480835    1.4670845   439061 
 1861000   0.97699275   -3.3464058   -3.3464058     -1.88092  0.068509315   -3.3464058    1.4654858   439061 
 1862000   0.97849127   -3.3494151   -3.3494151   -1.8816815  0.063369282   -3.3494151    1.4677336   439061 
 1863000     0.978322   -3.3480688   -3.3480688   -1.8805891  0.072616377   -3.3480688    1.4674797   439061 
 1864000   0.97962084   -3.3505571   -3.3505571   -1.8811292  0.066330956   -3.3505571    1.4694279   439061 
 1865000   0.97881133   -3.3494541   -3.3494541   -1.8812404  0.067043919   -3.3494541    1.4682136   439061 
 1866000   0.97870651   -3.3499072   -3.3499072   -1.8818508  0.068725886   -3.3499072    1.4680564   439061 
 1867000    0.9784635   -3.3501426   -3.3501426   -1.8824507  0.063085353   -3.3501426    1.4676919   439061 
 1868000   0.97703704   -3.3493542   -3.3493542    -1.883802  0.065250655   -3.3493542    1.4655522   439061 
 1869000   0.97891394   -3.3509794   -3.3509794   -1.8826119    0.0618569   -3.3509794    1.4683676   439061 
 1870000   0.97671942   -3.3474982   -3.3474982   -1.8824224  0.065126915   -3.3474982    1.4650758   439061 
 1871000     0.975899   -3.3472755   -3.3472755   -1.8834304  0.066574772   -3.3472755    1.4638452   439061 
 1872000   0.97776407   -3.3492038   -3.3492038    -1.882561  0.063095935   -3.3492038    1.4666428   439061 
 1873000   0.97861294   -3.3496901   -3.3496901    -1.881774  0.067315059   -3.3496901    1.4679161   439061 
 1874000   0.97822712   -3.3494155   -3.3494155   -1.8820782  0.065762378   -3.3494155    1.4673373   439061 
 1875000   0.97783602   -3.3475694   -3.3475694   -1.8808188  0.071972794   -3.3475694    1.4667507   439061 
 1876000   0.97849813   -3.3483391   -3.3483391   -1.8805952  0.069386601   -3.3483391    1.4677439   439061 
 1877000   0.97823487   -3.3478018   -3.3478018   -1.8804528  0.067648136   -3.3478018     1.467349   439061 
 1878000   0.97906283   -3.3492624   -3.3492624   -1.8806715  0.064109122   -3.3492624    1.4685909   439061 
 1879000   0.97814058   -3.3477862   -3.3477862   -1.8805786  0.068779941   -3.3477862    1.4672075   439061 
 1880000   0.97757849   -3.3476627   -3.3476627   -1.8812983  0.066467264   -3.3476627    1.4663644   439061 
 1881000   0.97604315   -3.3462866   -3.3462866   -1.8822252   0.06864943   -3.3462866    1.4640614   439061 
 1882000    0.9770423   -3.3489198   -3.3489198   -1.8833596  0.059751145   -3.3489198    1.4655601   439061 
 1883000   0.97698429   -3.3486098   -3.3486098   -1.8831367  0.064284338   -3.3486098    1.4654731   439061 
 1884000   0.97523387   -3.3472039   -3.3472039   -1.8843564  0.062610326   -3.3472039    1.4628475   439061 
 1885000   0.97457517    -3.347709    -3.347709   -1.8858496  0.059178611    -3.347709    1.4618594   439061 
 1886000   0.97604372   -3.3486187   -3.3486187   -1.8845565  0.060017584   -3.3486187    1.4640622   439061 
 1887000   0.97624753   -3.3475478   -3.3475478   -1.8831798  0.062763791   -3.3475478     1.464368   439061 
 1888000   0.97815623     -3.34955     -3.34955    -1.882319  0.062903002     -3.34955     1.467231   439061 
 1889000   0.97907196   -3.3502425   -3.3502425   -1.8816379   0.06504981   -3.3502425    1.4686046   439061 
 1890000   0.97801126   -3.3502514   -3.3502514   -1.8832379  0.066623052   -3.3502514    1.4670136   439061 
 1891000   0.97802591   -3.3499509   -3.3499509   -1.8829153  0.070139231   -3.3499509    1.4670355   439061 
 1892000   0.97828285   -3.3502108   -3.3502108   -1.8827898  0.070193441   -3.3502108    1.4674209   439061 
 1893000   0.97684271   -3.3502337   -3.3502337   -1.8849729  0.064002139   -3.3502337    1.4652607   439061 
 1894000   0.97656133   -3.3490484   -3.3490484   -1.8842097  0.067277216   -3.3490484    1.4648387   439061 
 1895000   0.97727766   -3.3490912   -3.3490912   -1.8831781  0.067268934   -3.3490912    1.4659131   439061 
 1896000   0.97772258   -3.3506866   -3.3506866   -1.8841061  0.067632211   -3.3506866    1.4665805   439061 
 1897000   0.97778979   -3.3508297   -3.3508297   -1.8841484  0.064671551   -3.3508297    1.4666813   439061 
 1898000   0.97720957   -3.3499234   -3.3499234   -1.8841124  0.061447373   -3.3499234     1.465811   439061 
 1899000   0.97720786    -3.350561    -3.350561   -1.8847525  0.064220127    -3.350561    1.4658085   439061 
 1900000   0.97833615   -3.3522722   -3.3522722   -1.8847713  0.063398739   -3.3522722    1.4675009   439061 
 1901000    0.9782929   -3.3520957   -3.3520957   -1.8846597  0.069659869   -3.3520957     1.467436   439061 
 1902000   0.97608974   -3.3488808   -3.3488808   -1.8847496  0.069732124   -3.3488808    1.4641313   439061 
 1903000   0.97837236   -3.3511244   -3.3511244   -1.8835692  0.067468291   -3.3511244    1.4675552   439061 
 1904000   0.97753514   -3.3511265   -3.3511265   -1.8848272  0.062833611   -3.3511265    1.4662994   439061 
 1905000   0.97734457   -3.3502107   -3.3502107   -1.8841972  0.067322859   -3.3502107    1.4660135   439061 
 1906000   0.97546449   -3.3471997   -3.3471997   -1.8840063  0.066643725   -3.3471997    1.4631934   439061 
 1907000   0.97680566   -3.3482852   -3.3482852     -1.88308  0.061287271   -3.3482852    1.4652052   439061 
 1908000   0.97719545   -3.3493351   -3.3493351   -1.8835452  0.063762182   -3.3493351    1.4657898   439061 
 1909000   0.97730243   -3.3502688   -3.3502688   -1.8843185  0.066044262   -3.3502688    1.4659503   439061 
 1910000    0.9768897   -3.3499631   -3.3499631   -1.8846319  0.065092732   -3.3499631    1.4653312   439061 
 1911000   0.97704809   -3.3496503   -3.3496503   -1.8840815  0.069389289   -3.3496503    1.4655688   439061 
 1912000   0.97756739   -3.3501009   -3.3501009   -1.8837532   0.06300984   -3.3501009    1.4663478   439061 
 1913000   0.97617621   -3.3491957   -3.3491957   -1.8849347  0.061611846   -3.3491957     1.464261   439061 
 1914000    0.9762619   -3.3490812   -3.3490812   -1.8846917  0.065311372   -3.3490812    1.4643895   439061 
 1915000   0.97549261   -3.3489128   -3.3489128   -1.8856772  0.064581017   -3.3489128    1.4632356   439061 
 1916000   0.97673732   -3.3507062   -3.3507062   -1.8856035  0.065588647   -3.3507062    1.4651026   439061 
 1917000   0.97462537   -3.3476502   -3.3476502   -1.8857154  0.065019468   -3.3476502    1.4619347   439061 
 1918000   0.97611665   -3.3506705   -3.3506705   -1.8864988  0.062037446   -3.3506705    1.4641716   439061 
 1919000    0.9755938   -3.3503127   -3.3503127   -1.8869253  0.060011466   -3.3503127    1.4633874   439061 
 1920000   0.97492042   -3.3486412   -3.3486412   -1.8862639  0.067784872   -3.3486412    1.4623773   439061 
 1921000   0.97550067   -3.3500168   -3.3500168   -1.8867691   0.06459124   -3.3500168    1.4632477   439061 
 1922000   0.97567414   -3.3508066   -3.3508066   -1.8872987  0.067638758   -3.3508066    1.4635079   439061 
 1923000   0.97594333    -3.351483    -3.351483   -1.8875714  0.068978551    -3.351483    1.4639117   439061 
 1924000    0.9760987   -3.3513869   -3.3513869   -1.8872422  0.067740474   -3.3513869    1.4641447   439061 
 1925000    0.9762174   -3.3523277   -3.3523277    -1.888005  0.066295776   -3.3523277    1.4643228   439061 
 1926000   0.97590848   -3.3520443   -3.3520443   -1.8881849  0.060589041   -3.3520443    1.4638594   439061 
 1927000   0.97691509   -3.3534834   -3.3534834   -1.8881141  0.058946418   -3.3534834    1.4653693   439061 
 1928000   0.97544018   -3.3538871   -3.3538871   -1.8907302  0.060590517   -3.3538871    1.4631569   439061 
 1929000   0.97482912   -3.3533809   -3.3533809   -1.8911406  0.067226639   -3.3533809    1.4622403   439061 
 1930000   0.97619654   -3.3547332   -3.3547332   -1.8904417  0.068145451   -3.3547332    1.4642915   439061 
 1931000   0.97552456   -3.3538516   -3.3538516   -1.8905681  0.063372477   -3.3538516    1.4632835   439061 
 1932000   0.97712223   -3.3558579   -3.3558579   -1.8901779   0.06494733   -3.3558579      1.46568   439061 
 1933000    0.9765357   -3.3555006   -3.3555006   -1.8907003  0.065016486   -3.3555006    1.4648002   439061 
 1934000   0.97709765   -3.3564194   -3.3564194   -1.8907763  0.064300842   -3.3564194    1.4656431   439061 
 1935000   0.97573752   -3.3546479   -3.3546479   -1.8910449  0.070583406   -3.3546479    1.4636029   439061 
 1936000   0.97624795   -3.3560268   -3.3560268   -1.8916582  0.066492134   -3.3560268    1.4643686   439061 
 1937000   0.97695533   -3.3568638   -3.3568638   -1.8914341  0.067909305   -3.3568638    1.4654297   439061 
 1938000   0.97637906   -3.3566697   -3.3566697   -1.8921044  0.065614707   -3.3566697    1.4645653   439061 
 1939000   0.97575041   -3.3557886   -3.3557886   -1.8921663  0.064718033   -3.3557886    1.4636223   439061 
 1940000   0.97621745   -3.3558675   -3.3558675   -1.8915447  0.067594062   -3.3558675    1.4643228   439061 
 1941000   0.97426488   -3.3536018   -3.3536018   -1.8922078  0.066099535   -3.3536018     1.461394   439061 
 1942000   0.97541804    -3.355117    -3.355117   -1.8919932  0.060169562    -3.355117    1.4631237   439061 
 1943000   0.97556388   -3.3556181   -3.3556181   -1.8922757  0.065784836   -3.3556181    1.4633425   439061 
 1944000   0.97466966   -3.3556198   -3.3556198   -1.8936187  0.061565901   -3.3556198    1.4620012   439061 
 1945000   0.97469345   -3.3554671   -3.3554671   -1.8934302  0.068932655   -3.3554671    1.4620368   439061 
 1946000   0.97541187     -3.35676     -3.35676   -1.8936455  0.068208845     -3.35676    1.4631145   439061 
 1947000     0.975686   -3.3579069   -3.3579069   -1.8943812  0.063347425   -3.3579069    1.4635257   439061 
 1948000   0.97559235   -3.3575652   -3.3575652     -1.89418  0.061931896   -3.3575652    1.4633852   439061 
 1949000   0.97462123   -3.3571702   -3.3571702   -1.8952417  0.058191425   -3.3571702    1.4619285   439061 
 1950000   0.97651695   -3.3598452   -3.3598452   -1.8950731  0.061438635   -3.3598452    1.4647721   439061 
 1951000   0.97575584    -3.357793    -3.357793   -1.8941626  0.070622603    -3.357793    1.4636304   439061 
 1952000    0.9767205    -3.359519    -3.359519   -1.8944416  0.067063627    -3.359519    1.4650774   439061 
 1953000   0.97593071   -3.3588529   -3.3588529   -1.8949601  0.069366172   -3.3588529    1.4638927   439061 
 1954000   0.97717548   -3.3602268   -3.3602268    -1.894467  0.067872919   -3.3602268    1.4657599   439061 
 1955000   0.97745327   -3.3606392   -3.3606392   -1.8944626  0.067405522   -3.3606392    1.4661766   439061 
 1956000   0.97624142   -3.3601822   -3.3601822   -1.8958234  0.065028584   -3.3601822    1.4643588   439061 
 1957000   0.97641058   -3.3613842   -3.3613842   -1.8967717  0.064811707   -3.3613842    1.4646125   439061 
 1958000   0.97737265   -3.3625728   -3.3625728   -1.8965172  0.066304172   -3.3625728    1.4660556   439061 
 1959000   0.97440757   -3.3600181   -3.3600181   -1.8984101  0.065179927   -3.3600181     1.461608   439061 
 1960000   0.97489237   -3.3608521   -3.3608521   -1.8985169  0.066608701   -3.3608521    1.4623352   439061 
 1961000   0.97517483   -3.3614166   -3.3614166   -1.8986577  0.062581364   -3.3614166    1.4627589   439061 
 1962000   0.97576417   -3.3605614   -3.3605614   -1.8969185  0.066465366   -3.3605614    1.4636429   439061 
 1963000   0.97564509   -3.3618259   -3.3618259   -1.8983615  0.067364159   -3.3618259    1.4634643   439061 
 1964000   0.97756845   -3.3636749   -3.3636749   -1.8973255  0.065659103   -3.3636749    1.4663493   439061 
 1965000   0.97740445   -3.3612382   -3.3612382   -1.8951349  0.071208139   -3.3612382    1.4661033   439061 
 1966000   0.97624563   -3.3605123   -3.3605123   -1.8961472  0.070542119   -3.3605123    1.4643651   439061 
 1967000   0.97670017   -3.3620145   -3.3620145   -1.8969676  0.068072143   -3.3620145    1.4650469   439061 
 1968000   0.97653779   -3.3607021   -3.3607021   -1.8958988  0.070221421   -3.3607021    1.4648033   439061 
 1969000   0.97548301   -3.3596592   -3.3596592    -1.896438  0.074047542   -3.3596592    1.4632212   439061 
 1970000   0.97852315   -3.3640842   -3.3640842   -1.8963028  0.064178799   -3.3640842    1.4677814   439061 
 1971000   0.97636007   -3.3612579   -3.3612579   -1.8967211  0.069908207   -3.3612579    1.4645368   439061 
 1972000   0.97741729   -3.3632438   -3.3632438   -1.8971212  0.062489039   -3.3632438    1.4661226   439061 
 1973000   0.97532639   -3.3621094   -3.3621094   -1.8991231  0.061814607   -3.3621094    1.4629862   439061 
 1974000   0.97356324   -3.3589506   -3.3589506   -1.8986091   0.06441019   -3.3589506    1.4603415   439061 
 1975000   0.97511457   -3.3612565   -3.3612565    -1.898588   0.06103376   -3.3612565    1.4626685   439061 
 1976000   0.97545289   -3.3601694   -3.3601694   -1.8969934  0.070148954   -3.3601694     1.463176   439061 
 1977000   0.97601708   -3.3609975   -3.3609975   -1.8969753   0.06672486   -3.3609975    1.4640223   439061 
 1978000   0.97582543   -3.3607561   -3.3607561   -1.8970212  0.065169913   -3.3607561    1.4637348   439061 
 1979000   0.97546372   -3.3606168   -3.3606168   -1.8974246  0.068007112   -3.3606168    1.4631922   439061 
 1980000   0.97438439   -3.3600984   -3.3600984   -1.8985252  0.067516178   -3.3600984    1.4615733   439061 
 1981000   0.97544482   -3.3608797   -3.3608797   -1.8977158   0.06797163   -3.3608797    1.4631639   439061 
 1982000    0.9749929   -3.3615158   -3.3615158   -1.8990298  0.068708903   -3.3615158     1.462486   439061 
 1983000   0.97601123   -3.3629264   -3.3629264   -1.8989129  0.064709257   -3.3629264    1.4640135   439061 
 1984000   0.97561198   -3.3627005   -3.3627005   -1.8992859  0.066076388   -3.3627005    1.4634146   439061 
 1985000   0.97565277   -3.3608248   -3.3608248    -1.897349  0.065983442   -3.3608248    1.4634758   439061 
 1986000   0.97667584   -3.3631511   -3.3631511   -1.8981407  0.064816643   -3.3631511    1.4650104   439061 
 1987000   0.97653894   -3.3637315   -3.3637315   -1.8989264  0.064536185   -3.3637315    1.4648051   439061 
 1988000    0.9748236   -3.3614667   -3.3614667   -1.8992347  0.068066814   -3.3614667    1.4622321   439061 
 1989000   0.97578586   -3.3612992   -3.3612992   -1.8976237  0.069177145   -3.3612992    1.4636755   439061 
 1990000   0.97640219    -3.362457    -3.362457   -1.8978571  0.072344776    -3.362457    1.4645999   439061 
 1991000   0.97671513   -3.3648179   -3.3648179   -1.8997485  0.066477755   -3.3648179    1.4650694   439061 
 1992000   0.97711882   -3.3651384   -3.3651384   -1.8994635  0.060250687   -3.3651384    1.4656749   439061 
 1993000   0.97603772   -3.3638404   -3.3638404   -1.8997871  0.066637588   -3.3638404    1.4640532   439061 
 1994000   0.97770625   -3.3661937   -3.3661937   -1.8996377   0.06918759   -3.3661937     1.466556   439061 
 1995000   0.97544286   -3.3628742   -3.3628742   -1.8997132  0.066306698   -3.3628742     1.463161   439061 
 1996000   0.97624209   -3.3642232   -3.3642232   -1.8998634  0.060683361   -3.3642232    1.4643598   439061 
 1997000   0.97660387   -3.3624209   -3.3624209   -1.8975184  0.070909895   -3.3624209    1.4649025   439061 
 1998000   0.97723199   -3.3639592   -3.3639592   -1.8981146  0.063095073   -3.3639592    1.4658447   439061 
 1999000   0.97628286   -3.3624683   -3.3624683   -1.8980474  0.067670025   -3.3624683     1.464421   439061 
 2000000   0.97782469   -3.3642771   -3.3642771   -1.8975434  0.068836594   -3.3642771    1.4667337   439061 
 2001000   0.97735976   -3.3646751   -3.3646751   -1.8986388   0.06318264   -3.3646751    1.4660363   439061 
 2002000   0.97701853   -3.3635757   -3.3635757   -1.8980513  0.060534044   -3.3635757    1.4655245   439061 
 2003000   0.97730621   -3.3645823   -3.3645823   -1.8986263  0.062460972   -3.3645823     1.465956   439061 
 2004000   0.97634555   -3.3618121   -3.3618121   -1.8972971   0.06586189   -3.3618121     1.464515   439061 
 2005000   0.97580608   -3.3620418   -3.3620418    -1.898336   0.06382468   -3.3620418    1.4637058   439061 
 2006000   0.97521034   -3.3628853   -3.3628853   -1.9000731  0.062822076   -3.3628853    1.4628122   439061 
 2007000   0.97556985   -3.3620914   -3.3620914   -1.8987399  0.064105925   -3.3620914    1.4633514   439061 
 2008000   0.97429851   -3.3600492   -3.3600492   -1.8986047  0.067604956   -3.3600492    1.4614444   439061 
 2009000   0.97631375   -3.3635778   -3.3635778   -1.8991105  0.063548188   -3.3635778    1.4644673   439061 
 2010000   0.97612896   -3.3637581   -3.3637581    -1.899568  0.066124955   -3.3637581    1.4641901   439061 
 2011000   0.97519941   -3.3627562   -3.3627562   -1.8999604  0.062948058   -3.3627562    1.4627958   439061 
 2012000   0.97486901   -3.3613139   -3.3613139   -1.8990138  0.062372094   -3.3613139    1.4623002   439061 
 2013000   0.97639217     -3.36436     -3.36436   -1.8997751  0.063146486     -3.36436    1.4645849   439061 
 2014000   0.97467579   -3.3630716   -3.3630716   -1.9010613  0.067964518   -3.3630716    1.4620104   439061 
 2015000   0.97600078   -3.3654885   -3.3654885   -1.9014906  0.058539863   -3.3654885    1.4639978   439061 
 2016000   0.97626619   -3.3648407   -3.3648407   -1.9004447  0.059567929   -3.3648407     1.464396   439061 
 2017000   0.97595848   -3.3650039   -3.3650039   -1.9010695   0.06351838   -3.3650039    1.4639344   439061 
 2018000   0.97595819   -3.3650482   -3.3650482   -1.9011142  0.067983977   -3.3650482     1.463934   439061 
 2019000   0.97807706   -3.3667951   -3.3667951   -1.8996829  0.068288889   -3.3667951    1.4671122   439061 
 2020000   0.97719093   -3.3660318   -3.3660318   -1.9002487  0.070185172   -3.3660318    1.4657831   439061 
 2021000    0.9781509   -3.3674754   -3.3674754   -1.9002524  0.072290144   -3.3674754     1.467223   439061 
 2022000   0.97791303    -3.368808    -3.368808   -1.9019418  0.067322393    -3.368808    1.4668662   439061 
 2023000    0.9756152   -3.3650397   -3.3650397   -1.9016203  0.066098476   -3.3650397    1.4634195   439061 
 2024000   0.97642324   -3.3669611   -3.3669611   -1.9023296  0.068482891   -3.3669611    1.4646315   439061 
 2025000   0.97662112   -3.3686253   -3.3686253   -1.9036969  0.066597266   -3.3686253    1.4649283   439061 
 2026000   0.97622545   -3.3669212   -3.3669212   -1.9025864   0.06530085   -3.3669212    1.4643348   439061 
 2027000   0.97738473   -3.3691538   -3.3691538   -1.9030801  0.062337298   -3.3691538    1.4660738   439061 
 2028000   0.97655073   -3.3672096   -3.3672096   -1.9023868  0.062639269   -3.3672096    1.4648228   439061 
 2029000   0.97570156   -3.3673571   -3.3673571   -1.9038081  0.061746101   -3.3673571     1.463549   439061 
 2030000   0.97622247   -3.3672358   -3.3672358   -1.9029055  0.066899726   -3.3672358    1.4643304   439061 
 2031000   0.97453797   -3.3645021   -3.3645021   -1.9026985  0.067869266   -3.3645021    1.4618036   439061 
 2032000   0.97501247   -3.3652888   -3.3652888   -1.9027734  0.064859384   -3.3652888    1.4625154   439061 
 2033000   0.97532096   -3.3652436   -3.3652436   -1.9022655  0.065971974   -3.3652436    1.4629781   439061 
 2034000   0.97635122   -3.3666804   -3.3666804   -1.9021569  0.063188953   -3.3666804    1.4645235   439061 
 2035000   0.97573447   -3.3653039   -3.3653039   -1.9017055  0.062796231   -3.3653039    1.4635984   439061 
 2036000    0.9762575   -3.3660344   -3.3660344   -1.9016515   0.06475348   -3.3660344    1.4643829   439061 
 2037000   0.97566181   -3.3640547   -3.3640547   -1.9005653  0.062124739   -3.3640547    1.4634894   439061 
 2038000   0.97737927   -3.3663091   -3.3663091   -1.9002436  0.055818066   -3.3663091    1.4660656   439061 
 2039000   0.97600744   -3.3647517   -3.3647517   -1.9007439   0.06459015   -3.3647517    1.4640078   439061 
 2040000   0.97520405   -3.3639672   -3.3639672   -1.9011645  0.062821514   -3.3639672    1.4628027   439061 
 2041000   0.97496019   -3.3650797   -3.3650797   -1.9026428  0.061823768   -3.3650797    1.4624369   439061 
 2042000   0.97481374   -3.3650997   -3.3650997   -1.9028825  0.061498381   -3.3650997    1.4622173   439061 
 2043000   0.97428474   -3.3636477   -3.3636477   -1.9022239  0.064456505   -3.3636477    1.4614238   439061 
 2044000   0.97624732   -3.3667999   -3.3667999   -1.9024322  0.059681037   -3.3667999    1.4643677   439061 
 2045000   0.97509741   -3.3646272   -3.3646272   -1.9019844  0.066198465   -3.3646272    1.4626428   439061 
 2046000   0.97497023   -3.3670084   -3.3670084   -1.9045564  0.063567226   -3.3670084     1.462452   439061 
 2047000   0.97558342   -3.3687527   -3.3687527   -1.9053809  0.063485396   -3.3687527    1.4633718   439061 
 2048000   0.97530938   -3.3691927   -3.3691927    -1.906232   0.06525298   -3.3691927    1.4629607   439061 
 2049000   0.97550166   -3.3679784   -3.3679784   -1.9047292  0.065977609   -3.3679784    1.4632492   439061 
 2050000   0.97631481   -3.3716074   -3.3716074   -1.9071385     0.063717   -3.3716074    1.4644689   439061 
 2051000   0.97300135   -3.3671012   -3.3671012   -1.9076025  0.065693438   -3.3671012    1.4594987   439061 
 2052000   0.97478084   -3.3694337   -3.3694337   -1.9072658  0.068188966   -3.3694337    1.4621679   439061 
 2053000   0.97658408   -3.3732198   -3.3732198    -1.908347  0.060467288   -3.3732198    1.4648728   439061 
 2054000   0.97522239   -3.3728651   -3.3728651   -1.9100349   0.06566853   -3.3728651    1.4628302   439061 
 2055000   0.97703466   -3.3737135   -3.3737135   -1.9081648  0.065221831   -3.3737135    1.4655487   439061 
 2056000   0.97639931   -3.3743141   -3.3743141   -1.9097185  0.066569777   -3.3743141    1.4645956   439061 
 2057000   0.97731969   -3.3759518   -3.3759518   -1.9099756  0.065611413   -3.3759518    1.4659762   439061 
 2058000   0.97587796   -3.3745167   -3.3745167   -1.9107031  0.064521652   -3.3745167    1.4638136   439061 
 2059000   0.97664259    -3.375646    -3.375646   -1.9106854  0.069492755    -3.375646    1.4649606   439061 
 2060000   0.97612457    -3.375115    -3.375115   -1.9109315  0.065301982    -3.375115    1.4641835   439061 
 2061000   0.97496222   -3.3742929   -3.3742929   -1.9118529  0.066805254   -3.3742929      1.46244   439061 
 2062000   0.97597299   -3.3759471   -3.3759471   -1.9119909   0.06339264   -3.3759471    1.4639561   439061 
 2063000   0.97519681   -3.3761587   -3.3761587   -1.9133668   0.06371999   -3.3761587    1.4627919   439061 
 2064000   0.97448686   -3.3746747   -3.3746747   -1.9129477  0.064752886   -3.3746747     1.461727   439061 
 2065000   0.97535964   -3.3750152   -3.3750152    -1.911979  0.065109193   -3.3750152    1.4630361   439061 
 2066000   0.97525893    -3.372857    -3.372857    -1.909972  0.068695734    -3.372857    1.4628851   439061 
 2067000   0.97669358   -3.3760942   -3.3760942   -1.9110572  0.063987822   -3.3760942     1.465037   439061 
 2068000   0.97528567   -3.3743839   -3.3743839   -1.9114588  0.065413794   -3.3743839    1.4629252   439061 
 2069000   0.97481454   -3.3726366   -3.3726366   -1.9104182  0.069680759   -3.3726366    1.4622185   439061 
 2070000   0.97660366   -3.3754073   -3.3754073   -1.9105051  0.062967031   -3.3754073    1.4649022   439061 
 2071000   0.97641386   -3.3738365   -3.3738365    -1.909219  0.065617674   -3.3738365    1.4646175   439061 
 2072000   0.97689885   -3.3745178   -3.3745178   -1.9091728  0.066606892   -3.3745178    1.4653449   439061 
 2073000   0.97609728   -3.3748497   -3.3748497   -1.9107071  0.061682753   -3.3748497    1.4641426   439061 
 2074000   0.97525175   -3.3750441   -3.3750441   -1.9121698  0.061468054   -3.3750441    1.4628743   439061 
 2075000   0.97511345   -3.3739934   -3.3739934   -1.9113266  0.063077948   -3.3739934    1.4626668   439061 
 2076000   0.97531654   -3.3729386   -3.3729386   -1.9099671  0.060920104   -3.3729386    1.4629715   439061 
 2077000   0.97656694   -3.3736437   -3.3736437   -1.9087967  0.063657783   -3.3736437    1.4648471   439061 
 2078000   0.97505577   -3.3721146   -3.3721146   -1.9095343  0.064427128   -3.3721146    1.4625803   439061 
 2079000   0.97572533   -3.3713624   -3.3713624   -1.9077778  0.060009677   -3.3713624    1.4635847   439061 
 2080000   0.97567123   -3.3717598   -3.3717598   -1.9082563  0.061399787   -3.3717598    1.4635035   439061 
 2081000   0.97421213   -3.3703777   -3.3703777   -1.9090629  0.064466807   -3.3703777    1.4613149   439061 
 2082000    0.9731829   -3.3686801   -3.3686801    -1.908909  0.063622147   -3.3686801     1.459771   439061 
 2083000   0.97514575   -3.3712521   -3.3712521   -1.9085368  0.057944215   -3.3712521    1.4627153   439061 
 2084000    0.9744804   -3.3700927   -3.3700927   -1.9083755  0.060134173   -3.3700927    1.4617173   439061 
 2085000   0.97513641   -3.3715636   -3.3715636   -1.9088623  0.056288991   -3.3715636    1.4627013   439061 
 2086000   0.97462979   -3.3709778   -3.3709778   -1.9090365  0.063348807   -3.3709778    1.4619414   439061 
 2087000   0.97500144   -3.3707232   -3.3707232   -1.9082244  0.063264663   -3.3707232    1.4624988   439061 
 2088000   0.97544206   -3.3708697   -3.3708697     -1.90771  0.067484387   -3.3708697    1.4631598   439061 
 2089000   0.97324302   -3.3695659   -3.3695659   -1.9097047  0.066050753   -3.3695659    1.4598612   439061 
 2090000   0.97386777   -3.3713002   -3.3713002   -1.9105019  0.062742507   -3.3713002    1.4607983   439061 
 2091000   0.97457133   -3.3709654   -3.3709654   -1.9091118   0.06365947   -3.3709654    1.4618537   439061 
 2092000   0.97374201   -3.3704212   -3.3704212   -1.9098115  0.061465666   -3.3704212    1.4606097   439061 
 2093000   0.97335419   -3.3702191   -3.3702191   -1.9101911  0.061029145   -3.3702191     1.460028   439061 
 2094000   0.97400221   -3.3728905   -3.3728905   -1.9118905  0.056590291   -3.3728905        1.461   439061 
 2095000   0.97347577   -3.3730345   -3.3730345   -1.9128242  0.061763673   -3.3730345    1.4602103   439061 
 2096000     0.974952   -3.3740386   -3.3740386   -1.9116139  0.063453604   -3.3740386    1.4624247   439061 
 2097000   0.97533385   -3.3749267   -3.3749267   -1.9119292  0.061687836   -3.3749267    1.4629974   439061 
 2098000   0.97483707   -3.3739777   -3.3739777   -1.9117254  0.063987135   -3.3739777    1.4622523   439061 
 2099000   0.97493472   -3.3746993   -3.3746993   -1.9123006  0.068581416   -3.3746993    1.4623988   439061 
 2100000   0.97477475   -3.3754797   -3.3754797   -1.9133209  0.068032538   -3.3754797    1.4621588   439061 
 2101000   0.97519103    -3.376758    -3.376758   -1.9139748  0.063812293    -3.376758    1.4627832   439061 
 2102000   0.97442437   -3.3758894   -3.3758894   -1.9142562  0.063534686   -3.3758894    1.4616332   439061 
 2103000   0.97425738   -3.3756523   -3.3756523   -1.9142695    0.0638504   -3.3756523    1.4613827   439061 
 2104000   0.97557684   -3.3774789   -3.3774789   -1.9141169  0.066716235   -3.3774789    1.4633619   439061 
 2105000   0.97422458   -3.3767121   -3.3767121   -1.9153786  0.065155843   -3.3767121    1.4613335   439061 
 2106000   0.97417179   -3.3773113   -3.3773113    -1.916057  0.063397437   -3.3773113    1.4612544   439061 
 2107000   0.97596239    -3.380997    -3.380997   -1.9170567  0.064212275    -3.380997    1.4639402   439061 
 2108000   0.97404198   -3.3787996   -3.3787996   -1.9177399  0.065999242   -3.3787996    1.4610596   439061 
 2109000    0.9740514   -3.3788665   -3.3788665   -1.9177927  0.063949231   -3.3788665    1.4610738   439061 
 2110000   0.97521323   -3.3806458   -3.3806458   -1.9178293  0.068286595   -3.3806458    1.4628165   439061 
 2111000   0.97301686   -3.3783944   -3.3783944   -1.9188724   0.06280166   -3.3783944     1.459522   439061 
 2112000   0.97439068   -3.3805145   -3.3805145   -1.9189318   0.05899494   -3.3805145    1.4615827   439061 
 2113000    0.9747895   -3.3808651   -3.3808651   -1.9186842  0.059136127   -3.3808651    1.4621809   439061 
 2114000   0.97465451   -3.3789296   -3.3789296   -1.9169511  0.065356942   -3.3789296    1.4619784   439061 
 2115000    0.9729093   -3.3756809   -3.3756809   -1.9163203  0.067872612   -3.3756809    1.4593606   439061 
 2116000   0.97506124   -3.3786878   -3.3786878   -1.9160992   0.06745672   -3.3786878    1.4625885   439061 
 2117000    0.9760488   -3.3807917   -3.3807917   -1.9167218  0.060758735   -3.3807917    1.4640699   439061 
 2118000   0.97606106   -3.3805103   -3.3805103   -1.9164221  0.065192284   -3.3805103    1.4640883   439061 
 2119000   0.97524573   -3.3799001   -3.3799001   -1.9170348  0.061966369   -3.3799001    1.4628653   439061 
 2120000   0.97505257   -3.3789002   -3.3789002   -1.9163247  0.064111179   -3.3789002    1.4625755   439061 
 2121000   0.97454728   -3.3784776   -3.3784776     -1.91666  0.067474583   -3.3784776    1.4618176   439061 
 2122000   0.97372396   -3.3767719   -3.3767719   -1.9161892  0.063522911   -3.3767719    1.4605826   439061 
 2123000   0.97314167   -3.3758596   -3.3758596   -1.9161504  0.062619109   -3.3758596    1.4597092   439061 
 2124000   0.97591045   -3.3796387   -3.3796387   -1.9157764  0.062510378   -3.3796387    1.4638623   439061 
 2125000   0.97460151    -3.377104    -3.377104    -1.915205  0.060442417    -3.377104    1.4618989   439061 
 2126000   0.97502533    -3.377336    -3.377336   -1.9148013   0.05779076    -3.377336    1.4625347   439061 
 2127000   0.97343061   -3.3738932   -3.3738932   -1.9137506  0.063220963   -3.3738932    1.4601426   439061 
 2128000   0.97572631   -3.3761838   -3.3761838   -1.9125976  0.063074888   -3.3761838    1.4635861   439061 
 2129000   0.97658019   -3.3780381   -3.3780381   -1.9131712  0.059185465   -3.3780381     1.464867   439061 
 2130000   0.97637058   -3.3774611   -3.3774611   -1.9129086  0.058278695   -3.3774611    1.4645525   439061 
 2131000    0.9748315   -3.3759883   -3.3759883   -1.9137444  0.059074778   -3.3759883    1.4622439   439061 
 2132000   0.97397756   -3.3767271   -3.3767271   -1.9157641  0.056023324   -3.3767271     1.460963   439061 
 2133000   0.97405388   -3.3759686   -3.3759686   -1.9148911  0.058537481   -3.3759686    1.4610775   439061 
 2134000   0.97399293   -3.3758873   -3.3758873   -1.9149012  0.053427027   -3.3758873    1.4609861   439061 
 2135000   0.97314167   -3.3759193   -3.3759193   -1.9162101  0.058786276   -3.3759193    1.4597092   439061 
 2136000   0.97204347   -3.3736051   -3.3736051   -1.9155432  0.060796924   -3.3736051    1.4580619   439061 
 2137000   0.97264064   -3.3759853   -3.3759853   -1.9170276  0.059926868   -3.3759853    1.4589576   439061 
 2138000   0.97407892   -3.3768155   -3.3768155   -1.9157005  0.060425027   -3.3768155     1.461115   439061 
 2139000    0.9744417   -3.3771397   -3.3771397   -1.9154805  0.062253412   -3.3771397    1.4616592   439061 
 2140000   0.97369481   -3.3774449   -3.3774449    -1.916906   0.06282132   -3.3774449    1.4605389   439061 
 2141000   0.97429989   -3.3781108   -3.3781108   -1.9166643  0.063957276   -3.3781108    1.4614465   439061 
 2142000   0.97459947   -3.3781428   -3.3781428   -1.9162469  0.063431527   -3.3781428    1.4618959   439061 
 2143000    0.9742731   -3.3780538   -3.3780538   -1.9166474  0.064322743   -3.3780538    1.4614063   439061 
 2144000   0.97423738   -3.3796954   -3.3796954   -1.9183427  0.059777517   -3.3796954    1.4613527   439061 
 2145000   0.97479489    -3.380982    -3.380982    -1.918793  0.059157531    -3.380982     1.462189   439061 
 2146000   0.97489048   -3.3817566   -3.3817566   -1.9194243  0.061837909   -3.3817566    1.4623324   439061 
 2147000   0.97490417    -3.381698    -3.381698   -1.9193451  0.066673712    -3.381698    1.4623529   439061 
 2148000   0.97355525   -3.3798729   -3.3798729   -1.9195433  0.068578392   -3.3798729    1.4603295   439061 
 2149000   0.97389467    -3.381338    -3.381338   -1.9204993  0.061568463    -3.381338    1.4608387   439061 
 2150000   0.97470409   -3.3807536   -3.3807536   -1.9187008  0.064466185   -3.3807536    1.4620528   439061 
 2151000    0.9744182   -3.3826285   -3.3826285   -1.9210045  0.066974376   -3.3826285     1.461624   439061 
 2152000   0.97470217   -3.3836291   -3.3836291   -1.9215792  0.061123987   -3.3836291    1.4620499   439061 
 2153000   0.97568858   -3.3852081   -3.3852081   -1.9216786  0.061283441   -3.3852081    1.4635295   439061 
 2154000   0.97543633   -3.3840839   -3.3840839   -1.9209327   0.06431523   -3.3840839    1.4631512   439061 
 2155000   0.97472436   -3.3840843   -3.3840843   -1.9220011  0.064108018   -3.3840843    1.4620832   439061 
 2156000   0.97378482   -3.3833499   -3.3833499   -1.9226759    0.0639641   -3.3833499    1.4606739   439061 
 2157000   0.97460665   -3.3839858   -3.3839858   -1.9220792  0.063000188   -3.3839858    1.4619066   439061 
 2158000   0.97467365   -3.3830924   -3.3830924   -1.9210852  0.062841751   -3.3830924    1.4620072   439061 
 2159000   0.97401683   -3.3821578   -3.3821578   -1.9211359  0.064078973   -3.3821578    1.4610219   439061 
 2160000   0.97142469   -3.3803076   -3.3803076   -1.9231739  0.064744657   -3.3803076    1.4571337   439061 
 2161000   0.97304438   -3.3831931   -3.3831931   -1.9236299  0.061342168   -3.3831931    1.4595632   439061 
 2162000   0.97463725   -3.3847572   -3.3847572   -1.9228047  0.059075691   -3.3847572    1.4619525   439061 
 2163000   0.97182524   -3.3806256   -3.3806256   -1.9228911  0.063480226   -3.3806256    1.4577345   439061 
 2164000    0.9734773   -3.3826719   -3.3826719   -1.9224592  0.062044084   -3.3826719    1.4602126   439061 
 2165000   0.97484104   -3.3848503   -3.3848503   -1.9225921  0.062713269   -3.3848503    1.4622582   439061 
 2166000    0.9744643   -3.3837946   -3.3837946   -1.9221015  0.064093878   -3.3837946    1.4616931   439061 
 2167000   0.97464132    -3.384281    -3.384281   -1.9223224  0.062852293    -3.384281    1.4619587   439061 
 2168000   0.97435788   -3.3847155   -3.3847155    -1.923182   0.06415553   -3.3847155    1.4615335   439061 
 2169000   0.97383651   -3.3843713   -3.3843713   -1.9236199  0.065418556   -3.3843713    1.4607514   439061 
 2170000   0.97342984   -3.3845384   -3.3845384   -1.9243969  0.061122013   -3.3845384    1.4601414   439061 
 2171000   0.97399599   -3.3851296   -3.3851296   -1.9241389  0.064533139   -3.3851296    1.4609907   439061 
 2172000   0.97299896    -3.385274    -3.385274   -1.9257788  0.062006423    -3.385274    1.4594951   439061 
 2173000   0.97081783   -3.3847759   -3.3847759   -1.9285524  0.061970529   -3.3847759    1.4562234   439061 
 2174000   0.97244462   -3.3854501   -3.3854501   -1.9267865  0.063740588   -3.3854501    1.4586636   439061 
 2175000   0.97385815   -3.3860609   -3.3860609    -1.925277  0.063964493   -3.3860609    1.4607839   439061 
 2176000   0.97454938   -3.3863158   -3.3863158   -1.9244951  0.062434064   -3.3863158    1.4618207   439061 
 2177000    0.9751611   -3.3873434   -3.3873434    -1.924605  0.064361269   -3.3873434    1.4627383   439061 
 2178000   0.97457762   -3.3859379   -3.3859379   -1.9240748  0.066237911   -3.3859379    1.4618631   439061 
 2179000   0.97464186   -3.3860843   -3.3860843   -1.9241248  0.064549586   -3.3860843    1.4619595   439061 
 2180000   0.97492034   -3.3864216   -3.3864216   -1.9240444  0.060878885   -3.3864216    1.4623772   439061 
 2181000    0.9744392   -3.3837391   -3.3837391   -1.9220836   0.07165698   -3.3837391    1.4616555   439061 
 2182000   0.97469015   -3.3847297   -3.3847297   -1.9226978  0.062125626   -3.3847297    1.4620319   439061 
 2183000   0.97514593   -3.3869232   -3.3869232   -1.9242076  0.064978372   -3.3869232    1.4627156   439061 
 2184000   0.97327107   -3.3846462   -3.3846462   -1.9247429  0.059978895   -3.3846462    1.4599033   439061 
 2185000   0.97300352   -3.3841513   -3.3841513   -1.9246493   0.05889926   -3.3841513     1.459502   439061 
 2186000   0.97113721   -3.3825463   -3.3825463   -1.9258438  0.061204797   -3.3825463    1.4567025   439061 
 2187000   0.97144686   -3.3819592   -3.3819592   -1.9247922   0.06338209   -3.3819592     1.457167   439061 
 2188000   0.97292624   -3.3846111   -3.3846111    -1.925225  0.053808166   -3.3846111     1.459386   439061 
 2189000   0.97231446   -3.3821826   -3.3821826   -1.9237142  0.061244869   -3.3821826    1.4584684   439061 
 2190000     0.973098   -3.3839663   -3.3839663   -1.9243226  0.062359552   -3.3839663    1.4596437   439061 
 2191000   0.97267317   -3.3833598   -3.3833598   -1.9243534  0.064097651   -3.3833598    1.4590064   439061 
 2192000   0.97331108   -3.3844726   -3.3844726   -1.9245093  0.064569047   -3.3844726    1.4599633   439061 
 2193000   0.97262389   -3.3833286   -3.3833286   -1.9243961  0.063211274   -3.3833286    1.4589325   439061 
 2194000   0.97377442   -3.3839025   -3.3839025   -1.9232442  0.061316019   -3.3839025    1.4606583   439061 
 2195000   0.97260441   -3.3826539   -3.3826539   -1.9237506  0.062986132   -3.3826539    1.4589033   439061 
 2196000   0.97430674   -3.3846082   -3.3846082   -1.9231515  0.064451091   -3.3846082    1.4614568   439061 
 2197000   0.97357912   -3.3848466   -3.3848466   -1.9244813  0.062518657   -3.3848466    1.4603654   439061 
 2198000   0.97272979   -3.3838447   -3.3838447   -1.9247533  0.062231789   -3.3838447    1.4590914   439061 
 2199000   0.97277411   -3.3847236   -3.3847236   -1.9255657  0.064294344   -3.3847236    1.4591578   439061 
 2200000   0.97320873   -3.3837735   -3.3837735   -1.9239637  0.060403244   -3.3837735    1.4598098   439061 
 2201000   0.97330083   -3.3839891   -3.3839891   -1.9240412  0.066586889   -3.3839891    1.4599479   439061 
 2202000   0.97289978    -3.384668    -3.384668   -1.9253217  0.061309983    -3.384668    1.4593463   439061 
 2203000   0.97403514   -3.3858139   -3.3858139   -1.9247645  0.061332919   -3.3858139    1.4610494   439061 
 2204000   0.97316475   -3.3835574   -3.3835574   -1.9238136  0.065889133   -3.3835574    1.4597438   439061 
 2205000   0.97417795   -3.3859307   -3.3859307   -1.9246671  0.064825862   -3.3859307    1.4612636   439061 
 2206000   0.97489125   -3.3859562   -3.3859562   -1.9236226  0.064701577   -3.3859562    1.4623335   439061 
 2207000   0.97223461   -3.3844034   -3.3844034   -1.9260548  0.056766966   -3.3844034    1.4583486   439061 
 2208000   0.97192525   -3.3838923   -3.3838923   -1.9260077  0.063091726   -3.3838923    1.4578846   439061 
 2209000   0.97343793    -3.386378    -3.386378   -1.9262244   0.05791596    -3.386378    1.4601536   439061 
 2210000   0.97151743   -3.3838278   -3.3838278    -1.926555  0.059518964   -3.3838278    1.4572728   439061 
 2211000   0.97147883    -3.384805    -3.384805     -1.92759  0.053574798    -3.384805    1.4572149   439061 
 2212000   0.96996051   -3.3845038   -3.3845038   -1.9295663  0.061609614   -3.3845038    1.4549375   439061 
 2213000   0.97072794   -3.3851912   -3.3851912   -1.9291026  0.062493738   -3.3851912    1.4560886   439061 
 2214000   0.96984811   -3.3841973   -3.3841973   -1.9294284  0.063475528   -3.3841973    1.4547689   439061 
 2215000   0.97128308   -3.3864305   -3.3864305   -1.9295092  0.062051513   -3.3864305    1.4569213   439061 
 2216000     0.971487   -3.3864877   -3.3864877   -1.9292605  0.056914868   -3.3864877    1.4572272   439061 
 2217000   0.97120778   -3.3859868   -3.3859868   -1.9291784  0.059691741   -3.3859868    1.4568084   439061 
 2218000   0.97265071    -3.387559    -3.387559   -1.9285862   0.06048386    -3.387559    1.4589727   439061 
 2219000   0.97187693   -3.3871649   -3.3871649   -1.9293528  0.061176282   -3.3871649    1.4578121   439061 
 2220000   0.97403208   -3.3893012   -3.3893012   -1.9282565  0.065021853   -3.3893012    1.4610448   439061 
 2221000   0.97388657   -3.3898619   -3.3898619   -1.9290354  0.064703812   -3.3898619    1.4608265   439061 
 2222000   0.97202035    -3.387536    -3.387536   -1.9295088  0.067110116    -3.387536    1.4580272   439061 
 2223000   0.97418742   -3.3909281   -3.3909281   -1.9296503   0.06564471   -3.3909281    1.4612778   439061 
 2224000   0.97403559   -3.3917226   -3.3917226   -1.9306726  0.056008264   -3.3917226      1.46105   439061 
 2225000   0.97365564   -3.3908084   -3.3908084   -1.9303283  0.062709848   -3.3908084    1.4604801   439061 
 2226000   0.97334958   -3.3910499   -3.3910499   -1.9310289  0.061050084   -3.3910499     1.460021   439061 
 2227000   0.97234673   -3.3889736   -3.3889736   -1.9304569   0.06449549   -3.3889736    1.4585168   439061 
 2228000    0.9728502   -3.3905266   -3.3905266   -1.9312546  0.058037089   -3.3905266     1.459272   439061 
 2229000    0.9719044   -3.3887705   -3.3887705   -1.9309172  0.066008831   -3.3887705    1.4578533   439061 
 2230000   0.97235508   -3.3897254   -3.3897254   -1.9311961  0.059562852   -3.3897254    1.4585293   439061 
 2231000    0.9725887   -3.3898294   -3.3898294   -1.9309497  0.065059739   -3.3898294    1.4588797   439061 
 2232000   0.97252862   -3.3885286   -3.3885286    -1.929739  0.066469841   -3.3885286    1.4587896   439061 
 2233000   0.97237743   -3.3890704   -3.3890704   -1.9305076  0.059770022   -3.3890704    1.4585628   439061 
 2234000   0.97272857   -3.3902147   -3.3902147   -1.9311252  0.058625915   -3.3902147    1.4590895   439061 
 2235000   0.97201118   -3.3885084   -3.3885084    -1.930495  0.066153914   -3.3885084    1.4580134   439061 
 2236000   0.97280133   -3.3897857   -3.3897857    -1.930587  0.064883998   -3.3897857    1.4591987   439061 
 2237000   0.97212712   -3.3898715   -3.3898715   -1.9316842  0.064343822   -3.3898715    1.4581874   439061 
 2238000    0.9714236   -3.3885013   -3.3885013   -1.9313692  0.067372297   -3.3885013    1.4571321   439061 
 2239000   0.97302464   -3.3908582   -3.3908582   -1.9313245   0.06225709   -3.3908582    1.4595336   439061 
 2240000   0.97156591    -3.388515    -3.388515   -1.9311695  0.067498457    -3.388515    1.4573455   439061 
 2241000   0.97319088   -3.3913418   -3.3913418   -1.9315588   0.06225099   -3.3913418     1.459783   439061 
 2242000   0.97310143   -3.3913118   -3.3913118    -1.931663  0.059996278   -3.3913118    1.4596488   439061 
 2243000   0.97189232   -3.3889864   -3.3889864   -1.9311512  0.059473742   -3.3889864    1.4578352   439061 
 2244000   0.97180148   -3.3894532   -3.3894532   -1.9317543  0.058453392   -3.3894532    1.4576989   439061 
 2245000   0.96998441   -3.3874966   -3.3874966   -1.9325233  0.061311421   -3.3874966    1.4549733   439061 
 2246000   0.97255056   -3.3918073   -3.3918073   -1.9329848  0.057435954   -3.3918073    1.4588225   439061 
 2247000   0.97212355   -3.3904745   -3.3904745   -1.9322925  0.058492847   -3.3904745     1.458182   439061 
 2248000   0.97092479   -3.3894438   -3.3894438   -1.9330599  0.058210045   -3.3894438    1.4563839   439061 
 2249000   0.97132791   -3.3905008   -3.3905008   -1.9335122  0.058629012   -3.3905008    1.4569885   439061 
 2250000   0.97255614   -3.3920549   -3.3920549    -1.933224  0.056111984   -3.3920549    1.4588309   439061 
 2251000   0.97341261   -3.3920054   -3.3920054   -1.9318898  0.059866115   -3.3920054    1.4601156   439061 
 2252000   0.97281555   -3.3918558   -3.3918558   -1.9326358  0.062609836   -3.3918558      1.45922   439061 
 2253000   0.97215935    -3.390472    -3.390472   -1.9322363  0.063602696    -3.390472    1.4582357   439061 
 2254000   0.97316987   -3.3923148   -3.3923148   -1.9325633  0.062927337   -3.3923148    1.4597515   439061 
 2255000   0.97321125   -3.3918299   -3.3918299   -1.9320164  0.063110608   -3.3918299    1.4598135   439061 
 2256000   0.97334774   -3.3928854   -3.3928854   -1.9328671  0.062730106   -3.3928854    1.4600183   439061 
 2257000   0.97352511   -3.3936305   -3.3936305   -1.9333462  0.060263135   -3.3936305    1.4602843   439061 
 2258000   0.97378145   -3.3946011   -3.3946011   -1.9339322  0.059571923   -3.3946011    1.4606688   439061 
 2259000   0.97294324   -3.3937097   -3.3937097   -1.9342981   0.06259581   -3.3937097    1.4594115   439061 
 2260000   0.97286857   -3.3928958   -3.3928958   -1.9335963  0.062541173   -3.3928958    1.4592995   439061 
 2261000   0.97405835   -3.3945433   -3.3945433   -1.9334591  0.065582279   -3.3945433    1.4610842   439061 
 2262000   0.97274217   -3.3934534   -3.3934534   -1.9343435  0.061580428   -3.3934534    1.4591099   439061 
 2263000   0.97261581   -3.3929777   -3.3929777   -1.9340574  0.061778018   -3.3929777    1.4589204   439061 
 2264000   0.97362335   -3.3944361   -3.3944361   -1.9340044  0.062509497   -3.3944361    1.4604317   439061 
 2265000   0.97191422    -3.393901    -3.393901    -1.936033  0.058722264    -3.393901     1.457868   439061 
 2266000   0.97131034   -3.3924935   -3.3924935   -1.9355313  0.064213721   -3.3924935    1.4569622   439061 
 2267000   0.97208316   -3.3954676   -3.3954676   -1.9373462  0.059712599   -3.3954676    1.4581214   439061 
 2268000   0.97237975   -3.3939405   -3.3939405   -1.9353742  0.060557602   -3.3939405    1.4585663   439061 
 2269000   0.97220472   -3.3952492   -3.3952492   -1.9369454   0.05794538   -3.3952492    1.4583038   439061 
 2270000   0.96937848   -3.3907004   -3.3907004    -1.936636  0.060823361   -3.3907004    1.4540644   439061 
 2271000   0.97119978   -3.3913479   -3.3913479   -1.9345515  0.060596706   -3.3913479    1.4567963   439061 
 2272000   0.97304095   -3.3938848   -3.3938848   -1.9343267  0.063709001   -3.3938848    1.4595581   439061 
 2273000   0.97164978    -3.393166    -3.393166   -1.9356946  0.060070786    -3.393166    1.4574713   439061 
 2274000   0.97156839   -3.3936082   -3.3936082   -1.9362589  0.065510926   -3.3936082    1.4573493   439061 
 2275000   0.97216142   -3.3929541   -3.3929541   -1.9347153  0.062547638   -3.3929541    1.4582388   439061 
 2276000   0.97292071   -3.3925586   -3.3925586   -1.9331808   0.06518573   -3.3925586    1.4593777   439061 
 2277000   0.97237602   -3.3926388   -3.3926388   -1.9340781  0.066957655   -3.3926388    1.4585607   439061 
 2278000   0.97257102   -3.3933375   -3.3933375   -1.9344843  0.063646238   -3.3933375    1.4588532   439061 
 2279000   0.97415904   -3.3965925   -3.3965925   -1.9353573  0.061494952   -3.3965925    1.4612352   439061 
 2280000   0.97384349    -3.394961    -3.394961   -1.9341991  0.065908168    -3.394961    1.4607619   439061 
 2281000   0.97115226   -3.3921686   -3.3921686   -1.9354435  0.063595738   -3.3921686    1.4567251   439061 
 2282000   0.97115203   -3.3923652   -3.3923652   -1.9356405  0.061798174   -3.3923652    1.4567247   439061 
 2283000   0.97231963   -3.3935785   -3.3935785   -1.9351024  0.064976012   -3.3935785    1.4584761   439061 
 2284000   0.97283077   -3.3949079   -3.3949079   -1.9356651  0.063937896   -3.3949079    1.4592428   439061 
 2285000   0.97350705   -3.3956764   -3.3956764   -1.9354192  0.060929205   -3.3956764    1.4602573   439061 
 2286000    0.9727668   -3.3948387   -3.3948387   -1.9356918  0.058629042   -3.3948387    1.4591469   439061 
 2287000   0.97156356   -3.3924635   -3.3924635   -1.9351215  0.058760897   -3.3924635     1.457342   439061 
 2288000   0.97193532   -3.3934336   -3.3934336    -1.935534  0.063731168   -3.3934336    1.4578997   439061 
 2289000   0.97173052    -3.391848    -3.391848   -1.9342555  0.063026678    -3.391848    1.4575925   439061 
 2290000   0.97173244   -3.3925731   -3.3925731   -1.9349778  0.061275454   -3.3925731    1.4575953   439061 
 2291000    0.9729165   -3.3944951   -3.3944951   -1.9351237  0.059435007   -3.3944951    1.4593714   439061 
 2292000   0.97222675   -3.3930512   -3.3930512   -1.9347144  0.060236764   -3.3930512    1.4583368   439061 
 2293000   0.97257737   -3.3943618   -3.3943618   -1.9354991  0.058847999   -3.3943618    1.4588627   439061 
 2294000   0.97133666   -3.3930821   -3.3930821   -1.9360805  0.059152053   -3.3930821    1.4570017   439061 
 2295000   0.97019521   -3.3916706   -3.3916706   -1.9363811  0.064778642   -3.3916706    1.4552895   439061 
 2296000   0.97194734   -3.3940103   -3.3940103   -1.9360926  0.060577566   -3.3940103    1.4579177   439061 
 2297000   0.97250087    -3.395476    -3.395476    -1.936728  0.056414164    -3.395476     1.458748   439061 
 2298000   0.97132767   -3.3937613   -3.3937613   -1.9367731  0.057333244   -3.3937613    1.4569882   439061 
 2299000   0.97108588   -3.3948415   -3.3948415    -1.938216   0.05723947   -3.3948415    1.4566255   439061 
 2300000   0.97171052   -3.3964185   -3.3964185    -1.938856  0.059596672   -3.3964185    1.4575625   439061 
 2301000   0.97194671   -3.3970903   -3.3970903   -1.9391736  0.061082079   -3.3970903    1.4579168   439061 
 2302000   0.97111182   -3.3955971   -3.3955971   -1.9389327  0.059892421   -3.3955971    1.4566644   439061 
 2303000   0.97148617   -3.3977492   -3.3977492   -1.9405232  0.056081567   -3.3977492    1.4572259   439061 
 2304000   0.97190961   -3.3977315   -3.3977315   -1.9398704  0.055516033   -3.3977315    1.4578611   439061 
 2305000   0.97242311   -3.3988735   -3.3988735   -1.9402421  0.063486861   -3.3988735    1.4586313   439061 
 2306000   0.97178901   -3.3982068   -3.3982068   -1.9405266  0.066148928   -3.3982068    1.4576802   439061 
 2307000   0.97327883   -3.4012561   -3.4012561   -1.9413412  0.061000061   -3.4012561    1.4599149   439061 
 2308000   0.97269907   -3.4012064   -3.4012064   -1.9421611  0.064683248   -3.4012064    1.4590453   439061 
 2309000   0.97156693   -3.3997251   -3.3997251    -1.942378  0.067542066   -3.3997251    1.4573471   439061 
 2310000   0.97152432   -3.4002287   -3.4002287   -1.9429455  0.065936588   -3.4002287    1.4572832   439061 
 2311000   0.97352255   -3.4019849   -3.4019849   -1.9417045  0.061367092   -3.4019849    1.4602805   439061 
 2312000   0.97253855   -3.4009713   -3.4009713   -1.9421668  0.064472223   -3.4009713    1.4588045   439061 
 2313000    0.9718418   -3.3998841   -3.3998841   -1.9421247  0.065014932   -3.3998841    1.4577594   439061 
 2314000   0.97074433   -3.3998035   -3.3998035   -1.9436904  0.069319311   -3.3998035    1.4561132   439061 
 2315000   0.97056187   -3.4003363   -3.4003363   -1.9444968  0.055705129   -3.4003363    1.4558395   439061 
 2316000   0.97180823   -3.4029865   -3.4029865   -1.9452775  0.059925869   -3.4029865     1.457709   439061 
 2317000   0.97124101   -3.4020512   -3.4020512    -1.945193  0.061629041   -3.4020512    1.4568582   439061 
 2318000   0.97273893   -3.4036586   -3.4036586   -1.9445535  0.056940015   -3.4036586    1.4591051   439061 
 2319000   0.97109592   -3.4007848   -3.4007848   -1.9441442  0.061242219   -3.4007848    1.4566406   439061 
 2320000   0.97035037   -3.3996771   -3.3996771   -1.9441548  0.064452393   -3.3996771    1.4555222   439061 
 2321000   0.96995768   -3.3979529   -3.3979529   -1.9430197  0.063207218   -3.3979529    1.4549332   439061 
 2322000   0.97160888   -3.4007556   -3.4007556   -1.9433456  0.062652437   -3.4007556      1.45741   439061 
 2323000   0.97002334   -3.3993462   -3.3993462   -1.9443145  0.062178355   -3.3993462    1.4550317   439061 
 2324000   0.97299861   -3.4013459   -3.4013459   -1.9418513  0.062480489   -3.4013459    1.4594946   439061 
 2325000   0.97304489   -3.4010062   -3.4010062   -1.9414422  0.061355683   -3.4010062     1.459564   439061 
 2326000   0.97402085   -3.4021356   -3.4021356   -1.9411076  0.060417333   -3.4021356    1.4610279   439061 
 2327000   0.97305535   -3.3993841   -3.3993841   -1.9398044  0.066820251   -3.3993841    1.4595797   439061 
 2328000   0.97265626   -3.3985851   -3.3985851   -1.9396041   0.06528105   -3.3985851    1.4589811   439061 
 2329000   0.97289657   -3.3987399   -3.3987399   -1.9393984  0.060156607   -3.3987399    1.4593415   439061 
 2330000   0.97175736    -3.399357    -3.399357   -1.9417243  0.061064368    -3.399357    1.4576327   439061 
 2331000   0.97046122   -3.3959211   -3.3959211   -1.9402326  0.065752896   -3.3959211    1.4556885   439061 
 2332000   0.97092364   -3.3964739   -3.3964739   -1.9400918  0.058267159   -3.3964739    1.4563821   439061 
 2333000   0.96983653   -3.3957198   -3.3957198   -1.9409683  0.057655992   -3.3957198    1.4547515   439061 
 2334000   0.97026961   -3.3969614   -3.3969614   -1.9415603  0.051956453   -3.3969614    1.4554011   439061 
 2335000   0.97011632   -3.3957109   -3.3957109   -1.9405397  0.055297511   -3.3957109    1.4551712   439061 
 2336000   0.96943345   -3.3949789   -3.3949789   -1.9408321  0.064450473   -3.3949789    1.4541469   439061 
 2337000   0.97078116    -3.394924    -3.394924   -1.9387556  0.060946137    -3.394924    1.4561684   439061 
 2338000   0.97092729   -3.3966987   -3.3966987   -1.9403111  0.058861539   -3.3966987    1.4563876   439061 
 2339000     0.970066   -3.3970991   -3.3970991   -1.9420034  0.058728634   -3.3970991    1.4550957   439061 
 2340000   0.97020525   -3.3965458   -3.3965458   -1.9412412  0.063836064   -3.3965458    1.4553046   439061 
 2341000    0.9718994   -3.3982422   -3.3982422   -1.9403964  0.058580021   -3.3982422    1.4578458   439061 
 2342000   0.97340028    -3.400694    -3.400694   -1.9405969  0.057708764    -3.400694    1.4600971   439061 
 2343000   0.97058995   -3.3970967   -3.3970967   -1.9412151  0.063888048   -3.3970967    1.4558816   439061 
 2344000   0.97135056   -3.3993491   -3.3993491   -1.9423266  0.060131172   -3.3993491    1.4570225   439061 
 2345000     0.970786   -3.3979853   -3.3979853   -1.9418096  0.058984564   -3.3979853    1.4561757   439061 
 2346000   0.97359252    -3.402267    -3.402267   -1.9418815  0.060010904    -3.402267    1.4603855   439061 
 2347000   0.97288733   -3.4018167   -3.4018167    -1.942489  0.062912552   -3.4018167    1.4593277   439061 
 2348000   0.97299713   -3.4024858   -3.4024858   -1.9429934   0.06237243   -3.4024858    1.4594924   439061 
 2349000   0.97050508   -3.3993959   -3.3993959   -1.9436416  0.065613928   -3.3993959    1.4557543   439061 
 2350000   0.97202869   -3.4008352   -3.4008352   -1.9427955  0.064823008   -3.4008352    1.4580397   439061 
 2351000   0.97183083   -3.3997758   -3.3997758   -1.9420328  0.065638007   -3.3997758    1.4577429   439061 
 2352000   0.97327198   -3.4016728   -3.4016728   -1.9417682  0.060364345   -3.4016728    1.4599046   439061 
 2353000   0.97326084   -3.4012873   -3.4012873   -1.9413994  0.057336509   -3.4012873    1.4598879   439061 
 2354000   0.97217898   -3.4007359   -3.4007359   -1.9424708  0.062947169   -3.4007359    1.4582651   439061 
 2355000    0.9737863   -3.4024655   -3.4024655   -1.9417894  0.063443419   -3.4024655    1.4606761   439061 
 2356000   0.97165551   -3.4003566   -3.4003566   -1.9428766   0.06243158   -3.4003566    1.4574799   439061 
 2357000   0.97247861   -3.4015793   -3.4015793   -1.9428647  0.057431188   -3.4015793    1.4587146   439061 
 2358000   0.97131768   -3.3992274   -3.3992274   -1.9422542  0.064258496   -3.3992274    1.4569732   439061 
 2359000   0.97071171    -3.398799    -3.398799   -1.9427347  0.059760108    -3.398799    1.4560642   439061 
 2360000   0.97240201    -3.400952    -3.400952   -1.9423523  0.057955975    -3.400952    1.4585997   439061 
 2361000   0.97200947   -3.3983062   -3.3983062   -1.9402953  0.060980146   -3.3983062    1.4580109   439061 
 2362000   0.97166572   -3.3990884   -3.3990884   -1.9415931   0.05893719   -3.3990884    1.4574953   439061 
 2363000   0.97046213   -3.3994322   -3.3994322   -1.9437423  0.060569603   -3.3994322    1.4556899   439061 
 2364000   0.97177689   -3.4015636   -3.4015636   -1.9439016  0.060775992   -3.4015636     1.457662   439061 
 2365000   0.97015318   -3.3990102   -3.3990102   -1.9437837  0.057045413   -3.3990102    1.4552265   439061 
 2366000   0.97064406   -3.4008674   -3.4008674   -1.9449047  0.060046585   -3.4008674    1.4559628   439061 
 2367000   0.97116084    -3.401524    -3.401524   -1.9447861  0.055667753    -3.401524    1.4567379   439061 
 2368000    0.9699548   -3.3989906   -3.3989906   -1.9440617  0.057666295   -3.3989906    1.4549289   439061 
 2369000   0.96990737   -3.3995267   -3.3995267   -1.9446689  0.061382573   -3.3995267    1.4548577   439061 
 2370000   0.97112837    -3.400877    -3.400877   -1.9441878  0.061471114    -3.400877    1.4566892   439061 
 2371000   0.97102367   -3.4012107   -3.4012107   -1.9446785  0.060124972   -3.4012107    1.4565322   439061 
 2372000   0.97105582   -3.4015697   -3.4015697   -1.9449893  0.058999037   -3.4015697    1.4565804   439061 
 2373000   0.97224164   -3.4029516   -3.4029516   -1.9445925  0.063302813   -3.4029516    1.4583591   439061 
 2374000   0.97336444   -3.4034209   -3.4034209   -1.9433775  0.064390996   -3.4034209    1.4600433   439061 
 2375000   0.97309315   -3.4026284   -3.4026284    -1.942992   0.06242054   -3.4026284    1.4596364   439061 
 2376000   0.97265426   -3.4030606   -3.4030606   -1.9440825  0.060516177   -3.4030606    1.4589781   439061 
 2377000   0.97248629   -3.4031648   -3.4031648   -1.9444387  0.062059844   -3.4031648    1.4587261   439061 
 2378000   0.97190396   -3.4025467   -3.4025467   -1.9446941  0.065153311   -3.4025467    1.4578526   439061 
 2379000   0.97112778   -3.4028986   -3.4028986   -1.9462103  0.061493245   -3.4028986    1.4566883   439061 
 2380000   0.96987797   -3.4010923   -3.4010923   -1.9462786  0.065448696   -3.4010923    1.4548136   439061 
 2381000    0.9697711   -3.4001157   -3.4001157   -1.9454624  0.065443605   -3.4001157    1.4546533   439061 
 2382000   0.97150465   -3.4026525   -3.4026525   -1.9453988   0.05964174   -3.4026525    1.4572537   439061 
 2383000   0.97173982   -3.4034811   -3.4034811   -1.9458747  0.058114489   -3.4034811    1.4576064   439061 
 2384000   0.97028997   -3.4025617   -3.4025617     -1.94713  0.056905451   -3.4025617    1.4554316   439061 
 2385000   0.97048634    -3.401379    -3.401379   -1.9456528  0.059945194    -3.401379    1.4557262   439061 
 2386000   0.97155186    -3.401462    -3.401462   -1.9441375  0.061102437    -3.401462    1.4573245   439061 
 2387000   0.97161448   -3.4030316   -3.4030316   -1.9456132  0.060854137   -3.4030316    1.4574184   439061 
 2388000   0.97195224   -3.4026412   -3.4026412   -1.9447162   0.06312036   -3.4026412     1.457925   439061 
 2389000   0.97230427   -3.4038249   -3.4038249   -1.9453718  0.061101825   -3.4038249    1.4584531   439061 
 2390000   0.97127533     -3.40345     -3.40345   -1.9465404  0.061454112     -3.40345    1.4569097   439061 
 2391000   0.97028024   -3.4023895   -3.4023895   -1.9469724  0.062489105   -3.4023895    1.4554171   439061 
 2392000   0.97042347   -3.4038873   -3.4038873   -1.9482555  0.058700306   -3.4038873    1.4556319   439061 
 2393000   0.96930482   -3.4020091   -3.4020091   -1.9480552  0.055033495   -3.4020091    1.4539539   439061 
 2394000   0.97031601   -3.4037175   -3.4037175   -1.9482468  0.057395806   -3.4037175    1.4554707   439061 
 2395000   0.97095238   -3.4044339   -3.4044339   -1.9480086  0.059262116   -3.4044339    1.4564252   439061 
 2396000   0.97101508   -3.4037242   -3.4037242   -1.9472049  0.056778161   -3.4037242    1.4565193   439061 
 2397000   0.97009711   -3.4039587   -3.4039587   -1.9488164  0.059056091   -3.4039587    1.4551424   439061 
 2398000   0.97190743    -3.406793    -3.406793   -1.9489352  0.060421066    -3.406793    1.4578578   439061 
 2399000   0.97024497   -3.4065205   -3.4065205   -1.9511563  0.057325437   -3.4065205    1.4553641   439061 
 2400000   0.97037988   -3.4054796   -3.4054796   -1.9499131  0.059191786   -3.4054796    1.4555665   439061 
 2401000   0.97049821   -3.4062299   -3.4062299   -1.9504859  0.060558369   -3.4062299     1.455744   439061 
 2402000   0.97149911   -3.4084206   -3.4084206   -1.9511752  0.058912597   -3.4084206    1.4572453   439061 
 2403000   0.97131057   -3.4075585   -3.4075585    -1.950596   0.06019566   -3.4075585    1.4569625   439061 
 2404000   0.97068068   -3.4073441   -3.4073441   -1.9513264  0.062536641   -3.4073441    1.4560177   439061 
 2405000   0.97131123   -3.4085755   -3.4085755    -1.951612  0.061131165   -3.4085755    1.4569635   439061 
 2406000    0.9720372   -3.4098726   -3.4098726   -1.9518201  0.068441777   -3.4098726    1.4580525   439061 
 2407000   0.97200229   -3.4094604   -3.4094604   -1.9514603  0.061797901   -3.4094604    1.4580001   439061 
 2408000   0.97314822   -3.4107538   -3.4107538   -1.9510348  0.059976935   -3.4107538     1.459719   439061 
 2409000   0.97328927   -3.4100309   -3.4100309   -1.9501003  0.065909167   -3.4100309    1.4599306   439061 
 2410000   0.97254226   -3.4082953   -3.4082953   -1.9494853  0.071718454   -3.4082953    1.4588101   439061 
 2411000   0.97170552   -3.4091695   -3.4091695   -1.9516145  0.066436261   -3.4091695     1.457555   439061 
 2412000   0.97140941   -3.4088011   -3.4088011   -1.9516903  0.066415393   -3.4088011    1.4571108   439061 
 2413000   0.97073722   -3.4096003   -3.4096003   -1.9534978  0.060511317   -3.4096003    1.4561025   439061 
 2414000   0.97082526   -3.4094503   -3.4094503   -1.9532157  0.055825374   -3.4094503    1.4562346   439061 
 2415000   0.96933091   -3.4073767   -3.4073767   -1.9533836  0.063693735   -3.4073767    1.4539931   439061 
 2416000    0.9697167   -3.4087707   -3.4087707   -1.9541989  0.058623373   -3.4087707    1.4545717   439061 
 2417000   0.96876821   -3.4076023   -3.4076023   -1.9544533  0.057389491   -3.4076023     1.453149   439061 
 2418000   0.96885284    -3.408188    -3.408188    -1.954912  0.056856889    -3.408188     1.453276   439061 
 2419000   0.96809594   -3.4065671   -3.4065671   -1.9544265  0.058877801   -3.4065671    1.4521406   439061 
 2420000   0.96799904   -3.4066222   -3.4066222   -1.9546269   0.05934235   -3.4066222    1.4519953   439061 
 2421000   0.96880529   -3.4068216   -3.4068216    -1.953617   0.05763044   -3.4068216    1.4532046   439061 
 2422000   0.96872456   -3.4069237   -3.4069237   -1.9538402  0.058953261   -3.4069237    1.4530835   439061 
 2423000   0.96970103   -3.4081878   -3.4081878   -1.9536396  0.058343669   -3.4081878    1.4545482   439061 
 2424000   0.97010938   -3.4092103   -3.4092103   -1.9540495  0.059498999   -3.4092103    1.4551608   439061 
 2425000   0.97009786   -3.4081887   -3.4081887   -1.9530453  0.061799364   -3.4081887    1.4551435   439061 
 2426000   0.96991593   -3.4087518   -3.4087518   -1.9538812  0.065183565   -3.4087518    1.4548706   439061 
 2427000   0.97054683   -3.4098722   -3.4098722   -1.9540552  0.059795785   -3.4098722    1.4558169   439061 
 2428000   0.97023961   -3.4099937   -3.4099937   -1.9546376  0.058454717   -3.4099937    1.4553561   439061 
 2429000   0.96953512   -3.4100727   -3.4100727   -1.9557734  0.060025974   -3.4100727    1.4542994   439061 
 2430000   0.96959681   -3.4108483   -3.4108483   -1.9564563  0.067419282   -3.4108483    1.4543919   439061 
 2431000   0.96874992   -3.4103944   -3.4103944   -1.9572728  0.060328965   -3.4103944    1.4531216   439061 
 2432000   0.96937376   -3.4112236   -3.4112236   -1.9571663  0.058764048   -3.4112236    1.4540573   439061 
 2433000   0.96878452    -3.410951    -3.410951   -1.9577776  0.061219882    -3.410951    1.4531735   439061 
 2434000   0.96911888   -3.4117036   -3.4117036   -1.9580286  0.056221225   -3.4117036     1.453675   439061 
 2435000   0.96971533   -3.4112858   -3.4112858   -1.9567161  0.059663754   -3.4112858    1.4545697   439061 
 2436000   0.96997909   -3.4119292   -3.4119292   -1.9569639  0.062843131   -3.4119292    1.4549653   439061 
 2437000   0.97033642   -3.4145281   -3.4145281   -1.9590268  0.056182219   -3.4145281    1.4555013   439061 
 2438000   0.97178374   -3.4174426   -3.4174426   -1.9597703  0.064570764   -3.4174426    1.4576723   439061 
 2439000   0.97164525   -3.4159334   -3.4159334   -1.9584689  0.059678748   -3.4159334    1.4574646   439061 
 2440000   0.96979566   -3.4131698   -3.4131698   -1.9584796  0.067193006   -3.4131698    1.4546902   439061 
 2441000   0.97013401   -3.4134641   -3.4134641   -1.9582664   0.06411525   -3.4134641    1.4551977   439061 
 2442000   0.97027592   -3.4134486   -3.4134486    -1.958038  0.065163057   -3.4134486    1.4554106   439061 
 2443000   0.97047877   -3.4143294   -3.4143294   -1.9586146   0.06199234   -3.4143294    1.4557148   439061 
 2444000    0.9709104   -3.4150313   -3.4150313    -1.958669  0.065234797   -3.4150313    1.4563623   439061 
 2445000   0.97020902   -3.4157269   -3.4157269   -1.9604167  0.059697418   -3.4157269    1.4553102   439061 
 2446000   0.96987997   -3.4141427   -3.4141427    -1.959326  0.061588214   -3.4141427    1.4548166   439061 
 2447000   0.97065533   -3.4154503   -3.4154503   -1.9594706  0.057655587   -3.4154503    1.4559797   439061 
 2448000   0.97166448    -3.414953    -3.414953   -1.9574596   0.05772813    -3.414953    1.4574934   439061 
 2449000    0.9701751   -3.4139174   -3.4139174    -1.958658  0.061741427   -3.4139174    1.4552593   439061 
 2450000   0.97142767   -3.4157935   -3.4157935   -1.9586553   0.06268922   -3.4157935    1.4571382   439061 
 2451000   0.96946162   -3.4128467   -3.4128467   -1.9586575  0.058879104   -3.4128467    1.4541891   439061 
 2452000    0.9700307   -3.4131944   -3.4131944   -1.9581517  0.060704666   -3.4131944    1.4550427   439061 
 2453000   0.96910362   -3.4117686   -3.4117686   -1.9581164  0.059658125   -3.4117686    1.4536521   439061 
 2454000   0.96951499   -3.4129666   -3.4129666   -1.9586975  0.058011968   -3.4129666    1.4542692   439061 
 2455000   0.96812712   -3.4108674   -3.4108674     -1.95868  0.062230202   -3.4108674    1.4521874   439061 
 2456000   0.97041003   -3.4151539   -3.4151539   -1.9595422  0.059377108   -3.4151539    1.4556117   439061 
 2457000    0.9691817   -3.4134995   -3.4134995   -1.9597302  0.054457576   -3.4134995    1.4537692   439061 
 2458000   0.96992693   -3.4131097   -3.4131097   -1.9582226  0.057091849   -3.4131097    1.4548871   439061 
 2459000   0.97037121   -3.4136009   -3.4136009   -1.9580474  0.057036374   -3.4136009    1.4555535   439061 
 2460000   0.96871184   -3.4112052   -3.4112052   -1.9581407  0.055211415   -3.4112052    1.4530645   439061 
 2461000   0.96871424   -3.4111406   -3.4111406   -1.9580726  0.059380204   -3.4111406     1.453068   439061 
 2462000   0.97082963   -3.4137066   -3.4137066   -1.9574655  0.057474032   -3.4137066    1.4562411   439061 
 2463000   0.96899306   -3.4115386   -3.4115386   -1.9580523  0.056227729   -3.4115386    1.4534863   439061 
 2464000   0.96860672   -3.4123177   -3.4123177   -1.9594109  0.060819321   -3.4123177    1.4529068   439061 
 2465000   0.96922824   -3.4136896   -3.4136896   -1.9598506  0.056074059   -3.4136896     1.453839   439061 
 2466000    0.9701123   -3.4147941   -3.4147941    -1.959629   0.05353113   -3.4147941    1.4551651   439061 
 2467000   0.97007179   -3.4153756   -3.4153756   -1.9602713  0.056628401   -3.4153756    1.4551044   439061 
 2468000   0.97027322   -3.4142985   -3.4142985    -1.958892  0.058505998   -3.4142985    1.4554065   439061 
 2469000   0.97132613   -3.4161167   -3.4161167   -1.9591309  0.060322734   -3.4161167    1.4569859   439061 
 2470000   0.97081106   -3.4149073   -3.4149073    -1.958694  0.059800367   -3.4149073    1.4562133   439061 
 2471000   0.96965306   -3.4127208   -3.4127208   -1.9582445   0.05969473   -3.4127208    1.4544763   439061 
 2472000   0.96958896   -3.4132834   -3.4132834   -1.9589033  0.061292286   -3.4132834    1.4543801   439061 
 2473000   0.97112631   -3.4144103   -3.4144103   -1.9577242  0.064329282   -3.4144103    1.4566861   439061 
 2474000   0.97219031   -3.4176311   -3.4176311    -1.959349  0.055984823   -3.4176311    1.4582821   439061 
 2475000   0.97000589   -3.4144709   -3.4144709   -1.9594653  0.064063173   -3.4144709    1.4550055   439061 
 2476000   0.97127397   -3.4146716   -3.4146716    -1.957764  0.060449098   -3.4146716    1.4569076   439061 
 2477000   0.97078482   -3.4128392   -3.4128392   -1.9566653  0.061005736   -3.4128392    1.4561739   439061 
 2478000   0.97039201   -3.4132233   -3.4132233   -1.9576386  0.058177829   -3.4132233    1.4555847   439061 
 2479000   0.96925515   -3.4122573   -3.4122573   -1.9583779  0.059686895   -3.4122573    1.4538794   439061 
 2480000   0.96936078   -3.4131616   -3.4131616   -1.9591237  0.057396342   -3.4131616    1.4540379   439061 
 2481000   0.96724596   -3.4120083   -3.4120083   -1.9611426  0.061740924   -3.4120083    1.4508656   439061 
 2482000   0.96868697   -3.4137305   -3.4137305   -1.9607034  0.058947089   -3.4137305    1.4530271   439061 
 2483000   0.96727831   -3.4123293   -3.4123293   -1.9614151  0.056534986   -3.4123293    1.4509142   439061 
 2484000    0.9685823   -3.4138962   -3.4138962   -1.9610261  0.054942378   -3.4138962    1.4528701   439061 
 2485000   0.96605907   -3.4098226   -3.4098226   -1.9607373  0.061741978   -3.4098226    1.4490853   439061 
 2486000   0.96812118   -3.4128538   -3.4128538   -1.9606754  0.059993773   -3.4128538    1.4521785   439061 
 2487000   0.97022739    -3.415076    -3.415076   -1.9597382  0.059656985    -3.415076    1.4553378   439061 
 2488000    0.9692071   -3.4137871   -3.4137871   -1.9599798  0.059831628   -3.4137871    1.4538073   439061 
 2489000   0.97105556   -3.4146631   -3.4146631   -1.9580831  0.052911057   -3.4146631      1.45658   439061 
 2490000   0.97127357   -3.4149939   -3.4149939   -1.9580869  0.060632014   -3.4149939     1.456907   439061 
 2491000   0.97067998   -3.4130122   -3.4130122   -1.9569955  0.060704203   -3.4130122    1.4560167   439061 
 2492000   0.96845968   -3.4106468   -3.4106468   -1.9579606  0.067793279   -3.4106468    1.4526862   439061 
 2493000   0.96822016   -3.4129214   -3.4129214   -1.9605945  0.056926899   -3.4129214    1.4523269   439061 
 2494000   0.96989783   -3.4147576   -3.4147576   -1.9599142  0.064391506   -3.4147576    1.4548434   439061 
 2495000   0.96963581   -3.4153846   -3.4153846   -1.9609342  0.056465923   -3.4153846    1.4544504   439061 
 2496000   0.96859233   -3.4138019   -3.4138019   -1.9609167  0.059589127   -3.4138019    1.4528852   439061 
 2497000   0.96819653   -3.4142568   -3.4142568   -1.9619654  0.060751715   -3.4142568    1.4522915   439061 
 2498000   0.96999651    -3.415359    -3.415359   -1.9603675  0.057595648    -3.415359    1.4549915   439061 
 2499000   0.96911939   -3.4147112   -3.4147112   -1.9610355  0.067082449   -3.4147112    1.4536758   439061 
 2500000   0.96786796   -3.4143067   -3.4143067    -1.962508  0.058545481   -3.4143067    1.4517986   439061 
 2501000   0.96754783    -3.414101    -3.414101   -1.9627826  0.059588326    -3.414101    1.4513184   439061 
 2502000   0.96818296   -3.4158901   -3.4158901    -1.963619  0.059136125   -3.4158901    1.4522711   439061 
 2503000   0.96893215   -3.4162329   -3.4162329    -1.962838  0.059763188   -3.4162329    1.4533949   439061 
 2504000   0.96844655   -3.4159418   -3.4159418   -1.9632753  0.056233164   -3.4159418    1.4526665   439061 
 2505000   0.96760454   -3.4149756   -3.4149756   -1.9635721  0.061509967   -3.4149756    1.4514035   439061 
 2506000   0.96866664   -3.4180532   -3.4180532   -1.9650565  0.058287351   -3.4180532    1.4529967   439061 
 2507000   0.96746855   -3.4158681   -3.4158681   -1.9646686  0.063282988   -3.4158681    1.4511995   439061 
 2508000   0.96667225   -3.4146309   -3.4146309   -1.9646259  0.066146665   -3.4146309    1.4500051   439061 
 2509000   0.96896642   -3.4177778   -3.4177778   -1.9643314   0.06146661   -3.4177778    1.4534463   439061 
 2510000   0.96937054     -3.41803     -3.41803   -1.9639775  0.058880787     -3.41803    1.4540525   439061 
 2511000   0.96998844   -3.4189424   -3.4189424   -1.9639631  0.063208674   -3.4189424    1.4549793   439061 
 2512000   0.96925633   -3.4182027   -3.4182027   -1.9643215  0.062434139   -3.4182027    1.4538812   439061 
 2513000   0.97094294   -3.4185043   -3.4185043   -1.9620932  0.062846771   -3.4185043    1.4564111   439061 
 2514000   0.97098152   -3.4181065   -3.4181065   -1.9616376  0.067390845   -3.4181065     1.456469   439061 
 2515000    0.9718989   -3.4203385   -3.4203385   -1.9624935  0.063594445   -3.4203385     1.457845   439061 
 2516000   0.97102524   -3.4185999   -3.4185999   -1.9620654  0.060879084   -3.4185999    1.4565345   439061 
 2517000   0.97087705   -3.4190976   -3.4190976   -1.9627853  0.063277024   -3.4190976    1.4563123   439061 
 2518000   0.97009604   -3.4184258   -3.4184258    -1.963285  0.061769541   -3.4184258    1.4551408   439061 
 2519000   0.96875054   -3.4183326   -3.4183326   -1.9652101  0.059965897   -3.4183326    1.4531225   439061 
 2520000   0.96998495    -3.419188    -3.419188   -1.9642139  0.058104089    -3.419188    1.4549741   439061 
 2521000    0.9674278   -3.4167481   -3.4167481   -1.9656097  0.059671469   -3.4167481    1.4511384   439061 
 2522000   0.96716438   -3.4168663   -3.4168663    -1.966123  0.054851791   -3.4168663    1.4507433   439061 
 2523000   0.96826142   -3.4185777   -3.4185777   -1.9661889  0.058922621   -3.4185777    1.4523888   439061 
 2524000   0.96822211   -3.4177973   -3.4177973   -1.9654674  0.056168293   -3.4177973    1.4523299   439061 
 2525000   0.96959379   -3.4188918   -3.4188918   -1.9645044  0.053048828   -3.4188918    1.4543874   439061 
 2526000   0.96800055   -3.4171815   -3.4171815    -1.965184  0.057950819   -3.4171815    1.4519975   439061 
 2527000   0.96802789   -3.4150458   -3.4150458   -1.9630072   0.06129111   -3.4150458    1.4520385   439061 
 2528000   0.96870836   -3.4165002   -3.4165002    -1.963441  0.063605723   -3.4165002    1.4530592   439061 
 2529000   0.96935246   -3.4178601   -3.4178601   -1.9638348   0.05728363   -3.4178601    1.4540254   439061 
 2530000   0.96800575   -3.4158208   -3.4158208   -1.9638155  0.056966668   -3.4158208    1.4520053   439061 
 2531000   0.96762122   -3.4151453   -3.4151453   -1.9637168  0.060539977   -3.4151453    1.4514285   439061 
 2532000   0.96830902   -3.4162348   -3.4162348   -1.9637746  0.061081246   -3.4162348    1.4524602   439061 
 2533000   0.96867282   -3.4181241   -3.4181241   -1.9651181  0.054514309   -3.4181241    1.4530059   439061 
 2534000   0.96911879   -3.4179346   -3.4179346   -1.9642597  0.057454029   -3.4179346    1.4536749   439061 
 2535000   0.96922404    -3.417304    -3.417304   -1.9634713  0.058811163    -3.417304    1.4538327   439061 
 2536000   0.96934799   -3.4180038   -3.4180038   -1.9639852  0.061177367   -3.4180038    1.4540187   439061 
 2537000   0.97044016   -3.4199675   -3.4199675   -1.9643105  0.055041234   -3.4199675    1.4556569   439061 
 2538000   0.96853666   -3.4180253   -3.4180253   -1.9652237  0.056202268   -3.4180253    1.4528017   439061 
 2539000   0.96869599   -3.4190821   -3.4190821   -1.9660414  0.058766094   -3.4190821    1.4530407   439061 
 2540000   0.96930086   -3.4182621   -3.4182621   -1.9643141  0.064046011   -3.4182621     1.453948   439061 
 2541000   0.96981166   -3.4188228   -3.4188228   -1.9641086  0.063484289   -3.4188228    1.4547142   439061 
 2542000   0.96877072    -3.419805    -3.419805   -1.9666523  0.061281216    -3.419805    1.4531528   439061 
 2543000   0.96959071   -3.4203729   -3.4203729   -1.9659902  0.056265117   -3.4203729    1.4543827   439061 
 2544000   0.96893925   -3.4198095   -3.4198095    -1.966404  0.064222987   -3.4198095    1.4534056   439061 
 2545000      0.96906   -3.4205195   -3.4205195   -1.9669328  0.058531731   -3.4205195    1.4535867   439061 
 2546000   0.96923151   -3.4189645   -3.4189645   -1.9651206  0.062573577   -3.4189645    1.4538439   439061 
 2547000   0.96906669   -3.4186312   -3.4186312   -1.9650345  0.060044197   -3.4186312    1.4535967   439061 
 2548000   0.96898008   -3.4201764   -3.4201764   -1.9667096  0.057838583   -3.4201764    1.4534668   439061 
 2549000   0.96899424   -3.4200121   -3.4200121    -1.966524  0.061941273   -3.4200121    1.4534881   439061 
 2550000   0.96968634   -3.4204808   -3.4204808   -1.9659546  0.060399891   -3.4204808    1.4545262   439061 
 2551000   0.96929977   -3.4217043   -3.4217043   -1.9677579  0.060488807   -3.4217043    1.4539463   439061 
 2552000   0.96886702    -3.420248    -3.420248   -1.9669508   0.05988604    -3.420248    1.4532972   439061 
 2553000    0.9697638   -3.4230674   -3.4230674    -1.968425   0.05665841   -3.4230674    1.4546424   439061 
 2554000   0.96909065   -3.4225086   -3.4225086    -1.968876  0.055045491   -3.4225086    1.4536327   439061 
 2555000   0.96721531    -3.419349    -3.419349   -1.9685294  0.059475173    -3.419349    1.4508197   439061 
 2556000   0.96878348    -3.420779    -3.420779   -1.9676071  0.057550778    -3.420779    1.4531719   439061 
 2557000   0.96947634   -3.4220459   -3.4220459   -1.9678347    0.0581761   -3.4220459    1.4542112   439061 
 2558000   0.96827713   -3.4218411   -3.4218411   -1.9694287  0.058799208   -3.4218411    1.4524124   439061 
 2559000   0.96900522   -3.4222276   -3.4222276   -1.9687231  0.057803238   -3.4222276    1.4535045   439061 
 2560000   0.96814789   -3.4217677   -3.4217677   -1.9695492  0.060029678   -3.4217677    1.4522185   439061 
 2561000   0.96997956   -3.4239172   -3.4239172   -1.9689511  0.063253448   -3.4239172     1.454966   439061 
 2562000   0.96949646   -3.4238793   -3.4238793   -1.9696379  0.061979165   -3.4238793    1.4542414   439061 
 2563000   0.96935232   -3.4236046   -3.4236046   -1.9695795  0.057346662   -3.4236046    1.4540252   439061 
 2564000   0.96986551   -3.4240284   -3.4240284   -1.9692334  0.057341215   -3.4240284     1.454795   439061 
 2565000   0.96964692   -3.4249066   -3.4249066   -1.9704395  0.059092711   -3.4249066    1.4544671   439061 
 2566000   0.97017033   -3.4246819   -3.4246819   -1.9694297  0.063478384   -3.4246819    1.4552522   439061 
 2567000   0.96939642   -3.4239039   -3.4239039   -1.9698126  0.055361899   -3.4239039    1.4540913   439061 
 2568000   0.96865758   -3.4225405   -3.4225405   -1.9695575  0.061509949   -3.4225405    1.4529831   439061 
 2569000   0.96876021   -3.4230163   -3.4230163   -1.9698793  0.061804773   -3.4230163     1.453137   439061 
 2570000    0.9697645   -3.4240838   -3.4240838   -1.9694404  0.061713289   -3.4240838    1.4546434   439061 
 2571000   0.96770151   -3.4222747   -3.4222747   -1.9707257  0.060566746   -3.4222747     1.451549   439061 
 2572000   0.96664825   -3.4211133   -3.4211133   -1.9711442  0.060305284   -3.4211133    1.4499691   439061 
 2573000   0.96906276   -3.4248993   -3.4248993   -1.9713084  0.056611635   -3.4248993    1.4535908   439061 
 2574000   0.97139397   -3.4261089   -3.4261089   -1.9690212  0.057293724   -3.4261089    1.4570876   439061 
 2575000   0.96976324   -3.4248233   -3.4248233   -1.9701818  0.054870835   -3.4248233    1.4546415   439061 
 2576000   0.96822355   -3.4216695   -3.4216695   -1.9693375  0.061351487   -3.4216695     1.452332   439061 
 2577000   0.97020576   -3.4247044   -3.4247044   -1.9693991  0.056100721   -3.4247044    1.4553053   439061 
 2578000   0.96903604   -3.4228437   -3.4228437    -1.969293  0.059281324   -3.4228437    1.4535507   439061 
 2579000   0.96759244   -3.4207792   -3.4207792   -1.9693939  0.062336923   -3.4207792    1.4513854   439061 
 2580000   0.96886021   -3.4226181   -3.4226181   -1.9693311  0.055226042   -3.4226181     1.453287   439061 
 2581000   0.96916607   -3.4222309   -3.4222309   -1.9684851   0.05819594   -3.4222309    1.4537458   439061 
 2582000   0.97095398   -3.4245299   -3.4245299   -1.9681023  0.063890704   -3.4245299    1.4564277   439061 
 2583000   0.96935847   -3.4228567   -3.4228567   -1.9688223  0.058661975   -3.4228567    1.4540344   439061 
 2584000   0.96926596   -3.4231307   -3.4231307   -1.9692351  0.057653782   -3.4231307    1.4538956   439061 
 2585000   0.96747777   -3.4212091   -3.4212091   -1.9699958  0.059574413   -3.4212091    1.4512134   439061 
 2586000   0.96698981   -3.4199481   -3.4199481   -1.9694667  0.056856368   -3.4199481    1.4504814   439061 
 2587000   0.96766168   -3.4207832   -3.4207832   -1.9692939  0.060099094   -3.4207832    1.4514892   439061 
 2588000   0.96832764   -3.4242413   -3.4242413   -1.9717531  0.053637655   -3.4242413    1.4524881   439061 
 2589000   0.96757955   -3.4226772   -3.4226772   -1.9713112  0.054801141   -3.4226772     1.451366   439061 
 2590000   0.96852158   -3.4240201   -3.4240201    -1.971241   0.05362085   -3.4240201    1.4527791   439061 
 2591000   0.96850971   -3.4230631   -3.4230631   -1.9703018  0.056197176   -3.4230631    1.4527613   439061 
 2592000   0.96908567   -3.4246139   -3.4246139   -1.9709887  0.051479588   -3.4246139    1.4536252   439061 
 2593000   0.96898874   -3.4235367   -3.4235367   -1.9700569  0.055643084   -3.4235367    1.4534798   439061 
 2594000   0.96823695   -3.4235119   -3.4235119   -1.9711598  0.058105046   -3.4235119    1.4523521   439061 
 2595000   0.96845333   -3.4241308   -3.4241308   -1.9714541  0.057539599   -3.4241308    1.4526767   439061 
 2596000   0.96865873   -3.4239798   -3.4239798    -1.970995  0.058026659   -3.4239798    1.4529848   439061 
 2597000    0.9676027   -3.4204907   -3.4204907   -1.9690899  0.061744668   -3.4204907    1.4514007   439061 
 2598000   0.96870564   -3.4227489   -3.4227489   -1.9696938  0.057380106   -3.4227489    1.4530551   439061 
 2599000   0.96863563   -3.4237049   -3.4237049   -1.9707548  0.062382023   -3.4237049    1.4529501   439061 
 2600000   0.96897943   -3.4244318   -3.4244318   -1.9709659   0.05942903   -3.4244318    1.4534658   439061 
 2601000   0.96913982   -3.4253096   -3.4253096   -1.9716031  0.056851006   -3.4253096    1.4537064   439061 
 2602000   0.96909724   -3.4238718   -3.4238718   -1.9702292  0.061462504   -3.4238718    1.4536426   439061 
 2603000   0.96889238   -3.4250641   -3.4250641   -1.9717288  0.059394534   -3.4250641    1.4533353   439061 
 2604000   0.97013869   -3.4261851   -3.4261851   -1.9709804  0.058434339   -3.4261851    1.4552047   439061 
 2605000   0.96856587   -3.4251356   -3.4251356   -1.9722901  0.059657968   -3.4251356    1.4528455   439061 
 2606000   0.97041041   -3.4275922   -3.4275922   -1.9719799  0.057187686   -3.4275922    1.4556123   439061 
 2607000   0.96980388   -3.4262263   -3.4262263   -1.9715238  0.060668579   -3.4262263    1.4547025   439061 
 2608000    0.9697257    -3.425749    -3.425749   -1.9711637  0.059211876    -3.425749    1.4545852   439061 
 2609000   0.96997504    -3.425565    -3.425565   -1.9706057  0.061153027    -3.425565    1.4549592   439061 
 2610000   0.96897646   -3.4247988   -3.4247988   -1.9713374  0.060842677   -3.4247988    1.4534614   439061 
 2611000   0.96867927    -3.424261    -3.424261   -1.9712454  0.056610606    -3.424261    1.4530156   439061 
 2612000   0.96915367   -3.4245761   -3.4245761   -1.9708489  0.060651224   -3.4245761    1.4537272   439061 
 2613000   0.96998782   -3.4270076   -3.4270076   -1.9720292  0.058189676   -3.4270076    1.4549784   439061 
 2614000   0.96773688   -3.4247311   -3.4247311   -1.9731291  0.056978135   -3.4247311     1.451602   439061 
 2615000   0.96836839    -3.424022    -3.424022   -1.9714727  0.057560809    -3.424022    1.4525493   439061 
 2616000   0.96803477   -3.4244972   -3.4244972   -1.9724484  0.059254716   -3.4244972    1.4520488   439061 
 2617000   0.96805909   -3.4260157   -3.4260157   -1.9739304  0.054228171   -3.4260157    1.4520853   439061 
 2618000   0.96708698   -3.4252629   -3.4252629   -1.9746358  0.055297145   -3.4252629    1.4506272   439061 
 2619000   0.96571119   -3.4234745   -3.4234745    -1.974911  0.054053614   -3.4234745    1.4485635   439061 
 2620000   0.96728503   -3.4257627   -3.4257627   -1.9748384  0.055067326   -3.4257627    1.4509242   439061 
 2621000      0.96666   -3.4251986   -3.4251986   -1.9752119  0.057555093   -3.4251986    1.4499867   439061 
 2622000   0.96758375   -3.4253786   -3.4253786   -1.9740062   0.05234259   -3.4253786    1.4513723   439061 
 2623000   0.96729874   -3.4255751   -3.4255751   -1.9746303   0.05334977   -3.4255751    1.4509448   439061 
 2624000   0.96782729   -3.4256119   -3.4256119   -1.9738743  0.054210617   -3.4256119    1.4517376   439061 
 2625000   0.96739133   -3.4273964   -3.4273964   -1.9763127  0.054595806   -3.4273964    1.4510837   439061 
 2626000   0.96806095   -3.4273066   -3.4273066   -1.9752185  0.059342983   -3.4273066    1.4520881   439061 
 2627000   0.96842034   -3.4283463   -3.4283463   -1.9757191  0.056390356   -3.4283463    1.4526272   439061 
 2628000   0.96893423   -3.4283371   -3.4283371   -1.9749391  0.059098669   -3.4283371     1.453398   439061 
 2629000   0.96884912    -3.427974    -3.427974   -1.9747037  0.067173545    -3.427974    1.4532704   439061 
 2630000   0.97065835     -3.43086     -3.43086   -1.9748758  0.060048377     -3.43086    1.4559842   439061 
 2631000   0.97004575   -3.4293463   -3.4293463    -1.974281  0.059691006   -3.4293463    1.4550653   439061 
 2632000   0.96970906   -3.4299762   -3.4299762   -1.9754159  0.060978434   -3.4299762    1.4545603   439061 
 2633000    0.9713036   -3.4331207   -3.4331207   -1.9761686  0.060087677   -3.4331207    1.4569521   439061 
 2634000   0.97038098   -3.4314353   -3.4314353   -1.9758671  0.062149909   -3.4314353    1.4555682   439061 
 2635000   0.96908061   -3.4308933   -3.4308933   -1.9772757  0.064296363   -3.4308933    1.4536176   439061 
 2636000   0.96843085    -3.429528    -3.429528   -1.9768851  0.062802106    -3.429528     1.452643   439061 
 2637000   0.96891455   -3.4302679   -3.4302679   -1.9768994  0.063487725   -3.4302679    1.4533685   439061 
 2638000   0.96823018   -3.4297798   -3.4297798   -1.9774378  0.063174674   -3.4297798     1.452342   439061 
 2639000   0.96802343   -3.4301848   -3.4301848    -1.978153   0.06065711   -3.4301848    1.4520318   439061 
 2640000   0.96978531   -3.4327892   -3.4327892   -1.9781146  0.056310103   -3.4327892    1.4546747   439061 
 2641000   0.96823976   -3.4321018   -3.4321018   -1.9797454  0.060161374   -3.4321018    1.4523563   439061 
 2642000   0.96789673   -3.4300946   -3.4300946   -1.9782528  0.057947326   -3.4300946    1.4518418   439061 
 2643000   0.96803238    -3.428791    -3.428791   -1.9767458   0.06016161    -3.428791    1.4520453   439061 
 2644000   0.96980645   -3.4316852   -3.4316852   -1.9769788  0.057431452   -3.4316852    1.4547064   439061 
 2645000   0.96839884   -3.4288031   -3.4288031   -1.9762082  0.060798813   -3.4288031     1.452595   439061 
 2646000    0.9675467   -3.4275852   -3.4275852   -1.9762685  0.061481852   -3.4275852    1.4513167   439061 
 2647000   0.96797202   -3.4279707   -3.4279707    -1.976016  0.061119143   -3.4279707    1.4519547   439061 
 2648000   0.96746723   -3.4275234   -3.4275234   -1.9763259  0.056019562   -3.4275234    1.4511975   439061 
 2649000   0.96697955   -3.4274896   -3.4274896   -1.9770236  0.057583352   -3.4274896     1.450466   439061 
 2650000      0.96609   -3.4282652   -3.4282652   -1.9791335  0.054674963   -3.4282652    1.4491317   439061 
 2651000   0.96658131   -3.4288773   -3.4288773   -1.9790087  0.048826563   -3.4288773    1.4498687   439061 
 2652000   0.96625056   -3.4279581   -3.4279581   -1.9785855  0.052664867   -3.4279581    1.4493725   439061 
 2653000    0.9665649   -3.4273432   -3.4273432   -1.9774991  0.055907021   -3.4273432    1.4498441   439061 
 2654000   0.96561523   -3.4275832   -3.4275832   -1.9791636  0.056937167   -3.4275832    1.4484196   439061 
 2655000   0.96726989   -3.4294511   -3.4294511   -1.9785496  0.050835453   -3.4294511    1.4509015   439061 
 2656000   0.96745542    -3.428986    -3.428986   -1.9778062  0.061810161    -3.428986    1.4511798   439061 
 2657000   0.96931941   -3.4317035   -3.4317035   -1.9777277  0.057785734   -3.4317035    1.4539758   439061 
 2658000   0.96918903   -3.4316883   -3.4316883   -1.9779081  0.064132773   -3.4316883    1.4537802   439061 
 2659000    0.9681289   -3.4320724   -3.4320724   -1.9798824  0.064065352   -3.4320724      1.45219   439061 
 2660000   0.96676413   -3.4301308   -3.4301308   -1.9799879  0.062567996   -3.4301308    1.4501429   439061 
 2661000   0.96978943   -3.4340387   -3.4340387   -1.9793579  0.058750449   -3.4340387    1.4546808   439061 
 2662000   0.96962964   -3.4339973   -3.4339973   -1.9795562  0.063060127   -3.4339973    1.4544412   439061 
 2663000   0.96806848   -3.4338029   -3.4338029   -1.9817035  0.056368369   -3.4338029    1.4520994   439061 
 2664000   0.96796919   -3.4336657   -3.4336657   -1.9817152  0.057067463   -3.4336657    1.4519505   439061 
 2665000   0.96740076   -3.4335045   -3.4335045   -1.9824066    0.0606218   -3.4335045    1.4510978   439061 
 2666000   0.96778874    -3.432077    -3.432077   -1.9803972  0.059758511    -3.432077    1.4516798   439061 
 2667000   0.96730603   -3.4313283   -3.4313283   -1.9803726   0.06299225   -3.4313283    1.4509557   439061 
 2668000   0.96980451   -3.4345512   -3.4345512   -1.9798477   0.05762841   -3.4345512    1.4547034   439061 
 2669000   0.96871921   -3.4333419   -3.4333419   -1.9802664  0.070062534   -3.4333419    1.4530755   439061 
 2670000   0.97118623   -3.4367853   -3.4367853   -1.9800092   0.05795984   -3.4367853     1.456776   439061 
 2671000   0.97003053   -3.4359748   -3.4359748   -1.9809323  0.060012468   -3.4359748    1.4550425   439061 
 2672000   0.96979359    -3.434412    -3.434412    -1.979725  0.059173645    -3.434412    1.4546871   439061 
 2673000   0.97032471   -3.4346018   -3.4346018    -1.979118  0.053791545   -3.4346018    1.4554838   439061 
 2674000   0.96908578   -3.4334223   -3.4334223   -1.9797969  0.054805299   -3.4334223    1.4536254   439061 
 2675000   0.96759332   -3.4323795   -3.4323795   -1.9809928  0.059015327   -3.4323795    1.4513867   439061 
 2676000   0.96867058   -3.4329989   -3.4329989   -1.9799964  0.054524803   -3.4329989    1.4530026   439061 
 2677000   0.96776509   -3.4310181   -3.4310181   -1.9793738  0.055705983   -3.4310181    1.4516443   439061 
 2678000   0.96683079    -3.430311    -3.430311   -1.9800681   0.05762302    -3.430311    1.4502429   439061 
 2679000   0.96885431   -3.4341918   -3.4341918   -1.9809137  0.060249976   -3.4341918    1.4532782   439061 
 2680000   0.96813959   -3.4335842   -3.4335842   -1.9813781  0.058126334   -3.4335842    1.4522061   439061 
 2681000   0.96529958   -3.4298775   -3.4298775   -1.9819314   0.06007877   -3.4298775    1.4479461   439061 
 2682000   0.96814175   -3.4329907   -3.4329907   -1.9807814  0.055714964   -3.4329907    1.4522093   439061 
 2683000   0.96735543   -3.4305339   -3.4305339   -1.9795041   0.05998095   -3.4305339    1.4510298   439061 
 2684000   0.96836268   -3.4329033   -3.4329033   -1.9803626  0.058930815   -3.4329033    1.4525407   439061 
 2685000   0.96749764   -3.4308592   -3.4308592    -1.979616  0.057686489   -3.4308592    1.4512432   439061 
 2686000   0.96822453   -3.4312372   -3.4312372   -1.9789037  0.060257999   -3.4312372    1.4523335   439061 
 2687000   0.96920832   -3.4327056   -3.4327056   -1.9788965  0.060222145   -3.4327056    1.4538092   439061 
 2688000   0.96821564   -3.4326101   -3.4326101   -1.9802899  0.058002688   -3.4326101    1.4523201   439061 
 2689000   0.96827714    -3.432203    -3.432203   -1.9797906  0.067429593    -3.432203    1.4524124   439061 
 2690000   0.96678936   -3.4303512   -3.4303512   -1.9801704   0.06177135   -3.4303512    1.4501807   439061 
 2691000   0.96852341   -3.4329448   -3.4329448    -1.980163  0.057119966   -3.4329448    1.4527818   439061 
 2692000   0.96838908   -3.4335928   -3.4335928   -1.9810124  0.062733862   -3.4335928    1.4525803   439061 
 2693000   0.96826135   -3.4348159   -3.4348159   -1.9824272  0.062098359   -3.4348159    1.4523887   439061 
 2694000   0.96764974   -3.4350417   -3.4350417   -1.9835704  0.059297208   -3.4350417    1.4514713   439061 
 2695000   0.96787749    -3.436336    -3.436336   -1.9845231  0.056190572    -3.436336    1.4518129   439061 
 2696000   0.96600002   -3.4338947   -3.4338947    -1.984898  0.060591602   -3.4338947    1.4489967   439061 
 2697000   0.96804695   -3.4368643   -3.4368643   -1.9847972  0.057785638   -3.4368643    1.4520671   439061 
 2698000   0.96702769   -3.4353647   -3.4353647   -1.9848265  0.062534766   -3.4353647    1.4505382   439061 
 2699000   0.96698991   -3.4370675   -3.4370675    -1.986586  0.058852748   -3.4370675    1.4504816   439061 
 2700000   0.96788484   -3.4383182   -3.4383182   -1.9864943  0.055684433   -3.4383182     1.451824   439061 
 2701000   0.96672123   -3.4370395   -3.4370395    -1.986961  0.057460556   -3.4370395    1.4500785   439061 
 2702000   0.96600551   -3.4353266   -3.4353266   -1.9863216  0.062287445   -3.4353266     1.449005   439061 
 2703000   0.96781654   -3.4370395   -3.4370395    -1.985318  0.063264169   -3.4370395    1.4517215   439061 
 2704000   0.96662664   -3.4369315   -3.4369315   -1.9869948  0.057587884   -3.4369315    1.4499367   439061 
 2705000   0.96809251   -3.4396986   -3.4396986   -1.9875631  0.059491954   -3.4396986    1.4521355   439061 
 2706000   0.96890276   -3.4389326   -3.4389326   -1.9855817   0.06134346   -3.4389326    1.4533508   439061 
 2707000    0.9691845   -3.4407786   -3.4407786   -1.9870051  0.060250591   -3.4407786    1.4537734   439061 
 2708000   0.96859417   -3.4404698   -3.4404698   -1.9875819  0.058384498   -3.4404698     1.452888   439061 
 2709000   0.96668004   -3.4374574   -3.4374574   -1.9874407  0.064601218   -3.4374574    1.4500168   439061 
 2710000   0.96811248   -3.4394854   -3.4394854     -1.98732  0.059414799   -3.4394854    1.4521654   439061 
 2711000   0.96857116   -3.4396741   -3.4396741   -1.9868206  0.056848369   -3.4396741    1.4528534   439061 
 2712000   0.96694931   -3.4379747   -3.4379747   -1.9875541    0.0617656   -3.4379747    1.4504207   439061 
 2713000   0.96544268   -3.4373005   -3.4373005   -1.9891398  0.058361737   -3.4373005    1.4481607   439061 
 2714000   0.96550892   -3.4364198   -3.4364198   -1.9881597  0.055530433   -3.4364198    1.4482601   439061 
 2715000   0.96602456   -3.4366495   -3.4366495    -1.987616  0.054710776   -3.4366495    1.4490335   439061 
 2716000   0.96663202   -3.4384483   -3.4384483   -1.9885036  0.056528892   -3.4384483    1.4499447   439061 
 2717000   0.96793951   -3.4393214   -3.4393214   -1.9874155  0.055566974   -3.4393214     1.451906   439061 
 2718000    0.9669667     -3.43848     -3.43848   -1.9880333  0.054136013     -3.43848    1.4504467   439061 
 2719000   0.96623649   -3.4369144   -3.4369144   -1.9875629  0.061138724   -3.4369144    1.4493514   439061 
 2720000   0.96686612   -3.4394155   -3.4394155   -1.9891197  0.056654394   -3.4394155    1.4502959   439061 
 2721000   0.96713026   -3.4367524   -3.4367524   -1.9860603  0.064208206   -3.4367524    1.4506921   439061 
 2722000   0.96785825   -3.4372512   -3.4372512   -1.9854671  0.062327455   -3.4372512    1.4517841   439061 
 2723000   0.96793206   -3.4383877   -3.4383877   -1.9864929  0.058268417   -3.4383877    1.4518948   439061 
 2724000   0.96734571    -3.437266    -3.437266   -1.9862507  0.060257571    -3.437266    1.4510153   439061 
 2725000   0.96677216   -3.4364208   -3.4364208   -1.9862658  0.060482868   -3.4364208    1.4501549   439061 
 2726000   0.96807353   -3.4377679   -3.4377679    -1.985661  0.055326428   -3.4377679     1.452107   439061 
 2727000   0.96933229    -3.440905    -3.440905   -1.9869099  0.056161366    -3.440905    1.4539951   439061 
 2728000   0.96723828   -3.4373047   -3.4373047   -1.9864506  0.060017435   -3.4373047    1.4508541   439061 
 2729000   0.96551332   -3.4356144   -3.4356144   -1.9873478  0.061613226   -3.4356144    1.4482667   439061 
 2730000   0.96459659   -3.4365363   -3.4365363   -1.9896447  0.057467221   -3.4365363    1.4468916   439061 
 2731000    0.9660239   -3.4375233   -3.4375233   -1.9884907  0.051724024   -3.4375233    1.4490326   439061 
 2732000    0.9650788   -3.4354064   -3.4354064   -1.9877915  0.056669819   -3.4354064    1.4476149   439061 
 2733000   0.96498836   -3.4351006   -3.4351006   -1.9876213  0.054420605   -3.4351006    1.4474792   439061 
 2734000   0.96584568   -3.4363544   -3.4363544   -1.9875892  0.053554015   -3.4363544    1.4487652   439061 
 2735000   0.96777383     -3.43904     -3.43904   -1.9873826  0.053276578     -3.43904    1.4516574   439061 
 2736000   0.96605982   -3.4365637   -3.4365637   -1.9874773  0.053730537   -3.4365637    1.4490864   439061 
 2737000   0.96504152   -3.4350251   -3.4350251   -1.9874661  0.058157315   -3.4350251     1.447559   439061 
 2738000   0.96770049   -3.4378008   -3.4378008   -1.9862533  0.055679944   -3.4378008    1.4515474   439061 
 2739000   0.96661447   -3.4373132   -3.4373132   -1.9873948  0.057696277   -3.4373132    1.4499184   439061 
 2740000   0.96695029   -3.4376191   -3.4376191   -1.9871969  0.055966244   -3.4376191    1.4504221   439061 
 2741000   0.96768887   -3.4380432   -3.4380432   -1.9865132  0.055720145   -3.4380432      1.45153   439061 
 2742000   0.96653853   -3.4363123   -3.4363123   -1.9865078  0.059654001   -3.4363123    1.4498045   439061 
 2743000    0.9670711   -3.4370107   -3.4370107   -1.9864073  0.054973378   -3.4370107    1.4506033   439061 
 2744000    0.9664252   -3.4378697   -3.4378697   -1.9882352   0.05859118   -3.4378697    1.4496345   439061 
 2745000   0.96535555   -3.4368162   -3.4368162   -1.9887862  0.057577194   -3.4368162      1.44803   439061 
 2746000   0.96641715   -3.4397298   -3.4397298   -1.9901074  0.055074973   -3.4397298    1.4496224   439061 
 2747000   0.96565443   -3.4382065   -3.4382065   -1.9897282  0.053686599   -3.4382065    1.4484783   439061 
 2748000   0.96533664   -3.4385639   -3.4385639   -1.9905622  0.053674861   -3.4385639    1.4480017   439061 
 2749000   0.96533007   -3.4390844   -3.4390844   -1.9910926    0.0555351   -3.4390844    1.4479918   439061 
 2750000   0.96736123   -3.4400219   -3.4400219   -1.9889833  0.058122544   -3.4400219    1.4510385   439061 
 2751000   0.96774961   -3.4399549   -3.4399549   -1.9883338  0.061659766   -3.4399549    1.4516211   439061 
 2752000   0.96944518    -3.443437    -3.443437   -1.9892725   0.05704978    -3.443437    1.4541645   439061 
 2753000   0.96900436    -3.442256    -3.442256   -1.9887528   0.05943229    -3.442256    1.4535032   439061 
 2754000   0.96764871   -3.4402772   -3.4402772   -1.9888074  0.060441613   -3.4402772    1.4514698   439061 
 2755000   0.96839683   -3.4422987   -3.4422987   -1.9897068  0.058027233   -3.4422987    1.4525919   439061 
 2756000   0.96732073   -3.4408798   -3.4408798    -1.989902  0.057350107   -3.4408798    1.4509778   439061 
 2757000   0.96643637   -3.4416544   -3.4416544   -1.9920032   0.05950065   -3.4416544    1.4496512   439061 
 2758000   0.96565083   -3.4413462   -3.4413462   -1.9928733  0.058036172   -3.4413462    1.4484729   439061 
 2759000   0.96654329   -3.4425609   -3.4425609   -1.9927493  0.058949352   -3.4425609    1.4498116   439061 
 2760000   0.96819146   -3.4443251   -3.4443251   -1.9920412  0.058082434   -3.4443251    1.4522839   439061 
 2761000   0.96554874   -3.4414498   -3.4414498     -1.99313  0.059204471   -3.4414498    1.4483198   439061 
 2762000   0.96590507   -3.4414178   -3.4414178   -1.9925635  0.063219674   -3.4414178    1.4488543   439061 
 2763000    0.9668893   -3.4425918   -3.4425918   -1.9922611  0.057103158   -3.4425918    1.4503306   439061 
 2764000   0.96674644   -3.4414067   -3.4414067   -1.9912903  0.061075755   -3.4414067    1.4501164   439061 
 2765000   0.96735944   -3.4426389   -3.4426389   -1.9916031  0.054946362   -3.4426389    1.4510358   439061 
 2766000   0.96580704   -3.4405303   -3.4405303    -1.991823  0.059562548   -3.4405303    1.4487073   439061 
 2767000   0.96687732   -3.4421894   -3.4421894   -1.9918768  0.051816386   -3.4421894    1.4503127   439061 
 2768000   0.96635636   -3.4418773   -3.4418773    -1.992346  0.053759323   -3.4418773    1.4495312   439061 
 2769000   0.96668598   -3.4411246   -3.4411246   -1.9910989  0.058074132   -3.4411246    1.4500257   439061 
 2770000   0.96696806   -3.4431946   -3.4431946   -1.9927458  0.062093172   -3.4431946    1.4504488   439061 
 2771000   0.96730461   -3.4428111   -3.4428111   -1.9918575  0.058197675   -3.4428111    1.4509536   439061 
 2772000   0.96753656   -3.4430075   -3.4430075   -1.9917059  0.058642279   -3.4430075    1.4513015   439061 
 2773000   0.96758186    -3.442314    -3.442314   -1.9909445  0.058650514    -3.442314    1.4513695   439061 
 2774000   0.96693289   -3.4422691   -3.4422691   -1.9918731  0.058459635   -3.4422691     1.450396   439061 
 2775000   0.96569424   -3.4406139   -3.4406139   -1.9920758  0.053410876   -3.4406139    1.4485381   439061 
 2776000   0.96691349   -3.4439533   -3.4439533   -1.9935864   0.05604347   -3.4439533    1.4503669   439061 
 2777000   0.96710097   -3.4432045   -3.4432045   -1.9925564  0.059033263   -3.4432045    1.4506482   439061 
 2778000   0.96841746   -3.4454801   -3.4454801   -1.9928572  0.057727323   -3.4454801    1.4526229   439061 
 2779000   0.96757387   -3.4443631   -3.4443631   -1.9930056  0.057471541   -3.4443631    1.4513575   439061 
 2780000   0.96785678   -3.4455002   -3.4455002   -1.9937183  0.057129888   -3.4455002    1.4517819   439061 
 2781000   0.96734721   -3.4427514   -3.4427514   -1.9917339  0.061872526   -3.4427514    1.4510175   439061 
 2782000   0.96867259   -3.4445865   -3.4445865   -1.9915809  0.061013402   -3.4445865    1.4530056   439061 
 2783000   0.96888662   -3.4446368   -3.4446368   -1.9913102  0.059205712   -3.4446368    1.4533266   439061 
 2784000   0.96650657   -3.4409449   -3.4409449   -1.9911883  0.063342037   -3.4409449    1.4497566   439061 
 2785000   0.96717702   -3.4404318   -3.4404318   -1.9896696  0.061987074   -3.4404318    1.4507622   439061 
 2786000   0.96700401   -3.4423772   -3.4423772   -1.9918745   0.05886723   -3.4423772    1.4505027   439061 
 2787000   0.96706878   -3.4431764   -3.4431764   -1.9925766    0.0544392   -3.4431764    1.4505999   439061 
 2788000   0.96617653   -3.4416375   -3.4416375    -1.992376  0.052376911   -3.4416375    1.4492615   439061 
 2789000   0.96509787   -3.4414641   -3.4414641   -1.9938206  0.053306349   -3.4414641    1.4476435   439061 
 2790000   0.96518589   -3.4413584   -3.4413584   -1.9935828  0.053445548   -3.4413584    1.4477755   439061 
 2791000   0.96393667   -3.4415156   -3.4415156   -1.9956138  0.051095882   -3.4415156    1.4459017   439061 
 2792000   0.96555414   -3.4437087   -3.4437087   -1.9953808  0.049600297   -3.4437087    1.4483279   439061 
 2793000   0.96357451   -3.4409329   -3.4409329   -1.9955744  0.054748653   -3.4409329    1.4453585   439061 
 2794000   0.96586456   -3.4431938   -3.4431938   -1.9944003  0.052559391   -3.4431938    1.4487935   439061 
 2795000   0.96441606   -3.4415401   -3.4415401   -1.9949193  0.052147466   -3.4415401    1.4466208   439061 
 2796000   0.96593818   -3.4428074   -3.4428074   -1.9939034  0.052769539   -3.4428074     1.448904   439061 
 2797000   0.96421808   -3.4405403   -3.4405403   -1.9942165  0.057050997   -3.4405403    1.4463238   439061 
 2798000   0.96579733   -3.4440757   -3.4440757    -1.995383  0.058042536   -3.4440757    1.4486927   439061 
 2799000   0.96732666   -3.4456259   -3.4456259   -1.9946392  0.056813094   -3.4456259    1.4509867   439061 
 2800000    0.9677209    -3.444919    -3.444919   -1.9933409  0.064203802    -3.444919     1.451578   439061 
 2801000   0.96813688   -3.4475459   -3.4475459   -1.9953439  0.060420563   -3.4475459     1.452202   439061 
 2802000   0.96733151   -3.4454905   -3.4454905   -1.9944965  0.064081819   -3.4454905     1.450994   439061 
 2803000   0.96735355   -3.4465786   -3.4465786   -1.9955516  0.057207646   -3.4465786     1.451027   439061 
 2804000   0.96747921   -3.4472167   -3.4472167   -1.9960012  0.060605203   -3.4472167    1.4512155   439061 
 2805000   0.96784297   -3.4482231   -3.4482231    -1.996462   0.05846226   -3.4482231    1.4517611   439061 
 2806000   0.96619432    -3.446248    -3.446248   -1.9969598  0.056655027    -3.446248    1.4492882   439061 
 2807000   0.96603825   -3.4463311   -3.4463311    -1.997277  0.060919393   -3.4463311    1.4490541   439061 
 2808000   0.96701818   -3.4481634   -3.4481634   -1.9976394  0.059840752   -3.4481634     1.450524   439061 
 2809000   0.96733514   -3.4477217   -3.4477217   -1.9967223    0.0596351   -3.4477217    1.4509994   439061 
 2810000   0.96594901   -3.4451441   -3.4451441   -1.9962239  0.063836993   -3.4451441    1.4489202   439061 
 2811000   0.96700695   -3.4465373   -3.4465373   -1.9960302  0.059898297   -3.4465373    1.4505071   439061 
 2812000   0.96662545   -3.4454142   -3.4454142   -1.9954793  0.056972323   -3.4454142    1.4499349   439061 
 2813000    0.9660357   -3.4441021   -3.4441021   -1.9950518  0.060892642   -3.4441021    1.4490502   439061 
 2814000   0.96634279   -3.4438212   -3.4438212   -1.9943103  0.058609121   -3.4438212    1.4495109   439061 
 2815000    0.9665473   -3.4439926   -3.4439926    -1.994175  0.059445347   -3.4439926    1.4498176   439061 
 2816000   0.96795522   -3.4466398   -3.4466398   -1.9947102  0.055857925   -3.4466398    1.4519295   439061 
 2817000   0.96617185   -3.4446634   -3.4446634   -1.9954089  0.058761314   -3.4446634    1.4492545   439061 
 2818000    0.9655169   -3.4418543   -3.4418543   -1.9935822  0.060775052   -3.4418543     1.448272   439061 
 2819000   0.96463173    -3.441589    -3.441589   -1.9946447   0.05634104    -3.441589    1.4469443   439061 
 2820000   0.96420224   -3.4407856   -3.4407856   -1.9944856  0.057094665   -3.4407856    1.4463001   439061 
 2821000   0.96337842   -3.4396264   -3.4396264   -1.9945621   0.05601748   -3.4396264    1.4450643   439061 
 2822000   0.96426333   -3.4402891   -3.4402891   -1.9938974  0.056277388   -3.4402891    1.4463917   439061 
 2823000   0.96364392   -3.4393303   -3.4393303   -1.9938677  0.056565032   -3.4393303    1.4454626   439061 
 2824000    0.9650454   -3.4413208   -3.4413208    -1.993756  0.054825744   -3.4413208    1.4475648   439061 
 2825000   0.96384468   -3.4401799   -3.4401799   -1.9944162  0.051947554   -3.4401799    1.4457637   439061 
 2826000   0.96458603   -3.4381193   -3.4381193   -1.9912436  0.060372347   -3.4381193    1.4468758   439061 
 2827000   0.96569103   -3.4400974   -3.4400974   -1.9915642  0.057968127   -3.4400974    1.4485332   439061 
 2828000   0.96659835   -3.4400335   -3.4400335   -1.9901392  0.051376308   -3.4400335    1.4498942   439061 
 2829000   0.96853229   -3.4427022   -3.4427022   -1.9899071  0.058253948   -3.4427022    1.4527951   439061 
 2830000   0.96652072   -3.4391572   -3.4391572   -1.9893794  0.061875552   -3.4391572    1.4497778   439061 
 2831000   0.96735296   -3.4404358   -3.4404358   -1.9894097  0.062569563   -3.4404358    1.4510261   439061 
 2832000   0.96781458   -3.4426835   -3.4426835   -1.9909649  0.056598516   -3.4426835    1.4517186   439061 
 2833000   0.96642288   -3.4414346   -3.4414346   -1.9918036  0.055640003   -3.4414346     1.449631   439061 
 2834000   0.96696671   -3.4423972   -3.4423972   -1.9919504  0.053692944   -3.4423972    1.4504468   439061 
 2835000   0.96651142   -3.4422074   -3.4422074   -1.9924436  0.054663179   -3.4422074    1.4497638   439061 
 2836000   0.96559373   -3.4421463   -3.4421463    -1.993759  0.055301717   -3.4421463    1.4483873   439061 
 2837000   0.96650446   -3.4433487   -3.4433487   -1.9935953  0.055668367   -3.4433487    1.4497534   439061 
 2838000   0.96535745   -3.4434142   -3.4434142   -1.9953813  0.052664054   -3.4434142    1.4480329   439061 
 2839000   0.96465589   -3.4430899   -3.4430899   -1.9961094  0.059543483   -3.4430899    1.4469805   439061 
 2840000   0.96526152   -3.4436141   -3.4436141   -1.9957251   0.05619655   -3.4436141     1.447889   439061 
 2841000   0.96574242   -3.4446315   -3.4446315   -1.9960212  0.052112001   -3.4446315    1.4486103   439061 
 2842000   0.96620715   -3.4452696   -3.4452696   -1.9959622  0.049143181   -3.4452696    1.4493074   439061 
 2843000   0.96650887   -3.4443401   -3.4443401   -1.9945801   0.05871271   -3.4443401      1.44976   439061 
 2844000   0.96776764   -3.4466992   -3.4466992    -1.995051  0.055248162   -3.4466992    1.4516482   439061 
 2845000   0.96778816   -3.4476173   -3.4476173   -1.9959383  0.056528872   -3.4476173    1.4516789   439061 
 2846000   0.96640798   -3.4463241   -3.4463241   -1.9967154  0.057743449   -3.4463241    1.4496087   439061 
 2847000   0.96568864   -3.4451786   -3.4451786   -1.9966489  0.055643219   -3.4451786    1.4485297   439061 
 2848000   0.96581685   -3.4472913   -3.4472913   -1.9985693  0.059282745   -3.4472913     1.448722   439061 
 2849000   0.96620007   -3.4475133   -3.4475133   -1.9982165  0.058276534   -3.4475133    1.4492968   439061 
 2850000   0.96581292    -3.448121    -3.448121   -1.9994049  0.059545863    -3.448121    1.4487161   439061 
 2851000   0.96428326   -3.4472876   -3.4472876    -2.000866  0.060027989   -3.4472876    1.4464216   439061 
 2852000   0.96598208   -3.4476844   -3.4476844   -1.9987146  0.057148537   -3.4476844    1.4489698   439061 
 2853000    0.9665425   -3.4491359   -3.4491359   -1.9993254  0.054392831   -3.4491359    1.4498104   439061 
 2854000    0.9654043   -3.4483014   -3.4483014   -2.0001982  0.060634063   -3.4483014    1.4481031   439061 
 2855000   0.96759827   -3.4518888   -3.4518888   -2.0004947  0.056605183   -3.4518888    1.4513941   439061 
 2856000   0.96593981   -3.4490733   -3.4490733   -2.0001669  0.061648693   -3.4490733    1.4489064   439061 
 2857000   0.96671859   -3.4503323   -3.4503323   -2.0002577  0.064480749   -3.4503323    1.4500746   439061 
 2858000   0.96507186   -3.4493584   -3.4493584   -2.0017539  0.058153726   -3.4493584    1.4476045   439061 
 2859000   0.96511354   -3.4496841   -3.4496841    -2.002017  0.058888957   -3.4496841     1.447667   439061 
 2860000   0.96543342   -3.4489431   -3.4489431   -2.0007963  0.063559881   -3.4489431    1.4481468   439061 
 2861000    0.9669224   -3.4499212   -3.4499212   -1.9995409   0.05961027   -3.4499212    1.4503803   439061 
 2862000   0.96616482   -3.4491846   -3.4491846   -1.9999407  0.059310266   -3.4491846    1.4492439   439061 
 2863000   0.96514882   -3.4487115   -3.4487115   -2.0009916  0.064109577   -3.4487115    1.4477199   439061 
 2864000   0.96615535   -3.4505461   -3.4505461   -2.0013163   0.06205854   -3.4505461    1.4492297   439061 
 2865000   0.96647197   -3.4518066   -3.4518066    -2.002102  0.060033308   -3.4518066    1.4497046   439061 
 2866000   0.96617136   -3.4500614   -3.4500614   -2.0008076  0.053943662   -3.4500614    1.4492537   439061 
 2867000   0.96486286   -3.4473823   -3.4473823   -2.0000913  0.056137846   -3.4473823     1.447291   439061 
 2868000   0.96586358   -3.4487471   -3.4487471   -1.9999551   0.05575551   -3.4487471    1.4487921   439061 
 2869000   0.96537666   -3.4482556   -3.4482556   -2.0001939  0.054034522   -3.4482556    1.4480617   439061 
 2870000   0.96512461   -3.4480692   -3.4480692   -2.0003856  0.048392546   -3.4480692    1.4476836   439061 
 2871000   0.96407606   -3.4468612   -3.4468612   -2.0007504   0.05937048   -3.4468612    1.4461108   439061 
 2872000   0.96319099   -3.4442083   -3.4442083   -1.9994251  0.055933655   -3.4442083    1.4447832   439061 
 2873000   0.96503669   -3.4470044   -3.4470044   -1.9994527  0.054192484   -3.4470044    1.4475517   439061 
 2874000    0.9666717   -3.4488462   -3.4488462    -1.998842  0.052769448   -3.4488462    1.4500042   439061 
 2875000   0.96635742   -3.4486788   -3.4486788    -1.999146  0.052962749   -3.4486788    1.4495328   439061 
 2876000   0.96642389   -3.4468763   -3.4468763   -1.9972437  0.056335298   -3.4468763    1.4496325   439061 
 2877000   0.96615086   -3.4469726   -3.4469726   -1.9977496  0.053636488   -3.4469726     1.449223   439061 
 2878000   0.96471166   -3.4447291   -3.4447291   -1.9976649  0.058220132   -3.4447291    1.4470642   439061 
 2879000     0.964466   -3.4464311   -3.4464311   -1.9997354  0.054688058   -3.4464311    1.4466957   439061 
 2880000   0.96671681   -3.4479418   -3.4479418   -1.9978698  0.052055103   -3.4479418    1.4500719   439061 
 2881000   0.96473166   -3.4469644   -3.4469644   -1.9998702  0.052226773   -3.4469644    1.4470942   439061 
 2882000   0.96491185   -3.4481343   -3.4481343   -2.0007699  0.051797442   -3.4481343    1.4473645   439061 
 2883000   0.96284833   -3.4460659   -3.4460659   -2.0017967  0.055324166   -3.4460659    1.4442692   439061 
 2884000   0.96560186   -3.4486549   -3.4486549   -2.0002554  0.057796587   -3.4486549    1.4483995   439061 
 2885000   0.96518645   -3.4479025   -3.4479025   -2.0001262  0.058755417   -3.4479025    1.4477764   439061 
 2886000   0.96531474   -3.4478315   -3.4478315   -1.9998627  0.054053862   -3.4478315    1.4479688   439061 
 2887000   0.96545898   -3.4498489   -3.4498489   -2.0016637    0.0542998   -3.4498489    1.4481852   439061 
 2888000   0.96580048   -3.4494131   -3.4494131   -2.0007157  0.057449314   -3.4494131    1.4486974   439061 
 2889000   0.96447091   -3.4472871   -3.4472871    -2.000584  0.059840359   -3.4472871    1.4467031   439061 
 2890000   0.96673856   -3.4494233   -3.4494233   -1.9993187  0.053160794   -3.4494233    1.4501045   439061 
 2891000   0.96715923   -3.4512109   -3.4512109   -2.0004753  0.056740798   -3.4512109    1.4507355   439061 
 2892000   0.96716882   -3.4508765   -3.4508765   -2.0001266  0.057516855   -3.4508765    1.4507499   439061 
 2893000   0.96682529   -3.4517923   -3.4517923   -2.0015577  0.056941884   -3.4517923    1.4502346   439061 
 2894000   0.96484853    -3.449693    -3.449693   -2.0024235  0.054371902    -3.449693    1.4472695   439061 
 2895000   0.96466123   -3.4502882   -3.4502882   -2.0032997  0.057318265   -3.4502882    1.4469886   439061 
 2896000   0.96487287   -3.4507192   -3.4507192   -2.0034132  0.058263994   -3.4507192     1.447306   439061 
 2897000   0.96510752   -3.4512192   -3.4512192   -2.0035612   0.05269769   -3.4512192     1.447658   439061 
 2898000   0.96406733   -3.4496322   -3.4496322   -2.0035345  0.057473904   -3.4496322    1.4460977   439061 
 2899000   0.96387657   -3.4498536   -3.4498536    -2.004042  0.056474468   -3.4498536    1.4458116   439061 
 2900000   0.96512542   -3.4522354   -3.4522354   -2.0045505  0.060270519   -3.4522354    1.4476848   439061 
 2901000   0.96485913   -3.4519765   -3.4519765   -2.0046911  0.051513127   -3.4519765    1.4472854   439061 
 2902000   0.96448038   -3.4498476   -3.4498476   -2.0031303  0.055764136   -3.4498476    1.4467173   439061 
 2903000     0.965668   -3.4516554   -3.4516554   -2.0031567  0.051852809   -3.4516554    1.4484987   439061 
 2904000   0.96608639   -3.4523942   -3.4523942    -2.003268  0.056898125   -3.4523942    1.4491263   439061 
 2905000   0.96413939    -3.450387    -3.450387   -2.0041812  0.054733547    -3.450387    1.4462058   439061 
 2906000    0.9639239   -3.4503053   -3.4503053   -2.0044227  0.056409596   -3.4503053    1.4458826   439061 
 2907000    0.9649339   -3.4514112   -3.4514112   -2.0040137  0.053177424   -3.4514112    1.4473976   439061 
 2908000   0.96389805   -3.4505648   -3.4505648    -2.004721  0.055141829   -3.4505648    1.4458438   439061 
 2909000   0.96401187   -3.4501365   -3.4501365    -2.004122  0.051946102   -3.4501365    1.4460145   439061 
 2910000    0.9640626   -3.4501891   -3.4501891   -2.0040985  0.053532657   -3.4501891    1.4460906   439061 
 2911000   0.96499286    -3.450778    -3.450778    -2.003292   0.05131827    -3.450778     1.447486   439061 
 2912000   0.96398284   -3.4506703   -3.4506703   -2.0046993  0.057682703   -3.4506703     1.445971   439061 
 2913000   0.96427987   -3.4518882   -3.4518882   -2.0054716  0.051518486   -3.4518882    1.4464165   439061 
 2914000   0.96458208   -3.4529715   -3.4529715   -2.0061016  0.055339677   -3.4529715    1.4468698   439061 
 2915000   0.96634171   -3.4532677   -3.4532677   -2.0037584  0.056975713   -3.4532677    1.4495093   439061 
 2916000   0.96410578   -3.4512539   -3.4512539   -2.0050985  0.057215176   -3.4512539    1.4461554   439061 
 2917000   0.96587911   -3.4522626   -3.4522626   -2.0034473  0.053464114   -3.4522626    1.4488154   439061 
 2918000   0.96468048   -3.4502313   -3.4502313   -2.0032139  0.063026491   -3.4502313    1.4470174   439061 
 2919000   0.96524448   -3.4523201   -3.4523201   -2.0044567  0.058863039   -3.4523201    1.4478634   439061 
 2920000   0.96559043   -3.4524619   -3.4524619   -2.0040795  0.057271484   -3.4524619    1.4483823   439061 
 2921000   0.96408254   -3.4508416   -3.4508416   -2.0047211  0.059860959   -3.4508416    1.4461205   439061 
 2922000   0.96441034    -3.451814    -3.451814   -2.0052018  0.058363306    -3.451814    1.4466122   439061 
 2923000   0.96568919   -3.4545078   -3.4545078   -2.0059773  0.055630076   -3.4545078    1.4485305   439061 
 2924000   0.96480386   -3.4520329   -3.4520329   -2.0048304  0.057565203   -3.4520329    1.4472025   439061 
 2925000   0.96445927   -3.4523374   -3.4523374   -2.0056518  0.053154426   -3.4523374    1.4466856   439061 
 2926000   0.96407225   -3.4516644   -3.4516644   -2.0055594  0.057311132   -3.4516644    1.4461051   439061 
 2927000   0.96483972   -3.4533421   -3.4533421   -2.0060858  0.051828038   -3.4533421    1.4472563   439061 
 2928000   0.96334957   -3.4522817   -3.4522817   -2.0072607  0.059114316   -3.4522817    1.4450211   439061 
 2929000   0.96483617   -3.4535582   -3.4535582   -2.0063073  0.058189144   -3.4535582     1.447251   439061 
 2930000   0.96422411   -3.4524544   -3.4524544   -2.0061215   0.05265844   -3.4524544    1.4463329   439061 
 2931000   0.96336778   -3.4507464   -3.4507464    -2.005698  0.053684201   -3.4507464    1.4450484   439061 
 2932000    0.9644258   -3.4524548   -3.4524548   -2.0058194  0.063086059   -3.4524548    1.4466354   439061 
 2933000   0.96361648   -3.4524636   -3.4524636   -2.0070422   0.05132041   -3.4524636    1.4454214   439061 
 2934000   0.96461559   -3.4522812   -3.4522812   -2.0053611  0.059545868   -3.4522812    1.4469201   439061 
 2935000   0.96543966   -3.4537175   -3.4537175   -2.0055613  0.054843791   -3.4537175    1.4481562   439061 
 2936000   0.96399837   -3.4528156   -3.4528156   -2.0068214  0.058346543   -3.4528156    1.4459943   439061 
 2937000   0.96372125   -3.4519377   -3.4519377   -2.0063592  0.054066452   -3.4519377    1.4455786   439061 
 2938000    0.9645933   -3.4530353   -3.4530353   -2.0061487  0.056435267   -3.4530353    1.4468867   439061 
 2939000   0.96448314   -3.4525156   -3.4525156   -2.0057942  0.055305894   -3.4525156    1.4467214   439061 
 2940000   0.96473419   -3.4540038   -3.4540038   -2.0069058  0.056623824   -3.4540038     1.447098   439061 
 2941000   0.96465713    -3.452834    -3.452834   -2.0058516  0.055460389    -3.452834    1.4469824   439061 
 2942000   0.96632983   -3.4548786   -3.4548786   -2.0053872  0.055227243   -3.4548786    1.4494914   439061 
 2943000   0.96602927   -3.4536354   -3.4536354   -2.0045948  0.057789161   -3.4536354    1.4490406   439061 
 2944000   0.96674287   -3.4552961   -3.4552961   -2.0051851  0.056604239   -3.4552961     1.450111   439061 
 2945000   0.96510734   -3.4533292   -3.4533292   -2.0056715   0.05576423   -3.4533292    1.4476577   439061 
 2946000   0.96503845   -3.4538467   -3.4538467   -2.0062923  0.054671857   -3.4538467    1.4475544   439061 
 2947000   0.96437978   -3.4524961   -3.4524961   -2.0059297  0.057646802   -3.4524961    1.4465664   439061 
 2948000   0.96386494   -3.4521036   -3.4521036   -2.0063094  0.051114924   -3.4521036    1.4457941   439061 
 2949000   0.96514344   -3.4523894   -3.4523894   -2.0046775  0.057373989   -3.4523894    1.4477119   439061 
 2950000   0.96548042   -3.4522223   -3.4522223    -2.004005  0.055287114   -3.4522223    1.4482173   439061 
 2951000   0.96412044   -3.4525994   -3.4525994    -2.006422  0.055203905   -3.4525994    1.4461774   439061 
 2952000   0.96414218   -3.4520714   -3.4520714   -2.0058614  0.054629995   -3.4520714      1.44621   439061 
 2953000   0.96408969   -3.4508453   -3.4508453   -2.0047141  0.056644918   -3.4508453    1.4461312   439061 
 2954000   0.96620586   -3.4544148   -3.4544148   -2.0051093   0.04845606   -3.4544148    1.4493055   439061 
 2955000   0.96566862   -3.4547737   -3.4547737   -2.0062741  0.056289619   -3.4547737    1.4484996   439061 
 2956000   0.96407847   -3.4535798   -3.4535798   -2.0074654  0.054777351   -3.4535798    1.4461144   439061 
 2957000   0.96427439   -3.4541323   -3.4541323    -2.007724  0.057621698   -3.4541323    1.4464083   439061 
 2958000   0.96379909   -3.4543301   -3.4543301   -2.0086347  0.050135396   -3.4543301    1.4456953   439061 
 2959000   0.96126532   -3.4522868   -3.4522868   -2.0103921  0.055419562   -3.4522868    1.4418947   439061 
 2960000   0.96339806   -3.4539594   -3.4539594   -2.0088656  0.052133943   -3.4539594    1.4450938   439061 
 2961000   0.96442541   -3.4554205   -3.4554205   -2.0087857   0.05273491   -3.4554205    1.4466348   439061 
 2962000   0.96368897   -3.4541286   -3.4541286   -2.0085985  0.056141295   -3.4541286    1.4455302   439061 
 2963000    0.9631715   -3.4531119   -3.4531119    -2.008358  0.059451986   -3.4531119     1.444754   439061 
 2964000   0.96187692   -3.4525412   -3.4525412   -2.0097291  0.058716766   -3.4525412    1.4428121   439061 
 2965000   0.96503849   -3.4558132   -3.4558132   -2.0082587  0.057065893   -3.4558132    1.4475544   439061 
 2966000   0.96553133   -3.4566734   -3.4566734   -2.0083797  0.058140812   -3.4566734    1.4482937   439061 
 2967000    0.9640038   -3.4550971   -3.4550971   -2.0090947  0.060248185   -3.4550971    1.4460024   439061 
 2968000   0.96434024    -3.456229    -3.456229    -2.009722  0.053516088    -3.456229    1.4465071   439061 
 2969000   0.96362729    -3.456629    -3.456629   -2.0111914  0.055637544    -3.456629    1.4454376   439061 
 2970000   0.96455847   -3.4571172   -3.4571172   -2.0102828  0.059143157   -3.4571172    1.4468344   439061 
 2971000   0.96704561   -3.4597552   -3.4597552   -2.0091901  0.060187496   -3.4597552    1.4505651   439061 
 2972000   0.96484324   -3.4567495   -3.4567495    -2.009488  0.065117379   -3.4567495    1.4472616   439061 
 2973000   0.96475863   -3.4575191   -3.4575191   -2.0103845  0.053625668   -3.4575191    1.4471346   439061 
 2974000   0.96512976    -3.458197    -3.458197   -2.0105057  0.061029297    -3.458197    1.4476913   439061 
 2975000   0.96554696   -3.4580628   -3.4580628   -2.0097456  0.055987231   -3.4580628    1.4483171   439061 
 2976000   0.96391266   -3.4560111   -3.4560111   -2.0101454  0.058967352   -3.4560111    1.4458657   439061 
 2977000   0.96375241   -3.4572649   -3.4572649   -2.0116396  0.057390002   -3.4572649    1.4456253   439061 
 2978000   0.96350601   -3.4581279   -3.4581279   -2.0128722  0.054841885   -3.4581279    1.4452557   439061 
 2979000   0.96491436   -3.4595864   -3.4595864   -2.0122182  0.052938746   -3.4595864    1.4473682   439061 
 2980000    0.9631231    -3.455742    -3.455742   -2.0110607  0.052483289    -3.455742    1.4446814   439061 
 2981000   0.96360885   -3.4549885   -3.4549885   -2.0095785  0.054185075   -3.4549885      1.44541   439061 
 2982000    0.9621552   -3.4544758   -3.4544758   -2.0112463  0.055868885   -3.4544758    1.4432295   439061 
 2983000   0.96231673   -3.4558684   -3.4558684   -2.0123966  0.055751339   -3.4558684    1.4434718   439061 
 2984000    0.9625586   -3.4549362   -3.4549362   -2.0111016   0.05192026   -3.4549362    1.4438346   439061 
 2985000   0.96353718   -3.4559103   -3.4559103   -2.0106079  0.052282457   -3.4559103    1.4453025   439061 
 2986000   0.96409928   -3.4552103   -3.4552103   -2.0090647  0.059981279   -3.4552103    1.4461456   439061 
 2987000   0.96524135   -3.4560361   -3.4560361   -2.0081774  0.057382972   -3.4560361    1.4478587   439061 
 2988000   0.96503405     -3.45614     -3.45614   -2.0085922   0.06322063     -3.45614    1.4475478   439061 
 2989000   0.96479004   -3.4543718   -3.4543718     -2.00719  0.053557631   -3.4543718    1.4471818   439061 
 2990000   0.96499332   -3.4564247   -3.4564247    -2.008938  0.056914056   -3.4564247    1.4474867   439061 
 2991000   0.96373925    -3.453902    -3.453902   -2.0082964  0.057539615    -3.453902    1.4456056   439061 
 2992000   0.96380285   -3.4540428   -3.4540428   -2.0083418  0.056590896   -3.4540428     1.445701   439061 
 2993000   0.96445516   -3.4570755   -3.4570755    -2.010396  0.054837609   -3.4570755    1.4466794   439061 
 2994000   0.96286248   -3.4550369   -3.4550369   -2.0107465  0.054261971   -3.4550369    1.4442904   439061 
 2995000    0.9641716    -3.456679    -3.456679   -2.0104249  0.054098627    -3.456679    1.4462541   439061 
 2996000   0.96392975   -3.4560071   -3.4560071   -2.0101158  0.054937796   -3.4560071    1.4458913   439061 
 2997000   0.96331742   -3.4546044   -3.4546044   -2.0096316  0.059401843   -3.4546044    1.4449728   439061 
 2998000   0.96487774   -3.4553116   -3.4553116   -2.0079983  0.054171665   -3.4553116    1.4473133   439061 
 2999000   0.96447711   -3.4558694   -3.4558694   -2.0091571  0.053077075   -3.4558694    1.4467124   439061 
 3000000   0.96596537   -3.4583054   -3.4583054   -2.0093606  0.058589626   -3.4583054    1.4489448   439061 
 3001000   0.96511538   -3.4572773   -3.4572773   -2.0096076  0.056280363   -3.4572773    1.4476698   439061 
 3002000   0.96433607   -3.4569484   -3.4569484   -2.0104476  0.057552026   -3.4569484    1.4465008   439061 
 3003000   0.96526102   -3.4579081   -3.4579081   -2.0100199  0.055389755   -3.4579081    1.4478882   439061 
 3004000   0.96592849   -3.4594884   -3.4594884    -2.010599  0.060423633   -3.4594884    1.4488894   439061 
 3005000   0.96436996   -3.4585693   -3.4585693   -2.0120177  0.049317281   -3.4585693    1.4465516   439061 
 3006000   0.96560959   -3.4602714   -3.4602714   -2.0118603  0.055732277   -3.4602714    1.4484111   439061 
 3007000   0.96491514    -3.458925    -3.458925   -2.0115556  0.058842216    -3.458925    1.4473694   439061 
 3008000   0.96608961    -3.461114    -3.461114   -2.0119829  0.058802791    -3.461114    1.4491311   439061 
 3009000   0.96486517   -3.4583717   -3.4583717   -2.0110773  0.058917275   -3.4583717    1.4472945   439061 
 3010000   0.96561851   -3.4599036   -3.4599036   -2.0114791  0.057010178   -3.4599036    1.4484245   439061 
 3011000   0.96580981   -3.4590175   -3.4590175   -2.0103061  0.057869307   -3.4590175    1.4487114   439061 
 3012000   0.96622941   -3.4599742   -3.4599742   -2.0106334  0.059092736   -3.4599742    1.4493408   439061 
 3013000   0.96603647   -3.4599831   -3.4599831   -2.0109317  0.059497387   -3.4599831    1.4490514   439061 
 3014000   0.96481294   -3.4585812   -3.4585812    -2.011365  0.063132286   -3.4585812    1.4472161   439061 
 3015000   0.96574428   -3.4618261   -3.4618261    -2.013213  0.058849966   -3.4618261    1.4486131   439061 
 3016000   0.96564958   -3.4596514   -3.4596514   -2.0111804  0.054715124   -3.4596514    1.4484711   439061 
 3017000   0.96517752   -3.4587315   -3.4587315   -2.0109686  0.055985003   -3.4587315     1.447763   439061 
 3018000   0.96262016   -3.4558702   -3.4558702   -2.0119432  0.057335687   -3.4558702     1.443927   439061 
 3019000   0.96435137   -3.4574449   -3.4574449   -2.0109211  0.053721122   -3.4574449    1.4465238   439061 
 3020000   0.96406618   -3.4569073   -3.4569073   -2.0108114  0.054674103   -3.4569073     1.446096   439061 
 3021000   0.96423956   -3.4575879   -3.4575879   -2.0112319  0.055096108   -3.4575879     1.446356   439061 
 3022000   0.96362489   -3.4563188   -3.4563188   -2.0108848  0.052651563   -3.4563188     1.445434   439061 
 3023000   0.96181029   -3.4535862   -3.4535862   -2.0108741  0.052229646   -3.4535862    1.4427122   439061 
 3024000   0.96184178   -3.4542013   -3.4542013   -2.0114419   0.05910051   -3.4542013    1.4427594   439061 
 3025000   0.96205463   -3.4562892   -3.4562892   -2.0132106  0.052801376   -3.4562892    1.4430787   439061 
 3026000   0.96293887   -3.4569281   -3.4569281   -2.0125231   0.05093378   -3.4569281     1.444405   439061 
 3027000   0.96227344   -3.4570681   -3.4570681   -2.0136613  0.050263535   -3.4570681    1.4434069   439061 
 3028000   0.96202625   -3.4572659   -3.4572659   -2.0142298  0.051937212   -3.4572659    1.4430361   439061 
 3029000    0.9619281   -3.4562199   -3.4562199    -2.013331  0.056892698   -3.4562199    1.4428889   439061 
 3030000   0.96418439   -3.4590773   -3.4590773    -2.012804     0.048885   -3.4590773    1.4462733   439061 
 3031000   0.96395199    -3.457921    -3.457921   -2.0119963  0.050028213    -3.457921    1.4459247   439061 
 3032000   0.96355415   -3.4582599   -3.4582599    -2.012932  0.052390883   -3.4582599    1.4453279   439061 
 3033000   0.96377302    -3.457695    -3.457695   -2.0120387  0.057389593    -3.457695    1.4456562   439061 
 3034000   0.96636557   -3.4617581   -3.4617581   -2.0122131  0.052307349   -3.4617581    1.4495451   439061 
 3035000   0.96619686   -3.4612009   -3.4612009   -2.0119089  0.059264134   -3.4612009     1.449292   439061 
 3036000   0.96673038    -3.462278    -3.462278   -2.0121858  0.058483979    -3.462278    1.4500923   439061 
 3037000   0.96421732   -3.4589169   -3.4589169   -2.0125942  0.061934415   -3.4589169    1.4463227   439061 
 3038000   0.96589835   -3.4604019   -3.4604019   -2.0115577  0.060691873   -3.4604019    1.4488442   439061 
 3039000   0.96531635   -3.4607886   -3.4607886   -2.0128174  0.058838907   -3.4607886    1.4479712   439061 
 3040000   0.96606173   -3.4630967   -3.4630967   -2.0140074  0.060286088   -3.4630967    1.4490893   439061 
 3041000   0.96455078   -3.4615123   -3.4615123   -2.0146894   0.05535779   -3.4615123    1.4468229   439061 
 3042000    0.9639218    -3.460232    -3.460232   -2.0143526  0.061918044    -3.460232    1.4458794   439061 
 3043000    0.9634882    -3.461628    -3.461628    -2.016399  0.052980623    -3.461628     1.445229   439061 
 3044000   0.96294668   -3.4604033   -3.4604033   -2.0159866  0.059466057   -3.4604033    1.4444167   439061 
 3045000   0.96342474   -3.4604833   -3.4604833   -2.0153495  0.058140058   -3.4604833    1.4451338   439061 
 3046000   0.96319846   -3.4614628   -3.4614628   -2.0166684  0.052838149   -3.4614628    1.4447944   439061 
 3047000   0.96184747   -3.4598726   -3.4598726   -2.0171046  0.054320905   -3.4598726    1.4427679   439061 
 3048000   0.96277717   -3.4597634   -3.4597634   -2.0156009  0.054842717   -3.4597634    1.4441625   439061 
 3049000   0.96329147   -3.4609974   -3.4609974   -2.0160635  0.052364201   -3.4609974    1.4449339   439061 
 3050000   0.96192068   -3.4594736   -3.4594736   -2.0165959  0.059280798   -3.4594736    1.4428777   439061 
 3051000   0.96267008   -3.4599034   -3.4599034   -2.0159015  0.053724391   -3.4599034    1.4440018   439061 
 3052000   0.96391472   -3.4617285   -3.4617285   -2.0158597  0.053653745   -3.4617285    1.4458688   439061 
 3053000   0.96402283   -3.4603619   -3.4603619   -2.0143309  0.057138104   -3.4603619     1.446031   439061 
 3054000   0.96311576   -3.4592293   -3.4592293    -2.014559  0.056456081   -3.4592293    1.4446703   439061 
 3055000   0.96466045   -3.4619019   -3.4619019   -2.0149145  0.053837343   -3.4619019    1.4469874   439061 
 3056000   0.96294406   -3.4594412   -3.4594412   -2.0150284  0.058003393   -3.4594412    1.4444128   439061 
 3057000   0.96340898   -3.4601945   -3.4601945   -2.0150843  0.061219376   -3.4601945    1.4451102   439061 
 3058000    0.9652006   -3.4616717   -3.4616717   -2.0138741   0.05631755   -3.4616717    1.4477976   439061 
 3059000   0.96433218   -3.4592627   -3.4592627   -2.0127677  0.058238999   -3.4592627     1.446495   439061 
 3060000   0.96383121   -3.4581226   -3.4581226    -2.012379  0.056076281   -3.4581226    1.4457435   439061 
 3061000   0.96365463    -3.459412    -3.459412   -2.0139333  0.056009407    -3.459412    1.4454787   439061 
 3062000   0.96365294   -3.4585087   -3.4585087   -2.0130326  0.057026227   -3.4585087    1.4454761   439061 
 3063000   0.96418005   -3.4610814   -3.4610814   -2.0148147  0.055412449   -3.4610814    1.4462668   439061 
 3064000    0.9629489    -3.457449    -3.457449   -2.0130289  0.056268331    -3.457449    1.4444201   439061 
 3065000   0.96317747   -3.4593607   -3.4593607   -2.0145978  0.054248594   -3.4593607    1.4447629   439061 
 3066000    0.9625003   -3.4573604   -3.4573604   -2.0136133  0.054848591   -3.4573604    1.4437472   439061 
 3067000   0.96296262   -3.4576596   -3.4576596   -2.0132189  0.049669893   -3.4576596    1.4444406   439061 
 3068000   0.96207677   -3.4573814   -3.4573814   -2.0142695  0.056524813   -3.4573814    1.4431119   439061 
 3069000   0.96162428   -3.4568956   -3.4568956   -2.0144625  0.053259936   -3.4568956    1.4424331   439061 
 3070000   0.96320199   -3.4590733   -3.4590733   -2.0142736  0.050061552   -3.4590733    1.4447997   439061 
 3071000    0.9629849   -3.4592666   -3.4592666   -2.0147926  0.055012858   -3.4592666    1.4444741   439061 
 3072000    0.9627938   -3.4585172   -3.4585172   -2.0143298  0.053650769   -3.4585172    1.4441874   439061 
 3073000   0.96340304   -3.4585403   -3.4585403    -2.013439  0.050836754   -3.4585403    1.4451013   439061 
 3074000    0.9647085   -3.4599779   -3.4599779   -2.0129184  0.054966954   -3.4599779    1.4470595   439061 
 3075000   0.96508862   -3.4622089   -3.4622089   -2.0145793  0.056380619   -3.4622089    1.4476296   439061 
 3076000   0.96571115   -3.4624996   -3.4624996   -2.0139362  0.056838792   -3.4624996    1.4485634   439061 
 3077000   0.96519082   -3.4627306   -3.4627306   -2.0149476  0.054385045   -3.4627306    1.4477829   439061 
 3078000   0.96444918   -3.4602878   -3.4602878   -2.0136173  0.059849846   -3.4602878    1.4466705   439061 
 3079000   0.96281126   -3.4583881   -3.4583881   -2.0141745  0.056824109   -3.4583881    1.4442136   439061 
 3080000   0.96423631   -3.4599296   -3.4599296   -2.0135784  0.052878043   -3.4599296    1.4463512   439061 
 3081000   0.96405529    -3.462225    -3.462225   -2.0161454  0.052788216    -3.462225    1.4460796   439061 
 3082000    0.9625165   -3.4614126   -3.4614126   -2.0176411  0.056917152   -3.4614126    1.4437715   439061 
 3083000   0.96312965   -3.4606966   -3.4606966   -2.0160054  0.056343504   -3.4606966    1.4446912   439061 
 3084000   0.96312181   -3.4613347   -3.4613347   -2.0166552  0.058963731   -3.4613347    1.4446794   439061 
 3085000   0.96204171   -3.4593698   -3.4593698   -2.0163105  0.057661396   -3.4593698    1.4430593   439061 
 3086000   0.96359844   -3.4620718   -3.4620718   -2.0166774  0.052113885   -3.4620718    1.4453944   439061 
 3087000   0.96493917   -3.4630882   -3.4630882   -2.0156828  0.052696282   -3.4630882    1.4474055   439061 
 3088000   0.96508245   -3.4626073   -3.4626073   -2.0149869   0.05964469   -3.4626073    1.4476204   439061 
 3089000   0.96444356   -3.4631944   -3.4631944   -2.0165324  0.056815379   -3.4631944     1.446662   439061 
 3090000   0.96312616   -3.4617555   -3.4617555   -2.0170696  0.052098441   -3.4617555     1.444686   439061 
 3091000    0.9637642   -3.4622136   -3.4622136   -2.0165706  0.056072295   -3.4622136     1.445643   439061 
 3092000   0.96480475    -3.463288    -3.463288   -2.0160842  0.056913706    -3.463288    1.4472038   439061 
 3093000   0.96250595   -3.4608605   -3.4608605   -2.0171048   0.05951237   -3.4608605    1.4437556   439061 
 3094000   0.96359189   -3.4623942   -3.4623942   -2.0170097  0.053895872   -3.4623942    1.4453845   439061 
 3095000   0.96180154   -3.4602536   -3.4602536   -2.0175546  0.053670626   -3.4602536     1.442699   439061 
 3096000    0.9627633   -3.4622307   -3.4622307    -2.018089  0.054671729   -3.4622307    1.4441417   439061 
 3097000   0.96382987   -3.4629696   -3.4629696   -2.0172281  0.054821712   -3.4629696    1.4457415   439061 
 3098000   0.96386863   -3.4619667   -3.4619667   -2.0161671  0.053649862   -3.4619667    1.4457997   439061 
 3099000   0.96258731   -3.4623617   -3.4623617   -2.0184841  0.053107524   -3.4623617    1.4438777   439061 
 3100000   0.96152956   -3.4610446   -3.4610446   -2.0187536  0.052173943   -3.4610446    1.4422911   439061 
 3101000   0.96160178   -3.4615725   -3.4615725   -2.0191731  0.053510629   -3.4615725    1.4423994   439061 
 3102000   0.96179376   -3.4600529   -3.4600529   -2.0173655  0.053766527   -3.4600529    1.4426874   439061 
 3103000   0.96234902   -3.4613846   -3.4613846   -2.0178644  0.050789445   -3.4613846    1.4435202   439061 
 3104000   0.96210537   -3.4610305   -3.4610305   -2.0178757  0.049617678   -3.4610305    1.4431548   439061 
 3105000   0.96105287   -3.4599695   -3.4599695   -2.0183935  0.053295837   -3.4599695     1.441576   439061 
 3106000   0.96372759   -3.4628739   -3.4628739   -2.0172858  0.050379884   -3.4628739    1.4455881   439061 
 3107000   0.96320653   -3.4611213   -3.4611213   -2.0163148  0.057606337   -3.4611213    1.4448065   439061 
 3108000   0.96357099   -3.4630523   -3.4630523   -2.0176991  0.057073954   -3.4630523    1.4453532   439061 
 3109000    0.9646436   -3.4635815   -3.4635815   -2.0166194  0.054797307   -3.4635815    1.4469621   439061 
 3110000   0.96653983   -3.4658892   -3.4658892   -2.0160828  0.051718695   -3.4658892    1.4498064   439061 
 3111000   0.96547286   -3.4644044   -3.4644044   -2.0161985  0.052451738   -3.4644044     1.448206   439061 
 3112000   0.96276186   -3.4617907   -3.4617907   -2.0176512  0.057939895   -3.4617907    1.4441395   439061 
 3113000   0.96358542   -3.4622205   -3.4622205   -2.0168456   0.05715385   -3.4622205    1.4453748   439061 
 3114000    0.9631627   -3.4619091   -3.4619091   -2.0171683  0.056462266   -3.4619091    1.4447408   439061 
 3115000   0.96293292    -3.464048    -3.464048   -2.0196519  0.053952643    -3.464048    1.4443961   439061 
 3116000   0.96233132   -3.4608274   -3.4608274   -2.0173337   0.05867776   -3.4608274    1.4434937   439061 
 3117000   0.96430692   -3.4651463   -3.4651463   -2.0186892  0.060646541   -3.4651463    1.4464571   439061 
 3118000    0.9621584   -3.4614335   -3.4614335   -2.0181992  0.061777516   -3.4614335    1.4432343   439061 
 3119000   0.96339877   -3.4615849   -3.4615849   -2.0164901   0.05501198   -3.4615849    1.4450949   439061 
 3120000   0.96379174   -3.4630307   -3.4630307   -2.0173464  0.056560765   -3.4630307    1.4456843   439061 
 3121000   0.96341815    -3.462632    -3.462632    -2.017508  0.056636365    -3.462632    1.4451239   439061 
 3122000   0.96166621   -3.4603322   -3.4603322   -2.0178362  0.057487438   -3.4603322     1.442496   439061 
 3123000   0.96325385   -3.4619051   -3.4619051   -2.0170276  0.055468693   -3.4619051    1.4448775   439061 
 3124000   0.96266353   -3.4624245   -3.4624245   -2.0184325  0.055800374   -3.4624245     1.443992   439061 
 3125000   0.96115516   -3.4618492   -3.4618492   -2.0201197  0.051514109   -3.4618492    1.4417295   439061 
 3126000   0.96045054   -3.4596052   -3.4596052   -2.0189327  0.056581801   -3.4596052    1.4406725   439061 
 3127000   0.96186676   -3.4615208   -3.4615208   -2.0187239  0.053531585   -3.4615208    1.4427968   439061 
 3128000    0.9620987     -3.46084     -3.46084   -2.0176952  0.052524164     -3.46084    1.4431448   439061 
 3129000   0.96202752   -3.4608811   -3.4608811   -2.0178431  0.055896563   -3.4608811     1.443038   439061 
 3130000   0.96300569   -3.4634986   -3.4634986   -2.0189934  0.050799135   -3.4634986    1.4445052   439061 
 3131000   0.96388183   -3.4641555   -3.4641555   -2.0183361  0.049083871   -3.4641555    1.4458195   439061 
 3132000   0.96248414   -3.4631276   -3.4631276   -2.0194047  0.058805615   -3.4631276    1.4437229   439061 
 3133000   0.96239578   -3.4640558   -3.4640558   -2.0204654  0.058093224   -3.4640558    1.4435904   439061 
 3134000   0.96426457   -3.4680626   -3.4680626    -2.021669  0.047485008   -3.4680626    1.4463936   439061 
 3135000   0.96253774   -3.4656213   -3.4656213    -2.021818  0.049196884   -3.4656213    1.4438033   439061 
 3136000   0.96240576   -3.4634029   -3.4634029   -2.0197975  0.052604438   -3.4634029    1.4436053   439061 
 3137000   0.96279218   -3.4640663   -3.4640663   -2.0198813  0.056752157   -3.4640663     1.444185   439061 
 3138000   0.96381445   -3.4658975   -3.4658975   -2.0201791  0.054462701   -3.4658975    1.4457184   439061 
 3139000    0.9634441   -3.4660285   -3.4660285   -2.0208657  0.057637225   -3.4660285    1.4451629   439061 
 3140000   0.96249417   -3.4660403   -3.4660403   -2.0223023  0.058849813   -3.4660403     1.443738   439061 
 3141000   0.96287331    -3.466549    -3.466549   -2.0222423  0.056474203    -3.466549    1.4443067   439061 
 3142000   0.96184721   -3.4657049   -3.4657049   -2.0229374  0.061492453   -3.4657049    1.4427675   439061 
 3143000   0.96396914   -3.4689835   -3.4689835   -2.0230331  0.053170248   -3.4689835    1.4459504   439061 
 3144000    0.9620738   -3.4667061   -3.4667061   -2.0235987  0.054088968   -3.4667061    1.4431074   439061 
 3145000   0.96249593   -3.4678721   -3.4678721   -2.0241315  0.053329109   -3.4678721    1.4437406   439061 
 3146000   0.96305787   -3.4672599   -3.4672599   -2.0226764  0.059274934   -3.4672599    1.4445835   439061 
 3147000   0.96242326   -3.4673884   -3.4673884   -2.0237568  0.052688755   -3.4673884    1.4436316   439061 
 3148000   0.96358568   -3.4688026   -3.4688026   -2.0234274  0.053204034   -3.4688026    1.4453752   439061 
 3149000   0.96395217   -3.4694473   -3.4694473   -2.0235223  0.052337999   -3.4694473     1.445925   439061 
 3150000   0.96356188   -3.4685087   -3.4685087   -2.0231691  0.057875377   -3.4685087    1.4453395   439061 
 3151000   0.96370871    -3.469337    -3.469337   -2.0237772   0.05468576    -3.469337    1.4455598   439061 
 3152000   0.96380126   -3.4699203   -3.4699203   -2.0242217  0.051184457   -3.4699203    1.4456986   439061 
 3153000   0.96203514   -3.4686479   -3.4686479   -2.0255985  0.058112607   -3.4686479    1.4430494   439061 
 3154000   0.96250916   -3.4692783   -3.4692783   -2.0255179  0.052408182   -3.4692783    1.4437604   439061 
 3155000   0.96282679   -3.4691887   -3.4691887   -2.0249518   0.05447349   -3.4691887    1.4442369   439061 
 3156000   0.96310316   -3.4692876   -3.4692876   -2.0246362  0.054279252   -3.4692876    1.4446515   439061 
 3157000   0.96106171   -3.4677195   -3.4677195   -2.0261302  0.053702486   -3.4677195    1.4415893   439061 
 3158000   0.96208064   -3.4688304   -3.4688304   -2.0257128  0.050574858   -3.4688304    1.4431177   439061 
 3159000   0.96194148   -3.4689333   -3.4689333   -2.0260244   0.05270983   -3.4689333    1.4429089   439061 
 3160000   0.96203813   -3.4690925   -3.4690925   -2.0260386  0.052608635   -3.4690925    1.4430539   439061 
 3161000   0.96149067   -3.4677005   -3.4677005   -2.0254678  0.054667725   -3.4677005    1.4422327   439061 
 3162000   0.96162246   -3.4679871   -3.4679871   -2.0255567  0.052093448   -3.4679871    1.4424304   439061 
 3163000   0.96110913   -3.4675664   -3.4675664    -2.025906  0.053761619   -3.4675664    1.4416604   439061 
 3164000   0.96091409    -3.466753    -3.466753   -2.0253852  0.058038554    -3.466753    1.4413679   439061 
 3165000   0.96123443   -3.4676663   -3.4676663   -2.0258179   0.05781997   -3.4676663    1.4418484   439061 
 3166000   0.96191898   -3.4677279   -3.4677279   -2.0248528  0.054342312   -3.4677279    1.4428752   439061 
 3167000   0.96174709   -3.4658787   -3.4658787   -2.0232614  0.061068815   -3.4658787    1.4426173   439061 
 3168000   0.96352674   -3.4685033   -3.4685033   -2.0232165   0.05720455   -3.4685033    1.4452868   439061 
 3169000   0.96257771   -3.4670308   -3.4670308   -2.0231675  0.058576972   -3.4670308    1.4438633   439061 
 3170000   0.96258439   -3.4663629   -3.4663629   -2.0224896  0.055496342   -3.4663629    1.4438733   439061 
 3171000   0.96233694   -3.4664511   -3.4664511    -2.022949  0.058788507   -3.4664511    1.4435021   439061 
 3172000   0.96360747   -3.4676713   -3.4676713   -2.0222634  0.052016932   -3.4676713    1.4454079   439061 
 3173000   0.96255612   -3.4670408   -3.4670408   -2.0232099  0.052968446   -3.4670408    1.4438309   439061 
 3174000   0.96156653   -3.4674541   -3.4674541   -2.0251076   0.05178847   -3.4674541    1.4423465   439061 
 3175000    0.9606715   -3.4655862   -3.4655862   -2.0245823  0.058628467   -3.4655862     1.441004   439061 
 3176000   0.96246354   -3.4688636   -3.4688636   -2.0251716   0.04936823   -3.4688636     1.443692   439061 
 3177000   0.96024381   -3.4653344   -3.4653344    -2.024972  0.052377248   -3.4653344    1.4403624   439061 
 3178000   0.95918845   -3.4655059   -3.4655059   -2.0267265  0.050744452   -3.4655059    1.4387794   439061 
 3179000   0.96147488   -3.4696157   -3.4696157   -2.0274067  0.049056632   -3.4696157     1.442209   439061 
 3180000   0.96169286   -3.4691843   -3.4691843   -2.0266483  0.049455478   -3.4691843     1.442536   439061 
 3181000   0.96046502   -3.4663696   -3.4663696   -2.0256754  0.049790998   -3.4663696    1.4406942   439061 
 3182000   0.96149486   -3.4683848   -3.4683848   -2.0261458  0.054350004   -3.4683848     1.442239   439061 
 3183000   0.96255891   -3.4707718   -3.4707718   -2.0269367  0.051434418   -3.4707718    1.4438351   439061 
 3184000   0.96055412    -3.468005    -3.468005   -2.0271771  0.056921066    -3.468005    1.4408279   439061 
 3185000   0.96240865   -3.4709432   -3.4709432   -2.0273335  0.053851556   -3.4709432    1.4436097   439061 
 3186000   0.96145382   -3.4686294   -3.4686294   -2.0264519  0.057633266   -3.4686294    1.4421774   439061 
 3187000   0.96295998   -3.4698172   -3.4698172   -2.0253805  0.056105952   -3.4698172    1.4444367   439061 
 3188000    0.9632328   -3.4723199   -3.4723199    -2.027474  0.051075186   -3.4723199    1.4448459   439061 
 3189000   0.96142447   -3.4702105   -3.4702105   -2.0280771  0.057905769   -3.4702105    1.4421334   439061 
 3190000   0.96331553   -3.4726339   -3.4726339   -2.0276639  0.056481172   -3.4726339      1.44497   439061 
 3191000   0.96276981    -3.471571    -3.471571   -2.0274196  0.056275492    -3.471571    1.4441514   439061 
 3192000   0.96337952   -3.4722416   -3.4722416   -2.0271756  0.055033894   -3.4722416     1.445066   439061 
 3193000    0.9621083   -3.4715964   -3.4715964   -2.0284372  0.057877234   -3.4715964    1.4431592   439061 
 3194000   0.96170169   -3.4716755   -3.4716755   -2.0291262  0.057534806   -3.4716755    1.4425493   439061 
 3195000   0.96147306   -3.4719441   -3.4719441   -2.0297378  0.055797355   -3.4719441    1.4422063   439061 
 3196000   0.96177056   -3.4723276   -3.4723276   -2.0296751  0.052292405   -3.4723276    1.4426526   439061 
 3197000   0.95990327   -3.4688904   -3.4688904   -2.0290388   0.05647903   -3.4688904    1.4398516   439061 
 3198000   0.95926637   -3.4685425   -3.4685425   -2.0296462  0.051015878   -3.4685425    1.4388963   439061 
 3199000   0.95912911   -3.4683685   -3.4683685   -2.0296781  0.046501449   -3.4683685    1.4386904   439061 
 3200000   0.95908437   -3.4670812   -3.4670812   -2.0284579  0.055824299   -3.4670812    1.4386233   439061 
 3201000   0.96043875   -3.4692111   -3.4692111   -2.0285562  0.053354851   -3.4692111    1.4406548   439061 
 3202000   0.96187178   -3.4709967   -3.4709967   -2.0281923  0.055508907   -3.4709967    1.4428044   439061 
 3203000   0.96045692   -3.4689573   -3.4689573   -2.0282752  0.055595314   -3.4689573    1.4406821   439061 
 3204000   0.96249477   -3.4704236   -3.4704236   -2.0266848   0.05130698   -3.4704236    1.4437389   439061 
 3205000   0.96025635   -3.4672801   -3.4672801   -2.0268989  0.054744256   -3.4672801    1.4403812   439061 
 3206000   0.96076803   -3.4682644   -3.4682644   -2.0271156  0.050273238   -3.4682644    1.4411488   439061 
 3207000   0.96251686   -3.4690976   -3.4690976   -2.0253256   0.05246104   -3.4690976     1.443772   439061 
 3208000   0.96164647   -3.4682973   -3.4682973   -2.0258309  0.053230885   -3.4682973    1.4424664   439061 
 3209000   0.96125429   -3.4684333   -3.4684333   -2.0265552  0.054427801   -3.4684333    1.4418782   439061 
 3210000   0.96082207   -3.4692148   -3.4692148    -2.027985  0.056425257   -3.4692148    1.4412298   439061 
 3211000   0.96174163   -3.4700143   -3.4700143   -2.0274052  0.054227609   -3.4700143    1.4426092   439061 
 3212000   0.96139083    -3.469498    -3.469498   -2.0274151  0.055801296    -3.469498     1.442083   439061 
 3213000   0.96074591   -3.4692942   -3.4692942   -2.0281786  0.057020258   -3.4692942    1.4411156   439061 
 3214000   0.96211904   -3.4712568   -3.4712568   -2.0280815   0.05697423   -3.4712568    1.4431753   439061 
 3215000   0.96256751     -3.47064     -3.47064    -2.026792  0.053476359     -3.47064     1.443848   439061 
 3216000   0.96211503   -3.4718268   -3.4718268   -2.0286576  0.051410784   -3.4718268    1.4431693   439061 
 3217000   0.96099067   -3.4689521   -3.4689521   -2.0274694  0.056625376   -3.4689521    1.4414827   439061 
 3218000   0.96146601   -3.4705622   -3.4705622   -2.0283665  0.055513014   -3.4705622    1.4421957   439061 
 3219000   0.96177726   -3.4697111   -3.4697111   -2.0270485  0.053660635   -3.4697111    1.4426626   439061 
 3220000   0.96151274   -3.4695893   -3.4695893   -2.0273235  0.053699671   -3.4695893    1.4422658   439061 
 3221000   0.96161202   -3.4679186   -3.4679186   -2.0255038  0.053694614   -3.4679186    1.4424147   439061 
 3222000     0.963609   -3.4696788   -3.4696788   -2.0242686  0.055625868   -3.4696788    1.4454102   439061 
 3223000   0.96256399   -3.4681024   -3.4681024   -2.0242597  0.052396415   -3.4681024    1.4438427   439061 
 3224000    0.9624587    -3.468928    -3.468928   -2.0252432  0.055864913    -3.468928    1.4436848   439061 
 3225000   0.96237718   -3.4690651   -3.4690651   -2.0255026  0.051943148   -3.4690651    1.4435625   439061 
 3226000   0.96325687   -3.4696246   -3.4696246   -2.0247426  0.052334668   -3.4696246     1.444882   439061 
 3227000   0.96139955   -3.4674665   -3.4674665   -2.0253704  0.055231336   -3.4674665     1.442096   439061 
 3228000   0.96198522   -3.4682845   -3.4682845     -2.02531  0.053091695   -3.4682845    1.4429745   439061 
 3229000   0.95978189   -3.4652201   -3.4652201   -2.0255505  0.049007576   -3.4652201    1.4396696   439061 
 3230000   0.95996965   -3.4665496   -3.4665496   -2.0265984  0.050147862   -3.4665496    1.4399512   439061 
 3231000   0.96066111   -3.4679847   -3.4679847   -2.0269964  0.052119531   -3.4679847    1.4409884   439061 
 3232000   0.95990265   -3.4657462   -3.4657462   -2.0258955  0.053439451   -3.4657462    1.4398507   439061 
 3233000   0.96053921   -3.4664399   -3.4664399   -2.0256344  0.051744773   -3.4664399    1.4408055   439061 
 3234000   0.96031919   -3.4663232   -3.4663232   -2.0258477  0.052210573   -3.4663232    1.4404755   439061 
 3235000   0.96276913   -3.4692447   -3.4692447   -2.0250943  0.055973643   -3.4692447    1.4441504   439061 
 3236000   0.96127107    -3.467357    -3.467357   -2.0254537  0.055512328    -3.467357    1.4419033   439061 
 3237000   0.96303192   -3.4683674   -3.4683674   -2.0238228  0.053401289   -3.4683674    1.4445446   439061 
 3238000    0.9642903   -3.4704966   -3.4704966   -2.0240644  0.053843071   -3.4704966    1.4464321   439061 
 3239000   0.96245902   -3.4690147   -3.4690147   -2.0253295  0.050689335   -3.4690147    1.4436852   439061 
 3240000   0.96296665   -3.4691875   -3.4691875   -2.0247408  0.050905579   -3.4691875    1.4444467   439061 
 3241000   0.96174421   -3.4680306   -3.4680306   -2.0254176  0.052484542   -3.4680306     1.442613   439061 
 3242000   0.96110341   -3.4664582   -3.4664582   -2.0248063  0.052995648   -3.4664582    1.4416518   439061 
 3243000    0.9618923   -3.4679289   -3.4679289   -2.0250938  0.052324843   -3.4679289    1.4428352   439061 
 3244000   0.96234488   -3.4680483   -3.4680483   -2.0245342  0.056954024   -3.4680483     1.443514   439061 
 3245000   0.96312994    -3.470343    -3.470343   -2.0256514   0.05660098    -3.470343    1.4446916   439061 
 3246000    0.9622268   -3.4697465   -3.4697465   -2.0264096  0.057999046   -3.4697465    1.4433369   439061 
 3247000   0.96139766   -3.4694605   -3.4694605   -2.0273673  0.053521754   -3.4694605    1.4420932   439061 
 3248000   0.96284548    -3.470713    -3.470713   -2.0264481  0.054777345    -3.470713    1.4442649   439061 
 3249000   0.96178961   -3.4699384   -3.4699384   -2.0272573  0.056512924   -3.4699384    1.4426811   439061 
 3250000   0.96144932    -3.470314    -3.470314   -2.0281433  0.052326779    -3.470314    1.4421707   439061 
 3251000   0.96097674   -3.4696147   -3.4696147   -2.0281529  0.054054807   -3.4696147    1.4414618   439061 
 3252000    0.9602269   -3.4690152   -3.4690152   -2.0286781  0.054319715   -3.4690152    1.4403371   439061 
 3253000   0.96104229   -3.4701215   -3.4701215   -2.0285613  0.052668902   -3.4701215    1.4415601   439061 
 3254000   0.95948966    -3.467514    -3.467514   -2.0282828  0.049556433    -3.467514    1.4392312   439061 
 3255000    0.9607672   -3.4688206   -3.4688206   -2.0276731  0.057304394   -3.4688206    1.4411475   439061 
 3256000   0.96169516   -3.4710184   -3.4710184    -2.028479   0.05375625   -3.4710184    1.4425395   439061 
 3257000     0.961604   -3.4707543   -3.4707543   -2.0283516  0.061705415   -3.4707543    1.4424027   439061 
 3258000   0.96303521   -3.4716035   -3.4716035    -2.027054   0.05085388   -3.4716035    1.4445495   439061 
 3259000    0.9624039   -3.4720372   -3.4720372   -2.0284346  0.057127057   -3.4720372    1.4436026   439061 
 3260000   0.96265431   -3.4717907   -3.4717907   -2.0278125  0.052166885   -3.4717907    1.4439782   439061 
 3261000   0.96091315    -3.470912    -3.470912   -2.0295456  0.058413592    -3.470912    1.4413664   439061 
 3262000   0.96038071    -3.471377    -3.471377   -2.0308092  0.057280595    -3.471377    1.4405678   439061 
 3263000   0.96097526   -3.4722187   -3.4722187   -2.0307591  0.056435651   -3.4722187    1.4414596   439061 
 3264000   0.96182549   -3.4730961   -3.4730961   -2.0303611  0.053710445   -3.4730961     1.442735   439061 
 3265000   0.96037235    -3.471289    -3.471289   -2.0307338  0.056614767    -3.471289    1.4405552   439061 
 3266000   0.96110396   -3.4735912   -3.4735912   -2.0319386  0.049441722   -3.4735912    1.4416527   439061 
 3267000   0.96217649   -3.4750461   -3.4750461   -2.0317846   0.04817754   -3.4750461    1.4432614   439061 
 3268000   0.96253236   -3.4750735   -3.4750735   -2.0312783   0.05565908   -3.4750735    1.4437952   439061 
 3269000   0.96324527   -3.4751836   -3.4751836    -2.030319  0.060007607   -3.4751836    1.4448646   439061 
 3270000   0.96353254   -3.4755528   -3.4755528   -2.0302572  0.056716904   -3.4755528    1.4452955   439061 
 3271000    0.9632114   -3.4738295   -3.4738295   -2.0290157  0.056310545   -3.4738295    1.4448138   439061 
 3272000   0.96052923   -3.4698981   -3.4698981   -2.0291076  0.059945853   -3.4698981    1.4407906   439061 
 3273000    0.9623006   -3.4736949   -3.4736949   -2.0302473  0.049949865   -3.4736949    1.4434476   439061 
 3274000   0.96235795   -3.4734132   -3.4734132   -2.0298796  0.052231906   -3.4734132    1.4435336   439061 
 3275000   0.96094121   -3.4723014   -3.4723014   -2.0308928  0.053377778   -3.4723014    1.4414085   439061 
 3276000   0.96079603   -3.4714005   -3.4714005   -2.0302098   0.05729556   -3.4714005    1.4411908   439061 
 3277000   0.96174212    -3.472536    -3.472536   -2.0299261  0.053904348    -3.472536    1.4426099   439061 
 3278000   0.96261389   -3.4733258   -3.4733258   -2.0294082  0.048926855   -3.4733258    1.4439175   439061 
 3279000   0.96135193   -3.4709782   -3.4709782   -2.0289536  0.055505078   -3.4709782    1.4420246   439061 
 3280000   0.96189923   -3.4706676   -3.4706676   -2.0278221   0.05521609   -3.4706676    1.4428456   439061 
 3281000   0.96097378   -3.4705936   -3.4705936   -2.0291362  0.054828752   -3.4705936    1.4414574   439061 
 3282000   0.96185068    -3.471346    -3.471346   -2.0285732  0.052099918    -3.471346    1.4427727   439061 
 3283000   0.96291748   -3.4727557   -3.4727557   -2.0283828  0.052843642   -3.4727557    1.4443729   439061 
 3284000    0.9614489   -3.4712829   -3.4712829   -2.0291128  0.052075731   -3.4712829    1.4421701   439061 
 3285000   0.96141782   -3.4715748   -3.4715748   -2.0294514  0.051845862   -3.4715748    1.4421234   439061 
 3286000   0.96104375   -3.4706994   -3.4706994   -2.0291371  0.053304606   -3.4706994    1.4415623   439061 
 3287000   0.96020842   -3.4679407   -3.4679407   -2.0276314  0.056754607   -3.4679407    1.4403094   439061 
 3288000   0.96131848   -3.4698636   -3.4698636   -2.0278891  0.051409491   -3.4698636    1.4419744   439061 
 3289000   0.96045964   -3.4694308   -3.4694308   -2.0287446  0.052189146   -3.4694308    1.4406862   439061 
 3290000    0.9615565    -3.472317    -3.472317   -2.0299855  0.051375583    -3.472317    1.4423315   439061 
 3291000   0.96243213   -3.4733106   -3.4733106   -2.0296657  0.050677175   -3.4733106    1.4436449   439061 
 3292000   0.96203478   -3.4738637   -3.4738637   -2.0308148  0.048935782   -3.4738637    1.4430489   439061 
 3293000   0.96141573   -3.4731674   -3.4731674   -2.0310471  0.050447935   -3.4731674    1.4421203   439061 
 3294000   0.95966113    -3.468733    -3.468733   -2.0292446  0.058616109    -3.468733    1.4394884   439061 
 3295000   0.95990855   -3.4713231   -3.4713231   -2.0314635  0.054577475   -3.4713231    1.4398595   439061 
 3296000   0.96004874   -3.4716674   -3.4716674   -2.0315976  0.052984486   -3.4716674    1.4400698   439061 
 3297000   0.96092634    -3.472867    -3.472867   -2.0314808  0.056997625    -3.472867    1.4413862   439061 
 3298000   0.96168382   -3.4741517   -3.4741517   -2.0316292  0.054673771   -3.4741517    1.4425224   439061 
 3299000   0.96214642   -3.4777571   -3.4777571   -2.0345407  0.048193051   -3.4777571    1.4432163   439061 
 3300000   0.96164373   -3.4758575   -3.4758575   -2.0333952  0.057000857   -3.4758575    1.4424623   439061 
 3301000   0.96131558   -3.4751483   -3.4751483   -2.0331782  0.054347805   -3.4751483    1.4419701   439061 
 3302000   0.96000709   -3.4744263   -3.4744263   -2.0344189  0.053309772   -3.4744263    1.4400074   439061 
 3303000    0.9601835   -3.4743342   -3.4743342   -2.0340623  0.057244598   -3.4743342     1.440272   439061 
 3304000   0.96013503   -3.4756991   -3.4756991   -2.0354998   0.05435529   -3.4756991    1.4401993   439061 
 3305000   0.95954714   -3.4765981   -3.4765981   -2.0372807  0.054361076   -3.4765981    1.4393174   439061 
 3306000   0.95966409   -3.4768387   -3.4768387   -2.0373458  0.051027689   -3.4768387    1.4394929   439061 
 3307000   0.95961666   -3.4761585   -3.4761585   -2.0367368  0.053824297   -3.4761585    1.4394217   439061 
 3308000   0.96091562   -3.4775603   -3.4775603   -2.0361901  0.052259685   -3.4775603    1.4413701   439061 
 3309000   0.96341382   -3.4802911   -3.4802911   -2.0351736   0.05038524   -3.4802911    1.4451174   439061 
 3310000   0.96045526    -3.475672    -3.475672   -2.0349924  0.057030752    -3.475672    1.4406796   439061 
 3311000   0.96220695    -3.477068    -3.477068   -2.0337608  0.058177825    -3.477068    1.4433071   439061 
 3312000   0.96281115   -3.4778509   -3.4778509   -2.0336375  0.063196216   -3.4778509    1.4442134   439061 
 3313000   0.96227425   -3.4775891   -3.4775891    -2.034181  0.058182479   -3.4775891    1.4434081   439061 
 3314000   0.96298307   -3.4795565   -3.4795565   -2.0350852  0.054223304   -3.4795565    1.4444713   439061 
 3315000   0.96108848   -3.4759956   -3.4759956   -2.0343661  0.058710345   -3.4759956    1.4416294   439061 
 3316000   0.96060567   -3.4739106   -3.4739106   -2.0330053  0.058955283   -3.4739106    1.4409052   439061 
 3317000   0.96293109   -3.4788959   -3.4788959   -2.0345025   0.05206201   -3.4788959    1.4443933   439061 
 3318000   0.96134465   -3.4774347   -3.4774347    -2.035421  0.052080737   -3.4774347    1.4420137   439061 
 3319000   0.95957771   -3.4746312   -3.4746312   -2.0352679  0.052129127   -3.4746312    1.4393633   439061 
 3320000   0.96011695   -3.4761762   -3.4761762   -2.0360041  0.051386145   -3.4761762    1.4401721   439061 
 3321000   0.95993633   -3.4748001   -3.4748001   -2.0348989  0.054106804   -3.4748001    1.4399012   439061 
 3322000   0.95816353   -3.4731517   -3.4731517   -2.0359096  0.050030558   -3.4731517     1.437242   439061 
 3323000   0.95931686   -3.4743372   -3.4743372   -2.0353652  0.050456004   -3.4743372     1.438972   439061 
 3324000   0.95837327   -3.4730267   -3.4730267   -2.0354701  0.051894237   -3.4730267    1.4375566   439061 
 3325000   0.95980539   -3.4737527   -3.4737527   -2.0340479  0.050770579   -3.4737527    1.4397048   439061 
 3326000   0.96096261   -3.4743391   -3.4743391   -2.0328984  0.056005923   -3.4743391    1.4414406   439061 
 3327000   0.96087917    -3.474159    -3.474159   -2.0328435  0.054115818    -3.474159    1.4413155   439061 
 3328000   0.96212508    -3.475062    -3.475062   -2.0318777  0.052946646    -3.475062    1.4431843   439061 
 3329000   0.96141258   -3.4744322   -3.4744322   -2.0323166  0.053865419   -3.4744322    1.4421156   439061 
 3330000   0.96132311    -3.474364    -3.474364   -2.0323827  0.054546736    -3.474364    1.4419814   439061 
 3331000   0.96145313   -3.4739483   -3.4739483   -2.0317719  0.053439945   -3.4739483    1.4421764   439061 
 3332000   0.96214101   -3.4760731   -3.4760731   -2.0328649  0.052454418   -3.4760731    1.4432082   439061 
 3333000   0.96047978   -3.4739658   -3.4739658   -2.0332494  0.048408524   -3.4739658    1.4407164   439061 
 3334000   0.96004098    -3.473474    -3.473474   -2.0334158  0.054526566    -3.473474    1.4400582   439061 
 3335000   0.96053811   -3.4752166   -3.4752166   -2.0344127  0.050470399   -3.4752166    1.4408039   439061 
 3336000    0.9605524   -3.4745483   -3.4745483    -2.033723  0.053299838   -3.4745483    1.4408253   439061 
 3337000   0.96066433   -3.4763406   -3.4763406   -2.0353474  0.049687512   -3.4763406    1.4409932   439061 
 3338000   0.95991848   -3.4751729   -3.4751729   -2.0352984  0.053030664   -3.4751729    1.4398744   439061 
 3339000   0.96172042    -3.477126    -3.477126   -2.0345486  0.049411373    -3.477126    1.4425773   439061 
 3340000   0.96125098   -3.4761269   -3.4761269   -2.0342537  0.052301453   -3.4761269    1.4418732   439061 
 3341000   0.96141955   -3.4770796   -3.4770796   -2.0349536   0.05379139   -3.4770796     1.442126   439061 
 3342000   0.96103456   -3.4772987   -3.4772987   -2.0357502  0.053648791   -3.4772987    1.4415486   439061 
 3343000   0.96016556   -3.4758461   -3.4758461    -2.035601  0.051426081   -3.4758461    1.4402451   439061 
 3344000   0.96019448   -3.4759589   -3.4759589   -2.0356705  0.053747682   -3.4759589    1.4402884   439061 
 3345000   0.95973879   -3.4738986   -3.4738986   -2.0342937  0.055693862   -3.4738986    1.4396049   439061 
 3346000   0.96129573   -3.4777799   -3.4777799   -2.0358396  0.055555882   -3.4777799    1.4419403   439061 
 3347000   0.95980355   -3.4771876   -3.4771876   -2.0374855  0.054764107   -3.4771876    1.4397021   439061 
 3348000   0.96104652   -3.4791986   -3.4791986   -2.0376321  0.055488895   -3.4791986    1.4415665   439061 
 3349000   0.96187127    -3.480025    -3.480025   -2.0372214   0.04971512    -3.480025    1.4428036   439061 
 3350000   0.96164754   -3.4786357   -3.4786357   -2.0361676   0.05614516   -3.4786357     1.442468   439061 
 3351000   0.96051988   -3.4768548   -3.4768548   -2.0360783  0.058692767   -3.4768548    1.4407765   439061 
 3352000   0.95958407   -3.4761475   -3.4761475   -2.0367747  0.055237745   -3.4761475    1.4393728   439061 
 3353000   0.96067396   -3.4770264   -3.4770264   -2.0360188  0.054173026   -3.4770264    1.4410077   439061 
 3354000   0.96149015   -3.4782859   -3.4782859   -2.0360539  0.060055361   -3.4782859    1.4422319   439061 
 3355000   0.96390325   -3.4821785   -3.4821785   -2.0363269  0.052804435   -3.4821785    1.4458516   439061 
 3356000   0.96108965   -3.4780762   -3.4780762    -2.036445  0.052314691   -3.4780762    1.4416312   439061 
 3357000   0.96188998   -3.4788492   -3.4788492   -2.0360175  0.053229454   -3.4788492    1.4428317   439061 
 3358000   0.96005582   -3.4780326   -3.4780326   -2.0379521  0.051013039   -3.4780326    1.4400805   439061 
 3359000   0.96062277   -3.4775411   -3.4775411   -2.0366102  0.053264213   -3.4775411    1.4409309   439061 
 3360000   0.95934437   -3.4758685   -3.4758685   -2.0368552  0.052287515   -3.4758685    1.4390133   439061 
 3361000   0.95991638   -3.4785435   -3.4785435   -2.0386722  0.052727283   -3.4785435    1.4398713   439061 
 3362000   0.95880382   -3.4771756   -3.4771756   -2.0389731  0.049294343   -3.4771756    1.4382025   439061 
 3363000   0.96011319   -3.4772613   -3.4772613   -2.0370948  0.054497581   -3.4772613    1.4401665   439061 
 3364000   0.96025939    -3.477449    -3.477449   -2.0370632  0.055752608    -3.477449    1.4403858   439061 
 3365000   0.96130245    -3.478929    -3.478929   -2.0369786  0.053358104    -3.478929    1.4419504   439061 
 3366000   0.96111355   -3.4772033   -3.4772033   -2.0355362  0.053614693   -3.4772033     1.441667   439061 
 3367000   0.96212336   -3.4790179   -3.4790179   -2.0358361  0.052661038   -3.4790179    1.4431818   439061 
 3368000   0.96233688   -3.4788176   -3.4788176   -2.0353156  0.054289508   -3.4788176     1.443502   439061 
 3369000   0.96057621   -3.4753959   -3.4753959   -2.0345349  0.059857029   -3.4753959     1.440861   439061 
 3370000   0.96247043    -3.478368    -3.478368   -2.0346656  0.053101758    -3.478368    1.4437024   439061 
 3371000   0.96096132   -3.4772655   -3.4772655   -2.0358268  0.052701445   -3.4772655    1.4414387   439061 
 3372000   0.96009805   -3.4775546   -3.4775546   -2.0374108  0.052198664   -3.4775546    1.4401438   439061 
 3373000   0.96076595   -3.4790209   -3.4790209   -2.0378752  0.050688012   -3.4790209    1.4411456   439061 
 3374000    0.9611147   -3.4782421   -3.4782421   -2.0365733  0.050442989   -3.4782421    1.4416688   439061 
 3375000   0.95950053   -3.4763756   -3.4763756   -2.0371281  0.051059445   -3.4763756    1.4392475   439061 
 3376000   0.95911475   -3.4751517   -3.4751517   -2.0364828  0.059789075   -3.4751517    1.4386688   439061 
 3377000   0.95937749   -3.4756884   -3.4756884   -2.0366255  0.051985753   -3.4756884     1.439063   439061 
 3378000   0.96114473   -3.4784344   -3.4784344   -2.0367206  0.048225751   -3.4784344    1.4417138   439061 
 3379000    0.9606808   -3.4783958   -3.4783958   -2.0373779   0.05224546   -3.4783958    1.4410179   439061 
 3380000   0.95948018    -3.476853    -3.476853    -2.037636  0.053951985    -3.476853     1.439217   439061 
 3381000   0.96093271   -3.4775056   -3.4775056   -2.0361099  0.055581198   -3.4775056    1.4413958   439061 
 3382000   0.95921013   -3.4767953   -3.4767953   -2.0379834  0.049322546   -3.4767953    1.4388119   439061 
 3383000   0.96008529   -3.4775776   -3.4775776    -2.037453  0.051463612   -3.4775776    1.4401246   439061 
 3384000   0.96028941   -3.4775383   -3.4775383   -2.0371075  0.056777171   -3.4775383    1.4404308   439061 
 3385000   0.95953029   -3.4774135   -3.4774135   -2.0381213  0.050085468   -3.4774135    1.4392922   439061 
 3386000   0.95963894   -3.4780919   -3.4780919   -2.0386367  0.053868347   -3.4780919    1.4394551   439061 
 3387000   0.95860081   -3.4784291   -3.4784291   -2.0405311  0.053236022   -3.4784291    1.4378979   439061 
 3388000   0.95878949   -3.4783873   -3.4783873   -2.0402064   0.05102794   -3.4783873     1.438181   439061 
 3389000   0.95935419   -3.4783349   -3.4783349   -2.0393069  0.057658516   -3.4783349     1.439028   439061 
 3390000   0.96142509   -3.4809916   -3.4809916   -2.0388572  0.053703387   -3.4809916    1.4421344   439061 
 3391000   0.96066161   -3.4795572   -3.4795572    -2.038568  0.052202532   -3.4795572    1.4409891   439061 
 3392000   0.96173157   -3.4809129   -3.4809129   -2.0383188  0.055342237   -3.4809129    1.4425941   439061 
 3393000   0.96030473   -3.4793304   -3.4793304   -2.0388766  0.057187218   -3.4793304    1.4404538   439061 
 3394000   0.96117777   -3.4813297   -3.4813297   -2.0395664  0.054288112   -3.4813297    1.4417634   439061 
 3395000   0.96171594   -3.4817809   -3.4817809   -2.0392103  0.054835863   -3.4817809    1.4425706   439061 
 3396000   0.96059305   -3.4800955   -3.4800955   -2.0392092  0.050319991   -3.4800955    1.4408863   439061 
 3397000   0.95995998   -3.4805196   -3.4805196   -2.0405829  0.053292752   -3.4805196    1.4399367   439061 
 3398000   0.95922791   -3.4801514   -3.4801514   -2.0413128   0.05168813   -3.4801514    1.4388386   439061 
 3399000    0.9593306   -3.4794728   -3.4794728   -2.0404802  0.053791884   -3.4794728    1.4389926   439061 
 3400000   0.96009823    -3.481833    -3.481833    -2.041689  0.052092165    -3.481833    1.4401441   439061 
 3401000   0.95935654   -3.4806006   -3.4806006   -2.0415691  0.052262843   -3.4806006    1.4390315   439061 
 3402000   0.96065818   -3.4823742   -3.4823742   -2.0413902  0.054002619   -3.4823742     1.440984   439061 
 3403000   0.96051584   -3.4822099   -3.4822099   -2.0414394  0.052751472   -3.4822099    1.4407705   439061 
 3404000   0.95983608   -3.4804879   -3.4804879   -2.0407371  0.052874405   -3.4804879    1.4397508   439061 
 3405000    0.9602849   -3.4809291   -3.4809291   -2.0405051  0.059804858   -3.4809291    1.4404241   439061 
 3406000   0.96066713   -3.4814161   -3.4814161   -2.0404187  0.063134659   -3.4814161    1.4409974   439061 
 3407000   0.96072459   -3.4813818   -3.4813818   -2.0402982  0.056711711   -3.4813818    1.4410836   439061 
 3408000   0.96191286   -3.4816165   -3.4816165   -2.0387505  0.054181518   -3.4816165     1.442866   439061 
 3409000   0.95904207   -3.4787804   -3.4787804   -2.0402206   0.05569904   -3.4787804    1.4385598   439061 
 3410000   0.96066476   -3.4819475   -3.4819475   -2.0409537  0.048315759   -3.4819475    1.4409939   439061 
 3411000    0.9590574   -3.4785227   -3.4785227   -2.0399399  0.052165892   -3.4785227    1.4385828   439061 
 3412000   0.96028146   -3.4816266   -3.4816266   -2.0412077  0.052603883   -3.4816266    1.4404189   439061 
 3413000   0.96136348   -3.4815655   -3.4815655   -2.0395236  0.055357072   -3.4815655    1.4420419   439061 
 3414000   0.96107351    -3.481246    -3.481246   -2.0396391  0.053548412    -3.481246     1.441607   439061 
 3415000   0.95957238   -3.4798319   -3.4798319   -2.0404766  0.052883239   -3.4798319    1.4393553   439061 
 3416000    0.9611243   -3.4808031   -3.4808031   -2.0391199  0.049578737   -3.4808031    1.4416832   439061 
 3417000   0.96117796   -3.4817594   -3.4817594   -2.0399958  0.053577082   -3.4817594    1.4417637   439061 
 3418000   0.96027512    -3.480845    -3.480845   -2.0404356  0.053549286    -3.480845    1.4404094   439061 
 3419000   0.96026314   -3.4800019   -3.4800019   -2.0396105  0.053996799   -3.4800019    1.4403914   439061 
 3420000   0.95977879   -3.4796204   -3.4796204   -2.0399555  0.052078249   -3.4796204    1.4396649   439061 
 3421000   0.95962828   -3.4803088   -3.4803088   -2.0408696  0.049691657   -3.4803088    1.4394391   439061 
 3422000   0.95918787   -3.4800068   -3.4800068   -2.0412283  0.052258747   -3.4800068    1.4387785   439061 
 3423000   0.95936183   -3.4818817   -3.4818817   -2.0428422  0.052463117   -3.4818817    1.4390395   439061 
 3424000   0.95861358   -3.4798829   -3.4798829   -2.0419658  0.055788631   -3.4798829    1.4379171   439061 
 3425000   0.95887042   -3.4805229   -3.4805229   -2.0422205  0.051643171   -3.4805229    1.4383023   439061 
 3426000   0.96031541     -3.48228     -3.48228   -2.0418102  0.052115004     -3.48228    1.4404698   439061 
 3427000   0.95893091   -3.4793224   -3.4793224   -2.0409293   0.05645659   -3.4793224    1.4383931   439061 
 3428000   0.96063254   -3.4835799   -3.4835799   -2.0426344  0.053588877   -3.4835799    1.4409455   439061 
 3429000   0.96170648   -3.4848383   -3.4848383   -2.0422819  0.052579257   -3.4848383    1.4425564   439061 
 3430000   0.96001157   -3.4828616   -3.4828616   -2.0428475  0.056069881   -3.4828616    1.4400141   439061 
 3431000   0.96028589   -3.4833789   -3.4833789   -2.0429533  0.055127595   -3.4833789    1.4404256   439061 
 3432000   0.95931558   -3.4830717   -3.4830717   -2.0441017  0.052245892   -3.4830717    1.4389701   439061 
 3433000   0.96000954   -3.4838948   -3.4838948   -2.0438837  0.054047716   -3.4838948     1.440011   439061 
 3434000   0.96100164   -3.4865938   -3.4865938   -2.0450946  0.053380468   -3.4865938    1.4414992   439061 
 3435000   0.96085933   -3.4861694   -3.4861694   -2.0448837  0.051376984   -3.4861694    1.4412857   439061 
 3436000   0.96113725   -3.4872518   -3.4872518   -2.0455492    0.0502792   -3.4872518    1.4417026   439061 
 3437000   0.95985098   -3.4852046   -3.4852046   -2.0454314  0.050867864   -3.4852046    1.4397732   439061 
 3438000   0.96049523   -3.4868755   -3.4868755    -2.046136  0.054643589   -3.4868755    1.4407396   439061 
 3439000   0.96093801   -3.4873042   -3.4873042   -2.0459005  0.059481409   -3.4873042    1.4414037   439061 
 3440000   0.96090104   -3.4874716   -3.4874716   -2.0461234  0.055733639   -3.4874716    1.4413483   439061 
 3441000   0.96146619   -3.4885919   -3.4885919   -2.0463959  0.057599971   -3.4885919     1.442196   439061 
 3442000   0.96158269   -3.4880225   -3.4880225   -2.0456518  0.059227528   -3.4880225    1.4423708   439061 
 3443000   0.95966194   -3.4849115   -3.4849115   -2.0454219  0.060034724   -3.4849115    1.4394896   439061 
 3444000   0.96129637   -3.4870781   -3.4870781   -2.0451368  0.058469091   -3.4870781    1.4419413   439061 
 3445000   0.96106054   -3.4865724   -3.4865724   -2.0449849  0.059345348   -3.4865724    1.4415875   439061 
 3446000   0.95995453   -3.4863567   -3.4863567   -2.0464282  0.053223101   -3.4863567    1.4399285   439061 
 3447000   0.95932208   -3.4869877   -3.4869877   -2.0480078  0.056474247   -3.4869877    1.4389798   439061 
 3448000   0.95874636   -3.4853108   -3.4853108   -2.0471946  0.056403694   -3.4853108    1.4381163   439061 
 3449000   0.95795587   -3.4837219   -3.4837219   -2.0467913  0.052228645   -3.4837219    1.4369305   439061 
 3450000   0.95864396    -3.483208    -3.483208   -2.0452454  0.052940219    -3.483208    1.4379627   439061 
 3451000   0.95798315   -3.4818434   -3.4818434   -2.0448719   0.05101864   -3.4818434    1.4369715   439061 
 3452000   0.95681378   -3.4807836   -3.4807836   -2.0455662  0.052923146   -3.4807836    1.4352174   439061 
 3453000   0.95886995   -3.4825789   -3.4825789   -2.0442773  0.052101835   -3.4825789    1.4383017   439061 
 3454000   0.95888501   -3.4819716   -3.4819716   -2.0436474  0.048713857   -3.4819716    1.4383242   439061 
 3455000   0.95887311   -3.4821549   -3.4821549   -2.0438485  0.050231417   -3.4821549    1.4383064   439061 
 3456000   0.95926022   -3.4828832   -3.4828832   -2.0439962  0.052442318   -3.4828832    1.4388871   439061 
 3457000    0.9583114   -3.4824715   -3.4824715   -2.0450076  0.048854421   -3.4824715    1.4374638   439061 
 3458000   0.95771002   -3.4805127   -3.4805127    -2.043951  0.049225393   -3.4805127    1.4365618   439061 
 3459000   0.95895677    -3.481864    -3.481864   -2.0434321  0.054561991    -3.481864    1.4384319   439061 
 3460000   0.95867092   -3.4814189   -3.4814189   -2.0434158  0.045787767   -3.4814189    1.4380031   439061 
 3461000   0.95837008   -3.4809278   -3.4809278   -2.0433759  0.053544538   -3.4809278    1.4375518   439061 
 3462000   0.95947546   -3.4815853   -3.4815853   -2.0423754  0.052250528   -3.4815853    1.4392099   439061 
 3463000   0.95861765   -3.4816347   -3.4816347   -2.0437115  0.050022584   -3.4816347    1.4379232   439061 
 3464000    0.9572289   -3.4812198   -3.4812198   -2.0453798  0.055770564   -3.4812198    1.4358401   439061 
 3465000   0.95952783   -3.4834835   -3.4834835    -2.044195  0.051344933   -3.4834835    1.4392885   439061 
 3466000    0.9603149   -3.4845499   -3.4845499   -2.0440808  0.053275653   -3.4845499    1.4404691   439061 
 3467000   0.96067336   -3.4841651   -3.4841651   -2.0431583     0.056798   -3.4841651    1.4410068   439061 
 3468000   0.95956959   -3.4814113   -3.4814113   -2.0420602  0.058232734   -3.4814113    1.4393511   439061 
 3469000   0.96002286   -3.4831199   -3.4831199   -2.0430889   0.05826404   -3.4831199     1.440031   439061 
 3470000   0.95982607   -3.4836768   -3.4836768    -2.043941  0.051002517   -3.4836768    1.4397358   439061 
 3471000   0.95882894   -3.4814034   -3.4814034   -2.0431633  0.055452669   -3.4814034    1.4382401   439061 
 3472000   0.96035462   -3.4843262   -3.4843262   -2.0437976  0.052515263   -3.4843262    1.4405287   439061 
 3473000   0.95978128   -3.4845388   -3.4845388   -2.0448702  0.055440969   -3.4845388    1.4396686   439061 
 3474000    0.9607834   -3.4856804   -3.4856804   -2.0445086  0.053273433   -3.4856804    1.4411718   439061 
 3475000   0.95972585   -3.4843978   -3.4843978   -2.0448123   0.05718064   -3.4843978    1.4395855   439061 
 3476000    0.9597687   -3.4857487   -3.4857487   -2.0460989  0.057599395   -3.4857487    1.4396498   439061 
 3477000   0.95936603    -3.483278    -3.483278   -2.0442323  0.053607327    -3.483278    1.4390458   439061 
 3478000   0.95926081   -3.4820936   -3.4820936   -2.0432057  0.057048168   -3.4820936    1.4388879   439061 
 3479000   0.95964486   -3.4841009   -3.4841009   -2.0446369  0.051866061   -3.4841009     1.439464   439061 
 3480000   0.95913881   -3.4831967   -3.4831967   -2.0444917   0.05503891   -3.4831967    1.4387049   439061 
 3481000   0.95878494   -3.4829046   -3.4829046   -2.0447304  0.054497904   -3.4829046    1.4381741   439061 
 3482000   0.95946572   -3.4837672   -3.4837672   -2.0445719  0.054257432   -3.4837672    1.4391953   439061 
 3483000   0.95833775   -3.4825757   -3.4825757   -2.0450723  0.051566637   -3.4825757    1.4375034   439061 
 3484000   0.95826449   -3.4819037   -3.4819037   -2.0445102  0.054382108   -3.4819037    1.4373935   439061 
 3485000   0.95911142   -3.4825758   -3.4825758    -2.043912  0.049915804   -3.4825758    1.4386639   439061 
 3486000   0.96022493   -3.4836954   -3.4836954   -2.0433613  0.051711175   -3.4836954    1.4403341   439061 
 3487000   0.95987256    -3.482084    -3.482084   -2.0422785  0.057785629    -3.482084    1.4398056   439061 
 3488000   0.95921573    -3.482016    -3.482016   -2.0431956   0.05677885    -3.482016    1.4388203   439061 
 3489000   0.95995335    -3.483163    -3.483163   -2.0432363  0.042765913    -3.483163    1.4399267   439061 
 3490000   0.96017399   -3.4830803   -3.4830803   -2.0428226  0.052465134   -3.4830803    1.4402577   439061 
 3491000   0.96040981   -3.4828929   -3.4828929   -2.0422814  0.048088264   -3.4828929    1.4406114   439061 
 3492000   0.95816404   -3.4817366   -3.4817366   -2.0444938  0.049592111   -3.4817366    1.4372428   439061 
 3493000   0.95889529   -3.4816704   -3.4816704   -2.0433307  0.048054343   -3.4816704    1.4383397   439061 
 3494000   0.95853394   -3.4815358   -3.4815358   -2.0437382  0.049919591   -3.4815358    1.4377976   439061 
 3495000   0.95888212   -3.4825842   -3.4825842   -2.0442643  0.049434389   -3.4825842    1.4383199   439061 
 3496000   0.95922807    -3.482799    -3.482799   -2.0439602  0.050720151    -3.482799    1.4388388   439061 
 3497000   0.95791707   -3.4816596   -3.4816596   -2.0447873  0.053208601   -3.4816596    1.4368723   439061 
 3498000    0.9591078   -3.4835452   -3.4835452   -2.0448868  0.047514589   -3.4835452    1.4386584   439061 
 3499000   0.95886927   -3.4823268   -3.4823268   -2.0440262  0.055186431   -3.4823268    1.4383006   439061 
 3500000   0.95916666   -3.4831623   -3.4831623   -2.0444156  0.048955854   -3.4831623    1.4387467   439061 
 3501000   0.96108115   -3.4833172   -3.4833172   -2.0416987  0.055891622   -3.4833172    1.4416184   439061 
 3502000   0.96183287   -3.4853813   -3.4853813   -2.0426353  0.052461848   -3.4853813     1.442746   439061 
 3503000   0.96098093   -3.4841809   -3.4841809   -2.0427128  0.053646694   -3.4841809    1.4414681   439061 
 3504000   0.96205299   -3.4852264   -3.4852264   -2.0421502  0.053788728   -3.4852264    1.4430762   439061 
 3505000   0.96106184   -3.4821701   -3.4821701   -2.0405806  0.059802776   -3.4821701    1.4415895   439061 
 3506000   0.96095447   -3.4835496   -3.4835496   -2.0421212  0.056086659   -3.4835496    1.4414284   439061 
 3507000   0.95971674   -3.4832705   -3.4832705   -2.0436987  0.053988414   -3.4832705    1.4395718   439061 
 3508000   0.95984729   -3.4822406   -3.4822406   -2.0424729  0.058812126   -3.4822406    1.4397677   439061 
 3509000   0.96085574   -3.4846876   -3.4846876   -2.0434073  0.052387778   -3.4846876    1.4412803   439061 
 3510000   0.96298901   -3.4872339   -3.4872339   -2.0427536  0.053552259   -3.4872339    1.4444802   439061 
 3511000    0.9603234   -3.4833708   -3.4833708    -2.042889  0.052003099   -3.4833708    1.4404818   439061 
 3512000   0.95959902   -3.4838132   -3.4838132    -2.044418  0.051888929   -3.4838132    1.4393952   439061 
 3513000   0.96000851   -3.4834251   -3.4834251   -2.0434156  0.052529739   -3.4834251    1.4400095   439061 
 3514000   0.96027492   -3.4836118   -3.4836118   -2.0432027  0.053769904   -3.4836118    1.4404091   439061 
 3515000   0.95867983   -3.4818992   -3.4818992   -2.0438827  0.056531302   -3.4818992    1.4380165   439061 
 3516000   0.95958745    -3.481585    -3.481585   -2.0422071  0.050480092    -3.481585    1.4393779   439061 
 3517000   0.95824184   -3.4792579   -3.4792579   -2.0418984  0.053868262   -3.4792579    1.4373595   439061 
 3518000   0.95970426   -3.4799795   -3.4799795   -2.0404264  0.056411993   -3.4799795    1.4395531   439061 
 3519000   0.96114948    -3.482368    -3.482368    -2.040647  0.053970692    -3.482368    1.4417209   439061 
 3520000   0.96105511   -3.4831502   -3.4831502   -2.0415708  0.054775224   -3.4831502    1.4415794   439061 
 3521000   0.95993478   -3.4821812   -3.4821812   -2.0422823   0.04976785   -3.4821812    1.4398989   439061 
 3522000   0.95888617   -3.4803139   -3.4803139   -2.0419879  0.051984955   -3.4803139     1.438326   439061 
 3523000   0.95846696   -3.4794777   -3.4794777   -2.0417805   0.05030037   -3.4794777    1.4376972   439061 
 3524000    0.9582931   -3.4792608   -3.4792608   -2.0418245   0.05146356   -3.4792608    1.4374364   439061 
 3525000   0.95972061   -3.4817473   -3.4817473   -2.0421696  0.047519081   -3.4817473    1.4395776   439061 
 3526000   0.95986096   -3.4831531   -3.4831531    -2.043365  0.048276175   -3.4831531    1.4397882   439061 
 3527000   0.95808011   -3.4815918   -3.4815918   -2.0444749  0.051925809   -3.4815918    1.4371169   439061 
 3528000     0.958449   -3.4831765   -3.4831765   -2.0455063   0.05143741   -3.4831765    1.4376702   439061 
 3529000   0.95836803    -3.482969    -3.482969   -2.0454202  0.053820387    -3.482969    1.4375488   439061 
 3530000   0.95741335   -3.4814384   -3.4814384   -2.0453217  0.049415631   -3.4814384    1.4361167   439061 
 3531000   0.95984932   -3.4852356   -3.4852356   -2.0454649  0.053838176   -3.4852356    1.4397707   439061 
 3532000   0.96045684   -3.4853181   -3.4853181   -2.0446361  0.053604222   -3.4853181     1.440682   439061 
 3533000   0.96180728   -3.4862975   -3.4862975   -2.0435898  0.060416835   -3.4862975    1.4427076   439061 
 3534000    0.9609625   -3.4861026   -3.4861026   -2.0446621  0.054094308   -3.4861026    1.4414405   439061 
 3535000   0.95999451   -3.4845017   -3.4845017   -2.0445132  0.057572361   -3.4845017    1.4399885   439061 
 3536000   0.96015551   -3.4860877   -3.4860877   -2.0458577  0.052207246   -3.4860877      1.44023   439061 
 3537000   0.96161208   -3.4878568   -3.4878568   -2.0454419  0.056271334   -3.4878568    1.4424148   439061 
 3538000   0.96123687   -3.4876401   -3.4876401   -2.0457881  0.050674877   -3.4876401     1.441852   439061 
 3539000   0.96037836   -3.4874951   -3.4874951   -2.0469309  0.055571417   -3.4874951    1.4405643   439061 
 3540000   0.96043347   -3.4864462   -3.4864462   -2.0457992  0.058596109   -3.4864462    1.4406469   439061 
 3541000   0.96073832   -3.4874627   -3.4874627   -2.0463585  0.055950497   -3.4874627    1.4411042   439061 
 3542000   0.96317074   -3.4906517   -3.4906517   -2.0458988  0.057159984   -3.4906517    1.4447528   439061 
 3543000   0.96034771   -3.4860361   -3.4860361   -2.0455179  0.058592443   -3.4860361    1.4405183   439061 
 3544000   0.96003859   -3.4850393   -3.4850393   -2.0449847  0.060650279   -3.4850393    1.4400546   439061 
 3545000   0.95952994   -3.4849285   -3.4849285   -2.0456369  0.056872914   -3.4849285    1.4392916   439061 
 3546000   0.96020808   -3.4867019   -3.4867019   -2.0463931  0.052558834   -3.4867019    1.4403088   439061 
 3547000    0.9586258   -3.4846649   -3.4846649   -2.0467295  0.052743812   -3.4846649    1.4379354   439061 
 3548000   0.95948103   -3.4839997   -3.4839997   -2.0447814  0.049413404   -3.4839997    1.4392183   439061 
 3549000   0.95859803   -3.4819972   -3.4819972   -2.0441034   0.05468334   -3.4819972    1.4378938   439061 
 3550000   0.95858218    -3.481892    -3.481892    -2.044022   0.04944506    -3.481892      1.43787   439061 
 3551000    0.9587632   -3.4815918   -3.4815918   -2.0434503  0.049910611   -3.4815918    1.4381415   439061 
 3552000   0.95880387   -3.4817434   -3.4817434   -2.0435409  0.053043299   -3.4817434    1.4382025   439061 
 3553000   0.96029017   -3.4833966   -3.4833966   -2.0429647  0.046772237   -3.4833966     1.440432   439061 
 3554000   0.95826262    -3.480623    -3.480623   -2.0432324   0.04888524    -3.480623    1.4373907   439061 
 3555000   0.95898319   -3.4812951   -3.4812951   -2.0428236   0.05018962   -3.4812951    1.4384715   439061 
 3556000   0.95822014   -3.4796024   -3.4796024   -2.0422754  0.050226528   -3.4796024    1.4373269   439061 
 3557000   0.95858857   -3.4794636   -3.4794636    -2.041584   0.05095029   -3.4794636    1.4378796   439061 
 3558000   0.96035419   -3.4807143   -3.4807143   -2.0401863  0.051892494   -3.4807143     1.440528   439061 
 3559000   0.96070437   -3.4824511   -3.4824511   -2.0413978  0.052215429   -3.4824511    1.4410533   439061 
 3560000   0.96276941   -3.4837227   -3.4837227   -2.0395719  0.049408515   -3.4837227    1.4441508   439061 
 3561000    0.9609273   -3.4813527   -3.4813527    -2.039965  0.057330451   -3.4813527    1.4413877   439061 
 3562000   0.96036353   -3.4824686   -3.4824686   -2.0419266   0.06026818   -3.4824686     1.440542   439061 
 3563000    0.9593117   -3.4818146   -3.4818146   -2.0428503  0.050687614   -3.4818146    1.4389643   439061 
 3564000   0.95871277   -3.4810433   -3.4810433   -2.0429775  0.047496221   -3.4810433    1.4380659   439061 
 3565000   0.95995724    -3.481718    -3.481718   -2.0417854  0.053207149    -3.481718    1.4399326   439061 
 3566000   0.95845449   -3.4798701   -3.4798701   -2.0421916  0.053302319   -3.4798701    1.4376785   439061 
 3567000   0.95901576   -3.4814152   -3.4814152   -2.0428948  0.047839868   -3.4814152    1.4385204   439061 
 3568000    0.9592872   -3.4811416   -3.4811416    -2.042214  0.049093194   -3.4811416    1.4389275   439061 
 3569000   0.95996556   -3.4836443   -3.4836443   -2.0436993  0.052455969   -3.4836443    1.4399451   439061 
 3570000   0.96208136   -3.4866538   -3.4866538    -2.043535  0.049688123   -3.4866538    1.4431188   439061 
 3571000   0.95822677   -3.4808886   -3.4808886   -2.0435517  0.056221252   -3.4808886    1.4373369   439061 
 3572000   0.95971043   -3.4817457   -3.4817457   -2.0421833   0.05621778   -3.4817457    1.4395624   439061 
 3573000   0.96011942   -3.4820135   -3.4820135   -2.0418377  0.055283068   -3.4820135    1.4401758   439061 
 3574000   0.95842652    -3.481711    -3.481711   -2.0440745  0.057284072    -3.481711    1.4376365   439061 
 3575000   0.96067488   -3.4841135   -3.4841135   -2.0431044  0.049932544   -3.4841135     1.441009   439061 
 3576000   0.96059697   -3.4837854   -3.4837854   -2.0428932   0.05418487   -3.4837854    1.4408922   439061 
 3577000   0.96134594   -3.4848806   -3.4848806   -2.0428649  0.060053638   -3.4848806    1.4420156   439061 
 3578000   0.95988919   -3.4825127   -3.4825127   -2.0426822  0.055576717   -3.4825127    1.4398305   439061 
 3579000   0.96078472   -3.4856828   -3.4856828    -2.044509   0.04999133   -3.4856828    1.4411738   439061 
 3580000   0.95856015   -3.4825175   -3.4825175   -2.0446806  0.053944211   -3.4825175     1.437837   439061 
 3581000   0.96061368   -3.4842174   -3.4842174   -2.0433002  0.054960202   -3.4842174    1.4409172   439061 
 3582000   0.96082996   -3.4842669   -3.4842669   -2.0430252  0.059057316   -3.4842669    1.4412417   439061 
 3583000   0.96025815    -3.483704    -3.483704     -2.04332  0.055372715    -3.483704    1.4403839   439061 
 3584000   0.95870288    -3.482109    -3.482109    -2.044058  0.053152071    -3.482109    1.4380511   439061 
 3585000   0.96012858   -3.4845143   -3.4845143   -2.0443247  0.053400133   -3.4845143    1.4401896   439061 
 3586000   0.96047861   -3.4844238   -3.4844238   -2.0437092   0.05157297   -3.4844238    1.4407146   439061 
 3587000   0.95977351     -3.48353     -3.48353   -2.0438731  0.051394438     -3.48353     1.439657   439061 
 3588000   0.95957298   -3.4837912   -3.4837912    -2.044435  0.054872395   -3.4837912    1.4393562   439061 
 3589000   0.95788026   -3.4814064   -3.4814064   -2.0445892  0.054683199   -3.4814064    1.4368171   439061 
 3590000   0.95808931    -3.482386    -3.482386   -2.0452553  0.052933737    -3.482386    1.4371307   439061 
 3591000   0.95960859    -3.482802    -3.482802   -2.0433924  0.046988837    -3.482802    1.4394096   439061 
 3592000   0.95962507    -3.482764    -3.482764   -2.0433297   0.05162728    -3.482764    1.4394343   439061 
 3593000   0.95973573   -3.4821773   -3.4821773    -2.042577  0.054470726   -3.4821773    1.4396003   439061 
 3594000   0.95761616   -3.4798417   -3.4798417   -2.0434207  0.050475661   -3.4798417     1.436421   439061 
 3595000   0.96003209   -3.4822443   -3.4822443   -2.0421995  0.049609871   -3.4822443    1.4400449   439061 
 3596000   0.95893747   -3.4821734   -3.4821734   -2.0437705  0.054669346   -3.4821734    1.4384029   439061 
 3597000   0.96019909    -3.483472    -3.483472   -2.0431767  0.047065307    -3.483472    1.4402954   439061 
 3598000    0.9589726   -3.4808782   -3.4808782   -2.0424226  0.051796456   -3.4808782    1.4384556   439061 
 3599000   0.96031801   -3.4835797   -3.4835797   -2.0431059  0.049640076   -3.4835797    1.4404737   439061 
 3600000   0.96065844   -3.4845078   -3.4845078   -2.0435234  0.047262785   -3.4845078    1.4409844   439061 
 3601000   0.96002188   -3.4839396   -3.4839396     -2.04391   0.05257033   -3.4839396    1.4400295   439061 
 3602000   0.95880767   -3.4828213   -3.4828213   -2.0446131  0.051697703   -3.4828213    1.4382082   439061 
 3603000   0.95890894   -3.4834093   -3.4834093   -2.0450492    0.0481688   -3.4834093    1.4383601   439061 
 3604000   0.95883761   -3.4831626   -3.4831626   -2.0449094  0.058653908   -3.4831626    1.4382531   439061 
 3605000   0.95978478   -3.4849356   -3.4849356   -2.0452617  0.051997441   -3.4849356    1.4396739   439061 
 3606000   0.95951656    -3.485504    -3.485504   -2.0462325  0.050984187    -3.485504    1.4392716   439061 
 3607000   0.96028946   -3.4863229   -3.4863229    -2.045892  0.049689495   -3.4863229    1.4404309   439061 
 3608000   0.95984219   -3.4854394   -3.4854394   -2.0456794  0.052432932   -3.4854394      1.43976   439061 
 3609000   0.95920512   -3.4847654   -3.4847654    -2.045961  0.051350489   -3.4847654    1.4388044   439061 
 3610000   0.95918608   -3.4845285   -3.4845285   -2.0457526  0.053993215   -3.4845285    1.4387758   439061 
 3611000   0.95921832   -3.4852606   -3.4852606   -2.0464364  0.054237405   -3.4852606    1.4388242   439061 
 3612000   0.95877432   -3.4851874   -3.4851874   -2.0470292  0.056180299   -3.4851874    1.4381582   439061 
 3613000   0.95984329   -3.4877573   -3.4877573   -2.0479956  0.054398202   -3.4877573    1.4397617   439061 
 3614000   0.95872132   -3.4862023   -3.4862023   -2.0481236  0.050036148   -3.4862023    1.4380787   439061 
 3615000   0.95883937   -3.4858534   -3.4858534   -2.0475976  0.052225256   -3.4858534    1.4382558   439061 
 3616000   0.95979783   -3.4868635   -3.4868635     -2.04717  0.054961577   -3.4868635    1.4396935   439061 
 3617000   0.96059209   -3.4890883   -3.4890883   -2.0482034  0.057251062   -3.4890883    1.4408848   439061 
 3618000    0.9603073   -3.4873329   -3.4873329   -2.0468752  0.055540649   -3.4873329    1.4404577   439061 
 3619000   0.95852562   -3.4864767   -3.4864767   -2.0486915  0.053277645   -3.4864767    1.4377851   439061 
 3620000   0.95906882   -3.4874096   -3.4874096   -2.0488096    0.0522522   -3.4874096       1.4386   439061 
 3621000   0.96022881   -3.4877336   -3.4877336   -2.0473937  0.056984925   -3.4877336    1.4403399   439061 
 3622000   0.95816309   -3.4853621   -3.4853621   -2.0481207  0.052376402   -3.4853621    1.4372414   439061 
 3623000   0.95879974   -3.4851851   -3.4851851   -2.0469887  0.054672453   -3.4851851    1.4381963   439061 
 3624000   0.95908402   -3.4870452   -3.4870452   -2.0484224  0.052488988   -3.4870452    1.4386228   439061 
 3625000   0.95883144   -3.4855878   -3.4855878   -2.0473439  0.057454986   -3.4855878    1.4382439   439061 
 3626000   0.95873331   -3.4850179   -3.4850179   -2.0469212  0.054629951   -3.4850179    1.4380967   439061 
 3627000   0.95940588   -3.4854492   -3.4854492   -2.0463437   0.05435496   -3.4854492    1.4391055   439061 
 3628000   0.95964261   -3.4860102   -3.4860102   -2.0465496  0.050489038   -3.4860102    1.4394606   439061 
 3629000   0.95929143   -3.4852249   -3.4852249   -2.0462911  0.055881303   -3.4852249    1.4389339   439061 
 3630000   0.95858333   -3.4838077   -3.4838077   -2.0459359  0.052970069   -3.4838077    1.4378717   439061 
 3631000    0.9597824   -3.4846407   -3.4846407   -2.0449704  0.053511556   -3.4846407    1.4396703   439061 
 3632000   0.95863584   -3.4824679   -3.4824679   -2.0445174  0.050686949   -3.4824679    1.4379505   439061 
 3633000   0.95904507    -3.483065    -3.483065   -2.0445007  0.055187737    -3.483065    1.4385643   439061 
 3634000   0.95875566   -3.4828431   -3.4828431   -2.0447129  0.053686191   -3.4828431    1.4381302   439061 
 3635000   0.95880394   -3.4837654   -3.4837654   -2.0455627   0.05319655   -3.4837654    1.4382026   439061 
 3636000   0.95883123   -3.4834095   -3.4834095    -2.045166  0.050125836   -3.4834095    1.4382436   439061 
 3637000   0.95722045   -3.4833134   -3.4833134    -2.047486  0.049869951   -3.4833134    1.4358274   439061 
 3638000   0.95749563   -3.4829476   -3.4829476   -2.0467074  0.045490061   -3.4829476    1.4362402   439061 
 3639000   0.95787996   -3.4837427   -3.4837427    -2.046926  0.054896114   -3.4837427    1.4368167   439061 
 3640000   0.95672025    -3.482918    -3.482918   -2.0478409  0.045406685    -3.482918    1.4350771   439061 
 3641000   0.95813269   -3.4841261   -3.4841261   -2.0469303  0.050824657   -3.4841261    1.4371958   439061 
 3642000   0.95794145   -3.4836562   -3.4836562   -2.0467473   0.05331896   -3.4836562    1.4369089   439061 
 3643000   0.95952634   -3.4850954   -3.4850954   -2.0458092  0.054027917   -3.4850954    1.4392862   439061 
 3644000   0.96023905   -3.4856296   -3.4856296   -2.0452743  0.051974155   -3.4856296    1.4403553   439061 
 3645000   0.96029994   -3.4859527   -3.4859527    -2.045506  0.056295264   -3.4859527    1.4404466   439061 
 3646000     0.961328   -3.4871262   -3.4871262   -2.0451375  0.053371424   -3.4871262    1.4419887   439061 
 3647000   0.96096565   -3.4878559   -3.4878559   -2.0464107  0.054826348   -3.4878559    1.4414452   439061 
 3648000   0.95926368    -3.486151    -3.486151   -2.0472588  0.056039645    -3.486151    1.4388922   439061 
 3649000   0.95986842   -3.4873398   -3.4873398   -2.0475404  0.053908914   -3.4873398    1.4397993   439061 
 3650000   0.96081938   -3.4899276   -3.4899276   -2.0487019  0.049819772   -3.4899276    1.4412258   439061 
 3651000   0.95953157    -3.487352    -3.487352   -2.0480579  0.056654515    -3.487352    1.4392941   439061 
 3652000    0.9618095   -3.4902988   -3.4902988   -2.0475878  0.050236467   -3.4902988     1.442711   439061 
 3653000    0.9591719   -3.4874235   -3.4874235   -2.0486689  0.048733969   -3.4874235    1.4387546   439061 
 3654000   0.95987052   -3.4867742   -3.4867742   -2.0469717  0.051361956   -3.4867742    1.4398025   439061 
 3655000   0.96056687   -3.4874221   -3.4874221   -2.0465751  0.049118618   -3.4874221     1.440847   439061 
 3656000   0.96250427   -3.4892651   -3.4892651    -2.045512  0.052145792   -3.4892651    1.4437531   439061 
 3657000   0.96147334   -3.4880289   -3.4880289   -2.0458222  0.056101744   -3.4880289    1.4422067   439061 
 3658000   0.96159259   -3.4881451   -3.4881451   -2.0457595  0.052391314   -3.4881451    1.4423856   439061 
 3659000   0.95913807   -3.4853368   -3.4853368   -2.0466329   0.05542691   -3.4853368    1.4387038   439061 
 3660000   0.95925931   -3.4858849   -3.4858849   -2.0469992   0.05377388   -3.4858849    1.4388857   439061 
 3661000   0.95817144   -3.4837789   -3.4837789    -2.046525  0.052122149   -3.4837789    1.4372539   439061 
 3662000   0.95867118   -3.4848232   -3.4848232   -2.0468197  0.049351716   -3.4848232    1.4380035   439061 
 3663000   0.95712411   -3.4835999   -3.4835999    -2.047917  0.049029754   -3.4835999    1.4356829   439061 
 3664000     0.957863   -3.4842204   -3.4842204   -2.0474292  0.046618716   -3.4842204    1.4367912   439061 
 3665000   0.95696901   -3.4837509   -3.4837509   -2.0483007  0.044937254   -3.4837509    1.4354502   439061 
 3666000   0.95821344   -3.4852609   -3.4852609    -2.047944  0.049128926   -3.4852609    1.4373169   439061 
 3667000    0.9568341   -3.4836909   -3.4836909   -2.0484431  0.055307628   -3.4836909    1.4352479   439061 
 3668000   0.95775753   -3.4847514   -3.4847514   -2.0481184   0.05309896   -3.4847514     1.436633   439061 
 3669000   0.95982228    -3.486465    -3.486465   -2.0467349  0.050843633    -3.486465    1.4397301   439061 
 3670000   0.96166979   -3.4886334   -3.4886334    -2.046132  0.047809664   -3.4886334    1.4425014   439061 
 3671000   0.96031168   -3.4872214   -3.4872214   -2.0467572    0.0537703   -3.4872214    1.4404642   439061 
 3672000   0.95945476   -3.4863841   -3.4863841   -2.0472053  0.051684126   -3.4863841    1.4391789   439061 
 3673000   0.96047484   -3.4867023   -3.4867023   -2.0459933  0.052046452   -3.4867023     1.440709   439061 
 3674000   0.96106144   -3.4871571   -3.4871571   -2.0455683   0.05550561   -3.4871571    1.4415889   439061 
 3675000   0.96003446     -3.48695     -3.48695   -2.0469016  0.050617198     -3.48695    1.4400484   439061 
 3676000   0.95886241   -3.4870746   -3.4870746   -2.0487842  0.054480607   -3.4870746    1.4382903   439061 
 3677000   0.96097149   -3.4908393   -3.4908393   -2.0493854  0.048899539   -3.4908393    1.4414539   439061 
 3678000   0.95838848   -3.4874877   -3.4874877   -2.0499082  0.056296423   -3.4874877    1.4375794   439061 
 3679000   0.95970054   -3.4887571   -3.4887571   -2.0492096  0.051318563   -3.4887571    1.4395475   439061 
 3680000    0.9595844   -3.4895334   -3.4895334   -2.0501601  0.052687432   -3.4895334    1.4393733   439061 
 3681000   0.96076833   -3.4896459   -3.4896459   -2.0484967  0.053776155   -3.4896459    1.4411492   439061 
 3682000     0.958834   -3.4871499   -3.4871499   -2.0489022  0.049560671   -3.4871499    1.4382477   439061 
 3683000   0.95979139    -3.488813    -3.488813   -2.0491292  0.048812314    -3.488813    1.4396838   439061 
 3684000   0.95939898   -3.4892245   -3.4892245   -2.0501293   0.05424423   -3.4892245    1.4390952   439061 
 3685000   0.96047426   -3.4894512   -3.4894512   -2.0487431  0.051446651   -3.4894512    1.4407081   439061 
 3686000   0.95880304   -3.4870975   -3.4870975   -2.0488962  0.051930732   -3.4870975    1.4382013   439061 
 3687000   0.95924068   -3.4894546   -3.4894546   -2.0505968  0.056083788   -3.4894546    1.4388577   439061 
 3688000   0.95956639   -3.4895957   -3.4895957   -2.0502494  0.046810345   -3.4895957    1.4393463   439061 
 3689000   0.95737349   -3.4872779   -3.4872779   -2.0512209   0.05824777   -3.4872779     1.436057   439061 
 3690000   0.95692769   -3.4867079   -3.4867079   -2.0513196  0.052118608   -3.4867079    1.4353883   439061 
 3691000   0.95933913    -3.489298    -3.489298   -2.0502926  0.049000077    -3.489298    1.4390054   439061 
 3692000   0.95851136   -3.4867818   -3.4867818    -2.049018  0.053343602   -3.4867818    1.4377638   439061 
 3693000   0.95746729   -3.4860631   -3.4860631   -2.0498654  0.056619692   -3.4860631    1.4361977   439061 
 3694000   0.95801181   -3.4866441   -3.4866441   -2.0496296  0.047703931   -3.4866441    1.4370144   439061 
 3695000   0.96025832   -3.4894712   -3.4894712    -2.049087  0.051528705   -3.4894712    1.4403842   439061 
 3696000   0.95978932    -3.487951    -3.487951   -2.0482703  0.048935279    -3.487951    1.4396807   439061 
 3697000   0.95966658   -3.4880836   -3.4880836    -2.048587  0.052209893   -3.4880836    1.4394966   439061 
 3698000   0.96055369   -3.4901122   -3.4901122    -2.049285  0.047983539   -3.4901122    1.4408273   439061 
 3699000   0.96046471   -3.4896219   -3.4896219   -2.0489281  0.058060873   -3.4896219    1.4406938   439061 
 3700000   0.96069653   -3.4899581   -3.4899581   -2.0489166  0.057306496   -3.4899581    1.4410415   439061 
 3701000   0.95998172   -3.4887762   -3.4887762   -2.0488069  0.053261218   -3.4887762    1.4399693   439061 
 3702000   0.96016015   -3.4895203   -3.4895203   -2.0492834  0.055697108   -3.4895203     1.440237   439061 
 3703000   0.96090931   -3.4902581   -3.4902581   -2.0488974  0.053605175   -3.4902581    1.4413607   439061 
 3704000   0.96125327   -3.4901519   -3.4901519   -2.0482753  0.051921093   -3.4901519    1.4418766   439061 
 3705000   0.95882309   -3.4877613   -3.4877613     -2.04953  0.057874019   -3.4877613    1.4382314   439061 
 3706000   0.95970004   -3.4890421   -3.4890421   -2.0494954  0.046943624   -3.4890421    1.4395468   439061 
 3707000    0.9585983   -3.4870314   -3.4870314   -2.0491372  0.049967279   -3.4870314    1.4378942   439061 
 3708000   0.95928793   -3.4875516   -3.4875516    -2.048623  0.055628365   -3.4875516    1.4389286   439061 
 3709000   0.95911983   -3.4882039   -3.4882039   -2.0495274  0.053530933   -3.4882039    1.4386765   439061 
 3710000   0.96037724   -3.4888518   -3.4888518   -2.0482892  0.050061649   -3.4888518    1.4405626   439061 
 3711000   0.95991697   -3.4875584   -3.4875584   -2.0476862  0.051702062   -3.4875584    1.4398722   439061 
 3712000   0.96002303   -3.4884437   -3.4884437   -2.0484124   0.05412874   -3.4884437    1.4400313   439061 
 3713000   0.95957891   -3.4866252   -3.4866252   -2.0472602  0.055640094   -3.4866252    1.4393651   439061 
 3714000   0.96110599   -3.4880198   -3.4880198   -2.0463641   0.05552423   -3.4880198    1.4416557   439061 
 3715000   0.95884754   -3.4856956   -3.4856956   -2.0474276  0.049777441   -3.4856956     1.438268   439061 
 3716000   0.95832834   -3.4854343   -3.4854343   -2.0479451  0.049179179   -3.4854343    1.4374892   439061 
 3717000   0.95996105   -3.4874704   -3.4874704   -2.0475321   0.05096109   -3.4874704    1.4399383   439061 
 3718000   0.95980112   -3.4872421   -3.4872421   -2.0475437  0.052846002   -3.4872421    1.4396984   439061 
 3719000   0.96099044   -3.4874086   -3.4874086   -2.0459262  0.051670414   -3.4874086    1.4414824   439061 
 3720000   0.96135724   -3.4882184   -3.4882184   -2.0461858  0.054222583   -3.4882184    1.4420326   439061 
 3721000   0.96016389   -3.4864451   -3.4864451   -2.0462025  0.053783748   -3.4864451    1.4402426   439061 
 3722000   0.96203389   -3.4885932   -3.4885932   -2.0455457  0.053090519   -3.4885932    1.4430475   439061 
 3723000   0.96176092   -3.4881987   -3.4881987   -2.0455606  0.053551369   -3.4881987    1.4426381   439061 
 3724000   0.96209033   -3.4892576   -3.4892576   -2.0461254   0.05438854   -3.4892576    1.4431322   439061 
 3725000   0.95982919    -3.485767    -3.485767   -2.0460265  0.054424919    -3.485767    1.4397405   439061 
 3726000   0.96052561    -3.487371    -3.487371   -2.0465858  0.053206187    -3.487371    1.4407851   439061 
 3727000   0.95862839   -3.4848578   -3.4848578   -2.0469185  0.053035228   -3.4848578    1.4379393   439061 
 3728000   0.95730945   -3.4830461   -3.4830461   -2.0470852  0.052984387   -3.4830461    1.4359609   439061 
 3729000   0.96025615   -3.4875733   -3.4875733   -2.0471924  0.053205465   -3.4875733     1.440381   439061 
 3730000   0.95959784   -3.4867509   -3.4867509   -2.0473574  0.052419083   -3.4867509    1.4393935   439061 
 3731000    0.9582142   -3.4851118   -3.4851118   -2.0477938  0.047840826   -3.4851118     1.437318   439061 
 3732000    0.9598524   -3.4883118   -3.4883118   -2.0485365  0.051932198   -3.4883118    1.4397753   439061 
 3733000   0.95991353   -3.4885779   -3.4885779   -2.0487108  0.048400635   -3.4885779     1.439867   439061 
 3734000   0.95933232   -3.4869611   -3.4869611   -2.0479659   0.05366273   -3.4869611    1.4389952   439061 
 3735000   0.96062674   -3.4898281   -3.4898281   -2.0488912  0.049680237   -3.4898281    1.4409368   439061 
 3736000   0.95825562   -3.4869462   -3.4869462   -2.0495661  0.050317812   -3.4869462    1.4373802   439061 
 3737000   0.95911668   -3.4878942   -3.4878942   -2.0492225  0.050324802   -3.4878942    1.4386717   439061 
 3738000   0.95924073   -3.4889005   -3.4889005   -2.0500427  0.045012213   -3.4889005    1.4388578   439061 
 3739000   0.95865469   -3.4888129   -3.4888129   -2.0508341  0.051305734   -3.4888129    1.4379788   439061 
 3740000   0.95981982   -3.4901843   -3.4901843   -2.0504578  0.051230225   -3.4901843    1.4397265   439061 
 3741000   0.95998708   -3.4890328   -3.4890328   -2.0490555  0.055547823   -3.4890328    1.4399773   439061 
 3742000    0.9587411   -3.4886629   -3.4886629   -2.0505546   0.05763128   -3.4886629    1.4381084   439061 
 3743000   0.96029963   -3.4918986   -3.4918986   -2.0514525  0.050305758   -3.4918986    1.4404462   439061 
 3744000    0.9594975   -3.4908259   -3.4908259   -2.0515829  0.055709829   -3.4908259     1.439243   439061 
 3745000   0.95996848   -3.4927045   -3.4927045   -2.0527551  0.053308434   -3.4927045    1.4399494   439061 
 3746000   0.95880006   -3.4908521   -3.4908521   -2.0526553  0.053597765   -3.4908521    1.4381968   439061 
 3747000   0.95953994   -3.4922039   -3.4922039   -2.0528973  0.054357513   -3.4922039    1.4393066   439061 
 3748000   0.95842126   -3.4913288   -3.4913288   -2.0537002  0.054185877   -3.4913288    1.4376286   439061 
 3749000   0.95834639   -3.4910465   -3.4910465   -2.0535302   0.05266931   -3.4910465    1.4375163   439061 
 3750000   0.95882236   -3.4920009   -3.4920009   -2.0537707  0.054298086   -3.4920009    1.4382303   439061 
 3751000   0.95838604   -3.4925923   -3.4925923   -2.0550165  0.055971889   -3.4925923    1.4375758   439061 
 3752000   0.95976278   -3.4925961   -3.4925961   -2.0529552  0.056583698   -3.4925961    1.4396409   439061 
 3753000     0.959209   -3.4928982   -3.4928982    -2.054088  0.055565881   -3.4928982    1.4388102   439061 
 3754000   0.96040389   -3.4929663   -3.4929663   -2.0523638  0.056323193   -3.4929663    1.4406026   439061 
 3755000   0.96155055   -3.4937172   -3.4937172   -2.0513947  0.051450449   -3.4937172    1.4423225   439061 
 3756000   0.96210099   -3.4942857   -3.4942857   -2.0511375  0.060912999   -3.4942857    1.4431482   439061 
 3757000   0.95986836   -3.4921071   -3.4921071   -2.0523078  0.054691602   -3.4921071    1.4397993   439061 
 3758000    0.9600657   -3.4918167   -3.4918167   -2.0517214   0.05291554   -3.4918167    1.4400953   439061 
 3759000   0.95767886   -3.4907202   -3.4907202   -2.0542051  0.053455425   -3.4907202     1.436515   439061 
 3760000    0.9580445    -3.491802    -3.491802   -2.0547385  0.046847572    -3.491802    1.4370635   439061 
 3761000   0.95786565   -3.4907002   -3.4907002    -2.053905  0.049974248   -3.4907002    1.4367952   439061 
 3762000   0.95871298   -3.4911256   -3.4911256   -2.0530594  0.047011127   -3.4911256    1.4380662   439061 
 3763000   0.95907222   -3.4902593   -3.4902593   -2.0516542    0.0490637   -3.4902593    1.4386051   439061 
 3764000   0.95837223   -3.4889371   -3.4889371    -2.051382  0.051485012   -3.4889371    1.4375551   439061 
 3765000   0.95846786   -3.4878092   -3.4878092   -2.0501106  0.053108725   -3.4878092    1.4376985   439061 
 3766000   0.95834908   -3.4882355   -3.4882355   -2.0507151  0.050043403   -3.4882355    1.4375203   439061 
 3767000   0.96076061   -3.4905801   -3.4905801   -2.0494425  0.052589205   -3.4905801    1.4411376   439061 
 3768000   0.95994609   -3.4892239   -3.4892239   -2.0493081  0.055404891   -3.4892239    1.4399159   439061 
 3769000    0.9593477   -3.4886454   -3.4886454   -2.0496271  0.058263351   -3.4886454    1.4390183   439061 
 3770000   0.95954376   -3.4888008   -3.4888008   -2.0494884  0.052833634   -3.4888008    1.4393124   439061 
 3771000   0.95930005   -3.4880685   -3.4880685   -2.0491217  0.049948528   -3.4880685    1.4389468   439061 
 3772000   0.95858544   -3.4878106   -3.4878106   -2.0499357  0.052842764   -3.4878106    1.4378749   439061 
 3773000   0.95938307    -3.488465    -3.488465   -2.0493937  0.047552621    -3.488465    1.4390713   439061 
 3774000   0.95950598   -3.4881254   -3.4881254   -2.0488697  0.051180864   -3.4881254    1.4392557   439061 
 3775000   0.95925292   -3.4891742   -3.4891742   -2.0502981  0.050622968   -3.4891742    1.4388761   439061 
 3776000   0.95839013   -3.4877116   -3.4877116   -2.0501297   0.05480013   -3.4877116    1.4375819   439061 
 3777000   0.95937343   -3.4892519   -3.4892519   -2.0501951  0.049283535   -3.4892519    1.4390569   439061 
 3778000   0.95758702   -3.4877417   -3.4877417   -2.0513644  0.051887848   -3.4877417    1.4363773   439061 
 3779000   0.95629144    -3.485692    -3.485692   -2.0512581  0.052386186    -3.485692    1.4344339   439061 
 3780000   0.95761733   -3.4884602   -3.4884602   -2.0520375  0.047872647   -3.4884602    1.4364227   439061 
 3781000   0.95859171   -3.4890707   -3.4890707   -2.0511864   0.05157872   -3.4890707    1.4378843   439061 
 3782000   0.95843344   -3.4898169   -3.4898169     -2.05217  0.053568586   -3.4898169    1.4376469   439061 
 3783000   0.95834231   -3.4897529   -3.4897529   -2.0522427  0.051849018   -3.4897529    1.4375102   439061 
 3784000    0.9595338   -3.4905997   -3.4905997   -2.0513023  0.048765157   -3.4905997    1.4392974   439061 
 3785000   0.95791632   -3.4884975   -3.4884975   -2.0516263   0.05432708   -3.4884975    1.4368712   439061 
 3786000   0.95984297   -3.4909882   -3.4909882    -2.051227  0.052900056   -3.4909882    1.4397612   439061 
 3787000   0.96013902   -3.4916091   -3.4916091   -2.0514038  0.052795592   -3.4916091    1.4402053   439061 
 3788000   0.96141514   -3.4942664   -3.4942664    -2.052147  0.052820545   -3.4942664    1.4421194   439061 
 3789000   0.95986999     -3.49166     -3.49166   -2.0518583  0.061146465     -3.49166    1.4398017   439061 
 3790000    0.9590533   -3.4902616   -3.4902616    -2.051685  0.057244266   -3.4902616    1.4385767   439061 
 3791000   0.96124214   -3.4952404   -3.4952404   -2.0533805  0.050027199   -3.4952404    1.4418599   439061 
 3792000   0.96084562    -3.495455    -3.495455   -2.0541898  0.048395022    -3.495455    1.4412652   439061 
 3793000   0.95855885   -3.4931492   -3.4931492   -2.0553142  0.049642086   -3.4931492     1.437835   439061 
 3794000   0.95848187   -3.4936122   -3.4936122   -2.0558927   0.04999504   -3.4936122    1.4377195   439061 
 3795000   0.95774411   -3.4923875   -3.4923875   -2.0557746  0.051895571   -3.4923875    1.4366129   439061 
 3796000   0.95774258   -3.4921654   -3.4921654   -2.0555548  0.055568581   -3.4921654    1.4366106   439061 
 3797000   0.95903621   -3.4929531   -3.4929531   -2.0544021  0.055856512   -3.4929531     1.438551   439061 
 3798000   0.96032806   -3.4946912   -3.4946912   -2.0542023  0.056381139   -3.4946912    1.4404888   439061 
 3799000   0.96029262   -3.4948363   -3.4948363   -2.0544006  0.054461814   -3.4948363    1.4404357   439061 
 3800000   0.96031313    -3.493065    -3.493065   -2.0525986  0.056043281    -3.493065    1.4404664   439061 
 3801000   0.96039945   -3.4930598   -3.4930598   -2.0524639  0.052160119   -3.4930598    1.4405959   439061 
 3802000    0.9596172   -3.4931965   -3.4931965    -2.053774  0.055468765   -3.4931965    1.4394225   439061 
 3803000   0.95984827   -3.4942376   -3.4942376   -2.0544685  0.053319966   -3.4942376    1.4397691   439061 
 3804000   0.95842113   -3.4913111   -3.4913111   -2.0536826  0.054226642   -3.4913111    1.4376284   439061 
 3805000   0.95852302    -3.492854    -3.492854   -2.0550728  0.049253236    -3.492854    1.4377813   439061 
 3806000   0.95796648    -3.492423    -3.492423   -2.0554765  0.050946073    -3.492423    1.4369464   439061 
 3807000   0.95912462    -3.493831    -3.493831   -2.0551474  0.052725056    -3.493831    1.4386837   439061 
 3808000   0.95809406   -3.4924058   -3.4924058    -2.055268  0.052803649   -3.4924058    1.4371378   439061 
 3809000   0.95973786   -3.4934612   -3.4934612   -2.0538577  0.052248891   -3.4934612    1.4396035   439061 
 3810000   0.95904207   -3.4923424   -3.4923424   -2.0537826   0.05060084   -3.4923424    1.4385598   439061 
 3811000   0.96004492   -3.4930473   -3.4930473   -2.0529832  0.051713351   -3.4930473    1.4400641   439061 
 3812000   0.95840819   -3.4921886   -3.4921886   -2.0545796  0.049656253   -3.4921886     1.437609   439061 
 3813000   0.95798177    -3.490384    -3.490384   -2.0534146  0.057854726    -3.490384    1.4369694   439061 
 3814000   0.95890711   -3.4919352   -3.4919352   -2.0535778  0.051790602   -3.4919352    1.4383574   439061 
 3815000   0.95858957   -3.4927508   -3.4927508   -2.0548697  0.049864509   -3.4927508    1.4378811   439061 
 3816000   0.95700751   -3.4906698   -3.4906698   -2.0551618  0.052510872   -3.4906698     1.435508   439061 
 3817000   0.95727686   -3.4906851   -3.4906851   -2.0547731  0.048769393   -3.4906851     1.435912   439061 
 3818000   0.95830555   -3.4916465   -3.4916465   -2.0541915  0.046729739   -3.4916465    1.4374551   439061 
 3819000   0.95913544   -3.4922682   -3.4922682   -2.0535683  0.050190664   -3.4922682    1.4386999   439061 
 3820000   0.95833756   -3.4910098   -3.4910098   -2.0535067  0.052103808   -3.4910098    1.4375031   439061 
 3821000   0.95809523   -3.4929492   -3.4929492   -2.0558096  0.050402282   -3.4929492    1.4371396   439061 
 3822000   0.95814601   -3.4939553   -3.4939553   -2.0567396   0.04627242   -3.4939553    1.4372157   439061 
 3823000   0.95940246   -3.4946984   -3.4946984    -2.055598  0.049482006   -3.4946984    1.4391004   439061 
 3824000   0.95872948   -3.4921614   -3.4921614   -2.0540705  0.054378498   -3.4921614    1.4380909   439061 
 3825000   0.95904406   -3.4925835   -3.4925835   -2.0540207  0.057671198   -3.4925835    1.4385628   439061 
 3826000   0.95796491   -3.4928535   -3.4928535   -2.0559094  0.052474325   -3.4928535    1.4369441   439061 
 3827000   0.95868061   -3.4940806   -3.4940806    -2.056063  0.049039995   -3.4940806    1.4380176   439061 
 3828000    0.9590487   -3.4947703   -3.4947703   -2.0562006  0.057309425   -3.4947703    1.4385698   439061 
 3829000   0.96019696   -3.4971544   -3.4971544   -2.0568623  0.056735057   -3.4971544    1.4402922   439061 
 3830000     0.959781   -3.4963213   -3.4963213    -2.056653   0.05074548   -3.4963213    1.4396682   439061 
 3831000   0.95763295   -3.4939113   -3.4939113   -2.0574651  0.059647283   -3.4939113    1.4364462   439061 
 3832000   0.95945913   -3.4962439   -3.4962439   -2.0570585  0.056122765   -3.4962439    1.4391854   439061 
 3833000   0.95847878   -3.4952541   -3.4952541   -2.0575392  0.054599431   -3.4952541    1.4377149   439061 
 3834000   0.95779799   -3.4938812   -3.4938812   -2.0571875  0.052858896   -3.4938812    1.4366937   439061 
 3835000   0.95907083     -3.49686     -3.49686    -2.058257   0.05140522     -3.49686     1.438603   439061 
 3836000   0.95811212   -3.4957227   -3.4957227   -2.0585578  0.057554061   -3.4957227    1.4371649   439061 
 3837000   0.95821068   -3.4956066   -3.4956066   -2.0582938  0.057662802   -3.4956066    1.4373128   439061 
 3838000   0.95796159   -3.4958062   -3.4958062   -2.0588671  0.051388798   -3.4958062    1.4369391   439061 
 3839000   0.95887185   -3.4973577   -3.4973577   -2.0590532  0.052085717   -3.4973577    1.4383045   439061 
 3840000   0.95895189   -3.4984457   -3.4984457   -2.0600211  0.053340943   -3.4984457    1.4384246   439061 
 3841000   0.95947669   -3.4988052   -3.4988052   -2.0595935   0.05391949   -3.4988052    1.4392118   439061 
 3842000   0.95817765   -3.4980546   -3.4980546   -2.0607914  0.050133811   -3.4980546    1.4372632   439061 
 3843000   0.95842275   -3.4978601   -3.4978601   -2.0602293  0.044626055   -3.4978601    1.4376309   439061 
 3844000   0.95881925   -3.4978422   -3.4978422   -2.0596166  0.043961772   -3.4978422    1.4382256   439061 
 3845000   0.95680528   -3.4956434   -3.4956434   -2.0604387   0.05587083   -3.4956434    1.4352047   439061 
 3846000   0.95733276   -3.4963125   -3.4963125   -2.0603167  0.057177909   -3.4963125    1.4359959   439061 
 3847000   0.95850918   -3.4974876   -3.4974876   -2.0597271  0.050607291   -3.4974876    1.4377605   439061 
 3848000   0.95863834   -3.4983305   -3.4983305   -2.0603762  0.049285458   -3.4983305    1.4379542   439061 
 3849000    0.9577964   -3.4971652   -3.4971652   -2.0604738  0.054417386   -3.4971652    1.4366913   439061 
 3850000   0.95634402   -3.4949424   -3.4949424   -2.0604297  0.051907924   -3.4949424    1.4345128   439061 
 3851000   0.95719906   -3.4965499   -3.4965499   -2.0607546  0.049475859   -3.4965499    1.4357953   439061 
 3852000    0.9569879    -3.496594    -3.496594   -2.0611154  0.051050859    -3.496594    1.4354786   439061 
 3853000   0.95709101   -3.4969737   -3.4969737   -2.0613405  0.052453443   -3.4969737    1.4356332   439061 
 3854000   0.95661026   -3.4974773   -3.4974773   -2.0625652  0.052205667   -3.4974773    1.4349121   439061 
 3855000   0.95700285   -3.4979103   -3.4979103   -2.0624093  0.049264371   -3.4979103     1.435501   439061 
 3856000   0.95661213     -3.49677     -3.49677   -2.0618551   0.05817299     -3.49677    1.4349149   439061 
 3857000   0.95773372    -3.497049    -3.497049   -2.0604517  0.057100641    -3.497049    1.4365973   439061 
 3858000   0.95906002   -3.4993179   -3.4993179   -2.0607311  0.056249923   -3.4993179    1.4385868   439061 
 3859000   0.95860843   -3.4988762   -3.4988762   -2.0609668  0.056100047   -3.4988762    1.4379094   439061 
 3860000   0.95873697   -3.4983129   -3.4983129   -2.0602107  0.058357424   -3.4983129    1.4381022   439061 
 3861000   0.95932114   -3.5005773   -3.5005773   -2.0615988  0.051438898   -3.5005773    1.4389784   439061 
 3862000   0.95827672   -3.4989934   -3.4989934   -2.0615816  0.055566972   -3.4989934    1.4374118   439061 
 3863000   0.95934687   -3.5010792   -3.5010792   -2.0620622  0.056484123   -3.5010792     1.439017   439061 
 3864000   0.95865655   -3.4994133   -3.4994133   -2.0614317  0.052545151   -3.4994133    1.4379816   439061 
 3865000   0.95940684    -3.500591    -3.500591    -2.061484  0.052865124    -3.500591     1.439107   439061 
 3866000   0.95686867    -3.497428    -3.497428   -2.0621283  0.054544567    -3.497428    1.4352997   439061 
 3867000   0.95809545   -3.4983111   -3.4983111   -2.0611712  0.051690244   -3.4983111    1.4371399   439061 
 3868000   0.95856424   -3.4988002   -3.4988002   -2.0609571  0.056096582   -3.4988002    1.4378431   439061 
 3869000   0.95831721   -3.4985534   -3.4985534   -2.0610808  0.051826228   -3.4985534    1.4374725   439061 
 3870000   0.95742738   -3.4965532   -3.4965532   -2.0604154  0.051161873   -3.4965532    1.4361378   439061 
 3871000   0.95684057   -3.4966976   -3.4966976     -2.06144    0.0520186   -3.4966976    1.4352576   439061 
 3872000   0.95601837   -3.4950317   -3.4950317   -2.0610074  0.051896516   -3.4950317    1.4340243   439061 
 3873000   0.95798079    -3.497393    -3.497393   -2.0604251  0.048155647    -3.497393    1.4369679   439061 
 3874000   0.95826975   -3.4967818   -3.4967818   -2.0593804  0.051481951   -3.4967818    1.4374013   439061 
 3875000   0.95596616   -3.4943163   -3.4943163   -2.0603703  0.051543614   -3.4943163     1.433946   439061 
 3876000   0.95672666   -3.4957029   -3.4957029   -2.0606162  0.052430199   -3.4957029    1.4350867   439061 
 3877000   0.95745485   -3.4961645   -3.4961645   -2.0599855  0.047955243   -3.4961645     1.436179   439061 
 3878000   0.95578587   -3.4944053   -3.4944053   -2.0607298  0.049758337   -3.4944053    1.4336755   439061 
 3879000   0.95664793   -3.4949219   -3.4949219   -2.0599533  0.049005148   -3.4949219    1.4349686   439061 
 3880000   0.95753096   -3.4964016   -3.4964016   -2.0601084  0.050006341   -3.4964016    1.4362932   439061 
 3881000   0.95740794   -3.4951597   -3.4951597    -2.059051  0.051245471   -3.4951597    1.4361086   439061 
 3882000   0.95790608   -3.4962064   -3.4962064   -2.0593506  0.051611459   -3.4962064    1.4368558   439061 
 3883000   0.95875678   -3.4984011   -3.4984011   -2.0602692  0.046499953   -3.4984011    1.4381319   439061 
 3884000   0.95912908   -3.4994957   -3.4994957   -2.0608053  0.042989261   -3.4994957    1.4386903   439061 
 3885000   0.95866898   -3.4988452   -3.4988452    -2.060845  0.046859164   -3.4988452    1.4380002   439061 
 3886000   0.95949037   -3.4990123   -3.4990123     -2.05978  0.050675534   -3.4990123    1.4392323   439061 
 3887000   0.95826096   -3.4958596   -3.4958596   -2.0584715  0.058438412   -3.4958596    1.4373882   439061 
 3888000   0.95821398   -3.4980283   -3.4980283   -2.0607106   0.05792681   -3.4980283    1.4373177   439061 
 3889000   0.95704945   -3.4971322   -3.4971322   -2.0615613  0.058755196   -3.4971322    1.4355709   439061 
 3890000   0.95907425    -3.499305    -3.499305   -2.0606969  0.046618325    -3.499305    1.4386081   439061 
 3891000   0.95873524   -3.4999271   -3.4999271   -2.0618275   0.05038928   -3.4999271    1.4380996   439061 
 3892000   0.95946332   -3.5006609   -3.5006609   -2.0614692  0.055736638   -3.5006609    1.4391917   439061 
 3893000   0.95837163   -3.5003412   -3.5003412   -2.0627871  0.050688547   -3.5003412    1.4375542   439061 
 3894000   0.95666003    -3.497383    -3.497383   -2.0623963  0.056246953    -3.497383    1.4349868   439061 
 3895000    0.9592268   -3.5001635   -3.5001635   -2.0613265  0.052196405   -3.5001635    1.4388369   439061 
 3896000   0.95777207   -3.4995939   -3.4995939   -2.0629391  0.047253772   -3.4995939    1.4366548   439061 
 3897000   0.95759227    -3.499177    -3.499177   -2.0627918  0.051638011    -3.499177    1.4363851   439061 
 3898000   0.95787699   -3.4992227   -3.4992227   -2.0624105  0.052049423   -3.4992227    1.4368122   439061 
 3899000   0.95798792   -3.4983183   -3.4983183   -2.0613397  0.056782958   -3.4983183    1.4369786   439061 
 3900000   0.95845966   -3.4984682   -3.4984682    -2.060782  0.056353052   -3.4984682    1.4376862   439061 
 3901000   0.95900999   -3.4987148   -3.4987148    -2.060203  0.053028998   -3.4987148    1.4385117   439061 
 3902000   0.95995007   -3.5000359   -3.5000359   -2.0601141  0.050127422   -3.5000359    1.4399218   439061 
 3903000   0.95803911   -3.4977158   -3.4977158   -2.0606604  0.057805448   -3.4977158    1.4370554   439061 
 3904000   0.95973692    -3.499951    -3.499951   -2.0603489  0.057286903    -3.499951    1.4396021   439061 
 3905000   0.95877668   -3.4985661   -3.4985661   -2.0604043  0.054048964   -3.4985661    1.4381617   439061 
 3906000   0.95773735   -3.4987226   -3.4987226   -2.0621198  0.050746119   -3.4987226    1.4366027   439061 
 3907000   0.95828222   -3.4993571   -3.4993571    -2.061937  0.045127908   -3.4993571    1.4374201   439061 
 3908000   0.95726837   -3.4972763   -3.4972763   -2.0613771  0.049871416   -3.4972763    1.4358993   439061 
 3909000   0.95716261   -3.4973248   -3.4973248   -2.0615842  0.049317075   -3.4973248    1.4357406   439061 
 3910000   0.95815043    -3.498625    -3.498625   -2.0614027  0.052188323    -3.498625    1.4372224   439061 
 3911000   0.95619087   -3.4973047   -3.4973047   -2.0630216  0.053248432   -3.4973047     1.434283   439061 
 3912000   0.95669806   -3.4971816   -3.4971816   -2.0621377  0.052741554   -3.4971816    1.4350438   439061 
 3913000   0.95618386   -3.4971303   -3.4971303   -2.0628578  0.053678696   -3.4971303    1.4342725   439061 
 3914000    0.9576597   -3.4986261   -3.4986261   -2.0621399  0.052509454   -3.4986261    1.4364863   439061 
 3915000   0.95813061   -3.4984471   -3.4984471   -2.0612545   0.05837475   -3.4984471    1.4371926   439061 
 3916000   0.95767231   -3.4976249   -3.4976249   -2.0611197  0.052227086   -3.4976249    1.4365052   439061 
 3917000   0.95792595   -3.4991577   -3.4991577    -2.062272  0.050705895   -3.4991577    1.4368857   439061 
 3918000   0.95685101   -3.4977284   -3.4977284   -2.0624551  0.051308382   -3.4977284    1.4352732   439061 
 3919000   0.95626789    -3.497814    -3.497814   -2.0634154  0.050504886    -3.497814    1.4343986   439061 
 3920000   0.95718534   -3.4989516   -3.4989516   -2.0631769  0.049213865   -3.4989516    1.4357747   439061 
 3921000   0.95792251   -3.4995844   -3.4995844   -2.0627039  0.049566171   -3.4995844    1.4368805   439061 
 3922000   0.95855557   -3.5011234   -3.5011234   -2.0632933  0.050512677   -3.5011234    1.4378301   439061 
 3923000   0.95686903   -3.4981308   -3.4981308   -2.0628305  0.051718101   -3.4981308    1.4353003   439061 
 3924000    0.9574434   -3.4993553   -3.4993553   -2.0631934  0.051768595   -3.4993553    1.4361618   439061 
 3925000   0.95582684   -3.4976267   -3.4976267   -2.0638897  0.052822675   -3.4976267     1.433737   439061 
 3926000   0.95683171   -3.4982304   -3.4982304   -2.0629861  0.049470674   -3.4982304    1.4352443   439061 
 3927000   0.95802964   -3.5001522   -3.5001522   -2.0631111  0.051082081   -3.5001522    1.4370412   439061 
 3928000   0.95711154   -3.4985878   -3.4985878   -2.0629238  0.055038788   -3.4985878     1.435664   439061 
 3929000    0.9583314    -3.499945    -3.499945   -2.0624511   0.05823437    -3.499945    1.4374938   439061 
 3930000   0.95843333   -3.5002254   -3.5002254   -2.0625787  0.054479089   -3.5002254    1.4376467   439061 
 3931000   0.95821662   -3.5005889   -3.5005889   -2.0632673  0.051375312   -3.5005889    1.4373217   439061 
 3932000   0.95836317   -3.5004603   -3.5004603   -2.0629188  0.055197425   -3.5004603    1.4375415   439061 
 3933000   0.95733647   -3.5006995   -3.5006995   -2.0646981  0.050733253   -3.5006995    1.4360014   439061 
 3934000   0.95850726   -3.5006182   -3.5006182   -2.0628605  0.048877212   -3.5006182    1.4377576   439061 
 3935000   0.95739437   -3.4987882   -3.4987882   -2.0626999  0.051573055   -3.4987882    1.4360883   439061 
 3936000    0.9568397   -3.4983774   -3.4983774   -2.0631212  0.046977575   -3.4983774    1.4352563   439061 
 3937000   0.95782283   -3.4991299   -3.4991299   -2.0623989  0.054282801   -3.4991299     1.436731   439061 
 3938000   0.95729546   -3.4991631   -3.4991631   -2.0632232  0.052530124   -3.4991631    1.4359399   439061 
 3939000   0.95800258   -3.5027544   -3.5027544   -2.0657538  0.051890794   -3.5027544    1.4370006   439061 
 3940000   0.95689301   -3.5008607   -3.5008607   -2.0655244   0.04915682   -3.5008607    1.4353362   439061 
 3941000   0.95792154   -3.5007592   -3.5007592   -2.0638801  0.055979555   -3.5007592     1.436879   439061 
 3942000   0.95761302   -3.5012475   -3.5012475   -2.0648312  0.050870731   -3.5012475    1.4364163   439061 
 3943000   0.95827832   -3.5019978   -3.5019978   -2.0645836  0.049947749   -3.5019978    1.4374142   439061 
 3944000   0.95708397   -3.5002344   -3.5002344   -2.0646117  0.050890067   -3.5002344    1.4356227   439061 
 3945000   0.95688291   -3.5004684   -3.5004684   -2.0651473  0.047216546   -3.5004684    1.4353211   439061 
 3946000   0.95688577   -3.5009574   -3.5009574    -2.065632  0.043888304   -3.5009574    1.4353254   439061 
 3947000   0.95608243   -3.4999881   -3.4999881   -2.0658677  0.050806612   -3.4999881    1.4341204   439061 
 3948000   0.95696057   -3.5000387   -3.5000387   -2.0646011  0.047096046   -3.5000387    1.4354376   439061 
 3949000   0.95610956   -3.4984912   -3.4984912   -2.0643301  0.055448135   -3.4984912    1.4341611   439061 
 3950000   0.95684877   -3.4999064   -3.4999064   -2.0646365   0.04883747   -3.4999064    1.4352699   439061 
 3951000   0.95690052   -3.5001342   -3.5001342   -2.0647867  0.054216463   -3.5001342    1.4353475   439061 
 3952000   0.95672094   -3.5010536   -3.5010536   -2.0659755  0.052787761   -3.5010536    1.4350781   439061 
 3953000   0.95762816   -3.5027699   -3.5027699   -2.0663309  0.050145728   -3.5027699     1.436439   439061 
 3954000   0.95762584   -3.5027795   -3.5027795    -2.066344  0.053466824   -3.5027795    1.4364355   439061 
 3955000   0.95685454    -3.501401    -3.501401   -2.0661225  0.054558066    -3.501401    1.4352785   439061 
 3956000    0.9561354   -3.5008564   -3.5008564   -2.0666566  0.051435568   -3.5008564    1.4341998   439061 
 3957000   0.95604654   -3.5008642   -3.5008642   -2.0667976  0.051855981   -3.5008642    1.4340665   439061 
 3958000    0.9581603   -3.5022419   -3.5022419   -2.0650048  0.056422445   -3.5022419    1.4372372   439061 
 3959000   0.95760478   -3.5011999   -3.5011999    -2.064796  0.058089879   -3.5011999    1.4364039   439061 
 3960000   0.95872269    -3.502121    -3.502121   -2.0640402  0.056984585    -3.502121    1.4380808   439061 
 3961000   0.95955549   -3.5041036   -3.5041036   -2.0647736  0.049990051   -3.5041036      1.43933   439061 
 3962000   0.95840394   -3.5024945   -3.5024945   -2.0648919  0.054779017   -3.5024945    1.4376026   439061 
 3963000   0.95733261   -3.5022948   -3.5022948   -2.0662992  0.051173632   -3.5022948    1.4359956   439061 
 3964000    0.9574671   -3.5023103   -3.5023103   -2.0661129  0.052035366   -3.5023103    1.4361974   439061 
 3965000   0.95822767   -3.5027271   -3.5027271   -2.0653889  0.052029892   -3.5027271    1.4373382   439061 
 3966000   0.95757002    -3.502455    -3.502455   -2.0661032  0.055200373    -3.502455    1.4363518   439061 
 3967000   0.95787948    -3.501555    -3.501555   -2.0647391  0.053281284    -3.501555    1.4368159   439061 
 3968000   0.95905951   -3.5023462   -3.5023462   -2.0637602  0.052068413   -3.5023462     1.438586   439061 
 3969000   0.95975071   -3.5032052   -3.5032052   -2.0635824  0.052418474   -3.5032052    1.4396228   439061 
 3970000   0.95713925   -3.4997147   -3.4997147   -2.0640091  0.053593297   -3.4997147    1.4357056   439061 
 3971000   0.95742733   -3.4993354   -3.4993354   -2.0631977  0.052071635   -3.4993354    1.4361377   439061 
 3972000   0.95742915   -3.5004959   -3.5004959   -2.0643554  0.054392555   -3.5004959    1.4361405   439061 
 3973000   0.95813859   -3.5005954   -3.5005954   -2.0633908  0.054657308   -3.5005954    1.4372046   439061 
 3974000   0.95676931   -3.4992353   -3.4992353   -2.0640846  0.047851897   -3.4992353    1.4351507   439061 
 3975000   0.95636064   -3.4995542   -3.4995542   -2.0650165  0.053423187   -3.4995542    1.4345377   439061 
 3976000   0.95687603   -3.4988098   -3.4988098    -2.063499  0.048359506   -3.4988098    1.4353108   439061 
 3977000   0.95795217   -3.4991885   -3.4991885   -2.0622635  0.048217356   -3.4991885     1.436925   439061 
 3978000   0.95570158   -3.4968066   -3.4968066   -2.0632575  0.050424083   -3.4968066    1.4335491   439061 
 3979000    0.9565592   -3.4964042   -3.4964042   -2.0615687  0.050179654   -3.4964042    1.4348355   439061 
 3980000   0.95691444   -3.4978865   -3.4978865   -2.0625181  0.049016592   -3.4978865    1.4353684   439061 
 3981000   0.95657036   -3.4967452   -3.4967452   -2.0618929  0.054233083   -3.4967452    1.4348523   439061 
 3982000   0.95802484   -3.4971756   -3.4971756   -2.0601417  0.053263991   -3.4971756     1.437034   439061 
 3983000     0.958836   -3.4982673   -3.4982673   -2.0600165  0.051465356   -3.4982673    1.4382507   439061 
 3984000   0.95894258    -3.499169    -3.499169   -2.0607584  0.051593654    -3.499169    1.4384106   439061 
 3985000   0.95852632    -3.497422    -3.497422   -2.0596358  0.051924202    -3.497422    1.4377862   439061 
 3986000   0.95886487   -3.4982418   -3.4982418   -2.0599478   0.04638979   -3.4982418     1.438294   439061 
 3987000   0.95818955   -3.4978228   -3.4978228   -2.0605417  0.050944729   -3.4978228     1.437281   439061 
 3988000   0.95779364   -3.4971291   -3.4971291   -2.0604419  0.053970108   -3.4971291    1.4366872   439061 
 3989000    0.9567495   -3.4962685   -3.4962685   -2.0611475  0.045576453   -3.4962685     1.435121   439061 
 3990000   0.95763697   -3.4964474   -3.4964474   -2.0599952  0.047672945   -3.4964474    1.4364522   439061 
 3991000   0.95598234    -3.496212    -3.496212   -2.0622418  0.048195315    -3.496212    1.4339702   439061 
 3992000   0.95696138   -3.4989201   -3.4989201   -2.0634813  0.052283441   -3.4989201    1.4354388   439061 
 3993000   0.95683812   -3.4979674   -3.4979674   -2.0627135  0.054508817   -3.4979674    1.4352539   439061 
 3994000   0.95718507   -3.4985426   -3.4985426   -2.0627682  0.049804446   -3.4985426    1.4357743   439061 
 3995000   0.95798529   -3.5004575   -3.5004575   -2.0634828  0.049670779   -3.5004575    1.4369747   439061 
 3996000   0.95671248     -3.49807     -3.49807   -2.0630045  0.055178496     -3.49807    1.4350655   439061 
 3997000   0.95683987   -3.4989707   -3.4989707   -2.0637141  0.045006631   -3.4989707    1.4352565   439061 
 3998000   0.95714382   -3.4987053   -3.4987053   -2.0629928   0.05095712   -3.4987053    1.4357125   439061 
 3999000   0.95576905   -3.4982268   -3.4982268   -2.0645765  0.056735481   -3.4982268    1.4336503   439061 
 4000000   0.95704144   -3.5003775   -3.5003775   -2.0648186  0.048920907   -3.5003775    1.4355589   439061 
 4001000   0.95591909   -3.4990473   -3.4990473    -2.065172  0.052924985   -3.4990473    1.4338754   439061 
 4002000   0.95668424   -3.4999644   -3.4999644   -2.0649413  0.051452087   -3.4999644    1.4350231   439061 
 4003000    0.9564845   -3.4998399   -3.4998399   -2.0651164  0.046433259   -3.4998399    1.4347235   439061 
 4004000   0.95816935     -3.50295     -3.50295   -2.0656992  0.050193045     -3.50295    1.4372508   439061 
 4005000   0.95726358   -3.5028347   -3.5028347   -2.0669426  0.053655038   -3.5028347    1.4358921   439061 
 4006000   0.95685086   -3.5036896   -3.5036896   -2.0684166  0.049169723   -3.5036896     1.435273   439061 
 4007000   0.95660528   -3.5024115   -3.5024115   -2.0675068  0.051428421   -3.5024115    1.4349046   439061 
 4008000   0.95651094   -3.5025603   -3.5025603   -2.0677971  0.055385769   -3.5025603    1.4347631   439061 
 4009000   0.95959861   -3.5055913   -3.5055913   -2.0661967  0.050027463   -3.5055913    1.4393946   439061 
 4010000   0.95892232   -3.5050792   -3.5050792    -2.066699  0.048100588   -3.5050792    1.4383802   439061 
 4011000   0.95794029   -3.5034907   -3.5034907   -2.0665836  0.054233877   -3.5034907    1.4369072   439061 
 4012000   0.95638267   -3.5021752   -3.5021752   -2.0676045  0.055280395   -3.5021752    1.4345707   439061 
 4013000   0.95905298   -3.5048803   -3.5048803   -2.0663041  0.048022796   -3.5048803    1.4385762   439061 
 4014000   0.95930195   -3.5064945   -3.5064945   -2.0675448  0.050303234   -3.5064945    1.4389497   439061 
 4015000   0.95709107   -3.5037973   -3.5037973   -2.0681639  0.052171688   -3.5037973    1.4356333   439061 
 4016000   0.95761233   -3.5044841   -3.5044841   -2.0680689  0.053545339   -3.5044841    1.4364152   439061 
 4017000   0.95744931   -3.5042295   -3.5042295   -2.0680588  0.051322059   -3.5042295    1.4361707   439061 
 4018000   0.95691368   -3.5046214   -3.5046214   -2.0692542  0.051097308   -3.5046214    1.4353672   439061 
 4019000   0.95599054   -3.5032198   -3.5032198   -2.0692373  0.050224721   -3.5032198    1.4339825   439061 
 4020000   0.95629347   -3.5037532   -3.5037532   -2.0693162  0.054038442   -3.5037532    1.4344369   439061 
 4021000    0.9567656   -3.5041797   -3.5041797   -2.0690346  0.048835282   -3.5041797    1.4351451   439061 
 4022000   0.95609722   -3.5022902   -3.5022902   -2.0681476  0.055142238   -3.5022902    1.4341426   439061 
 4023000   0.95669089   -3.5031998   -3.5031998   -2.0681667   0.04601268   -3.5031998    1.4350331   439061 
 4024000   0.95691893     -3.50268     -3.50268   -2.0673049  0.052361302     -3.50268    1.4353751   439061 
 4025000   0.95652048   -3.5029906   -3.5029906   -2.0682131  0.048980746   -3.5029906    1.4347775   439061 
 4026000   0.95602441   -3.5021305   -3.5021305   -2.0680972  0.045962679   -3.5021305    1.4340334   439061 
 4027000   0.95528843   -3.4994472   -3.4994472   -2.0665179   0.05108576   -3.4994472    1.4329294   439061 
 4028000    0.9558313   -3.5003987   -3.5003987    -2.066655  0.057135973   -3.5003987    1.4337437   439061 
 4029000   0.95505264   -3.5005673   -3.5005673   -2.0679917  0.047881771   -3.5005673    1.4325757   439061 
 4030000   0.95673263   -3.5014412   -3.5014412   -2.0663455  0.050525691   -3.5014412    1.4350957   439061 
 4031000   0.95637829   -3.5011141   -3.5011141     -2.06655  0.051020246   -3.5011141    1.4345642   439061 
 4032000   0.95561755   -3.5017349   -3.5017349   -2.0683119  0.050755207   -3.5017349    1.4334231   439061 
 4033000   0.95675597   -3.5035164   -3.5035164   -2.0683857  0.053958559   -3.5035164    1.4351307   439061 
 4034000   0.95613972   -3.5042179   -3.5042179   -2.0700116  0.042803626   -3.5042179    1.4342063   439061 
 4035000    0.9551294   -3.5023763   -3.5023763   -2.0696854  0.046051694   -3.5023763    1.4326908   439061 
 4036000   0.95448737   -3.5020932   -3.5020932   -2.0703654  0.052608716   -3.5020932    1.4317278   439061 
 4037000   0.95487402   -3.5033019   -3.5033019   -2.0709941  0.045755879   -3.5033019    1.4323078   439061 
 4038000   0.95568448   -3.5027758   -3.5027758   -2.0692523  0.050921637   -3.5027758    1.4335235   439061 
 4039000   0.95572278   -3.5044919   -3.5044919    -2.070911   0.05265718   -3.5044919    1.4335809   439061 
 4040000   0.95690541    -3.505645    -3.505645   -2.0702902  0.056436614    -3.505645    1.4353548   439061 
 4041000   0.95744293    -3.506871    -3.506871   -2.0707099  0.051169472    -3.506871    1.4361611   439061 
 4042000   0.95864595   -3.5071147   -3.5071147    -2.069149  0.050399042   -3.5071147    1.4379656   439061 
 4043000      0.95752   -3.5055717   -3.5055717    -2.069295  0.054258916   -3.5055717    1.4362767   439061 
 4044000    0.9572813   -3.5075678   -3.5075678   -2.0716491   0.05582645   -3.5075678    1.4359187   439061 
 4045000    0.9582422   -3.5065198   -3.5065198   -2.0691597  0.054134912   -3.5065198      1.43736   439061 
 4046000   0.95684235   -3.5071291   -3.5071291   -2.0718689  0.055399603   -3.5071291    1.4352603   439061 
 4047000   0.95688214   -3.5067381   -3.5067381   -2.0714181  0.055177536   -3.5067381    1.4353199   439061 
 4048000   0.95611757   -3.5074681   -3.5074681    -2.073295  0.049603538   -3.5074681    1.4341731   439061 
 4049000   0.95574054   -3.5083869   -3.5083869   -2.0747794  0.050051881   -3.5083869    1.4336075   439061 
 4050000   0.95415242   -3.5058153   -3.5058153   -2.0745899  0.048325673   -3.5058153    1.4312254   439061 
 4051000   0.95327945    -3.503674    -3.503674   -2.0737581   0.05275931    -3.503674    1.4299159   439061 
 4052000    0.9544765   -3.5046969   -3.5046969   -2.0729854    0.0527763   -3.5046969    1.4317115   439061 
 4053000   0.95582712   -3.5062739   -3.5062739   -2.0725365  0.051619408   -3.5062739    1.4337374   439061 
 4054000   0.95508503   -3.5063845   -3.5063845   -2.0737602  0.056470411   -3.5063845    1.4326243   439061 
 4055000    0.9555284   -3.5079272   -3.5079272   -2.0746379   0.04951355   -3.5079272    1.4332893   439061 
 4056000   0.95767338   -3.5098613   -3.5098613   -2.0733545  0.044425721   -3.5098613    1.4365068   439061 
 4057000   0.95613624   -3.5084182   -3.5084182   -2.0742171  0.047351465   -3.5084182    1.4342011   439061 
 4058000   0.95512134   -3.5071679   -3.5071679   -2.0744891  0.047790852   -3.5071679    1.4326787   439061 
 4059000   0.95473224   -3.5071682   -3.5071682   -2.0750731   0.04745004   -3.5071682    1.4320951   439061 
 4060000   0.95367436   -3.5060251   -3.5060251   -2.0755168  0.047816282   -3.5060251    1.4305083   439061 
 4061000   0.95569114   -3.5098738   -3.5098738   -2.0763404  0.050876645   -3.5098738    1.4335334   439061 
 4062000   0.95599975   -3.5085004   -3.5085004    -2.074504   0.05050068   -3.5085004    1.4339964   439061 
 4063000    0.9574836   -3.5095925   -3.5095925   -2.0733704  0.047224833   -3.5095925    1.4362221   439061 
 4064000   0.95542918   -3.5075393   -3.5075393   -2.0743988  0.058381099   -3.5075393    1.4331405   439061 
 4065000   0.95582289   -3.5070736   -3.5070736   -2.0733425     0.055014   -3.5070736    1.4337311   439061 
 4066000    0.9575619   -3.5107473   -3.5107473   -2.0744077  0.051210526   -3.5107473    1.4363396   439061 
 4067000   0.95811928   -3.5098464   -3.5098464   -2.0726708  0.056033982   -3.5098464    1.4371757   439061 
 4068000   0.95786677    -3.509309    -3.509309   -2.0725121  0.049474415    -3.509309    1.4367969   439061 
 4069000   0.95649593   -3.5078316   -3.5078316    -2.073091  0.050071369   -3.5078316    1.4347406   439061 
 4070000   0.95640841   -3.5083993   -3.5083993     -2.07379  0.053263258   -3.5083993    1.4346093   439061 
 4071000   0.95642944   -3.5084129   -3.5084129    -2.073772  0.051893426   -3.5084129    1.4346409   439061 
 4072000   0.95643439   -3.5085473   -3.5085473    -2.073899  0.050633586   -3.5085473    1.4346483   439061 
 4073000   0.95505265   -3.5080867   -3.5080867    -2.075511  0.050296748   -3.5080867    1.4325757   439061 
 4074000   0.95581242   -3.5087765   -3.5087765   -2.0750612  0.048006931   -3.5087765    1.4337154   439061 
 4075000   0.95552254   -3.5089578   -3.5089578   -2.0756773  0.052898547   -3.5089578    1.4332805   439061 
 4076000   0.95505631   -3.5064329   -3.5064329   -2.0738517  0.052633657   -3.5064329    1.4325812   439061 
 4077000   0.95632244   -3.5079761   -3.5079761   -2.0734957  0.051677063   -3.5079761    1.4344804   439061 
 4078000    0.9566852   -3.5066644   -3.5066644   -2.0716399  0.049626379   -3.5066644    1.4350245   439061 
 4079000   0.95627609   -3.5060381   -3.5060381   -2.0716272   0.05416932   -3.5060381    1.4344109   439061 
 4080000   0.95648686   -3.5066389   -3.5066389   -2.0719119  0.050770724   -3.5066389     1.434727   439061 
 4081000   0.95652982   -3.5046867   -3.5046867   -2.0698952  0.052369049   -3.5046867    1.4347915   439061 
 4082000   0.95714948   -3.5056344   -3.5056344   -2.0699135  0.049072241   -3.5056344     1.435721   439061 
 4083000   0.95663952   -3.5046225   -3.5046225   -2.0696665  0.051608027   -3.5046225     1.434956   439061 
 4084000   0.95660114   -3.5052969   -3.5052969   -2.0703985  0.049232932   -3.5052969    1.4348984   439061 
 4085000   0.95661183   -3.5044314   -3.5044314   -2.0695169  0.043758801   -3.5044314    1.4349145   439061 
 4086000   0.95702497   -3.5057311   -3.5057311   -2.0701969   0.04444487   -3.5057311    1.4355342   439061 
 4087000     0.956442   -3.5027886   -3.5027886   -2.0681289  0.049388684   -3.5027886    1.4346597   439061 
 4088000   0.95599895   -3.5018108   -3.5018108   -2.0678157  0.046510498   -3.5018108    1.4339952   439061 
 4089000    0.9561584    -3.502339    -3.502339   -2.0681047  0.053316841    -3.502339    1.4342343   439061 
 4090000   0.95715131    -3.503822    -3.503822   -2.0680983  0.045960285    -3.503822    1.4357237   439061 
 4091000   0.95458323   -3.4989209   -3.4989209   -2.0670493  0.048534276   -3.4989209    1.4318716   439061 
 4092000    0.9555774   -3.5009291   -3.5009291   -2.0675663   0.04612602   -3.5009291    1.4333628   439061 
 4093000   0.95535703   -3.5006096   -3.5006096   -2.0675773  0.048070075   -3.5006096    1.4330323   439061 
 4094000    0.9571572    -3.503614    -3.503614   -2.0678814  0.041015518    -3.503614    1.4357325   439061 
 4095000   0.95589216   -3.5004322   -3.5004322   -2.0665972  0.052893459   -3.5004322     1.433835   439061 
 4096000   0.95465039   -3.4996552   -3.4996552   -2.0676829   0.04845548   -3.4996552    1.4319723   439061 
 4097000   0.95677697   -3.5024726   -3.5024726   -2.0673104  0.043853224   -3.5024726    1.4351622   439061 
 4098000   0.95523949   -3.5013585   -3.5013585   -2.0685026  0.047431201   -3.5013585     1.432856   439061 
 4099000   0.95658001    -3.503428    -3.503428   -2.0685613  0.049426111    -3.503428    1.4348667   439061 
 4100000   0.95614329   -3.5026229   -3.5026229   -2.0684112  0.055955734   -3.5026229    1.4342117   439061 
 4101000    0.9555533   -3.5015593   -3.5015593   -2.0682326  0.050465664   -3.5015593    1.4333267   439061 
 4102000   0.95797185   -3.5048178   -3.5048178   -2.0678633  0.049957599   -3.5048178    1.4369545   439061 
 4103000   0.95699984   -3.5046433   -3.5046433   -2.0691468  0.053697943   -3.5046433    1.4354965   439061 
 4104000   0.95772623   -3.5047143   -3.5047143   -2.0681282  0.049929679   -3.5047143    1.4365861   439061 
 4105000   0.95765715   -3.5052817   -3.5052817   -2.0687993  0.053616476   -3.5052817    1.4364824   439061 
 4106000   0.95836914   -3.5067998   -3.5067998   -2.0692493  0.047736271   -3.5067998    1.4375504   439061 
 4107000   0.95616678   -3.5036878   -3.5036878   -2.0694409  0.052151967   -3.5036878    1.4342469   439061 
 4108000   0.95763199    -3.505748    -3.505748   -2.0693033  0.051942081    -3.505748    1.4364447   439061 
 4109000    0.9577327   -3.5055093   -3.5055093   -2.0689135  0.051851333   -3.5055093    1.4365958   439061 
 4110000   0.95804257   -3.5048828   -3.5048828   -2.0678222  0.050888094   -3.5048828    1.4370606   439061 
 4111000   0.95734675   -3.5045531   -3.5045531   -2.0685363  0.055804549   -3.5045531    1.4360169   439061 
 4112000   0.95696833   -3.5044475   -3.5044475   -2.0689983  0.055205367   -3.5044475    1.4354492   439061 
 4113000    0.9576605   -3.5053589   -3.5053589   -2.0688715  0.052469362   -3.5053589    1.4364875   439061 
 4114000   0.95684225   -3.5053032   -3.5053032   -2.0700431   0.05321471   -3.5053032    1.4352601   439061 
 4115000   0.95687275   -3.5055603   -3.5055603   -2.0702544  0.049348888   -3.5055603    1.4353059   439061 
 4116000   0.95564136   -3.5039144   -3.5039144   -2.0704556  0.059310433   -3.5039144    1.4334588   439061 
 4117000   0.95757851   -3.5067279   -3.5067279   -2.0703634  0.047943212   -3.5067279    1.4363645   439061 
 4118000   0.95677805   -3.5057735   -3.5057735   -2.0706097   0.05155555   -3.5057735    1.4351638   439061 
 4119000   0.95694914   -3.5072474   -3.5072474    -2.071827  0.053989301   -3.5072474    1.4354204   439061 
 4120000   0.95673269   -3.5054549   -3.5054549   -2.0703591  0.056137365   -3.5054549    1.4350958   439061 
 4121000   0.95657003   -3.5060293   -3.5060293   -2.0711775  0.052947726   -3.5060293    1.4348518   439061 
 4122000    0.9571496   -3.5064028   -3.5064028   -2.0706817   0.05418621   -3.5064028    1.4357211   439061 
 4123000   0.95719894   -3.5050109   -3.5050109   -2.0692157  0.049678053   -3.5050109    1.4357951   439061 
 4124000    0.9575563   -3.5059152   -3.5059152    -2.069584  0.053432009   -3.5059152    1.4363312   439061 
 4125000   0.95596209   -3.5039811   -3.5039811   -2.0700413  0.054622115   -3.5039811    1.4339399   439061 
 4126000   0.95598201   -3.5046003   -3.5046003   -2.0706306  0.049491411   -3.5046003    1.4339697   439061 
 4127000   0.95680911   -3.5064306   -3.5064306   -2.0712202  0.048530674   -3.5064306    1.4352104   439061 
 4128000   0.95700834    -3.505017    -3.505017   -2.0695077  0.050804544    -3.505017    1.4355092   439061 
 4129000   0.95810405   -3.5064638   -3.5064638    -2.069311  0.046590222   -3.5064638    1.4371528   439061 
 4130000   0.95674555   -3.5065022   -3.5065022   -2.0713871  0.044390787   -3.5065022    1.4351151   439061 
 4131000   0.95583409   -3.5039047   -3.5039047   -2.0701568  0.057240361   -3.5039047    1.4337479   439061 
 4132000   0.95736767   -3.5067974   -3.5067974   -2.0707492  0.050848093   -3.5067974    1.4360482   439061 
 4133000   0.95828738    -3.506997    -3.506997   -2.0695692  0.051571467    -3.506997    1.4374278   439061 
 4134000    0.9575205   -3.5051095   -3.5051095   -2.0688321  0.050331095   -3.5051095    1.4362775   439061 
 4135000   0.95770422   -3.5049688   -3.5049688   -2.0684158  0.051800064   -3.5049688    1.4365531   439061 
 4136000   0.95667587   -3.5019967   -3.5019967   -2.0669861  0.053034292   -3.5019967    1.4350105   439061 
 4137000   0.95809108   -3.5043082   -3.5043082   -2.0671748  0.051749016   -3.5043082    1.4371334   439061 
 4138000   0.95676945   -3.5037515   -3.5037515   -2.0686005  0.050429266   -3.5037515    1.4351509   439061 
 4139000   0.95552123   -3.5021183   -3.5021183   -2.0688397  0.053159359   -3.5021183    1.4332786   439061 
 4140000   0.95622882   -3.5046455   -3.5046455   -2.0703056  0.048205153   -3.5046455      1.43434   439061 
 4141000   0.95508008   -3.5023507   -3.5023507   -2.0697338  0.043570177   -3.5023507    1.4326169   439061 
 4142000   0.95661037   -3.5026189   -3.5026189   -2.0677066  0.052389723   -3.5026189    1.4349123   439061 
 4143000   0.95595025   -3.5030783   -3.5030783   -2.0691562  0.046252961   -3.5030783    1.4339221   439061 
 4144000    0.9551116    -3.502077    -3.502077   -2.0694129  0.047650999    -3.502077    1.4326641   439061 
 4145000   0.95554039   -3.5013988   -3.5013988   -2.0680915  0.048525392   -3.5013988    1.4333073   439061 
 4146000   0.95811037    -3.503365    -3.503365   -2.0662028  0.044587994    -3.503365    1.4371623   439061 
 4147000    0.9577789   -3.5039333   -3.5039333   -2.0672682  0.050343973   -3.5039333    1.4366651   439061 
 4148000   0.95772061   -3.5044048   -3.5044048   -2.0678272  0.046896352   -3.5044048    1.4365776   439061 
 4149000   0.95737823    -3.504232    -3.504232   -2.0681679  0.052643231    -3.504232    1.4360641   439061 
 4150000   0.95800836   -3.5053839   -3.5053839   -2.0683746  0.048130852   -3.5053839    1.4370093   439061 
 4151000   0.95680013   -3.5041809   -3.5041809   -2.0689839  0.049085398   -3.5041809    1.4351969   439061 
 4152000   0.95593764   -3.5037296   -3.5037296   -2.0698264  0.044287575   -3.5037296    1.4339032   439061 
 4153000   0.95594551   -3.5021515   -3.5021515   -2.0682365  0.054400184   -3.5021515     1.433915   439061 
 4154000   0.95727191   -3.5045252   -3.5045252   -2.0686206   0.04995394   -3.5045252    1.4359046   439061 
 4155000   0.95630783   -3.5039281   -3.5039281   -2.0694696  0.054463903   -3.5039281    1.4344585   439061 
 4156000   0.95693411   -3.5058828   -3.5058828   -2.0704849   0.05474635   -3.5058828    1.4353979   439061 
 4157000   0.95754156   -3.5058322   -3.5058322   -2.0695231  0.049715531   -3.5058322    1.4363091   439061 
 4158000   0.95722421   -3.5065049   -3.5065049   -2.0706719  0.046278861   -3.5065049     1.435833   439061 
 4159000   0.95760644   -3.5053597   -3.5053597   -2.0689533  0.048260088   -3.5053597    1.4364064   439061 
 4160000   0.95826371   -3.5061262   -3.5061262   -2.0687339  0.048474587   -3.5061262    1.4373923   439061 
 4161000   0.95706533   -3.5048043   -3.5048043   -2.0692096  0.051238239   -3.5048043    1.4355947   439061 
 4162000   0.95699572    -3.504525    -3.504525   -2.0690347  0.051090969    -3.504525    1.4354903   439061 
 4163000   0.95736516   -3.5037987   -3.5037987   -2.0677542  0.058538835   -3.5037987    1.4360445   439061 
 4164000   0.95836297   -3.5058357   -3.5058357   -2.0682945  0.052500917   -3.5058357    1.4375412   439061 
 4165000   0.95654897     -3.50398     -3.50398   -2.0691598  0.055580252     -3.50398    1.4348202   439061 
 4166000   0.95601587   -3.5033378   -3.5033378   -2.0693172  0.050595351   -3.5033378    1.4340205   439061 
 4167000   0.95709781   -3.5058501   -3.5058501   -2.0702067  0.046890062   -3.5058501    1.4356435   439061 
 4168000   0.95463026   -3.5039073   -3.5039073   -2.0719651  0.048734621   -3.5039073    1.4319421   439061 
 4169000   0.95450539   -3.5037697   -3.5037697   -2.0720149  0.046409883   -3.5037697    1.4317548   439061 
 4170000    0.9536576   -3.5020632   -3.5020632   -2.0715801  0.049653078   -3.5020632    1.4304831   439061 
 4171000   0.95432124   -3.5034296   -3.5034296    -2.071951  0.049348753   -3.5034296    1.4314786   439061 
 4172000   0.95471011   -3.5030189   -3.5030189    -2.070957  0.049499284   -3.5030189    1.4320619   439061 
 4173000   0.95579878   -3.5045748   -3.5045748   -2.0708799  0.052558987   -3.5045748    1.4336949   439061 
 4174000   0.95613247   -3.5049197   -3.5049197   -2.0707242  0.051230931   -3.5049197    1.4341954   439061 
 4175000   0.95814843     -3.50645     -3.50645   -2.0692306  0.054691149     -3.50645    1.4372194   439061 
 4176000   0.95776533   -3.5045659   -3.5045659   -2.0679212  0.054975885   -3.5045659    1.4366447   439061 
 4177000   0.95652738   -3.5048987   -3.5048987   -2.0701109  0.048421119   -3.5048987    1.4347878   439061 
 4178000   0.95725114    -3.506102    -3.506102   -2.0702286  0.053222641    -3.506102    1.4358734   439061 
 4179000   0.95597146   -3.5048594   -3.5048594   -2.0709055  0.056107983   -3.5048594    1.4339539   439061 
 4180000   0.95634293   -3.5068496   -3.5068496   -2.0723385  0.052202379   -3.5068496    1.4345111   439061 
 4181000   0.95636901   -3.5077083   -3.5077083    -2.073158  0.049131675   -3.5077083    1.4345502   439061 
 4182000   0.95591142   -3.5059281   -3.5059281   -2.0720643  0.052527949   -3.5059281    1.4338639   439061 
 4183000   0.95765096   -3.5080332   -3.5080332     -2.07156  0.047311172   -3.5080332    1.4364732   439061 
 4184000   0.95712411   -3.5079672   -3.5079672   -2.0722843   0.04738586   -3.5079672    1.4356829   439061 
 4185000   0.95588155   -3.5081353   -3.5081353   -2.0743163  0.054325658   -3.5081353    1.4338191   439061 
 4186000   0.95649892   -3.5086455   -3.5086455   -2.0739004  0.050195254   -3.5086455    1.4347451   439061 
 4187000   0.95615041   -3.5081333   -3.5081333   -2.0739109  0.052841715   -3.5081333    1.4342224   439061 
 4188000   0.95748664   -3.5094621   -3.5094621   -2.0732354   0.04829659   -3.5094621    1.4362267   439061 
 4189000    0.9578383   -3.5091086   -3.5091086   -2.0723544  0.048722101   -3.5091086    1.4367542   439061 
 4190000   0.95637454   -3.5069987   -3.5069987   -2.0724401  0.051425883   -3.5069987    1.4345585   439061 
 4191000    0.9577566   -3.5096212   -3.5096212   -2.0729896   0.05200697   -3.5096212    1.4366316   439061 
 4192000   0.95598116   -3.5077128   -3.5077128   -2.0737443  0.057891507   -3.5077128    1.4339685   439061 
 4193000   0.95694523   -3.5087702   -3.5087702   -2.0733557  0.055734965   -3.5087702    1.4354146   439061 
 4194000   0.95623856   -3.5073989   -3.5073989   -2.0730443  0.055797806   -3.5073989    1.4343546   439061 
 4195000   0.95633172   -3.5081439   -3.5081439   -2.0736496  0.050796943   -3.5081439    1.4344943   439061 
 4196000   0.95681764   -3.5081752   -3.5081752    -2.072952  0.054006401   -3.5081752    1.4352232   439061 
 4197000   0.95748284   -3.5101125   -3.5101125   -2.0738916  0.050203024   -3.5101125     1.436221   439061 
 4198000   0.95503345   -3.5073566   -3.5073566   -2.0748097  0.049580705   -3.5073566    1.4325469   439061 
 4199000   0.95576232   -3.5090807   -3.5090807   -2.0754405  0.047489673   -3.5090807    1.4336402   439061 
 4200000   0.95697469   -3.5104298   -3.5104298   -2.0749711   0.04661732   -3.5104298    1.4354588   439061 
 4201000   0.95569549   -3.5087583   -3.5087583   -2.0752184  0.050195027   -3.5087583      1.43354   439061 
 4202000   0.95633251   -3.5105069   -3.5105069   -2.0760114  0.047598404   -3.5105069    1.4344955   439061 
 4203000   0.95501372   -3.5088403   -3.5088403    -2.076323  0.052259721   -3.5088403    1.4325173   439061 
 4204000   0.95642853   -3.5093488   -3.5093488   -2.0747092  0.047815123   -3.5093488    1.4346395   439061 
 4205000   0.95616614   -3.5091843   -3.5091843   -2.0749384  0.052886169   -3.5091843    1.4342459   439061 
 4206000   0.95604978   -3.5090949   -3.5090949   -2.0750235   0.05268228   -3.5090949    1.4340714   439061 
 4207000   0.95680674   -3.5100201   -3.5100201   -2.0748133  0.050892142   -3.5100201    1.4352068   439061 
 4208000   0.95668378   -3.5105637   -3.5105637   -2.0755413  0.051969786   -3.5105637    1.4350224   439061 
 4209000   0.95673299   -3.5094457   -3.5094457   -2.0743495   0.05143856   -3.5094457    1.4350962   439061 
 4210000   0.95584993   -3.5094794   -3.5094794   -2.0757077  0.052773211   -3.5094794    1.4337716   439061 
 4211000   0.95640984   -3.5098288   -3.5098288   -2.0752173  0.053466221   -3.5098288    1.4346115   439061 
 4212000   0.95668071   -3.5103754   -3.5103754   -2.0753576  0.051369638   -3.5103754    1.4350178   439061 
 4213000    0.9561276   -3.5093505   -3.5093505   -2.0751624  0.051432226   -3.5093505    1.4341881   439061 
 4214000   0.95598485   -3.5100424   -3.5100424   -2.0760684  0.050246337   -3.5100424     1.433974   439061 
 4215000   0.95494587   -3.5091917   -3.5091917   -2.0767762  0.052324624   -3.5091917    1.4324155   439061 
 4216000   0.95549774   -3.5100601   -3.5100601   -2.0768167  0.048172395   -3.5100601    1.4332433   439061 
 4217000   0.95701735    -3.511014    -3.511014   -2.0754913  0.049069596    -3.511014    1.4355227   439061 
 4218000   0.95772097   -3.5110691   -3.5110691   -2.0744909  0.055572397   -3.5110691    1.4365782   439061 
 4219000   0.95581364   -3.5082935   -3.5082935   -2.0745763  0.051330962   -3.5082935    1.4337172   439061 
 4220000   0.95562604   -3.5080999   -3.5080999   -2.0746641  0.049503173   -3.5080999    1.4334358   439061 
 4221000   0.95564658    -3.508603    -3.508603   -2.0751364   0.05459632    -3.508603    1.4334666   439061 
 4222000   0.95609073   -3.5101099   -3.5101099    -2.075977  0.047376916   -3.5101099    1.4341328   439061 
 4223000   0.95587881   -3.5089805   -3.5089805   -2.0751656  0.049020462   -3.5089805     1.433815   439061 
 4224000   0.95633346   -3.5102074   -3.5102074   -2.0757105  0.049820873   -3.5102074    1.4344969   439061 
 4225000   0.95693627   -3.5111831   -3.5111831    -2.075782  0.046349372   -3.5111831    1.4354011   439061 
 4226000   0.95445424   -3.5068201   -3.5068201    -2.075142  0.046565841   -3.5068201    1.4316781   439061 
 4227000   0.95567405   -3.5078325   -3.5078325   -2.0743247  0.049560657   -3.5078325    1.4335078   439061 
 4228000   0.95560845   -3.5077672   -3.5077672   -2.0743578  0.055334419   -3.5077672    1.4334094   439061 
 4229000   0.95513868   -3.5082534   -3.5082534   -2.0755487  0.048453605   -3.5082534    1.4327048   439061 
 4230000   0.95657859   -3.5095582   -3.5095582   -2.0746936  0.048502976   -3.5095582    1.4348646   439061 
 4231000   0.95565493   -3.5072489   -3.5072489   -2.0737698  0.057597068   -3.5072489    1.4334791   439061 
 4232000   0.95715096   -3.5096598   -3.5096598   -2.0739366  0.050357961   -3.5096598    1.4357232   439061 
 4233000   0.95721174    -3.509831    -3.509831   -2.0740166  0.050227837    -3.509831    1.4358143   439061 
 4234000   0.95688472   -3.5098296   -3.5098296   -2.0745058  0.047214304   -3.5098296    1.4353238   439061 
 4235000   0.95663919   -3.5092291   -3.5092291   -2.0742736  0.053888553   -3.5092291    1.4349555   439061 
 4236000   0.95645431   -3.5083381   -3.5083381   -2.0736599  0.052647073   -3.5083381    1.4346782   439061 
 4237000   0.95591277   -3.5075977   -3.5075977   -2.0737318  0.051903602   -3.5075977    1.4338659   439061 
 4238000   0.95664477   -3.5081544   -3.5081544   -2.0731905  0.044780341   -3.5081544    1.4349639   439061 
 4239000   0.95694345   -3.5098647   -3.5098647   -2.0744528  0.049626991   -3.5098647    1.4354119   439061 
 4240000   0.95516253   -3.5088578   -3.5088578   -2.0761173  0.052632435   -3.5088578    1.4327405   439061 
 4241000   0.95650538   -3.5100765   -3.5100765   -2.0753217  0.045442845   -3.5100765    1.4347548   439061 
 4242000   0.95523089   -3.5076256   -3.5076256   -2.0747826  0.055127189   -3.5076256    1.4328431   439061 
 4243000   0.95624266   -3.5093276   -3.5093276   -2.0749669  0.053037024   -3.5093276    1.4343607   439061 
 4244000   0.95593487   -3.5105926   -3.5105926   -2.0766936  0.049249088   -3.5105926     1.433899   439061 
 4245000   0.95750288   -3.5118472   -3.5118472   -2.0755961  0.045416365   -3.5118472    1.4362511   439061 
 4246000    0.9569326    -3.510693    -3.510693   -2.0752974  0.050108317    -3.510693    1.4353956   439061 
 4247000   0.95571794   -3.5100255   -3.5100255   -2.0764518  0.054362232   -3.5100255    1.4335736   439061 
 4248000   0.95593258   -3.5108265   -3.5108265   -2.0769309  0.051023525   -3.5108265    1.4338956   439061 
 4249000   0.95669772   -3.5114392   -3.5114392   -2.0763959  0.048071377   -3.5114392    1.4350433   439061 
 4250000   0.95692654   -3.5130491   -3.5130491   -2.0776625  0.046708503   -3.5130491    1.4353865   439061 
 4251000    0.9570275   -3.5114774   -3.5114774   -2.0759394  0.055279224   -3.5114774     1.435538   439061 
 4252000   0.95788892   -3.5117972   -3.5117972   -2.0749671  0.054310369   -3.5117972    1.4368301   439061 
 4253000   0.95538438   -3.5097122   -3.5097122   -2.0766388  0.049934513   -3.5097122    1.4330733   439061 
 4254000   0.95779165   -3.5128189   -3.5128189   -2.0761347   0.05583317   -3.5128189    1.4366842   439061 
 4255000   0.95763926   -3.5122305   -3.5122305   -2.0757749  0.056906502   -3.5122305    1.4364556   439061 
 4256000    0.9577473    -3.513257    -3.513257   -2.0766394   0.05222392    -3.513257    1.4366177   439061 
 4257000    0.9576795    -3.511427    -3.511427    -2.074911  0.052680283    -3.511427     1.436516   439061 
 4258000   0.95565734   -3.5109347   -3.5109347   -2.0774519  0.049225441   -3.5109347    1.4334827   439061 
 4259000   0.95504348   -3.5088545   -3.5088545   -2.0762925   0.04973776   -3.5088545     1.432562   439061 
 4260000   0.95588634   -3.5108887   -3.5108887   -2.0770624  0.052828825   -3.5108887    1.4338262   439061 
 4261000   0.95600102   -3.5114452   -3.5114452    -2.077447  0.049852969   -3.5114452    1.4339983   439061 
 4262000   0.95358314   -3.5088521   -3.5088521   -2.0784806  0.053340047   -3.5088521    1.4303714   439061 
 4263000   0.95448739    -3.510123    -3.510123   -2.0783952  0.043755427    -3.510123    1.4317278   439061 
 4264000   0.95406207   -3.5077612   -3.5077612   -2.0766713  0.047342602   -3.5077612    1.4310898   439061 
 4265000   0.95580935   -3.5106836   -3.5106836   -2.0769728  0.042761377   -3.5106836    1.4337108   439061 
 4266000   0.95489609   -3.5083795   -3.5083795   -2.0760386  0.050928167   -3.5083795    1.4323409   439061 
 4267000   0.95772574    -3.511426    -3.511426   -2.0748407  0.046463735    -3.511426    1.4365853   439061 
 4268000   0.95552625   -3.5069622   -3.5069622   -2.0736761  0.050528377   -3.5069622    1.4332861   439061 
 4269000   0.95738049   -3.5094527   -3.5094527   -2.0733852  0.049804691   -3.5094527    1.4360675   439061 
 4270000   0.95873097   -3.5108494   -3.5108494   -2.0727562   0.04985215   -3.5108494    1.4380932   439061 
 4271000   0.95666312   -3.5094896   -3.5094896   -2.0744982    0.0548437   -3.5094896    1.4349914   439061 
 4272000   0.95632905   -3.5083085   -3.5083085   -2.0738182   0.05136897   -3.5083085    1.4344903   439061 
 4273000   0.95707298    -3.509178    -3.509178   -2.0735718  0.050889834    -3.509178    1.4356062   439061 
 4274000   0.95583336   -3.5086434   -3.5086434   -2.0748966  0.050365443   -3.5086434    1.4337468   439061 
 4275000   0.95586641   -3.5074976   -3.5074976   -2.0737012  0.053081919   -3.5074976    1.4337964   439061 
 4276000   0.95680083   -3.5105828   -3.5105828   -2.0753848  0.047943326   -3.5105828     1.435198   439061 
 4277000   0.95583576   -3.5091149   -3.5091149   -2.0753646  0.050465332   -3.5091149    1.4337504   439061 
 4278000   0.95630058   -3.5092431   -3.5092431   -2.0747955  0.053152342   -3.5092431    1.4344476   439061 
 4279000   0.95627576   -3.5082335   -3.5082335   -2.0738232  0.049930208   -3.5082335    1.4344104   439061 
 4280000   0.95785568   -3.5094405   -3.5094405   -2.0726603  0.050820465   -3.5094405    1.4367802   439061 
 4281000   0.95777118   -3.5090814   -3.5090814   -2.0724279  0.051809374   -3.5090814    1.4366535   439061 
 4282000    0.9574776   -3.5090615   -3.5090615   -2.0728484  0.055152282   -3.5090615    1.4362131   439061 
 4283000   0.95565177   -3.5081489   -3.5081489   -2.0746745  0.053868916   -3.5081489    1.4334744   439061 
 4284000    0.9569609   -3.5101839   -3.5101839   -2.0747458   0.04893592   -3.5101839    1.4354381   439061 
 4285000   0.95559309   -3.5083196   -3.5083196   -2.0749333   0.04884985   -3.5083196    1.4333864   439061 
 4286000   0.95471292    -3.507514    -3.507514   -2.0754479  0.048592943    -3.507514    1.4320661   439061 
 4287000    0.9543557   -3.5072623   -3.5072623    -2.075732  0.053723108   -3.5072623    1.4315303   439061 
 4288000    0.9557091   -3.5099353   -3.5099353   -2.0763749  0.047999918   -3.5099353    1.4335604   439061 
 4289000   0.95590721   -3.5101513   -3.5101513   -2.0762938  0.047626197   -3.5101513    1.4338575   439061 
 4290000   0.95640309   -3.5103051   -3.5103051   -2.0757038  0.047937594   -3.5103051    1.4346014   439061 
 4291000   0.95517108   -3.5091227   -3.5091227   -2.0763694  0.051532637   -3.5091227    1.4327534   439061 
 4292000   0.95688605   -3.5120256   -3.5120256   -2.0766998  0.043354748   -3.5120256    1.4353258   439061 
 4293000   0.95736621   -3.5118847   -3.5118847   -2.0758387  0.049088221   -3.5118847     1.436046   439061 
 4294000   0.95735236   -3.5125819   -3.5125819   -2.0765566   0.05249894   -3.5125819    1.4360253   439061 
 4295000   0.95714314   -3.5114911   -3.5114911   -2.0757796  0.055247789   -3.5114911    1.4357114   439061 
 4296000    0.9578695   -3.5122918   -3.5122918   -2.0754908  0.055068983   -3.5122918     1.436801   439061 
 4297000   0.95828106   -3.5120118   -3.5120118   -2.0745935  0.050143485   -3.5120118    1.4374183   439061 
 4298000   0.95813126   -3.5106046   -3.5106046    -2.073411  0.058790429   -3.5106046    1.4371936   439061 
 4299000   0.95884455   -3.5127409   -3.5127409   -2.0744773  0.057641935   -3.5127409    1.4382635   439061 
 4300000   0.95953321   -3.5155854   -3.5155854   -2.0762888  0.055452757   -3.5155854    1.4392965   439061 
 4301000   0.95768914   -3.5138932   -3.5138932   -2.0773627  0.050068695   -3.5138932    1.4365304   439061 
 4302000   0.95722164   -3.5116212   -3.5116212    -2.075792  0.050412395   -3.5116212    1.4358292   439061 
 4303000   0.95679672   -3.5112944   -3.5112944   -2.0761026  0.047436511   -3.5112944    1.4351918   439061 
 4304000   0.95593717   -3.5104456   -3.5104456   -2.0765431  0.044334212   -3.5104456    1.4339025   439061 
 4305000   0.95437043   -3.5095746   -3.5095746   -2.0780222  0.051917833   -3.5095746    1.4315524   439061 
 4306000   0.95626051   -3.5111223   -3.5111223   -2.0767348  0.052423925   -3.5111223    1.4343875   439061 
 4307000   0.95582455   -3.5110283   -3.5110283   -2.0772947  0.047537173   -3.5110283    1.4337336   439061 
 4308000   0.95520778   -3.5083147   -3.5083147   -2.0755062  0.050880482   -3.5083147    1.4328084   439061 
 4309000   0.95618118   -3.5096955   -3.5096955    -2.075427  0.051665989   -3.5096955    1.4342685   439061 
 4310000   0.95497231   -3.5067802   -3.5067802   -2.0743249  0.054182142   -3.5067802    1.4324552   439061 
 4311000   0.95567118   -3.5073239   -3.5073239   -2.0738204  0.048818076   -3.5073239    1.4335035   439061 
 4312000   0.95726658   -3.5080864   -3.5080864   -2.0721898  0.056270347   -3.5080864    1.4358966   439061 
 4313000   0.95657615   -3.5079447   -3.5079447   -2.0730837  0.047869448   -3.5079447     1.434861   439061 
 4314000   0.95667901   -3.5095941   -3.5095941   -2.0745789  0.051948083   -3.5095941    1.4350152   439061 
 4315000   0.95582279   -3.5084551   -3.5084551   -2.0747242  0.047730269   -3.5084551    1.4337309   439061 
 4316000   0.95619157   -3.5082483   -3.5082483   -2.0739642  0.046136344   -3.5082483    1.4342841   439061 
 4317000   0.95550048   -3.5078444   -3.5078444    -2.074597  0.044917748   -3.5078444    1.4332475   439061 
 4318000   0.95487082   -3.5059733   -3.5059733   -2.0736703  0.051209643   -3.5059733     1.432303   439061 
 4319000   0.95689196   -3.5081011   -3.5081011   -2.0727665  0.047709878   -3.5081011    1.4353347   439061 
 4320000   0.95559052   -3.5066878   -3.5066878   -2.0733052  0.053443148   -3.5066878    1.4333825   439061 
 4321000   0.95628991   -3.5075707   -3.5075707   -2.0731391  0.048700762   -3.5075707    1.4344316   439061 
 4322000   0.95703853   -3.5086525   -3.5086525    -2.073098  0.050337205   -3.5086525    1.4355545   439061 
 4323000   0.95733152    -3.508698    -3.508698   -2.0727039  0.053780052    -3.508698     1.435994   439061 
 4324000   0.95798601   -3.5092375   -3.5092375   -2.0722617  0.050774611   -3.5092375    1.4369757   439061 
 4325000    0.9585149   -3.5110798   -3.5110798   -2.0733107  0.049694653   -3.5110798    1.4377691   439061 
 4326000   0.95575532   -3.5070971   -3.5070971   -2.0734673  0.048907653   -3.5070971    1.4336297   439061 
 4327000    0.9550273   -3.5063771   -3.5063771   -2.0738394  0.048054835   -3.5063771    1.4325377   439061 
 4328000   0.95469854   -3.5058662   -3.5058662   -2.0738216  0.056118406   -3.5058662    1.4320445   439061 
 4329000    0.9567915   -3.5094393   -3.5094393   -2.0742553  0.045272538   -3.5094393     1.435184   439061 
 4330000   0.95544255   -3.5073666   -3.5073666    -2.074206  0.054138754   -3.5073666    1.4331606   439061 
 4331000      0.95419    -3.506908    -3.506908   -2.0756263  0.052732791    -3.506908    1.4312817   439061 
 4332000   0.95540253   -3.5085757   -3.5085757   -2.0754752  0.053945624   -3.5085757    1.4331005   439061 
 4333000   0.95689705   -3.5092677   -3.5092677   -2.0739254  0.050570699   -3.5092677    1.4353423   439061 
 4334000   0.95795215    -3.510502    -3.510502   -2.0735771  0.049676332    -3.510502    1.4369249   439061 
 4335000   0.95640219   -3.5083307   -3.5083307   -2.0737306  0.051576113   -3.5083307       1.4346   439061 
 4336000   0.95662201     -3.50938     -3.50938   -2.0744503  0.054213115     -3.50938    1.4349297   439061 
 4337000   0.95605805   -3.5091793   -3.5091793   -2.0750955  0.055862968   -3.5091793    1.4340838   439061 
 4338000   0.95640435   -3.5107429   -3.5107429   -2.0761397  0.048098565   -3.5107429    1.4346033   439061 
 4339000   0.95557494   -3.5091243   -3.5091243   -2.0757651  0.056186487   -3.5091243    1.4333591   439061 
 4340000   0.95703076   -3.5100106   -3.5100106   -2.0744677  0.046708638   -3.5100106    1.4355429   439061 
 4341000    0.9567479   -3.5104688   -3.5104688   -2.0753503  0.052114017   -3.5104688    1.4351186   439061 
 4342000   0.95691251    -3.510374    -3.510374   -2.0750085   0.04851803    -3.510374    1.4353655   439061 
 4343000   0.95703339   -3.5101271   -3.5101271   -2.0745803  0.054865842   -3.5101271    1.4355468   439061 
 4344000   0.95643233   -3.5103292   -3.5103292    -2.075684  0.049271483   -3.5103292    1.4346452   439061 
 4345000   0.95648102   -3.5111836   -3.5111836   -2.0764653  0.051250086   -3.5111836    1.4347183   439061 
 4346000   0.95593638   -3.5095265   -3.5095265   -2.0756252  0.056012285   -3.5095265    1.4339013   439061 
 4347000   0.95679554   -3.5103953   -3.5103953   -2.0752053  0.048117854   -3.5103953      1.43519   439061 
 4348000   0.95563636   -3.5087959   -3.5087959   -2.0753446  0.044982889   -3.5087959    1.4334513   439061 
 4349000   0.95479099   -3.5074206   -3.5074206   -2.0752374  0.052562654   -3.5074206    1.4321832   439061 
 4350000   0.95639753   -3.5107604   -3.5107604   -2.0761674  0.047575673   -3.5107604     1.434593   439061 
 4351000   0.95508648    -3.508351    -3.508351   -2.0757246  0.051165843    -3.508351    1.4326265   439061 
 4352000   0.95632586   -3.5107145   -3.5107145    -2.076229  0.045296558   -3.5107145    1.4344855   439061 
 4353000    0.9555413   -3.5080705   -3.5080705   -2.0747618  0.048680301   -3.5080705    1.4333087   439061 
 4354000   0.95528081   -3.5066523   -3.5066523   -2.0737343  0.050747746   -3.5066523    1.4329179   439061 
 4355000   0.95465874   -3.5052305   -3.5052305   -2.0732456  0.051755362   -3.5052305    1.4319848   439061 
 4356000   0.95501954   -3.5050665   -3.5050665   -2.0725404  0.051298754   -3.5050665     1.432526   439061 
 4357000   0.95493689   -3.5058909   -3.5058909   -2.0734888  0.050956737   -3.5058909    1.4324021   439061 
 4358000    0.9557333   -3.5078543   -3.5078543   -2.0742576  0.048353529   -3.5078543    1.4335967   439061 
 4359000   0.95530828   -3.5049333   -3.5049333   -2.0719741  0.051246944   -3.5049333    1.4329592   439061 
 4360000   0.95350619   -3.5036515   -3.5036515   -2.0733955  0.051901118   -3.5036515     1.430256   439061 
 4361000    0.9531632    -3.503295    -3.503295   -2.0735534   0.05265917    -3.503295    1.4297415   439061 
 4362000   0.95632699   -3.5072683   -3.5072683   -2.0727811  0.049969403   -3.5072683    1.4344872   439061 
 4363000   0.95579475   -3.5059232   -3.5059232   -2.0722343  0.051297777   -3.5059232    1.4336889   439061 
 4364000   0.95696721   -3.5074947   -3.5074947   -2.0720472   0.04664403   -3.5074947    1.4354475   439061 
 4365000   0.95510157   -3.5048099   -3.5048099   -2.0721608  0.045264266   -3.5048099    1.4326491   439061 
 4366000   0.95463193   -3.5048743   -3.5048743   -2.0729296  0.047729677   -3.5048743    1.4319446   439061 
 4367000   0.95400335   -3.5055377   -3.5055377   -2.0745359  0.048759673   -3.5055377    1.4310018   439061 
 4368000   0.95516892   -3.5068751   -3.5068751    -2.074125  0.050118788   -3.5068751    1.4327501   439061 
 4369000   0.95684892   -3.5082388   -3.5082388   -2.0729687  0.048943913   -3.5082388    1.4352701   439061 
 4370000   0.95675376   -3.5074569   -3.5074569   -2.0723296  0.053717011   -3.5074569    1.4351274   439061 
 4371000   0.95637633   -3.5070275   -3.5070275   -2.0724663  0.054946947   -3.5070275    1.4345612   439061 
 4372000   0.95719031    -3.506847    -3.506847   -2.0710648   0.05028282    -3.506847    1.4357822   439061 
 4373000   0.95766571   -3.5081117   -3.5081117   -2.0716164  0.050481836   -3.5081117    1.4364953   439061 
 4374000   0.95713606   -3.5088023   -3.5088023   -2.0731015  0.052099571   -3.5088023    1.4357008   439061 
 4375000   0.95670035   -3.5078759   -3.5078759   -2.0728286  0.050557006   -3.5078759    1.4350473   439061 
 4376000   0.95667197   -3.5076812   -3.5076812   -2.0726765  0.051398928   -3.5076812    1.4350047   439061 
 4377000   0.95693342   -3.5068438   -3.5068438   -2.0714469  0.051014545   -3.5068438    1.4353969   439061 
 4378000   0.95492398     -3.50606     -3.50606   -2.0736773  0.047469186     -3.50606    1.4323827   439061 
 4379000   0.95608289   -3.5076052   -3.5076052   -2.0734841  0.051903478   -3.5076052    1.4341211   439061 
 4380000   0.95775826   -3.5106859   -3.5106859   -2.0740518  0.048026501   -3.5106859    1.4366341   439061 
 4381000     0.957298   -3.5085691   -3.5085691   -2.0726254  0.048002403   -3.5085691    1.4359437   439061 
 4382000   0.95575603   -3.5068372   -3.5068372   -2.0732064  0.051425269   -3.5068372    1.4336308   439061 
 4383000   0.95542625   -3.5073238   -3.5073238   -2.0741877  0.050117619   -3.5073238    1.4331361   439061 
 4384000   0.95334206   -3.5050445   -3.5050445   -2.0750346   0.05180397   -3.5050445    1.4300098   439061 
 4385000   0.95647819    -3.508536    -3.508536    -2.073822  0.047795378    -3.508536     1.434714   439061 
 4386000   0.95564931   -3.5079779   -3.5079779   -2.0745072  0.048602526   -3.5079779    1.4334707   439061 
 4387000   0.95524914   -3.5071337   -3.5071337   -2.0742632  0.049954165   -3.5071337    1.4328704   439061 
 4388000   0.95490307   -3.5080763   -3.5080763   -2.0757249  0.050501911   -3.5080763    1.4323513   439061 
 4389000   0.95545255   -3.5083578   -3.5083578   -2.0751823  0.043840649   -3.5083578    1.4331756   439061 
 4390000   0.95531034   -3.5082531   -3.5082531   -2.0752909    0.0427962   -3.5082531    1.4329622   439061 
 4391000   0.95584844   -3.5089408   -3.5089408   -2.0751714  0.046754824   -3.5089408    1.4337694   439061 
 4392000   0.95596574   -3.5099462   -3.5099462   -2.0760008  0.049718314   -3.5099462    1.4339453   439061 
 4393000   0.95659042   -3.5116195   -3.5116195   -2.0767371  0.049946008   -3.5116195    1.4348824   439061 
 4394000   0.95517287   -3.5107458   -3.5107458   -2.0779897  0.050276114   -3.5107458     1.432756   439061 
 4395000   0.95538708   -3.5105348   -3.5105348   -2.0774575  0.052479734   -3.5105348    1.4330774   439061 
 4396000   0.95438812   -3.5098427   -3.5098427   -2.0782637  0.055543837   -3.5098427    1.4315789   439061 
 4397000   0.95517724   -3.5108718   -3.5108718   -2.0781092  0.049692669   -3.5108718    1.4327626   439061 
 4398000   0.95432725   -3.5101442   -3.5101442   -2.0786566  0.051542341   -3.5101442    1.4314876   439061 
 4399000   0.95593777   -3.5114815   -3.5114815   -2.0775781  0.053161669   -3.5114815    1.4339034   439061 
 4400000   0.95506899   -3.5110972   -3.5110972   -2.0784969  0.050729275   -3.5110972    1.4326002   439061 
 4401000   0.95648375   -3.5119023   -3.5119023     -2.07718  0.054841846   -3.5119023    1.4347224   439061 
 4402000   0.95840652   -3.5139643   -3.5139643   -2.0763578  0.053394324   -3.5139643    1.4376065   439061 
 4403000   0.95594212   -3.5108822   -3.5108822   -2.0769723  0.055330193   -3.5108822    1.4339099   439061 
 4404000   0.95652426   -3.5132006   -3.5132006   -2.0784174  0.050637376   -3.5132006    1.4347831   439061 
 4405000   0.95630034    -3.510995    -3.510995   -2.0765477  0.058192407    -3.510995    1.4344472   439061 
 4406000   0.95658688   -3.5116182   -3.5116182   -2.0767412  0.053339366   -3.5116182     1.434877   439061 
 4407000   0.95665579   -3.5112653   -3.5112653   -2.0762849  0.050419613   -3.5112653    1.4349804   439061 
 4408000    0.9558918   -3.5106314   -3.5106314    -2.076797  0.048274748   -3.5106314    1.4338344   439061 
 4409000   0.95599076   -3.5102669   -3.5102669   -2.0762841  0.053021979   -3.5102669    1.4339829   439061 
 4410000   0.95797578   -3.5135744   -3.5135744    -2.076614  0.047849582   -3.5135744    1.4369604   439061 
 4411000   0.95571602   -3.5102562   -3.5102562   -2.0766854  0.050769233   -3.5102562    1.4335708   439061 
 4412000   0.95663087   -3.5100498   -3.5100498   -2.0751068  0.053009602   -3.5100498     1.434943   439061 
 4413000   0.95652944   -3.5087443   -3.5087443   -2.0739534  0.052344311   -3.5087443    1.4347909   439061 
 4414000    0.9556863   -3.5074669   -3.5074669   -2.0739407  0.051341175   -3.5074669    1.4335262   439061 
 4415000    0.9557491   -3.5072232   -3.5072232   -2.0736028  0.045875545   -3.5072232    1.4336204   439061 
 4416000   0.95401595    -3.505323    -3.505323   -2.0743023  0.050252192    -3.505323    1.4310207   439061 
 4417000   0.95429137   -3.5060835   -3.5060835   -2.0746497  0.046184062   -3.5060835    1.4314338   439061 
 4418000   0.95505894   -3.5066259   -3.5066259   -2.0740407  0.045233507   -3.5066259    1.4325852   439061 
 4419000   0.95660789    -3.509047    -3.509047   -2.0741384  0.047642187    -3.509047    1.4349086   439061 
 4420000    0.9543628    -3.505345    -3.505345    -2.073804   0.05179268    -3.505345    1.4315409   439061 
 4421000   0.95344711   -3.5028933   -3.5028933   -2.0727259  0.053353758   -3.5028933    1.4301674   439061 
 4422000   0.95354661   -3.5042571   -3.5042571   -2.0739404  0.049331012   -3.5042571    1.4303167   439061 
 4423000   0.95457592   -3.5061741   -3.5061741   -2.0743134   0.04660936   -3.5061741    1.4318606   439061 
 4424000   0.95557976   -3.5080361   -3.5080361   -2.0746697  0.050251989   -3.5080361    1.4333664   439061 
 4425000   0.95586832   -3.5074114   -3.5074114   -2.0736122  0.052097818   -3.5074114    1.4337992   439061 
 4426000   0.95680717   -3.5078172   -3.5078172   -2.0726097  0.050247214   -3.5078172    1.4352075   439061 
 4427000   0.95620072   -3.5074556   -3.5074556   -2.0731578  0.054904916   -3.5074556    1.4342978   439061 
 4428000   0.95766156   -3.5095527   -3.5095527   -2.0730636  0.050318393   -3.5095527    1.4364891   439061 
 4429000    0.9569285   -3.5085599   -3.5085599   -2.0731704  0.056920125   -3.5085599    1.4353895   439061 
 4430000   0.95591931   -3.5090272   -3.5090272   -2.0751515  0.053580361   -3.5090272    1.4338757   439061 
 4431000   0.95821086   -3.5106756   -3.5106756   -2.0733626  0.052959181   -3.5106756     1.437313   439061 
 4432000   0.95929474    -3.511308    -3.511308   -2.0723692  0.056423765    -3.511308    1.4389388   439061 
 4433000   0.95765329   -3.5093615   -3.5093615   -2.0728849  0.052377027   -3.5093615    1.4364767   439061 
 4434000   0.95682312   -3.5090235   -3.5090235   -2.0737921  0.056499622   -3.5090235    1.4352314   439061 
 4435000   0.95686259    -3.510141    -3.510141   -2.0748504  0.053459782    -3.510141    1.4352906   439061 
 4436000    0.9567488   -3.5095855   -3.5095855   -2.0744656  0.057454484   -3.5095855    1.4351199   439061 
 4437000    0.9552328    -3.507673    -3.507673    -2.074827  0.057044707    -3.507673    1.4328459   439061 
 4438000   0.95604243   -3.5089116   -3.5089116   -2.0748512  0.049444358   -3.5089116    1.4340604   439061 
 4439000   0.95664092   -3.5096796   -3.5096796   -2.0747215  0.051500855   -3.5096796    1.4349581   439061 
 4440000   0.95711723   -3.5110253   -3.5110253   -2.0753527  0.052969077   -3.5110253    1.4356726   439061 
 4441000   0.95617029   -3.5086216   -3.5086216   -2.0743695  0.048755027   -3.5086216    1.4342522   439061 
 4442000   0.95707041   -3.5083039   -3.5083039   -2.0727015  0.056564606   -3.5083039    1.4356023   439061 
 4443000   0.95619929   -3.5073832   -3.5073832   -2.0730875  0.050438268   -3.5073832    1.4342957   439061 
 4444000   0.95644812   -3.5075446   -3.5075446   -2.0728757  0.049744278   -3.5075446    1.4346689   439061 
 4445000   0.95678762   -3.5072128   -3.5072128   -2.0720346  0.046999674   -3.5072128    1.4351782   439061 
 4446000   0.95711965   -3.5077299   -3.5077299   -2.0720537  0.049034481   -3.5077299    1.4356762   439061 
 4447000   0.95583623   -3.5051702   -3.5051702   -2.0714191  0.046971748   -3.5051702    1.4337511   439061 
 4448000   0.95597824   -3.5061328   -3.5061328   -2.0721687  0.045385457   -3.5061328    1.4339641   439061 
 4449000   0.95462506   -3.5052652   -3.5052652   -2.0733308  0.050159956   -3.5052652    1.4319343   439061 
 4450000   0.95480726   -3.5050235   -3.5050235   -2.0728158  0.042165821   -3.5050235    1.4322076   439061 
 4451000   0.95460232   -3.5041737   -3.5041737   -2.0722735  0.048600032   -3.5041737    1.4319002   439061 
 4452000   0.95439664   -3.5035156   -3.5035156   -2.0719239  0.046117653   -3.5035156    1.4315917   439061 
 4453000    0.9560465   -3.5070566   -3.5070566   -2.0729901  0.040922471   -3.5070566    1.4340665   439061 
 4454000   0.95592985   -3.5057633   -3.5057633   -2.0718718  0.049580091   -3.5057633    1.4338915   439061 
 4455000    0.9551885   -3.5053745   -3.5053745    -2.072595  0.053076029   -3.5053745    1.4327795   439061 
 4456000   0.95698535   -3.5081178   -3.5081178    -2.072643  0.046012517   -3.5081178    1.4354748   439061 
 4457000   0.95835645   -3.5087554   -3.5087554    -2.071224  0.047681084   -3.5087554    1.4375314   439061 
 4458000   0.95726745   -3.5067034   -3.5067034   -2.0708055   0.05398743   -3.5067034    1.4358979   439061 
 4459000   0.95717758   -3.5065112   -3.5065112   -2.0707481  0.052672256   -3.5065112    1.4357631   439061 
 4460000   0.95875445   -3.5084578   -3.5084578   -2.0703294  0.044509234   -3.5084578    1.4381284   439061 
 4461000   0.95615027   -3.5064435   -3.5064435   -2.0722214   0.05473706   -3.5064435    1.4342221   439061 
 4462000   0.95528905   -3.5081508   -3.5081508   -2.0752205   0.05178801   -3.5081508    1.4329303   439061 
 4463000   0.95714644   -3.5102631   -3.5102631   -2.0745467  0.053320948   -3.5102631    1.4357164   439061 
 4464000   0.95573561   -3.5089628   -3.5089628   -2.0753626  0.055176409   -3.5089628    1.4336002   439061 
 4465000   0.95651593   -3.5107551   -3.5107551   -2.0759845  0.049885877   -3.5107551    1.4347706   439061 
 4466000   0.95609507   -3.5119824   -3.5119824   -2.0778431  0.047810762   -3.5119824    1.4341393   439061 
 4467000   0.95537493    -3.510541    -3.510541   -2.0774819  0.052341528    -3.510541    1.4330591   439061 
 4468000   0.95564837   -3.5115905   -3.5115905   -2.0781212  0.048814286   -3.5115905    1.4334693   439061 
 4469000   0.95594428   -3.5113172   -3.5113172   -2.0774041  0.048056884   -3.5113172    1.4339131   439061 
 4470000   0.95645598   -3.5118643   -3.5118643   -2.0771835  0.048430615   -3.5118643    1.4346807   439061 
 4471000   0.95446897   -3.5091259   -3.5091259   -2.0774257  0.051481383   -3.5091259    1.4317002   439061 
 4472000   0.95570527   -3.5104684   -3.5104684   -2.0769137  0.051376673   -3.5104684    1.4335546   439061 
 4473000   0.95483911   -3.5096547   -3.5096547   -2.0773993  0.051009972   -3.5096547    1.4322554   439061 
 4474000   0.95637693    -3.510994    -3.510994   -2.0764319  0.052667037    -3.510994    1.4345621   439061 
 4475000   0.95702595    -3.511747    -3.511747   -2.0762114  0.052708356    -3.511747    1.4355357   439061 
 4476000   0.95792374   -3.5141068   -3.5141068   -2.0772244  0.050224947   -3.5141068    1.4368823   439061 
 4477000   0.95622683   -3.5105844   -3.5105844   -2.0762475  0.054086234   -3.5105844     1.434337   439061 
 4478000   0.95868703   -3.5137175   -3.5137175   -2.0756902   0.04908799   -3.5137175    1.4380273   439061 
 4479000   0.95621277   -3.5104041   -3.5104041   -2.0760882  0.049535537   -3.5104041    1.4343159   439061 
 4480000   0.95802181   -3.5123792   -3.5123792   -2.0753497  0.046872781   -3.5123792    1.4370294   439061 
 4481000   0.95759571    -3.511955    -3.511955   -2.0755647  0.053994992    -3.511955    1.4363903   439061 
 4482000   0.95746949   -3.5124087   -3.5124087   -2.0762077  0.047820011   -3.5124087     1.436201   439061 
 4483000    0.9571706   -3.5111732   -3.5111732   -2.0754206  0.050370368   -3.5111732    1.4357526   439061 
 4484000   0.95624129   -3.5108244   -3.5108244   -2.0764657  0.051552096   -3.5108244    1.4343587   439061 
 4485000   0.95600393   -3.5105948   -3.5105948   -2.0765922  0.047870706   -3.5105948    1.4340026   439061 
 4486000   0.95491718   -3.5086345   -3.5086345    -2.076262  0.052830125   -3.5086345    1.4323725   439061 
 4487000   0.95623965   -3.5114656   -3.5114656   -2.0771093  0.044411242   -3.5114656    1.4343562   439061 
 4488000   0.95460282   -3.5089642   -3.5089642   -2.0770633  0.047735199   -3.5089642     1.431901   439061 
 4489000   0.95528619   -3.5085255   -3.5085255   -2.0755995   0.04877456   -3.5085255     1.432926   439061 
 4490000   0.95563347   -3.5094733   -3.5094733   -2.0760264  0.046838868   -3.5094733    1.4334469   439061 
 4491000   0.95380187   -3.5067888   -3.5067888   -2.0760892  0.049769955   -3.5067888    1.4306995   439061 
 4492000   0.95383284   -3.5063015   -3.5063015   -2.0755555  0.046256019   -3.5063015     1.430746   439061 
 4493000   0.95557649   -3.5078224   -3.5078224   -2.0744609  0.049199659   -3.5078224    1.4333615   439061 
 4494000   0.95567873   -3.5088846   -3.5088846   -2.0753698  0.049068501   -3.5088846    1.4335148   439061 
 4495000   0.95583574   -3.5088604   -3.5088604   -2.0751101  0.048671032   -3.5088604    1.4337503   439061 
 4496000   0.95655063   -3.5104238   -3.5104238   -2.0756012  0.049472804   -3.5104238    1.4348227   439061 
 4497000    0.9573888     -3.51014     -3.51014     -2.07406  0.046400476     -3.51014    1.4360799   439061 
 4498000   0.95551357   -3.5076116   -3.5076116   -2.0743445  0.056115946   -3.5076116    1.4332671   439061 
 4499000   0.95705165   -3.5108891   -3.5108891   -2.0753149  0.046371961   -3.5108891    1.4355742   439061 
 4500000   0.95555095   -3.5096546   -3.5096546   -2.0763315  0.048776367   -3.5096546    1.4333232   439061 
 4501000    0.9567051    -3.512006    -3.512006   -2.0769516   0.04777333    -3.512006    1.4350544   439061 
 4502000   0.95650593   -3.5117203   -3.5117203   -2.0769647  0.051437471   -3.5117203    1.4347556   439061 
 4503000    0.9570407   -3.5116499   -3.5116499   -2.0760921  0.053996495   -3.5116499    1.4355578   439061 
 4504000   0.95760087   -3.5124213   -3.5124213   -2.0760232  0.049938969   -3.5124213     1.436398   439061 
 4505000   0.95689777   -3.5127994   -3.5127994   -2.0774561  0.047901525   -3.5127994    1.4353434   439061 
 4506000   0.95385546    -3.508198    -3.508198   -2.0774181  0.058051085    -3.508198    1.4307799   439061 
 4507000   0.95609702   -3.5120508   -3.5120508   -2.0779086  0.047451837   -3.5120508    1.4341423   439061 
 4508000    0.9545247   -3.5113909   -3.5113909   -2.0796071  0.047932214   -3.5113909    1.4317838   439061 
 4509000   0.95511502   -3.5121211   -3.5121211   -2.0794518  0.047880381   -3.5121211    1.4326693   439061 
 4510000   0.95522527   -3.5120713   -3.5120713   -2.0792366  0.048728393   -3.5120713    1.4328346   439061 
 4511000   0.95496429   -3.5106916   -3.5106916   -2.0782484  0.053507377   -3.5106916    1.4324432   439061 
 4512000   0.95742964   -3.5127265   -3.5127265   -2.0765853  0.052261832   -3.5127265    1.4361412   439061 
 4513000   0.95764904   -3.5140792   -3.5140792   -2.0776089  0.055504709   -3.5140792    1.4364703   439061 
 4514000   0.95709666   -3.5130925   -3.5130925   -2.0774508  0.053973139   -3.5130925    1.4356417   439061 
 4515000   0.95637972   -3.5124564   -3.5124564   -2.0778901  0.054666719   -3.5124564    1.4345663   439061 
 4516000   0.95615787     -3.51334     -3.51334   -2.0791065  0.054016302     -3.51334    1.4342335   439061 
 4517000   0.95621656   -3.5135226   -3.5135226    -2.079201  0.048260493   -3.5135226    1.4343216   439061 
 4518000    0.9556975   -3.5129531   -3.5129531   -2.0794101  0.051934896   -3.5129531     1.433543   439061 
 4519000   0.95379434   -3.5098524   -3.5098524   -2.0791642  0.051569286   -3.5098524    1.4306883   439061 
 4520000   0.95553943   -3.5115441   -3.5115441   -2.0782382  0.051210842   -3.5115441    1.4333059   439061 
 4521000   0.95570678   -3.5119607   -3.5119607   -2.0784038  0.046435894   -3.5119607    1.4335569   439061 
 4522000   0.95644634   -3.5141509   -3.5141509   -2.0794847  0.047352615   -3.5141509    1.4346662   439061 
 4523000   0.95533524   -3.5105494   -3.5105494   -2.0775498  0.051583508   -3.5105494    1.4329996   439061 
 4524000   0.95568577   -3.5115226   -3.5115226   -2.0779972  0.052759593   -3.5115226    1.4335254   439061 
 4525000   0.95646793   -3.5108595   -3.5108595   -2.0761609  0.055108349   -3.5108595    1.4346986   439061 
 4526000   0.95700127   -3.5116081   -3.5116081   -2.0761095  0.054228757   -3.5116081    1.4354986   439061 
 4527000   0.95516454   -3.5102723   -3.5102723   -2.0775288  0.052782601   -3.5102723    1.4327436   439061 
 4528000   0.95598527   -3.5123646   -3.5123646     -2.07839  0.047502713   -3.5123646    1.4339746   439061 
 4529000   0.95512324   -3.5107949   -3.5107949   -2.0781133  0.047019669   -3.5107949    1.4326816   439061 
 4530000   0.95329555   -3.5093767   -3.5093767   -2.0794366  0.044908935   -3.5093767    1.4299401   439061 
 4531000   0.95367621   -3.5082842   -3.5082842   -2.0777731  0.052219842   -3.5082842    1.4305111   439061 
 4532000   0.95393266   -3.5093599   -3.5093599   -2.0784642  0.048001253   -3.5093599    1.4308957   439061 
 4533000   0.95599187   -3.5110339   -3.5110339   -2.0770494  0.046266967   -3.5110339    1.4339845   439061 
 4534000    0.9555806   -3.5110448   -3.5110448   -2.0776771  0.048767044   -3.5110448    1.4333676   439061 
 4535000   0.95586676   -3.5116968   -3.5116968   -2.0778999  0.051464785   -3.5116968    1.4337969   439061 
 4536000   0.95587071   -3.5100502   -3.5100502   -2.0762474  0.048290488   -3.5100502    1.4338028   439061 
 4537000   0.95579905   -3.5102351   -3.5102351   -2.0765398  0.053151174   -3.5102351    1.4336953   439061 
 4538000   0.95574805   -3.5104438   -3.5104438    -2.076825  0.052247951   -3.5104438    1.4336188   439061 
 4539000   0.95587562   -3.5114846   -3.5114846   -2.0776744  0.056169772   -3.5114846    1.4338102   439061 
 4540000   0.95687695   -3.5123972   -3.5123972   -2.0770851  0.045542216   -3.5123972    1.4353122   439061 
 4541000   0.95613539    -3.511938    -3.511938   -2.0777382  0.051334613    -3.511938    1.4341998   439061 
 4542000   0.95586661   -3.5112269   -3.5112269   -2.0774303  0.050619658   -3.5112269    1.4337967   439061 
 4543000   0.95754837    -3.513188    -3.513188   -2.0768688   0.04925655    -3.513188    1.4363193   439061 
 4544000   0.95674986   -3.5120188   -3.5120188   -2.0768972   0.04758332   -3.5120188    1.4351215   439061 
 4545000   0.95570553    -3.510957    -3.510957    -2.077402  0.048873569    -3.510957     1.433555   439061 
 4546000     0.954362   -3.5081898   -3.5081898   -2.0766501   0.05267826   -3.5081898    1.4315397   439061 
 4547000   0.95650675   -3.5129485   -3.5129485   -2.0781917  0.043427906   -3.5129485    1.4347569   439061 
 4548000   0.95573824    -3.512751    -3.512751   -2.0791469  0.044328222    -3.512751    1.4336041   439061 
 4549000   0.95382807   -3.5094397   -3.5094397   -2.0787009  0.052297139   -3.5094397    1.4307388   439061 
 4550000   0.95322441    -3.508372    -3.508372   -2.0785387  0.049597196    -3.508372    1.4298334   439061 
 4551000   0.95472386   -3.5091072   -3.5091072   -2.0770247  0.049544383   -3.5091072    1.4320825   439061 
 4552000   0.95380806   -3.5084159   -3.5084159    -2.077707  0.048527687   -3.5084159    1.4307088   439061 
 4553000   0.95416555   -3.5095017   -3.5095017   -2.0782566  0.042600905   -3.5095017    1.4312451   439061 
 4554000   0.95474072   -3.5094604   -3.5094604   -2.0773526  0.048068363   -3.5094604    1.4321078   439061 
 4555000   0.95537528   -3.5108123   -3.5108123   -2.0777526  0.051709997   -3.5108123    1.4330597   439061 
 4556000   0.95407692   -3.5094087   -3.5094087   -2.0782966  0.050142475   -3.5094087    1.4311121   439061 
 4557000   0.95568607   -3.5117646   -3.5117646   -2.0782387  0.047492252   -3.5117646    1.4335258   439061 
 4558000   0.95467526   -3.5097532   -3.5097532   -2.0777436  0.050507599   -3.5097532    1.4320096   439061 
 4559000   0.95571262   -3.5116138   -3.5116138   -2.0780481  0.046790487   -3.5116138    1.4335657   439061 
 4560000   0.95454604   -3.5098393   -3.5098393   -2.0780235  0.050848392   -3.5098393    1.4318158   439061 
 4561000   0.95601855   -3.5122586   -3.5122586    -2.078234  0.048131544   -3.5122586    1.4340246   439061 
 4562000   0.95544371   -3.5120722   -3.5120722   -2.0789099  0.047970932   -3.5120722    1.4331623   439061 
 4563000   0.95674369    -3.513656    -3.513656   -2.0785438  0.050520841    -3.513656    1.4351123   439061 
 4564000   0.95637443   -3.5119936   -3.5119936   -2.0774352  0.054137384   -3.5119936    1.4345584   439061 
 4565000    0.9566427   -3.5143167   -3.5143167   -2.0793559  0.051095536   -3.5143167    1.4349608   439061 
 4566000   0.95430854   -3.5123963   -3.5123963   -2.0809368  0.054615612   -3.5123963    1.4314595   439061 
 4567000   0.95602751   -3.5149726   -3.5149726   -2.0809346  0.047796003   -3.5149726     1.434038   439061 
 4568000   0.95656468   -3.5147433   -3.5147433   -2.0798995  0.049138893   -3.5147433    1.4348438   439061 
 4569000   0.95458406   -3.5133872   -3.5133872   -2.0815143  0.051323121   -3.5133872    1.4318728   439061 
 4570000   0.95351167   -3.5122795   -3.5122795   -2.0820153  0.049930677   -3.5122795    1.4302642   439061 
 4571000   0.95451788   -3.5136243   -3.5136243   -2.0818507  0.051678923   -3.5136243    1.4317736   439061 
 4572000   0.95488476   -3.5131458   -3.5131458   -2.0808219  0.050748906   -3.5131458    1.4323239   439061 
 4573000   0.95455249   -3.5124487   -3.5124487   -2.0806232  0.051038408   -3.5124487    1.4318255   439061 
 4574000   0.95517763   -3.5133138   -3.5133138   -2.0805506  0.052858872   -3.5133138    1.4327632   439061 
 4575000   0.95557225   -3.5142948   -3.5142948   -2.0809397  0.048249783   -3.5142948    1.4333551   439061 
 4576000   0.95586613   -3.5159446   -3.5159446   -2.0821487  0.047139946   -3.5159446    1.4337959   439061 
 4577000   0.95650097   -3.5152806   -3.5152806   -2.0805325   0.04965029   -3.5152806    1.4347482   439061 
 4578000   0.95599123    -3.514551    -3.514551   -2.0805674  0.052360827    -3.514551    1.4339836   439061 
 4579000   0.95637959   -3.5155463   -3.5155463   -2.0809802  0.050332559   -3.5155463    1.4345661   439061 
 4580000   0.95500876   -3.5129163   -3.5129163   -2.0804064   0.05382703   -3.5129163    1.4325099   439061 
 4581000   0.95605914   -3.5145665   -3.5145665   -2.0804811  0.046002717   -3.5145665    1.4340854   439061 
 4582000   0.95541829   -3.5140891   -3.5140891   -2.0809649  0.045701348   -3.5140891    1.4331242   439061 
 4583000   0.95640553   -3.5141538   -3.5141538   -2.0795488  0.047516727   -3.5141538     1.434605   439061 
 4584000   0.95688377   -3.5136545   -3.5136545   -2.0783321   0.04718025   -3.5136545    1.4353224   439061 
 4585000   0.95659641   -3.5119248   -3.5119248   -2.0770335  0.051340422   -3.5119248    1.4348914   439061 
 4586000    0.9562819   -3.5115511   -3.5115511   -2.0771315  0.056188208   -3.5115511    1.4344196   439061 
 4587000    0.9557615   -3.5114176   -3.5114176   -2.0777786  0.055083129   -3.5114176     1.433639   439061 
 4588000   0.95649166   -3.5134355   -3.5134355   -2.0787012  0.049871248   -3.5134355    1.4347342   439061 
 4589000   0.95631175   -3.5127749   -3.5127749   -2.0783106   0.05188577   -3.5127749    1.4344644   439061 
 4590000   0.95666775   -3.5134174   -3.5134174   -2.0784191  0.051835616   -3.5134174    1.4349984   439061 
 4591000   0.95550603    -3.511462    -3.511462   -2.0782062  0.053899745    -3.511462    1.4332558   439061 
 4592000   0.95592509   -3.5126465   -3.5126465   -2.0787621  0.046382823   -3.5126465    1.4338844   439061 
 4593000   0.95362009   -3.5092116   -3.5092116   -2.0787847  0.051111196   -3.5092116    1.4304269   439061 
 4594000   0.95428029   -3.5097235   -3.5097235   -2.0783063   0.05377261   -3.5097235    1.4314172   439061 
 4595000   0.95522028   -3.5120442   -3.5120442    -2.079217   0.04814275   -3.5120442    1.4328272   439061 
 4596000   0.95415848   -3.5114446   -3.5114446   -2.0802101  0.049177052   -3.5114446    1.4312345   439061 
 4597000   0.95412657   -3.5117512   -3.5117512   -2.0805646  0.045174451   -3.5117512    1.4311866   439061 
 4598000   0.95527965   -3.5129866   -3.5129866   -2.0800704  0.045927781   -3.5129866    1.4329162   439061 
 4599000   0.95608993   -3.5124519   -3.5124519   -2.0783202  0.042804993   -3.5124519    1.4341316   439061 
 4600000    0.9559337   -3.5108119   -3.5108119   -2.0769147  0.056826362   -3.5108119    1.4338973   439061 
 4601000   0.95582385   -3.5111183   -3.5111183   -2.0773858  0.051909898   -3.5111183    1.4337325   439061 
 4602000   0.95694846   -3.5120255   -3.5120255   -2.0766061  0.051648219   -3.5120255    1.4354194   439061 
 4603000   0.95719289   -3.5129092   -3.5129092   -2.0771232  0.049921797   -3.5129092    1.4357861   439061 
 4604000   0.95752604   -3.5129419   -3.5129419   -2.0766561   0.05396352   -3.5129419    1.4362858   439061 
 4605000   0.95614037   -3.5112127   -3.5112127   -2.0770054  0.053832507   -3.5112127    1.4342073   439061 
 4606000   0.95609583   -3.5118528   -3.5118528   -2.0777123  0.049865773   -3.5118528    1.4341405   439061 
 4607000   0.95644912   -3.5128974   -3.5128974    -2.078227  0.049799141   -3.5128974    1.4346704   439061 
 4608000   0.95557133     -3.51287     -3.51287   -2.0795163  0.050830399     -3.51287    1.4333537   439061 
 4609000   0.95539964   -3.5124049   -3.5124049   -2.0793087  0.051863064   -3.5124049    1.4330962   439061 
 4610000   0.95492359   -3.5129208   -3.5129208   -2.0805387  0.044858773   -3.5129208    1.4323821   439061 
 4611000    0.9557533   -3.5135129   -3.5135129   -2.0798862  0.052742502   -3.5135129    1.4336267   439061 
 4612000   0.95518216   -3.5127701   -3.5127701   -2.0800001  0.046988022   -3.5127701      1.43277   439061 
 4613000   0.95454928    -3.511427    -3.511427   -2.0796064  0.052188044    -3.511427    1.4318207   439061 
 4614000   0.95532943   -3.5130427   -3.5130427   -2.0800518  0.050285822   -3.5130427    1.4329909   439061 
 4615000   0.95689322   -3.5145697   -3.5145697   -2.0792331  0.048292282   -3.5145697    1.4353366   439061 
 4616000   0.95647872   -3.5143409   -3.5143409   -2.0796261  0.048350539   -3.5143409    1.4347148   439061 
 4617000   0.95572048   -3.5129404   -3.5129404    -2.079363  0.054537814   -3.5129404    1.4335775   439061 
 4618000    0.9559007   -3.5136503   -3.5136503   -2.0798025  0.047519656   -3.5136503    1.4338478   439061 
 4619000   0.95566549   -3.5140257   -3.5140257   -2.0805308   0.04807343   -3.5140257     1.433495   439061 
 4620000   0.95640662   -3.5139121   -3.5139121   -2.0793054  0.049365591   -3.5139121    1.4346067   439061 
 4621000   0.95643808   -3.5141011   -3.5141011   -2.0794473  0.054345945   -3.5141011    1.4346538   439061 
 4622000   0.95616441   -3.5148926   -3.5148926   -2.0806492   0.05104662   -3.5148926    1.4342434   439061 
 4623000   0.95548787   -3.5140249   -3.5140249   -2.0807964  0.044504727   -3.5140249    1.4332285   439061 
 4624000    0.9550669   -3.5118846   -3.5118846   -2.0792875  0.052304732   -3.5118846    1.4325971   439061 
 4625000   0.95654121   -3.5124284   -3.5124284   -2.0776199  0.051133664   -3.5124284    1.4348085   439061 
 4626000   0.95623855   -3.5132369   -3.5132369   -2.0788823  0.047262048   -3.5132369    1.4343546   439061 
 4627000   0.95612794   -3.5136708   -3.5136708   -2.0794822  0.051392886   -3.5136708    1.4341886   439061 
 4628000   0.95524977   -3.5131097   -3.5131097   -2.0802383  0.053079763   -3.5131097    1.4328714   439061 
 4629000   0.95362819   -3.5109018   -3.5109018   -2.0804627  0.055051093   -3.5109018     1.430439   439061 
 4630000    0.9554019   -3.5119797   -3.5119797   -2.0788801   0.04686389   -3.5119797    1.4330996   439061 
 4631000   0.95562089   -3.5133075   -3.5133075   -2.0798794  0.049460589   -3.5133075    1.4334281   439061 
 4632000   0.95529583   -3.5115373   -3.5115373   -2.0785968  0.050825867   -3.5115373    1.4329405   439061 
 4633000   0.95487171   -3.5116126   -3.5116126   -2.0793083  0.048215087   -3.5116126    1.4323043   439061 
 4634000   0.95607782   -3.5137961   -3.5137961   -2.0796826   0.04403352   -3.5137961    1.4341135   439061 
 4635000   0.95548343   -3.5122367   -3.5122367   -2.0790148  0.045856642   -3.5122367    1.4332219   439061 
 4636000   0.95420817   -3.5106762   -3.5106762   -2.0793672  0.052282475   -3.5106762     1.431309   439061 
 4637000   0.95560011   -3.5121885   -3.5121885   -2.0787916  0.051374039   -3.5121885    1.4333969   439061 
 4638000   0.95740224   -3.5143379   -3.5143379   -2.0782378  0.051115583   -3.5143379    1.4361001   439061 
 4639000   0.95746242   -3.5132974   -3.5132974    -2.077107  0.050997526   -3.5132974    1.4361904   439061 
 4640000   0.95594421   -3.5126423   -3.5126423   -2.0787293   0.05558871   -3.5126423    1.4339131   439061 
 4641000   0.95544118   -3.5133369   -3.5133369   -2.0801784  0.047211799   -3.5133369    1.4331585   439061 
 4642000   0.95763682   -3.5142372   -3.5142372   -2.0777853  0.051353524   -3.5142372     1.436452   439061 
 4643000   0.95602875   -3.5123043   -3.5123043   -2.0782644  0.050246738   -3.5123043    1.4340399   439061 
 4644000   0.95553403   -3.5130355   -3.5130355   -2.0797378  0.048172819   -3.5130355    1.4332978   439061 
 4645000    0.9549277    -3.511896    -3.511896   -2.0795077  0.049726983    -3.511896    1.4323883   439061 
 4646000   0.95368861   -3.5112363   -3.5112363   -2.0807067  0.049653227   -3.5112363    1.4305297   439061 
 4647000   0.95426558   -3.5123644   -3.5123644   -2.0809693  0.050380026   -3.5123644    1.4313951   439061 
 4648000   0.95340965   -3.5102019   -3.5102019   -2.0800907  0.047249996   -3.5102019    1.4301112   439061 
 4649000   0.95483505   -3.5123279   -3.5123279   -2.0800786  0.050410484   -3.5123279    1.4322493   439061 
 4650000   0.95663605    -3.513705    -3.513705   -2.0787542  0.043333734    -3.513705    1.4349508   439061 
 4651000   0.95628032   -3.5127651   -3.5127651   -2.0783479  0.050473996   -3.5127651    1.4344172   439061 
 4652000   0.95599477   -3.5124139   -3.5124139    -2.078425  0.053400261   -3.5124139    1.4339889   439061 
 4653000   0.95634591   -3.5136446   -3.5136446    -2.079129  0.049644279   -3.5136446    1.4345156   439061 
 4654000   0.95696012   -3.5140042   -3.5140042   -2.0785673  0.047257671   -3.5140042    1.4354369   439061 
 4655000    0.9556924   -3.5125861   -3.5125861   -2.0790508  0.049316567   -3.5125861    1.4335353   439061 
 4656000   0.95603363   -3.5140041   -3.5140041   -2.0799569  0.046029401   -3.5140041    1.4340472   439061 
 4657000   0.95524866    -3.512455    -3.512455   -2.0795853  0.050952127    -3.512455    1.4328697   439061 
 4658000   0.95599382   -3.5121338   -3.5121338   -2.0781464  0.047569289   -3.5121338    1.4339875   439061 
 4659000   0.95611649   -3.5133069   -3.5133069   -2.0791354  0.052730155   -3.5133069    1.4341715   439061 
 4660000   0.95621332   -3.5145534   -3.5145534   -2.0802367  0.046838017   -3.5145534    1.4343167   439061 
 4661000   0.95689212   -3.5147434   -3.5147434   -2.0794085  0.051920958   -3.5147434    1.4353349   439061 
 4662000   0.95689067   -3.5136739   -3.5136739   -2.0783412  0.053213255   -3.5136739    1.4353327   439061 
 4663000    0.9559265   -3.5120958   -3.5120958   -2.0782093  0.055183961   -3.5120958    1.4338865   439061 
 4664000   0.95583639   -3.5129914   -3.5129914   -2.0792401  0.048816185   -3.5129914    1.4337513   439061 
 4665000   0.95513778   -3.5129271   -3.5129271   -2.0802237   0.05433028   -3.5129271    1.4327034   439061 
 4666000   0.95661746   -3.5143428   -3.5143428   -2.0794199  0.049727086   -3.5143428    1.4349229   439061 
 4667000   0.95451459   -3.5129961   -3.5129961   -2.0812274  0.050153454   -3.5129961    1.4317686   439061 
 4668000   0.95443038   -3.5139828   -3.5139828   -2.0823405  0.044455595   -3.5139828    1.4316423   439061 
 4669000    0.9549234   -3.5138668   -3.5138668   -2.0814849  0.044604263   -3.5138668    1.4323818   439061 
 4670000   0.95286815   -3.5125624   -3.5125624   -2.0832634  0.045890654   -3.5125624     1.429299   439061 
 4671000   0.95445156   -3.5149942   -3.5149942   -2.0833202  0.044135813   -3.5149942    1.4316741   439061 
 4672000   0.95556156   -3.5159832   -3.5159832   -2.0826441  0.045830963   -3.5159832    1.4333391   439061 
 4673000   0.95400351   -3.5141546   -3.5141546   -2.0831526  0.050947942   -3.5141546     1.431002   439061 
 4674000   0.95429846   -3.5143621   -3.5143621   -2.0829176  0.056656036   -3.5143621    1.4314444   439061 
 4675000   0.95671233   -3.5164387   -3.5164387   -2.0813734  0.051083662   -3.5164387    1.4350652   439061 
 4676000   0.95597005   -3.5164126   -3.5164126   -2.0824608  0.053539546   -3.5164126    1.4339518   439061 
 4677000   0.95756801   -3.5180621   -3.5180621   -2.0817133  0.045542375   -3.5180621    1.4363487   439061 
 4678000   0.95570886   -3.5151248   -3.5151248   -2.0815648  0.057088993   -3.5151248      1.43356   439061 
 4679000   0.95683522   -3.5176176   -3.5176176    -2.082368  0.055870176   -3.5176176    1.4352496   439061 
 4680000   0.95557601   -3.5164447   -3.5164447   -2.0830839  0.058512431   -3.5164447    1.4333608   439061 
 4681000   0.95795906   -3.5203939   -3.5203939   -2.0834585  0.048363502   -3.5203939    1.4369353   439061 
 4682000   0.95551525   -3.5173389   -3.5173389   -2.0840693  0.050811417   -3.5173389    1.4332696   439061 
 4683000   0.95719021   -3.5192985   -3.5192985   -2.0835165  0.056432466   -3.5192985     1.435782   439061 
 4684000    0.9552532   -3.5175135   -3.5175135   -2.0846369  0.051074991   -3.5175135    1.4328765   439061 
 4685000   0.95513342   -3.5177447   -3.5177447   -2.0850479  0.048371575   -3.5177447    1.4326969   439061 
 4686000   0.95418955   -3.5158595   -3.5158595   -2.0845784  0.050908242   -3.5158595    1.4312811   439061 
 4687000    0.9542991   -3.5160828   -3.5160828   -2.0846374  0.049228253   -3.5160828    1.4314454   439061 
 4688000   0.95376427   -3.5156491   -3.5156491   -2.0850059  0.049348652   -3.5156491    1.4306431   439061 
 4689000   0.95409892   -3.5148223   -3.5148223   -2.0836772  0.045843673   -3.5148223    1.4311451   439061 
 4690000   0.95421693   -3.5160781   -3.5160781    -2.084756  0.047527996   -3.5160781    1.4313221   439061 
 4691000   0.95478265   -3.5156986   -3.5156986   -2.0835279  0.051003056   -3.5156986    1.4321707   439061 
 4692000   0.95514696   -3.5157188   -3.5157188   -2.0830016  0.051733053   -3.5157188    1.4327172   439061 
 4693000   0.95483168   -3.5137318   -3.5137318   -2.0814876  0.059154199   -3.5137318    1.4322443   439061 
 4694000   0.95626054   -3.5156419   -3.5156419   -2.0812543   0.05320018   -3.5156419    1.4343875   439061 
 4695000   0.95666766   -3.5152529   -3.5152529   -2.0802546  0.053045637   -3.5152529    1.4349982   439061 
 4696000   0.95721041   -3.5171457   -3.5171457   -2.0813333  0.053477234   -3.5171457    1.4358123   439061 
 4697000   0.95531876   -3.5146472   -3.5146472   -2.0816723   0.05058148   -3.5146472    1.4329749   439061 
 4698000   0.95535728   -3.5141415   -3.5141415   -2.0811089  0.051934321   -3.5141415    1.4330327   439061 
 4699000   0.95537264   -3.5151944   -3.5151944   -2.0821387  0.049404361   -3.5151944    1.4330557   439061 
 4700000   0.95516813   -3.5130938   -3.5130938   -2.0803448  0.049501913   -3.5130938    1.4327489   439061 
 4701000   0.95535935   -3.5137578   -3.5137578    -2.080722  0.048886822   -3.5137578    1.4330358   439061 
 4702000   0.95529025   -3.5135803   -3.5135803   -2.0806482  0.047716443   -3.5135803    1.4329321   439061 
 4703000   0.95640028   -3.5149227   -3.5149227   -2.0803256  0.049751956   -3.5149227    1.4345971   439061 
 4704000   0.95457394   -3.5127811   -3.5127811   -2.0809234  0.050313594   -3.5127811    1.4318576   439061 
 4705000   0.95460254   -3.5118671   -3.5118671   -2.0799665  0.050529948   -3.5118671    1.4319005   439061 
 4706000   0.95517285   -3.5137104   -3.5137104   -2.0809544  0.052869685   -3.5137104     1.432756   439061 
 4707000   0.95490043   -3.5120721   -3.5120721   -2.0797247   0.04450128   -3.5120721    1.4323474   439061 
 4708000   0.95332648   -3.5089499   -3.5089499   -2.0789635  0.049599095   -3.5089499    1.4299865   439061 
 4709000   0.95511265    -3.512782    -3.512782   -2.0801163  0.050246937    -3.512782    1.4326657   439061 
 4710000   0.95464502   -3.5116069   -3.5116069   -2.0796427  0.051603161   -3.5116069    1.4319643   439061 
 4711000   0.95637494   -3.5127926   -3.5127926   -2.0782334  0.044049301   -3.5127926    1.4345591   439061 
 4712000   0.95492565   -3.5106307   -3.5106307   -2.0782455  0.045608792   -3.5106307    1.4323852   439061 
 4713000   0.95502915   -3.5107312   -3.5107312   -2.0781907  0.050587627   -3.5107312    1.4325405   439061 
 4714000   0.95442332   -3.5108634   -3.5108634   -2.0792316  0.055350149   -3.5108634    1.4316317   439061 
 4715000    0.9547732   -3.5111046   -3.5111046   -2.0789481  0.051438908   -3.5111046    1.4321565   439061 
 4716000   0.95548721   -3.5114894   -3.5114894   -2.0782618  0.053904071   -3.5114894    1.4332276   439061 
 4717000   0.95614419   -3.5121341   -3.5121341   -2.0779211  0.053976475   -3.5121341     1.434213   439061 
 4718000   0.95593204   -3.5133158   -3.5133158    -2.079421  0.047338465   -3.5133158    1.4338948   439061 
 4719000   0.95508612   -3.5128549   -3.5128549    -2.080229  0.045508491   -3.5128549    1.4326259   439061 
 4720000   0.95560169   -3.5140257   -3.5140257   -2.0806264  0.051707481   -3.5140257    1.4333993   439061 
 4721000   0.95485715   -3.5115152   -3.5115152   -2.0792327  0.052022327   -3.5115152    1.4322825   439061 
 4722000   0.95557518    -3.512614    -3.512614   -2.0792545  0.042918422    -3.512614    1.4333595   439061 
 4723000   0.95378491   -3.5107111   -3.5107111    -2.080037  0.052053321   -3.5107111    1.4306741   439061 
 4724000   0.95579491   -3.5131371   -3.5131371    -2.079448  0.049620711   -3.5131371    1.4336891   439061 
 4725000   0.95495975   -3.5124167   -3.5124167   -2.0799803  0.048411869   -3.5124167    1.4324364   439061 
 4726000   0.95484735   -3.5130666   -3.5130666   -2.0807988  0.053518047   -3.5130666    1.4322678   439061 
 4727000   0.95418322   -3.5119453   -3.5119453   -2.0806737  0.053151652   -3.5119453    1.4312716   439061 
 4728000   0.95466795   -3.5127161   -3.5127161   -2.0807175  0.050855478   -3.5127161    1.4319987   439061 
 4729000   0.95594029   -3.5144368   -3.5144368   -2.0805296  0.044370058   -3.5144368    1.4339072   439061 
 4730000   0.95616663   -3.5153676   -3.5153676   -2.0811209  0.046789565   -3.5153676    1.4342467   439061 
 4731000   0.95584565   -3.5139357   -3.5139357   -2.0801705  0.055601712   -3.5139357    1.4337652   439061 
 4732000   0.95547213   -3.5137874   -3.5137874   -2.0805825  0.057742187   -3.5137874    1.4332049   439061 
 4733000   0.95714133   -3.5156998   -3.5156998   -2.0799911  0.051605377   -3.5156998    1.4357087   439061 
 4734000   0.95635044    -3.514165    -3.514165   -2.0796426  0.045534448    -3.514165    1.4345224   439061 
 4735000    0.9550102   -3.5139972   -3.5139972   -2.0814851  0.051518011   -3.5139972     1.432512   439061 
 4736000   0.95470866   -3.5148469   -3.5148469   -2.0827872  0.050257958   -3.5148469    1.4320597   439061 
 4737000   0.95614939   -3.5171301   -3.5171301   -2.0829093  0.046957675   -3.5171301    1.4342208   439061 
 4738000   0.95461432   -3.5147412   -3.5147412    -2.082823  0.051778046   -3.5147412    1.4319182   439061 
 4739000   0.95548882   -3.5158343   -3.5158343   -2.0826044  0.050419095   -3.5158343      1.43323   439061 
 4740000   0.95608461   -3.5161836   -3.5161836   -2.0820599  0.049288191   -3.5161836    1.4341236   439061 
 4741000   0.95560716   -3.5157763   -3.5157763   -2.0823688  0.047796184   -3.5157763    1.4334075   439061 
 4742000   0.95611431   -3.5157319   -3.5157319   -2.0815637  0.051755269   -3.5157319    1.4341682   439061 
 4743000   0.95652552   -3.5165604   -3.5165604   -2.0817754  0.049666907   -3.5165604     1.434785   439061 
 4744000   0.95483544   -3.5140711   -3.5140711   -2.0818212  0.051274066   -3.5140711    1.4322499   439061 
 4745000   0.95473097   -3.5145162   -3.5145162    -2.082423  0.050043924   -3.5145162    1.4320932   439061 
 4746000   0.95432267   -3.5135545   -3.5135545   -2.0820737   0.04318635   -3.5135545    1.4314807   439061 
 4747000   0.95388992   -3.5147848   -3.5147848   -2.0839531  0.047241157   -3.5147848    1.4308316   439061 
 4748000   0.95396607   -3.5143095   -3.5143095   -2.0833637  0.054825159   -3.5143095    1.4309459   439061 
 4749000   0.95555984   -3.5154043   -3.5154043   -2.0820678  0.050948235   -3.5154043    1.4333365   439061 
 4750000   0.95453951   -3.5138761   -3.5138761   -2.0820701  0.055185102   -3.5138761     1.431806   439061 
 4751000   0.95559258    -3.516505    -3.516505   -2.0831194  0.054082775    -3.516505    1.4333856   439061 
 4752000   0.95559271   -3.5167716   -3.5167716   -2.0833858  0.048629469   -3.5167716    1.4333858   439061 
 4753000   0.95365121   -3.5139485   -3.5139485    -2.083475  0.052967212   -3.5139485    1.4304736   439061 
 4754000   0.95424397   -3.5154869   -3.5154869   -2.0841242  0.045347934   -3.5154869    1.4313627   439061 
 4755000     0.953924   -3.5167892   -3.5167892   -2.0859065   0.04467356   -3.5167892    1.4308827   439061 
 4756000   0.95345763   -3.5166738   -3.5166738   -2.0864906  0.044731042   -3.5166738    1.4301832   439061 
 4757000   0.95407982   -3.5165293   -3.5165293   -2.0854128  0.044077614   -3.5165293    1.4311165   439061 
 4758000   0.95465851   -3.5170396   -3.5170396   -2.0850551  0.053480657   -3.5170396    1.4319845   439061 
 4759000   0.95591401     -3.51873     -3.51873   -2.0848623  0.049209121     -3.51873    1.4338677   439061 
 4760000   0.95476122   -3.5176733   -3.5176733   -2.0855347  0.054253215   -3.5176733    1.4321386   439061 
 4761000   0.95569794   -3.5188095   -3.5188095   -2.0852658  0.053964106   -3.5188095    1.4335436   439061 
 4762000    0.9563174   -3.5204147   -3.5204147   -2.0859419  0.052661185   -3.5204147    1.4344728   439061 
 4763000   0.95547582   -3.5187937   -3.5187937   -2.0855833  0.048868705   -3.5187937    1.4332105   439061 
 4764000   0.95425291   -3.5171463   -3.5171463   -2.0857702  0.054124002   -3.5171463    1.4313761   439061 
 4765000   0.95385597   -3.5170587   -3.5170587    -2.086278  0.052070067   -3.5170587    1.4307807   439061 
 4766000   0.95405087   -3.5189433   -3.5189433   -2.0878703  0.046781655   -3.5189433     1.431073   439061 
 4767000   0.95426495   -3.5191626   -3.5191626   -2.0877685  0.045861491   -3.5191626    1.4313942   439061 
 4768000   0.95565745   -3.5211727   -3.5211727   -2.0876898  0.047618003   -3.5211727    1.4334829   439061 
 4769000   0.95484235   -3.5187211   -3.5187211   -2.0864608  0.053390331   -3.5187211    1.4322603   439061 
 4770000   0.95492629   -3.5192928   -3.5192928   -2.0869066  0.055779704   -3.5192928    1.4323862   439061 
 4771000   0.95452371   -3.5187358   -3.5187358   -2.0869535  0.052794354   -3.5187358    1.4317823   439061 
 4772000   0.95443651   -3.5196342   -3.5196342   -2.0879827  0.053694094   -3.5196342    1.4316515   439061 
 4773000   0.95574392   -3.5207976   -3.5207976    -2.087185  0.047035868   -3.5207976    1.4336126   439061 
 4774000   0.95521802   -3.5197554   -3.5197554   -2.0869316   0.05070029   -3.5197554    1.4328238   439061 
 4775000   0.95424785   -3.5176761   -3.5176761   -2.0863076  0.053647424   -3.5176761    1.4313685   439061 
 4776000   0.95553448   -3.5207996   -3.5207996   -2.0875012  0.052012515   -3.5207996    1.4332985   439061 
 4777000   0.95356525   -3.5189437   -3.5189437   -2.0885991  0.055069486   -3.5189437    1.4303446   439061 
 4778000   0.95350214   -3.5166077   -3.5166077   -2.0863577  0.056729197   -3.5166077    1.4302499   439061 
 4779000   0.95405729   -3.5168567   -3.5168567    -2.085774  0.049558507   -3.5168567    1.4310827   439061 
 4780000   0.95473371   -3.5190979   -3.5190979   -2.0870006  0.043989755   -3.5190979    1.4320973   439061 
 4781000   0.95252765   -3.5156671   -3.5156671   -2.0868789    0.0477441   -3.5156671    1.4287882   439061 
 4782000    0.9532762   -3.5156112   -3.5156112   -2.0857002  0.049180839   -3.5156112     1.429911   439061 
 4783000   0.95317673   -3.5155137   -3.5155137   -2.0857519  0.053108783   -3.5155137    1.4297618   439061 
 4784000   0.95420223   -3.5175381   -3.5175381    -2.086238   0.04970989   -3.5175381    1.4313001   439061 
 4785000   0.95365335   -3.5151377   -3.5151377   -2.0846609  0.046149619   -3.5151377    1.4304768   439061 
 4786000   0.95410093   -3.5162116   -3.5162116   -2.0850634  0.048577589   -3.5162116    1.4311481   439061 
 4787000   0.95360976     -3.51728     -3.51728   -2.0868686  0.044792003     -3.51728    1.4304114   439061 
 4788000   0.95336446   -3.5159592   -3.5159592   -2.0859158  0.046631829   -3.5159592    1.4300434   439061 
 4789000    0.9532777   -3.5169371   -3.5169371   -2.0870238  0.048955652   -3.5169371    1.4299133   439061 
 4790000   0.95186734   -3.5139026   -3.5139026   -2.0861049  0.044891046   -3.5139026    1.4277978   439061 
 4791000   0.95295417   -3.5163357   -3.5163357   -2.0869077  0.045694726   -3.5163357     1.429428   439061 
 4792000   0.95478882   -3.5185999   -3.5185999   -2.0864199  0.046352298   -3.5185999      1.43218   439061 
 4793000   0.95617644   -3.5187651   -3.5187651   -2.0845037   0.05271094   -3.5187651    1.4342614   439061 
 4794000   0.95548221   -3.5180425   -3.5180425   -2.0848224  0.054747441   -3.5180425    1.4332201   439061 
 4795000      0.95409    -3.516273    -3.516273   -2.0851413  0.054611601    -3.516273    1.4311317   439061 
 4796000   0.95541715   -3.5175426   -3.5175426   -2.0844201  0.055162213   -3.5175426    1.4331225   439061 
 4797000   0.95560374   -3.5170738   -3.5170738   -2.0836714  0.055387443   -3.5170738    1.4334023   439061 
 4798000   0.95600575   -3.5182972   -3.5182972   -2.0842919   0.05395257   -3.5182972    1.4340054   439061 
 4799000   0.95499178   -3.5176476   -3.5176476   -2.0851632  0.050425911   -3.5176476    1.4324844   439061 
 4800000   0.95342398   -3.5161044   -3.5161044   -2.0859717  0.049548444   -3.5161044    1.4301327   439061 
 4801000   0.95446958   -3.5175757   -3.5175757   -2.0858746  0.044217612   -3.5175757    1.4317011   439061 
 4802000   0.95427757   -3.5180694   -3.5180694   -2.0866563  0.047900948   -3.5180694    1.4314131   439061 
 4803000   0.95463961   -3.5193469   -3.5193469   -2.0873908  0.052865861   -3.5193469    1.4319562   439061 
 4804000   0.95466331   -3.5199683   -3.5199683   -2.0879766  0.050139616   -3.5199683    1.4319917   439061 
 4805000   0.95529821   -3.5191609   -3.5191609   -2.0862168  0.049270305   -3.5191609    1.4329441   439061 
 4806000   0.95494388   -3.5190781   -3.5190781   -2.0866655  0.049368026   -3.5190781    1.4324126   439061 
 4807000   0.95497317   -3.5192956   -3.5192956   -2.0868391  0.046628523   -3.5192956    1.4324565   439061 
 4808000   0.95506355   -3.5192723   -3.5192723   -2.0866803  0.049118787   -3.5192723    1.4325921   439061 
 4809000   0.95458548   -3.5196044   -3.5196044   -2.0877295  0.054926789   -3.5196044     1.431875   439061 
 4810000   0.95361226    -3.518257    -3.518257   -2.0878419  0.046913189    -3.518257    1.4304151   439061 
 4811000    0.9549123   -3.5198229   -3.5198229   -2.0874577  0.050759123   -3.5198229    1.4323652   439061 
 4812000   0.95471804   -3.5188693   -3.5188693   -2.0867955  0.046373561   -3.5188693    1.4320738   439061 
 4813000   0.95535751   -3.5204614   -3.5204614   -2.0874284  0.051062743   -3.5204614     1.433033   439061 
 4814000   0.95575537   -3.5203887   -3.5203887   -2.0867589  0.046954058   -3.5203887    1.4336298   439061 
 4815000   0.95485526   -3.5188173   -3.5188173   -2.0865377  0.049172296   -3.5188173    1.4322796   439061 
 4816000   0.95546901   -3.5192672   -3.5192672   -2.0860669  0.052407628   -3.5192672    1.4332003   439061 
 4817000   0.95531897   -3.5197387   -3.5197387   -2.0867635   0.05364445   -3.5197387    1.4329752   439061 
 4818000   0.95559481    -3.518612    -3.518612   -2.0852231  0.048285531    -3.518612     1.433389   439061 
 4819000   0.95398242   -3.5176018   -3.5176018   -2.0866314  0.046996975   -3.5176018    1.4309704   439061 
 4820000    0.9537263   -3.5160099   -3.5160099   -2.0854237  0.048397813   -3.5160099    1.4305862   439061 
 4821000   0.95529182   -3.5190431   -3.5190431   -2.0861086  0.045620225   -3.5190431    1.4329345   439061 
 4822000   0.95532149   -3.5189005   -3.5189005   -2.0859216  0.047599126   -3.5189005     1.432979   439061 
 4823000   0.95517875   -3.5182731   -3.5182731   -2.0855082  0.049704393   -3.5182731    1.4327649   439061 
 4824000   0.95494494   -3.5186738   -3.5186738   -2.0862597  0.048961537   -3.5186738    1.4324141   439061 
 4825000   0.95448135    -3.517787    -3.517787   -2.0860682  0.051354917    -3.517787    1.4317188   439061 
 4826000   0.95509284   -3.5185404   -3.5185404   -2.0859044  0.055860498   -3.5185404     1.432636   439061 
 4827000   0.95615675   -3.5188343   -3.5188343   -2.0846025  0.052128577   -3.5188343    1.4342319   439061 
 4828000   0.95486725   -3.5174858   -3.5174858   -2.0851882  0.053152437   -3.5174858    1.4322976   439061 
 4829000   0.95489097    -3.517197    -3.517197   -2.0848638  0.048957578    -3.517197    1.4323332   439061 
 4830000   0.95394928    -3.515587    -3.515587   -2.0846663  0.047587331    -3.515587    1.4309207   439061 
 4831000   0.95473951   -3.5160282   -3.5160282   -2.0839222  0.048135071   -3.5160282     1.432106   439061 
 4832000   0.95549641   -3.5176467   -3.5176467   -2.0844053  0.050845264   -3.5176467    1.4332413   439061 
 4833000   0.95574701   -3.5187954   -3.5187954   -2.0851781  0.046965339   -3.5187954    1.4336173   439061 
 4834000   0.95377977   -3.5171224   -3.5171224    -2.086456  0.048048422   -3.5171224    1.4306664   439061 
 4835000   0.95451739   -3.5182133   -3.5182133   -2.0864405  0.048714468   -3.5182133    1.4317728   439061 
 4836000   0.95627416   -3.5181535   -3.5181535   -2.0837455  0.056793755   -3.5181535     1.434408   439061 
 4837000   0.95560876    -3.518447    -3.518447   -2.0850371  0.052059769    -3.518447    1.4334099   439061 
 4838000   0.95514768   -3.5174401   -3.5174401   -2.0847218   0.04976671   -3.5174401    1.4327183   439061 
 4839000   0.95592611   -3.5181683   -3.5181683   -2.0842824  0.053520844   -3.5181683    1.4338859   439061 
 4840000    0.9544579   -3.5167071   -3.5167071   -2.0850236  0.053915844   -3.5167071    1.4316836   439061 
 4841000   0.95396423   -3.5167359   -3.5167359   -2.0857928  0.050841577   -3.5167359    1.4309431   439061 
 4842000   0.95490307   -3.5164606   -3.5164606   -2.0841093  0.050659784   -3.5164606    1.4323513   439061 
 4843000   0.95540575   -3.5175192   -3.5175192   -2.0844138  0.051669385   -3.5175192    1.4331054   439061 
 4844000   0.95452991   -3.5153408   -3.5153408   -2.0835492  0.049765266   -3.5153408    1.4317916   439061 
 4845000   0.95503935   -3.5164111   -3.5164111   -2.0838554  0.049496677   -3.5164111    1.4325558   439061 
 4846000   0.95518331   -3.5165211   -3.5165211   -2.0837494  0.053681269   -3.5165211    1.4327717   439061 
 4847000   0.95550486   -3.5172802   -3.5172802   -2.0840262  0.045824832   -3.5172802     1.433254   439061 
 4848000   0.95430229   -3.5150441   -3.5150441    -2.083594  0.054493343   -3.5150441    1.4314502   439061 
 4849000   0.95454792   -3.5157033   -3.5157033   -2.0838847  0.052552247   -3.5157033    1.4318186   439061 
 4850000    0.9554664   -3.5164969   -3.5164969   -2.0833005  0.047365687   -3.5164969    1.4331963   439061 
 4851000   0.95473654   -3.5165448   -3.5165448   -2.0844433  0.046952574   -3.5165448    1.4321016   439061 
 4852000     0.955167   -3.5172518   -3.5172518   -2.0845046   0.04348533   -3.5172518    1.4327472   439061 
 4853000   0.95461136   -3.5162216   -3.5162216   -2.0843078  0.044996686   -3.5162216    1.4319138   439061 
 4854000   0.95336645   -3.5147386   -3.5147386   -2.0846922  0.046294808   -3.5147386    1.4300464   439061 
 4855000   0.95379032   -3.5144366   -3.5144366   -2.0837544  0.049191755   -3.5144366    1.4306822   439061 
 4856000   0.95494118   -3.5151739   -3.5151739   -2.0827654  0.049897857   -3.5151739    1.4324085   439061 
 4857000   0.95591367   -3.5162671   -3.5162671   -2.0823999  0.051736465   -3.5162671    1.4338672   439061 
 4858000   0.95558623   -3.5158536   -3.5158536   -2.0824775   0.05560344   -3.5158536    1.4333761   439061 
 4859000    0.9559034   -3.5148217   -3.5148217   -2.0809698  0.053145241   -3.5148217    1.4338518   439061 
 4860000   0.95597709   -3.5159468   -3.5159468   -2.0819845  0.050158375   -3.5159468    1.4339624   439061 
 4861000   0.95799632   -3.5194441   -3.5194441   -2.0824529  0.049754593   -3.5194441    1.4369912   439061 
 4862000   0.95518075   -3.5160493   -3.5160493   -2.0832815  0.053478468   -3.5160493    1.4327679   439061 
 4863000   0.95394505   -3.5150395   -3.5150395   -2.0841252  0.050748667   -3.5150395    1.4309143   439061 
 4864000   0.95256768   -3.5139808   -3.5139808   -2.0851326  0.048501673   -3.5139808    1.4288483   439061 
 4865000   0.95186945   -3.5132131   -3.5132131   -2.0854122  0.044476332   -3.5132131    1.4278009   439061 
 4866000   0.95373723   -3.5160544   -3.5160544   -2.0854518  0.047113764   -3.5160544    1.4306026   439061 
 4867000    0.9550359   -3.5178888   -3.5178888   -2.0853382  0.050119042   -3.5178888    1.4325506   439061 
 4868000   0.95513303   -3.5158992   -3.5158992   -2.0832029  0.053412257   -3.5158992    1.4326963   439061 
 4869000   0.95650605   -3.5166125   -3.5166125   -2.0818567  0.047817233   -3.5166125    1.4347558   439061 
 4870000   0.95490493   -3.5137967   -3.5137967   -2.0814426  0.054245027   -3.5137967    1.4323541   439061 
 4871000   0.95672627   -3.5170331   -3.5170331   -2.0819469  0.052649507   -3.5170331    1.4350861   439061 
 4872000   0.95672607   -3.5183471   -3.5183471   -2.0832612   0.05441887   -3.5183471    1.4350858   439061 
 4873000   0.95677265   -3.5179457   -3.5179457     -2.08279  0.050813786   -3.5179457    1.4351557   439061 
 4874000   0.95612318   -3.5171549   -3.5171549   -2.0829734  0.048850633   -3.5171549    1.4341815   439061 
 4875000   0.95358974   -3.5149589   -3.5149589   -2.0845776   0.05029045   -3.5149589    1.4303813   439061 
 4876000   0.95455495   -3.5161707   -3.5161707   -2.0843416  0.048221602   -3.5161707    1.4318292   439061 
 4877000   0.95436149   -3.5154876   -3.5154876   -2.0839486  0.049252237   -3.5154876     1.431539   439061 
 4878000   0.95503952   -3.5164427   -3.5164427   -2.0838867   0.04938533   -3.5164427     1.432556   439061 
 4879000   0.95591413   -3.5175178   -3.5175178   -2.0836498  0.048255322   -3.5175178    1.4338679   439061 
 4880000   0.95584397   -3.5177312   -3.5177312   -2.0839685  0.048963247   -3.5177312    1.4337627   439061 
 4881000   0.95541681   -3.5167929   -3.5167929   -2.0836709   0.04955813   -3.5167929     1.433122   439061 
 4882000   0.95517787   -3.5172081   -3.5172081   -2.0844446  0.051438689   -3.5172081    1.4327635   439061 
 4883000   0.95689275    -3.518216    -3.518216   -2.0828801  0.049120359    -3.518216    1.4353359   439061 
 4884000   0.95539661    -3.516813    -3.516813   -2.0837213  0.049435267    -3.516813    1.4330916   439061 
 4885000   0.95554401   -3.5181272   -3.5181272   -2.0848145  0.049513581   -3.5181272    1.4333128   439061 
 4886000   0.95527553    -3.516554    -3.516554   -2.0836439  0.053009372    -3.516554      1.43291   439061 
 4887000   0.95704872   -3.5174216   -3.5174216   -2.0818518  0.050618633   -3.5174216    1.4355698   439061 
 4888000   0.95596811   -3.5171368   -3.5171368   -2.0831879  0.045405879   -3.5171368    1.4339489   439061 
 4889000    0.9557934   -3.5174316   -3.5174316   -2.0837447  0.047177069   -3.5174316    1.4336868   439061 
 4890000   0.95542357   -3.5172174   -3.5172174   -2.0840853  0.049652218   -3.5172174    1.4331321   439061 
 4891000   0.95581471     -3.51784     -3.51784   -2.0841212  0.048979333     -3.51784    1.4337188   439061 
 4892000   0.95519381    -3.516932    -3.516932   -2.0841446  0.048769857    -3.516932    1.4327875   439061 
 4893000   0.95575012   -3.5175569   -3.5175569   -2.0839349  0.043269515   -3.5175569    1.4336219   439061 
 4894000   0.95470591   -3.5163892   -3.5163892   -2.0843336  0.048795885   -3.5163892    1.4320556   439061 
 4895000   0.95598159   -3.5185005   -3.5185005   -2.0845314  0.050126036   -3.5185005    1.4339691   439061 
 4896000   0.95457279   -3.5178243   -3.5178243   -2.0859684  0.048174769   -3.5178243    1.4318559   439061 
 4897000   0.95423847   -3.5168209   -3.5168209   -2.0854664   0.04966562   -3.5168209    1.4313544   439061 
 4898000   0.95535369   -3.5188893   -3.5188893    -2.085862  0.053651641   -3.5188893    1.4330273   439061 
 4899000   0.95405812   -3.5174656   -3.5174656   -2.0863816  0.047293843   -3.5174656    1.4310839   439061 
 4900000   0.95575659   -3.5193151   -3.5193151   -2.0856834  0.040845312   -3.5193151    1.4336316   439061 
 4901000   0.95414732    -3.517353    -3.517353   -2.0861352  0.054561421    -3.517353    1.4312177   439061 
 4902000   0.95477549   -3.5173745   -3.5173745   -2.0852145  0.051780113   -3.5173745      1.43216   439061 
 4903000   0.95511669   -3.5205652   -3.5205652   -2.0878934  0.051048235   -3.5205652    1.4326718   439061 
 4904000    0.9542441   -3.5195008   -3.5195008   -2.0881379  0.049952137   -3.5195008    1.4313629   439061 
 4905000   0.95444867   -3.5198253   -3.5198253   -2.0881555  0.049508425   -3.5198253    1.4316697   439061 
 4906000   0.95452916   -3.5199533   -3.5199533   -2.0881628  0.050095147   -3.5199533    1.4317905   439061 
 4907000   0.95666817   -3.5220878   -3.5220878   -2.0870888  0.052363372   -3.5220878     1.434999   439061 
 4908000   0.95541072   -3.5202539   -3.5202539   -2.0871411  0.052397551   -3.5202539    1.4331128   439061 
 4909000   0.95597609   -3.5203558   -3.5203558   -2.0863949  0.052219704   -3.5203558    1.4339609   439061 
 4910000   0.95470742    -3.519452    -3.519452   -2.0873941  0.052788452    -3.519452    1.4320579   439061 
 4911000   0.95574274   -3.5218942   -3.5218942   -2.0882834  0.050253047   -3.5218942    1.4336108   439061 
 4912000   0.95656235   -3.5210749   -3.5210749   -2.0862346  0.053944167   -3.5210749    1.4348403   439061 
 4913000   0.95724654   -3.5223671   -3.5223671   -2.0865005  0.046188979   -3.5223671    1.4358665   439061 
 4914000   0.95586909   -3.5212099   -3.5212099   -2.0874096  0.052234897   -3.5212099    1.4338004   439061 
 4915000   0.95466343   -3.5197511   -3.5197511   -2.0877592   0.05253263   -3.5197511    1.4319919   439061 
 4916000   0.95506905   -3.5200856   -3.5200856   -2.0874853  0.049291573   -3.5200856    1.4326003   439061 
 4917000   0.95571907   -3.5200425   -3.5200425   -2.0864671  0.053772517   -3.5200425    1.4335753   439061 
 4918000   0.95474515     -3.51858     -3.51858   -2.0864655  0.050179927     -3.51858    1.4321145   439061 
 4919000   0.95452195   -3.5196459   -3.5196459   -2.0878662  0.049922191   -3.5196459    1.4317797   439061 
 4920000    0.9540951   -3.5190152   -3.5190152   -2.0878758  0.050663048   -3.5190152    1.4311394   439061 
 4921000   0.95529368   -3.5195572   -3.5195572   -2.0866199  0.050093683   -3.5195572    1.4329373   439061 
 4922000   0.95472569   -3.5196747   -3.5196747   -2.0875895  0.043120532   -3.5196747    1.4320853   439061 
 4923000   0.95252378   -3.5165583   -3.5165583   -2.0877759  0.044498164   -3.5165583    1.4287824   439061 
 4924000   0.95356292   -3.5189105   -3.5189105   -2.0885694  0.047394477   -3.5189105    1.4303411   439061 
 4925000   0.95271261   -3.5162155   -3.5162155   -2.0871498  0.047818334   -3.5162155    1.4290657   439061 
 4926000   0.95489286   -3.5196158   -3.5196158   -2.0872798  0.047213817   -3.5196158     1.432336   439061 
 4927000   0.95396848   -3.5167211   -3.5167211   -2.0857717  0.049792491   -3.5167211    1.4309495   439061 
 4928000   0.95396081     -3.51424     -3.51424   -2.0833021  0.050753089     -3.51424     1.430938   439061 
 4929000   0.95500976   -3.5160911   -3.5160911   -2.0835798  0.048491282   -3.5160911    1.4325114   439061 
 4930000   0.95440975   -3.5150451   -3.5150451   -2.0834337  0.051215959   -3.5150451    1.4316114   439061 
 4931000   0.95470531   -3.5164344   -3.5164344   -2.0843797  0.054960095   -3.5164344    1.4320547   439061 
 4932000   0.95650816   -3.5179033   -3.5179033   -2.0831443  0.048065025   -3.5179033     1.434759   439061 
 4933000   0.95416798   -3.5148389   -3.5148389   -2.0835902  0.051703076   -3.5148389    1.4312487   439061 
 4934000   0.95504723   -3.5154725   -3.5154725   -2.0829049   0.05285503   -3.5154725    1.4325676   439061 
 4935000   0.95484798   -3.5158581   -3.5158581   -2.0835894  0.049322807   -3.5158581    1.4322687   439061 
 4936000   0.95539976   -3.5178215   -3.5178215   -2.0847251  0.048501277   -3.5178215    1.4330964   439061 
 4937000   0.95542438   -3.5172707   -3.5172707   -2.0841374   0.04857967   -3.5172707    1.4331333   439061 
 4938000   0.95454568   -3.5158959   -3.5158959   -2.0840806  0.043896353   -3.5158959    1.4318153   439061 
 4939000   0.95349549   -3.5166523   -3.5166523   -2.0864123  0.044596187   -3.5166523      1.43024   439061 
 4940000   0.95512634   -3.5183081   -3.5183081   -2.0856218  0.044026864   -3.5183081    1.4326862   439061 
 4941000   0.95379871   -3.5157678   -3.5157678    -2.085073  0.046309295   -3.5157678    1.4306948   439061 
 4942000   0.95546488   -3.5179827   -3.5179827   -2.0847887  0.047046412   -3.5179827    1.4331941   439061 
 4943000   0.95436682   -3.5166083   -3.5166083   -2.0850613  0.048886399   -3.5166083     1.431547   439061 
 4944000   0.95499365    -3.518618    -3.518618   -2.0861308  0.047830326    -3.518618    1.4324872   439061 
 4945000   0.95536814   -3.5176561   -3.5176561   -2.0846072  0.049118186   -3.5176561    1.4330489   439061 
 4946000    0.9560349   -3.5184776   -3.5184776   -2.0844285  0.052349008   -3.5184776    1.4340491   439061 
 4947000   0.95517231   -3.5195375   -3.5195375   -2.0867823  0.047736738   -3.5195375    1.4327552   439061 
 4948000   0.95421885   -3.5178603   -3.5178603   -2.0865353  0.047006595   -3.5178603     1.431325   439061 
 4949000   0.95442978    -3.518344    -3.518344   -2.0867026  0.050308955    -3.518344    1.4316414   439061 
 4950000   0.95477218   -3.5168557   -3.5168557   -2.0847007   0.05127216   -3.5168557     1.432155   439061 
 4951000   0.95551055   -3.5186575   -3.5186575   -2.0853949  0.048472724   -3.5186575    1.4332626   439061 
 4952000   0.95567727   -3.5185209   -3.5185209   -2.0850083  0.048667139   -3.5185209    1.4335126   439061 
 4953000   0.95531168    -3.519236    -3.519236   -2.0862718  0.047753984    -3.519236    1.4329643   439061 
 4954000   0.95430632   -3.5183033   -3.5183033   -2.0868471  0.049355527   -3.5183033    1.4314562   439061 
 4955000   0.95382899   -3.5180558   -3.5180558   -2.0873156  0.046568945   -3.5180558    1.4307402   439061 
 4956000   0.95376938   -3.5179383   -3.5179383   -2.0872875  0.047915302   -3.5179383    1.4306508   439061 
 4957000   0.95520572   -3.5198704   -3.5198704   -2.0870651  0.040514077   -3.5198704    1.4328053   439061 
 4958000   0.95382753   -3.5169615   -3.5169615   -2.0862234  0.047169694   -3.5169615     1.430738   439061 
 4959000   0.95355814   -3.5168424   -3.5168424   -2.0865085  0.050958366   -3.5168424     1.430334   439061 
 4960000   0.95378302   -3.5171998   -3.5171998   -2.0865285  0.053227583   -3.5171998    1.4306713   439061 
 4961000   0.95616379    -3.518632    -3.518632   -2.0843895  0.051924139    -3.518632    1.4342424   439061 
 4962000   0.95462771   -3.5166304   -3.5166304   -2.0846921  0.054234019   -3.5166304    1.4319383   439061 
 4963000    0.9553856   -3.5170116   -3.5170116   -2.0839364   0.05506492   -3.5170116    1.4330751   439061 
 4964000   0.95573336   -3.5189195   -3.5189195   -2.0853227  0.047878677   -3.5189195    1.4335968   439061 
 4965000   0.95600629   -3.5188769   -3.5188769   -2.0848707  0.053244064   -3.5188769    1.4340062   439061 
 4966000   0.95654068   -3.5177234   -3.5177234   -2.0829156  0.050982235   -3.5177234    1.4348078   439061 
 4967000   0.95458401   -3.5162021   -3.5162021   -2.0843293   0.05356241   -3.5162021    1.4318728   439061 
 4968000   0.95402874   -3.5158127   -3.5158127   -2.0847728  0.048160306   -3.5158127    1.4310399   439061 
 4969000   0.95527041   -3.5185552   -3.5185552   -2.0856528  0.048659978   -3.5185552    1.4329024   439061 
 4970000   0.95543576   -3.5181932   -3.5181932   -2.0850428  0.050225423   -3.5181932    1.4331504   439061 
 4971000   0.95637193    -3.519391    -3.519391   -2.0848364  0.042924076    -3.519391    1.4345546   439061 
 4972000   0.95410698   -3.5145176   -3.5145176   -2.0833604  0.051230701   -3.5145176    1.4311572   439061 
 4973000   0.95420502   -3.5156008   -3.5156008   -2.0842965  0.046017458   -3.5156008    1.4313043   439061 
 4974000   0.95298643   -3.5134844   -3.5134844    -2.084008  0.049243266   -3.5134844    1.4294764   439061 
 4975000   0.95472392   -3.5151451   -3.5151451   -2.0830625  0.050631226   -3.5151451    1.4320826   439061 
 4976000   0.95426132   -3.5135188   -3.5135188   -2.0821301  0.044948179   -3.5135188    1.4313887   439061 
 4977000   0.95344506   -3.5130373   -3.5130373    -2.082873  0.046990933   -3.5130373    1.4301643   439061 
 4978000   0.95557557   -3.5156874   -3.5156874   -2.0823273  0.049869237   -3.5156874    1.4333601   439061 
 4979000   0.95477892   -3.5136981   -3.5136981    -2.081533  0.048132328   -3.5136981    1.4321651   439061 
 4980000   0.95524281   -3.5161166   -3.5161166   -2.0832556  0.045188409   -3.5161166    1.4328609   439061 
 4981000   0.95380539   -3.5143096   -3.5143096   -2.0836048  0.051690255   -3.5143096    1.4307048   439061 
 4982000   0.95545287   -3.5161542   -3.5161542   -2.0829782  0.049330894   -3.5161542     1.433176   439061 
 4983000   0.95424985    -3.514085    -3.514085   -2.0827135  0.051007112    -3.514085    1.4313715   439061 
 4984000   0.95460897   -3.5164687   -3.5164687   -2.0845585  0.047315408   -3.5164687    1.4319102   439061 
 4985000    0.9550681   -3.5168142   -3.5168142   -2.0842153  0.046276992   -3.5168142    1.4325989   439061 
 4986000   0.95487048   -3.5166499   -3.5166499   -2.0843475  0.050911944   -3.5166499    1.4323025   439061 
 4987000   0.95351005    -3.515912    -3.515912   -2.0856502  0.054742625    -3.515912    1.4302618   439061 
 4988000   0.95482232   -3.5176159   -3.5176159   -2.0853856   0.04882571   -3.5176159    1.4322302   439061 
 4989000   0.95553503   -3.5167898   -3.5167898   -2.0834905  0.047431506   -3.5167898    1.4332993   439061 
 4990000   0.95637497   -3.5187561   -3.5187561   -2.0841969  0.056271306   -3.5187561    1.4345592   439061 
 4991000   0.95628479   -3.5188414   -3.5188414   -2.0844175  0.049156593   -3.5188414    1.4344239   439061 
 4992000   0.95717611   -3.5207261   -3.5207261   -2.0849652  0.046916464   -3.5207261    1.4357609   439061 
 4993000   0.95447866   -3.5179497   -3.5179497    -2.086235  0.051198255   -3.5179497    1.4317147   439061 
 4994000   0.95605611   -3.5188982   -3.5188982   -2.0848173  0.045090215   -3.5188982    1.4340809   439061 
 4995000   0.95656309   -3.5195936   -3.5195936   -2.0847523  0.051419565   -3.5195936    1.4348414   439061 
 4996000   0.95484773   -3.5176771   -3.5176771   -2.0854088  0.054119307   -3.5176771    1.4322683   439061 
 4997000   0.95451336   -3.5179289   -3.5179289   -2.0861621  0.049033735   -3.5179289    1.4317668   439061 
 4998000   0.95512768   -3.5183295   -3.5183295   -2.0856413  0.050733635   -3.5183295    1.4326883   439061 
 4999000   0.95483378   -3.5173068   -3.5173068   -2.0850594  0.051209383   -3.5173068    1.4322474   439061 
 5000000   0.95692908    -3.519232    -3.519232   -2.0838417  0.047609927    -3.519232    1.4353903   439061 
Loop time of 158167 on 64 procs for 5000000 steps with 439061 atoms

Performance: 13656.471 tau/day, 31.612 timesteps/s
93.2% CPU use with 64 MPI tasks x 1 OpenMP threads

MPI task timing breakdown:
Section |  min time  |  avg time  |  max time  |%varavg|  %CPU | %total
-----------------------------------------------------------------------
Pair    | 5930.4     | 12681      | 16326      |2164.4 |  97.8 |  8.02
Bond    | 1.9109     | 2.5212     | 6.0898     |  32.8 | 100.0 |  0.00
Neigh   | 2886.9     | 4883.8     | 5874.5     |1025.1 |  99.4 |  3.09
Comm    | 1.2706e+05 | 1.3085e+05 | 1.4014e+05 | 567.2 |  92.5 | 82.73
Output  | 279.49     | 280.46     | 281.07     |   2.6 |  91.9 |  0.18
Modify  | 583.98     | 1088.8     | 2601       |1824.4 |  93.8 |  0.69
Other   |            | 8381       |            |       |       |  5.30

Nlocal:        6860.33 ave        7218 max        6489 min
Histogram: 1 0 1 4 23 25 8 0 1 1
Nghost:        6994.81 ave        7637 max        5307 min
Histogram: 15 1 0 0 0 0 0 0 0 48
Neighs:       201122.0 ave      220603 max       98339 min
Histogram: 4 3 1 0 0 0 0 0 3 53

Total # of neighbors = 12871821
Ave neighs/atom = 29.316703
Ave special neighs/atom = 0.0000000
Neighbor list builds = 500000
Dangerous builds = 495000
write_data	data.lj
System init for write_data ...
WARNING: Not all mixed pair coeffs generated from mixing. Use write_data with 'pair ij' option to store all pair coeffs. (src/write_data.cpp:312)


## Evaporation
#region          regevap block EDGE EDGE EDGE EDGE 140 EDGE units box
#fix             4 solvent evaporate ${evap} 1 regevap 156415

#run 		20000000
Total wall time: 43:56:11
