LAMMPS (24 Dec 2020)
OMP_NUM_THREADS environment is not set. Defaulting to 1 thread. (src/comm.cpp:94)
  using 1 OpenMP thread(s) per MPI task
# Simple rigid body system
# needed variables:

#variable	startTemp equal 0.5
#variable 	temp 	  equal 0.8

units		lj
atom_style	full
dimension 	3
boundary	p p f
pair_style	lj/smooth/linear ${cutoff}
pair_style	lj/smooth/linear 2.1


variable 	sigma		equal 1.0
variable 	epsilon 	equal 1.0

region		box block 0 80 0 80 0 160
create_box 	3 box
Created orthogonal box = (0.0000000 0.0000000 0.0000000) to (80.000000 80.000000 160.00000)
  3 by 4 by 8 MPI processor grid



lattice 	sc 0.66
Lattice spacing in x,y,z = 1.1485556 1.1485556 1.1485556
region		fluid block EDGE EDGE EDGE EDGE 2 100 units box
create_atoms 	1 region fluid
Created 421400 atoms
  create_atoms CPU = 0.118 seconds

lattice 	sc 0.045
Lattice spacing in x,y,z = 2.8114422 2.8114422 2.8114422
region		gas block EDGE EDGE EDGE EDGE 101 158 units box
create_atoms    1 region gas
Created 17661 atoms
  create_atoms CPU = 0.004 seconds

group		solvent type 1
439061 atoms in group solvent

mass		1 1.0
mass		2 1.0
mass		3 1.0



neighbor 	0.4 bin

pair_coeff	1 1 1.0 1.0
pair_coeff	2 2 0.0 0.0
pair_coeff	3 3 0.0 0.0
pair_coeff	2 3 0.0 0.0
pair_coeff	1 2*3 0.0 0.0

pair_modify 	shift yes

delete_atoms	overlap 0.5 solvent solvent
System init for delete_atoms ...
Neighbor list info ...
  update every 1 steps, delay 10 steps, check yes
  max neighbors/atom: 2000, page size: 100000
  master list distance cutoff = 2.5
  ghost atom cutoff = 2.5
  binsize = 1.25, bins = 64 64 128
  2 neighbor lists, perpetual/occasional/extra = 1 1 0
  (1) command delete_atoms, occasional
      attributes: full, newton on
      pair build: full/bin
      stencil: full/bin/3d
      bin: standard
  (2) pair lj/smooth/linear, perpetual
      attributes: half, newton on
      pair build: half/bin/newton
      stencil: half/bin/3d/newton
      bin: standard
WARNING: Ignoring 'compress yes' for molecular system (src/delete_atoms.cpp:125)
Deleted 0 atoms, new total = 439061

velocity 	solvent create ${startTemp} 563435 loop geom
velocity 	solvent create 1.0 563435 loop geom

balance 	1.05 shift z 10 1.05
Balancing ...
Neighbor list info ...
  update every 1 steps, delay 10 steps, check yes
  max neighbors/atom: 2000, page size: 100000
  master list distance cutoff = 2.5
  ghost atom cutoff = 2.5
  binsize = 1.25, bins = 64 64 128
  1 neighbor lists, perpetual/occasional/extra = 1 0 0
  (1) pair lj/smooth/linear, perpetual
      attributes: half, newton on
      pair build: half/bin/newton
      stencil: half/bin/3d/newton
      bin: standard
 rebalancing time: 0.010 seconds
  iteration count = 5
  initial/final maximal load/proc = 7776.0000 5616.0000
  initial/final imbalance factor  = 1.7002102 1.2279296
  x cuts: 0.0000000 0.33333333 0.66666667 1.0000000
  y cuts: 0.0000000 0.25000000 0.50000000 0.75000000 1.0000000
  z cuts: 0.0000000 0.089843750 0.17578125 0.25390625 0.33593750 0.41406250 0.50390625 0.58203125 1.0000000


####################### WALLS ###########################


variable       epsilonWall equal 2*${epsilon}
variable       epsilonWall equal 2*1

variable       cutoffTop   equal   0.7147*${sigma}
variable       cutoffTop   equal   0.7147*1

variable       cutoffLow   equal   3*${sigma}
variable       cutoffLow   equal   3*1


fix            topWall all wall/lj93 zhi EDGE                ${epsilonWall} ${sigma} ${cutoffTop} units box
fix            topWall all wall/lj93 zhi EDGE                2 ${sigma} ${cutoffTop} units box
fix            topWall all wall/lj93 zhi EDGE                2 1 ${cutoffTop} units box
fix            topWall all wall/lj93 zhi EDGE                2 1 0.7147 units box

fix            lowWall all wall/lj93 zlo EDGE                ${epsilonWall} ${sigma} ${cutoffLow} units box
fix            lowWall all wall/lj93 zlo EDGE                2 ${sigma} ${cutoffLow} units box
fix            lowWall all wall/lj93 zlo EDGE                2 1 ${cutoffLow} units box
fix            lowWall all wall/lj93 zlo EDGE                2 1 3 units box


###################### COMPUTES ##########################

compute        bin1 solvent chunk/atom bin/1d z upper 1.0


######################	FIXES ############################


fix 		peclet solvent ave/chunk 1000 1 1000 bin1 density/number norm 		 none ave one file density.profile

fix 		 temp solvent ave/chunk 1000 1 1000 bin1 temp norm 		 none ave one file temp.profile

fix 		2 solvent nve


## Thermostat


region		regthermo block EDGE EDGE EDGE EDGE 0 20 units box

group 		thermo dynamic solvent region regthermo every 1000
dynamic group thermo defined

fix 		3 thermo langevin ${startTemp} ${temp} 10 156453
fix 		3 thermo langevin 1.0 ${temp} 10 156453
fix 		3 thermo langevin 1.0 1.0 10 156453



#### Load balancing


fix 		bal all balance 1000 1.05 shift z 10 1.05


############### Diagnostics and computes ###################
#compute 	com cube	  rigid/local	1 mol x y z
#compute 	quat cube	  rigid/local	1 mol quatw quati quatj quatk

thermo 		1000
thermo_style 	custom step temp epair evdwl etotal press pe ke atoms

dump		1 all custom 100000 dump.lammpstrj id mol type x y z
dump 		2 all image 10000 image.*.png type type
dump 		3 all movie 1000 movie.avi type type

#dump 		com cube local 1000 dump.*.xyz c_com[*]
#dump		quat cube      local 1000 dump.*.quat c_quat[*]


restart 	1000000 restart.dat
timestep 	0.005
timer 		full
New timer settings: style=full  mode=nosync  timeout=off

run		3000000
Per MPI rank memory allocation (min/avg/max) = 10.27 | 10.39 | 10.50 Mbytes
Step Temp E_pair E_vdwl TotEng Press PotEng KinEng Atoms 
       0            1 -0.048684274 -0.048684274    1.4513123    4.5120549 -0.048684274    1.4999966   439061 
    1000     2.008498   -2.0361694   -2.0361694   0.97657069    2.4478928   -2.0361694    3.0127401   439061 
    2000    1.9108081    -2.076032    -2.076032   0.79017355    1.5677496    -2.076032    2.8662056   439061 
    3000    1.7608019   -2.0022856   -2.0022856   0.63891132    1.2298797   -2.0022856    2.6411969   439061 
    4000    1.6836453   -1.9737805   -1.9737805   0.55168169   0.99454252   -1.9737805    2.5254621   439061 
    5000    1.6433519   -1.9318268   -1.9318268   0.53319549    0.8231811   -1.9318268    2.4650223   439061 
    6000    1.6193293   -1.8815148   -1.8815148   0.54747368   0.77729638   -1.8815148    2.4289885   439061 
    7000    1.5999163   -1.8261762   -1.8261762   0.57369283   0.82311011   -1.8261762    2.3998691   439061 
    8000    1.5953954   -1.7900332   -1.7900332   0.60305442   0.88200086   -1.7900332    2.3930877   439061 
    9000    1.5972917   -1.7650111   -1.7650111   0.63092101   0.94292481   -1.7650111    2.3959321   439061 
   10000    1.6060024   -1.7532237   -1.7532237    0.6557745   0.98976114   -1.7532237    2.4089982   439061 
   11000    1.6138119    -1.743153    -1.743153   0.67755942    1.0163095    -1.743153    2.4207124   439061 
   12000     1.610269   -1.7173111   -1.7173111   0.69808689   0.96493452   -1.7173111     2.415398   439061 
   13000    1.6066797   -1.6939107   -1.6939107   0.71610342   0.91707823   -1.6939107    2.4100141   439061 
   14000     1.612171   -1.6870443   -1.6870443   0.73120663   0.93148439   -1.6870443    2.4182509   439061 
   15000    1.6174508   -1.6822092   -1.6822092   0.74396146   0.94653978   -1.6822092    2.4261707   439061 
   16000    1.6106019   -1.6763865   -1.6763865   0.73951093    0.9207283   -1.6763865    2.4158974   439061 
   17000    1.5787026   -1.6790119   -1.6790119   0.68903661   0.88321078   -1.6790119    2.3680485   439061 
   18000    1.5371421   -1.6986849   -1.6986849   0.60702298   0.87816672   -1.6986849    2.3057079   439061 
   19000      1.49602   -1.7292433   -1.7292433   0.51478162   0.88858656   -1.7292433    2.2440249   439061 
   20000    1.4594581   -1.7539764   -1.7539764   0.43520575   0.89867889   -1.7539764    2.1891821   439061 
   21000    1.4326909   -1.7720072   -1.7720072   0.37702435   0.87408145   -1.7720072    2.1490315   439061 
   22000    1.4135667   -1.7818383   -1.7818383   0.33850695   0.85088468   -1.7818383    2.1203452   439061 
   23000    1.3978463   -1.7829854   -1.7829854   0.31377929   0.82495389   -1.7829854    2.0967647   439061 
   24000    1.3875175   -1.7814811   -1.7814811    0.2997904   0.80253132   -1.7814811    2.0812715   439061 
   25000    1.3820552   -1.7801196   -1.7801196   0.29295853   0.78215944   -1.7801196    2.0730781   439061 
   26000    1.3754932   -1.7728584   -1.7728584   0.29037681   0.76247907   -1.7728584    2.0632352   439061 
   27000    1.3703222   -1.7635144   -1.7635144   0.29196421   0.74011333   -1.7635144    2.0554786   439061 
   28000    1.3638833   -1.7510237   -1.7510237   0.29479663   0.71811903   -1.7510237    2.0458203   439061 
   29000    1.3579656   -1.7355727   -1.7355727   0.30137103   0.69049422   -1.7355727    2.0369438   439061 
   30000     1.353128   -1.7201456   -1.7201456   0.30954167   0.68117769   -1.7201456    2.0296873   439061 
   31000    1.3526953   -1.7100675   -1.7100675   0.31897082   0.68407835   -1.7100675    2.0290383   439061 
   32000    1.3544058   -1.7047168   -1.7047168   0.32688732   0.67934158   -1.7047168    2.0316041   439061 
   33000    1.3564523   -1.6978841   -1.6978841   0.33678977   0.68875319   -1.6978841    2.0346739   439061 
   34000    1.3598282   -1.6939212   -1.6939212   0.34581651    0.6874249   -1.6939212    2.0397377   439061 
   35000    1.3618713   -1.6889991   -1.6889991   0.35380315   0.68904824   -1.6889991    2.0428022   439061 
   36000    1.3642717   -1.6859953   -1.6859953   0.36040758   0.69141909   -1.6859953    2.0464029   439061 
   37000    1.3663139   -1.6836375   -1.6836375   0.36582875   0.68972812   -1.6836375    2.0494662   439061 
   38000    1.3691825    -1.682318    -1.682318   0.37145116   0.68930623    -1.682318    2.0537691   439061 
   39000    1.3728017   -1.6815702   -1.6815702   0.37762766   0.69617296   -1.6815702    2.0591979   439061 
   40000    1.3759014   -1.6861168   -1.6861168   0.37773058   0.70855844   -1.6861168    2.0638473   439061 
   41000     1.370851   -1.6916576   -1.6916576   0.36461428   0.71976779   -1.6916576    2.0562719   439061 
   42000    1.3638801   -1.7059122   -1.7059122   0.33990322   0.71449977   -1.7059122    2.0458154   439061 
   43000    1.3530845   -1.7142035   -1.7142035   0.31541863   0.72357946   -1.7142035    2.0296221   439061 
   44000    1.3452577   -1.7247767   -1.7247767   0.29310523   0.71168972   -1.7247767    2.0178819   439061 
   45000    1.3378669   -1.7281278   -1.7281278   0.27866795   0.71562168   -1.7281278    2.0067958   439061 
   46000    1.3315317   -1.7300462   -1.7300462   0.26724681    0.7090917   -1.7300462     1.997293   439061 
   47000    1.3271596   -1.7316897   -1.7316897   0.25904512   0.70078002   -1.7316897    1.9907348   439061 
   48000    1.3247667   -1.7346964   -1.7346964   0.25244914   0.68844743   -1.7346964    1.9871456   439061 
   49000    1.3204462   -1.7317267   -1.7317267   0.24893817   0.68609588   -1.7317267    1.9806648   439061 
   50000     1.318571   -1.7307155   -1.7307155   0.24713652   0.67965814   -1.7307155     1.977852   439061 
   51000    1.3162201   -1.7272479   -1.7272479   0.24707779    0.6713494   -1.7272479    1.9743257   439061 
   52000     1.312819   -1.7214856   -1.7214856   0.24773841   0.66859033   -1.7214856     1.969224   439061 
   53000    1.3124997   -1.7195722   -1.7195722   0.24917289   0.65606671   -1.7195722    1.9687451   439061 
   54000    1.3095838   -1.7124396   -1.7124396   0.25193165   0.64908587   -1.7124396    1.9643712   439061 
   55000    1.3101876    -1.708606    -1.708606    0.2566709   0.65006969    -1.708606    1.9652769   439061 
   56000     1.310252   -1.7053481   -1.7053481   0.26002543    0.6464495   -1.7053481    1.9653736   439061 
   57000    1.3112868   -1.7018492   -1.7018492   0.26507651   0.64303843   -1.7018492    1.9669257   439061 
   58000    1.3128967   -1.6985629   -1.6985629   0.27077763   0.64718391   -1.6985629    1.9693405   439061 
   59000    1.3145594   -1.6973904   -1.6973904   0.27444422   0.64618473   -1.6973904    1.9718347   439061 
   60000    1.3149109   -1.6937879   -1.6937879   0.27857398    0.6456056   -1.6937879    1.9723619   439061 
   61000    1.3174958   -1.6927288   -1.6927288   0.28351041    0.6496336   -1.6927288    1.9762392   439061 
   62000    1.3191519   -1.6928743   -1.6928743   0.28584895   0.65311287   -1.6928743    1.9787233   439061 
   63000    1.3211519   -1.6952588   -1.6952588   0.28646453   0.65847184   -1.6952588    1.9817233   439061 
   64000    1.3198723   -1.6945666   -1.6945666   0.28523726   0.66229019   -1.6945666    1.9798039   439061 
   65000    1.3207711   -1.7006312   -1.7006312   0.28052092   0.66334331   -1.7006312    1.9811521   439061 
   66000    1.3165195   -1.7040751   -1.7040751   0.27069964   0.66697686   -1.7040751    1.9747748   439061 
   67000    1.3134103   -1.7088302   -1.7088302   0.26128086   0.66393942   -1.7088302     1.970111   439061 
   68000    1.3091175   -1.7123273   -1.7123273   0.25134455   0.66615102   -1.7123273    1.9636718   439061 
   69000    1.3071142   -1.7185895   -1.7185895   0.24207734   0.65783408   -1.7185895    1.9606668   439061 
   70000    1.3027912   -1.7202506   -1.7202506   0.23393183   0.65791963   -1.7202506    1.9541824   439061 
   71000    1.3011077   -1.7219894   -1.7219894   0.22966772   0.65915008   -1.7219894    1.9516571   439061 
   72000    1.2989334   -1.7215753   -1.7215753   0.22682041   0.65290818   -1.7215753    1.9483957   439061 
   73000    1.2963785   -1.7219395   -1.7219395   0.22262377   0.65157733   -1.7219395    1.9445633   439061 
   74000    1.2950486   -1.7229938   -1.7229938   0.21957474    0.6502293   -1.7229938    1.9425686   439061 
   75000    1.2927207   -1.7200774   -1.7200774   0.21899925   0.64320782   -1.7200774    1.9390767   439061 
   76000    1.2919743   -1.7185252   -1.7185252   0.21943184   0.64177409   -1.7185252     1.937957   439061 
   77000    1.2910876   -1.7168461   -1.7168461   0.21978089   0.63673552   -1.7168461     1.936627   439061 
   78000    1.2902352   -1.7149614   -1.7149614   0.22038693   0.63187817   -1.7149614    1.9353484   439061 
   79000    1.2897562   -1.7129712   -1.7129712    0.2216587   0.62935176   -1.7129712    1.9346299   439061 
   80000    1.2884851   -1.7107498   -1.7107498   0.22197339   0.62952867   -1.7107498    1.9327232   439061 
   81000    1.2874302   -1.7082454   -1.7082454   0.22289554   0.63008311   -1.7082454    1.9311409   439061 
   82000      1.28929   -1.7092906   -1.7092906   0.22464004   0.62310848   -1.7092906    1.9339307   439061 
   83000    1.2892266   -1.7081404   -1.7081404   0.22569504   0.62395286   -1.7081404    1.9338355   439061 
   84000    1.2902012   -1.7067869   -1.7067869   0.22851053   0.61960009   -1.7067869    1.9352974   439061 
   85000    1.2899878   -1.7051147   -1.7051147   0.22986255   0.62848381   -1.7051147    1.9349773   439061 
   86000    1.2916291   -1.7058132   -1.7058132   0.23162598   0.62638196   -1.7058132    1.9374392   439061 
   87000    1.2912043   -1.7053005   -1.7053005   0.23150159   0.63176204   -1.7053005    1.9368021   439061 
   88000    1.2914753   -1.7086217   -1.7086217   0.22858687   0.62805059   -1.7086217    1.9372085   439061 
   89000    1.2903403   -1.7078512   -1.7078512    0.2276549   0.63375618   -1.7078512    1.9355061   439061 
   90000    1.2919827   -1.7115922   -1.7115922   0.22637748    0.6355271   -1.7115922    1.9379697   439061 
   91000    1.2884407   -1.7115238   -1.7115238   0.22113276     0.640097   -1.7115238    1.9326566   439061 
   92000     1.287517    -1.713831    -1.713831   0.21744013   0.64120724    -1.713831    1.9312711   439061 
   93000    1.2869564   -1.7171705   -1.7171705   0.21325971    0.6345437   -1.7171705    1.9304303   439061 
   94000    1.2839944   -1.7168967   -1.7168967   0.20909044   0.63609405   -1.7168967    1.9259872   439061 
   95000    1.2841393   -1.7195786   -1.7195786   0.20662599   0.63687029   -1.7195786    1.9262046   439061 
   96000    1.2816529   -1.7199559   -1.7199559   0.20251916   0.63020183   -1.7199559     1.922475   439061 
   97000    1.2799252   -1.7201327   -1.7201327   0.19975066   0.63162915   -1.7201327    1.9198834   439061 
   98000    1.2791655   -1.7207139   -1.7207139   0.19802992   0.63082348   -1.7207139    1.9187438   439061 
   99000    1.2767351    -1.719353    -1.719353   0.19574527    0.6303758    -1.719353    1.9150983   439061 
  100000    1.2748174   -1.7189573   -1.7189573   0.19326451   0.62734736   -1.7189573    1.9122218   439061 
  101000    1.2747134   -1.7196473   -1.7196473   0.19241844   0.62257994   -1.7196473    1.9120657   439061 
  102000    1.2743881   -1.7187957   -1.7187957   0.19278211   0.62437191   -1.7187957    1.9115778   439061 
  103000    1.2747903   -1.7192186   -1.7192186   0.19296253   0.61709162   -1.7192186    1.9121811   439061 
  104000    1.2726683   -1.7160541   -1.7160541     0.192944   0.61930287   -1.7160541    1.9089981   439061 
  105000     1.272757   -1.7154806   -1.7154806   0.19365057   0.61237163   -1.7154806    1.9091312   439061 
  106000    1.2731999   -1.7153682   -1.7153682   0.19442735   0.61070476   -1.7153682    1.9097955   439061 
  107000    1.2723095    -1.712191    -1.712191   0.19626886   0.61851876    -1.712191    1.9084599   439061 
  108000    1.2734637   -1.7139654   -1.7139654   0.19622574   0.61537478   -1.7139654    1.9101912   439061 
  109000    1.2735971   -1.7128931   -1.7128931   0.19749825   0.61410714   -1.7128931    1.9103914   439061 
  110000    1.2736141   -1.7130296   -1.7130296   0.19738711   0.61725046   -1.7130296    1.9104167   439061 
  111000    1.2737733   -1.7142985   -1.7142985   0.19635713   0.61006449   -1.7142985    1.9106556   439061 
  112000    1.2745141   -1.7147383   -1.7147383   0.19702853   0.61415285   -1.7147383    1.9117668   439061 
  113000    1.2743502   -1.7157214   -1.7157214    0.1957995   0.61138584   -1.7157214    1.9115209   439061 
  114000    1.2732217   -1.7163954   -1.7163954   0.19343279   0.61360137   -1.7163954    1.9098282   439061 
  115000    1.2723194   -1.7166017   -1.7166017   0.19187311   0.61834899   -1.7166017    1.9084748   439061 
  116000    1.2712351   -1.7170742   -1.7170742   0.18977408   0.61886845   -1.7170742    1.9068483   439061 
  117000    1.2698883   -1.7173731   -1.7173731   0.18745511   0.62133498   -1.7173731    1.9048282   439061 
  118000    1.2708827   -1.7208463   -1.7208463   0.18547346    0.6147718   -1.7208463    1.9063197   439061 
  119000    1.2677354   -1.7189599   -1.7189599   0.18263887   0.61724875   -1.7189599    1.9015988   439061 
  120000    1.2683252    -1.721172    -1.721172   0.18131146   0.61652681    -1.721172    1.9024834   439061 
  121000    1.2677501    -1.722128    -1.722128    0.1794928   0.61004776    -1.722128    1.9016208   439061 
  122000    1.2660121    -1.721117    -1.721117    0.1778969   0.61477565    -1.721117    1.8990139   439061 
  123000    1.2637124   -1.7185689   -1.7185689   0.17699545   0.61516566   -1.7185689    1.8955644   439061 
  124000    1.2652583   -1.7228353   -1.7228353   0.17504793   0.60625596   -1.7228353    1.8978832   439061 
  125000    1.2652109   -1.7219461   -1.7219461   0.17586595   0.60845272   -1.7219461    1.8978121   439061 
  126000    1.2637809   -1.7214665   -1.7214665   0.17420045   0.60567692   -1.7214665     1.895667   439061 
  127000     1.262661    -1.721398    -1.721398   0.17258929   0.60314419    -1.721398    1.8939872   439061 
  128000    1.2616544   -1.7191733   -1.7191733   0.17330388   0.60874094   -1.7191733    1.8924772   439061 
  129000    1.2624288   -1.7192808   -1.7192808   0.17435806   0.60353661   -1.7192808    1.8936388   439061 
  130000    1.2601076   -1.7157685   -1.7157685   0.17438857    0.6095756   -1.7157685    1.8901571   439061 
  131000    1.2618255   -1.7183797   -1.7183797   0.17435433   0.60473473   -1.7183797     1.892734   439061 
  132000     1.262257   -1.7175819   -1.7175819   0.17579935    0.6029982   -1.7175819    1.8933812   439061 
  133000    1.2607717   -1.7167473   -1.7167473   0.17440593   0.60646149   -1.7167473    1.8911532   439061 
  134000    1.2622816   -1.7196493   -1.7196493   0.17376876   0.60049465   -1.7196493    1.8934181   439061 
  135000    1.2610803   -1.7183622   -1.7183622   0.17325393   0.60529901   -1.7183622    1.8916162   439061 
  136000    1.2603537   -1.7177695   -1.7177695   0.17275667    0.6051217   -1.7177695    1.8905262   439061 
  137000    1.2602295   -1.7183314   -1.7183314   0.17200858   0.60248876   -1.7183314    1.8903399   439061 
  138000    1.2605634   -1.7202832   -1.7202832   0.17055762   0.60592712   -1.7202832    1.8908408   439061 
  139000    1.2607748   -1.7202885   -1.7202885   0.17086931   0.60342299   -1.7202885    1.8911579   439061 
  140000    1.2599793   -1.7208412   -1.7208412    0.1691234   0.60559024   -1.7208412    1.8899646   439061 
  141000     1.257874   -1.7193291   -1.7193291    0.1674776   0.60780179   -1.7193291    1.8868067   439061 
  142000    1.2588231   -1.7225513   -1.7225513   0.16567894   0.60154373   -1.7225513    1.8882303   439061 
  143000    1.2575069   -1.7228769   -1.7228769   0.16337915   0.59809146   -1.7228769     1.886256   439061 
  144000     1.256397   -1.7224603   -1.7224603   0.16213097   0.60519423   -1.7224603    1.8845912   439061 
  145000     1.256081   -1.7231683   -1.7231683   0.16094896   0.60301235   -1.7231683    1.8841172   439061 
  146000    1.2569861   -1.7235986   -1.7235986   0.16187618   0.60029361   -1.7235986    1.8854748   439061 
  147000    1.2554948   -1.7241645   -1.7241645    0.1590733   0.59869523   -1.7241645    1.8832378   439061 
  148000    1.2537045   -1.7229074   -1.7229074   0.15764504    0.5994746   -1.7229074    1.8805524   439061 
  149000    1.2533652   -1.7239625   -1.7239625   0.15608099   0.60145196   -1.7239625    1.8800435   439061 
  150000    1.2521983   -1.7222639   -1.7222639   0.15602938   0.60059817   -1.7222639    1.8782932   439061 
  151000    1.2523046   -1.7233512   -1.7233512   0.15510141   0.59738269   -1.7233512    1.8784526   439061 
  152000    1.2509268   -1.7221682   -1.7221682   0.15421781   0.59960907   -1.7221682     1.876386   439061 
  153000    1.2520659   -1.7236898   -1.7236898   0.15440476   0.59474025   -1.7236898    1.8780946   439061 
  154000    1.2513376    -1.723328    -1.723328   0.15367408   0.59303598    -1.723328    1.8770021   439061 
  155000    1.2518398   -1.7237886   -1.7237886    0.1539668   0.59305484   -1.7237886    1.8777554   439061 
  156000    1.2504893   -1.7221554   -1.7221554   0.15357421   0.59290155   -1.7221554    1.8757296   439061 
  157000    1.2501583   -1.7224471   -1.7224471   0.15278615   0.59538108   -1.7224471    1.8752332   439061 
  158000    1.2503908   -1.7229802   -1.7229802   0.15260175   0.58876332   -1.7229802     1.875582   439061 
  159000    1.2503792   -1.7214768   -1.7214768   0.15408768   0.59632814   -1.7214768    1.8755645   439061 
  160000    1.2487205   -1.7207852   -1.7207852   0.15229133   0.59356518   -1.7207852    1.8730766   439061 
  161000    1.2496809   -1.7217206   -1.7217206   0.15279647   0.59487614   -1.7217206    1.8745171   439061 
  162000    1.2497256   -1.7237474   -1.7237474   0.15083672   0.59043209   -1.7237474    1.8745841   439061 
  163000    1.2478934   -1.7225017   -1.7225017   0.14933409   0.58708455   -1.7225017    1.8718358   439061 
  164000    1.2473786   -1.7233297   -1.7233297   0.14773395   0.58944872   -1.7233297    1.8710636   439061 
  165000    1.2469112   -1.7231058   -1.7231058   0.14725679   0.59213873   -1.7231058    1.8703626   439061 
  166000     1.247321   -1.7241631   -1.7241631   0.14681411   0.59288189   -1.7241631    1.8709772   439061 
  167000     1.245745   -1.7244561   -1.7244561   0.14415709   0.59214603   -1.7244561    1.8686132   439061 
  168000    1.2454696   -1.7252279   -1.7252279   0.14297222   0.59035733   -1.7252279    1.8682001   439061 
  169000    1.2455304   -1.7249112   -1.7249112    0.1433801   0.59111359   -1.7249112    1.8682913   439061 
  170000    1.2464145   -1.7271301   -1.7271301   0.14248738   0.58596916   -1.7271301    1.8696175   439061 
  171000    1.2431613   -1.7260715   -1.7260715   0.13866613   0.59137572   -1.7260715    1.8647377   439061 
  172000    1.2436016   -1.7263604   -1.7263604   0.13903776   0.58620413   -1.7263604    1.8653981   439061 
  173000    1.2432766   -1.7270111   -1.7270111   0.13789949   0.58570097   -1.7270111    1.8649106   439061 
  174000     1.242525   -1.7274795   -1.7274795   0.13630384   0.58897724   -1.7274795    1.8637833   439061 
  175000    1.2414028   -1.7249236   -1.7249236   0.13717639   0.59263399   -1.7249236       1.8621   439061 
  176000    1.2433266    -1.727758    -1.727758   0.13722767   0.58796461    -1.727758    1.8649857   439061 
  177000    1.2414633   -1.7262662   -1.7262662   0.13592452   0.58444115   -1.7262662    1.8621907   439061 
  178000     1.241601   -1.7270809   -1.7270809   0.13531627   0.58245866   -1.7270809    1.8623972   439061 
  179000    1.2402773   -1.7261161   -1.7261161   0.13429557   0.58260745   -1.7261161    1.8604117   439061 
  180000     1.241408   -1.7268314   -1.7268314    0.1352763     0.582832   -1.7268314    1.8621077   439061 
  181000    1.2406159   -1.7263045   -1.7263045   0.13461506   0.58431377   -1.7263045    1.8609196   439061 
  182000    1.2399175   -1.7257899   -1.7257899   0.13408213   0.58251734   -1.7257899    1.8598721   439061 
  183000    1.2411272   -1.7271915   -1.7271915   0.13449511   0.58270206   -1.7271915    1.8616866   439061 
  184000    1.2385659   -1.7241741   -1.7241741    0.1336705   0.58499904   -1.7241741    1.8578446   439061 
  185000    1.2387502    -1.725699    -1.725699   0.13242215   0.58078501    -1.725699    1.8581211   439061 
  186000    1.2376883   -1.7243283   -1.7243283       0.1322   0.58364185   -1.7243283    1.8565283   439061 
  187000     1.239125   -1.7258248   -1.7258248   0.13285847   0.58342815   -1.7258248    1.8586832   439061 
  188000    1.2382044   -1.7248583   -1.7248583   0.13244405   0.58114329   -1.7248583    1.8573023   439061 
  189000    1.2380354   -1.7258829   -1.7258829   0.13116602   0.58052066   -1.7258829    1.8570489   439061 
  190000    1.2375132   -1.7239156   -1.7239156   0.13234998   0.58339945   -1.7239156    1.8562656   439061 
  191000    1.2366972   -1.7252827   -1.7252827   0.12975893   0.58288807   -1.7252827    1.8550416   439061 
  192000    1.2366271    -1.725488    -1.725488   0.12944845   0.58180667    -1.725488    1.8549365   439061 
  193000    1.2371772   -1.7274364   -1.7274364   0.12832518   0.57726411   -1.7274364    1.8557616   439061 
  194000    1.2373808   -1.7285824   -1.7285824   0.12748453   0.57832602   -1.7285824    1.8560669   439061 
  195000     1.236114   -1.7265012   -1.7265012   0.12766551    0.5830016   -1.7265012    1.8541667   439061 
  196000    1.2350578   -1.7265181   -1.7265181   0.12606447   0.57572739   -1.7265181    1.8525825   439061 
  197000    1.2347486   -1.7263768   -1.7263768   0.12574186   0.58253227   -1.7263768    1.8521186   439061 
  198000    1.2348763   -1.7267965   -1.7267965   0.12551374    0.5819685   -1.7267965    1.8523103   439061 
  199000    1.2334964   -1.7266021   -1.7266021   0.12363831   0.58120599   -1.7266021    1.8502404   439061 
  200000    1.2340856   -1.7279083   -1.7279083   0.12321592   0.57792785   -1.7279083    1.8511243   439061 
  201000    1.2328286    -1.727025    -1.727025    0.1222137   0.57912564    -1.727025    1.8492387   439061 
  202000    1.2319454   -1.7270968   -1.7270968   0.12081699   0.57841714   -1.7270968    1.8479138   439061 
  203000    1.2319513   -1.7282664   -1.7282664   0.11965627   0.57449557   -1.7282664    1.8479227   439061 
  204000    1.2315277   -1.7280401   -1.7280401   0.11924722   0.57772188   -1.7280401    1.8472873   439061 
  205000    1.2320792   -1.7281644   -1.7281644   0.11995018   0.57400259   -1.7281644    1.8481145   439061 
  206000    1.2319954   -1.7291973   -1.7291973   0.11879156   0.57404339   -1.7291973    1.8479888   439061 
  207000    1.2325798   -1.7300597   -1.7300597   0.11880583   0.57127745   -1.7300597    1.8488655   439061 
  208000    1.2307947   -1.7286601   -1.7286601   0.11752772    0.5726242   -1.7286601    1.8461878   439061 
  209000    1.2303896   -1.7293902   -1.7293902   0.11618993   0.56999799   -1.7293902    1.8455801   439061 
  210000    1.2306826    -1.729455    -1.729455   0.11656469   0.57206278    -1.729455    1.8460197   439061 
  211000    1.2291649   -1.7282811   -1.7282811   0.11546206   0.57165848   -1.7282811    1.8437432   439061 
  212000    1.2282875   -1.7275067   -1.7275067   0.11492029   0.57317425   -1.7275067     1.842427   439061 
  213000    1.2288009   -1.7278676   -1.7278676   0.11532962   0.57499934   -1.7278676    1.8431972   439061 
  214000    1.2274323   -1.7269524   -1.7269524   0.11419189   0.57489663   -1.7269524    1.8411442   439061 
  215000    1.2280357   -1.7283182   -1.7283182   0.11373122   0.57422238   -1.7283182    1.8420494   439061 
  216000    1.2285624   -1.7293099   -1.7293099   0.11352949   0.57111926   -1.7293099    1.8428393   439061 
  217000    1.2276297   -1.7288267   -1.7288267   0.11261371   0.57150586   -1.7288267    1.8414404   439061 
  218000    1.2278654     -1.72985     -1.72985   0.11194388   0.57153925     -1.72985    1.8417939   439061 
  219000    1.2267158   -1.7285276   -1.7285276   0.11154199   0.57237294   -1.7285276    1.8400696   439061 
  220000    1.2264989   -1.7293153   -1.7293153   0.11042882    0.5734897   -1.7293153    1.8397441   439061 
  221000    1.2258935   -1.7283839   -1.7283839   0.11045223   0.57336443   -1.7283839    1.8388361   439061 
  222000    1.2261509   -1.7293419   -1.7293419   0.10988023   0.57163315   -1.7293419    1.8392221   439061 
  223000    1.2261652   -1.7306607   -1.7306607   0.10858287   0.56999305   -1.7306607    1.8392436   439061 
  224000    1.2262255   -1.7297718   -1.7297718    0.1095623    0.5691609   -1.7297718    1.8393341   439061 
  225000     1.225547   -1.7295403   -1.7295403   0.10877602   0.56517923   -1.7295403    1.8383164   439061 
  226000    1.2246217   -1.7295401   -1.7295401   0.10738829    0.5676671   -1.7295401    1.8369284   439061 
  227000     1.225623   -1.7311911   -1.7311911   0.10723928   0.56441224   -1.7311911    1.8384303   439061 
  228000      1.22415   -1.7296382   -1.7296382   0.10658258    0.5697534   -1.7296382    1.8362208   439061 
  229000    1.2241533   -1.7305313   -1.7305313   0.10569448   0.56501401   -1.7305313    1.8362258   439061 
  230000    1.2238456   -1.7312537   -1.7312537   0.10451053   0.56177467   -1.7312537    1.8357642   439061 
  231000    1.2238059   -1.7318358   -1.7318358   0.10386891   0.55841342   -1.7318358    1.8357047   439061 
  232000    1.2239944   -1.7318938   -1.7318938   0.10409366   0.56345232   -1.7318938    1.8359875   439061 
  233000    1.2223312   -1.7291865   -1.7291865   0.10430613    0.5654013   -1.7291865    1.8334926   439061 
  234000     1.222943   -1.7313493   -1.7313493   0.10306112   0.56419721   -1.7313493    1.8344104   439061 
  235000    1.2225255   -1.7315574   -1.7315574   0.10222666   0.56570179   -1.7315574    1.8337841   439061 
  236000    1.2217125   -1.7300379   -1.7300379   0.10252669   0.56401607   -1.7300379    1.8325646   439061 
  237000    1.2215519   -1.7298635   -1.7298635   0.10246011   0.56801944   -1.7298635    1.8323236   439061 
  238000     1.221652   -1.7305014   -1.7305014   0.10197234   0.56635923   -1.7305014    1.8324738   439061 
  239000    1.2218038   -1.7309359   -1.7309359   0.10176562   0.56267075   -1.7309359    1.8327015   439061 
  240000    1.2212194   -1.7297576   -1.7297576   0.10206732    0.5624222   -1.7297576    1.8318249   439061 
  241000    1.2196591   -1.7282847   -1.7282847   0.10119985   0.56637633   -1.7282847    1.8294845   439061 
  242000    1.2205813   -1.7304186   -1.7304186   0.10044911   0.56128531   -1.7304186    1.8308677   439061 
  243000    1.2190443   -1.7293077   -1.7293077  0.099254608   0.56195708   -1.7293077    1.8285623   439061 
  244000    1.2191693   -1.7301823   -1.7301823  0.098567482   0.56147786   -1.7301823    1.8287498   439061 
  245000     1.219606   -1.7305138   -1.7305138  0.098891018   0.56465812   -1.7305138    1.8294048   439061 
  246000    1.2203908   -1.7330464   -1.7330464  0.097535672   0.55972626   -1.7330464     1.830582   439061 
  247000    1.2199914   -1.7328005   -1.7328005  0.097182383   0.55739051   -1.7328005    1.8299829   439061 
  248000    1.2175495   -1.7302965   -1.7302965  0.096023559    0.5617253   -1.7302965    1.8263201   439061 
  249000    1.2185759   -1.7315526   -1.7315526  0.096307065    0.5572196   -1.7315526    1.8278597   439061 
  250000    1.2188185   -1.7315811   -1.7315811  0.096642549    0.5566857   -1.7315811    1.8282237   439061 
  251000    1.2189581    -1.732638    -1.732638   0.09579494   0.55445194    -1.732638     1.828433   439061 
  252000    1.2174806   -1.7309247   -1.7309247  0.095292085    0.5611436   -1.7309247    1.8262167   439061 
  253000    1.2171944   -1.7311612   -1.7311612  0.094626231   0.55716773   -1.7311612    1.8257874   439061 
  254000    1.2169155   -1.7309763   -1.7309763  0.094392795   0.55963026   -1.7309763    1.8253691   439061 
  255000    1.2162207   -1.7305821   -1.7305821  0.093744795   0.55995174   -1.7305821    1.8243269   439061 
  256000    1.2145633   -1.7296631   -1.7296631  0.092177706   0.56033402   -1.7296631    1.8218408   439061 
  257000     1.216648   -1.7331478   -1.7331478  0.091820098    0.5548002   -1.7331478    1.8249679   439061 
  258000    1.2168001   -1.7328246   -1.7328246   0.09237135   0.55225025   -1.7328246    1.8251959   439061 
  259000    1.2152695   -1.7314779   -1.7314779  0.091422182   0.55690845   -1.7314779       1.8229   439061 
  260000    1.2161407   -1.7334022   -1.7334022   0.09080463   0.55484975   -1.7334022    1.8242068   439061 
  261000    1.2149207   -1.7314971   -1.7314971  0.090879773   0.56018334   -1.7314971    1.8223769   439061 
  262000    1.2150022   -1.7323802   -1.7323802  0.090118944   0.55788321   -1.7323802    1.8224991   439061 
  263000    1.2138641   -1.7312647   -1.7312647  0.089527267   0.55596392   -1.7312647     1.820792   439061 
  264000    1.2146351   -1.7312631   -1.7312631  0.090685439   0.55569175   -1.7312631    1.8219485   439061 
  265000    1.2133853   -1.7318719   -1.7318719  0.088201891   0.55620385   -1.7318719    1.8200738   439061 
  266000    1.2137439   -1.7326387   -1.7326387  0.087973047   0.55516776   -1.7326387    1.8206118   439061 
  267000     1.212737   -1.7316938   -1.7316938   0.08740755   0.55403219   -1.7316938    1.8191014   439061 
  268000    1.2113889   -1.7320175   -1.7320175  0.085061761   0.55491104   -1.7320175    1.8170792   439061 
  269000    1.2105656   -1.7314672   -1.7314672  0.084376958   0.55423666   -1.7314672    1.8158442   439061 
  270000    1.2111381   -1.7321578   -1.7321578  0.084545306   0.55025235   -1.7321578    1.8167031   439061 
  271000     1.211356    -1.731615    -1.731615  0.085414859   0.55994648    -1.731615    1.8170298   439061 
  272000    1.2117411   -1.7317155   -1.7317155  0.085892032   0.55474103   -1.7317155    1.8176076   439061 
  273000    1.2130765   -1.7330234   -1.7330234  0.086587174   0.55360602   -1.7330234    1.8196106   439061 
  274000    1.2102677   -1.7306927   -1.7306927   0.08470476   0.55438013   -1.7306927    1.8153975   439061 
  275000     1.210916   -1.7315986   -1.7315986  0.084771296   0.55743215   -1.7315986    1.8163699   439061 
  276000    1.2105764   -1.7312693   -1.7312693  0.084591255   0.55046898   -1.7312693    1.8158605   439061 
  277000    1.2111193   -1.7311732   -1.7311732  0.085501585   0.55180068   -1.7311732    1.8166748   439061 
  278000    1.2111506   -1.7326758   -1.7326758  0.084046006   0.54939681   -1.7326758    1.8167218   439061 
  279000    1.2093855   -1.7298718   -1.7298718  0.084202325   0.55610492   -1.7298718    1.8140741   439061 
  280000    1.2103475   -1.7323768   -1.7323768  0.083140312   0.55332929   -1.7323768    1.8155172   439061 
  281000    1.2099389   -1.7308813   -1.7308813  0.084022897   0.55221717   -1.7308813    1.8149042   439061 
  282000    1.2094827   -1.7314643   -1.7314643  0.082755555   0.55192842   -1.7314643    1.8142199   439061 
  283000    1.2080139   -1.7305869   -1.7305869  0.081429892   0.55076997   -1.7305869    1.8120168   439061 
  284000    1.2079423    -1.730934    -1.730934  0.080975403   0.55076524    -1.730934    1.8119094   439061 
  285000    1.2086363   -1.7326345   -1.7326345  0.080315807   0.55104215   -1.7326345    1.8129503   439061 
  286000     1.208001   -1.7315747   -1.7315747  0.080422623   0.54999831   -1.7315747    1.8119973   439061 
  287000    1.2082518   -1.7323286   -1.7323286  0.080044935   0.54986705   -1.7323286    1.8123735   439061 
  288000    1.2089214   -1.7329517   -1.7329517  0.080426218   0.54877528   -1.7329517     1.813378   439061 
  289000    1.2088797   -1.7334323   -1.7334323  0.079883025   0.54834973   -1.7334323    1.8133154   439061 
  290000    1.2069597   -1.7307826   -1.7307826  0.079652774   0.55308424   -1.7307826    1.8104354   439061 
  291000     1.208918   -1.7328623   -1.7328623  0.080510576    0.5503485   -1.7328623    1.8133729   439061 
  292000     1.207298   -1.7322054   -1.7322054  0.078737424   0.54768173   -1.7322054    1.8109428   439061 
  293000    1.2080467   -1.7340277   -1.7340277  0.078038185   0.54818837   -1.7340277    1.8120659   439061 
  294000    1.2059243   -1.7311871   -1.7311871  0.077695139   0.55319517   -1.7311871    1.8088823   439061 
  295000    1.2068087   -1.7340077   -1.7340077  0.076201265    0.5464991   -1.7340077     1.810209   439061 
  296000    1.2054051    -1.732642    -1.732642  0.075461468   0.54881669    -1.732642    1.8081035   439061 
  297000    1.2043091   -1.7306921   -1.7306921  0.075767506   0.55139734   -1.7306921    1.8064596   439061 
  298000    1.2050447   -1.7314446   -1.7314446  0.076118338   0.54670451   -1.7314446    1.8075629   439061 
  299000    1.2049261   -1.7315238   -1.7315238  0.075861243   0.54762897   -1.7315238    1.8073851   439061 
  300000    1.2052324   -1.7324577   -1.7324577  0.075386776   0.55175211   -1.7324577    1.8078445   439061 
  301000     1.204215   -1.7310323   -1.7310323  0.075286101    0.5487239   -1.7310323    1.8063184   439061 
  302000    1.2050252   -1.7316222   -1.7316222   0.07591148   0.55099049   -1.7316222    1.8075337   439061 
  303000    1.2054078   -1.7324801   -1.7324801  0.075627394   0.54552668   -1.7324801    1.8081075   439061 
  304000    1.2027215   -1.7299011   -1.7299011  0.074177139   0.55059795   -1.7299011    1.8040782   439061 
  305000    1.2040946   -1.7327012   -1.7327012  0.073436571   0.54678903   -1.7327012    1.8061378   439061 
  306000    1.2032636   -1.7316026   -1.7316026  0.073288686   0.54521713   -1.7316026    1.8048913   439061 
  307000    1.2037641   -1.7318939   -1.7318939  0.073748206   0.54297012   -1.7318939    1.8056421   439061 
  308000    1.2037207   -1.7333719   -1.7333719  0.072204958   0.54176429   -1.7333719    1.8055769   439061 
  309000    1.2026946   -1.7317032   -1.7317032  0.072334561    0.5440011   -1.7317032    1.8040377   439061 
  310000    1.2029166   -1.7324261   -1.7324261  0.071944772   0.54186512   -1.7324261    1.8043708   439061 
  311000    1.2027571   -1.7326053   -1.7326053  0.071526208   0.54193176   -1.7326053    1.8041315   439061 
  312000     1.201823    -1.733035    -1.733035  0.069695381   0.54263479    -1.733035    1.8027304   439061 
  313000    1.2028734   -1.7347369   -1.7347369  0.069569045   0.53861076   -1.7347369    1.8043059   439061 
  314000    1.2016742   -1.7335987   -1.7335987  0.068908516   0.54129159   -1.7335987    1.8025072   439061 
  315000    1.2014675   -1.7323471   -1.7323471   0.06984998   0.54381906   -1.7323471    1.8021971   439061 
  316000    1.2029637    -1.734372    -1.734372  0.070069419   0.53837704    -1.734372    1.8044414   439061 
  317000     1.202272   -1.7335885   -1.7335885  0.069815384   0.54426279   -1.7335885    1.8034039   439061 
  318000    1.2012553   -1.7335167   -1.7335167  0.068362136   0.54742236   -1.7335167    1.8018789   439061 
  319000    1.2003697   -1.7324229   -1.7324229  0.068127493   0.54514739   -1.7324229    1.8005504   439061 
  320000    1.1999779   -1.7348537   -1.7348537  0.065108959   0.53833442   -1.7348537    1.7999627   439061 
  321000    1.1992955   -1.7334033   -1.7334033  0.065535854   0.53778681   -1.7334033    1.7989391   439061 
  322000    1.1993522    -1.734787    -1.734787  0.064237139    0.5364259    -1.734787    1.7990242   439061 
  323000    1.1975476    -1.733106    -1.733106  0.063211392   0.54084761    -1.733106    1.7963174   439061 
  324000    1.1990853   -1.7360938   -1.7360938  0.062530029   0.53664519   -1.7360938    1.7986239   439061 
  325000    1.1985668   -1.7358323   -1.7358323  0.062013795   0.53637439   -1.7358323    1.7978461   439061 
  326000     1.197431   -1.7345067   -1.7345067  0.061635664   0.53233834   -1.7345067    1.7961423   439061 
  327000    1.1967309   -1.7337498   -1.7337498  0.061342513   0.53703291   -1.7337498    1.7950923   439061 
  328000     1.198068   -1.7360111   -1.7360111  0.061086807    0.5389168   -1.7360111    1.7970979   439061 
  329000    1.1965808   -1.7345583   -1.7345583  0.060308872   0.53803237   -1.7345583    1.7948672   439061 
  330000    1.1962778   -1.7339959   -1.7339959  0.060416642    0.5383401   -1.7339959    1.7944126   439061 
  331000    1.1968063   -1.7352583   -1.7352583  0.059947058   0.53735015   -1.7352583    1.7952053   439061 
  332000    1.1959993   -1.7343762   -1.7343762  0.059618602    0.5338003   -1.7343762    1.7939948   439061 
  333000    1.1948451   -1.7320988   -1.7320988  0.060164726   0.54117726   -1.7320988    1.7922635   439061 
  334000     1.197669   -1.7356809   -1.7356809  0.060818541   0.53753713   -1.7356809    1.7964995   439061 
  335000    1.1965342   -1.7338711   -1.7338711  0.060926078   0.53880097   -1.7338711    1.7947972   439061 
  336000    1.1962987   -1.7341643   -1.7341643  0.060279658   0.54115865   -1.7341643    1.7944439   439061 
  337000    1.1962082   -1.7347118   -1.7347118  0.059596401   0.53615885   -1.7347118    1.7943082   439061 
  338000    1.1955295   -1.7350849   -1.7350849  0.058205306   0.53726019   -1.7350849    1.7932902   439061 
  339000    1.1946764   -1.7345195   -1.7345195  0.057490979   0.53561005   -1.7345195    1.7920105   439061 
  340000     1.195922    -1.736235    -1.736235  0.057643866   0.53457439    -1.736235    1.7938789   439061 
  341000    1.1933609   -1.7342059   -1.7342059  0.055831379   0.53432564   -1.7342059    1.7900372   439061 
  342000    1.1926184   -1.7337105   -1.7337105  0.055213012   0.53649478   -1.7337105    1.7889235   439061 
  343000    1.1935771   -1.7352436   -1.7352436  0.055118031     0.533189   -1.7352436    1.7903616   439061 
  344000    1.1937567   -1.7362189   -1.7362189  0.054412063   0.53261556   -1.7362189     1.790631   439061 
  345000     1.193634   -1.7355251   -1.7355251  0.054921801   0.53594499   -1.7355251    1.7904469   439061 
  346000     1.193421   -1.7360319   -1.7360319  0.054095593   0.52641338   -1.7360319    1.7901275   439061 
  347000    1.1925844   -1.7351508   -1.7351508   0.05372164   0.53470326   -1.7351508    1.7888725   439061 
  348000    1.1921618   -1.7360127   -1.7360127  0.052225937   0.53211863   -1.7360127    1.7882387   439061 
  349000    1.1925444   -1.7370893   -1.7370893  0.051723179   0.53251096   -1.7370893    1.7888125   439061 
  350000    1.1919865   -1.7360521   -1.7360521  0.051923627   0.53415972   -1.7360521    1.7879758   439061 
  351000    1.1894314   -1.7352662   -1.7352662  0.048876873   0.53304761   -1.7352662    1.7841431   439061 
  352000    1.1904695   -1.7349185   -1.7349185  0.050781674   0.53616191   -1.7349185    1.7857002   439061 
  353000    1.1903943   -1.7356795   -1.7356795  0.049907868   0.53315403   -1.7356795    1.7855874   439061 
  354000    1.1899659   -1.7346287   -1.7346287  0.050316002   0.53310343   -1.7346287    1.7849447   439061 
  355000    1.1905088   -1.7364176   -1.7364176  0.049341645   0.53446053   -1.7364176    1.7857592   439061 
  356000    1.1912226   -1.7355732   -1.7355732  0.051256593   0.53368227   -1.7355732    1.7868298   439061 
  357000    1.1919311       -1.738       -1.738  0.049892597   0.53210767       -1.738    1.7878926   439061 
  358000     1.191176   -1.7357869   -1.7357869  0.050973043   0.53382306   -1.7357869      1.78676   439061 
  359000     1.191007    -1.735569    -1.735569   0.05093749   0.53177888    -1.735569    1.7865065   439061 
  360000    1.1916243   -1.7376995   -1.7376995   0.04973283   0.52891668   -1.7376995    1.7874324   439061 
  361000    1.1895668   -1.7351718   -1.7351718  0.049174386   0.53422281   -1.7351718    1.7843462   439061 
  362000     1.191975   -1.7381107   -1.7381107  0.049847824   0.52935208   -1.7381107    1.7879585   439061 
  363000    1.1898438   -1.7347983   -1.7347983  0.049963364   0.53584348   -1.7347983    1.7847617   439061 
  364000    1.1897423   -1.7364786   -1.7364786  0.048130856    0.5303203   -1.7364786    1.7846094   439061 
  365000    1.1878642   -1.7354161   -1.7354161  0.046376124   0.53000097   -1.7354161    1.7817922   439061 
  366000    1.1872704   -1.7342154   -1.7342154  0.046686184   0.52966344   -1.7342154    1.7809015   439061 
  367000    1.1893275   -1.7357479   -1.7357479  0.048239242   0.52883417   -1.7357479    1.7839871   439061 
  368000    1.1881261   -1.7350079   -1.7350079  0.047177116   0.52968812   -1.7350079    1.7821851   439061 
  369000    1.1873384   -1.7348518   -1.7348518  0.046151782   0.52702084   -1.7348518    1.7810036   439061 
  370000    1.1887357   -1.7356482   -1.7356482  0.047451201   0.52626544   -1.7356482    1.7830994   439061 
  371000    1.1874856   -1.7345337   -1.7345337  0.046690658   0.53072795   -1.7345337    1.7812243   439061 
  372000    1.1872429   -1.7348272   -1.7348272  0.046033057   0.52842166   -1.7348272    1.7808603   439061 
  373000    1.1876055   -1.7363643   -1.7363643  0.045039895   0.52785339   -1.7363643    1.7814042   439061 
  374000      1.18766   -1.7348805   -1.7348805  0.046605378   0.52787621   -1.7348805    1.7814859   439061 
  375000    1.1864814   -1.7333961   -1.7333961  0.046321863   0.53112661   -1.7333961     1.779718   439061 
  376000    1.1864982   -1.7340959   -1.7340959  0.045647379   0.52173074   -1.7340959    1.7797432   439061 
  377000    1.1864639   -1.7343236   -1.7343236  0.045368275   0.53095827   -1.7343236    1.7796919   439061 
  378000    1.1875407   -1.7356239   -1.7356239  0.045683152   0.53254573   -1.7356239     1.781307   439061 
  379000    1.1874721   -1.7343436   -1.7343436  0.046860481   0.52553721   -1.7343436    1.7812041   439061 
  380000    1.1875971   -1.7363029   -1.7363029  0.045088648    0.5270777   -1.7363029    1.7813916   439061 
  381000    1.1862926   -1.7349401   -1.7349401  0.044494721   0.52849851   -1.7349401    1.7794348   439061 
  382000     1.186606   -1.7338222   -1.7338222  0.046082735   0.53072847   -1.7338222    1.7799049   439061 
  383000    1.1865016   -1.7349264   -1.7349264  0.044821995   0.53093654   -1.7349264    1.7797484   439061 
  384000    1.1854055   -1.7341041   -1.7341041  0.044000161   0.52328458   -1.7341041    1.7781042   439061 
  385000    1.1852598   -1.7339996   -1.7339996  0.043885992   0.52794832   -1.7339996    1.7778856   439061 
  386000    1.1857617   -1.7346898   -1.7346898  0.043948659   0.52979107   -1.7346898    1.7786385   439061 
  387000    1.1845384    -1.734265    -1.734265  0.042538559   0.52307915    -1.734265    1.7768036   439061 
  388000    1.1866508    -1.738246    -1.738246  0.041726143   0.51898168    -1.738246    1.7799721   439061 
  389000    1.1844059   -1.7350805   -1.7350805  0.041524269   0.52707936   -1.7350805    1.7766048   439061 
  390000    1.1846953   -1.7362826   -1.7362826  0.040756353   0.52317093   -1.7362826    1.7770389   439061 
  391000    1.1833784   -1.7340705   -1.7340705  0.040993072   0.52581096   -1.7340705    1.7750636   439061 
  392000    1.1836068   -1.7349657   -1.7349657  0.040440444   0.52292722   -1.7349657    1.7754061   439061 
  393000    1.1833885   -1.7347212   -1.7347212  0.040357546   0.52351935   -1.7347212    1.7750787   439061 
  394000    1.1843085   -1.7360987   -1.7360987  0.040360033   0.52303341   -1.7360987    1.7764588   439061 
  395000    1.1832796   -1.7344322   -1.7344322  0.040483116   0.52730181   -1.7344322    1.7749153   439061 
  396000    1.1840799   -1.7367225   -1.7367225  0.039393268   0.52202789   -1.7367225    1.7761158   439061 
  397000    1.1836229   -1.7340121   -1.7340121  0.041418264   0.52800776   -1.7340121    1.7754303   439061 
  398000    1.1847128   -1.7363168   -1.7363168  0.040748266   0.52534508   -1.7363168    1.7770651   439061 
  399000    1.1822371   -1.7358135   -1.7358135  0.037538072   0.52407097   -1.7358135    1.7733516   439061 
  400000    1.1825135   -1.7361707   -1.7361707  0.037595458   0.52276846   -1.7361707    1.7737662   439061 
  401000     1.182098   -1.7355424   -1.7355424  0.037600593   0.51945441   -1.7355424     1.773143   439061 
  402000    1.1819458   -1.7359178   -1.7359178  0.036996873   0.52477587   -1.7359178    1.7729147   439061 
  403000    1.1820192   -1.7362383   -1.7362383  0.036786383   0.52473603   -1.7362383    1.7730247   439061 
  404000     1.180864   -1.7353498   -1.7353498  0.035942202   0.52292031   -1.7353498     1.771292   439061 
  405000    1.1808693   -1.7343019   -1.7343019  0.036998084   0.52757053   -1.7343019    1.7712999   439061 
  406000    1.1826814   -1.7384046   -1.7384046  0.035613475    0.5201879   -1.7384046    1.7740181   439061 
  407000     1.180296   -1.7368684   -1.7368684   0.03357165   0.52199819   -1.7368684      1.77044   439061 
  408000    1.1793804   -1.7360665   -1.7360665  0.033000085   0.52156154   -1.7360665    1.7690666   439061 
  409000    1.1792715   -1.7367128   -1.7367128  0.032190429   0.52023349   -1.7367128    1.7689032   439061 
  410000    1.1794597   -1.7357551   -1.7357551  0.033430513   0.51988869   -1.7357551    1.7691856   439061 
  411000     1.179502   -1.7355073   -1.7355073  0.033741632   0.52114198   -1.7355073    1.7692489   439061 
  412000    1.1797958   -1.7352133   -1.7352133   0.03447642      0.52155   -1.7352133    1.7696897   439061 
  413000     1.177815   -1.7341935   -1.7341935  0.032524904      0.52236   -1.7341935    1.7667184   439061 
  414000    1.1786991   -1.7343249   -1.7343249   0.03371965   0.52152111   -1.7343249    1.7680446   439061 
  415000    1.1789261   -1.7349219   -1.7349219  0.033463281   0.51729593   -1.7349219    1.7683852   439061 
  416000    1.1791658   -1.7371541   -1.7371541  0.031590611   0.51791205   -1.7371541    1.7687447   439061 
  417000    1.1778627   -1.7361628   -1.7361628   0.03062716   0.52087811   -1.7361628      1.76679   439061 
  418000    1.1785933    -1.736826    -1.736826  0.031059976    0.5167478    -1.736826     1.767886   439061 
  419000    1.1784972   -1.7366473   -1.7366473  0.031094476   0.52032248   -1.7366473    1.7677418   439061 
  420000    1.1779569   -1.7361196   -1.7361196  0.030811693   0.52083183   -1.7361196    1.7669313   439061 
  421000    1.1765974   -1.7343731   -1.7343731  0.030519036   0.52047738   -1.7343731    1.7648921   439061 
  422000    1.1771042   -1.7361824   -1.7361824  0.029469783   0.51469841   -1.7361824    1.7656522   439061 
  423000    1.1775921   -1.7361567   -1.7361567  0.030227429   0.52211922   -1.7361567    1.7663841   439061 
  424000    1.1767335   -1.7356384   -1.7356384  0.029457838   0.51815017   -1.7356384    1.7650962   439061 
  425000    1.1791205   -1.7388495   -1.7388495  0.029827235   0.51679385   -1.7388495    1.7686767   439061 
  426000    1.1766276   -1.7361871   -1.7361871  0.028750257   0.52081164   -1.7361871    1.7649374   439061 
  427000    1.1779384   -1.7374644   -1.7374644  0.029439165   0.52068684   -1.7374644    1.7669036   439061 
  428000    1.1768643   -1.7371073   -1.7371073  0.028185053   0.51866974   -1.7371073    1.7652924   439061 
  429000    1.1769018   -1.7368296   -1.7368296  0.028519141   0.51983178   -1.7368296    1.7653487   439061 
  430000    1.1770742   -1.7378742   -1.7378742  0.027733074   0.51678883   -1.7378742    1.7656073   439061 
  431000    1.1771171   -1.7386148   -1.7386148  0.027056732   0.51495218   -1.7386148    1.7656716   439061 
  432000    1.1754871    -1.735661    -1.735661  0.027565609   0.51474182    -1.735661    1.7632266   439061 
  433000    1.1779761   -1.7384589   -1.7384589   0.02850118   0.51298137   -1.7384589    1.7669601   439061 
  434000    1.1760325   -1.7372415   -1.7372415  0.026803189   0.51315596   -1.7372415    1.7640447   439061 
  435000    1.1751431   -1.7360155   -1.7360155  0.026695154   0.51517869   -1.7360155    1.7627107   439061 
  436000    1.1741685   -1.7349298   -1.7349298     0.026319   0.51952466   -1.7349298    1.7612488   439061 
  437000    1.1754794   -1.7381972   -1.7381972  0.025017891   0.50903778   -1.7381972    1.7632151   439061 
  438000    1.1747803   -1.7365332   -1.7365332  0.025633235   0.50900822   -1.7365332    1.7621664   439061 
  439000    1.1736441   -1.7364169   -1.7364169  0.024045137    0.5129512   -1.7364169    1.7604621   439061 
  440000    1.1734829    -1.735095    -1.735095  0.025125352   0.51702002    -1.735095    1.7602203   439061 
  441000    1.1728335   -1.7352596   -1.7352596  0.023986603   0.51356373   -1.7352596    1.7592462   439061 
  442000    1.1737794   -1.7363573   -1.7363573  0.024307818   0.51369099   -1.7363573    1.7606651   439061 
  443000    1.1760393   -1.7379374   -1.7379374   0.02611757   0.50759306   -1.7379374     1.764055   439061 
  444000    1.1735712   -1.7353843   -1.7353843  0.024968493   0.51878002   -1.7353843    1.7603528   439061 
  445000    1.1736602   -1.7371027   -1.7371027  0.023383567   0.51142446   -1.7371027    1.7604863   439061 
  446000    1.1732659   -1.7347791   -1.7347791  0.025115698   0.51569315   -1.7347791    1.7598948   439061 
  447000    1.1736143   -1.7370258   -1.7370258  0.023391638   0.51355578   -1.7370258    1.7604174   439061 
  448000    1.1729735   -1.7366963   -1.7366963  0.022759934   0.51069644   -1.7366963    1.7594563   439061 
  449000    1.1731255    -1.738002    -1.738002  0.021682319   0.51371139    -1.738002    1.7596843   439061 
  450000    1.1726294    -1.736703    -1.736703  0.022237135   0.51277877    -1.736703    1.7589401   439061 
  451000    1.1728745   -1.7375095   -1.7375095  0.021798244    0.5107834   -1.7375095    1.7593078   439061 
  452000    1.1711971   -1.7354706   -1.7354706  0.021321022   0.51937869   -1.7354706    1.7567917   439061 
  453000    1.1723836   -1.7370261   -1.7370261  0.021545256   0.50871716   -1.7370261    1.7585714   439061 
  454000    1.1724356    -1.738447    -1.738447  0.020202487   0.50816336    -1.738447    1.7586495   439061 
  455000     1.170787   -1.7374556   -1.7374556  0.018720867   0.51519053   -1.7374556    1.7561765   439061 
  456000    1.1706078   -1.7372172   -1.7372172  0.018690418   0.50604583   -1.7372172    1.7559076   439061 
  457000     1.170875   -1.7367606   -1.7367606   0.01954785   0.51136202   -1.7367606    1.7563085   439061 
  458000     1.170499    -1.736789    -1.736789  0.018955558   0.51455851    -1.736789    1.7557446   439061 
  459000    1.1702345   -1.7363455   -1.7363455  0.019002208   0.51339224   -1.7363455    1.7553478   439061 
  460000    1.1685386   -1.7360518   -1.7360518  0.016752125   0.51132435   -1.7360518    1.7528039   439061 
  461000    1.1695386   -1.7376809   -1.7376809  0.016622985   0.50630077   -1.7376809    1.7543039   439061 
  462000     1.169526   -1.7365768   -1.7365768  0.017708155   0.51368027   -1.7365768     1.754285   439061 
  463000    1.1697249   -1.7383185   -1.7383185  0.016264933   0.50590081   -1.7383185    1.7545834   439061 
  464000      1.16883   -1.7372557   -1.7372557  0.015985345   0.50703072   -1.7372557    1.7532411   439061 
  465000    1.1682859   -1.7370261   -1.7370261  0.015398681   0.51057841   -1.7370261    1.7524248   439061 
  466000    1.1679758   -1.7368706   -1.7368706  0.015089089    0.5125765   -1.7368706    1.7519596   439061 
  467000    1.1693168   -1.7380763   -1.7380763   0.01589494   0.50877619   -1.7380763    1.7539712   439061 
  468000    1.1694414   -1.7381498   -1.7381498  0.016008399   0.50677782   -1.7381498    1.7541582   439061 
  469000    1.1685223   -1.7380805   -1.7380805   0.01469894   0.50389089   -1.7380805    1.7527795   439061 
  470000    1.1679317   -1.7367714   -1.7367714  0.015122168      0.50896   -1.7367714    1.7518936   439061 
  471000    1.1679614   -1.7369427   -1.7369427  0.014995424   0.50433041   -1.7369427    1.7519381   439061 
  472000    1.1671822    -1.736713    -1.736713  0.014056294   0.51091281    -1.736713    1.7507693   439061 
  473000    1.1683747   -1.7390861   -1.7390861  0.013471956   0.50842134   -1.7390861    1.7525581   439061 
  474000    1.1672724   -1.7384762   -1.7384762  0.012428433   0.50529893   -1.7384762    1.7509047   439061 
  475000    1.1670042   -1.7392107   -1.7392107  0.011291642   0.50459538   -1.7392107    1.7505023   439061 
  476000    1.1672134   -1.7393889   -1.7393889  0.011427175   0.50893858   -1.7393889    1.7508161   439061 
  477000    1.1654781   -1.7367752   -1.7367752  0.011437976   0.50439999   -1.7367752    1.7482132   439061 
  478000    1.1670266   -1.7386059   -1.7386059  0.011929984   0.50633935   -1.7386059    1.7505359   439061 
  479000    1.1661255   -1.7378336   -1.7378336  0.011350599   0.50703305   -1.7378336    1.7491842   439061 
  480000     1.166701   -1.7389456   -1.7389456  0.011101934    0.5027605   -1.7389456    1.7500475   439061 
  481000    1.1669946   -1.7376422   -1.7376422  0.012845793   0.50585443   -1.7376422    1.7504879   439061 
  482000     1.165415   -1.7380461   -1.7380461  0.010072429   0.50566172   -1.7380461    1.7481186   439061 
  483000    1.1649368   -1.7369066   -1.7369066  0.010494566   0.50512407   -1.7369066    1.7474012   439061 
  484000    1.1644514   -1.7364557   -1.7364557  0.010217316    0.5082258   -1.7364557     1.746673   439061 
  485000    1.1647514   -1.7379099   -1.7379099 0.0092132524   0.50612633   -1.7379099    1.7471231   439061 
  486000     1.165163   -1.7384631   -1.7384631 0.0092774205   0.50240959   -1.7384631    1.7477405   439061 
  487000    1.1652883   -1.7376938   -1.7376938  0.010234772   0.50397305   -1.7376938    1.7479285   439061 
  488000    1.1654017    -1.738527    -1.738527 0.0095716107   0.50159046    -1.738527    1.7480986   439061 
  489000     1.164388   -1.7369105   -1.7369105 0.0096674904   0.50320802   -1.7369105     1.746578   439061 
  490000    1.1639481   -1.7375636   -1.7375636  0.008354622   0.50118488   -1.7375636    1.7459182   439061 
  491000    1.1636291   -1.7380384   -1.7380384 0.0074012308    0.5025308   -1.7380384    1.7454397   439061 
  492000    1.1639488   -1.7386826   -1.7386826 0.0072366306    0.5028772   -1.7386826    1.7459192   439061 
  493000    1.1631297   -1.7381904   -1.7381904 0.0065001795   0.50310212   -1.7381904    1.7446906   439061 
  494000    1.1640939   -1.7396164   -1.7396164 0.0065204321   0.50353927   -1.7396164    1.7461368   439061 
  495000    1.1634675   -1.7391023   -1.7391023 0.0060949253   0.50361471   -1.7391023    1.7451973   439061 
  496000      1.16256   -1.7381134   -1.7381134 0.0057226997   0.50346855   -1.7381134    1.7438361   439061 
  497000    1.1626732   -1.7382852   -1.7382852 0.0057205821   0.50067575   -1.7382852    1.7440058   439061 
  498000    1.1632573   -1.7388294   -1.7388294 0.0060526176   0.50198927   -1.7388294     1.744882   439061 
  499000    1.1634315   -1.7390027   -1.7390027 0.0061405758   0.50158325   -1.7390027    1.7451432   439061 
  500000    1.1628502   -1.7386822   -1.7386822 0.0055891467   0.50192978   -1.7386822    1.7442713   439061 
  501000    1.1637501   -1.7396227   -1.7396227 0.0059983978   0.50594005   -1.7396227    1.7456211   439061 
  502000    1.1626643   -1.7389396   -1.7389396 0.0050528886   0.50212157   -1.7389396    1.7439925   439061 
  503000     1.163313   -1.7397035   -1.7397035 0.0052620328   0.50095859   -1.7397035    1.7449655   439061 
  504000    1.1617509   -1.7383596   -1.7383596  0.004262725   0.50747267   -1.7383596    1.7426223   439061 
  505000    1.1620598   -1.7383231   -1.7383231 0.0047625437   0.49941289   -1.7383231    1.7430857   439061 
  506000     1.161751   -1.7389082   -1.7389082 0.0037142924   0.49975565   -1.7389082    1.7426225   439061 
  507000    1.1619731   -1.7390961   -1.7390961  0.003859483   0.50044471   -1.7390961    1.7429556   439061 
  508000    1.1612308   -1.7381598   -1.7381598 0.0036823615   0.49989846   -1.7381598    1.7418422   439061 
  509000    1.1599326   -1.7370539   -1.7370539 0.0028410377    0.5003911   -1.7370539     1.739895   439061 
  510000    1.1583425   -1.7360923   -1.7360923 0.0014174777   0.50253508   -1.7360923    1.7375098   439061 
  511000     1.159988   -1.7386791   -1.7386791 0.0012989761   0.49671565   -1.7386791    1.7399781   439061 
  512000    1.1595551   -1.7375517   -1.7375517 0.0017770164   0.50185301   -1.7375517    1.7393287   439061 
  513000    1.1602541   -1.7388032   -1.7388032 0.0015740219    0.5013353   -1.7388032    1.7403772   439061 
  514000    1.1597559   -1.7385635   -1.7385635 0.0010664292   0.49803807   -1.7385635      1.73963   439061 
  515000     1.159581   -1.7384702   -1.7384702 0.00089725756    0.4998593   -1.7384702    1.7393675   439061 
  516000    1.1590757    -1.737194    -1.737194 0.0014155949   0.49700442    -1.737194    1.7386096   439061 
  517000    1.1592317   -1.7366125   -1.7366125 0.0022310643    0.5004479   -1.7366125    1.7388436   439061 
  518000     1.160279   -1.7379414   -1.7379414 0.0024731699   0.49909491   -1.7379414    1.7404146   439061 
  519000    1.1602667    -1.739186    -1.739186 0.0012100641   0.49479415    -1.739186    1.7403961   439061 
  520000     1.159494   -1.7381231   -1.7381231 0.0011139614   0.50222502   -1.7381231    1.7392371   439061 
  521000     1.158905   -1.7391799   -1.7391799 -0.00082638266   0.49282344   -1.7391799    1.7383535   439061 
  522000    1.1572703   -1.7367605   -1.7367605 -0.00085903441   0.49957343   -1.7367605    1.7359015   439061 
  523000    1.1586866   -1.7384289   -1.7384289 -0.0004028731   0.49691419   -1.7384289     1.738026   439061 
  524000    1.1591178   -1.7389453   -1.7389453 -0.0002725869   0.49781107   -1.7389453    1.7386727   439061 
  525000    1.1582115   -1.7384892   -1.7384892 -0.0011758995   0.49868442   -1.7384892    1.7373133   439061 
  526000    1.1594054   -1.7400149   -1.7400149 -0.00091081917   0.49678165   -1.7400149    1.7391041   439061 
  527000    1.1574859    -1.738299    -1.738299  -0.00207413   0.50101243    -1.738299    1.7362249   439061 
  528000    1.1566379   -1.7397794   -1.7397794 -0.0048264862   0.49599345   -1.7397794    1.7349529   439061 
  529000    1.1574349   -1.7405926   -1.7405926 -0.0044442539   0.49437726   -1.7405926    1.7361484   439061 
  530000    1.1575443   -1.7411702   -1.7411702 -0.0048577905   0.49468581   -1.7411702    1.7363124   439061 
  531000    1.1560931   -1.7403252   -1.7403252 -0.0061895331   0.49682627   -1.7403252    1.7341357   439061 
  532000    1.1573329   -1.7421941   -1.7421941 -0.006198755   0.49636135   -1.7421941    1.7359954   439061 
  533000    1.1560825   -1.7386649   -1.7386649 -0.0045450497   0.49579927   -1.7386649    1.7341198   439061 
  534000       1.1558   -1.7385474   -1.7385474 -0.0048512939    0.4960013   -1.7385474    1.7336961   439061 
  535000    1.1559489   -1.7386172   -1.7386172 -0.0046978869   0.49942213   -1.7386172    1.7339194   439061 
  536000    1.1560843    -1.737945    -1.737945 -0.0038224389   0.49853766    -1.737945    1.7341225   439061 
  537000     1.156961   -1.7395805   -1.7395805 -0.0041429889   0.49277112   -1.7395805    1.7354376   439061 
  538000    1.1560356   -1.7386915   -1.7386915 -0.0046419992   0.49552039   -1.7386915    1.7340495   439061 
  539000     1.155895   -1.7391974   -1.7391974 -0.0053589013   0.49584048   -1.7391974    1.7338385   439061 
  540000    1.1556721   -1.7388822   -1.7388822 -0.0053780082   0.49383018   -1.7388822    1.7335042   439061 
  541000    1.1571029    -1.741486    -1.741486 -0.0058355644   0.48815938    -1.741486    1.7356504   439061 
  542000      1.15603   -1.7396167   -1.7396167 -0.0055755903   0.49442582   -1.7396167    1.7340411   439061 
  543000    1.1558651   -1.7395833   -1.7395833 -0.0057895683   0.49374365   -1.7395833    1.7337937   439061 
  544000    1.1545797   -1.7385814   -1.7385814 -0.0067156917   0.49749626   -1.7385814    1.7318657   439061 
  545000    1.1543959    -1.739107    -1.739107 -0.0075170647   0.49608293    -1.739107    1.7315899   439061 
  546000    1.1546832   -1.7394582   -1.7394582 -0.0074373302   0.49463593   -1.7394582    1.7320208   439061 
  547000    1.1534734   -1.7379341   -1.7379341 -0.0077278889   0.49178713   -1.7379341    1.7302062   439061 
  548000     1.154413   -1.7398232   -1.7398232 -0.0082076786   0.49523786   -1.7398232    1.7316155   439061 
  549000    1.1538453   -1.7393279   -1.7393279 -0.0085638526   0.49411722   -1.7393279     1.730764   439061 
  550000    1.1541325   -1.7385111   -1.7385111 -0.0073162991   0.49708386   -1.7385111    1.7311948   439061 
  551000    1.1538709   -1.7391929   -1.7391929 -0.0083904391   0.48989614   -1.7391929    1.7308025   439061 
  552000    1.1532767   -1.7396987   -1.7396987 -0.0097875389   0.49259251   -1.7396987    1.7299112   439061 
  553000    1.1536636   -1.7391912   -1.7391912 -0.0086998253   0.49368494   -1.7391912    1.7304914   439061 
  554000    1.1525206   -1.7371121   -1.7371121 -0.0083351082   0.49633747   -1.7371121     1.728777   439061 
  555000    1.1536113   -1.7408266   -1.7408266 -0.010413635   0.49140406   -1.7408266    1.7304129   439061 
  556000    1.1519037   -1.7388278   -1.7388278 -0.010976132   0.49578701   -1.7388278    1.7278516   439061 
  557000     1.151534   -1.7389369   -1.7389369  -0.01163993   0.49187885   -1.7389369     1.727297   439061 
  558000    1.1534116   -1.7411484   -1.7411484 -0.011034905    0.4884246   -1.7411484    1.7301135   439061 
  559000    1.1525365     -1.74038     -1.74038 -0.011579128   0.49288326     -1.74038    1.7288008   439061 
  560000    1.1514571   -1.7385363   -1.7385363 -0.011354619    0.4949478   -1.7385363    1.7271817   439061 
  561000    1.1516725   -1.7395849   -1.7395849 -0.012080104   0.49289757   -1.7395849    1.7275048   439061 
  562000     1.152896   -1.7404785   -1.7404785 -0.011138447   0.49273492   -1.7404785    1.7293401   439061 
  563000    1.1496779   -1.7367051   -1.7367051 -0.012192115   0.49468778   -1.7367051     1.724513   439061 
  564000    1.1504169   -1.7400641   -1.7400641  -0.01444264   0.48799633   -1.7400641    1.7256215   439061 
  565000     1.149812   -1.7393538   -1.7393538 -0.014639763    0.4891987   -1.7393538    1.7247141   439061 
  566000    1.1514086   -1.7410266   -1.7410266 -0.013917579   0.48728371   -1.7410266     1.727109   439061 
  567000     1.150722   -1.7395461   -1.7395461 -0.013466943   0.49018255   -1.7395461    1.7260791   439061 
  568000    1.1517055   -1.7399483   -1.7399483 -0.012394064   0.48870756   -1.7399483    1.7275543   439061 
  569000    1.1510946    -1.740309    -1.740309 -0.013671094   0.48614651    -1.740309    1.7266379   439061 
  570000    1.1507208    -1.740713    -1.740713 -0.014635756   0.49070887    -1.740713    1.7260773   439061 
  571000    1.1495066   -1.7401348   -1.7401348  -0.01587885   0.49122369   -1.7401348     1.724256   439061 
  572000    1.1507543   -1.7407467   -1.7407467 -0.014619191   0.48854644   -1.7407467    1.7261275   439061 
  573000    1.1506527   -1.7409573   -1.7409573 -0.014982131   0.48611815   -1.7409573    1.7259752   439061 
  574000    1.1511799   -1.7417045   -1.7417045 -0.014938548   0.48157999   -1.7417045    1.7267659   439061 
  575000    1.1507668   -1.7405675   -1.7405675 -0.014421237   0.48402343   -1.7405675    1.7261463   439061 
  576000    1.1501466   -1.7415957   -1.7415957 -0.016379823    0.4866611   -1.7415957    1.7252159   439061 
  577000    1.1483768   -1.7383446   -1.7383446 -0.015783338   0.49192718   -1.7383446    1.7225612   439061 
  578000    1.1485887   -1.7382055   -1.7382055 -0.015326345   0.49258485   -1.7382055    1.7228791   439061 
  579000    1.1506917   -1.7409472   -1.7409472 -0.014913489   0.48838327   -1.7409472    1.7260337   439061 
  580000    1.1510492   -1.7417162   -1.7417162  -0.01514631   0.48449954   -1.7417162    1.7265698   439061 
  581000    1.1490931   -1.7401236   -1.7401236 -0.016487873   0.48758451   -1.7401236    1.7236357   439061 
  582000    1.1496819   -1.7398903   -1.7398903 -0.015371443   0.48845808   -1.7398903    1.7245189   439061 
  583000    1.1494199   -1.7405654   -1.7405654 -0.016439437   0.48992751   -1.7405654     1.724126   439061 
  584000    1.1482981   -1.7386444   -1.7386444 -0.016201247   0.48932155   -1.7386444    1.7224432   439061 
  585000    1.1482243   -1.7396677   -1.7396677 -0.017335184   0.48953218   -1.7396677    1.7223325   439061 
  586000    1.1483125   -1.7398528   -1.7398528 -0.017388001   0.48641208   -1.7398528    1.7224648   439061 
  587000    1.1482734   -1.7400005   -1.7400005 -0.017594382   0.48810657   -1.7400005    1.7224061   439061 
  588000    1.1495942   -1.7416906   -1.7416906 -0.017303217    0.4825615   -1.7416906    1.7243874   439061 
  589000    1.1484392   -1.7401114   -1.7401114 -0.017456517   0.48484934   -1.7401114    1.7226549   439061 
  590000    1.1475437   -1.7381792   -1.7381792 -0.016867536   0.49257376   -1.7381792    1.7213117   439061 
  591000    1.1477194   -1.7395219   -1.7395219  -0.01794675   0.49014046   -1.7395219    1.7215751   439061 
  592000    1.1482346   -1.7402912   -1.7402912 -0.017943234   0.48797509   -1.7402912     1.722348   439061 
  593000    1.1491785   -1.7413888   -1.7413888 -0.017624953   0.48638014   -1.7413888    1.7237639   439061 
  594000    1.1483448   -1.7400506   -1.7400506 -0.017537327   0.48795455   -1.7400506    1.7225133   439061 
  595000    1.1476151   -1.7395495   -1.7395495 -0.018130765   0.49113399   -1.7395495    1.7214188   439061 
  596000    1.1470541   -1.7390288   -1.7390288 -0.018451544   0.48922282   -1.7390288    1.7205773   439061 
  597000    1.1487169   -1.7411607   -1.7411607 -0.018089266   0.48716358   -1.7411607    1.7230714   439061 
  598000    1.1494962   -1.7413649   -1.7413649 -0.017124526    0.4829834   -1.7413649    1.7242404   439061 
  599000    1.1477702   -1.7398549   -1.7398549 -0.018203456    0.4868801   -1.7398549    1.7216514   439061 
  600000    1.1468441   -1.7393219   -1.7393219 -0.019059563   0.48631065   -1.7393219    1.7202623   439061 
  601000    1.1468591   -1.7406728   -1.7406728 -0.020388112   0.48272581   -1.7406728    1.7202847   439061 
  602000    1.1461136   -1.7392614   -1.7392614 -0.020094892   0.48526471   -1.7392614    1.7191665   439061 
  603000    1.1456452   -1.7389801   -1.7389801 -0.020516209   0.48590523   -1.7389801    1.7184639   439061 
  604000    1.1455967   -1.7389682   -1.7389682 -0.020577129   0.48312896   -1.7389682    1.7183911   439061 
  605000    1.1464468   -1.7396392   -1.7396392 -0.019972979   0.48546145   -1.7396392    1.7196663   439061 
  606000    1.1458529   -1.7402558   -1.7402558 -0.021480414   0.48370978   -1.7402558    1.7187754   439061 
  607000    1.1463707   -1.7409516   -1.7409516 -0.021399445   0.48612812   -1.7409516    1.7195522   439061 
  608000    1.1456011   -1.7395539   -1.7395539 -0.021156231   0.48404523   -1.7395539    1.7183977   439061 
  609000     1.146013   -1.7401974   -1.7401974 -0.021181757   0.48342928   -1.7401974    1.7190156   439061 
  610000    1.1460073   -1.7410078   -1.7410078 -0.022000741   0.48185319   -1.7410078     1.719007   439061 
  611000    1.1458322   -1.7418297   -1.7418297 -0.023085261   0.48039732   -1.7418297    1.7187445   439061 
  612000    1.1439024   -1.7383453   -1.7383453 -0.022495523   0.48819189   -1.7383453    1.7158498   439061 
  613000    1.1453751   -1.7406295   -1.7406295 -0.022570716   0.48581979   -1.7406295    1.7180588   439061 
  614000    1.1442245   -1.7399013   -1.7399013 -0.023568456   0.49063017   -1.7399013    1.7163329   439061 
  615000    1.1456851   -1.7423321   -1.7423321 -0.023808391   0.48044027   -1.7423321    1.7185237   439061 
  616000    1.1449556   -1.7401217   -1.7401217 -0.022692209    0.4828775   -1.7401217    1.7174295   439061 
  617000    1.1443547   -1.7401715   -1.7401715 -0.023643377   0.48005519   -1.7401715    1.7165281   439061 
  618000    1.1430497   -1.7385812   -1.7385812 -0.024010472   0.48440543   -1.7385812    1.7145707   439061 
  619000    1.1423221   -1.7396263   -1.7396263 -0.026147032   0.48216421   -1.7396263    1.7134792   439061 
  620000    1.1434125   -1.7399759   -1.7399759 -0.024861002    0.4825454   -1.7399759    1.7151149   439061 
  621000    1.1442454   -1.7404643   -1.7404643 -0.024100088   0.48110945   -1.7404643    1.7163642   439061 
  622000    1.1447457   -1.7403587   -1.7403587 -0.023244037   0.48285553   -1.7403587    1.7171147   439061 
  623000    1.1448316   -1.7412961   -1.7412961 -0.024052636   0.47774342   -1.7412961    1.7172434   439061 
  624000    1.1450041   -1.7411593   -1.7411593 -0.023657069   0.48139312   -1.7411593    1.7175022   439061 
  625000    1.1449146   -1.7409224   -1.7409224 -0.023554331   0.48358404   -1.7409224    1.7173681   439061 
  626000    1.1443251    -1.740836    -1.740836 -0.024352298   0.47743045    -1.740836    1.7164837   439061 
  627000    1.1435591   -1.7386428   -1.7386428 -0.023308137   0.48621592   -1.7386428    1.7153347   439061 
  628000    1.1436882   -1.7395081   -1.7395081 -0.023979658   0.48065116   -1.7395081    1.7155284   439061 
  629000    1.1426889   -1.7380788   -1.7380788 -0.024049376   0.48488145   -1.7380788    1.7140294   439061 
  630000    1.1443562   -1.7411538   -1.7411538 -0.024623439   0.47856224   -1.7411538    1.7165304   439061 
  631000    1.1438947   -1.7407803   -1.7407803 -0.024942101   0.48313178   -1.7407803    1.7158382   439061 
  632000    1.1430328   -1.7391317   -1.7391317 -0.024586421   0.48565369   -1.7391317    1.7145453   439061 
  633000    1.1434181   -1.7396489   -1.7396489 -0.024525619   0.48150781   -1.7396489    1.7151233   439061 
  634000    1.1432892   -1.7401367   -1.7401367 -0.025206767   0.47780907   -1.7401367    1.7149299   439061 
  635000    1.1433703   -1.7396538   -1.7396538  -0.02460224     0.481798   -1.7396538    1.7150515   439061 
  636000    1.1430251   -1.7393252   -1.7393252  -0.02479139   0.48117881   -1.7393252    1.7145338   439061 
  637000    1.1440898   -1.7406832   -1.7406832 -0.024552412   0.48067582   -1.7406832    1.7161307   439061 
  638000    1.1427116   -1.7395296   -1.7395296 -0.025466215   0.48671122   -1.7395296    1.7140634   439061 
  639000    1.1426116   -1.7407764   -1.7407764 -0.026862807    0.4764438   -1.7407764    1.7139136   439061 
  640000    1.1442566   -1.7429514   -1.7429514 -0.026570357   0.47511243   -1.7429514     1.716381   439061 
  641000    1.1412929   -1.7381104   -1.7381104 -0.026174893   0.48312931   -1.7381104    1.7119355   439061 
  642000    1.1428185   -1.7401577   -1.7401577 -0.025933781   0.48173593   -1.7401577    1.7142239   439061 
  643000    1.1423607    -1.739827    -1.739827 -0.026289873    0.4820077    -1.739827    1.7135371   439061 
  644000    1.1421169   -1.7382982   -1.7382982 -0.025126777   0.48375101   -1.7382982    1.7131714   439061 
  645000    1.1431804   -1.7389513   -1.7389513 -0.024184619   0.48476497   -1.7389513    1.7147666   439061 
  646000    1.1419913   -1.7366054   -1.7366054 -0.023622368   0.48609032   -1.7366054    1.7129831   439061 
  647000    1.1432141   -1.7392279   -1.7392279 -0.024410656   0.48128279   -1.7392279    1.7148172   439061 
  648000    1.1419711   -1.7385731   -1.7385731 -0.025620349   0.48053081   -1.7385731    1.7129528   439061 
  649000    1.1425091   -1.7404182   -1.7404182 -0.026658442   0.47914155   -1.7404182    1.7137598   439061 
  650000    1.1415442    -1.738764    -1.738764 -0.026451567   0.48397358    -1.738764    1.7123125   439061 
  651000    1.1413709   -1.7399877   -1.7399877 -0.027935265   0.48059618   -1.7399877    1.7120525   439061 
  652000    1.1416666   -1.7405275   -1.7405275 -0.028031511   0.47548918   -1.7405275     1.712496   439061 
  653000    1.1415872   -1.7406179   -1.7406179 -0.028241005   0.47468213   -1.7406179    1.7123769   439061 
  654000    1.1410081   -1.7392287   -1.7392287 -0.027720491     0.480868   -1.7392287    1.7115082   439061 
  655000    1.1412941   -1.7391418   -1.7391418 -0.027204623   0.47457296   -1.7391418    1.7119372   439061 
  656000    1.1397174   -1.7400968   -1.7400968 -0.030524639   0.47830048   -1.7400968    1.7095722   439061 
  657000    1.1405609   -1.7400407   -1.7400407 -0.029203177   0.47372741   -1.7400407    1.7108375   439061 
  658000    1.1405729   -1.7406167   -1.7406167 -0.029761287   0.47363348   -1.7406167    1.7108554   439061 
  659000    1.1402247   -1.7403307   -1.7403307 -0.029997503   0.47485724   -1.7403307    1.7103332   439061 
  660000    1.1407075    -1.740215    -1.740215 -0.029157663   0.47860462    -1.740215    1.7110573   439061 
  661000    1.1402607    -1.740347    -1.740347 -0.029959893   0.47456695    -1.740347    1.7103871   439061 
  662000    1.1395061   -1.7395272   -1.7395272 -0.030272022   0.47914807   -1.7395272    1.7092552   439061 
  663000    1.1397031   -1.7407608   -1.7407608 -0.031210078    0.4762536   -1.7407608    1.7095507   439061 
  664000     1.138997   -1.7396848   -1.7396848 -0.031193197   0.47868657   -1.7396848    1.7084916   439061 
  665000    1.1388484   -1.7404384   -1.7404384  -0.03216976    0.4754939   -1.7404384    1.7082687   439061 
  666000    1.1389457   -1.7414985   -1.7414985 -0.033083805   0.47814497   -1.7414985    1.7084147   439061 
  667000    1.1377499   -1.7405378   -1.7405378 -0.033916854   0.47426055   -1.7405378     1.706621   439061 
  668000     1.137986   -1.7408189   -1.7408189 -0.033843823   0.47408991   -1.7408189    1.7069751   439061 
  669000    1.1374935   -1.7400257   -1.7400257 -0.033789276   0.47590126   -1.7400257    1.7062364   439061 
  670000    1.1385615   -1.7414035   -1.7414035   -0.0335652   0.47718536   -1.7414035    1.7078383   439061 
  671000    1.1384951    -1.741627    -1.741627 -0.033888297   0.47673469    -1.741627    1.7077387   439061 
  672000    1.1373244   -1.7416032   -1.7416032 -0.035620465   0.47643958   -1.7416032    1.7059827   439061 
  673000    1.1372859   -1.7407283   -1.7407283 -0.034803279   0.47337919   -1.7407283     1.705925   439061 
  674000    1.1374871   -1.7418729   -1.7418729 -0.035646103    0.4755547   -1.7418729    1.7062268   439061 
  675000    1.1363762   -1.7399856   -1.7399856 -0.035425242   0.47348879   -1.7399856    1.7045604   439061 
  676000    1.1378127   -1.7415358   -1.7415358 -0.034820677    0.4743228   -1.7415358    1.7067151   439061 
  677000    1.1364909   -1.7403402   -1.7403402 -0.035607725   0.47044745   -1.7403402    1.7047325   439061 
  678000    1.1380911    -1.741821    -1.741821 -0.034688232   0.47183427    -1.741821    1.7071328   439061 
  679000    1.1371584   -1.7417065   -1.7417065 -0.035972862    0.4739169   -1.7417065    1.7057337   439061 
  680000    1.1368032   -1.7422633   -1.7422633 -0.037062356   0.47219724   -1.7422633    1.7052009   439061 
  681000     1.135178   -1.7397668   -1.7397668 -0.037003756   0.47778519   -1.7397668    1.7027631   439061 
  682000    1.1373397   -1.7426263   -1.7426263 -0.036620633   0.47271778   -1.7426263    1.7060056   439061 
  683000    1.1349517    -1.739024    -1.739024 -0.036600291    0.4753768    -1.739024    1.7024237   439061 
  684000    1.1364721   -1.7413176   -1.7413176 -0.036613404   0.47334546   -1.7413176    1.7047042   439061 
  685000    1.1377748   -1.7419348   -1.7419348 -0.035276409   0.47479627   -1.7419348    1.7066584   439061 
  686000    1.1358223   -1.7403938   -1.7403938 -0.036664186    0.4767347   -1.7403938    1.7037296   439061 
  687000    1.1353941   -1.7400597   -1.7400597 -0.036972492   0.47291483   -1.7400597    1.7030872   439061 
  688000    1.1359033   -1.7409019   -1.7409019 -0.037050813   0.47432682   -1.7409019    1.7038511   439061 
  689000    1.1367491   -1.7403943   -1.7403943 -0.035274569   0.47418686   -1.7403943    1.7051198   439061 
  690000    1.1362599   -1.7400969   -1.7400969 -0.035710875   0.47885623   -1.7400969     1.704386   439061 
  691000    1.1354814   -1.7392799   -1.7392799 -0.036061644   0.47399081   -1.7392799    1.7032183   439061 
  692000    1.1362079   -1.7395221   -1.7395221 -0.035214122   0.47839614   -1.7395221     1.704308   439061 
  693000    1.1357196    -1.740053    -1.740053 -0.036477462   0.47617171    -1.740053    1.7035756   439061 
  694000    1.1365827   -1.7404598   -1.7404598 -0.035589631   0.47448538   -1.7404598    1.7048701   439061 
  695000    1.1343373   -1.7384331   -1.7384331 -0.036931078   0.47931849   -1.7384331     1.701502   439061 
  696000     1.135601   -1.7402173   -1.7402173  -0.03681974   0.47489663   -1.7402173    1.7033976   439061 
  697000    1.1348197   -1.7398782   -1.7398782 -0.037652496   0.47058774   -1.7398782    1.7022257   439061 
  698000    1.1351914   -1.7407352   -1.7407352 -0.037952026   0.47088833   -1.7407352    1.7027832   439061 
  699000    1.1350702   -1.7398456   -1.7398456 -0.037244229   0.47424229   -1.7398456    1.7026014   439061 
  700000    1.1354509   -1.7404084   -1.7404084 -0.037235868   0.47308014   -1.7404084    1.7031725   439061 
  701000    1.1358335   -1.7407456   -1.7407456 -0.036999161   0.47306419   -1.7407456    1.7037464   439061 
  702000    1.1347896   -1.7392603   -1.7392603 -0.037079687   0.46920714   -1.7392603    1.7021806   439061 
  703000    1.1337816   -1.7395948   -1.7395948 -0.038926299   0.47566885   -1.7395948    1.7006685   439061 
  704000     1.134443   -1.7401511   -1.7401511 -0.038490431    0.4758223   -1.7401511    1.7016607   439061 
  705000    1.1343582   -1.7388647   -1.7388647  -0.03733137   0.47163182   -1.7388647    1.7015334   439061 
  706000    1.1349474   -1.7403268   -1.7403268 -0.037909681   0.46883979   -1.7403268    1.7024172   439061 
  707000    1.1352091   -1.7407808   -1.7407808 -0.037970954   0.47167656   -1.7407808    1.7028098   439061 
  708000    1.1348687   -1.7398319   -1.7398319 -0.037532789   0.47184464   -1.7398319    1.7022992   439061 
  709000     1.134876    -1.739774    -1.739774 -0.037463895   0.47211121    -1.739774    1.7023101   439061 
  710000    1.1365262   -1.7427934   -1.7427934 -0.038007927   0.46832439   -1.7427934    1.7047855   439061 
  711000    1.1336233   -1.7405973   -1.7405973 -0.040166215   0.47254752   -1.7405973    1.7004311   439061 
  712000    1.1333656   -1.7412599   -1.7412599 -0.041215312   0.47241611   -1.7412599    1.7000446   439061 
  713000    1.1341005   -1.7411003   -1.7411003 -0.039953379   0.46982842   -1.7411003    1.7011469   439061 
  714000    1.1337867   -1.7406944   -1.7406944  -0.04001825    0.4696122   -1.7406944    1.7006762   439061 
  715000    1.1335395    -1.740708    -1.740708 -0.040402694    0.4737055    -1.740708    1.7003053   439061 
  716000    1.1338169   -1.7414084   -1.7414084 -0.040686871    0.4694334   -1.7414084    1.7007215   439061 
  717000    1.1327767   -1.7409004   -1.7409004 -0.041739156   0.46957396   -1.7409004    1.6991613   439061 
  718000    1.1326395   -1.7412253   -1.7412253 -0.042269992   0.47065041   -1.7412253    1.6989553   439061 
  719000    1.1316192   -1.7404927   -1.7404927   -0.0430678   0.46948663   -1.7404927    1.6974249   439061 
  720000    1.1330782   -1.7411991   -1.7411991 -0.041585656   0.47294864   -1.7411991    1.6996134   439061 
  721000    1.1320312   -1.7399016   -1.7399016 -0.041858713   0.46941452   -1.7399016    1.6980429   439061 
  722000    1.1326973   -1.7413668   -1.7413668 -0.042324752   0.47087567   -1.7413668    1.6990421   439061 
  723000    1.1318701   -1.7401261   -1.7401261 -0.042324838     0.469548   -1.7401261    1.6978013   439061 
  724000    1.1313806   -1.7415087   -1.7415087 -0.044441711   0.46899074   -1.7415087     1.697067   439061 
  725000    1.1302674   -1.7402078   -1.7402078 -0.044810522   0.46530395   -1.7402078    1.6953973   439061 
  726000    1.1311215   -1.7411027   -1.7411027 -0.044424282   0.46630359   -1.7411027    1.6966784   439061 
  727000    1.1323296   -1.7420991   -1.7420991 -0.043608572   0.46989482   -1.7420991    1.6984905   439061 
  728000    1.1314211   -1.7402947   -1.7402947 -0.043166854   0.46806805   -1.7402947    1.6971278   439061 
  729000    1.1313033   -1.7397932   -1.7397932 -0.042842114   0.46846388   -1.7397932    1.6969511   439061 
  730000     1.131954   -1.7411872   -1.7411872 -0.043259973   0.46850789   -1.7411872    1.6979272   439061 
  731000    1.1322111    -1.741684    -1.741684 -0.043371261    0.4665514    -1.741684    1.6983127   439061 
  732000    1.1325818   -1.7416686   -1.7416686 -0.042799851   0.46648621   -1.7416686    1.6988688   439061 
  733000    1.1320705   -1.7429179   -1.7429179 -0.044816045   0.46672251   -1.7429179    1.6981018   439061 
  734000    1.1312781   -1.7424101   -1.7424101 -0.045496777   0.47039621   -1.7424101    1.6969134   439061 
  735000     1.131392   -1.7408451   -1.7408451 -0.043760942   0.47210183   -1.7408451    1.6970842   439061 
  736000    1.1310474   -1.7410273   -1.7410273 -0.044460102   0.46552122   -1.7410273    1.6965672   439061 
  737000    1.1309291   -1.7415638   -1.7415638  -0.04517403   0.46947926   -1.7415638    1.6963898   439061 
  738000    1.1294765   -1.7397358   -1.7397358 -0.045524924   0.46948011   -1.7397358    1.6942108   439061 
  739000    1.1305746   -1.7399411   -1.7399411 -0.044083051   0.46833904   -1.7399411    1.6958581   439061 
  740000    1.1307894   -1.7398214   -1.7398214 -0.043641092   0.46858938   -1.7398214    1.6961803   439061 
  741000    1.1310512   -1.7406708   -1.7406708 -0.044097908    0.4699701   -1.7406708    1.6965729   439061 
  742000    1.1317005   -1.7419022   -1.7419022 -0.044355335   0.46322877   -1.7419022    1.6975469   439061 
  743000    1.1300706   -1.7388836   -1.7388836 -0.043781589   0.47106857   -1.7388836     1.695102   439061 
  744000    1.1313027   -1.7419556   -1.7419556 -0.045005476   0.46245906   -1.7419556    1.6969501   439061 
  745000    1.1301844   -1.7410624   -1.7410624 -0.045789553   0.46540202   -1.7410624    1.6952728   439061 
  746000    1.1305172   -1.7409308   -1.7409308  -0.04515888   0.47198898   -1.7409308     1.695772   439061 
  747000    1.1295315   -1.7402684   -1.7402684  -0.04597499    0.4690787   -1.7402684    1.6942934   439061 
  748000    1.1286759   -1.7390072   -1.7390072 -0.045997147   0.46999751   -1.7390072      1.69301   439061 
  749000    1.1311328   -1.7424431   -1.7424431 -0.045747711   0.46206066   -1.7424431    1.6966954   439061 
  750000    1.1303469   -1.7412748   -1.7412748 -0.045758219   0.46737287   -1.7412748    1.6955166   439061 
  751000    1.1301319   -1.7403544   -1.7403544 -0.045160384   0.46825051   -1.7403544     1.695194   439061 
  752000    1.1296608   -1.7411734   -1.7411734 -0.046686152   0.46528911   -1.7411734    1.6944873   439061 
  753000    1.1280875   -1.7406936   -1.7406936 -0.048566226    0.4672055   -1.7406936    1.6921274   439061 
  754000    1.1276089   -1.7407965   -1.7407965 -0.049387029   0.46522894   -1.7407965    1.6914095   439061 
  755000    1.1290557   -1.7418653   -1.7418653 -0.048285592   0.46137626   -1.7418653    1.6935798   439061 
  756000    1.1271282   -1.7391747   -1.7391747 -0.048486311   0.46562529   -1.7391747    1.6906884   439061 
  757000    1.1275124   -1.7405623   -1.7405623 -0.049297534    0.4635741   -1.7405623    1.6912648   439061 
  758000    1.1286178   -1.7418086   -1.7418086 -0.048885672   0.46105031   -1.7418086    1.6929229   439061 
  759000    1.1273349    -1.740553    -1.740553 -0.049554468   0.46628437    -1.740553    1.6909985   439061 
  760000    1.1274024   -1.7411116   -1.7411116 -0.050011733    0.4657409   -1.7411116    1.6910998   439061 
  761000    1.1267193   -1.7399927   -1.7399927 -0.049917556   0.46570809   -1.7399927    1.6900751   439061 
  762000    1.1261101   -1.7397656   -1.7397656 -0.050604212    0.4680715   -1.7397656    1.6891614   439061 
  763000    1.1268968   -1.7418022   -1.7418022 -0.051460855   0.46690222   -1.7418022    1.6903414   439061 
  764000    1.1272998   -1.7415548   -1.7415548  -0.05060895   0.46289891   -1.7415548    1.6909459   439061 
  765000    1.1276009   -1.7408827   -1.7408827 -0.049485228   0.46744748   -1.7408827    1.6913975   439061 
  766000    1.1277611   -1.7404232   -1.7404232 -0.048785367   0.46497701   -1.7404232    1.6916378   439061 
  767000    1.1278143   -1.7399974   -1.7399974 -0.048279708   0.46747423   -1.7399974    1.6917176   439061 
  768000    1.1286122   -1.7420116   -1.7420116 -0.049097183   0.46755086   -1.7420116    1.6929144   439061 
  769000    1.1281132    -1.742493    -1.742493 -0.050326991   0.46188378    -1.742493     1.692166   439061 
  770000    1.1269248   -1.7406306   -1.7406306 -0.050247168   0.46119061   -1.7406306    1.6903834   439061 
  771000    1.1265013   -1.7408931   -1.7408931 -0.051145007   0.46288978   -1.7408931    1.6897481   439061 
  772000    1.1269287   -1.7418062   -1.7418062 -0.051417039   0.46664474   -1.7418062    1.6903892   439061 
  773000    1.1259206   -1.7411044   -1.7411044 -0.052227391   0.46336965   -1.7411044     1.688877   439061 
  774000    1.1274266   -1.7431793   -1.7431793 -0.052043199   0.46446093   -1.7431793    1.6911361   439061 
  775000    1.1273972   -1.7420963   -1.7420963 -0.051004325   0.46118259   -1.7420963     1.691092   439061 
  776000    1.1260478    -1.741069    -1.741069 -0.052001127   0.46244868    -1.741069    1.6890679   439061 
  777000    1.1265927   -1.7412423   -1.7412423 -0.051357145   0.46438555   -1.7412423    1.6898851   439061 
  778000    1.1264893   -1.7409363   -1.7409363 -0.051206181   0.46411656   -1.7409363    1.6897301   439061 
  779000    1.1252368   -1.7396376   -1.7396376 -0.051786266   0.46346684   -1.7396376    1.6878514   439061 
  780000    1.1260219   -1.7414521   -1.7414521 -0.052423092   0.45990481   -1.7414521     1.689029   439061 
  781000    1.1257367   -1.7412638   -1.7412638 -0.052662552   0.46015891   -1.7412638    1.6886013   439061 
  782000    1.1254989   -1.7407944   -1.7407944 -0.052549792   0.46380991   -1.7407944    1.6882446   439061 
  783000    1.1260521   -1.7427172   -1.7427172  -0.05364288   0.45789758   -1.7427172    1.6890744   439061 
  784000    1.1254389   -1.7417135   -1.7417135 -0.053559108   0.46104926   -1.7417135    1.6881544   439061 
  785000     1.125783   -1.7426623   -1.7426623  -0.05399154    0.4594824   -1.7426623    1.6886707   439061 
  786000    1.1254255   -1.7421969   -1.7421969 -0.054062448   0.46442736   -1.7421969    1.6881344   439061 
  787000     1.124895   -1.7426757   -1.7426757 -0.055337052   0.46171203   -1.7426757    1.6873386   439061 
  788000     1.124221   -1.7416604   -1.7416604 -0.055332712   0.46342693   -1.7416604    1.6863277   439061 
  789000    1.1245479   -1.7421093   -1.7421093 -0.055291277   0.46097801   -1.7421093    1.6868181   439061 
  790000    1.1223672   -1.7394936   -1.7394936 -0.055946655   0.46370884   -1.7394936     1.683547   439061 
  791000    1.1238816   -1.7422597   -1.7422597 -0.056441184   0.46092128   -1.7422597    1.6858185   439061 
  792000    1.1246258   -1.7427204   -1.7427204 -0.055785515   0.46176253   -1.7427204    1.6869349   439061 
  793000    1.1242563   -1.7419682   -1.7419682 -0.055587626   0.46339579   -1.7419682    1.6863806   439061 
  794000    1.1243252    -1.742968    -1.742968 -0.056483952   0.46286283    -1.742968     1.686484   439061 
  795000    1.1232624   -1.7422639   -1.7422639 -0.057374074   0.45857267   -1.7422639    1.6848898   439061 
  796000    1.1239738   -1.7435027   -1.7435027 -0.057545803   0.46256034   -1.7435027    1.6859569   439061 
  797000    1.1244706   -1.7429936   -1.7429936 -0.056291545   0.46148647   -1.7429936     1.686702   439061 
  798000    1.1237758   -1.7414454   -1.7414454 -0.055785519   0.46054943   -1.7414454    1.6856599   439061 
  799000     1.125056   -1.7438272   -1.7438272 -0.056246991   0.46007423   -1.7438272    1.6875802   439061 
  800000    1.1236251   -1.7412334   -1.7412334 -0.055799606   0.46388199   -1.7412334    1.6854337   439061 
  801000     1.123736   -1.7397969   -1.7397969  -0.05419676   0.46263177   -1.7397969    1.6856001   439061 
  802000    1.1237037   -1.7401522   -1.7401522 -0.054600511   0.46379148   -1.7401522    1.6855517   439061 
  803000    1.1230816   -1.7412501   -1.7412501 -0.056631491   0.45956358   -1.7412501    1.6846186   439061 
  804000    1.1236265   -1.7431681   -1.7431681  -0.05773225   0.45598931   -1.7431681    1.6854358   439061 
  805000     1.121173   -1.7412395   -1.7412395 -0.059483737   0.46223125   -1.7412395    1.6817557   439061 
  806000    1.1220757   -1.7429246   -1.7429246 -0.059814842   0.45650179   -1.7429246    1.6831097   439061 
  807000    1.1225073   -1.7419733   -1.7419733 -0.058216177   0.46070695   -1.7419733    1.6837571   439061 
  808000    1.1216114   -1.7415142   -1.7415142 -0.059100859   0.45997818   -1.7415142    1.6824133   439061 
  809000     1.121866   -1.7424628   -1.7424628 -0.059667677   0.45665931   -1.7424628    1.6827952   439061 
  810000    1.1223809   -1.7422562   -1.7422562 -0.058688786   0.45605722   -1.7422562    1.6835675   439061 
  811000    1.1221263   -1.7425194   -1.7425194 -0.059333849   0.45570531   -1.7425194    1.6831856   439061 
  812000    1.1215034   -1.7409952   -1.7409952 -0.058743886   0.46045745   -1.7409952    1.6822513   439061 
  813000    1.1216565   -1.7425235   -1.7425235 -0.060042531    0.4605389   -1.7425235     1.682481   439061 
  814000    1.1217379    -1.743196    -1.743196 -0.060593012    0.4529655    -1.743196     1.682603   439061 
  815000    1.1238237   -1.7453739   -1.7453739 -0.059642216   0.45196734   -1.7453739    1.6857317   439061 
  816000    1.1219927   -1.7416384   -1.7416384 -0.058653194   0.46072799   -1.7416384    1.6829852   439061 
  817000    1.1225341   -1.7438839   -1.7438839 -0.060086654   0.45508932   -1.7438839    1.6837973   439061 
  818000    1.1210761   -1.7421109   -1.7421109 -0.060500573   0.45925614   -1.7421109    1.6816103   439061 
  819000    1.1214866   -1.7412432   -1.7412432 -0.059017153   0.45688226   -1.7412432     1.682226   439061 
  820000    1.1213629   -1.7430273   -1.7430273 -0.060986797   0.46119473   -1.7430273    1.6820405   439061 
  821000    1.1213987   -1.7421301   -1.7421301 -0.060035965   0.46052683   -1.7421301    1.6820942   439061 
  822000     1.121903   -1.7422661   -1.7422661 -0.059415367   0.45769176   -1.7422661    1.6828507   439061 
  823000    1.1205996   -1.7404879   -1.7404879  -0.05959239   0.46190838   -1.7404879    1.6808955   439061 
  824000    1.1218835   -1.7427766   -1.7427766 -0.059955141    0.4569001   -1.7427766    1.6828215   439061 
  825000    1.1215392   -1.7429505   -1.7429505 -0.060645616   0.45395333   -1.7429505    1.6823049   439061 
  826000    1.1212263   -1.7418638   -1.7418638 -0.060028119   0.45545994   -1.7418638    1.6818356   439061 
  827000    1.1208306   -1.7414501   -1.7414501 -0.060208069   0.45709252   -1.7414501    1.6812421   439061 
  828000    1.1211662   -1.7426121   -1.7426121 -0.060866714   0.45779754   -1.7426121    1.6817454   439061 
  829000    1.1211889   -1.7420875   -1.7420875 -0.060307891   0.45236651   -1.7420875    1.6817796   439061 
  830000    1.1213134   -1.7412436   -1.7412436 -0.059277351   0.45758365   -1.7412436    1.6819663   439061 
  831000    1.1207149   -1.7405956   -1.7405956 -0.059527058    0.4616503   -1.7405956    1.6810685   439061 
  832000    1.1224094   -1.7430828   -1.7430828 -0.059472573   0.45601843   -1.7430828    1.6836102   439061 
  833000    1.1203713    -1.741425    -1.741425 -0.060871917   0.45808353    -1.741425    1.6805531   439061 
  834000    1.1186655    -1.738539    -1.738539 -0.060544472   0.46413827    -1.738539    1.6779945   439061 
  835000    1.1218772   -1.7424704   -1.7424704 -0.059658416   0.45359008   -1.7424704    1.6828119   439061 
  836000    1.1218825   -1.7430448   -1.7430448 -0.060224829   0.45227158   -1.7430448      1.68282   439061 
  837000    1.1224066   -1.7417181   -1.7417181  -0.05811201   0.45936373   -1.7417181    1.6836061   439061 
  838000    1.1211434    -1.741373    -1.741373 -0.059661714   0.45913477    -1.741373    1.6817113   439061 
  839000    1.1210809   -1.7419752   -1.7419752 -0.060357636   0.45414931   -1.7419752    1.6816175   439061 
  840000    1.1202013   -1.7416498   -1.7416498 -0.061351733    0.4556832   -1.7416498    1.6802981   439061 
  841000    1.1204372   -1.7428875   -1.7428875 -0.062235566   0.45383437   -1.7428875    1.6806519   439061 
  842000    1.1198888   -1.7424345   -1.7424345 -0.062605092   0.45152274   -1.7424345    1.6798294   439061 
  843000    1.1191544   -1.7408098   -1.7408098  -0.06208205   0.45522449   -1.7408098    1.6787278   439061 
  844000    1.1197957   -1.7407958   -1.7407958 -0.061106089   0.45723861   -1.7407958    1.6796897   439061 
  845000    1.1204146   -1.7432223   -1.7432223 -0.062604168   0.45519401   -1.7432223    1.6806181   439061 
  846000    1.1191617   -1.7424222   -1.7424222 -0.063683532   0.46120015   -1.7424222    1.6787387   439061 
  847000    1.1191704     -1.74226     -1.74226 -0.063508194   0.45386422     -1.74226    1.6787518   439061 
  848000    1.1190241   -1.7430456   -1.7430456 -0.064513323   0.45423639   -1.7430456    1.6785323   439061 
  849000    1.1179614   -1.7421503   -1.7421503 -0.065211995   0.45714502   -1.7421503    1.6769383   439061 
  850000    1.1182432   -1.7430651   -1.7430651 -0.065704034   0.45207118   -1.7430651     1.677361   439061 
  851000    1.1185177   -1.7435093   -1.7435093 -0.065736504   0.45509636   -1.7435093    1.6777728   439061 
  852000    1.1162858   -1.7403448   -1.7403448 -0.065919893   0.46028367   -1.7403448    1.6744249   439061 
  853000    1.1184747   -1.7423454   -1.7423454 -0.064637215   0.45799156   -1.7423454    1.6777082   439061 
  854000    1.1184545   -1.7424946   -1.7424946 -0.064816725   0.45120542   -1.7424946    1.6776779   439061 
  855000    1.1189392   -1.7440683   -1.7440683 -0.065663343   0.45534858   -1.7440683    1.6784049   439061 
  856000    1.1165618   -1.7414603   -1.7414603 -0.066621503   0.45737355   -1.7414603    1.6748388   439061 
  857000    1.1159854   -1.7404845   -1.7404845 -0.066510259   0.44972632   -1.7404845    1.6739743   439061 
  858000    1.1169316     -1.74151     -1.74151 -0.066116503   0.45959005     -1.74151    1.6753935   439061 
  859000    1.1162308   -1.7416508   -1.7416508 -0.067308362   0.45505036   -1.7416508    1.6743424   439061 
  860000    1.1167404   -1.7432478   -1.7432478 -0.068140987   0.45043619   -1.7432478    1.6751068   439061 
  861000    1.1166886   -1.7424255   -1.7424255 -0.067396475   0.45392909   -1.7424255     1.675029   439061 
  862000    1.1161577   -1.7425277   -1.7425277 -0.068295062   0.45359601   -1.7425277    1.6742327   439061 
  863000     1.116622    -1.742767    -1.742767 -0.067837808   0.45252004    -1.742767    1.6749292   439061 
  864000    1.1176891   -1.7436023   -1.7436023 -0.067072549   0.45276229   -1.7436023    1.6765298   439061 
  865000    1.1169587   -1.7422252   -1.7422252 -0.066790985   0.45138132   -1.7422252    1.6754342   439061 
  866000    1.1179901   -1.7429899   -1.7429899 -0.066008526   0.45585645   -1.7429899    1.6769814   439061 
  867000    1.1159135   -1.7407799   -1.7407799 -0.066913448   0.45892333   -1.7407799    1.6738664   439061 
  868000    1.1160037   -1.7416159   -1.7416159 -0.067614097   0.45499962   -1.7416159    1.6740018   439061 
  869000    1.1166537   -1.7426508   -1.7426508 -0.067674115   0.45377378   -1.7426508    1.6749767   439061 
  870000    1.1169185   -1.7439788   -1.7439788  -0.06860482   0.45221315   -1.7439788     1.675374   439061 
  871000    1.1171345   -1.7439686   -1.7439686  -0.06827064   0.45048305   -1.7439686    1.6756979   439061 
  872000    1.1162551   -1.7437239   -1.7437239 -0.069345112   0.45127746   -1.7437239    1.6743788   439061 
  873000     1.116338   -1.7433023   -1.7433023 -0.068799119    0.4571645   -1.7433023    1.6745032   439061 
  874000    1.1161636    -1.742918    -1.742918 -0.068676351   0.45412902    -1.742918    1.6742416   439061 
  875000    1.1156051   -1.7432154   -1.7432154 -0.069811601   0.45118473   -1.7432154    1.6734038   439061 
  876000     1.115006   -1.7419769   -1.7419769 -0.069471765   0.45583913   -1.7419769    1.6725051   439061 
  877000    1.1149243   -1.7414337   -1.7414337 -0.069051053    0.4542047   -1.7414337    1.6723827   439061 
  878000    1.1164849   -1.7437163   -1.7437163 -0.068992747   0.45445405   -1.7437163    1.6747235   439061 
  879000    1.1149106   -1.7418493   -1.7418493 -0.069487287   0.45658228   -1.7418493     1.672362   439061 
  880000    1.1168364   -1.7438194   -1.7438194 -0.068568603   0.45594021   -1.7438194    1.6752508   439061 
  881000    1.1157504   -1.7426932   -1.7426932 -0.069071403   0.45333045   -1.7426932    1.6736218   439061 
  882000    1.1166434   -1.7432174   -1.7432174 -0.068256143   0.45122174   -1.7432174    1.6749613   439061 
  883000    1.1168043   -1.7432228   -1.7432228 -0.068020141   0.45431332   -1.7432228    1.6752027   439061 
  884000    1.1155983    -1.742703    -1.742703 -0.069309288   0.45066965    -1.742703    1.6733937   439061 
  885000    1.1155432   -1.7425748   -1.7425748 -0.069263768   0.45208327   -1.7425748     1.673311   439061 
  886000    1.1150653   -1.7412436   -1.7412436 -0.068649504   0.45630719   -1.7412436    1.6725941   439061 
  887000    1.1158696    -1.742057    -1.742057 -0.068256475   0.45178514    -1.742057    1.6738005   439061 
  888000    1.1165964   -1.7420704   -1.7420704 -0.067179634   0.45384189   -1.7420704    1.6748907   439061 
  889000    1.1157663   -1.7417254   -1.7417254 -0.068079705   0.45488408   -1.7417254    1.6736457   439061 
  890000    1.1162257   -1.7413187   -1.7413187 -0.066983938   0.45496928   -1.7413187    1.6743348   439061 
  891000    1.1172172   -1.7423528   -1.7423528 -0.066530734   0.44782482   -1.7423528     1.675822   439061 
  892000    1.1169465    -1.741171    -1.741171 -0.065755046   0.45630483    -1.741171    1.6754159   439061 
  893000    1.1153671   -1.7402974   -1.7402974 -0.067250503   0.45724724   -1.7402974    1.6730469   439061 
  894000    1.1170003   -1.7423396   -1.7423396 -0.066843038    0.4495403   -1.7423396    1.6754966   439061 
  895000    1.1157579   -1.7409029   -1.7409029 -0.067269906    0.4511292   -1.7409029     1.673633   439061 
  896000    1.1154555    -1.740522    -1.740522 -0.067342558   0.45464948    -1.740522    1.6731794   439061 
  897000     1.115268   -1.7402721   -1.7402721 -0.067373901   0.45338324   -1.7402721    1.6728982   439061 
  898000    1.1161384   -1.7419306   -1.7419306 -0.067726863   0.45033021   -1.7419306    1.6742038   439061 
  899000    1.1162285   -1.7420121   -1.7420121 -0.067673245   0.45254832   -1.7420121    1.6743389   439061 
  900000    1.1162885   -1.7420559   -1.7420559 -0.067626859   0.44983275   -1.7420559     1.674429   439061 
  901000    1.1149285   -1.7402134   -1.7402134 -0.067824506   0.44682017   -1.7402134    1.6723889   439061 
  902000    1.1159607   -1.7407893   -1.7407893  -0.06685214   0.45139354   -1.7407893    1.6739372   439061 
  903000    1.1158825    -1.742634    -1.742634  -0.06881409   0.45185731    -1.742634    1.6738199   439061 
  904000    1.1142604   -1.7418358   -1.7418358 -0.070448948   0.45030849   -1.7418358    1.6713868   439061 
  905000    1.1140177   -1.7422841   -1.7422841 -0.071261394   0.45267037   -1.7422841    1.6710228   439061 
  906000     1.115331   -1.7443132   -1.7443132 -0.071320558   0.45185507   -1.7443132    1.6729927   439061 
  907000    1.1136776   -1.7419696   -1.7419696 -0.071457069   0.45163698   -1.7419696    1.6705126   439061 
  908000    1.1149409   -1.7445844   -1.7445844 -0.072176944   0.44708584   -1.7445844    1.6724075   439061 
  909000    1.1134955   -1.7429465   -1.7429465 -0.072707092   0.44798312   -1.7429465    1.6702394   439061 
  910000    1.1135644   -1.7419096   -1.7419096 -0.071566812   0.45005706   -1.7419096    1.6703427   439061 
  911000    1.1131342   -1.7424374   -1.7424374 -0.072739964   0.44993605   -1.7424374    1.6696974   439061 
  912000    1.1134733   -1.7416856   -1.7416856 -0.071479425    0.4497134   -1.7416856    1.6702061   439061 
  913000     1.113006   -1.7412551   -1.7412551 -0.071749877   0.44759843   -1.7412551    1.6695053   439061 
  914000    1.1143496   -1.7425351   -1.7425351 -0.071014457    0.4497455   -1.7425351    1.6715206   439061 
  915000    1.1141092   -1.7429349   -1.7429349  -0.07177489   0.45218948   -1.7429349      1.67116   439061 
  916000    1.1127507   -1.7410374   -1.7410374 -0.071915123   0.44877261   -1.7410374    1.6691223   439061 
  917000      1.11452   -1.7429293   -1.7429293 -0.071153196   0.45209345   -1.7429293    1.6717761   439061 
  918000    1.1137793   -1.7418999   -1.7418999  -0.07123481   0.45033237   -1.7418999    1.6706651   439061 
  919000    1.1133883   -1.7422586   -1.7422586 -0.072179898   0.44540496   -1.7422586    1.6700787   439061 
  920000    1.1137271   -1.7419506   -1.7419506 -0.071363704   0.44696839   -1.7419506    1.6705869   439061 
  921000     1.114378    -1.742747    -1.742747 -0.071183758   0.44769133    -1.742747    1.6715632   439061 
  922000    1.1136313   -1.7421557   -1.7421557 -0.071712502   0.45193778   -1.7421557    1.6704432   439061 
  923000    1.1126358   -1.7414845   -1.7414845 -0.072534587   0.45008792   -1.7414845    1.6689499   439061 
  924000    1.1135398   -1.7433783   -1.7433783 -0.073072327   0.44569431   -1.7433783     1.670306   439061 
  925000    1.1137823   -1.7437037   -1.7437037 -0.073034073    0.4489847   -1.7437037    1.6706697   439061 
  926000    1.1130868   -1.7422015   -1.7422015 -0.072575186   0.44362004   -1.7422015    1.6696263   439061 
  927000    1.1129437    -1.743123    -1.743123 -0.073711255   0.44688359    -1.743123    1.6694118   439061 
  928000    1.1136222   -1.7434622   -1.7434622 -0.073032769   0.44976805   -1.7434622    1.6704295   439061 
  929000    1.1124345   -1.7408926   -1.7408926 -0.072244694    0.4443776   -1.7408926    1.6686479   439061 
  930000    1.1139403   -1.7426608   -1.7426608  -0.07175419    0.4494741   -1.7426608    1.6709066   439061 
  931000    1.1126966   -1.7417429   -1.7417429 -0.072701887   0.44739056   -1.7417429     1.669041   439061 
  932000    1.1139325    -1.741872    -1.741872 -0.070977085   0.44896233    -1.741872    1.6708949   439061 
  933000    1.1133825   -1.7418164   -1.7418164 -0.071746396   0.45343484   -1.7418164      1.67007   439061 
  934000    1.1122646   -1.7416557   -1.7416557 -0.073262599   0.44886813   -1.7416557    1.6683931   439061 
  935000    1.1118112   -1.7413987   -1.7413987 -0.073685709   0.44987921   -1.7413987     1.667713   439061 
  936000     1.112609   -1.7428836   -1.7428836 -0.073973841   0.44866933   -1.7428836    1.6689098   439061 
  937000    1.1113337   -1.7408496   -1.7408496  -0.07385295   0.45003889   -1.7408496    1.6669967   439061 
  938000    1.1107191   -1.7427003   -1.7427003 -0.076625365   0.44481122   -1.7427003    1.6660749   439061 
  939000    1.1096377   -1.7401873   -1.7401873 -0.075734531   0.44922846   -1.7401873    1.6644528   439061 
  940000    1.1116565    -1.744234    -1.744234 -0.076753121   0.44304851    -1.744234    1.6674809   439061 
  941000    1.1112849   -1.7437089   -1.7437089 -0.076785352   0.44646422   -1.7437089    1.6669235   439061 
  942000    1.1113221   -1.7428314   -1.7428314 -0.075852032   0.44864249   -1.7428314    1.6669794   439061 
  943000    1.1118813   -1.7430254   -1.7430254 -0.075207198   0.44285789   -1.7430254    1.6678182   439061 
  944000    1.1115864   -1.7431666   -1.7431666 -0.075790726   0.44610171   -1.7431666    1.6673759   439061 
  945000    1.1098586   -1.7413867   -1.7413867 -0.076602687   0.44999736   -1.7413867    1.6647841   439061 
  946000    1.1120868   -1.7440021   -1.7440021 -0.075875767    0.4430132   -1.7440021    1.6681264   439061 
  947000    1.1103312   -1.7416976   -1.7416976 -0.076204595   0.44920729   -1.7416976     1.665493   439061 
  948000    1.1109886   -1.7438852   -1.7438852 -0.077406136   0.44588108   -1.7438852    1.6664791   439061 
  949000    1.1101094    -1.741551    -1.741551 -0.076390714   0.44699443    -1.741551    1.6651602   439061 
  950000     1.110387   -1.7429035   -1.7429035  -0.07732681   0.44598898   -1.7429035    1.6655766   439061 
  951000    1.1102018   -1.7435912   -1.7435912   -0.0782923   0.44376005   -1.7435912    1.6652989   439061 
  952000    1.1097507   -1.7435311   -1.7435311 -0.078908776   0.44594464   -1.7435311    1.6646223   439061 
  953000    1.1095606   -1.7433899   -1.7433899 -0.079052754   0.45059891   -1.7433899    1.6643371   439061 
  954000    1.1093899   -1.7409943   -1.7409943 -0.076913286   0.45020098   -1.7409943     1.664081   439061 
  955000     1.111061   -1.7426001   -1.7426001 -0.076012438   0.44699606   -1.7426001    1.6665877   439061 
  956000    1.1109606   -1.7423882   -1.7423882 -0.075951086    0.4463051   -1.7423882    1.6664371   439061 
  957000    1.1099804   -1.7420732   -1.7420732 -0.077106482   0.44139578   -1.7420732    1.6649667   439061 
  958000    1.1096577   -1.7409092   -1.7409092 -0.076426412   0.44733155   -1.7409092    1.6644828   439061 
  959000    1.1093152   -1.7406093   -1.7406093 -0.076640244   0.44900351   -1.7406093    1.6639691   439061 
  960000    1.1105509   -1.7427128   -1.7427128 -0.076890252   0.44788113   -1.7427128    1.6658225   439061 
  961000    1.1105725   -1.7425661   -1.7425661 -0.076711103   0.44555625   -1.7425661     1.665855   439061 
  962000    1.1097991   -1.7422017   -1.7422017 -0.077506885   0.44690726   -1.7422017    1.6646949   439061 
  963000    1.1105616    -1.742782    -1.742782  -0.07694335   0.44168089    -1.742782    1.6658387   439061 
  964000    1.1086163   -1.7417694   -1.7417694  -0.07884873   0.44695535   -1.7417694    1.6629207   439061 
  965000    1.1078882   -1.7411076   -1.7411076 -0.079279168   0.44358337   -1.7411076    1.6618285   439061 
  966000    1.1100318   -1.7446073   -1.7446073 -0.079563452   0.44165553   -1.7446073    1.6650439   439061 
  967000    1.1094163   -1.7438386   -1.7438386 -0.079717975   0.44814245   -1.7438386    1.6641206   439061 
  968000    1.1075718   -1.7418784   -1.7418784 -0.080524509   0.44582703   -1.7418784    1.6613538   439061 
  969000    1.1083292   -1.7422395   -1.7422395 -0.079749476   0.44613895   -1.7422395      1.66249   439061 
  970000    1.1097527   -1.7451382   -1.7451382 -0.080512936    0.4385459   -1.7451382    1.6646252   439061 
  971000    1.1077628    -1.742821    -1.742821 -0.081180486   0.44103336    -1.742821    1.6616405   439061 
  972000    1.1074799   -1.7426835   -1.7426835 -0.081467481   0.44295197   -1.7426835     1.661216   439061 
  973000    1.1093042   -1.7446185   -1.7446185 -0.080666025   0.44348197   -1.7446185    1.6639525   439061 
  974000    1.1090708   -1.7435606   -1.7435606 -0.079958185    0.4442342   -1.7435606    1.6636024   439061 
  975000    1.1090238   -1.7430229   -1.7430229 -0.079491002   0.44161611   -1.7430229    1.6635319   439061 
  976000     1.108901   -1.7442782   -1.7442782 -0.080930497    0.4447007   -1.7442782    1.6633477   439061 
  977000    1.1075409     -1.74349     -1.74349 -0.082182477   0.43961865     -1.74349    1.6613075   439061 
  978000    1.1074341   -1.7434587   -1.7434587 -0.082311324   0.44101176   -1.7434587    1.6611473   439061 
  979000     1.107946   -1.7437337   -1.7437337 -0.081818373   0.44231804   -1.7437337    1.6619153   439061 
  980000    1.1078853   -1.7425864   -1.7425864 -0.080762197   0.44697062   -1.7425864    1.6618242   439061 
  981000    1.1077579   -1.7437223   -1.7437223 -0.082089335   0.43977531   -1.7437223     1.661633   439061 
  982000    1.1075527   -1.7423699   -1.7423699  -0.08104465   0.44798884   -1.7423699    1.6613253   439061 
  983000    1.1060482   -1.7418314   -1.7418314 -0.082762862   0.44087056   -1.7418314    1.6590686   439061 
  984000    1.1074277   -1.7423242   -1.7423242 -0.081186331   0.44303519   -1.7423242    1.6611378   439061 
  985000    1.1074727   -1.7431052   -1.7431052  -0.08189996   0.44136484   -1.7431052    1.6612052   439061 
  986000    1.1075815   -1.7425401   -1.7425401 -0.081171693   0.44255785   -1.7425401    1.6613684   439061 
  987000    1.1061635   -1.7421179   -1.7421179 -0.082876329   0.44282532   -1.7421179    1.6592415   439061 
  988000    1.1049253   -1.7401888   -1.7401888  -0.08280462   0.44522081   -1.7401888    1.6573842   439061 
  989000    1.1062518   -1.7417193   -1.7417193 -0.082345363   0.44007879   -1.7417193    1.6593739   439061 
  990000    1.1069221   -1.7413811   -1.7413811 -0.081001692   0.44453571   -1.7413811    1.6603794   439061 
  991000    1.1073894    -1.744833    -1.744833  -0.08375265   0.43808656    -1.744833    1.6610803   439061 
  992000    1.1066712    -1.743037    -1.743037 -0.083034047   0.44113173    -1.743037     1.660003   439061 
  993000    1.1058407   -1.7420436   -1.7420436 -0.083286341   0.44120339   -1.7420436    1.6587572   439061 
  994000     1.106766   -1.7433564   -1.7433564 -0.083211192   0.43988991   -1.7433564    1.6601452   439061 
  995000    1.1060332   -1.7434941   -1.7434941 -0.084448033   0.44328411   -1.7434941     1.659046   439061 
  996000     1.105971   -1.7440135   -1.7440135  -0.08506078   0.43970247   -1.7440135    1.6589527   439061 
  997000      1.10619    -1.743928    -1.743928  -0.08464683   0.43798633    -1.743928    1.6592812   439061 
  998000    1.1053842   -1.7429993   -1.7429993 -0.084926732   0.44055496   -1.7429993    1.6580725   439061 
  999000    1.1051312   -1.7428728   -1.7428728 -0.085179773   0.44177315   -1.7428728     1.657693   439061 
 1000000    1.1059298   -1.7441072   -1.7441072 -0.085216273   0.43952799   -1.7441072    1.6588909   439061 
 1001000    1.1043464   -1.7433728   -1.7433728 -0.086856926   0.44134727   -1.7433728    1.6565159   439061 
 1002000    1.1056953   -1.7443776   -1.7443776 -0.085838465   0.44470222   -1.7443776    1.6585391   439061 
 1003000    1.1044519   -1.7431506   -1.7431506 -0.086476463   0.43908953   -1.7431506    1.6566741   439061 
 1004000    1.1053512   -1.7435501   -1.7435501 -0.085527129   0.44170747   -1.7435501     1.658023   439061 
 1005000    1.1057352   -1.7438665   -1.7438665 -0.085267497   0.44277939   -1.7438665     1.658599   439061 
 1006000    1.1055487   -1.7447159   -1.7447159 -0.086396658   0.43967112   -1.7447159    1.6583193   439061 
 1007000    1.1042829    -1.743167    -1.743167 -0.086746389   0.43982791    -1.743167    1.6564206   439061 
 1008000    1.1046789   -1.7432276   -1.7432276 -0.086213031   0.44099584   -1.7432276    1.6570146   439061 
 1009000     1.104814   -1.7440515   -1.7440515 -0.086834259   0.44118513   -1.7440515    1.6572173   439061 
 1010000    1.1048136   -1.7447383   -1.7447383 -0.087521564   0.43855655   -1.7447383    1.6572167   439061 
 1011000    1.1032108   -1.7428579   -1.7428579 -0.088045469   0.44139093   -1.7428579    1.6548124   439061 
 1012000    1.1058156   -1.7450753   -1.7450753 -0.086355651   0.43985308   -1.7450753    1.6587196   439061 
 1013000    1.1025825   -1.7411366   -1.7411366 -0.087266594   0.44225283   -1.7411366      1.65387   439061 
 1014000    1.1043047   -1.7426909   -1.7426909 -0.086237676   0.44119728   -1.7426909    1.6564533   439061 
 1015000     1.105142   -1.7452085   -1.7452085  -0.08749925   0.43651702   -1.7452085    1.6577092   439061 
 1016000    1.1053757   -1.7444121   -1.7444121 -0.086352345   0.44104641   -1.7444121    1.6580598   439061 
 1017000    1.1052559   -1.7440433   -1.7440433 -0.086163143   0.43958247   -1.7440433    1.6578801   439061 
 1018000    1.1053503   -1.7436423   -1.7436423 -0.085620679   0.43696854   -1.7436423    1.6580216   439061 
 1019000    1.1048688   -1.7431206   -1.7431206 -0.085821088   0.44029959   -1.7431206    1.6572995   439061 
 1020000    1.1039527   -1.7427815   -1.7427815 -0.086856143   0.44202843   -1.7427815    1.6559253   439061 
 1021000    1.1043633   -1.7435758   -1.7435758 -0.087034723   0.43698254   -1.7435758    1.6565411   439061 
 1022000    1.1050995   -1.7448266   -1.7448266 -0.087181175   0.44064293   -1.7448266    1.6576454   439061 
 1023000    1.1053053   -1.7448342   -1.7448342 -0.086880024    0.4363054   -1.7448342    1.6579542   439061 
 1024000    1.1045413   -1.7437944   -1.7437944  -0.08698623   0.43848154   -1.7437944    1.6568082   439061 
 1025000    1.1054944   -1.7439889   -1.7439889 -0.085751122   0.44080166   -1.7439889    1.6582378   439061 
 1026000    1.1047155   -1.7438387   -1.7438387 -0.086769287    0.4422981   -1.7438387    1.6570694   439061 
 1027000      1.10509   -1.7438266   -1.7438266 -0.086195387   0.43944914   -1.7438266    1.6576313   439061 
 1028000    1.1043094   -1.7425266   -1.7425266 -0.086066256   0.44215971   -1.7425266    1.6564603   439061 
 1029000    1.1044171   -1.7431596   -1.7431596 -0.086537725   0.43805077   -1.7431596    1.6566219   439061 
 1030000    1.1037228   -1.7435464   -1.7435464 -0.087966004   0.43826885   -1.7435464    1.6555804   439061 
 1031000    1.1039921   -1.7439876   -1.7439876 -0.088003267   0.44293907   -1.7439876    1.6559844   439061 
 1032000    1.1033438   -1.7434748   -1.7434748 -0.088462778   0.44213952   -1.7434748     1.655012   439061 
 1033000    1.1017829   -1.7427956   -1.7427956 -0.090125019   0.44223281   -1.7427956    1.6526706   439061 
 1034000    1.1017799   -1.7425344   -1.7425344 -0.089868313   0.44096507   -1.7425344    1.6526661   439061 
 1035000    1.1016374   -1.7414995   -1.7414995  -0.08904719   0.44111147   -1.7414995    1.6524523   439061 
 1036000    1.1038922   -1.7443499   -1.7443499 -0.088515341   0.43837826   -1.7443499    1.6558346   439061 
 1037000    1.1013931   -1.7418859   -1.7418859 -0.089800109    0.4401863   -1.7418859    1.6520858   439061 
 1038000    1.1012741   -1.7419428   -1.7419428 -0.090035422   0.43799793   -1.7419428    1.6519074   439061 
 1039000    1.1026799   -1.7442795   -1.7442795 -0.090263484   0.44112546   -1.7442795     1.654016   439061 
 1040000    1.1015987   -1.7423305   -1.7423305 -0.089936239    0.4395354   -1.7423305    1.6523943   439061 
 1041000    1.1026463   -1.7427809   -1.7427809 -0.088815209   0.43651712   -1.7427809    1.6539657   439061 
 1042000    1.1025808   -1.7424663   -1.7424663 -0.088598774   0.43913587   -1.7424663    1.6538675   439061 
 1043000    1.1030677   -1.7435269   -1.7435269 -0.088929048   0.43857026   -1.7435269    1.6545979   439061 
 1044000    1.1044401   -1.7453051   -1.7453051 -0.088648666   0.43397803   -1.7453051    1.6566564   439061 
 1045000    1.1024993   -1.7428163   -1.7428163 -0.089071017   0.43957984   -1.7428163    1.6537452   439061 
 1046000    1.1016699   -1.7415103   -1.7415103  -0.08900925   0.44083567   -1.7415103     1.652501   439061 
 1047000    1.1036545   -1.7442357   -1.7442357 -0.088757829   0.43731571   -1.7442357    1.6554779   439061 
 1048000    1.1029195   -1.7428834   -1.7428834  -0.08850793   0.43951196   -1.7428834    1.6543755   439061 
 1049000    1.1032612   -1.7442032   -1.7442032  -0.08931526   0.43598244   -1.7442032     1.654888   439061 
 1050000     1.102244   -1.7438959   -1.7438959 -0.090533578   0.43610301   -1.7438959    1.6533623   439061 
 1051000    1.1028475   -1.7445528   -1.7445528 -0.090285293   0.43514785   -1.7445528    1.6542676   439061 
 1052000    1.1016465   -1.7434531   -1.7434531 -0.090987105   0.43729436   -1.7434531     1.652466   439061 
 1053000    1.1018571   -1.7439645   -1.7439645 -0.091182644   0.43507168   -1.7439645    1.6527819   439061 
 1054000    1.1016356   -1.7445576   -1.7445576  -0.09210802   0.43544995   -1.7445576    1.6524496   439061 
 1055000    1.1013632   -1.7431122   -1.7431122 -0.091071184   0.43810714   -1.7431122    1.6520411   439061 
 1056000    1.1010877   -1.7432057   -1.7432057 -0.091577917   0.43795081   -1.7432057    1.6516278   439061 
 1057000    1.1019315   -1.7437226   -1.7437226 -0.090829072   0.43595487   -1.7437226    1.6528935   439061 
 1058000    1.1019882   -1.7442211   -1.7442211 -0.091242663   0.43629374   -1.7442211    1.6529785   439061 
 1059000    1.1016125   -1.7439431   -1.7439431 -0.091528057   0.43598319   -1.7439431     1.652415   439061 
 1060000    1.1012951   -1.7431993   -1.7431993 -0.091260403   0.43966347   -1.7431993    1.6519389   439061 
 1061000    1.1005666   -1.7433033   -1.7433033 -0.092457218   0.44252795   -1.7433033    1.6508461   439061 
 1062000    1.1016739   -1.7451186   -1.7451186 -0.092611564   0.43427403   -1.7451186    1.6525071   439061 
 1063000    1.1007725   -1.7450462   -1.7450462 -0.093891184   0.43558522   -1.7450462     1.651155   439061 
 1064000    1.1003915    -1.744586    -1.744586 -0.094002495   0.43714782    -1.744586    1.6505835   439061 
 1065000     1.099769   -1.7436867   -1.7436867 -0.094036941   0.43468987   -1.7436867    1.6496498   439061 
 1066000    1.1001295   -1.7430421   -1.7430421 -0.092851587   0.43887798   -1.7430421    1.6501905   439061 
 1067000    1.1004152   -1.7432557   -1.7432557 -0.092636637   0.43796041   -1.7432557     1.650619   439061 
 1068000    1.1002331   -1.7443474   -1.7443474  -0.09400142   0.43400144   -1.7443474     1.650346   439061 
 1069000    1.1001311   -1.7436427   -1.7436427 -0.093449719   0.43699327   -1.7436427    1.6501929   439061 
 1070000    1.0997855   -1.7434909   -1.7434909 -0.093816455   0.43625892   -1.7434909    1.6496745   439061 
 1071000    1.0989681   -1.7413004   -1.7413004 -0.092851979   0.44427348   -1.7413004    1.6484484   439061 
 1072000    1.1001584   -1.7427898   -1.7427898 -0.092556025   0.43323572   -1.7427898    1.6502338   439061 
 1073000    1.1000348   -1.7437805   -1.7437805 -0.093732046   0.43191866   -1.7437805    1.6500484   439061 
 1074000    1.1002064   -1.7427512   -1.7427512 -0.092445306   0.43675379   -1.7427512    1.6503059   439061 
 1075000    1.1008733     -1.74394     -1.74394 -0.092633788   0.43791933     -1.74394    1.6513062   439061 
 1076000    1.1005989   -1.7437188   -1.7437188 -0.092824188   0.43164167   -1.7437188    1.6508946   439061 
 1077000    1.1000181   -1.7433946   -1.7433946 -0.093371224   0.43478655   -1.7433946    1.6500234   439061 
 1078000    1.1005344   -1.7438335   -1.7438335 -0.093035587    0.4363901   -1.7438335    1.6507979   439061 
 1079000    1.0997102   -1.7430248   -1.7430248 -0.093463309   0.43772516   -1.7430248    1.6495615   439061 
 1080000     1.099954    -1.742546    -1.742546 -0.092618657   0.43829492    -1.742546    1.6499273   439061 
 1081000    1.1016061   -1.7454207   -1.7454207  -0.09301534   0.43158603   -1.7454207    1.6524054   439061 
 1082000    1.1017185   -1.7447905   -1.7447905   -0.0922165   0.43516318   -1.7447905     1.652574   439061 
 1083000    1.0996609   -1.7428579   -1.7428579 -0.093370292   0.43942948   -1.7428579    1.6494876   439061 
 1084000    1.0991222   -1.7448455   -1.7448455 -0.096165931   0.43385977   -1.7448455    1.6486795   439061 
 1085000     1.098201    -1.743228    -1.743228 -0.095930302   0.43543397    -1.743228    1.6472977   439061 
 1086000    1.0971336   -1.7438146   -1.7438146 -0.098117937   0.43363925   -1.7438146    1.6456967   439061 
 1087000    1.0985803   -1.7454748   -1.7454748 -0.097608107   0.43077121   -1.7454748    1.6478667   439061 
 1088000    1.0986523   -1.7447009   -1.7447009 -0.096726141   0.42914167   -1.7447009    1.6479748   439061 
 1089000    1.0977855   -1.7432154   -1.7432154 -0.096540902   0.43637022   -1.7432154    1.6466745   439061 
 1090000    1.0973383   -1.7436728   -1.7436728  -0.09766909   0.43310557   -1.7436728    1.6460037   439061 
 1091000     1.097962   -1.7440773   -1.7440773 -0.097138027    0.4324155   -1.7440773    1.6469393   439061 
 1092000    1.0975211   -1.7440232   -1.7440232 -0.097745318    0.4337949   -1.7440232    1.6462779   439061 
 1093000     1.097464   -1.7437487   -1.7437487 -0.097556448   0.43388953   -1.7437487    1.6461923   439061 
 1094000    1.0985083     -1.74458     -1.74458 -0.096821399   0.43760273     -1.74458    1.6477586   439061 
 1095000    1.0987277   -1.7464817   -1.7464817 -0.098393945   0.43124961   -1.7464817    1.6480878   439061 
 1096000    1.0982311   -1.7454279   -1.7454279 -0.098084977   0.43230637   -1.7454279    1.6473429   439061 
 1097000     1.098215   -1.7438633   -1.7438633 -0.096544476   0.43652233   -1.7438633    1.6473188   439061 
 1098000    1.0970604   -1.7429458   -1.7429458 -0.097358856    0.4353239   -1.7429458    1.6455869   439061 
 1099000    1.0986634   -1.7468857   -1.7468857 -0.098894294   0.43665996   -1.7468857    1.6479914   439061 
 1100000    1.0967956   -1.7438875   -1.7438875 -0.098697861   0.43180978   -1.7438875    1.6451897   439061 
 1101000    1.0979835   -1.7448706   -1.7448706 -0.097899133   0.43609896   -1.7448706    1.6469715   439061 
 1102000    1.0987818   -1.7458565   -1.7458565 -0.097687445   0.43523545   -1.7458565     1.648169   439061 
 1103000    1.0988302    -1.747463    -1.747463 -0.099221534   0.42993626    -1.747463    1.6482415   439061 
 1104000    1.0970782   -1.7451007   -1.7451007 -0.099487097   0.43340924   -1.7451007    1.6456136   439061 
 1105000    1.0978353   -1.7456542   -1.7456542 -0.098905046   0.43325984   -1.7456542    1.6467492   439061 
 1106000    1.0982484   -1.7462358   -1.7462358 -0.098866943   0.43067771   -1.7462358    1.6473688   439061 
 1107000    1.0973096   -1.7456277   -1.7456277 -0.099667037   0.43312312   -1.7456277    1.6459606   439061 
 1108000     1.097903   -1.7458934   -1.7458934 -0.099042758    0.4303008   -1.7458934    1.6468507   439061 
 1109000    1.0974078     -1.74546     -1.74546 -0.099352001   0.43219062     -1.74546     1.646108   439061 
 1110000    1.0957309   -1.7428293   -1.7428293 -0.099236683   0.43291627   -1.7428293    1.6435926   439061 
 1111000    1.0976028   -1.7450217   -1.7450217 -0.098621282   0.43223425   -1.7450217    1.6464004   439061 
 1112000    1.0962493   -1.7438832   -1.7438832 -0.099512878   0.43538425   -1.7438832    1.6443703   439061 
 1113000    1.0979076   -1.7467029   -1.7467029 -0.099845221   0.42830382   -1.7467029    1.6468577   439061 
 1114000    1.0971594    -1.745836    -1.745836  -0.10010056    0.4278458    -1.745836    1.6457354   439061 
 1115000    1.0970454   -1.7457786   -1.7457786  -0.10021428   0.42990495   -1.7457786    1.6455643   439061 
 1116000    1.0958047   -1.7427493   -1.7427493 -0.099045987   0.43624138   -1.7427493    1.6437033   439061 
 1117000    1.0967023   -1.7442906   -1.7442906 -0.099240935   0.42881797   -1.7442906    1.6450496   439061 
 1118000    1.0962603   -1.7438615   -1.7438615 -0.099474761   0.43400547   -1.7438615    1.6443867   439061 
 1119000    1.0962814    -1.746327    -1.746327  -0.10190866   0.42883217    -1.746327    1.6444183   439061 
 1120000    1.0955006   -1.7442028   -1.7442028  -0.10095561   0.42936878   -1.7442028    1.6432472   439061 
 1121000    1.0968675   -1.7457804   -1.7457804  -0.10048284   0.42776569   -1.7457804    1.6452975   439061 
 1122000     1.096484   -1.7451567   -1.7451567   -0.1004345   0.42935316   -1.7451567    1.6447222   439061 
 1123000    1.0954951   -1.7442042   -1.7442042  -0.10096539   0.43650938   -1.7442042    1.6432388   439061 
 1124000    1.0964821   -1.7455919   -1.7455919  -0.10087251   0.43336261   -1.7455919    1.6447194   439061 
 1125000    1.0956277   -1.7448722   -1.7448722  -0.10143433   0.43179899   -1.7448722    1.6434379   439061 
 1126000    1.0949481   -1.7439302   -1.7439302  -0.10151169   0.43393414   -1.7439302    1.6424185   439061 
 1127000    1.0958592   -1.7466795   -1.7466795  -0.10289446   0.43068291   -1.7466795    1.6437851   439061 
 1128000    1.0949406   -1.7447195   -1.7447195  -0.10231232   0.43189037   -1.7447195    1.6424072   439061 
 1129000    1.0951279   -1.7447893   -1.7447893  -0.10210121   0.43344212   -1.7447893    1.6426881   439061 
 1130000    1.0956748    -1.745809    -1.745809  -0.10230055   0.42751895    -1.745809    1.6435084   439061 
 1131000    1.0944478   -1.7435626   -1.7435626  -0.10189463   0.43496562   -1.7435626     1.641668   439061 
 1132000    1.0957245   -1.7456549   -1.7456549  -0.10207197   0.43015603   -1.7456549     1.643583   439061 
 1133000    1.0948922   -1.7446878   -1.7446878  -0.10235327   0.43109413   -1.7446878    1.6423345   439061 
 1134000     1.096237   -1.7461405   -1.7461405  -0.10178865   0.42944913   -1.7461405    1.6443518   439061 
 1135000    1.0939771   -1.7430633   -1.7430633   -0.1021014   0.42935764   -1.7430633    1.6409619   439061 
 1136000    1.0951951   -1.7449222   -1.7449222  -0.10213325   0.42723452   -1.7449222    1.6427889   439061 
 1137000    1.0953186   -1.7455463   -1.7455463  -0.10257211   0.42829192   -1.7455463    1.6429742   439061 
 1138000    1.0957101   -1.7453231   -1.7453231  -0.10176168   0.42950479   -1.7453231    1.6435614   439061 
 1139000    1.0956799   -1.7439368   -1.7439368  -0.10042069   0.42870477   -1.7439368    1.6435161   439061 
 1140000    1.0960283   -1.7458611   -1.7458611  -0.10182242     0.423392   -1.7458611    1.6440387   439061 
 1141000    1.0954207   -1.7460953   -1.7460953  -0.10296796   0.42871447   -1.7460953    1.6431273   439061 
 1142000    1.0950084   -1.7443325   -1.7443325  -0.10182369    0.4309575   -1.7443325    1.6425089   439061 
 1143000    1.0949539   -1.7457616   -1.7457616   -0.1033346   0.43377048   -1.7457616     1.642427   439061 
 1144000    1.0943648   -1.7441626   -1.7441626   -0.1026192   0.42701181   -1.7441626    1.6415434   439061 
 1145000    1.0961079   -1.7465494   -1.7465494  -0.10239121    0.4270768   -1.7465494    1.6441582   439061 
 1146000    1.0950503   -1.7453323   -1.7453323  -0.10276063   0.42949238   -1.7453323    1.6425716   439061 
 1147000     1.094969   -1.7462296   -1.7462296  -0.10377985   0.43127515   -1.7462296    1.6424497   439061 
 1148000     1.095625   -1.7469023   -1.7469023  -0.10346846   0.42787029   -1.7469023    1.6434338   439061 
 1149000    1.0939346   -1.7446229   -1.7446229  -0.10372481   0.43201689   -1.7446229    1.6408981   439061 
 1150000     1.095365   -1.7465979   -1.7465979  -0.10355415   0.42893823   -1.7465979    1.6430438   439061 
 1151000    1.0940412   -1.7450598   -1.7450598  -0.10400181   0.43241456   -1.7450598     1.641058   439061 
 1152000     1.093384   -1.7450874   -1.7450874  -0.10501512     0.429153   -1.7450874    1.6400723   439061 
 1153000    1.0939714   -1.7448693   -1.7448693  -0.10391596    0.4331221   -1.7448693    1.6409533   439061 
 1154000    1.0943329   -1.7447478   -1.7447478  -0.10325216   0.43103287   -1.7447478    1.6414956   439061 
 1155000    1.0937321   -1.7459464   -1.7459464  -0.10535201   0.43166486   -1.7459464    1.6405944   439061 
 1156000    1.0943296   -1.7467427   -1.7467427   -0.1052521   0.42919186   -1.7467427    1.6414906   439061 
 1157000    1.0944584   -1.7470049   -1.7470049  -0.10532093   0.42782728   -1.7470049    1.6416839   439061 
 1158000    1.0926052   -1.7447548   -1.7447548  -0.10585066   0.43216834   -1.7447548    1.6389041   439061 
 1159000    1.0925568    -1.745893    -1.745893  -0.10706154   0.42772338    -1.745893    1.6388315   439061 
 1160000     1.093634   -1.7471372   -1.7471372   -0.1066899   0.42657399   -1.7471372    1.6404473   439061 
 1161000    1.0938439    -1.747741    -1.747741  -0.10697885   0.42839326    -1.747741    1.6407622   439061 
 1162000    1.0938994   -1.7481279   -1.7481279  -0.10728256   0.42306619   -1.7481279    1.6408454   439061 
 1163000    1.0931138   -1.7461645   -1.7461645  -0.10649743   0.43178288   -1.7461645     1.639667   439061 
 1164000    1.0921837   -1.7456365   -1.7456365  -0.10736468   0.42977017   -1.7456365    1.6382718   439061 
 1165000    1.0927825   -1.7468958   -1.7468958   -0.1077258   0.42985953   -1.7468958    1.6391701   439061 
 1166000    1.0929741   -1.7466019   -1.7466019  -0.10714454   0.42894073   -1.7466019    1.6394574   439061 
 1167000    1.0939575   -1.7481946   -1.7481946  -0.10726205   0.42350009   -1.7481946    1.6409325   439061 
 1168000    1.0932329   -1.7469526   -1.7469526    -0.107107   0.42547497   -1.7469526    1.6398456   439061 
 1169000    1.0927438   -1.7459758   -1.7459758  -0.10686381   0.42567002   -1.7459758     1.639112   439061 
 1170000    1.0927589   -1.7457619   -1.7457619  -0.10662734   0.42995896   -1.7457619    1.6391346   439061 
 1171000    1.0927283   -1.7455321   -1.7455321  -0.10644342   0.42480834   -1.7455321    1.6390887   439061 
 1172000    1.0924548   -1.7451135   -1.7451135  -0.10643512    0.4284687   -1.7451135    1.6386784   439061 
 1173000    1.0930139   -1.7455168   -1.7455168  -0.10599976   0.42717661   -1.7455168    1.6395171   439061 
 1174000    1.0930465   -1.7453913   -1.7453913  -0.10582523   0.42869627   -1.7453913     1.639566   439061 
 1175000    1.0918204   -1.7433734   -1.7433734  -0.10564649   0.43010533   -1.7433734    1.6377269   439061 
 1176000     1.092324    -1.745298    -1.745298  -0.10681567   0.42739301    -1.745298    1.6384823   439061 
 1177000    1.0928163   -1.7465577   -1.7465577  -0.10733697   0.42549885   -1.7465577    1.6392208   439061 
 1178000    1.0905474   -1.7435692   -1.7435692  -0.10775184     0.431684   -1.7435692    1.6358173   439061 
 1179000    1.0934212   -1.7478972   -1.7478972  -0.10776907   0.42321463   -1.7478972    1.6401281   439061 
 1180000    1.0924998   -1.7467081   -1.7467081  -0.10796212   0.42621956   -1.7467081     1.638746   439061 
 1181000    1.0927261    -1.746829    -1.746829  -0.10774366   0.42432727    -1.746829    1.6390854   439061 
 1182000    1.0926821   -1.7478853   -1.7478853  -0.10886583   0.42091743   -1.7478853    1.6390195   439061 
 1183000    1.0910525   -1.7441764   -1.7441764  -0.10760135   0.43151403   -1.7441764     1.636575   439061 
 1184000    1.0915174   -1.7452477   -1.7452477  -0.10797527   0.42935291   -1.7452477    1.6372724   439061 
 1185000    1.0923579   -1.7468833   -1.7468833  -0.10835021   0.42847852   -1.7468833    1.6385331   439061 
 1186000    1.0923971   -1.7466485   -1.7466485   -0.1080565   0.42760205   -1.7466485     1.638592   439061 
 1187000    1.0925347   -1.7474418   -1.7474418   -0.1086434   0.42742833   -1.7474418    1.6387984   439061 
 1188000    1.0933172   -1.7482265   -1.7482265  -0.10825447   0.42410782   -1.7482265    1.6399721   439061 
 1189000    1.0925523   -1.7479116   -1.7479116  -0.10908684   0.42173362   -1.7479116    1.6388248   439061 
 1190000    1.0915058   -1.7457419   -1.7457419  -0.10848691   0.42844791   -1.7457419     1.637255   439061 
 1191000     1.093088   -1.7470313   -1.7470313  -0.10740299   0.42493229   -1.7470313    1.6396283   439061 
 1192000    1.0923112   -1.7473994   -1.7473994  -0.10893622   0.42898278   -1.7473994    1.6384631   439061 
 1193000     1.091897   -1.7451243   -1.7451243  -0.10728256   0.42574834   -1.7451243    1.6378417   439061 
 1194000     1.091391   -1.7454353   -1.7454353  -0.10835249   0.42655386   -1.7454353    1.6370828   439061 
 1195000    1.0906959   -1.7446542   -1.7446542  -0.10861413   0.42695517   -1.7446542    1.6360401   439061 
 1196000    1.0904502   -1.7449047   -1.7449047  -0.10923307   0.42933399   -1.7449047    1.6356716   439061 
 1197000    1.0918265   -1.7466323   -1.7466323  -0.10889623   0.42335161   -1.7466323     1.637736   439061 
 1198000    1.0914542   -1.7454373   -1.7454373  -0.10825979   0.42812268   -1.7454373    1.6371776   439061 
 1199000     1.092919   -1.7471325   -1.7471325  -0.10775781   0.42507232   -1.7471325    1.6393747   439061 
 1200000    1.0936486   -1.7477885   -1.7477885  -0.10731937   0.42550933   -1.7477885    1.6404692   439061 
 1201000    1.0919244   -1.7463766   -1.7463766  -0.10849372   0.42313685   -1.7463766    1.6378829   439061 
 1202000    1.0920683   -1.7463214   -1.7463214  -0.10822267   0.42606411   -1.7463214    1.6380988   439061 
 1203000    1.0921757   -1.7460427   -1.7460427  -0.10778282   0.42280935   -1.7460427    1.6382599   439061 
 1204000    1.0914816   -1.7440764   -1.7440764  -0.10685777   0.42625345   -1.7440764    1.6372187   439061 
 1205000    1.0917755   -1.7449253   -1.7449253  -0.10726578    0.4283983   -1.7449253    1.6376595   439061 
 1206000    1.0920501   -1.7452405   -1.7452405  -0.10716903   0.42717028   -1.7452405    1.6380714   439061 
 1207000    1.0920992   -1.7453974   -1.7453974  -0.10725239   0.42898987   -1.7453974    1.6381451   439061 
 1208000     1.092361    -1.744967    -1.744967   -0.1064292   0.43254435    -1.744967    1.6385378   439061 
 1209000    1.0920959   -1.7461039   -1.7461039  -0.10796377   0.42585183   -1.7461039    1.6381401   439061 
 1210000     1.091975   -1.7455453   -1.7455453  -0.10758653   0.42574659   -1.7455453    1.6379588   439061 
 1211000    1.0911836   -1.7452618   -1.7452618  -0.10849022   0.42875869   -1.7452618    1.6367716   439061 
 1212000    1.0915612   -1.7456216   -1.7456216  -0.10828355   0.42675163   -1.7456216     1.637338   439061 
 1213000    1.0909481   -1.7442201   -1.7442201   -0.1078017   0.42823441   -1.7442201    1.6364184   439061 
 1214000    1.0907349   -1.7449771   -1.7449771  -0.10887843   0.43089008   -1.7449771    1.6360986   439061 
 1215000    1.0912243    -1.746292    -1.746292   -0.1094592   0.42506411    -1.746292    1.6368328   439061 
 1216000    1.0916766    -1.747815    -1.747815   -0.1103039   0.42828166    -1.747815    1.6375111   439061 
 1217000    1.0910331    -1.746446    -1.746446  -0.10990011    0.4259554    -1.746446    1.6365459   439061 
 1218000     1.090156   -1.7469183   -1.7469183  -0.11168804   0.42495047   -1.7469183    1.6352302   439061 
 1219000    1.0895347    -1.745294    -1.745294  -0.11099565     0.423933    -1.745294    1.6342984   439061 
 1220000    1.0906205   -1.7464428   -1.7464428  -0.11051574   0.42465141   -1.7464428    1.6359271   439061 
 1221000    1.0905846   -1.7460846   -1.7460846  -0.11021139   0.42728357   -1.7460846    1.6358732   439061 
 1222000    1.0898335   -1.7453559   -1.7453559  -0.11060932   0.42539812   -1.7453559    1.6347465   439061 
 1223000    1.0909597    -1.747009    -1.747009  -0.11057316   0.42673006    -1.747009    1.6364358   439061 
 1224000    1.0900962     -1.74581     -1.74581  -0.11066944   0.42717508     -1.74581    1.6351405   439061 
 1225000    1.0899851   -1.7465535   -1.7465535  -0.11157962   0.42358027   -1.7465535    1.6349739   439061 
 1226000    1.0904102    -1.747833    -1.747833  -0.11222145    0.4201995    -1.747833    1.6356116   439061 
 1227000    1.0903282   -1.7489656   -1.7489656  -0.11347703   0.42617312   -1.7489656    1.6354885   439061 
 1228000    1.0884046   -1.7463086   -1.7463086  -0.11370544   0.42499701   -1.7463086    1.6326031   439061 
 1229000    1.0895021   -1.7472362   -1.7472362  -0.11298684   0.42293166   -1.7472362    1.6342494   439061 
 1230000    1.0897655   -1.7473843   -1.7473843  -0.11273979   0.42283772   -1.7473843    1.6346445   439061 
 1231000    1.0887017    -1.746062    -1.746062  -0.11301324   0.42551311    -1.746062    1.6330488   439061 
 1232000    1.0885765   -1.7456891   -1.7456891  -0.11282814   0.42321089   -1.7456891     1.632861   439061 
 1233000    1.0895148   -1.7458154   -1.7458154  -0.11154698    0.4289943   -1.7458154    1.6342684   439061 
 1234000    1.0904429   -1.7481567   -1.7481567   -0.1124961   0.41810375   -1.7481567    1.6356606   439061 
 1235000    1.0890428   -1.7465311   -1.7465311  -0.11297063   0.42639831   -1.7465311    1.6335605   439061 
 1236000    1.0889899   -1.7450696   -1.7450696  -0.11158846   0.42704741   -1.7450696    1.6334812   439061 
 1237000    1.0893948    -1.746191    -1.746191  -0.11210256   0.42546638    -1.746191    1.6340884   439061 
 1238000    1.0891116   -1.7456695   -1.7456695  -0.11200586   0.42207629   -1.7456695    1.6336637   439061 
 1239000    1.0905972   -1.7461916   -1.7461916  -0.11029961     0.425217   -1.7461916     1.635892   439061 
 1240000    1.0902348   -1.7447219   -1.7447219   -0.1093734   0.42498574   -1.7447219    1.6353485   439061 
 1241000    1.0910097   -1.7455941   -1.7455941  -0.10908332   0.42577517   -1.7455941    1.6365108   439061 
 1242000    1.0903874   -1.7454726   -1.7454726  -0.10989518   0.42853453   -1.7454726    1.6355774   439061 
 1243000    1.0911901   -1.7468801   -1.7468801  -0.11009858   0.42184028   -1.7468801    1.6367815   439061 
 1244000    1.0902857   -1.7467895   -1.7467895  -0.11136459    0.4232964   -1.7467895    1.6354249   439061 
 1245000    1.0872728   -1.7437084   -1.7437084  -0.11280298   0.42419337   -1.7437084    1.6309054   439061 
 1246000    1.0888622   -1.7454689   -1.7454689  -0.11217935   0.42377729   -1.7454689    1.6332895   439061 
 1247000    1.0887783   -1.7454628   -1.7454628  -0.11229902   0.42667499   -1.7454628    1.6331638   439061 
 1248000    1.0882629   -1.7442922   -1.7442922  -0.11190163   0.42231305   -1.7442922    1.6323906   439061 
 1249000    1.0871933   -1.7431335   -1.7431335  -0.11234731   0.42928029   -1.7431335    1.6307862   439061 
 1250000    1.0894721   -1.7454531   -1.7454531  -0.11124866   0.42056112   -1.7454531    1.6342044   439061 
 1251000    1.0899487   -1.7460169   -1.7460169  -0.11109755   0.42245612   -1.7460169    1.6349194   439061 
 1252000    1.0892415    -1.745083    -1.745083  -0.11122446   0.42398643    -1.745083    1.6338586   439061 
 1253000    1.0890013   -1.7458811   -1.7458811  -0.11238292   0.42480759   -1.7458811    1.6334982   439061 
 1254000    1.0906891   -1.7481374   -1.7481374  -0.11210741   0.41937374   -1.7481374      1.63603   439061 
 1255000    1.0884263   -1.7455822   -1.7455822  -0.11294652   0.42339288   -1.7455822    1.6326357   439061 
 1256000    1.0890329   -1.7467309   -1.7467309   -0.1131853   0.42094219   -1.7467309    1.6335456   439061 
 1257000    1.0888932   -1.7464383   -1.7464383   -0.1131022   0.42347853   -1.7464383    1.6333361   439061 
 1258000    1.0885471   -1.7465249   -1.7465249  -0.11370796   0.42715637   -1.7465249    1.6328169   439061 
 1259000    1.0893866    -1.746767    -1.746767  -0.11269077   0.42369224    -1.746767    1.6340762   439061 
 1260000    1.0883066   -1.7455524   -1.7455524   -0.1130963   0.42359514   -1.7455524    1.6324561   439061 
 1261000    1.0887881   -1.7467774   -1.7467774    -0.113599   0.42580199   -1.7467774    1.6331784   439061 
 1262000    1.0885499   -1.7468374   -1.7468374  -0.11401622   0.41963774   -1.7468374    1.6328211   439061 
 1263000    1.0876267   -1.7457376   -1.7457376  -0.11430126   0.42402542   -1.7457376    1.6314364   439061 
 1264000     1.086942   -1.7454782   -1.7454782  -0.11506888   0.42565528   -1.7454782    1.6304093   439061 
 1265000    1.0868267   -1.7459276   -1.7459276  -0.11569123   0.41972515   -1.7459276    1.6302363   439061 
 1266000    1.0885023   -1.7473736   -1.7473736   -0.1146239   0.42156511   -1.7473736    1.6327497   439061 
 1267000    1.0885085   -1.7468827   -1.7468827  -0.11412365    0.4238627   -1.7468827    1.6327591   439061 
 1268000    1.0890694   -1.7471103   -1.7471103  -0.11350994   0.42080002   -1.7471103    1.6336003   439061 
 1269000    1.0886067   -1.7463877   -1.7463877  -0.11348136   0.42143822   -1.7463877    1.6329064   439061 
 1270000    1.0891312   -1.7466087   -1.7466087  -0.11291566   0.42798687   -1.7466087     1.633693   439061 
 1271000    1.0885043   -1.7458224   -1.7458224  -0.11306967   0.42167903   -1.7458224    1.6327527   439061 
 1272000    1.0881873     -1.74557     -1.74557  -0.11329273   0.42512248     -1.74557    1.6322772   439061 
 1273000    1.0882637   -1.7459775   -1.7459775  -0.11358574   0.42536993   -1.7459775    1.6323918   439061 
 1274000    1.0885325   -1.7461042   -1.7461042  -0.11330917   0.42182652   -1.7461042     1.632795   439061 
 1275000    1.0876692   -1.7453458   -1.7453458   -0.1138457    0.4220693   -1.7453458    1.6315001   439061 
 1276000    1.0887478   -1.7472587   -1.7472587  -0.11414073   0.42181323   -1.7472587    1.6331179   439061 
 1277000    1.0861527   -1.7442384   -1.7442384  -0.11501315   0.42316568   -1.7442384    1.6292253   439061 
 1278000    1.0879164   -1.7470543   -1.7470543  -0.11518335   0.42126924   -1.7470543    1.6318709   439061 
 1279000    1.0869103   -1.7454418   -1.7454418  -0.11508008   0.42542184   -1.7454418    1.6303617   439061 
 1280000    1.0873794   -1.7469318   -1.7469318  -0.11586635   0.41883021   -1.7469318    1.6310654   439061 
 1281000     1.086247   -1.7452122   -1.7452122  -0.11584546   0.41782491   -1.7452122    1.6293668   439061 
 1282000    1.0868426   -1.7464802   -1.7464802  -0.11621994   0.42332779   -1.7464802    1.6302602   439061 
 1283000    1.0860443   -1.7464775   -1.7464775  -0.11741473   0.41917496   -1.7464775    1.6290628   439061 
 1284000    1.0872592   -1.7473312   -1.7473312  -0.11644608   0.41937985   -1.7473312    1.6308851   439061 
 1285000    1.0858804   -1.7452155   -1.7452155  -0.11639858   0.42526035   -1.7452155    1.6288169   439061 
 1286000    1.0867016   -1.7468975   -1.7468975  -0.11684874   0.42024497   -1.7468975    1.6300488   439061 
 1287000    1.0866817   -1.7466924   -1.7466924  -0.11667358   0.41713688   -1.7466924    1.6300188   439061 
 1288000    1.0867436   -1.7478024   -1.7478024  -0.11769074   0.42106074   -1.7478024    1.6301117   439061 
 1289000     1.085827   -1.7452915   -1.7452915   -0.1165547   0.42448116   -1.7452915    1.6287368   439061 
 1290000    1.0886031    -1.748773    -1.748773  -0.11587214    0.4225401    -1.748773    1.6329009   439061 
 1291000    1.0866873   -1.7460737   -1.7460737  -0.11604649   0.41977545   -1.7460737    1.6300272   439061 
 1292000    1.0862052   -1.7453324   -1.7453324  -0.11602832   0.42107955   -1.7453324     1.629304   439061 
 1293000    1.0871136    -1.748118    -1.748118  -0.11745122   0.41632155    -1.748118    1.6306668   439061 
 1294000    1.0870713   -1.7485187   -1.7485187  -0.11791548   0.41912125   -1.7485187    1.6306032   439061 
 1295000     1.087031   -1.7482587   -1.7482587  -0.11771599   0.42003973   -1.7482587    1.6305427   439061 
 1296000    1.0856179   -1.7465476   -1.7465476  -0.11812453   0.41739159   -1.7465476    1.6284231   439061 
 1297000      1.08562   -1.7474522   -1.7474522  -0.11902583   0.42118993   -1.7474522    1.6284263   439061 
 1298000    1.0856659   -1.7475481   -1.7475481  -0.11905297   0.42148681   -1.7475481    1.6284952   439061 
 1299000    1.0845599   -1.7468993   -1.7468993  -0.12006314   0.42060912   -1.7468993    1.6268361   439061 
 1300000    1.0838717   -1.7464665   -1.7464665  -0.12066265   0.41373811   -1.7464665    1.6258039   439061 
 1301000     1.084998   -1.7468483   -1.7468483  -0.11935506   0.41772541   -1.7468483    1.6274932   439061 
 1302000    1.0842119   -1.7459876   -1.7459876  -0.11967345   0.41865902   -1.7459876    1.6263142   439061 
 1303000    1.0840547   -1.7454071   -1.7454071  -0.11932879   0.41851797   -1.7454071    1.6260783   439061 
 1304000    1.0854222   -1.7466277   -1.7466277  -0.11849808   0.41982066   -1.7466277    1.6281296   439061 
 1305000    1.0849597   -1.7466076   -1.7466076  -0.11917176   0.42171202   -1.7466076    1.6274359   439061 
 1306000    1.0860457   -1.7478447   -1.7478447  -0.11877978   0.42239657   -1.7478447    1.6290649   439061 
 1307000    1.0859611   -1.7467264   -1.7467264  -0.11778854   0.41813612   -1.7467264    1.6289379   439061 
 1308000    1.0861968   -1.7462167   -1.7462167  -0.11692525   0.41901705   -1.7462167    1.6292915   439061 
 1309000    1.0862582   -1.7468005   -1.7468005  -0.11741682   0.41809251   -1.7468005    1.6293837   439061 
 1310000    1.0859618   -1.7468648   -1.7468648  -0.11792573    0.4174782   -1.7468648    1.6289391   439061 
 1311000    1.0857426   -1.7459928   -1.7459928  -0.11738257   0.42181332   -1.7459928    1.6286102   439061 
 1312000    1.0858055   -1.7470009   -1.7470009  -0.11829644   0.41872366   -1.7470009    1.6287045   439061 
 1313000    1.0854903   -1.7475792   -1.7475792  -0.11934753   0.41685602   -1.7475792    1.6282317   439061 
 1314000    1.0853734   -1.7463355   -1.7463355  -0.11827906   0.42075497   -1.7463355    1.6280564   439061 
 1315000    1.0850593   -1.7467198   -1.7467198  -0.11913455   0.41661375   -1.7467198    1.6275853   439061 
 1316000    1.0844893   -1.7470995   -1.7470995  -0.12036916   0.42066369   -1.7470995    1.6267303   439061 
 1317000    1.0843541   -1.7467843   -1.7467843  -0.12025691   0.42018247   -1.7467843    1.6265274   439061 
 1318000    1.0844726   -1.7472765   -1.7472765  -0.12057136   0.41987483   -1.7472765    1.6267051   439061 
 1319000    1.0849399   -1.7466989   -1.7466989   -0.1192928   0.42098998   -1.7466989    1.6274061   439061 
 1320000    1.0848621   -1.7470342   -1.7470342  -0.11974476   0.41642888   -1.7470342    1.6272894   439061 
 1321000    1.0857474   -1.7494346   -1.7494346  -0.12081715   0.41406422   -1.7494346    1.6286175   439061 
 1322000    1.0842118   -1.7474721   -1.7474721   -0.1211581   0.41935665   -1.7474721     1.626314   439061 
 1323000    1.0841794   -1.7472257   -1.7472257  -0.12096027   0.42031401   -1.7472257    1.6262654   439061 
 1324000    1.0846211   -1.7489077   -1.7489077  -0.12197983    0.4144567   -1.7489077    1.6269279   439061 
 1325000    1.0849216   -1.7474862   -1.7474862  -0.12010752   0.41454496   -1.7474862    1.6273787   439061 
 1326000    1.0848384   -1.7466218   -1.7466218  -0.11936794   0.42253683   -1.7466218    1.6272539   439061 
 1327000    1.0846719   -1.7475899   -1.7475899  -0.12058572   0.42255051   -1.7475899    1.6270042   439061 
 1328000    1.0832701    -1.745541    -1.745541  -0.12063953   0.41900938    -1.745541    1.6249015   439061 
 1329000    1.0839072   -1.7468514   -1.7468514  -0.12099436    0.4192332   -1.7468514    1.6258571   439061 
 1330000    1.0832783   -1.7459897   -1.7459897  -0.12107597   0.41583797   -1.7459897    1.6249137   439061 
 1331000    1.0839869   -1.7472685   -1.7472685  -0.12129189   0.42241159   -1.7472685    1.6259766   439061 
 1332000    1.0827029   -1.7453181   -1.7453181  -0.12126737   0.41824693   -1.7453181    1.6240507   439061 
 1333000    1.0845469   -1.7483931   -1.7483931  -0.12157642    0.4136721   -1.7483931    1.6268167   439061 
 1334000    1.0836774   -1.7476479   -1.7476479  -0.12213544   0.41495133   -1.7476479    1.6255125   439061 
 1335000    1.0828165    -1.746766    -1.746766  -0.12254491   0.41908724    -1.746766    1.6242211   439061 
 1336000    1.0835236   -1.7465732   -1.7465732  -0.12129158   0.41639725   -1.7465732    1.6252816   439061 
 1337000    1.0837623   -1.7471112   -1.7471112  -0.12147149   0.41952063   -1.7471112    1.6256397   439061 
 1338000    1.0846018    -1.748057    -1.748057  -0.12115795   0.41499926    -1.748057     1.626899   439061 
 1339000    1.0838267   -1.7470523   -1.7470523  -0.12131595   0.41383069   -1.7470523    1.6257363   439061 
 1340000      1.08419   -1.7470883   -1.7470883  -0.12080695   0.41835422   -1.7470883    1.6262813   439061 
 1341000    1.0851302   -1.7478699   -1.7478699  -0.12017837   0.41865505   -1.7478699    1.6276916   439061 
 1342000    1.0844337   -1.7469054   -1.7469054  -0.12025861   0.42277736   -1.7469054    1.6266468   439061 
 1343000    1.0838684   -1.7475993   -1.7475993  -0.12180034   0.41675046   -1.7475993    1.6257989   439061 
 1344000    1.0834118   -1.7478903   -1.7478903  -0.12277635   0.41519398   -1.7478903     1.625114   439061 
 1345000    1.0838467   -1.7469564   -1.7469564     -0.12119   0.41298366   -1.7469564    1.6257664   439061 
 1346000    1.0852266   -1.7493218   -1.7493218   -0.1214856   0.41618994   -1.7493218    1.6278362   439061 
 1347000    1.0840918   -1.7473565   -1.7473565  -0.12122255   0.42243465   -1.7473565    1.6261339   439061 
 1348000    1.0838306   -1.7482143   -1.7482143  -0.12247216   0.41892919   -1.7482143    1.6257422   439061 
 1349000    1.0824993   -1.7465948   -1.7465948  -0.12284953   0.41383251   -1.7465948    1.6237452   439061 
 1350000    1.0832164   -1.7470478   -1.7470478  -0.12222683   0.41819619   -1.7470478     1.624821   439061 
 1351000    1.0825074    -1.745834    -1.745834  -0.12207663   0.42217175    -1.745834    1.6237573   439061 
 1352000    1.0837051   -1.7475164   -1.7475164  -0.12196248   0.41631284   -1.7475164    1.6255539   439061 
 1353000    1.0827963   -1.7449824   -1.7449824  -0.12079163   0.41917735   -1.7449824    1.6241907   439061 
 1354000    1.0825497   -1.7461559   -1.7461559  -0.12233507    0.4126881   -1.7461559    1.6238209   439061 
 1355000    1.0834371   -1.7473281   -1.7473281  -0.12217615    0.4170433   -1.7473281     1.625152   439061 
 1356000    1.0833474   -1.7472456   -1.7472456  -0.12222827   0.41658567   -1.7472456    1.6250173   439061 
 1357000    1.0822616   -1.7460164   -1.7460164  -0.12262778   0.41657714   -1.7460164    1.6233887   439061 
 1358000    1.0828756   -1.7470526   -1.7470526    -0.122743   0.41224996   -1.7470526    1.6243096   439061 
 1359000     1.082997   -1.7471303   -1.7471303  -0.12263849   0.41488142   -1.7471303    1.6244918   439061 
 1360000    1.0818824   -1.7465601   -1.7465601  -0.12374019   0.41955385   -1.7465601    1.6228199   439061 
 1361000    1.0825594   -1.7474006   -1.7474006  -0.12356515   0.41375637   -1.7474006    1.6238354   439061 
 1362000    1.0822744   -1.7475963   -1.7475963  -0.12418836   0.41641888   -1.7475963     1.623408   439061 
 1363000    1.0819503   -1.7470749   -1.7470749  -0.12415308   0.41593342   -1.7470749    1.6229218   439061 
 1364000    1.0816362   -1.7468088   -1.7468088  -0.12435817   0.41627229   -1.7468088    1.6224507   439061 
 1365000    1.0823918   -1.7483851   -1.7483851  -0.12480106   0.41530862   -1.7483851    1.6235841   439061 
 1366000     1.082053   -1.7481185   -1.7481185  -0.12504266    0.4148416   -1.7481185    1.6230759   439061 
 1367000    1.0824019   -1.7485563   -1.7485563  -0.12495722   0.41519072   -1.7485563    1.6235991   439061 
 1368000    1.0830552   -1.7483928   -1.7483928  -0.12381365   0.41238009   -1.7483928    1.6245791   439061 
 1369000    1.0818419   -1.7467243   -1.7467243   -0.1239652   0.41405133   -1.7467243    1.6227591   439061 
 1370000     1.081094   -1.7462102   -1.7462102  -0.12457287   0.41945414   -1.7462102    1.6216373   439061 
 1371000    1.0831057   -1.7473611   -1.7473611  -0.12270621   0.41643377   -1.7473611    1.6246549   439061 
 1372000    1.0822003   -1.7472569   -1.7472569  -0.12396016   0.41982717   -1.7472569    1.6232968   439061 
 1373000    1.0823694   -1.7473586   -1.7473586   -0.1238082   0.41904979   -1.7473586    1.6235504   439061 
 1374000    1.0815881   -1.7464638   -1.7464638  -0.12408541   0.41644171   -1.7464638    1.6223784   439061 
 1375000    1.0825935   -1.7479828   -1.7479828  -0.12409634   0.41516351   -1.7479828    1.6238865   439061 
 1376000    1.0824972   -1.7471256   -1.7471256  -0.12338351   0.41415008   -1.7471256    1.6237421   439061 
 1377000    1.0835662   -1.7476579   -1.7476579  -0.12231224     0.415375   -1.7476579    1.6253456   439061 
 1378000    1.0817951   -1.7469003   -1.7469003  -0.12421141   0.41478915   -1.7469003    1.6226889   439061 
 1379000    1.0822601   -1.7475652   -1.7475652  -0.12417876   0.41326826   -1.7475652    1.6233865   439061 
 1380000    1.0821812   -1.7476096   -1.7476096  -0.12434153   0.41345813   -1.7476096    1.6232681   439061 
 1381000    1.0823125   -1.7475652   -1.7475652   -0.1241001   0.40972144   -1.7475652    1.6234651   439061 
 1382000    1.0834547   -1.7472913   -1.7472913    -0.122113   0.41541967   -1.7472913    1.6251783   439061 
 1383000    1.0830043   -1.7472774   -1.7472774  -0.12277467   0.41232552   -1.7472774    1.6245027   439061 
 1384000      1.08236   -1.7459516   -1.7459516  -0.12241533   0.41935273   -1.7459516    1.6235363   439061 
 1385000    1.0837826   -1.7468006   -1.7468006  -0.12113046   0.41497621   -1.7468006    1.6256702   439061 
 1386000     1.082642   -1.7456318   -1.7456318  -0.12167247   0.41511802   -1.7456318    1.6239594   439061 
 1387000    1.0820939   -1.7451305   -1.7451305  -0.12199333   0.42100936   -1.7451305    1.6231372   439061 
 1388000    1.0830369   -1.7455276   -1.7455276    -0.120976    0.4158262   -1.7455276    1.6245516   439061 
 1389000    1.0841937     -1.74724     -1.74724  -0.12095315   0.41721134     -1.74724    1.6262869   439061 
 1390000    1.0833509   -1.7463714   -1.7463714  -0.12134867    0.4187284   -1.7463714    1.6250227   439061 
 1391000    1.0832845   -1.7477063   -1.7477063  -0.12278327   0.41750455   -1.7477063     1.624923   439061 
 1392000    1.0811324   -1.7449489   -1.7449489  -0.12325396   0.41499245   -1.7449489    1.6216949   439061 
 1393000    1.0810583   -1.7457462   -1.7457462  -0.12416242   0.41545449   -1.7457462    1.6215838   439061 
 1394000    1.0826847   -1.7482802   -1.7482802   -0.1242569    0.4131064   -1.7482802    1.6240233   439061 
 1395000     1.080835   -1.7459616   -1.7459616  -0.12471281   0.41642577   -1.7459616    1.6212488   439061 
 1396000    1.0824348   -1.7482504   -1.7482504   -0.1246019   0.41438737   -1.7482504    1.6236485   439061 
 1397000    1.0814211   -1.7470554   -1.7470554  -0.12492734   0.41689849   -1.7470554     1.622128   439061 
 1398000     1.082117   -1.7469234   -1.7469234  -0.12375158   0.41672825   -1.7469234    1.6231719   439061 
 1399000    1.0821596    -1.746945    -1.746945  -0.12370935   0.41795587    -1.746945    1.6232357   439061 
 1400000    1.0819258   -1.7466396   -1.7466396  -0.12375467   0.42169131   -1.7466396    1.6228849   439061 
 1401000    1.0819304   -1.7466787   -1.7466787  -0.12378674   0.41708859   -1.7466787    1.6228919   439061 
 1402000    1.0820798   -1.7492218   -1.7492218  -0.12610578   0.41569196   -1.7492218    1.6231161   439061 
 1403000    1.0807706   -1.7467972   -1.7467972  -0.12564498   0.41123796   -1.7467972    1.6211523   439061 
 1404000    1.0819119   -1.7494516   -1.7494516  -0.12658739   0.41422358   -1.7494516    1.6228642   439061 
 1405000    1.0819943   -1.7490126   -1.7490126  -0.12602475   0.41298528   -1.7490126    1.6229878   439061 
 1406000    1.0802259   -1.7470592   -1.7470592  -0.12672409   0.41985426   -1.7470592    1.6203351   439061 
 1407000    1.0804734   -1.7483793   -1.7483793  -0.12767294   0.41386473   -1.7483793    1.6207063   439061 
 1408000     1.079915   -1.7479308   -1.7479308  -0.12806201   0.41714816   -1.7479308    1.6198688   439061 
 1409000    1.0801555   -1.7479323   -1.7479323  -0.12770271    0.4145774   -1.7479323    1.6202295   439061 
 1410000    1.0803425   -1.7483913   -1.7483913  -0.12788122   0.41367096   -1.7483913    1.6205101   439061 
 1411000    1.0789637   -1.7478925   -1.7478925  -0.12945066   0.41406737   -1.7478925    1.6184418   439061 
 1412000    1.0791896   -1.7475591   -1.7475591   -0.1287785   0.41756342   -1.7475591    1.6187806   439061 
 1413000    1.0799557   -1.7487955   -1.7487955  -0.12886565   0.41034131   -1.7487955    1.6199298   439061 
 1414000    1.0786598   -1.7466316   -1.7466316  -0.12864549    0.4126481   -1.7466316    1.6179861   439061 
 1415000    1.0790137   -1.7472254   -1.7472254  -0.12870858    0.4149402   -1.7472254    1.6185169   439061 
 1416000    1.0802989   -1.7479435   -1.7479435   -0.1274988   0.41580908   -1.7479435    1.6204447   439061 
 1417000     1.079716   -1.7475045   -1.7475045   -0.1279342   0.41311428   -1.7475045    1.6195703   439061 
 1418000    1.0799019    -1.748107    -1.748107  -0.12825783    0.4120462    -1.748107    1.6198491   439061 
 1419000    1.0795508   -1.7481315   -1.7481315  -0.12880905    0.4159583   -1.7481315    1.6193225   439061 
 1420000    1.0806574   -1.7487779   -1.7487779  -0.12779542   0.41139889   -1.7487779    1.6209824   439061 
 1421000     1.079064   -1.7468078   -1.7468078  -0.12821536   0.41249488   -1.7468078    1.6185924   439061 
 1422000    1.0801892   -1.7495879   -1.7495879  -0.12930782   0.41066425   -1.7495879    1.6202801   439061 
 1423000    1.0790197   -1.7475277   -1.7475277  -0.12900175     0.417243   -1.7475277    1.6185259   439061 
 1424000    1.0792928   -1.7473918   -1.7473918  -0.12845634   0.41525106   -1.7473918    1.6189355   439061 
 1425000    1.0786683   -1.7476937   -1.7476937  -0.12969503   0.41576627   -1.7476937    1.6179987   439061 
 1426000    1.0797659   -1.7497804   -1.7497804  -0.13013528   0.40856222   -1.7497804    1.6196451   439061 
 1427000    1.0788106   -1.7476413   -1.7476413  -0.12942919   0.41618249   -1.7476413    1.6182122   439061 
 1428000    1.0777573   -1.7470782   -1.7470782  -0.13044584   0.41362953   -1.7470782    1.6166323   439061 
 1429000    1.0795531   -1.7484126   -1.7484126  -0.12908664   0.41037677   -1.7484126    1.6193259   439061 
 1430000    1.0793028   -1.7480243   -1.7480243  -0.12907384   0.41608026   -1.7480243    1.6189505   439061 
 1431000    1.0789218   -1.7481063   -1.7481063  -0.12972722   0.41090232   -1.7481063     1.618379   439061 
 1432000    1.0782686   -1.7461299   -1.7461299  -0.12873073   0.41356223   -1.7461299    1.6173992   439061 
 1433000    1.0798317   -1.7493861   -1.7493861  -0.12964225    0.4144527   -1.7493861    1.6197439   439061 
 1434000     1.080289   -1.7490154   -1.7490154  -0.12858556   0.41048018   -1.7490154    1.6204298   439061 
 1435000    1.0779175   -1.7457646   -1.7457646  -0.12889204   0.41757193   -1.7457646    1.6168725   439061 
 1436000    1.0791359   -1.7484645   -1.7484645  -0.12976442   0.41370219   -1.7484645    1.6187001   439061 
 1437000    1.0785452   -1.7489602   -1.7489602    -0.131146   0.41190395   -1.7489602    1.6178142   439061 
 1438000    1.0779791   -1.7488575   -1.7488575  -0.13189252   0.41047653   -1.7488575     1.616965   439061 
 1439000    1.0789547   -1.7504168   -1.7504168  -0.13198844   0.40891932   -1.7504168    1.6184283   439061 
 1440000    1.0776929   -1.7486162   -1.7486162  -0.13208044   0.41557293   -1.7486162    1.6165357   439061 
 1441000    1.0781464   -1.7481519   -1.7481519  -0.13093608   0.41572675   -1.7481519    1.6172158   439061 
 1442000    1.0776951   -1.7485865   -1.7485865  -0.13204744   0.41376934   -1.7485865     1.616539   439061 
 1443000    1.0784856   -1.7477912   -1.7477912  -0.13006655   0.41240714   -1.7477912    1.6177246   439061 
 1444000    1.0793671   -1.7495744   -1.7495744  -0.13052742   0.41181102   -1.7495744     1.619047   439061 
 1445000    1.0781102   -1.7477573   -1.7477573  -0.13059575   0.41194206   -1.7477573    1.6171616   439061 
 1446000    1.0776171   -1.7474343   -1.7474343  -0.13101227   0.41139965   -1.7474343     1.616422   439061 
 1447000    1.0788455   -1.7485205   -1.7485205  -0.13025586    0.4133679   -1.7485205    1.6182646   439061 
 1448000     1.078669   -1.7476515   -1.7476515  -0.12965168   0.41356469   -1.7476515    1.6179998   439061 
 1449000    1.0789274   -1.7474663   -1.7474663  -0.12907887   0.40976404   -1.7474663    1.6183874   439061 
 1450000    1.0792871   -1.7486796   -1.7486796  -0.12975266   0.41307849   -1.7486796     1.618927   439061 
 1451000     1.078752   -1.7471545   -1.7471545   -0.1290302   0.41856475   -1.7471545    1.6181243   439061 
 1452000    1.0794627   -1.7483379   -1.7483379  -0.12914742   0.41092698   -1.7483379    1.6191904   439061 
 1453000    1.0785692   -1.7489747   -1.7489747  -0.13112453   0.40984852   -1.7489747    1.6178502   439061 
 1454000    1.0780159   -1.7487406   -1.7487406  -0.13172044   0.40725053   -1.7487406    1.6170202   439061 
 1455000    1.0768001   -1.7480597   -1.7480597  -0.13286316   0.41378358   -1.7480597    1.6151965   439061 
 1456000    1.0777137   -1.7494499   -1.7494499  -0.13288307   0.40506014   -1.7494499    1.6165668   439061 
 1457000    1.0760959   -1.7462424   -1.7462424  -0.13210216   0.41106983   -1.7462424    1.6141402   439061 
 1458000    1.0765986   -1.7481547   -1.7481547  -0.13326047    0.4130981   -1.7481547    1.6148942   439061 
 1459000    1.0778445   -1.7487561   -1.7487561  -0.13199295   0.41221036   -1.7487561    1.6167631   439061 
 1460000     1.076479   -1.7484924   -1.7484924  -0.13377758   0.40774128   -1.7484924    1.6147148   439061 
 1461000    1.0768958   -1.7483905   -1.7483905  -0.13305043   0.41242036   -1.7483905      1.61534   439061 
 1462000    1.0772802   -1.7482598   -1.7482598  -0.13234318   0.41302816   -1.7482598    1.6159166   439061 
 1463000    1.0773988   -1.7494775   -1.7494775  -0.13338291   0.41317497   -1.7494775    1.6160946   439061 
 1464000    1.0775077   -1.7492129   -1.7492129  -0.13295504   0.40941821   -1.7492129    1.6162579   439061 
 1465000    1.0773111    -1.748378    -1.748378  -0.13241513   0.41161269    -1.748378    1.6159629   439061 
 1466000    1.0789181   -1.7503031   -1.7503031  -0.13192957   0.41474141   -1.7503031    1.6183735   439061 
 1467000    1.0779394   -1.7492315   -1.7492315  -0.13232612   0.41058662   -1.7492315    1.6169054   439061 
 1468000    1.0766229   -1.7470988   -1.7470988  -0.13216803   0.40902392   -1.7470988    1.6149307   439061 
 1469000    1.0765641   -1.7479109   -1.7479109  -0.13306845   0.41343547   -1.7479109    1.6148424   439061 
 1470000    1.0757454   -1.7474792   -1.7474792  -0.13386478   0.41403597   -1.7474792    1.6136145   439061 
 1471000    1.0775736   -1.7483027   -1.7483027  -0.13194594   0.41269673   -1.7483027    1.6163568   439061 
 1472000    1.0777721   -1.7483622   -1.7483622  -0.13170771   0.41055628   -1.7483622    1.6166545   439061 
 1473000    1.0766978   -1.7463922   -1.7463922  -0.13134922   0.41440703   -1.7463922     1.615043   439061 
 1474000    1.0779253     -1.74844     -1.74844  -0.13155568   0.41347429     -1.74844    1.6168843   439061 
 1475000    1.0776078   -1.7481139   -1.7481139  -0.13170585   0.41147845   -1.7481139    1.6164081   439061 
 1476000    1.0757966   -1.7471541   -1.7471541  -0.13346286   0.40985236   -1.7471541    1.6136913   439061 
 1477000    1.0774779   -1.7488064   -1.7488064  -0.13259317    0.4063783   -1.7488064    1.6162132   439061 
 1478000    1.0762561   -1.7467291   -1.7467291  -0.13234862    0.4110118   -1.7467291    1.6143804   439061 
 1479000    1.0775941   -1.7479445   -1.7479445  -0.13155697   0.41451776   -1.7479445    1.6163875   439061 
 1480000    1.0775597   -1.7473924   -1.7473924  -0.13105653   0.41136139   -1.7473924    1.6163358   439061 
 1481000    1.0773815   -1.7467523   -1.7467523  -0.13068381   0.40659495   -1.7467523    1.6160685   439061 
 1482000    1.0783318   -1.7477107   -1.7477107  -0.13021665   0.41166937   -1.7477107     1.617494   439061 
 1483000    1.0782805   -1.7474085   -1.7474085  -0.12999142    0.4101267   -1.7474085    1.6174171   439061 
 1484000    1.0779454   -1.7466271   -1.7466271  -0.12971274   0.41198464   -1.7466271    1.6169144   439061 
 1485000    1.0776895   -1.7463723   -1.7463723  -0.12984173    0.4129862   -1.7463723    1.6165306   439061 
 1486000    1.0784076   -1.7478044   -1.7478044  -0.13019669   0.41504566   -1.7478044    1.6176077   439061 
 1487000    1.0781368   -1.7456292   -1.7456292  -0.12842765   0.41467427   -1.7456292    1.6172015   439061 
 1488000    1.0788009   -1.7465067   -1.7465067  -0.12830906   0.41097562   -1.7465067    1.6181976   439061 
 1489000    1.0782215   -1.7471637   -1.7471637   -0.1298351   0.41321734   -1.7471637    1.6173286   439061 
 1490000     1.076826   -1.7447049   -1.7447049  -0.12946958   0.41497973   -1.7447049    1.6152353   439061 
 1491000    1.0768024   -1.7468125   -1.7468125  -0.13161256   0.41301637   -1.7468125    1.6151999   439061 
 1492000    1.0765399   -1.7472358   -1.7472358  -0.13242965   0.41043106   -1.7472358    1.6148061   439061 
 1493000     1.077642   -1.7490536   -1.7490536  -0.13259429   0.40813586   -1.7490536    1.6164593   439061 
 1494000    1.0766304   -1.7478003   -1.7478003  -0.13285835    0.4098917   -1.7478003    1.6149419   439061 
 1495000    1.0765531   -1.7479991   -1.7479991  -0.13317317   0.40739127   -1.7479991     1.614826   439061 
 1496000    1.0764622   -1.7479193   -1.7479193  -0.13322971   0.41208767   -1.7479193    1.6146896   439061 
 1497000    1.0770694   -1.7497006   -1.7497006  -0.13410019   0.40974618   -1.7497006    1.6156004   439061 
 1498000    1.0762277   -1.7477275   -1.7477275  -0.13338962   0.41155065   -1.7477275    1.6143379   439061 
 1499000    1.0769115   -1.7493379   -1.7493379  -0.13397435    0.4119383   -1.7493379    1.6153636   439061 
 1500000    1.0770437   -1.7487983   -1.7487983  -0.13323643   0.40963858   -1.7487983    1.6155619   439061 
 1501000     1.077814   -1.7494527   -1.7494527  -0.13273543   0.40867435   -1.7494527    1.6167173   439061 
 1502000    1.0759817   -1.7483634   -1.7483634  -0.13439451   0.41187963   -1.7483634    1.6139689   439061 
 1503000     1.076292   -1.7482682   -1.7482682  -0.13383389   0.40922948   -1.7482682    1.6144343   439061 
 1504000     1.076055   -1.7470909   -1.7470909  -0.13301207   0.41313778   -1.7470909    1.6140789   439061 
 1505000    1.0775844   -1.7495439   -1.7495439  -0.13317107   0.40767775   -1.7495439    1.6163728   439061 
 1506000    1.0767056   -1.7487224   -1.7487224  -0.13366766   0.40517417   -1.7487224    1.6150548   439061 
 1507000    1.0772715   -1.7487252   -1.7487252  -0.13282168   0.40851388   -1.7487252    1.6159035   439061 
 1508000    1.0770589   -1.7483508   -1.7483508  -0.13276609   0.41278371   -1.7483508    1.6155847   439061 
 1509000    1.0770127   -1.7485745   -1.7485745  -0.13305921    0.4100724   -1.7485745    1.6155153   439061 
 1510000    1.0750405   -1.7461702   -1.7461702  -0.13361315   0.40664556   -1.7461702    1.6125571   439061 
 1511000    1.0762542   -1.7475449   -1.7475449  -0.13316727   0.41159612   -1.7475449    1.6143776   439061 
 1512000    1.0772991   -1.7500458   -1.7500458  -0.13410085   0.40745133   -1.7500458    1.6159449   439061 
 1513000    1.0760369   -1.7476466   -1.7476466  -0.13359496   0.41042467   -1.7476466    1.6140516   439061 
 1514000    1.0758738    -1.747415    -1.747415  -0.13360793   0.41052265    -1.747415    1.6138071   439061 
 1515000    1.0764845   -1.7493895   -1.7493895  -0.13466634   0.40839938   -1.7493895    1.6147231   439061 
 1516000    1.0765433   -1.7489522   -1.7489522  -0.13414091   0.41254408   -1.7489522    1.6148113   439061 
 1517000    1.0763895   -1.7486099   -1.7486099  -0.13402926   0.40938767   -1.7486099    1.6145806   439061 
 1518000    1.0765032   -1.7470267   -1.7470267  -0.13227554    0.4124066   -1.7470267    1.6147512   439061 
 1519000    1.0751708   -1.7468256   -1.7468256  -0.13407308   0.41240159   -1.7468256    1.6127525   439061 
 1520000    1.0755586    -1.747662    -1.747662  -0.13432775   0.40961524    -1.747662    1.6133343   439061 
 1521000    1.0757032    -1.746625    -1.746625  -0.13307388   0.41323839    -1.746625    1.6135511   439061 
 1522000    1.0763223   -1.7478016   -1.7478016  -0.13332172   0.40900343   -1.7478016    1.6144798   439061 
 1523000    1.0762227    -1.748477    -1.748477  -0.13414662   0.41162131    -1.748477    1.6143304   439061 
 1524000    1.0757642   -1.7463203   -1.7463203  -0.13267766   0.40949362   -1.7463203    1.6136426   439061 
 1525000    1.0761044   -1.7477596   -1.7477596  -0.13360678   0.41449954   -1.7477596    1.6141529   439061 
 1526000    1.0763286   -1.7487566   -1.7487566  -0.13426738   0.41216927   -1.7487566    1.6144892   439061 
 1527000    1.0737218    -1.746072    -1.746072  -0.13549294   0.41138012    -1.746072    1.6105791   439061 
 1528000    1.0763497   -1.7499382   -1.7499382  -0.13541737   0.40845873   -1.7499382    1.6145208   439061 
 1529000    1.0745725   -1.7484298   -1.7484298  -0.13657469   0.41257202   -1.7484298    1.6118551   439061 
 1530000     1.074864   -1.7488469   -1.7488469  -0.13655455   0.41069179   -1.7488469    1.6122923   439061 
 1531000     1.074895   -1.7489342   -1.7489342  -0.13659543    0.4100063   -1.7489342    1.6123388   439061 
 1532000    1.0735402   -1.7478543   -1.7478543   -0.1375477   0.40580521   -1.7478543    1.6103066   439061 
 1533000    1.0742051   -1.7487481   -1.7487481  -0.13744419   0.40823033   -1.7487481    1.6113039   439061 
 1534000    1.0742224   -1.7475951   -1.7475951  -0.13626508    0.4104503   -1.7475951      1.61133   439061 
 1535000    1.0748852   -1.7486324   -1.7486324  -0.13630823   0.40743334   -1.7486324    1.6123242   439061 
 1536000    1.0742575   -1.7481581   -1.7481581  -0.13677553   0.40847208   -1.7481581    1.6113826   439061 
 1537000    1.0739174   -1.7497996   -1.7497996  -0.13892714   0.40433535   -1.7497996    1.6108724   439061 
 1538000    1.0750196   -1.7500823   -1.7500823  -0.13755659   0.40259168   -1.7500823    1.6125258   439061 
 1539000    1.0744017   -1.7494366   -1.7494366  -0.13783774   0.40704852   -1.7494366    1.6115989   439061 
 1540000    1.0738318   -1.7493182   -1.7493182  -0.13857411   0.40802924   -1.7493182    1.6107441   439061 
 1541000    1.0731743   -1.7481561   -1.7481561  -0.13839841   0.40717656   -1.7481561    1.6097577   439061 
 1542000    1.0746321   -1.7494728   -1.7494728  -0.13752833   0.40857763   -1.7494728    1.6119445   439061 
 1543000    1.0731701   -1.7466406   -1.7466406  -0.13688918   0.40711596   -1.7466406    1.6097514   439061 
 1544000    1.0745686    -1.748629    -1.748629  -0.13677986   0.40648745    -1.748629    1.6118492   439061 
 1545000    1.0749721   -1.7501979   -1.7501979  -0.13774343   0.40272496   -1.7501979    1.6124545   439061 
 1546000    1.0748874   -1.7495924   -1.7495924  -0.13726499   0.40558602   -1.7495924    1.6123274   439061 
 1547000    1.0742361   -1.7495635   -1.7495635  -0.13821304   0.40882893   -1.7495635    1.6113504   439061 
 1548000      1.07417    -1.748457    -1.748457  -0.13720571   0.40806408    -1.748457    1.6112513   439061 
 1549000    1.0744835   -1.7489565   -1.7489565  -0.13723489   0.40230805   -1.7489565    1.6117216   439061 
 1550000    1.0744266   -1.7480426   -1.7480426  -0.13640633   0.41035381   -1.7480426    1.6116363   439061 
 1551000    1.0748474   -1.7479066   -1.7479066  -0.13563921   0.40782147   -1.7479066    1.6122674   439061 
 1552000    1.0755859   -1.7490224   -1.7490224  -0.13564732   0.41020213   -1.7490224    1.6133751   439061 
 1553000    1.0748897   -1.7485071   -1.7485071  -0.13617625   0.40607011   -1.7485071    1.6123308   439061 
 1554000    1.0748152   -1.7484717   -1.7484717  -0.13625258   0.40761263   -1.7484717    1.6122191   439061 
 1555000      1.07659    -1.750945    -1.750945  -0.13606371   0.40501028    -1.750945    1.6148813   439061 
 1556000    1.0740695    -1.747357    -1.747357  -0.13625637   0.40830274    -1.747357    1.6111006   439061 
 1557000    1.0753935   -1.7486445   -1.7486445   -0.1355579   0.40685372   -1.7486445    1.6130866   439061 
 1558000    1.0741228   -1.7477503   -1.7477503  -0.13656981   0.41031895   -1.7477503    1.6111805   439061 
 1559000    1.0744362   -1.7469027   -1.7469027  -0.13525204   0.40836968   -1.7469027    1.6116507   439061 
 1560000    1.0752756    -1.749544    -1.749544  -0.13663428    0.4040291    -1.749544    1.6129097   439061 
 1561000    1.0743803   -1.7488496   -1.7488496  -0.13728277   0.40677896   -1.7488496    1.6115668   439061 
 1562000    1.0728267   -1.7467632   -1.7467632  -0.13752674   0.40596639   -1.7467632    1.6092364   439061 
 1563000    1.0749501    -1.749932    -1.749932  -0.13751051   0.40529243    -1.749932    1.6124215   439061 
 1564000    1.0743236   -1.7477013   -1.7477013  -0.13621965   0.40823976   -1.7477013    1.6114817   439061 
 1565000    1.0741833   -1.7469381   -1.7469381  -0.13566683   0.40427541   -1.7469381    1.6112713   439061 
 1566000    1.0759474   -1.7492743   -1.7492743   -0.1353569   0.41092524   -1.7492743    1.6139174   439061 
 1567000    1.0739971   -1.7469535   -1.7469535  -0.13596163   0.40715174   -1.7469535    1.6109919   439061 
 1568000    1.0744178   -1.7475412   -1.7475412  -0.13591823   0.40691512   -1.7475412     1.611623   439061 
 1569000    1.0747065   -1.7486684   -1.7486684  -0.13661238   0.40489701   -1.7486684     1.612056   439061 
 1570000    1.0730636   -1.7478214   -1.7478214  -0.13822972   0.40661179   -1.7478214    1.6095917   439061 
 1571000    1.0739772    -1.749801    -1.749801   -0.1388388   0.40498537    -1.749801    1.6109622   439061 
 1572000    1.0750958   -1.7489736   -1.7489736  -0.13633358   0.40726571   -1.7489736      1.61264   439061 
 1573000    1.0753146   -1.7491314   -1.7491314  -0.13616312   0.40504667   -1.7491314    1.6129682   439061 
 1574000    1.0745267   -1.7486715   -1.7486715  -0.13688506   0.40738597   -1.7486715    1.6117864   439061 
 1575000    1.0740143   -1.7471838   -1.7471838  -0.13616602    0.4085854   -1.7471838    1.6110178   439061 
 1576000    1.0737603   -1.7480804   -1.7480804  -0.13744366    0.4053932   -1.7480804    1.6106368   439061 
 1577000    1.0741239   -1.7479476   -1.7479476  -0.13676552   0.40955797   -1.7479476    1.6111821   439061 
 1578000    1.0717924    -1.746603    -1.746603  -0.13891796   0.40891647    -1.746603     1.607685   439061 
 1579000    1.0738877   -1.7481906   -1.7481906  -0.13736273   0.40733204   -1.7481906    1.6108279   439061 
 1580000    1.0730295   -1.7473455   -1.7473455  -0.13780496   0.40413682   -1.7473455    1.6095406   439061 
 1581000    1.0738329   -1.7488362   -1.7488362  -0.13809053   0.40559205   -1.7488362    1.6107457   439061 
 1582000    1.0733697   -1.7481774   -1.7481774  -0.13812643    0.4010874   -1.7481774    1.6100509   439061 
 1583000    1.0735008   -1.7480213   -1.7480213  -0.13777372   0.41138458   -1.7480213    1.6102475   439061 
 1584000    1.0738097   -1.7489113   -1.7489113  -0.13820042   0.40405622   -1.7489113    1.6107109   439061 
 1585000    1.0734754   -1.7488615   -1.7488615  -0.13865202   0.40876315   -1.7488615    1.6102094   439061 
 1586000    1.0723782   -1.7481152   -1.7481152  -0.13955147   0.40943972   -1.7481152    1.6085637   439061 
 1587000    1.0732748   -1.7492427   -1.7492427  -0.13933417   0.40470382   -1.7492427    1.6099085   439061 
 1588000    1.0736076   -1.7499916   -1.7499916  -0.13958385   0.40074359   -1.7499916    1.6104078   439061 
 1589000    1.0720823   -1.7477755   -1.7477755  -0.13965576   0.40740466   -1.7477755    1.6081197   439061 
 1590000    1.0737214   -1.7498663   -1.7498663  -0.13928797   0.40878488   -1.7498663    1.6105784   439061 
 1591000    1.0726396    -1.748882    -1.748882  -0.13992636   0.40420591    -1.748882    1.6089557   439061 
 1592000    1.0733025   -1.7491823   -1.7491823  -0.13923214   0.40896041   -1.7491823    1.6099501   439061 
 1593000    1.0733249   -1.7493642   -1.7493642  -0.13938057   0.40557819   -1.7493642    1.6099837   439061 
 1594000    1.0730293   -1.7489968   -1.7489968  -0.13945653   0.40383848   -1.7489968    1.6095403   439061 
 1595000    1.0731503   -1.7494324   -1.7494324  -0.13971059   0.40814232   -1.7494324    1.6097218   439061 
 1596000    1.0735377   -1.7494283   -1.7494283  -0.13912537   0.40199849   -1.7494283    1.6103029   439061 
 1597000    1.0722465   -1.7485244   -1.7485244  -0.14015831   0.40909901   -1.7485244    1.6083661   439061 
 1598000     1.073481   -1.7492523   -1.7492523  -0.13903447   0.40407035   -1.7492523    1.6102179   439061 
 1599000    1.0734106   -1.7498604   -1.7498604  -0.13974817   0.40284605   -1.7498604    1.6101122   439061 
 1600000    1.0712968   -1.7481606   -1.7481606  -0.14121905   0.40569865   -1.7481606    1.6069415   439061 
 1601000    1.0718947   -1.7486464   -1.7486464  -0.14080812   0.40558107   -1.7486464    1.6078383   439061 
 1602000    1.0714717   -1.7474576   -1.7474576  -0.14025372   0.40645309   -1.7474576    1.6072039   439061 
 1603000    1.0730456   -1.7496778   -1.7496778  -0.14011306   0.40573833   -1.7496778    1.6095648   439061 
 1604000     1.071542   -1.7475501   -1.7475501  -0.14024078   0.40748555   -1.7475501    1.6073094   439061 
 1605000    1.0737759   -1.7509559   -1.7509559  -0.14029567   0.40285412   -1.7509559    1.6106602   439061 
 1606000    1.0719483   -1.7488351   -1.7488351  -0.14091642   0.40236409   -1.7488351    1.6079187   439061 
 1607000    1.0717444   -1.7481966   -1.7481966  -0.14058371   0.40462636   -1.7481966    1.6076129   439061 
 1608000    1.0716313   -1.7471738   -1.7471738  -0.13973056   0.40599779   -1.7471738    1.6074433   439061 
 1609000    1.0725326   -1.7488429   -1.7488429  -0.14004768   0.40867165   -1.7488429    1.6087952   439061 
 1610000    1.0724396   -1.7492056   -1.7492056  -0.14054988   0.40750582   -1.7492056    1.6086557   439061 
 1611000    1.0719227   -1.7484303   -1.7484303  -0.14054987   0.40881553   -1.7484303    1.6078804   439061 
 1612000    1.0728847    -1.750404    -1.750404   -0.1410807   0.40345795    -1.750404    1.6093233   439061 
 1613000    1.0708422   -1.7484554   -1.7484554  -0.14219579    0.4027328   -1.7484554    1.6062596   439061 
 1614000    1.0702204    -1.748515    -1.748515   -0.1431881   0.40541701    -1.748515    1.6053269   439061 
 1615000    1.0714833   -1.7481359   -1.7481359  -0.14091464   0.40662813   -1.7481359    1.6072213   439061 
 1616000    1.0738144   -1.7524161   -1.7524161  -0.14169813   0.40528426   -1.7524161     1.610718   439061 
 1617000     1.072331   -1.7495918   -1.7495918  -0.14109892   0.40493343   -1.7495918    1.6084929   439061 
 1618000    1.0714567   -1.7484012   -1.7484012  -0.14121982   0.40931861   -1.7484012    1.6071814   439061 
 1619000    1.0721379   -1.7496754   -1.7496754  -0.14147231   0.40472918   -1.7496754    1.6082031   439061 
 1620000    1.0724971   -1.7494427   -1.7494427   -0.1407006   0.40245202   -1.7494427    1.6087421   439061 
 1621000    1.0717321   -1.7491314   -1.7491314  -0.14153692   0.40608676   -1.7491314    1.6075945   439061 
 1622000    1.0719916   -1.7501502   -1.7501502  -0.14216636   0.40120353   -1.7501502    1.6079838   439061 
 1623000     1.070693    -1.748116    -1.748116  -0.14208012   0.40837218    -1.748116    1.6060359   439061 
 1624000    1.0725015   -1.7509665   -1.7509665   -0.1422178   0.40205716   -1.7509665    1.6087487   439061 
 1625000    1.0713791   -1.7476867   -1.7476867  -0.14062164   0.40686316   -1.7476867    1.6070651   439061 
 1626000    1.0712814   -1.7481473   -1.7481473  -0.14122884   0.40639141   -1.7481473    1.6069185   439061 
 1627000    1.0722996   -1.7500012   -1.7500012  -0.14155543    0.4003555   -1.7500012    1.6084458   439061 
 1628000    1.0729661   -1.7504661   -1.7504661  -0.14102061   0.40076264   -1.7504661    1.6094455   439061 
 1629000    1.0709014   -1.7488582   -1.7488582  -0.14250972   0.40269336   -1.7488582    1.6063485   439061 
 1630000    1.0715063   -1.7488395   -1.7488395  -0.14158373   0.40546427   -1.7488395    1.6072558   439061 
 1631000    1.0710656   -1.7483979   -1.7483979  -0.14180319   0.40445861   -1.7483979    1.6065948   439061 
 1632000    1.0725177   -1.7502863   -1.7502863  -0.14151336   0.40101944   -1.7502863    1.6087729   439061 
 1633000    1.0731828    -1.750467    -1.750467  -0.14069655   0.40665382    -1.750467    1.6097705   439061 
 1634000    1.0706419   -1.7464296   -1.7464296  -0.14047038   0.40863051   -1.7464296    1.6059593   439061 
 1635000    1.0722185   -1.7479948   -1.7479948  -0.13967066    0.4015456   -1.7479948    1.6083241   439061 
 1636000    1.0710926   -1.7477107   -1.7477107  -0.14107544   0.40899438   -1.7477107    1.6066352   439061 
 1637000      1.07235   -1.7489293   -1.7489293  -0.14040797   0.40465159   -1.7489293    1.6085214   439061 
 1638000    1.0718845   -1.7491798   -1.7491798  -0.14135671   0.40924382   -1.7491798    1.6078231   439061 
 1639000    1.0728608   -1.7483643   -1.7483643  -0.13907688   0.40110356   -1.7483643    1.6092875   439061 
 1640000    1.0722952   -1.7488048   -1.7488048  -0.14036576   0.40569217   -1.7488048    1.6084391   439061 
 1641000    1.0704191   -1.7469803   -1.7469803  -0.14135526   0.40790922   -1.7469803    1.6056251   439061 
 1642000    1.0723273   -1.7485612   -1.7485612  -0.14007392   0.40673828   -1.7485612    1.6084872   439061 
 1643000    1.0712489   -1.7484769   -1.7484769  -0.14160716   0.40213781   -1.7484769    1.6068697   439061 
 1644000    1.0709403   -1.7468117   -1.7468117  -0.14040498   0.40918246   -1.7468117    1.6064068   439061 
 1645000    1.0713743   -1.7485625   -1.7485625  -0.14150463   0.40404731   -1.7485625    1.6070578   439061 
 1646000    1.0717845   -1.7488916   -1.7488916  -0.14121849   0.40549586   -1.7488916    1.6076731   439061 
 1647000    1.0700927   -1.7475176   -1.7475176  -0.14238221   0.40130631   -1.7475176    1.6051354   439061 
 1648000    1.0698901   -1.7475191   -1.7475191  -0.14268751   0.40384052   -1.7475191    1.6048316   439061 
 1649000    1.0711678   -1.7484896   -1.7484896  -0.14174153   0.40343104   -1.7484896     1.606748   439061 
 1650000    1.0702159   -1.7481021   -1.7481021  -0.14278189   0.40358621   -1.7481021    1.6053202   439061 
 1651000    1.0713499   -1.7500733   -1.7500733  -0.14305215   0.40428392   -1.7500733    1.6070211   439061 
 1652000    1.0708032   -1.7506644   -1.7506644  -0.14446319   0.40219484   -1.7506644    1.6062012   439061 
 1653000    1.0701977   -1.7490654   -1.7490654  -0.14377251   0.40167132   -1.7490654    1.6052929   439061 
 1654000    1.0718353   -1.7504535   -1.7504535  -0.14270426   0.40628497   -1.7504535    1.6077493   439061 
 1655000     1.070435   -1.7478014   -1.7478014  -0.14215246   0.40844985   -1.7478014    1.6056489   439061 
 1656000    1.0710467   -1.7487506   -1.7487506  -0.14218418   0.40333852   -1.7487506    1.6065664   439061 
 1657000    1.0714211   -1.7502415   -1.7502415  -0.14311351   0.40448183   -1.7502415     1.607128   439061 
 1658000    1.0711629   -1.7517646   -1.7517646    -0.145024    0.4021564   -1.7517646    1.6067407   439061 
 1659000    1.0699683   -1.7481718   -1.7481718  -0.14322301   0.40144662   -1.7481718    1.6049487   439061 
 1660000    1.0712431    -1.749247    -1.749247    -0.142386   0.40259197    -1.749247     1.606861   439061 
 1661000    1.0709534   -1.7481351   -1.7481351  -0.14170871   0.40765943   -1.7481351    1.6064264   439061 
 1662000    1.0703546   -1.7468795   -1.7468795  -0.14135132   0.40377118   -1.7468795    1.6055282   439061 
 1663000    1.0710532    -1.749138    -1.749138  -0.14256188   0.40947376    -1.749138    1.6065761   439061 
 1664000    1.0706902   -1.7499654   -1.7499654  -0.14393379   0.40294395   -1.7499654    1.6060316   439061 
 1665000    1.0698026   -1.7482711   -1.7482711  -0.14357086   0.40415824   -1.7482711    1.6047002   439061 
 1666000    1.0693984   -1.7480478   -1.7480478  -0.14395398    0.4068975   -1.7480478    1.6040939   439061 
 1667000    1.0696965   -1.7496302   -1.7496302  -0.14508905   0.40150823   -1.7496302    1.6045411   439061 
 1668000    1.0711955   -1.7506368   -1.7506368  -0.14384723   0.40413347   -1.7506368    1.6067895   439061 
 1669000    1.0697228   -1.7488876   -1.7488876  -0.14430699   0.40186587   -1.7488876    1.6045806   439061 
 1670000    1.0690219   -1.7481271   -1.7481271  -0.14459795   0.39987207   -1.7481271    1.6035292   439061 
 1671000    1.0674329   -1.7483421   -1.7483421  -0.14719639   0.40468619   -1.7483421    1.6011458   439061 
 1672000    1.0682688    -1.748848    -1.748848  -0.14644838   0.39981139    -1.748848    1.6023996   439061 
 1673000    1.0690914   -1.7495734   -1.7495734  -0.14594002   0.39824889   -1.7495734    1.6036334   439061 
 1674000    1.0696575   -1.7499318   -1.7499318  -0.14544924   0.40000949   -1.7499318    1.6044826   439061 
 1675000     1.068994   -1.7488347   -1.7488347  -0.14534734   0.40436726   -1.7488347    1.6034874   439061 
 1676000    1.0696157   -1.7488577   -1.7488577  -0.14443778   0.40377922   -1.7488577    1.6044199   439061 
 1677000    1.0698792    -1.750518    -1.750518  -0.14570277   0.40444896    -1.750518    1.6048152   439061 
 1678000    1.0701999   -1.7514694   -1.7514694  -0.14617322   0.40163869   -1.7514694    1.6052962   439061 
 1679000    1.0698708   -1.7508785   -1.7508785  -0.14607598   0.40259957   -1.7508785    1.6048025   439061 
 1680000    1.0699647    -1.750565    -1.750565  -0.14562155   0.40130264    -1.750565    1.6049434   439061 
 1681000    1.0681868   -1.7496137   -1.7496137  -0.14733723   0.40225708   -1.7496137    1.6022765   439061 
 1682000    1.0691174   -1.7496843   -1.7496843  -0.14601185   0.40209853   -1.7496843    1.6036725   439061 
 1683000    1.0683123   -1.7485942   -1.7485942  -0.14612945   0.40873953   -1.7485942    1.6024648   439061 
 1684000    1.0687012   -1.7505624   -1.7505624  -0.14751434   0.40019057   -1.7505624    1.6030481   439061 
 1685000     1.067907   -1.7494323   -1.7494323   -0.1475754   0.40142414   -1.7494323    1.6018569   439061 
 1686000    1.0691984   -1.7508494   -1.7508494  -0.14705546   0.40116568   -1.7508494     1.603794   439061 
 1687000    1.0693837   -1.7503208   -1.7503208   -0.1462489   0.40273231   -1.7503208    1.6040719   439061 
 1688000    1.0677894   -1.7481784   -1.7481784  -0.14649793   0.40296544   -1.7481784    1.6016805   439061 
 1689000    1.0685392   -1.7494067   -1.7494067  -0.14660154   0.40128753   -1.7494067    1.6028052   439061 
 1690000    1.0682383   -1.7488396   -1.7488396  -0.14648584   0.40172649   -1.7488396    1.6023537   439061 
 1691000    1.0694732   -1.7499025   -1.7499025  -0.14569632   0.39658904   -1.7499025    1.6042061   439061 
 1692000    1.0686275   -1.7489362   -1.7489362  -0.14599854   0.40004935   -1.7489362    1.6029377   439061 
 1693000    1.0699366   -1.7498416   -1.7498416  -0.14494047   0.39919038   -1.7498416    1.6049012   439061 
 1694000    1.0699064   -1.7496546   -1.7496546  -0.14479874   0.39850767   -1.7496546    1.6048559   439061 
 1695000    1.0714028   -1.7495163   -1.7495163  -0.14241573   0.40336382   -1.7495163    1.6071005   439061 
 1696000    1.0693164   -1.7470116   -1.7470116  -0.14304065   0.40634503   -1.7470116    1.6039709   439061 
 1697000    1.0701458   -1.7487111   -1.7487111  -0.14349601   0.40271143   -1.7487111    1.6052151   439061 
 1698000     1.069709   -1.7489658   -1.7489658  -0.14440588   0.40473573   -1.7489658    1.6045599   439061 
 1699000    1.0704926   -1.7491721   -1.7491721  -0.14343681   0.40495078   -1.7491721    1.6057353   439061 
 1700000    1.0693631   -1.7498958   -1.7498958  -0.14585473   0.40081377   -1.7498958     1.604041   439061 
 1701000    1.0685754    -1.748908    -1.748908  -0.14604847   0.40299828    -1.748908    1.6028595   439061 
 1702000    1.0685026    -1.750026    -1.750026  -0.14727581   0.39880662    -1.750026    1.6027502   439061 
 1703000    1.0678023   -1.7480707   -1.7480707  -0.14637082   0.40330831   -1.7480707    1.6016998   439061 
 1704000    1.0692249   -1.7508626   -1.7508626  -0.14702887   0.40018958   -1.7508626    1.6038337   439061 
 1705000     1.067983   -1.7494342   -1.7494342  -0.14746334   0.40026662   -1.7494342    1.6019708   439061 
 1706000    1.0687605    -1.751228    -1.751228  -0.14809086   0.39789199    -1.751228    1.6031371   439061 
 1707000     1.067827   -1.7493342   -1.7493342   -0.1475974   0.40035931   -1.7493342    1.6017368   439061 
 1708000    1.0668151   -1.7501249   -1.7501249  -0.14990583   0.39817952   -1.7501249    1.6002191   439061 
 1709000    1.0678163   -1.7517831   -1.7517831  -0.15006236   0.39882156   -1.7517831    1.6017208   439061 
 1710000    1.0675741   -1.7507548   -1.7507548  -0.14939718   0.39714576   -1.7507548    1.6013576   439061 
 1711000     1.067058   -1.7501789   -1.7501789  -0.14959565   0.39944977   -1.7501789    1.6005833   439061 
 1712000    1.0673464   -1.7495061   -1.7495061  -0.14849014   0.40052129   -1.7495061     1.601016   439061 
 1713000    1.0667104   -1.7492512   -1.7492512  -0.14918936   0.40492247   -1.7492512    1.6000619   439061 
 1714000    1.0669407   -1.7485982   -1.7485982   -0.1481908   0.40224696   -1.7485982    1.6004074   439061 
 1715000    1.0679399   -1.7490558   -1.7490558  -0.14714967   0.40114714   -1.7490558    1.6019061   439061 
 1716000    1.0692497   -1.7505777   -1.7505777  -0.14670679   0.39795502   -1.7505777    1.6038709   439061 
 1717000    1.0672203   -1.7481352   -1.7481352  -0.14730842   0.40017114   -1.7481352    1.6008268   439061 
 1718000    1.0696066   -1.7512353   -1.7512353    -0.146829   0.40063719   -1.7512353    1.6044063   439061 
 1719000    1.0676355   -1.7488313   -1.7488313  -0.14738168   0.40331162   -1.7488313    1.6014496   439061 
 1720000    1.0685102   -1.7507808   -1.7507808  -0.14801908   0.39882001   -1.7507808    1.6027617   439061 
 1721000    1.0689444   -1.7508773   -1.7508773  -0.14746431   0.39515919   -1.7508773     1.603413   439061 
 1722000    1.0678259   -1.7497417   -1.7497417  -0.14800652   0.39625561   -1.7497417    1.6017352   439061 
 1723000    1.0682759   -1.7505759   -1.7505759  -0.14816569   0.40122994   -1.7505759    1.6024103   439061 
 1724000    1.0677259   -1.7492856   -1.7492856  -0.14770041   0.40211216   -1.7492856    1.6015852   439061 
 1725000    1.0681788   -1.7490547   -1.7490547  -0.14679015   0.40294547   -1.7490547    1.6022645   439061 
 1726000    1.0670965   -1.7473913   -1.7473913  -0.14675031   0.39984445   -1.7473913     1.600641   439061 
 1727000    1.0691976   -1.7504889   -1.7504889  -0.14669608   0.39805151   -1.7504889    1.6037928   439061 
 1728000    1.0689005   -1.7495778   -1.7495778  -0.14623063   0.39982287   -1.7495778    1.6033471   439061 
 1729000    1.0690944   -1.7501451   -1.7501451  -0.14650715   0.40016698   -1.7501451     1.603638   439061 
 1730000    1.0687754   -1.7492854   -1.7492854  -0.14612593   0.40330702   -1.7492854    1.6031595   439061 
 1731000    1.0668575   -1.7473028   -1.7473028  -0.14702018   0.40277578   -1.7473028    1.6002826   439061 
 1732000    1.0678901   -1.7476731   -1.7476731  -0.14584157   0.40343092   -1.7476731    1.6018316   439061 
 1733000    1.0694477   -1.7506352   -1.7506352  -0.14646732   0.39587291   -1.7506352    1.6041679   439061 
 1734000    1.0674973    -1.747559    -1.747559  -0.14631665   0.40541013    -1.747559    1.6012423   439061 
 1735000    1.0680864   -1.7482321   -1.7482321  -0.14610615   0.40124826   -1.7482321    1.6021259   439061 
 1736000    1.0690401   -1.7498998   -1.7498998  -0.14634334   0.39866425   -1.7498998    1.6035565   439061 
 1737000    1.0690241    -1.749871    -1.749871  -0.14633862   0.40068678    -1.749871    1.6035324   439061 
 1738000    1.0688532   -1.7497538   -1.7497538  -0.14647774   0.39937398   -1.7497538    1.6032761   439061 
 1739000    1.0666332   -1.7483529   -1.7483529  -0.14840679   0.40601785   -1.7483529    1.5999461   439061 
 1740000    1.0674722   -1.7502579   -1.7502579  -0.14905324   0.39959992   -1.7502579    1.6012047   439061 
 1741000    1.0681477   -1.7509472   -1.7509472  -0.14872934    0.3985553   -1.7509472    1.6022179   439061 
 1742000    1.0678902   -1.7505433   -1.7505433  -0.14871169   0.40335943   -1.7505433    1.6018316   439061 
 1743000    1.0667941   -1.7497018   -1.7497018  -0.14951426   0.39548936   -1.7497018    1.6001876   439061 
 1744000    1.0669556   -1.7487902   -1.7487902  -0.14836038   0.39803534   -1.7487902    1.6004298   439061 
 1745000    1.0682936   -1.7502587   -1.7502587  -0.14782196   0.39916862   -1.7502587    1.6024367   439061 
 1746000    1.0670562   -1.7495629   -1.7495629  -0.14898223   0.39977024   -1.7495629    1.6005807   439061 
 1747000    1.0684277   -1.7510304   -1.7510304  -0.14839253   0.40099581   -1.7510304    1.6026379   439061 
 1748000    1.0680272   -1.7508764   -1.7508764  -0.14883927   0.40146836   -1.7508764    1.6020372   439061 
 1749000    1.0675615    -1.750243    -1.750243  -0.14890435   0.39900716    -1.750243    1.6013386   439061 
 1750000    1.0671602   -1.7497678   -1.7497678  -0.14903106    0.3991677   -1.7497678    1.6007367   439061 
 1751000    1.0670143   -1.7495367   -1.7495367  -0.14901891   0.40306486   -1.7495367    1.6005178   439061 
 1752000     1.068337   -1.7511477   -1.7511477  -0.14864582   0.40013801   -1.7511477    1.6025019   439061 
 1753000    1.0673708   -1.7497149   -1.7497149  -0.14866236   0.40091202   -1.7497149    1.6010526   439061 
 1754000    1.0665362   -1.7492203   -1.7492203  -0.14941972   0.39966042   -1.7492203    1.5998006   439061 
 1755000    1.0667072   -1.7494323   -1.7494323  -0.14937514    0.4019719   -1.7494323    1.6000571   439061 
 1756000    1.0666087   -1.7504209   -1.7504209  -0.15051149   0.39610111   -1.7504209    1.5999094   439061 
 1757000     1.065381   -1.7494621   -1.7494621  -0.15139426   0.39714727   -1.7494621    1.5980678   439061 
 1758000    1.0671776   -1.7507257   -1.7507257  -0.14996303   0.39856866   -1.7507257    1.6007627   439061 
 1759000    1.0672195   -1.7505755   -1.7505755  -0.14974992   0.39799861   -1.7505755    1.6008256   439061 
 1760000    1.0665868   -1.7506515   -1.7506515  -0.15077495   0.39537287   -1.7506515    1.5998765   439061 
 1761000    1.0662521   -1.7504046   -1.7504046  -0.15103019   0.39878215   -1.7504046    1.5993745   439061 
 1762000    1.0664208   -1.7509062   -1.7509062  -0.15127867    0.3989728   -1.7509062    1.5996276   439061 
 1763000    1.0663122   -1.7498857   -1.7498857  -0.15042112   0.39627634   -1.7498857    1.5994646   439061 
 1764000    1.0669508   -1.7506768   -1.7506768  -0.15025429   0.39890829   -1.7506768    1.6004225   439061 
 1765000    1.0659303   -1.7505313   -1.7505313  -0.15163948   0.40184074   -1.7505313    1.5988919   439061 
 1766000    1.0672894   -1.7520555   -1.7520555  -0.15112507   0.39755146   -1.7520555    1.6009304   439061 
 1767000    1.0658328    -1.748551    -1.748551  -0.14980538   0.39803496    -1.748551    1.5987456   439061 
 1768000    1.0667678   -1.7507889   -1.7507889  -0.15064093    0.3990758   -1.7507889     1.600148   439061 
 1769000    1.0669786   -1.7506677   -1.7506677  -0.15020345    0.4023208   -1.7506677    1.6004642   439061 
 1770000    1.0653036   -1.7496217   -1.7496217  -0.15166988    0.3991402   -1.7496217    1.5979518   439061 
 1771000    1.0657248   -1.7503369   -1.7503369   -0.1517534   0.40128895   -1.7503369    1.5985835   439061 
 1772000     1.066026   -1.7527454   -1.7527454  -0.15371001   0.39747003   -1.7527454    1.5990354   439061 
 1773000    1.0656323    -1.751444    -1.751444  -0.15299919   0.40195431    -1.751444    1.5984448   439061 
 1774000     1.066916   -1.7523278   -1.7523278  -0.15195751   0.39429577   -1.7523278    1.6003703   439061 
 1775000    1.0655313   -1.7508681   -1.7508681  -0.15257482   0.39724044   -1.7508681    1.5982933   439061 
 1776000     1.065511   -1.7504266   -1.7504266  -0.15216382   0.39933317   -1.7504266    1.5982628   439061 
 1777000    1.0655545    -1.749815    -1.749815   -0.1514869   0.40182416    -1.749815     1.598328   439061 
 1778000    1.0659006   -1.7497268   -1.7497268  -0.15087956   0.40033534   -1.7497268    1.5988472   439061 
 1779000    1.0668044   -1.7502335   -1.7502335  -0.15003059   0.40088705   -1.7502335    1.6002029   439061 
 1780000     1.066807   -1.7489977   -1.7489977  -0.14879078    0.3974596   -1.7489977    1.6002069   439061 
 1781000    1.0663447   -1.7485613   -1.7485613  -0.14904793   0.40322592   -1.7485613    1.5995134   439061 
 1782000    1.0659792   -1.7487863   -1.7487863   -0.1498211   0.40191473   -1.7487863    1.5989652   439061 
 1783000    1.0665971   -1.7502197   -1.7502197   -0.1503277   0.39890666   -1.7502197     1.599892   439061 
 1784000    1.0668685   -1.7500045   -1.7500045  -0.14970538   0.40087132   -1.7500045    1.6002991   439061 
 1785000    1.0676816   -1.7520714   -1.7520714  -0.15055263   0.39544035   -1.7520714    1.6015188   439061 
 1786000    1.0658306   -1.7481892   -1.7481892   -0.1494469   0.40210116   -1.7481892    1.5987423   439061 
 1787000    1.0665455   -1.7490594   -1.7490594  -0.14924481   0.39981935   -1.7490594    1.5998146   439061 
 1788000     1.066436   -1.7493004   -1.7493004  -0.14965016   0.39839581   -1.7493004    1.5996503   439061 
 1789000    1.0662385   -1.7486738   -1.7486738  -0.14931965   0.40087824   -1.7486738    1.5993541   439061 
 1790000     1.066309   -1.7498408   -1.7498408  -0.15038093   0.39675154   -1.7498408    1.5994599   439061 
 1791000    1.0656738   -1.7496699   -1.7496699  -0.15116282   0.39898151   -1.7496699    1.5985071   439061 
 1792000      1.06659   -1.7507584   -1.7507584  -0.15087708   0.39884872   -1.7507584    1.5998813   439061 
 1793000    1.0651327   -1.7492476   -1.7492476  -0.15155212    0.4000253   -1.7492476    1.5976954   439061 
 1794000    1.0647718   -1.7494822   -1.7494822  -0.15232817   0.40095934   -1.7494822     1.597154   439061 
 1795000    1.0660207   -1.7509373   -1.7509373  -0.15190982   0.39879473   -1.7509373    1.5990275   439061 
 1796000    1.0661739   -1.7504037   -1.7504037  -0.15114645   0.39943711   -1.7504037    1.5992572   439061 
 1797000    1.0650818   -1.7494559   -1.7494559   -0.1518368   0.40182666   -1.7494559    1.5976191   439061 
 1798000     1.063942   -1.7486985   -1.7486985  -0.15278914   0.40191051   -1.7486985    1.5959093   439061 
 1799000    1.0648524   -1.7506826   -1.7506826  -0.15340751   0.39310844   -1.7506826     1.597275   439061 
 1800000    1.0644413   -1.7504621   -1.7504621  -0.15380377   0.40101015   -1.7504621    1.5966583   439061 
 1801000    1.0643073    -1.749527    -1.749527  -0.15306971   0.40103091    -1.749527    1.5964573   439061 
 1802000    1.0650348   -1.7513728   -1.7513728  -0.15382424    0.3996804   -1.7513728    1.5975485   439061 
 1803000    1.0651064   -1.7525883   -1.7525883  -0.15493228   0.39814184   -1.7525883     1.597656   439061 
 1804000    1.0644395   -1.7513646   -1.7513646  -0.15470905   0.39552758   -1.7513646    1.5966556   439061 
 1805000    1.0638968   -1.7510884   -1.7510884  -0.15524685   0.39465942   -1.7510884    1.5958416   439061 
 1806000    1.0639443   -1.7513421   -1.7513421  -0.15542938   0.39582174   -1.7513421    1.5959128   439061 
 1807000    1.0630697   -1.7513327   -1.7513327   -0.1567317   0.39413342   -1.7513327     1.594601   439061 
 1808000     1.064685   -1.7538179   -1.7538179   -0.1567941   0.39715863   -1.7538179    1.5970238   439061 
 1809000    1.0624341   -1.7509832   -1.7509832  -0.15733559    0.3953048   -1.7509832    1.5936476   439061 
 1810000    1.0631933   -1.7516752   -1.7516752  -0.15688893   0.40077647   -1.7516752    1.5947863   439061 
 1811000    1.0628321   -1.7504367   -1.7504367  -0.15619217   0.39793255   -1.7504367    1.5942445   439061 
 1812000    1.0634121   -1.7506347   -1.7506347  -0.15552023   0.39687032   -1.7506347    1.5951145   439061 
 1813000    1.0662363   -1.7528157   -1.7528157  -0.15346488   0.39490884   -1.7528157    1.5993509   439061 
 1814000    1.0641083   -1.7500132   -1.7500132  -0.15385444   0.39425926   -1.7500132    1.5961588   439061 
 1815000     1.063383   -1.7495251   -1.7495251  -0.15445418   0.39813958   -1.7495251    1.5950709   439061 
 1816000    1.0647054   -1.7527851   -1.7527851  -0.15573071   0.39265994   -1.7527851    1.5970544   439061 
 1817000    1.0642877   -1.7516726   -1.7516726  -0.15524478   0.39544352   -1.7516726    1.5964279   439061 
 1818000    1.0643475   -1.7500335   -1.7500335  -0.15351591   0.40195484   -1.7500335    1.5965176   439061 
 1819000    1.0648163   -1.7511264   -1.7511264  -0.15390559     0.393305   -1.7511264    1.5972209   439061 
 1820000     1.066094     -1.75258     -1.75258   -0.1534426   0.39858053     -1.75258    1.5991374   439061 
 1821000     1.065104   -1.7510334   -1.7510334  -0.15338106   0.39594292   -1.7510334    1.5976523   439061 
 1822000    1.0662427    -1.751725    -1.751725  -0.15236464   0.39651344    -1.751725    1.5993604   439061 
 1823000    1.0646957    -1.749394    -1.749394  -0.15235407    0.4005132    -1.749394    1.5970399   439061 
 1824000    1.0662802    -1.751681    -1.751681  -0.15226439   0.39964838    -1.751681    1.5994166   439061 
 1825000    1.0647624   -1.7505141   -1.7505141  -0.15337418   0.39791777   -1.7505141    1.5971399   439061 
 1826000    1.0649086   -1.7504452   -1.7504452  -0.15308591   0.39436528   -1.7504452    1.5973593   439061 
 1827000     1.064616   -1.7494608   -1.7494608  -0.15254047   0.39948243   -1.7494608    1.5969204   439061 
 1828000    1.0652611   -1.7511656   -1.7511656  -0.15327752   0.39968594   -1.7511656    1.5978881   439061 
 1829000    1.0638205   -1.7493565   -1.7493565  -0.15362936   0.39994445   -1.7493565    1.5957271   439061 
 1830000    1.0639858   -1.7488766   -1.7488766  -0.15290144   0.39973833   -1.7488766    1.5959751   439061 
 1831000    1.0651696   -1.7501051   -1.7501051  -0.15235438   0.39628475   -1.7501051    1.5977507   439061 
 1832000    1.0645668   -1.7501703   -1.7501703  -0.15332378   0.39904297   -1.7501703    1.5968465   439061 
 1833000    1.0641147   -1.7498798   -1.7498798  -0.15371131   0.40059906   -1.7498798    1.5961685   439061 
 1834000    1.0644789   -1.7525405   -1.7525405  -0.15582574   0.39656287   -1.7525405    1.5967147   439061 
 1835000    1.0647886   -1.7522768   -1.7522768   -0.1550975    0.3954255   -1.7522768    1.5971793   439061 
 1836000    1.0647836   -1.7505344   -1.7505344  -0.15336261   0.39763385   -1.7505344    1.5971718   439061 
 1837000    1.0628661   -1.7502517   -1.7502517  -0.15595609   0.39644698   -1.7502517    1.5942956   439061 
 1838000    1.0645695   -1.7519956   -1.7519956  -0.15514497   0.39636909   -1.7519956    1.5968506   439061 
 1839000    1.0638648   -1.7504994   -1.7504994  -0.15470593   0.39539426   -1.7504994    1.5957935   439061 
 1840000    1.0648551   -1.7513812   -1.7513812  -0.15410228   0.39779784   -1.7513812     1.597279   439061 
 1841000     1.063519    -1.750324    -1.750324  -0.15504916   0.39967729    -1.750324    1.5952748   439061 
 1842000    1.0645042   -1.7513148   -1.7513148  -0.15456206   0.39654234   -1.7513148    1.5967527   439061 
 1843000    1.0629178   -1.7503822   -1.7503822  -0.15600918   0.39537188   -1.7503822     1.594373   439061 
 1844000    1.0650805   -1.7525661   -1.7525661  -0.15494906   0.39713826   -1.7525661    1.5976171   439061 
 1845000     1.064002   -1.7509377   -1.7509377  -0.15493838   0.39666008   -1.7509377    1.5959993   439061 
 1846000    1.0641852   -1.7509742   -1.7509742      -0.1547   0.39958658   -1.7509742    1.5962742   439061 
 1847000    1.0643063   -1.7519391   -1.7519391  -0.15548325   0.39049658   -1.7519391    1.5964558   439061 
 1848000    1.0636993   -1.7501185   -1.7501185  -0.15457311   0.39601196   -1.7501185    1.5955454   439061 
 1849000    1.0650122   -1.7507733   -1.7507733  -0.15325863   0.39779289   -1.7507733    1.5975146   439061 
 1850000     1.064059   -1.7495269   -1.7495269  -0.15344201   0.39807635   -1.7495269    1.5960849   439061 
 1851000    1.0643215   -1.7489109   -1.7489109  -0.15243231    0.4016761   -1.7489109    1.5964786   439061 
 1852000    1.0642357   -1.7505231   -1.7505231  -0.15417309   0.39848097   -1.7505231      1.59635   439061 
 1853000     1.064327   -1.7504434   -1.7504434  -0.15395645   0.39352903   -1.7504434    1.5964869   439061 
 1854000    1.0642896   -1.7507281   -1.7507281  -0.15429739   0.40031939   -1.7507281    1.5964307   439061 
 1855000    1.0643393   -1.7510192   -1.7510192  -0.15451395   0.39710549   -1.7510192    1.5965053   439061 
 1856000    1.0633508   -1.7494849   -1.7494849  -0.15446238   0.39442106   -1.7494849    1.5950225   439061 
 1857000     1.065045   -1.7516076   -1.7516076  -0.15404375   0.39502142   -1.7516076    1.5975638   439061 
 1858000    1.0642756    -1.748998    -1.748998  -0.15258826   0.39698183    -1.748998    1.5964097   439061 
 1859000    1.0646675   -1.7501303   -1.7501303  -0.15313281   0.39645929   -1.7501303    1.5969975   439061 
 1860000    1.0639057   -1.7496933   -1.7496933  -0.15383842   0.40142325   -1.7496933    1.5958549   439061 
 1861000    1.0640635   -1.7497373   -1.7497373  -0.15364575   0.39584993   -1.7497373    1.5960915   439061 
 1862000      1.06438   -1.7498994   -1.7498994  -0.15333303   0.39902749   -1.7498994    1.5965664   439061 
 1863000    1.0641839   -1.7504577   -1.7504577  -0.15418552   0.39470076   -1.7504577    1.5962722   439061 
 1864000    1.0636469   -1.7500067   -1.7500067  -0.15453998   0.39836327   -1.7500067    1.5954667   439061 
 1865000    1.0650241   -1.7516844   -1.7516844  -0.15415187   0.39329246   -1.7516844    1.5975325   439061 
 1866000    1.0636844   -1.7510625   -1.7510625  -0.15553951   0.39506938   -1.7510625     1.595523   439061 
 1867000     1.063513   -1.7503572   -1.7503572  -0.15509122   0.39596203   -1.7503572    1.5952659   439061 
 1868000    1.0638673   -1.7505621   -1.7505621  -0.15476487   0.39512844   -1.7505621    1.5957973   439061 
 1869000    1.0644037   -1.7511154   -1.7511154   -0.1545135   0.39643387   -1.7511154    1.5966019   439061 
 1870000    1.0632807   -1.7502272   -1.7502272  -0.15530982   0.39348892   -1.7502272    1.5949174   439061 
 1871000    1.0643725   -1.7508521   -1.7508521  -0.15429693   0.39365549   -1.7508521    1.5965551   439061 
 1872000    1.0651872   -1.7515311   -1.7515311    -0.153754   0.39314649   -1.7515311    1.5977771   439061 
 1873000    1.0636734   -1.7504617   -1.7504617  -0.15495524   0.39647991   -1.7504617    1.5955064   439061 
 1874000    1.0642203    -1.751841    -1.751841   -0.1555142   0.39374397    -1.751841    1.5963268   439061 
 1875000    1.0638276   -1.7513975   -1.7513975   -0.1556598   0.39573196   -1.7513975    1.5957377   439061 
 1876000    1.0637795     -1.75122     -1.75122  -0.15555444   0.39643718     -1.75122    1.5956656   439061 
 1877000    1.0636828   -1.7511736   -1.7511736  -0.15565301   0.39690001   -1.7511736    1.5955206   439061 
 1878000    1.0637684   -1.7499351   -1.7499351  -0.15428618   0.40047129   -1.7499351    1.5956489   439061 
 1879000    1.0644184   -1.7510588   -1.7510588  -0.15443478   0.39460056   -1.7510588     1.596624   439061 
 1880000    1.0632348   -1.7496131   -1.7496131  -0.15476456   0.39741955   -1.7496131    1.5948485   439061 
 1881000    1.0632763   -1.7507619   -1.7507619  -0.15585106   0.39291386   -1.7507619    1.5949109   439061 
 1882000     1.062709   -1.7508299   -1.7508299  -0.15677009   0.39794384   -1.7508299    1.5940598   439061 
 1883000    1.0637284   -1.7515979   -1.7515979  -0.15600891    0.3936981   -1.7515979    1.5955889   439061 
 1884000    1.0630012   -1.7508476   -1.7508476  -0.15634953   0.39602865   -1.7508476    1.5944981   439061 
 1885000    1.0632982   -1.7517033   -1.7517033  -0.15675964   0.39697007   -1.7517033    1.5949436   439061 
 1886000    1.0630797    -1.750729    -1.750729  -0.15611316   0.39534147    -1.750729    1.5946158   439061 
 1887000     1.062738   -1.7489262   -1.7489262   -0.1548229   0.39965134   -1.7489262    1.5941033   439061 
 1888000    1.0638495   -1.7502795   -1.7502795  -0.15450883   0.39937973   -1.7502795    1.5957706   439061 
 1889000    1.0632713   -1.7499425   -1.7499425  -0.15503922    0.4001557   -1.7499425    1.5949033   439061 
 1890000    1.0649814   -1.7514058   -1.7514058  -0.15393732   0.39672635   -1.7514058    1.5974685   439061 
 1891000    1.0634848    -1.749596    -1.749596  -0.15437242   0.39498327    -1.749596    1.5952236   439061 
 1892000    1.0644461   -1.7513844   -1.7513844  -0.15471884   0.39317219   -1.7513844    1.5966655   439061 
 1893000     1.063773   -1.7499289   -1.7499289  -0.15427305   0.39893082   -1.7499289    1.5956559   439061 
 1894000    1.0643751   -1.7512177   -1.7512177  -0.15465875   0.39939054   -1.7512177     1.596559   439061 
 1895000    1.0629112   -1.7491968   -1.7491968  -0.15483361   0.39997149   -1.7491968    1.5943631   439061 
 1896000    1.0639191   -1.7516631   -1.7516631  -0.15578802   0.39258926   -1.7516631    1.5958751   439061 
 1897000    1.0637457   -1.7511828   -1.7511828  -0.15556794   0.39497368   -1.7511828    1.5956149   439061 
 1898000    1.0619272   -1.7488497   -1.7488497  -0.15596244   0.39579954   -1.7488497    1.5928872   439061 
 1899000     1.063495   -1.7513412   -1.7513412  -0.15610239    0.3944824   -1.7513412    1.5952388   439061 
 1900000    1.0633352   -1.7508501   -1.7508501  -0.15585095   0.39340579   -1.7508501    1.5949992   439061 
 1901000    1.0649946   -1.7512617   -1.7512617  -0.15377338   0.39722421   -1.7512617    1.5974883   439061 
 1902000    1.0646374    -1.751577    -1.751577  -0.15462456   0.39663564    -1.751577    1.5969524   439061 
 1903000    1.0642001   -1.7515336   -1.7515336   -0.1552371   0.39586329   -1.7515336    1.5962965   439061 
 1904000    1.0637389   -1.7504594   -1.7504594  -0.15485465   0.39531983   -1.7504594    1.5956047   439061 
 1905000    1.0629728   -1.7499759   -1.7499759  -0.15552037   0.39282226   -1.7499759    1.5944555   439061 
 1906000     1.062859   -1.7499402   -1.7499402  -0.15565536   0.39838099   -1.7499402    1.5942848   439061 
 1907000    1.0650523   -1.7532687   -1.7532687  -0.15569396   0.39417423   -1.7532687    1.5975748   439061 
 1908000    1.0627356   -1.7503999   -1.7503999  -0.15630012   0.39898635   -1.7503999    1.5940997   439061 
 1909000    1.0642889   -1.7516196   -1.7516196  -0.15518984   0.39059975   -1.7516196    1.5964297   439061 
 1910000    1.0632081   -1.7501773   -1.7501773  -0.15536885   0.39878119   -1.7501773    1.5948085   439061 
 1911000    1.0628769   -1.7504999   -1.7504999  -0.15618825    0.3977659   -1.7504999    1.5943117   439061 
 1912000    1.0628196   -1.7502752   -1.7502752  -0.15604949   0.39563065   -1.7502752    1.5942258   439061 
 1913000    1.0630798   -1.7517228   -1.7517228  -0.15710671   0.39658134   -1.7517228     1.594616   439061 
 1914000    1.0628796   -1.7507845   -1.7507845  -0.15646884     0.398369   -1.7507845    1.5943157   439061 
 1915000    1.0638311   -1.7521582   -1.7521582   -0.1564151   0.39005272   -1.7521582    1.5957431   439061 
 1916000    1.0621419   -1.7511912   -1.7511912  -0.15798206   0.39650226   -1.7511912    1.5932092   439061 
 1917000    1.0647288   -1.7528219   -1.7528219  -0.15573237   0.39269486   -1.7528219    1.5970895   439061 
 1918000     1.063269   -1.7510751   -1.7510751  -0.15617518   0.39552711   -1.7510751    1.5948999   439061 
 1919000      1.06404   -1.7525838   -1.7525838  -0.15652739   0.39559632   -1.7525838    1.5960564   439061 
 1920000    1.0628071   -1.7518492   -1.7518492  -0.15764216   0.39685496   -1.7518492     1.594207   439061 
 1921000    1.0610179   -1.7496492   -1.7496492  -0.15812601   0.40003216   -1.7496492    1.5915232   439061 
 1922000    1.0636223   -1.7531574   -1.7531574  -0.15772758   0.39080933   -1.7531574    1.5954298   439061 
 1923000     1.061915   -1.7498342   -1.7498342  -0.15696538   0.39724814   -1.7498342    1.5928688   439061 
 1924000    1.0628289   -1.7518289   -1.7518289  -0.15758914   0.39367856   -1.7518289    1.5942398   439061 
 1925000    1.0624878    -1.750931    -1.750931  -0.15720286   0.39372734    -1.750931    1.5937281   439061 
 1926000    1.0615606   -1.7490276   -1.7490276  -0.15669032   0.39428481   -1.7490276    1.5923373   439061 
 1927000      1.06283   -1.7512127   -1.7512127  -0.15697131   0.39489723   -1.7512127    1.5942414   439061 
 1928000      1.06168   -1.7494003   -1.7494003  -0.15688386   0.39584333   -1.7494003    1.5925164   439061 
 1929000    1.0634807   -1.7517708   -1.7517708  -0.15655338   0.39430639   -1.7517708    1.5952174   439061 
 1930000    1.0622829   -1.7507658   -1.7507658    -0.157345    0.3957417   -1.7507658    1.5934208   439061 
 1931000    1.0614754     -1.75087     -1.75087  -0.15866058    0.3970559     -1.75087    1.5922094   439061 
 1932000     1.061896   -1.7519698   -1.7519698  -0.15912939   0.39345746   -1.7519698    1.5928404   439061 
 1933000    1.0619034   -1.7528326   -1.7528326  -0.15998115   0.39589939   -1.7528326    1.5928514   439061 
 1934000    1.0614083   -1.7519844   -1.7519844  -0.15987563   0.38885231   -1.7519844    1.5921088   439061 
 1935000    1.0603348   -1.7503421   -1.7503421  -0.15984348   0.39207616   -1.7503421    1.5904986   439061 
 1936000    1.0608399   -1.7515037   -1.7515037   -0.1602474   0.39524128   -1.7515037    1.5912563   439061 
 1937000    1.0609134   -1.7508197   -1.7508197  -0.15945325   0.39005753   -1.7508197    1.5913664   439061 
 1938000    1.0614582   -1.7517067   -1.7517067  -0.15952298   0.39351323   -1.7517067    1.5921837   439061 
 1939000    1.0629391   -1.7519216   -1.7519216  -0.15751663   0.39433197   -1.7519216     1.594405   439061 
 1940000    1.0621962   -1.7501604   -1.7501604  -0.15686971   0.39656993   -1.7501604    1.5932907   439061 
 1941000    1.0618857   -1.7501946   -1.7501946  -0.15736973   0.39982974   -1.7501946    1.5928249   439061 
 1942000    1.0626205   -1.7518587   -1.7518587  -0.15793147   0.39388862   -1.7518587    1.5939272   439061 
 1943000    1.0606661   -1.7493735   -1.7493735  -0.15837795   0.39764468   -1.7493735    1.5909955   439061 
 1944000    1.0632707   -1.7525993   -1.7525993  -0.15769679   0.39457422   -1.7525993    1.5949025   439061 
 1945000     1.061538   -1.7496452   -1.7496452  -0.15734175    0.3980577   -1.7496452    1.5923034   439061 
 1946000    1.0620255     -1.75121     -1.75121  -0.15817545   0.39093806     -1.75121    1.5930345   439061 
 1947000    1.0626952   -1.7514509   -1.7514509  -0.15741178   0.39231684   -1.7514509    1.5940391   439061 
 1948000      1.06341   -1.7513646   -1.7513646  -0.15625327   0.39427595   -1.7513646    1.5951113   439061 
 1949000    1.0631153   -1.7507591   -1.7507591  -0.15608981   0.39609902   -1.7507591    1.5946693   439061 
 1950000    1.0616975   -1.7502141   -1.7502141  -0.15767147   0.39573722   -1.7502141    1.5925427   439061 
 1951000    1.0628299   -1.7512745   -1.7512745  -0.15703323   0.38981612   -1.7512745    1.5942412   439061 
 1952000    1.0627344    -1.751109    -1.751109  -0.15701099   0.39571189    -1.751109     1.594098   439061 
 1953000    1.0619202   -1.7497593   -1.7497593  -0.15688266   0.39718329   -1.7497593    1.5928767   439061 
 1954000    1.0623525   -1.7506342   -1.7506342  -0.15710915   0.39318011   -1.7506342    1.5935251   439061 
 1955000    1.0627507   -1.7506971   -1.7506971  -0.15657468   0.39264254   -1.7506971    1.5941225   439061 
 1956000    1.0629471   -1.7509495   -1.7509495  -0.15653256   0.39949001   -1.7509495    1.5944169   439061 
 1957000    1.0617321   -1.7490469   -1.7490469  -0.15645233   0.39846153   -1.7490469    1.5925946   439061 
 1958000    1.0619454   -1.7501279   -1.7501279  -0.15721345   0.39791425   -1.7501279    1.5929145   439061 
 1959000    1.0630177   -1.7503979   -1.7503979  -0.15587494   0.39284162   -1.7503979    1.5945229   439061 
 1960000    1.0612328   -1.7500953   -1.7500953  -0.15824965   0.39403721   -1.7500953    1.5918456   439061 
 1961000    1.0604303   -1.7494888   -1.7494888  -0.15884696   0.39657539   -1.7494888    1.5906418   439061 
 1962000    1.0615654   -1.7524973   -1.7524973  -0.16015276   0.39422596   -1.7524973    1.5923445   439061 
 1963000    1.0609979   -1.7514817   -1.7514817  -0.15998841   0.39353029   -1.7514817    1.5914933   439061 
 1964000    1.0615614   -1.7515281   -1.7515281  -0.15918965   0.39171299   -1.7515281    1.5923384   439061 
 1965000    1.0620463   -1.7526481   -1.7526481  -0.15958233   0.39170349   -1.7526481    1.5930658   439061 
 1966000    1.0620847   -1.7522178   -1.7522178  -0.15909434   0.39011333   -1.7522178    1.5931234   439061 
 1967000    1.0617556   -1.7517028   -1.7517028  -0.15907306   0.39102823   -1.7517028    1.5926298   439061 
 1968000    1.0616804   -1.7519155   -1.7519155  -0.15939854   0.39454375   -1.7519155    1.5925169   439061 
 1969000    1.0625112   -1.7516894   -1.7516894  -0.15792632   0.39483386   -1.7516894    1.5937631   439061 
 1970000    1.0623992    -1.751498    -1.751498  -0.15790287   0.39612292    -1.751498    1.5935951   439061 
 1971000     1.061904   -1.7511617   -1.7511617  -0.15830925   0.39669826   -1.7511617    1.5928524   439061 
 1972000     1.061805   -1.7513707   -1.7513707  -0.15866693   0.39350288   -1.7513707    1.5927038   439061 
 1973000    1.0611916   -1.7514014   -1.7514014  -0.15961761   0.39711544   -1.7514014    1.5917838   439061 
 1974000    1.0606273   -1.7513223   -1.7513223  -0.16038501   0.39549583   -1.7513223    1.5909373   439061 
 1975000    1.0618956   -1.7530574   -1.7530574  -0.16021758   0.39403487   -1.7530574    1.5928398   439061 
 1976000    1.0605521   -1.7520983   -1.7520983  -0.16127386   0.39138699   -1.7520983    1.5908245   439061 
 1977000    1.0591447    -1.750064    -1.750064  -0.16135051   0.39415241    -1.750064    1.5887135   439061 
 1978000    1.0594564   -1.7510036   -1.7510036   -0.1618227   0.39252224   -1.7510036    1.5891809   439061 
 1979000    1.0604584   -1.7514622   -1.7514622  -0.16077825   0.38956893   -1.7514622     1.590684   439061 
 1980000    1.0613475   -1.7520394   -1.7520394  -0.16002183   0.38922519   -1.7520394    1.5920176   439061 
 1981000     1.060983   -1.7525728   -1.7525728  -0.16110183   0.39107246   -1.7525728    1.5914709   439061 
 1982000     1.060524   -1.7524088   -1.7524088   -0.1616264   0.38911051   -1.7524088    1.5907824   439061 
 1983000    1.0604546   -1.7523868   -1.7523868  -0.16170854   0.39407022   -1.7523868    1.5906782   439061 
 1984000    1.0601831   -1.7514023   -1.7514023  -0.16113121   0.39250459   -1.7514023    1.5902711   439061 
 1985000    1.0607339   -1.7519201   -1.7519201  -0.16082277   0.39802339   -1.7519201    1.5910973   439061 
 1986000    1.0611705   -1.7527883   -1.7527883   -0.1610362   0.38803157   -1.7527883    1.5917521   439061 
 1987000    1.0608828   -1.7514677   -1.7514677  -0.16014706   0.39687066   -1.7514677    1.5913206   439061 
 1988000    1.0602579   -1.7507117   -1.7507117   -0.1603284   0.39257976   -1.7507117    1.5903833   439061 
 1989000    1.0615516   -1.7518415   -1.7518415  -0.15951767   0.39553436   -1.7518415    1.5923238   439061 
 1990000     1.061853   -1.7517288   -1.7517288  -0.15895296   0.39504838   -1.7517288    1.5927759   439061 
 1991000    1.0613902   -1.7507272   -1.7507272  -0.15864549    0.3962601   -1.7507272    1.5920817   439061 
 1992000    1.0627175   -1.7546023   -1.7546023   -0.1605296   0.38908566   -1.7546023    1.5940727   439061 
 1993000    1.0609793    -1.751912    -1.751912  -0.16044671    0.3900224    -1.751912    1.5914653   439061 
 1994000    1.0589448   -1.7501697   -1.7501697  -0.16175616   0.39539508   -1.7501697    1.5884136   439061 
 1995000    1.0592072   -1.7507055   -1.7507055  -0.16189828    0.3926498   -1.7507055    1.5888072   439061 
 1996000    1.0618943   -1.7531903   -1.7531903  -0.16035252   0.39180324   -1.7531903    1.5928378   439061 
 1997000    1.0619476   -1.7535877   -1.7535877  -0.16066988   0.39472517   -1.7535877    1.5929178   439061 
 1998000    1.0588196   -1.7502049   -1.7502049  -0.16197909   0.39372104   -1.7502049    1.5882258   439061 
 1999000    1.0598518   -1.7511014   -1.7511014  -0.16132733   0.39860684   -1.7511014     1.589774   439061 
 2000000     1.060079   -1.7513534   -1.7513534  -0.16123849    0.3976156   -1.7513534    1.5901149   439061 
 2001000    1.0605332   -1.7516525   -1.7516525   -0.1608564   0.39341962   -1.7516525    1.5907961   439061 
 2002000    1.0614568   -1.7514365   -1.7514365  -0.15925487   0.39411386   -1.7514365    1.5921816   439061 
 2003000    1.0619263   -1.7520422   -1.7520422   -0.1591563   0.39372552   -1.7520422    1.5928859   439061 
 2004000    1.0614662   -1.7513265   -1.7513265   -0.1591309   0.39254143   -1.7513265    1.5921956   439061 
 2005000    1.0610885   -1.7522045   -1.7522045  -0.16057542   0.39164901   -1.7522045    1.5916291   439061 
 2006000    1.0598102   -1.7507219   -1.7507219  -0.16101029   0.39429627   -1.7507219    1.5897116   439061 
 2007000    1.0605559   -1.7516752   -1.7516752  -0.16084495    0.3947647   -1.7516752    1.5908303   439061 
 2008000    1.0599275   -1.7510399   -1.7510399  -0.16115231   0.39374164   -1.7510399    1.5898876   439061 
 2009000    1.0601883   -1.7517813   -1.7517813  -0.16150251   0.38899216   -1.7517813    1.5902788   439061 
 2010000    1.0600948   -1.7522362   -1.7522362  -0.16209764   0.39545962   -1.7522362    1.5901386   439061 
 2011000    1.0596264   -1.7521963   -1.7521963   -0.1627604   0.39364353   -1.7521963    1.5894359   439061 
 2012000    1.0590152   -1.7514077   -1.7514077   -0.1628886   0.39581143   -1.7514077    1.5885191   439061 
 2013000    1.0590102    -1.751202    -1.751202  -0.16269038   0.39078246    -1.751202    1.5885116   439061 
 2014000    1.0596956   -1.7522851   -1.7522851  -0.16274538   0.39236948   -1.7522851    1.5895397   439061 
 2015000    1.0590052   -1.7513026   -1.7513026  -0.16279838   0.39308797   -1.7513026    1.5885042   439061 
 2016000    1.0592859   -1.7514871   -1.7514871   -0.1625619   0.39021204   -1.7514871    1.5889252   439061 
 2017000    1.0594601   -1.7522007   -1.7522007  -0.16301417   0.39402197   -1.7522007    1.5891865   439061 
 2018000    1.0600044    -1.751924    -1.751924  -0.16192114    0.3947255    -1.751924    1.5900029   439061 
 2019000     1.060217    -1.751012    -1.751012  -0.16069005   0.39478389    -1.751012     1.590322   439061 
 2020000     1.059672   -1.7492508   -1.7492508  -0.15974637   0.39734582   -1.7492508    1.5895044   439061 
 2021000    1.0617277   -1.7518092   -1.7518092  -0.15922122   0.39468376   -1.7518092     1.592588   439061 
 2022000    1.0609585    -1.750496    -1.750496  -0.15906195    0.3953579    -1.750496    1.5914341   439061 
 2023000    1.0614039   -1.7504296   -1.7504296  -0.15832741   0.39601109   -1.7504296    1.5921022   439061 
 2024000    1.0618964   -1.7523415   -1.7523415  -0.15950054   0.39462331   -1.7523415     1.592841   439061 
 2025000    1.0608583   -1.7511194   -1.7511194  -0.15983567   0.39307443   -1.7511194    1.5912838   439061 
 2026000    1.0602473    -1.749322    -1.749322  -0.15895461   0.40293228    -1.749322    1.5903674   439061 
 2027000    1.0615701   -1.7513618   -1.7513618  -0.15901027   0.39339556   -1.7513618    1.5923515   439061 
 2028000    1.0611671   -1.7501024   -1.7501024  -0.15835539   0.39722551   -1.7501024     1.591747   439061 
 2029000    1.0615763   -1.7537186   -1.7537186   -0.1613578   0.38943182   -1.7537186    1.5923608   439061 
 2030000    1.0595924   -1.7499025   -1.7499025  -0.16051743   0.39513145   -1.7499025     1.589385   439061 
 2031000    1.0609076   -1.7517943   -1.7517943  -0.16043656   0.39211508   -1.7517943    1.5913578   439061 
 2032000    1.0587224   -1.7506274   -1.7506274  -0.16254743   0.39431012   -1.7506274    1.5880799   439061 
 2033000    1.0602188   -1.7510182   -1.7510182  -0.16069367   0.39037494   -1.7510182    1.5903246   439061 
 2034000    1.0610298    -1.752312    -1.752312  -0.16077095   0.39220555    -1.752312    1.5915411   439061 
 2035000    1.0600515   -1.7520213   -1.7520213  -0.16194775    0.3921605   -1.7520213    1.5900736   439061 
 2036000    1.0604078   -1.7527688   -1.7527688  -0.16216073   0.39075385   -1.7527688    1.5906081   439061 
 2037000    1.0599251   -1.7522677   -1.7522677  -0.16238369   0.38750709   -1.7522677     1.589884   439061 
 2038000    1.0593994   -1.7507793   -1.7507793  -0.16168384    0.3942707   -1.7507793    1.5890955   439061 
 2039000    1.0594113   -1.7499395   -1.7499395  -0.16082618   0.39296886   -1.7499395    1.5891133   439061 
 2040000    1.0602855   -1.7522047   -1.7522047   -0.1617801   0.39269474   -1.7522047    1.5904246   439061 
 2041000     1.059739   -1.7524909   -1.7524909  -0.16288601   0.39323845   -1.7524909    1.5896049   439061 
 2042000    1.0606519   -1.7524343   -1.7524343  -0.16146006   0.39142686   -1.7524343    1.5909742   439061 
 2043000    1.0620682   -1.7539453   -1.7539453  -0.16084663   0.39123061   -1.7539453    1.5930987   439061 
 2044000    1.0592685   -1.7513713   -1.7513713  -0.16247217   0.39464037   -1.7513713    1.5888991   439061 
 2045000    1.0603036   -1.7529399   -1.7529399  -0.16248813   0.39010007   -1.7529399    1.5904518   439061 
 2046000     1.060347   -1.7537736   -1.7537736  -0.16325677    0.3881279   -1.7537736    1.5905169   439061 
 2047000    1.0593889    -1.751974    -1.751974  -0.16289428   0.39170852    -1.751974    1.5890797   439061 
 2048000    1.0601398   -1.7529435   -1.7529435  -0.16273743   0.39315144   -1.7529435    1.5902061   439061 
 2049000    1.0596858   -1.7524417   -1.7524417  -0.16291661   0.39270417   -1.7524417     1.589525   439061 
 2050000    1.0597128   -1.7515676   -1.7515676  -0.16200201   0.39395357   -1.7515676    1.5895655   439061 
 2051000    1.0595023   -1.7509267   -1.7509267  -0.16167693   0.39554915   -1.7509267    1.5892498   439061 
 2052000    1.0614448   -1.7517665   -1.7517665  -0.15960295   0.39224945   -1.7517665    1.5921635   439061 
 2053000    1.0601472   -1.7519684   -1.7519684  -0.16175119   0.39712021   -1.7519684    1.5902172   439061 
 2054000      1.05845    -1.749983    -1.749983  -0.16231161   0.39539071    -1.749983    1.5876714   439061 
 2055000    1.0608333   -1.7529716   -1.7529716  -0.16172515   0.38768848   -1.7529716    1.5912464   439061 
 2056000     1.059458   -1.7506243   -1.7506243  -0.16144095   0.39333706   -1.7506243    1.5891833   439061 
 2057000    1.0603299   -1.7518211   -1.7518211  -0.16132984   0.39063241   -1.7518211    1.5904912   439061 
 2058000    1.0591271   -1.7515969   -1.7515969  -0.16290986    0.3927691   -1.7515969     1.588687   439061 
 2059000    1.0609917   -1.7533134   -1.7533134  -0.16182943   0.38899094   -1.7533134    1.5914839   439061 
 2060000     1.058891   -1.7506029   -1.7506029  -0.16227003   0.39214987   -1.7506029    1.5883328   439061 
 2061000    1.0604473   -1.7512628   -1.7512628  -0.16059538   0.39535637   -1.7512628    1.5906674   439061 
 2062000    1.0596959   -1.7510235   -1.7510235  -0.16148324   0.38893256   -1.7510235    1.5895403   439061 
 2063000    1.0589595   -1.7503344   -1.7503344  -0.16189867   0.39231975   -1.7503344    1.5884357   439061 
 2064000    1.0590031   -1.7512291   -1.7512291  -0.16272807   0.39206932   -1.7512291     1.588501   439061 
 2065000    1.0580571   -1.7500293   -1.7500293  -0.16294719   0.39172026   -1.7500293    1.5870821   439061 
 2066000    1.0574954   -1.7489163   -1.7489163  -0.16267676   0.39229717   -1.7489163    1.5862395   439061 
 2067000     1.058894   -1.7505487   -1.7505487  -0.16221134   0.39629213   -1.7505487    1.5883373   439061 
 2068000     1.060273   -1.7527189   -1.7527189  -0.16231298   0.39462989   -1.7527189    1.5904059   439061 
 2069000    1.0599775   -1.7517891   -1.7517891  -0.16182641   0.38710048   -1.7517891    1.5899627   439061 
 2070000    1.0609889   -1.7532844   -1.7532844  -0.16180468   0.38829161   -1.7532844    1.5914798   439061 
 2071000    1.0593773   -1.7510184   -1.7510184  -0.16195601   0.39270071   -1.7510184    1.5890624   439061 
 2072000    1.0594873   -1.7517528   -1.7517528  -0.16252547   0.39245233   -1.7517528    1.5892273   439061 
 2073000    1.0589567   -1.7515463   -1.7515463  -0.16311487    0.3912483   -1.7515463    1.5884315   439061 
 2074000    1.0596405   -1.7527846   -1.7527846   -0.1633275   0.38706403   -1.7527846    1.5894571   439061 
 2075000    1.0597215   -1.7519225   -1.7519225  -0.16234381   0.39249454   -1.7519225    1.5895787   439061 
 2076000     1.057934   -1.7506018   -1.7506018   -0.1637044   0.39479697   -1.7506018    1.5868974   439061 
 2077000    1.0597046   -1.7546687   -1.7546687  -0.16511548    0.3864179   -1.7546687    1.5895532   439061 
 2078000    1.0582021   -1.7525868   -1.7525868  -0.16528727   0.38953442   -1.7525868    1.5872995   439061 
 2079000    1.0566137   -1.7506442   -1.7506442  -0.16572726   0.39236951   -1.7506442     1.584917   439061 
 2080000    1.0573681   -1.7504735   -1.7504735  -0.16442496    0.3918204   -1.7504735    1.5860485   439061 
 2081000    1.0584545   -1.7522384   -1.7522384   -0.1645603    0.3910375   -1.7522384    1.5876781   439061 
 2082000    1.0600494    -1.754741    -1.754741  -0.16467049   0.39345459    -1.754741    1.5900705   439061 
 2083000    1.0587862   -1.7516087   -1.7516087  -0.16343302   0.39248631   -1.7516087    1.5881757   439061 
 2084000    1.0595656   -1.7529825   -1.7529825  -0.16363779    0.3915672   -1.7529825    1.5893447   439061 
 2085000    1.0596708   -1.7525345   -1.7525345  -0.16303194   0.39153204   -1.7525345    1.5895025   439061 
 2086000    1.0595458   -1.7518494   -1.7518494  -0.16253432   0.39019721   -1.7518494    1.5893151   439061 
 2087000    1.0579868   -1.7509672   -1.7509672  -0.16399059   0.39087069   -1.7509672    1.5869766   439061 
 2088000     1.059129   -1.7521522   -1.7521522  -0.16346238   0.39459195   -1.7521522    1.5886898   439061 
 2089000    1.0584416   -1.7511156   -1.7511156  -0.16345672   0.39182725   -1.7511156    1.5876588   439061 
 2090000    1.0584576   -1.7508854   -1.7508854  -0.16320267    0.3921259   -1.7508854    1.5876827   439061 
 2091000    1.0592869   -1.7524214   -1.7524214  -0.16349476    0.3906601   -1.7524214    1.5889267   439061 
 2092000    1.0590422   -1.7521128   -1.7521128  -0.16355317   0.38888834   -1.7521128    1.5885597   439061 
 2093000    1.0591881   -1.7522339   -1.7522339   -0.1634554   0.38978302   -1.7522339    1.5887785   439061 
 2094000    1.0583879   -1.7526915   -1.7526915  -0.16511329   0.38625051   -1.7526915    1.5875782   439061 
 2095000    1.0578336   -1.7511194   -1.7511194  -0.16437263   0.39128733   -1.7511194    1.5867467   439061 
 2096000    1.0581779   -1.7518367   -1.7518367  -0.16457344   0.38919435   -1.7518367    1.5872632   439061 
 2097000     1.059512    -1.753587    -1.753587   -0.1643227    0.3888736    -1.753587    1.5892643   439061 
 2098000    1.0582393   -1.7525219   -1.7525219  -0.16516652   0.39028111   -1.7525219    1.5873553   439061 
 2099000    1.0582254    -1.752129    -1.752129  -0.16479459   0.39342741    -1.752129    1.5873344   439061 
 2100000    1.0590094   -1.7528881   -1.7528881  -0.16437762   0.39031457   -1.7528881    1.5885105   439061 
 2101000    1.0587697   -1.7520983   -1.7520983  -0.16394741   0.38662197   -1.7520983    1.5881509   439061 
 2102000    1.0586176   -1.7510626   -1.7510626  -0.16313986   0.39043749   -1.7510626    1.5879227   439061 
 2103000    1.0596812   -1.7533082   -1.7533082  -0.16378999   0.38766316   -1.7533082    1.5895182   439061 
 2104000    1.0582306   -1.7518853   -1.7518853  -0.16454303   0.39157376   -1.7518853    1.5873423   439061 
 2105000    1.0586146   -1.7528965   -1.7528965  -0.16497819   0.38595934   -1.7528965    1.5879183   439061 
 2106000    1.0576305   -1.7517259   -1.7517259  -0.16528372   0.38903244   -1.7517259    1.5864421   439061 
 2107000    1.0572321   -1.7512006   -1.7512006  -0.16535601   0.39115561   -1.7512006    1.5858446   439061 
 2108000    1.0586888    -1.753738    -1.753738  -0.16570836   0.39134986    -1.753738    1.5880296   439061 
 2109000    1.0570103   -1.7514184   -1.7514184   -0.1659066   0.39232698   -1.7514184    1.5855118   439061 
 2110000    1.0578451   -1.7514211   -1.7514211  -0.16465716   0.39102267   -1.7514211     1.586764   439061 
 2111000    1.0585364   -1.7533048   -1.7533048  -0.16550382   0.39038919   -1.7533048     1.587801   439061 
 2112000    1.0588262   -1.7543251   -1.7543251  -0.16608945   0.38663232   -1.7543251    1.5882356   439061 
 2113000    1.0568705    -1.751869    -1.751869  -0.16656685   0.39110511    -1.751869    1.5853021   439061 
 2114000    1.0572658   -1.7528108   -1.7528108   -0.1669156   0.38795125   -1.7528108    1.5858952   439061 
 2115000    1.0572119    -1.751712    -1.751712  -0.16589772   0.39213898    -1.751712    1.5858143   439061 
 2116000     1.058013   -1.7521758   -1.7521758   -0.1651599   0.38842637   -1.7521758    1.5870159   439061 
 2117000    1.0583764    -1.752666    -1.752666  -0.16510514   0.39220519    -1.752666    1.5875609   439061 
 2118000    1.0567886    -1.750067    -1.750067  -0.16488774   0.39573481    -1.750067    1.5851793   439061 
 2119000    1.0589649   -1.7533612   -1.7533612  -0.16491746   0.38828927   -1.7533612    1.5884437   439061 
 2120000    1.0575876   -1.7510706   -1.7510706  -0.16469284   0.38813114   -1.7510706    1.5863778   439061 
 2121000    1.0579273   -1.7507908   -1.7507908  -0.16390347   0.39363992   -1.7507908    1.5868873   439061 
 2122000    1.0581694   -1.7512148   -1.7512148  -0.16396429   0.39242331   -1.7512148    1.5872505   439061 
 2123000    1.0575325   -1.7494863   -1.7494863  -0.16319118   0.39199422   -1.7494863    1.5862951   439061 
 2124000    1.0581305   -1.7517254   -1.7517254  -0.16453325   0.39014354   -1.7517254    1.5871922   439061 
 2125000     1.057408   -1.7500153   -1.7500153  -0.16390689   0.39056892   -1.7500153    1.5861085   439061 
 2126000    1.0587838   -1.7514922   -1.7514922  -0.16332013   0.39722899   -1.7514922     1.588172   439061 
 2127000    1.0578417   -1.7514248   -1.7514248  -0.16466583   0.39339687   -1.7514248     1.586759   439061 
 2128000    1.0572324    -1.751313    -1.751313    -0.165468   0.39252004    -1.751313     1.585845   439061 
 2129000    1.0577379   -1.7523242   -1.7523242  -0.16572102   0.38494479   -1.7523242    1.5866032   439061 
 2130000    1.0587409    -1.752169    -1.752169  -0.16406129   0.39258344    -1.752169    1.5881077   439061 
 2131000    1.0589593   -1.7525252   -1.7525252  -0.16408995     0.388144   -1.7525252    1.5884353   439061 
 2132000    1.0567046   -1.7513914   -1.7513914  -0.16633813   0.38887169   -1.7513914    1.5850533   439061 
 2133000    1.0580265    -1.752611    -1.752611  -0.16557488   0.39037168    -1.752611    1.5870361   439061 
 2134000    1.0560197   -1.7506382   -1.7506382  -0.16661221   0.38862787   -1.7506382     1.584026   439061 
 2135000    1.0565459    -1.752145    -1.752145  -0.16732976   0.38907888    -1.752145    1.5848153   439061 
 2136000    1.0557684   -1.7501112   -1.7501112  -0.16646211   0.39277926   -1.7501112    1.5836491   439061 
 2137000    1.0571459   -1.7523576   -1.7523576  -0.16664241   0.38914956   -1.7523576    1.5857152   439061 
 2138000    1.0567994   -1.7529669   -1.7529669  -0.16777137   0.39097047   -1.7529669    1.5851956   439061 
 2139000    1.0573765   -1.7533194   -1.7533194  -0.16725828   0.38811724   -1.7533194    1.5860611   439061 
 2140000    1.0561398   -1.7508343   -1.7508343  -0.16662821   0.38799388   -1.7508343    1.5842061   439061 
 2141000    1.0565236   -1.7517127   -1.7517127  -0.16693101   0.38654548   -1.7517127    1.5847817   439061 
 2142000    1.0573176   -1.7526664   -1.7526664  -0.16669368   0.39219569   -1.7526664    1.5859727   439061 
 2143000    1.0564582   -1.7505174   -1.7505174  -0.16583373   0.39097395   -1.7505174    1.5846837   439061 
 2144000    1.0563563   -1.7517258   -1.7517258  -0.16719498   0.39120432   -1.7517258    1.5845308   439061 
 2145000    1.0556947    -1.750639    -1.750639  -0.16710051   0.39422999    -1.750639    1.5835385   439061 
 2146000    1.0560644   -1.7531305   -1.7531305  -0.16903758   0.38884383   -1.7531305    1.5840929   439061 
 2147000    1.0562314   -1.7529064   -1.7529064  -0.16856289   0.38711991   -1.7529064    1.5843435   439061 
 2148000    1.0569786   -1.7529228   -1.7529228  -0.16745862   0.39117415   -1.7529228    1.5854642   439061 
 2149000    1.0567953   -1.7542407   -1.7542407  -0.16905136   0.38599774   -1.7542407    1.5851893   439061 
 2150000    1.0548295   -1.7507142   -1.7507142  -0.16847356   0.39262301   -1.7507142    1.5822406   439061 
 2151000    1.0554399   -1.7515091   -1.7515091  -0.16835286    0.3875824   -1.7515091    1.5831563   439061 
 2152000    1.0569795   -1.7537206   -1.7537206  -0.16825486   0.38707365   -1.7537206    1.5854657   439061 
 2153000    1.0567692    -1.753257    -1.753257  -0.16810683   0.38495305    -1.753257    1.5851502   439061 
 2154000    1.0579208   -1.7529445   -1.7529445  -0.16606689   0.39226108   -1.7529445    1.5868776   439061 
 2155000    1.0560071   -1.7507054   -1.7507054  -0.16669831   0.39027517   -1.7507054    1.5840071   439061 
 2156000    1.0560634   -1.7520516   -1.7520516  -0.16796004   0.38308172   -1.7520516    1.5840915   439061 
 2157000    1.0572723   -1.7533333   -1.7533333  -0.16742844    0.3839834   -1.7533333    1.5859048   439061 
 2158000    1.0565342   -1.7513605   -1.7513605  -0.16656285   0.39171938   -1.7513605    1.5847976   439061 
 2159000     1.058173   -1.7544285   -1.7544285  -0.16717261   0.38406695   -1.7544285    1.5872559   439061 
 2160000    1.0569285   -1.7532797   -1.7532797  -0.16789061   0.38759026   -1.7532797    1.5853891   439061 
 2161000    1.0555779   -1.7525349   -1.7525349  -0.16917166   0.38751086   -1.7525349    1.5833632   439061 
 2162000    1.0558365   -1.7532573   -1.7532573  -0.16950622   0.38831885   -1.7532573    1.5837511   439061 
 2163000    1.0565258   -1.7531508   -1.7531508  -0.16836581   0.38239227   -1.7531508     1.584785   439061 
 2164000     1.055285   -1.7502494   -1.7502494  -0.16732555    0.3897199   -1.7502494    1.5829239   439061 
 2165000    1.0565167    -1.752398    -1.752398  -0.16762649   0.38785209    -1.752398    1.5847715   439061 
 2166000    1.0565558   -1.7527876   -1.7527876  -0.16795751   0.39174295   -1.7527876    1.5848301   439061 
 2167000     1.056041   -1.7529526   -1.7529526  -0.16889478   0.38737707   -1.7529526    1.5840579   439061 
 2168000    1.0551293   -1.7521693   -1.7521693  -0.16947889   0.38693421   -1.7521693    1.5826904   439061 
 2169000    1.0559519   -1.7528025   -1.7528025  -0.16887824   0.38978655   -1.7528025    1.5839243   439061 
 2170000    1.0573695   -1.7542955   -1.7542955  -0.16824483   0.38876796   -1.7542955    1.5860507   439061 
 2171000    1.0564843   -1.7519387   -1.7519387  -0.16721593   0.39013836   -1.7519387    1.5847228   439061 
 2172000    1.0570205   -1.7537799   -1.7537799  -0.16825284   0.38806296   -1.7537799    1.5855271   439061 
 2173000    1.0559711   -1.7523681   -1.7523681    -0.168415   0.39056947   -1.7523681    1.5839531   439061 
 2174000    1.0567434   -1.7529129   -1.7529129   -0.1678015   0.38566605   -1.7529129    1.5851114   439061 
 2175000    1.0559417   -1.7511929   -1.7511929  -0.16728394   0.39077505   -1.7511929     1.583909   439061 
 2176000    1.0564714   -1.7519934   -1.7519934  -0.16728992   0.38562103   -1.7519934    1.5847035   439061 
 2177000     1.057698   -1.7524492   -1.7524492  -0.16590582   0.39142033   -1.7524492    1.5865434   439061 
 2178000    1.0570622   -1.7519833   -1.7519833  -0.16639352   0.38729262   -1.7519833    1.5855897   439061 
 2179000    1.0565751   -1.7512874   -1.7512874  -0.16642844    0.3909258   -1.7512874     1.584859   439061 
 2180000    1.0561333   -1.7518704   -1.7518704  -0.16767402   0.38794028   -1.7518704    1.5841964   439061 
 2181000    1.0570557   -1.7525486   -1.7525486   -0.1669686   0.38618491   -1.7525486      1.58558   439061 
 2182000     1.056783   -1.7520312   -1.7520312  -0.16686031   0.38537132   -1.7520312    1.5851709   439061 
 2183000    1.0558754   -1.7510295   -1.7510295  -0.16721996   0.38927863   -1.7510295    1.5838095   439061 
 2184000     1.057257   -1.7522256   -1.7522256  -0.16634378   0.39147241   -1.7522256    1.5858818   439061 
 2185000    1.0576661   -1.7518918   -1.7518918  -0.16539627    0.3876589   -1.7518918    1.5864955   439061 
 2186000    1.0574435     -1.75238     -1.75238  -0.16621845   0.38562202     -1.75238    1.5861616   439061 
 2187000    1.0566967    -1.750733    -1.750733  -0.16569152     0.390778    -1.750733    1.5850415   439061 
 2188000    1.0574306   -1.7513235   -1.7513235  -0.16518119   0.39148874   -1.7513235    1.5861423   439061 
 2189000     1.056846   -1.7503177   -1.7503177  -0.16505224   0.38863512   -1.7503177    1.5852654   439061 
 2190000    1.0575164   -1.7510277   -1.7510277   -0.1647567   0.38670537   -1.7510277     1.586271   439061 
 2191000    1.0567139   -1.7511296   -1.7511296  -0.16606228   0.38795579   -1.7511296    1.5850673   439061 
 2192000    1.0577895   -1.7520398   -1.7520398  -0.16535921   0.38969531   -1.7520398    1.5866806   439061 
 2193000     1.056781   -1.7510401   -1.7510401  -0.16587232   0.38863683   -1.7510401    1.5851678   439061 
 2194000    1.0564216   -1.7511308   -1.7511308  -0.16650204    0.3927258   -1.7511308    1.5846288   439061 
 2195000    1.0574204   -1.7520796   -1.7520796  -0.16595267   0.38852342   -1.7520796    1.5861269   439061 
 2196000    1.0567024   -1.7527778   -1.7527778  -0.16772789   0.38765935   -1.7527778      1.58505   439061 
 2197000    1.0566815   -1.7530607   -1.7530607  -0.16804201   0.38663832   -1.7530607    1.5850187   439061 
 2198000    1.0571575   -1.7530626   -1.7530626  -0.16733003   0.38992426   -1.7530626    1.5857326   439061 
 2199000    1.0546049   -1.7504786   -1.7504786  -0.16857488   0.38771129   -1.7504786    1.5819038   439061 
 2200000    1.0561693   -1.7524049   -1.7524049  -0.16815455   0.38730733   -1.7524049    1.5842504   439061 
 2201000    1.0548525   -1.7512895   -1.7512895  -0.16901441   0.38499652   -1.7512895    1.5822751   439061 
 2202000     1.056212   -1.7533833   -1.7533833  -0.16906889   0.38805763   -1.7533833    1.5843144   439061 
 2203000    1.0563954   -1.7524582   -1.7524582  -0.16786879   0.39012245   -1.7524582    1.5845894   439061 
 2204000    1.0560991   -1.7525957   -1.7525957  -0.16845065   0.38568373   -1.7525957    1.5841451   439061 
 2205000    1.0572056   -1.7544551   -1.7544551  -0.16865027   0.38657989   -1.7544551    1.5858048   439061 
 2206000    1.0547138   -1.7515372   -1.7515372  -0.16947004   0.39129156   -1.7515372    1.5820671   439061 
 2207000    1.0558465   -1.7522641   -1.7522641  -0.16849791   0.38987657   -1.7522641    1.5837661   439061 
 2208000    1.0549617   -1.7520454   -1.7520454   -0.1696065   0.38719863   -1.7520454    1.5824389   439061 
 2209000    1.0566364   -1.7536123   -1.7536123  -0.16866135   0.38855962   -1.7536123     1.584951   439061 
 2210000    1.0559112   -1.7520049   -1.7520049  -0.16814177   0.38813331   -1.7520049    1.5838632   439061 
 2211000    1.0562222   -1.7527475   -1.7527475  -0.16841787   0.39029449   -1.7527475    1.5843297   439061 
 2212000    1.0563477   -1.7530788   -1.7530788  -0.16856095   0.38875851   -1.7530788    1.5845179   439061 
 2213000    1.0560594    -1.752591    -1.752591  -0.16850541   0.39111098    -1.752591    1.5840855   439061 
 2214000    1.0547584   -1.7512399   -1.7512399  -0.16910593   0.38924125   -1.7512399     1.582134   439061 
 2215000    1.0569658   -1.7539919   -1.7539919  -0.16854685   0.38586463   -1.7539919    1.5854451   439061 
 2216000     1.055357   -1.7521842   -1.7521842  -0.16915228   0.38960613   -1.7521842     1.583032   439061 
 2217000    1.0554765   -1.7520412   -1.7520412  -0.16883011   0.38869991   -1.7520412    1.5832111   439061 
 2218000    1.0560416   -1.7533085   -1.7533085  -0.16924969   0.38441034   -1.7533085    1.5840588   439061 
 2219000    1.0565832   -1.7533308   -1.7533308  -0.16845955   0.38520927   -1.7533308    1.5848712   439061 
 2220000    1.0560479   -1.7508933   -1.7508933  -0.16682504   0.38828987   -1.7508933    1.5840683   439061 
 2221000    1.0568949   -1.7522904   -1.7522904  -0.16695159   0.38683729   -1.7522904    1.5853388   439061 
 2222000    1.0568044    -1.752293    -1.752293  -0.16708998   0.38539784    -1.752293     1.585203   439061 
 2223000    1.0563148   -1.7515367   -1.7515367  -0.16706817   0.39283185   -1.7515367    1.5844685   439061 
 2224000    1.0563861   -1.7525696   -1.7525696  -0.16799404   0.38634503   -1.7525696    1.5845756   439061 
 2225000    1.0563973   -1.7523862   -1.7523862  -0.16779383   0.38718213   -1.7523862    1.5845924   439061 
 2226000    1.0563395   -1.7518606   -1.7518606  -0.16735497   0.38868386   -1.7518606    1.5845056   439061 
 2227000    1.0569025   -1.7512602   -1.7512602  -0.16591005   0.39057782   -1.7512602    1.5853501   439061 
 2228000    1.0571232    -1.751582    -1.751582  -0.16590088   0.38767195    -1.751582    1.5856811   439061 
 2229000    1.0565144   -1.7507193   -1.7507193   -0.1659513   0.38865638   -1.7507193     1.584768   439061 
 2230000    1.0557899   -1.7504424   -1.7504424  -0.16676125   0.38780187   -1.7504424    1.5836812   439061 
 2231000    1.0566385    -1.750601    -1.750601  -0.16564682   0.38917049    -1.750601    1.5849542   439061 
 2232000    1.0569575   -1.7528016   -1.7528016  -0.16736902   0.38572828   -1.7528016    1.5854326   439061 
 2233000    1.0569918   -1.7525559   -1.7525559  -0.16707176    0.3865742   -1.7525559    1.5854841   439061 
 2234000    1.0572635   -1.7536619   -1.7536619  -0.16777028   0.38427912   -1.7536619    1.5858916   439061 
 2235000    1.0561147   -1.7525322   -1.7525322  -0.16836375   0.38369225   -1.7525322    1.5841685   439061 
 2236000    1.0553866   -1.7513333   -1.7513333  -0.16825706   0.38914477   -1.7513333    1.5830763   439061 
 2237000    1.0556099   -1.7521003   -1.7521003  -0.16868917   0.38497934   -1.7521003    1.5834112   439061 
 2238000    1.0556093   -1.7526079   -1.7526079  -0.16919751   0.38638845   -1.7526079    1.5834104   439061 
 2239000    1.0557773   -1.7523398   -1.7523398  -0.16867742   0.38635095   -1.7523398    1.5836624   439061 
 2240000    1.0559439   -1.7529746   -1.7529746  -0.16906229   0.38958595   -1.7529746    1.5839123   439061 
 2241000    1.0548618   -1.7512281   -1.7512281  -0.16893906   0.38577042   -1.7512281     1.582289   439061 
 2242000    1.0565163   -1.7531223   -1.7531223  -0.16835149   0.38888905   -1.7531223    1.5847708   439061 
 2243000    1.0557463   -1.7512158   -1.7512158  -0.16759993   0.38796142   -1.7512158    1.5836159   439061 
 2244000    1.0565735   -1.7528526   -1.7528526   -0.1679959   0.38594149   -1.7528526    1.5848567   439061 
 2245000    1.0556826   -1.7526033   -1.7526033  -0.16908304   0.39004101   -1.7526033    1.5835203   439061 
 2246000     1.055194   -1.7514679   -1.7514679  -0.16868044   0.39004511   -1.7514679    1.5827874   439061 
 2247000    1.0555251   -1.7511516   -1.7511516   -0.1678676   0.39029715   -1.7511516     1.583284   439061 
 2248000    1.0552461   -1.7513441   -1.7513441   -0.1684786   0.39305579   -1.7513441    1.5828655   439061 
 2249000    1.0566675   -1.7536461   -1.7536461  -0.16864839   0.38695819   -1.7536461    1.5849977   439061 
 2250000    1.0563016   -1.7538575   -1.7538575  -0.16940876   0.38488526   -1.7538575    1.5844488   439061 
 2251000    1.0553088    -1.751862    -1.751862   -0.1689023   0.38940002    -1.751862    1.5829597   439061 
 2252000    1.0556801    -1.752444    -1.752444  -0.16892751   0.38447904    -1.752444    1.5835165   439061 
 2253000    1.0548079   -1.7510251   -1.7510251  -0.16881683    0.3888658   -1.7510251    1.5822082   439061 
 2254000     1.055558   -1.7519825   -1.7519825  -0.16864913   0.38818964   -1.7519825    1.5833334   439061 
 2255000     1.056046   -1.7512383   -1.7512383   -0.1671729   0.39288758   -1.7512383    1.5840653   439061 
 2256000    1.0563263   -1.7516186   -1.7516186   -0.1671328   0.38701898   -1.7516186    1.5844858   439061 
 2257000    1.0568593   -1.7527878   -1.7527878  -0.16750239   0.38584385   -1.7527878    1.5852854   439061 
 2258000    1.0568568    -1.752276    -1.752276   -0.1669943   0.38555957    -1.752276    1.5852817   439061 
 2259000    1.0567654   -1.7516519   -1.7516519  -0.16650744    0.3886107   -1.7516519    1.5851445   439061 
 2260000    1.0560139   -1.7524942   -1.7524942  -0.16847687   0.39138898   -1.7524942    1.5840173   439061 
 2261000    1.0559005   -1.7521147   -1.7521147  -0.16826758   0.39262674   -1.7521147    1.5838471   439061 
 2262000    1.0555391   -1.7523748   -1.7523748   -0.1690697    0.3895394   -1.7523748    1.5833051   439061 
 2263000    1.0556923   -1.7525067   -1.7525067  -0.16897183   0.38866077   -1.7525067    1.5835349   439061 
 2264000    1.0558006   -1.7528463   -1.7528463  -0.16914903   0.38891129   -1.7528463    1.5836972   439061 
 2265000    1.0552327   -1.7515244   -1.7515244   -0.1686789   0.38850117   -1.7515244    1.5828455   439061 
 2266000    1.0555461   -1.7508634   -1.7508634  -0.16754778   0.38843619   -1.7508634    1.5833156   439061 
 2267000    1.0565893   -1.7512494   -1.7512494  -0.16636913   0.38922885   -1.7512494    1.5848803   439061 
 2268000    1.0559672   -1.7513675   -1.7513675  -0.16742041   0.38868598   -1.7513675    1.5839471   439061 
 2269000    1.0565955   -1.7519752   -1.7519752  -0.16708562   0.39041362   -1.7519752    1.5848896   439061 
 2270000    1.0545248   -1.7498729   -1.7498729  -0.16808934   0.38887143   -1.7498729    1.5817836   439061 
 2271000    1.0550082   -1.7501851   -1.7501851  -0.16767634   0.39232148   -1.7501851    1.5825088   439061 
 2272000    1.0554558   -1.7511149   -1.7511149  -0.16793483   0.39081733   -1.7511149    1.5831801   439061 
 2273000    1.0563809   -1.7522512   -1.7522512  -0.16768349   0.38902949   -1.7522512    1.5845677   439061 
 2274000    1.0555596   -1.7515912   -1.7515912  -0.16825546   0.39001202   -1.7515912    1.5833358   439061 
 2275000    1.0561887   -1.7516592   -1.7516592  -0.16737973   0.39052416   -1.7516592    1.5842795   439061 
 2276000    1.0553823   -1.7507742   -1.7507742  -0.16770427   0.38844385   -1.7507742    1.5830699   439061 
 2277000    1.0568349   -1.7538124   -1.7538124  -0.16856371   0.39083406   -1.7538124    1.5852487   439061 
 2278000    1.0556517   -1.7519932   -1.7519932  -0.16851923   0.38933769   -1.7519932    1.5834739   439061 
 2279000     1.055406   -1.7515782   -1.7515782  -0.16847282   0.38956106   -1.7515782    1.5831053   439061 
 2280000    1.0542466   -1.7509143   -1.7509143  -0.16954803   0.39290075   -1.7509143    1.5813663   439061 
 2281000    1.0550624   -1.7522614   -1.7522614  -0.16967135   0.39011291   -1.7522614      1.58259   439061 
 2282000    1.0540773   -1.7519559   -1.7519559  -0.17084355    0.3878012   -1.7519559    1.5811123   439061 
 2283000    1.0543092    -1.751019    -1.751019  -0.16955884   0.38853376    -1.751019    1.5814602   439061 
 2284000    1.0561051   -1.7532618   -1.7532618  -0.16910782    0.3867142   -1.7532618     1.584154   439061 
 2285000    1.0547391   -1.7515514   -1.7515514  -0.16944637   0.38566437   -1.7515514     1.582105   439061 
 2286000    1.0548868   -1.7515221   -1.7515221  -0.16919555   0.38898618   -1.7515221    1.5823266   439061 
 2287000    1.0573312   -1.7542136   -1.7542136  -0.16822045   0.38118937   -1.7542136    1.5859932   439061 
 2288000    1.0558167   -1.7524503   -1.7524503  -0.16872896   0.38659562   -1.7524503    1.5837214   439061 
 2289000    1.0550218   -1.7520019   -1.7520019   -0.1694728   0.38751161   -1.7520019    1.5825291   439061 
 2290000    1.0542067   -1.7519598   -1.7519598  -0.17065332   0.39010141   -1.7519598    1.5813065   439061 
 2291000    1.0554859   -1.7527801   -1.7527801  -0.16955489   0.38410961   -1.7527801    1.5832252   439061 
 2292000    1.0556853   -1.7526677   -1.7526677  -0.16914342   0.38816925   -1.7526677    1.5835243   439061 
 2293000    1.0552527    -1.752474    -1.752474  -0.16959863   0.38623174    -1.752474    1.5828754   439061 
 2294000    1.0558674   -1.7525545   -1.7525545  -0.16875708   0.38577399   -1.7525545    1.5837974   439061 
 2295000    1.0571136    -1.753961    -1.753961  -0.16829424   0.38911672    -1.753961    1.5856668   439061 
 2296000    1.0549256   -1.7530124   -1.7530124  -0.17062764   0.38624283   -1.7530124    1.5823848   439061 
 2297000    1.0551559   -1.7527275   -1.7527275  -0.16999734   0.38696669   -1.7527275    1.5827302   439061 
 2298000    1.0550842   -1.7508714   -1.7508714  -0.16824869   0.39172569   -1.7508714    1.5826227   439061 
 2299000     1.054915   -1.7518703   -1.7518703  -0.16950134   0.38704242   -1.7518703    1.5823689   439061 
 2300000    1.0549674   -1.7526824   -1.7526824  -0.17023498   0.38504099   -1.7526824    1.5824474   439061 
 2301000    1.0549422   -1.7518961   -1.7518961  -0.16948639   0.38971736   -1.7518961    1.5824097   439061 
 2302000     1.054274    -1.751289    -1.751289  -0.16988166   0.38963958    -1.751289    1.5814074   439061 
 2303000    1.0552895   -1.7528477   -1.7528477  -0.16991711   0.38716775   -1.7528477    1.5829306   439061 
 2304000    1.0554872   -1.7533627   -1.7533627   -0.1701355   0.38493156   -1.7533627    1.5832272   439061 
 2305000    1.0546694   -1.7510392   -1.7510392  -0.16903869   0.39150513   -1.7510392    1.5820005   439061 
 2306000    1.0551637   -1.7531866   -1.7531866  -0.17044467   0.38633001   -1.7531866    1.5827419   439061 
 2307000    1.0555612   -1.7527431   -1.7527431  -0.16940492   0.38918212   -1.7527431    1.5833382   439061 
 2308000    1.0548278   -1.7526943   -1.7526943  -0.17045617   0.38945658   -1.7526943    1.5822381   439061 
 2309000    1.0545402   -1.7519544   -1.7519544  -0.17014766   0.38613858   -1.7519544    1.5818067   439061 
 2310000    1.0539601   -1.7517245   -1.7517245   -0.1707879   0.38641257   -1.7517245    1.5809366   439061 
 2311000    1.0536994    -1.752546    -1.752546  -0.17200048   0.38510009    -1.752546    1.5805455   439061 
 2312000    1.0547653   -1.7534091   -1.7534091   -0.1712647   0.38469087   -1.7534091    1.5821444   439061 
 2313000    1.0538398   -1.7521831   -1.7521831  -0.17142701   0.38946816   -1.7521831    1.5807561   439061 
 2314000    1.0539128   -1.7517156   -1.7517156  -0.17085004   0.38642982   -1.7517156    1.5808656   439061 
 2315000    1.0551007   -1.7526937   -1.7526937  -0.17004624    0.3873986   -1.7526937    1.5826474   439061 
 2316000     1.054626   -1.7514744   -1.7514744  -0.16953897   0.38811101   -1.7514744    1.5819354   439061 
 2317000    1.0539218   -1.7514442   -1.7514442    -0.170565   0.38522003   -1.7514442    1.5808792   439061 
 2318000    1.0549232   -1.7525484   -1.7525484   -0.1701671   0.38359182   -1.7525484    1.5823813   439061 
 2319000    1.0542453   -1.7512721   -1.7512721  -0.16990771   0.39127209   -1.7512721    1.5813644   439061 
 2320000    1.0548856   -1.7512383   -1.7512383   -0.1689136   0.38859985   -1.7512383    1.5823247   439061 
 2321000    1.0560642   -1.7528991   -1.7528991  -0.16880637   0.39037722   -1.7528991    1.5840927   439061 
 2322000    1.0551894   -1.7506295   -1.7506295  -0.16784903   0.39458264   -1.7506295    1.5827805   439061 
 2323000    1.0554145   -1.7510745   -1.7510745  -0.16795626   0.39041629   -1.7510745    1.5831182   439061 
 2324000    1.0545401   -1.7508621   -1.7508621  -0.16905561   0.38656034   -1.7508621    1.5818065   439061 
 2325000    1.0545536   -1.7524093   -1.7524093  -0.17058257   0.38430949   -1.7524093    1.5818268   439061 
 2326000    1.0540907   -1.7511914   -1.7511914    -0.170059   0.38387578   -1.7511914    1.5811324   439061 
 2327000    1.0542711   -1.7520564   -1.7520564  -0.17065337   0.38600223   -1.7520564     1.581403   439061 
 2328000    1.0542698   -1.7523891   -1.7523891  -0.17098801    0.3836812   -1.7523891    1.5814011   439061 
 2329000    1.0549822   -1.7531642   -1.7531642  -0.17069448   0.38338225   -1.7531642    1.5824697   439061 
 2330000     1.052234   -1.7500512   -1.7500512  -0.17170376   0.38820407   -1.7500512    1.5783474   439061 
 2331000    1.0529435   -1.7506965   -1.7506965  -0.17128496   0.38770011   -1.7506965    1.5794116   439061 
 2332000    1.0554146   -1.7538379   -1.7538379  -0.17071956    0.3890085   -1.7538379    1.5831183   439061 
 2333000    1.0550252   -1.7530097   -1.7530097  -0.17047551   0.38723823   -1.7530097    1.5825342   439061 
 2334000    1.0544916   -1.7522323   -1.7522323  -0.17049855   0.38379213   -1.7522323    1.5817338   439061 
 2335000    1.0547623   -1.7521936   -1.7521936   -0.1700537   0.38713509   -1.7521936    1.5821399   439061 
 2336000     1.054612    -1.752424    -1.752424  -0.17050957   0.38514535    -1.752424    1.5819145   439061 
 2337000    1.0538911   -1.7520094   -1.7520094  -0.17117631    0.3874461   -1.7520094    1.5808331   439061 
 2338000    1.0533353   -1.7507765   -1.7507765   -0.1707772   0.38814784   -1.7507765    1.5799993   439061 
 2339000    1.0563252   -1.7533783   -1.7533783  -0.16889407   0.38576845   -1.7533783    1.5844842   439061 
 2340000    1.0554146    -1.753171    -1.753171  -0.17005272   0.38523512    -1.753171    1.5831183   439061 
 2341000    1.0555179   -1.7531341   -1.7531341  -0.16986094   0.38698923   -1.7531341    1.5832732   439061 
 2342000    1.0563076   -1.7531351   -1.7531351   -0.1686773   0.38823136   -1.7531351    1.5844578   439061 
 2343000    1.0555125     -1.75234     -1.75234  -0.16907494   0.38401377     -1.75234    1.5832651   439061 
 2344000    1.0547296   -1.7516677   -1.7516677  -0.16957679   0.38719725   -1.7516677    1.5820909   439061 
 2345000    1.0550157   -1.7530017   -1.7530017  -0.17048184   0.38368425   -1.7530017    1.5825199   439061 
 2346000    1.0551656   -1.7530119   -1.7530119  -0.17026706   0.38470854   -1.7530119    1.5827448   439061 
 2347000    1.0548417   -1.7523921   -1.7523921  -0.17013319    0.3855131   -1.7523921    1.5822589   439061 
 2348000    1.0539376   -1.7525798   -1.7525798  -0.17167705   0.38836919   -1.7525798    1.5809027   439061 
 2349000      1.05446   -1.7532277   -1.7532277  -0.17154124    0.3845506   -1.7532277    1.5816864   439061 
 2350000    1.0540948   -1.7525408   -1.7525408  -0.17140213   0.38770702   -1.7525408    1.5811387   439061 
 2351000    1.0557987   -1.7538768   -1.7538768  -0.17018235   0.38463426   -1.7538768    1.5836945   439061 
 2352000    1.0548158   -1.7531506   -1.7531506  -0.17093052   0.38513358   -1.7531506    1.5822201   439061 
 2353000     1.054003   -1.7516778   -1.7516778  -0.17067694   0.38430322   -1.7516778    1.5810009   439061 
 2354000      1.05481   -1.7520124   -1.7520124    -0.169801   0.38361667   -1.7520124    1.5822114   439061 
 2355000    1.0548408   -1.7522376   -1.7522376  -0.16998005   0.38591865   -1.7522376    1.5822576   439061 
 2356000    1.0545265   -1.7509208   -1.7509208   -0.1691346   0.38967231   -1.7509208    1.5817862   439061 
 2357000    1.0557673    -1.754169    -1.754169  -0.17052164   0.38234084    -1.754169    1.5836474   439061 
 2358000     1.055199   -1.7521412   -1.7521412  -0.16934629   0.38486481   -1.7521412    1.5827949   439061 
 2359000     1.054078   -1.7514941   -1.7514941  -0.17038062   0.38628248   -1.7514941    1.5811134   439061 
 2360000    1.0557029   -1.7532673   -1.7532673  -0.16971657   0.38477046   -1.7532673    1.5835508   439061 
 2361000    1.0541262   -1.7519478   -1.7519478   -0.1707621   0.38978162   -1.7519478    1.5811857   439061 
 2362000    1.0557286   -1.7522457   -1.7522457  -0.16865638   0.38995394   -1.7522457    1.5835893   439061 
 2363000    1.0550407   -1.7523158   -1.7523158  -0.16975844   0.38568887   -1.7523158    1.5825574   439061 
 2364000    1.0549463   -1.7534128   -1.7534128  -0.17099695   0.38246655   -1.7534128    1.5824158   439061 
 2365000    1.0547449   -1.7523528   -1.7523528  -0.17023908   0.38308835   -1.7523528    1.5821137   439061 
 2366000     1.055192   -1.7536292   -1.7536292  -0.17084471   0.38339922   -1.7536292    1.5827844   439061 
 2367000    1.0544124   -1.7522734   -1.7522734  -0.17065838   0.38604126   -1.7522734     1.581615   439061 
 2368000    1.0546754   -1.7525954   -1.7525954  -0.17058592   0.38679049   -1.7525954    1.5820095   439061 
 2369000    1.0536065   -1.7516431   -1.7516431  -0.17123693   0.38746441   -1.7516431    1.5804062   439061 
 2370000    1.0551825   -1.7538308   -1.7538308  -0.17106059   0.38453358   -1.7538308    1.5827702   439061 
 2371000    1.0534001   -1.7530464   -1.7530464  -0.17294981   0.38724557   -1.7530464    1.5800966   439061 
 2372000    1.0526362   -1.7510682   -1.7510682  -0.17211749   0.38947684   -1.7510682    1.5789507   439061 
 2373000    1.0539647   -1.7537386   -1.7537386  -0.17279517   0.38590962   -1.7537386    1.5809434   439061 
 2374000    1.0536405   -1.7530628   -1.7530628  -0.17260557   0.38292997   -1.7530628    1.5804572   439061 
 2375000    1.0521201   -1.7520216   -1.7520216  -0.17384497   0.38856665   -1.7520216    1.5781766   439061 
 2376000    1.0543729   -1.7551397   -1.7551397  -0.17358395   0.38315019   -1.7551397    1.5815558   439061 
 2377000    1.0538171   -1.7538721   -1.7538721  -0.17315004   0.38428632   -1.7538721     1.580722   439061 
 2378000    1.0521747   -1.7521579   -1.7521579  -0.17389936   0.38161604   -1.7521579    1.5782585   439061 
 2379000    1.0524887   -1.7529749   -1.7529749   -0.1742454   0.38201782   -1.7529749    1.5787295   439061 
 2380000    1.0523055   -1.7524181   -1.7524181  -0.17396345   0.38903616   -1.7524181    1.5784547   439061 
 2381000    1.0538402   -1.7534752   -1.7534752  -0.17271858   0.38410244   -1.7534752    1.5807566   439061 
 2382000    1.0529433    -1.753493    -1.753493  -0.17408171   0.38430484    -1.753493    1.5794113   439061 
 2383000    1.0523878   -1.7528109   -1.7528109  -0.17423286   0.38437002   -1.7528109    1.5785781   439061 
 2384000    1.0528678   -1.7523239   -1.7523239  -0.17302578    0.3875865   -1.7523239    1.5792981   439061 
 2385000     1.053603   -1.7536312   -1.7536312  -0.17323033   0.38440913   -1.7536312    1.5804009   439061 
 2386000    1.0528398   -1.7525969   -1.7525969  -0.17334089   0.38734003   -1.7525969     1.579256   439061 
 2387000    1.0533973   -1.7527537   -1.7527537  -0.17266142   0.38445248   -1.7527537    1.5800923   439061 
 2388000    1.0534889   -1.7525276   -1.7525276  -0.17229777   0.38726551   -1.7525276    1.5802298   439061 
 2389000    1.0531416   -1.7527728   -1.7527728  -0.17306406   0.38601354   -1.7527728    1.5797088   439061 
 2390000    1.0522427   -1.7517184   -1.7517184  -0.17335788    0.3839189   -1.7517184    1.5783605   439061 
 2391000    1.0534707   -1.7524809   -1.7524809  -0.17227844   0.38029806   -1.7524809    1.5802024   439061 
 2392000    1.0530944   -1.7523531   -1.7523531   -0.1727151   0.38743707   -1.7523531     1.579638   439061 
 2393000    1.0532354   -1.7528847   -1.7528847  -0.17303512   0.38988749   -1.7528847    1.5798495   439061 
 2394000    1.0526071   -1.7514602   -1.7514602  -0.17255319   0.38829303   -1.7514602    1.5789071   439061 
 2395000     1.052892     -1.75322     -1.75322  -0.17388553   0.38236444     -1.75322    1.5793344   439061 
 2396000    1.0506085   -1.7507853   -1.7507853  -0.17487607   0.38486325   -1.7507853    1.5759092   439061 
 2397000     1.052141   -1.7526609   -1.7526609  -0.17445304   0.38023047   -1.7526609    1.5782079   439061 
 2398000    1.0529213   -1.7534717   -1.7534717  -0.17409338   0.38139777   -1.7534717    1.5793783   439061 
 2399000     1.053124   -1.7538445   -1.7538445  -0.17416216   0.38520371   -1.7538445    1.5796823   439061 
 2400000     1.052229   -1.7538827   -1.7538827  -0.17554275   0.38271701   -1.7538827    1.5783399   439061 
 2401000     1.051541   -1.7519208   -1.7519208  -0.17461287   0.38771696   -1.7519208    1.5773079   439061 
 2402000    1.0526635   -1.7525896   -1.7525896  -0.17359804   0.39010587   -1.7525896    1.5789916   439061 
 2403000    1.0531836   -1.7541426   -1.7541426  -0.17437078   0.38525128   -1.7541426    1.5797718   439061 
 2404000    1.0524538   -1.7532413   -1.7532413  -0.17456413   0.38361616   -1.7532413    1.5786772   439061 
 2405000    1.0521472   -1.7531205   -1.7531205   -0.1749034   0.38601983   -1.7531205    1.5782171   439061 
 2406000    1.0515921   -1.7528976   -1.7528976  -0.17551312   0.38436418   -1.7528976    1.5773845   439061 
 2407000    1.0513856   -1.7531195   -1.7531195  -0.17604476   0.38603644   -1.7531195    1.5770748   439061 
 2408000     1.052556   -1.7556767   -1.7556767   -0.1768463   0.38298732   -1.7556767    1.5788304   439061 
 2409000    1.0508366    -1.752209    -1.752209  -0.17595774   0.38661553    -1.752209    1.5762513   439061 
 2410000    1.0524831    -1.755114    -1.755114  -0.17639301   0.38621455    -1.755114     1.578721   439061 
 2411000    1.0527829   -1.7548677   -1.7548677    -0.175697   0.38679639   -1.7548677    1.5791707   439061 
 2412000    1.0508415   -1.7524455   -1.7524455  -0.17618692    0.3835983   -1.7524455    1.5762586   439061 
 2413000    1.0507746   -1.7535679   -1.7535679   -0.1774096   0.38121222   -1.7535679    1.5761583   439061 
 2414000    1.0504762   -1.7526711   -1.7526711  -0.17696045   0.38379893   -1.7526711    1.5757107   439061 
 2415000    1.0516355   -1.7544843   -1.7544843  -0.17703462   0.38443552   -1.7544843    1.5774497   439061 
 2416000    1.0530736   -1.7555416   -1.7555416  -0.17593479    0.3819775   -1.7555416    1.5796068   439061 
 2417000    1.0516129   -1.7542692   -1.7542692  -0.17685352   0.38660419   -1.7542692    1.5774157   439061 
 2418000    1.0510981   -1.7540563   -1.7540563  -0.17741279   0.37990617   -1.7540563    1.5766436   439061 
 2419000    1.0512753   -1.7552967   -1.7552967  -0.17838737   0.38174422   -1.7552967    1.5769093   439061 
 2420000    1.0509318   -1.7539267   -1.7539267  -0.17753262   0.38151512   -1.7539267    1.5763941   439061 
 2421000    1.0510619    -1.752423    -1.752423  -0.17583383   0.38047099    -1.752423    1.5765892   439061 
 2422000    1.0512162   -1.7529148   -1.7529148  -0.17609412   0.38451267   -1.7529148    1.5768207   439061 
 2423000    1.0518059   -1.7535881   -1.7535881  -0.17588286   0.38106759   -1.7535881    1.5777053   439061 
 2424000    1.0521116   -1.7535398   -1.7535398    -0.175376   0.38823157   -1.7535398    1.5781638   439061 
 2425000    1.0518161   -1.7543067   -1.7543067   -0.1765861   0.38899675   -1.7543067    1.5777206   439061 
 2426000    1.0519337   -1.7542348   -1.7542348  -0.17633783   0.38047796   -1.7542348     1.577897   439061 
 2427000    1.0509042   -1.7527798   -1.7527798  -0.17642711   0.38577069   -1.7527798    1.5763527   439061 
 2428000    1.0517342   -1.7535921   -1.7535921  -0.17599427   0.38228724   -1.7535921    1.5775978   439061 
 2429000    1.0514322    -1.751892    -1.751892  -0.17474733   0.38835109    -1.751892    1.5771447   439061 
 2430000    1.0526356   -1.7544348   -1.7544348  -0.17548496    0.3824614   -1.7544348    1.5789499   439061 
 2431000    1.0517153   -1.7523216   -1.7523216  -0.17475231   0.38717408   -1.7523216    1.5775693   439061 
 2432000    1.0529524   -1.7549056   -1.7549056  -0.17548057   0.37879949   -1.7549056     1.579425   439061 
 2433000    1.0517274   -1.7536436   -1.7536436  -0.17605613   0.38221843   -1.7536436    1.5775874   439061 
 2434000     1.051733   -1.7527226   -1.7527226  -0.17512674   0.38296903   -1.7527226    1.5775959   439061 
 2435000    1.0519262    -1.754062    -1.754062  -0.17617626   0.38565728    -1.754062    1.5778857   439061 
 2436000    1.0519844   -1.7539457   -1.7539457  -0.17597278   0.38108764   -1.7539457     1.577973   439061 
 2437000    1.0514945   -1.7547697   -1.7547697   -0.1775316   0.38173709   -1.7547697    1.5772381   439061 
 2438000    1.0512775   -1.7538229   -1.7538229   -0.1769103   0.38164614   -1.7538229    1.5769126   439061 
 2439000    1.0516095   -1.7547124   -1.7547124  -0.17730175   0.38648796   -1.7547124    1.5774107   439061 
 2440000    1.0506958   -1.7542765   -1.7542765  -0.17823647   0.38161439   -1.7542765      1.57604   439061 
 2441000    1.0518243    -1.755338    -1.755338  -0.17760506   0.37879472    -1.755338    1.5777329   439061 
 2442000    1.0508881   -1.7536302   -1.7536302  -0.17730163   0.38559736   -1.7536302    1.5763286   439061 
 2443000    1.0501434   -1.7532434   -1.7532434  -0.17803196   0.38303088   -1.7532434    1.5752115   439061 
 2444000    1.0501326   -1.7537379   -1.7537379  -0.17854265   0.38559072   -1.7537379    1.5751953   439061 
 2445000    1.0509834   -1.7554027   -1.7554027  -0.17893109    0.3778365   -1.7554027    1.5764716   439061 
 2446000    1.0499824   -1.7537727   -1.7537727  -0.17880272   0.38527857   -1.7537727      1.57497   439061 
 2447000    1.0503887   -1.7534206   -1.7534206  -0.17784107   0.38179731   -1.7534206    1.5755795   439061 
 2448000    1.0511753   -1.7548575   -1.7548575  -0.17809815   0.38493444   -1.7548575    1.5767593   439061 
 2449000    1.0507567   -1.7543228   -1.7543228  -0.17819139   0.38446101   -1.7543228    1.5761315   439061 
 2450000    1.0498763   -1.7525922   -1.7525922  -0.17778143   0.38327566   -1.7525922    1.5748108   439061 
 2451000    1.0516896    -1.755747    -1.755747  -0.17821629   0.38365026    -1.755747    1.5775307   439061 
 2452000    1.0506659   -1.7528467   -1.7528467  -0.17685142   0.38412119   -1.7528467    1.5759953   439061 
 2453000    1.0513165   -1.7541101   -1.7541101  -0.17713886   0.38110189   -1.7541101    1.5769712   439061 
 2454000    1.0509164   -1.7540525   -1.7540525   -0.1776815   0.38398531   -1.7540525     1.576371   439061 
 2455000    1.0516357   -1.7551934   -1.7551934  -0.17774344   0.38251012   -1.7551934      1.57745   439061 
 2456000    1.0510951   -1.7539205   -1.7539205  -0.17728134   0.38444515   -1.7539205    1.5766391   439061 
 2457000    1.0521752   -1.7558633   -1.7558633  -0.17760416   0.38206498   -1.7558633    1.5782591   439061 
 2458000    1.0511671   -1.7542283   -1.7542283  -0.17748121   0.38145617   -1.7542283    1.5767471   439061 
 2459000    1.0513908   -1.7533285   -1.7533285  -0.17624597   0.38571339   -1.7533285    1.5770826   439061 
 2460000    1.0522278   -1.7549425   -1.7549425  -0.17660442   0.38159476   -1.7549425    1.5783381   439061 
 2461000    1.0513529    -1.752832    -1.752832  -0.17580616   0.38520277    -1.752832    1.5770258   439061 
 2462000     1.051538   -1.7526831   -1.7526831  -0.17537974   0.38588993   -1.7526831    1.5773034   439061 
 2463000    1.0508914   -1.7524175   -1.7524175  -0.17608407   0.38284847   -1.7524175    1.5763335   439061 
 2464000    1.0510809   -1.7530806   -1.7530806  -0.17646282   0.38750196   -1.7530806    1.5766178   439061 
 2465000     1.051501   -1.7530541   -1.7530541  -0.17580621   0.38332041   -1.7530541    1.5772479   439061 
 2466000    1.0525427   -1.7534607   -1.7534607  -0.17465026    0.3852196   -1.7534607    1.5788104   439061 
 2467000    1.0529948   -1.7536563   -1.7536563  -0.17416763   0.38450164   -1.7536563    1.5794887   439061 
 2468000    1.0513628   -1.7520287   -1.7520287  -0.17498805   0.38387272   -1.7520287    1.5770406   439061 
 2469000    1.0539917   -1.7551984   -1.7551984  -0.17421441   0.37827546   -1.7551984     1.580984   439061 
 2470000    1.0528897   -1.7538443   -1.7538443  -0.17451329   0.38372781   -1.7538443     1.579331   439061 
 2471000    1.0532566    -1.753317    -1.753317  -0.17343572   0.38552281    -1.753317    1.5798812   439061 
 2472000    1.0517595   -1.7515876   -1.7515876    -0.173952   0.38394726   -1.7515876    1.5776356   439061 
 2473000    1.0524849   -1.7532985   -1.7532985  -0.17457483   0.38414245   -1.7532985    1.5787237   439061 
 2474000    1.0512358   -1.7514074   -1.7514074  -0.17455726   0.38862818   -1.7514074    1.5768502   439061 
 2475000    1.0527693   -1.7531892   -1.7531892  -0.17403894   0.38216733   -1.7531892    1.5791503   439061 
 2476000    1.0532833   -1.7541499   -1.7541499  -0.17422852   0.38228233   -1.7541499    1.5799214   439061 
 2477000    1.0515989   -1.7511343   -1.7511343  -0.17373961   0.38557414   -1.7511343    1.5773947   439061 
 2478000    1.0518973   -1.7532892   -1.7532892  -0.17544685   0.38215207   -1.7532892    1.5778423   439061 
 2479000    1.0517836   -1.7524834   -1.7524834   -0.1748116   0.38292744   -1.7524834    1.5776718   439061 
 2480000    1.0514565   -1.7517066   -1.7517066  -0.17452541   0.38531206   -1.7517066    1.5771812   439061 
 2481000    1.0522004   -1.7527599   -1.7527599  -0.17446282   0.38644413   -1.7527599    1.5782971   439061 
 2482000    1.0525999   -1.7527364   -1.7527364  -0.17384023   0.38816317   -1.7527364    1.5788962   439061 
 2483000    1.0527129   -1.7531224   -1.7531224  -0.17405667   0.38332045   -1.7531224    1.5790657   439061 
 2484000    1.0532206   -1.7525573   -1.7525573  -0.17273004   0.38560354   -1.7525573    1.5798273   439061 
 2485000    1.0538504   -1.7533033   -1.7533033  -0.17253134    0.3819095   -1.7533033    1.5807719   439061 
 2486000    1.0528326    -1.753508    -1.753508  -0.17426265   0.38608541    -1.753508    1.5792453   439061 
 2487000    1.0509597    -1.751614    -1.751614  -0.17517807   0.38634263    -1.751614    1.5764359   439061 
 2488000    1.0533176   -1.7547528   -1.7547528  -0.17477994   0.38396689   -1.7547528    1.5799729   439061 
 2489000    1.0514137     -1.75313     -1.75313    -0.176013   0.38222291     -1.75313     1.577117   439061 
 2490000     1.051625   -1.7533482   -1.7533482  -0.17591435    0.3858642   -1.7533482    1.5774338   439061 
 2491000    1.0525294   -1.7538027   -1.7538027  -0.17501218   0.37965918   -1.7538027    1.5787905   439061 
 2492000    1.0526124   -1.7537279   -1.7537279  -0.17481283   0.38312465   -1.7537279    1.5789151   439061 
 2493000    1.0524149   -1.7540734   -1.7540734  -0.17545457   0.38363915   -1.7540734    1.5786188   439061 
 2494000    1.0512822   -1.7528726   -1.7528726  -0.17595289   0.38234355   -1.7528726    1.5769197   439061 
 2495000    1.0515171   -1.7530498   -1.7530498  -0.17577784   0.38085719   -1.7530498     1.577272   439061 
 2496000    1.0521627   -1.7542825   -1.7542825  -0.17604209   0.38246684   -1.7542825    1.5782404   439061 
 2497000    1.0520498   -1.7544204   -1.7544204  -0.17634926   0.38436486   -1.7544204    1.5780712   439061 
 2498000    1.0519631   -1.7533293   -1.7533293  -0.17538823   0.38222933   -1.7533293    1.5779411   439061 
 2499000    1.0526781   -1.7542422   -1.7542422  -0.17522862   0.38587778   -1.7542422    1.5790136   439061 
 2500000    1.0519689   -1.7524671   -1.7524671  -0.17451731   0.38477693   -1.7524671    1.5779498   439061 
 2501000    1.0528378   -1.7543895   -1.7543895  -0.17513636   0.38162938   -1.7543895    1.5792531   439061 
 2502000    1.0519943   -1.7526029   -1.7526029  -0.17461497    0.3852394   -1.7526029    1.5779879   439061 
 2503000    1.0513622   -1.7515995   -1.7515995  -0.17455986   0.38210148   -1.7515995    1.5770397   439061 
 2504000    1.0523021   -1.7521162   -1.7521162  -0.17366668   0.38316044   -1.7521162    1.5784495   439061 
 2505000    1.0530307   -1.7530423   -1.7530423  -0.17349986   0.38198427   -1.7530423    1.5795425   439061 
 2506000    1.0527188   -1.7532217   -1.7532217   -0.1741471   0.38713478   -1.7532217    1.5790746   439061 
 2507000    1.0521052    -1.751712    -1.751712  -0.17355774   0.38784087    -1.751712    1.5781542   439061 
 2508000    1.0536134   -1.7518425   -1.7518425  -0.17142604   0.38851712   -1.7518425    1.5804164   439061 
 2509000    1.0530118   -1.7513985   -1.7513985  -0.17188437   0.38811001   -1.7513985    1.5795141   439061 
 2510000    1.0530845   -1.7536415   -1.7536415  -0.17401836   0.38240002   -1.7536415    1.5796231   439061 
 2511000    1.0521846   -1.7530096   -1.7530096  -0.17473626   0.38123988   -1.7530096    1.5782733   439061 
 2512000    1.0513288   -1.7510465   -1.7510465  -0.17405693   0.38849394   -1.7510465    1.5769896   439061 
 2513000    1.0521109   -1.7520159   -1.7520159  -0.17385315    0.3873244   -1.7520159    1.5781627   439061 
 2514000    1.0520175    -1.752224    -1.752224   -0.1742013   0.38498791    -1.752224    1.5780227   439061 
 2515000    1.0517021   -1.7518125   -1.7518125  -0.17426295   0.39060801   -1.7518125    1.5775496   439061 
 2516000     1.052996   -1.7531757   -1.7531757  -0.17368522    0.3852567   -1.7531757    1.5794905   439061 
 2517000    1.0535868   -1.7538311   -1.7538311  -0.17345439   0.38489209   -1.7538311    1.5803767   439061 
 2518000    1.0530846   -1.7534074   -1.7534074  -0.17378404   0.38800327   -1.7534074    1.5796233   439061 
 2519000    1.0531912   -1.7526013   -1.7526013  -0.17281814   0.38319004   -1.7526013    1.5797832   439061 
 2520000    1.0540958   -1.7537221   -1.7537221  -0.17258191   0.37986287   -1.7537221    1.5811402   439061 
 2521000    1.0525095    -1.751497    -1.751497  -0.17273642   0.38696878    -1.751497    1.5787606   439061 
 2522000    1.0540109   -1.7542328   -1.7542328  -0.17322007   0.38237274   -1.7542328    1.5810128   439061 
 2523000    1.0538736   -1.7535963   -1.7535963  -0.17278946   0.38358329   -1.7535963    1.5808068   439061 
 2524000    1.0528692   -1.7519427   -1.7519427  -0.17264253   0.38347333   -1.7519427    1.5793002   439061 
 2525000     1.052686   -1.7521609   -1.7521609  -0.17313547   0.38577996   -1.7521609    1.5790255   439061 
 2526000     1.052493   -1.7527956   -1.7527956  -0.17405979   0.38985834   -1.7527956    1.5787358   439061 
 2527000    1.0524921   -1.7516693   -1.7516693  -0.17293479   0.38840129   -1.7516693    1.5787346   439061 
 2528000    1.0525217   -1.7532345   -1.7532345   -0.1744555   0.38275622   -1.7532345     1.578779   439061 
 2529000    1.0531969    -1.752185    -1.752185  -0.17239327   0.38752139    -1.752185    1.5797917   439061 
 2530000    1.0531332   -1.7528476   -1.7528476  -0.17315134   0.38431253   -1.7528476    1.5796962   439061 
 2531000    1.0514067   -1.7512747   -1.7512747  -0.17416821   0.38516958   -1.7512747    1.5771065   439061 
 2532000    1.0527055   -1.7522628   -1.7522628  -0.17320803   0.38662521   -1.7522628    1.5790547   439061 
 2533000    1.0534829   -1.7528081   -1.7528081  -0.17258738   0.38290401   -1.7528081    1.5802207   439061 
 2534000    1.0535133   -1.7532984   -1.7532984    -0.173032   0.38609691   -1.7532984    1.5802664   439061 
 2535000    1.0520467   -1.7520484   -1.7520484  -0.17398195   0.37865509   -1.7520484    1.5780665   439061 
 2536000    1.0525128   -1.7521567   -1.7521567  -0.17339109    0.3852816   -1.7521567    1.5787656   439061 
 2537000    1.0527011   -1.7526039   -1.7526039  -0.17355592   0.38450201   -1.7526039     1.579048   439061 
 2538000    1.0520667   -1.7508328   -1.7508328  -0.17273637   0.38676563   -1.7508328    1.5780964   439061 
 2539000    1.0527925   -1.7523736   -1.7523736  -0.17318835   0.38746582   -1.7523736    1.5791852   439061 
 2540000    1.0538005   -1.7538185   -1.7538185  -0.17312142   0.38435536   -1.7538185    1.5806971   439061 
 2541000    1.0511939   -1.7502872   -1.7502872  -0.17349995   0.38848928   -1.7502872    1.5767873   439061 
 2542000    1.0522151   -1.7526991   -1.7526991     -0.17438   0.38397909   -1.7526991    1.5783191   439061 
 2543000    1.0519428    -1.752681    -1.752681  -0.17477042   0.38582834    -1.752681    1.5779106   439061 
 2544000    1.0523928   -1.7530692   -1.7530692  -0.17448361   0.38509708   -1.7530692    1.5785856   439061 
 2545000    1.0529803   -1.7548972   -1.7548972  -0.17543037   0.38049253   -1.7548972    1.5794669   439061 
 2546000    1.0530501   -1.7552533   -1.7552533   -0.1756818   0.38267458   -1.7552533    1.5795715   439061 
 2547000    1.0522392   -1.7540914   -1.7540914  -0.17573614   0.38657292   -1.7540914    1.5783553   439061 
 2548000    1.0513505   -1.7533685   -1.7533685  -0.17634633    0.3850152   -1.7533685    1.5770222   439061 
 2549000    1.0511793   -1.7544747   -1.7544747  -0.17770936   0.38585787   -1.7544747    1.5767653   439061 
 2550000    1.0514494   -1.7551646   -1.7551646  -0.17799413   0.38253726   -1.7551646    1.5771705   439061 
 2551000    1.0512461   -1.7541863   -1.7541863  -0.17732074   0.38375299   -1.7541863    1.5768656   439061 
 2552000    1.0501101   -1.7531393   -1.7531393  -0.17797781   0.38099155   -1.7531393    1.5751615   439061 
 2553000    1.0509601   -1.7542112   -1.7542112  -0.17777456   0.38375135   -1.7542112    1.5764366   439061 
 2554000    1.0511879   -1.7534867   -1.7534867  -0.17670842   0.38059053   -1.7534867    1.5767783   439061 
 2555000     1.050719   -1.7529545   -1.7529545  -0.17687959   0.38632448   -1.7529545    1.5760749   439061 
 2556000    1.0517405   -1.7542597   -1.7542597  -0.17665251    0.3830744   -1.7542597    1.5776072   439061 
 2557000     1.050707    -1.753145    -1.753145  -0.17708804   0.38549756    -1.753145     1.576057   439061 
 2558000    1.0496421   -1.7533101   -1.7533101  -0.17885061   0.38618862   -1.7533101    1.5744595   439061 
 2559000    1.0507423   -1.7541166   -1.7541166   -0.1780068   0.38123093   -1.7541166    1.5761098   439061 
 2560000    1.0510091   -1.7541907   -1.7541907  -0.17768062   0.38313848   -1.7541907    1.5765101   439061 
 2561000    1.0510086   -1.7531574   -1.7531574  -0.17664805   0.38569883   -1.7531574    1.5765093   439061 
 2562000    1.0507775   -1.7529877   -1.7529877  -0.17682506   0.38295653   -1.7529877    1.5761626   439061 
 2563000    1.0519276   -1.7535384   -1.7535384  -0.17565065   0.38238045   -1.7535384    1.5778878   439061 
 2564000    1.0528498   -1.7546625   -1.7546625   -0.1753915   0.37996886   -1.7546625     1.579271   439061 
 2565000    1.0518235   -1.7530783   -1.7530783  -0.17534653   0.37957726   -1.7530783    1.5777317   439061 
 2566000    1.0510459   -1.7520655   -1.7520655  -0.17550016   0.38407588   -1.7520655    1.5765653   439061 
 2567000     1.052372   -1.7533946   -1.7533946  -0.17484017   0.37958513   -1.7533946    1.5785545   439061 
 2568000    1.0527735   -1.7546866   -1.7546866  -0.17552995   0.37805729   -1.7546866    1.5791567   439061 
 2569000    1.0516601    -1.752459    -1.752459  -0.17497256   0.38112209    -1.752459    1.5774865   439061 
 2570000    1.0519525   -1.7540226   -1.7540226  -0.17609742   0.37984491   -1.7540226    1.5779251   439061 
 2571000    1.0512366   -1.7523755   -1.7523755   -0.1755241   0.38164549   -1.7523755    1.5768514   439061 
 2572000    1.0517828   -1.7512268   -1.7512268  -0.17355624   0.38766876   -1.7512268    1.5776706   439061 
 2573000    1.0531272   -1.7538233   -1.7538233  -0.17413615   0.38374412   -1.7538233    1.5796872   439061 
 2574000    1.0519631   -1.7527872   -1.7527872  -0.17484614    0.3858507   -1.7527872    1.5779411   439061 
 2575000    1.0515135   -1.7522715   -1.7522715  -0.17500488   0.38696651   -1.7522715    1.5772666   439061 
 2576000    1.0513106   -1.7506845   -1.7506845  -0.17372225   0.38927548   -1.7506845    1.5769623   439061 
 2577000    1.0522269   -1.7529226   -1.7529226  -0.17458588   0.38121287   -1.7529226    1.5783367   439061 
 2578000    1.0515654   -1.7526441   -1.7526441  -0.17529966    0.3846644   -1.7526441    1.5773445   439061 
 2579000    1.0505834   -1.7521429   -1.7521429  -0.17627134   0.38550574   -1.7521429    1.5758715   439061 
 2580000    1.0503346    -1.751306    -1.751306  -0.17580777   0.38769663    -1.751306    1.5754982   439061 
 2581000    1.0518346   -1.7547384   -1.7547384   -0.1769901   0.38263401   -1.7547384    1.5777483   439061 
 2582000    1.0512851   -1.7538143   -1.7538143  -0.17689028   0.38450401   -1.7538143     1.576924   439061 
 2583000    1.0515553   -1.7540446   -1.7540446  -0.17671523   0.38401211   -1.7540446    1.5773294   439061 
 2584000    1.0513888   -1.7538587   -1.7538587  -0.17677913   0.38566283   -1.7538587    1.5770795   439061 
 2585000    1.0521227   -1.7553026   -1.7553026  -0.17712213   0.38256012   -1.7553026    1.5781804   439061 
 2586000    1.0511874    -1.753742    -1.753742  -0.17696451   0.38036493    -1.753742    1.5767775   439061 
 2587000    1.0501367   -1.7534706   -1.7534706   -0.1782692   0.38320345   -1.7534706    1.5752015   439061 
 2588000      1.04956   -1.7532654   -1.7532654  -0.17892895   0.38410715   -1.7532654    1.5743364   439061 
 2589000    1.0507263   -1.7541725   -1.7541725  -0.17808659   0.38492692   -1.7541725    1.5760859   439061 
 2590000    1.0504858   -1.7539597   -1.7539597  -0.17823463   0.38440775   -1.7539597    1.5757251   439061 
 2591000    1.0516519   -1.7555156   -1.7555156  -0.17804135   0.37967617   -1.7555156    1.5774742   439061 
 2592000    1.0520735   -1.7561181   -1.7561181  -0.17801143   0.38233234   -1.7561181    1.5781067   439061 
 2593000    1.0509252   -1.7554907   -1.7554907  -0.17910643   0.38215738   -1.7554907    1.5763843   439061 
 2594000    1.0497475   -1.7530384   -1.7530384   -0.1784207    0.3835347   -1.7530384    1.5746177   439061 
 2595000     1.050418   -1.7547447   -1.7547447  -0.17912129    0.3804995   -1.7547447    1.5756234   439061 
 2596000    1.0499451   -1.7541841   -1.7541841  -0.17927009   0.38326856   -1.7541841    1.5749141   439061 
 2597000    1.0507547   -1.7554666   -1.7554666  -0.17933807   0.38518411   -1.7554666    1.5761285   439061 
 2598000    1.0512698   -1.7551984   -1.7551984  -0.17829733   0.38254736   -1.7551984    1.5769011   439061 
 2599000    1.0513314   -1.7555823   -1.7555823  -0.17858879   0.38355734   -1.7555823    1.5769935   439061 
 2600000    1.0502437   -1.7545812   -1.7545812  -0.17921924   0.38150941   -1.7545812     1.575362   439061 
 2601000    1.0508218   -1.7559374   -1.7559374  -0.17970833   0.38098554   -1.7559374    1.5762291   439061 
 2602000    1.0499671   -1.7551117   -1.7551117  -0.18016465   0.37697944   -1.7551117     1.574947   439061 
 2603000    1.0493566   -1.7549896   -1.7549896  -0.18095821   0.38080215   -1.7549896    1.5740314   439061 
 2604000    1.0479706   -1.7530064   -1.7530064  -0.18105416   0.38327441   -1.7530064    1.5719523   439061 
 2605000    1.0496415   -1.7546597   -1.7546597  -0.18020107   0.38304807   -1.7546597    1.5744586   439061 
 2606000    1.0497911   -1.7548406   -1.7548406  -0.18015754   0.38030142   -1.7548406    1.5746831   439061 
 2607000    1.0493888   -1.7523057   -1.7523057  -0.17822603   0.38745183   -1.7523057    1.5740796   439061 
 2608000    1.0511414   -1.7541801   -1.7541801  -0.17747156    0.3793856   -1.7541801    1.5767086   439061 
 2609000     1.049992   -1.7523273   -1.7523273  -0.17734298   0.38559742   -1.7523273    1.5749844   439061 
 2610000    1.0507295   -1.7540067   -1.7540067  -0.17791606   0.38019762   -1.7540067    1.5760907   439061 
 2611000    1.0489497   -1.7524345   -1.7524345  -0.17901357   0.38175218   -1.7524345    1.5734209   439061 
 2612000    1.0498336   -1.7537246   -1.7537246  -0.17897775   0.37921417   -1.7537246    1.5747468   439061 
 2613000    1.0491088   -1.7530229   -1.7530229  -0.17936326   0.38328302   -1.7530229    1.5736596   439061 
 2614000    1.0508045   -1.7535259   -1.7535259  -0.17732273   0.38434632   -1.7535259    1.5762032   439061 
 2615000    1.0516083   -1.7549845   -1.7549845  -0.17757561   0.38316032   -1.7549845    1.5774089   439061 
 2616000    1.0517532   -1.7535046   -1.7535046  -0.17587848   0.38488271   -1.7535046    1.5776261   439061 
 2617000    1.0503683   -1.7527311   -1.7527311  -0.17718217   0.38704532   -1.7527311    1.5755489   439061 
 2618000    1.0518911   -1.7545377   -1.7545377  -0.17670471   0.37938443   -1.7545377     1.577833   439061 
 2619000      1.05051   -1.7528834   -1.7528834  -0.17712203   0.38368187   -1.7528834    1.5757614   439061 
 2620000    1.0502626   -1.7526442   -1.7526442  -0.17725386   0.38395318   -1.7526442    1.5753903   439061 
 2621000    1.0515622   -1.7543282   -1.7543282  -0.17698845   0.38297692   -1.7543282    1.5773397   439061 
 2622000    1.0519084   -1.7548244   -1.7548244  -0.17696542   0.37584766   -1.7548244     1.577859   439061 
 2623000    1.0504251   -1.7536077   -1.7536077  -0.17797369   0.38536444   -1.7536077     1.575634   439061 
 2624000    1.0499974   -1.7527291   -1.7527291  -0.17773656   0.38480221   -1.7527291    1.5749926   439061 
 2625000    1.0505794   -1.7550325   -1.7550325  -0.17916699   0.37929359   -1.7550325    1.5758655   439061 
 2626000    1.0509445   -1.7545681   -1.7545681  -0.17815486   0.38297877   -1.7545681    1.5764132   439061 
 2627000    1.0500398   -1.7533509   -1.7533509  -0.17829485   0.38294039   -1.7533509    1.5750561   439061 
 2628000    1.0503557   -1.7527443   -1.7527443  -0.17721438   0.38236934   -1.7527443    1.5755299   439061 
 2629000    1.0509018   -1.7547628   -1.7547628   -0.1784137   0.38115638   -1.7547628     1.576349   439061 
 2630000    1.0511983   -1.7541956   -1.7541956  -0.17740171   0.38325608   -1.7541956    1.5767939   439061 
 2631000    1.0503722   -1.7542671   -1.7542671  -0.17871233   0.38559476   -1.7542671    1.5755548   439061 
 2632000    1.0497097   -1.7543525   -1.7543525  -0.17979159   0.37793217   -1.7543525     1.574561   439061 
 2633000    1.0497064   -1.7543733   -1.7543733  -0.17981734   0.37906755   -1.7543733     1.574556   439061 
 2634000    1.0491839   -1.7537802   -1.7537802  -0.18000794   0.38175887   -1.7537802    1.5737723   439061 
 2635000    1.0503378   -1.7559959   -1.7559959  -0.18049282   0.38003055   -1.7559959    1.5755031   439061 
 2636000    1.0509785   -1.7561258   -1.7561258  -0.17966168   0.38176976   -1.7561258    1.5764641   439061 
 2637000    1.0509186   -1.7544517   -1.7544517  -0.17807739   0.38232993   -1.7544517    1.5763743   439061 
 2638000    1.0501968   -1.7550945   -1.7550945  -0.17980295   0.38307322   -1.7550945    1.5752916   439061 
 2639000    1.0494712   -1.7554415   -1.7554415  -0.18123834   0.38287153   -1.7554415    1.5742031   439061 
 2640000    1.0494937   -1.7547698   -1.7547698  -0.18053284   0.38377249   -1.7547698     1.574237   439061 
 2641000    1.0498728   -1.7540235   -1.7540235  -0.17921793   0.38356736   -1.7540235    1.5748055   439061 
 2642000    1.0505462   -1.7544096   -1.7544096  -0.17859383   0.38170251   -1.7544096    1.5758158   439061 
 2643000    1.0518011   -1.7546186   -1.7546186   -0.1769205   0.38154653   -1.7546186    1.5776981   439061 
 2644000     1.051142   -1.7546443   -1.7546443  -0.17793493   0.38136892   -1.7546443    1.5767094   439061 
 2645000    1.0510617   -1.7543403   -1.7543403  -0.17775141    0.3816988   -1.7543403    1.5765889   439061 
 2646000    1.0501583   -1.7544538   -1.7544538     -0.17922   0.38144632   -1.7544538    1.5752338   439061 
 2647000    1.0501402   -1.7539888   -1.7539888  -0.17878198   0.37830535   -1.7539888    1.5752068   439061 
 2648000    1.0506436   -1.7540264   -1.7540264  -0.17806457    0.3809008   -1.7540264    1.5759618   439061 
 2649000    1.0484717   -1.7513443   -1.7513443  -0.17864028   0.38495037   -1.7513443     1.572704   439061 
 2650000    1.0504392   -1.7524036   -1.7524036  -0.17674841   0.38511129   -1.7524036    1.5756551   439061 
 2651000    1.0508227   -1.7540704   -1.7540704     -0.17784   0.38182508   -1.7540704    1.5762304   439061 
 2652000    1.0509244   -1.7541414   -1.7541414   -0.1777584   0.38376185   -1.7541414     1.576383   439061 
 2653000    1.0518319   -1.7567802   -1.7567802  -0.17903589   0.37878472   -1.7567802    1.5777443   439061 
 2654000    1.0495424   -1.7530544   -1.7530544  -0.17874436   0.38152271   -1.7530544    1.5743101   439061 
 2655000    1.0509234   -1.7551333   -1.7551333  -0.17875174   0.37786726   -1.7551333    1.5763816   439061 
 2656000    1.0487162   -1.7519699   -1.7519699  -0.17889921   0.37962674   -1.7519699    1.5730707   439061 
 2657000    1.0485344   -1.7530572   -1.7530572   -0.1802592   0.38192813   -1.7530572     1.572798   439061 
 2658000     1.050666    -1.755197    -1.755197  -0.17920152   0.37841861    -1.755197    1.5759954   439061 
 2659000      1.04943   -1.7536073   -1.7536073  -0.17946584   0.37913121   -1.7536073    1.5741415   439061 
 2660000    1.0498407   -1.7539809   -1.7539809   -0.1792234   0.38270322   -1.7539809    1.5747575   439061 
 2661000    1.0490308   -1.7527806   -1.7527806  -0.17923789   0.38354289   -1.7527806    1.5735427   439061 
 2662000    1.0501226   -1.7544923   -1.7544923  -0.17931202   0.38534978   -1.7544923    1.5751802   439061 
 2663000    1.0493269   -1.7541847   -1.7541847   -0.1801979   0.38310549   -1.7541847    1.5739868   439061 
 2664000    1.0493008   -1.7539562   -1.7539562  -0.18000858   0.38054278   -1.7539562    1.5739476   439061 
 2665000    1.0496352   -1.7539087   -1.7539087  -0.17945943   0.38033448   -1.7539087    1.5744492   439061 
 2666000    1.0483894   -1.7529157   -1.7529157  -0.18033527   0.38466692   -1.7529157    1.5725805   439061 
 2667000    1.0501168   -1.7553161   -1.7553161  -0.18014447     0.378314   -1.7553161    1.5751716   439061 
 2668000    1.0493083   -1.7541758   -1.7541758  -0.18021687   0.38116571   -1.7541758    1.5739589   439061 
 2669000    1.0503285   -1.7554697   -1.7554697   -0.1799805   0.38301256   -1.7554697    1.5754892   439061 
 2670000    1.0495255   -1.7543315   -1.7543315  -0.18004681   0.38048012   -1.7543315    1.5742847   439061 
 2671000    1.0496514   -1.7553054   -1.7553054  -0.18083185   0.37911109   -1.7553054    1.5744736   439061 
 2672000    1.0499796    -1.755019    -1.755019  -0.18005317   0.37872037    -1.755019    1.5749658   439061 
 2673000    1.0481206   -1.7531844   -1.7531844  -0.18100707   0.38154775   -1.7531844    1.5721773   439061 
 2674000    1.0491185   -1.7557827   -1.7557827  -0.18210863   0.37611993   -1.7557827    1.5736741   439061 
 2675000      1.04953    -1.755573    -1.755573  -0.18128159   0.38078772    -1.755573    1.5742915   439061 
 2676000    1.0477671   -1.7531939   -1.7531939  -0.18154683   0.37964868   -1.7531939     1.571647   439061 
 2677000     1.048301   -1.7543745   -1.7543745  -0.18192655   0.38008936   -1.7543745     1.572448   439061 
 2678000    1.0492523   -1.7560347   -1.7560347  -0.18215977   0.38102176   -1.7560347    1.5738749   439061 
 2679000    1.0489073    -1.755187    -1.755187  -0.18182961    0.3804662    -1.755187    1.5733574   439061 
 2680000    1.0492798   -1.7550082   -1.7550082  -0.18109218   0.38055534   -1.7550082     1.573916   439061 
 2681000    1.0489739   -1.7537583   -1.7537583  -0.18030099   0.37987059   -1.7537583    1.5734573   439061 
 2682000    1.0493176    -1.754494    -1.754494  -0.18052128   0.37901809    -1.754494    1.5739728   439061 
 2683000    1.0492246   -1.7547146   -1.7547146  -0.18088134    0.3814564   -1.7547146    1.5738332   439061 
 2684000    1.0496858   -1.7543456   -1.7543456  -0.17982052   0.38214584   -1.7543456    1.5745251   439061 
 2685000    1.0505541   -1.7549091   -1.7549091  -0.17908163   0.37889831   -1.7549091    1.5758275   439061 
 2686000    1.0490372   -1.7531358   -1.7531358  -0.17958364   0.38143311   -1.7531358    1.5735522   439061 
 2687000    1.0508956   -1.7551391   -1.7551391  -0.17879931    0.3784516   -1.7551391    1.5763398   439061 
 2688000     1.050267   -1.7538105   -1.7538105   -0.1784135   0.38076331   -1.7538105     1.575397   439061 
 2689000    1.0497686   -1.7548367   -1.7548367  -0.18018742   0.37974185   -1.7548367    1.5746493   439061 
 2690000    1.0483136   -1.7519641   -1.7519641  -0.17949727   0.38378962   -1.7519641    1.5724668   439061 
 2691000    1.0494579   -1.7532282   -1.7532282  -0.17904493   0.38402174   -1.7532282    1.5741833   439061 
 2692000    1.0500363   -1.7540846   -1.7540846  -0.17903368   0.38345025   -1.7540846    1.5750509   439061 
 2693000    1.0503008   -1.7531284   -1.7531284  -0.17768088   0.38131784   -1.7531284    1.5754476   439061 
 2694000    1.0503668   -1.7540214   -1.7540214  -0.17847474   0.38030858   -1.7540214    1.5755467   439061 
 2695000    1.0490612   -1.7535055   -1.7535055   -0.1799173   0.38243055   -1.7535055    1.5735882   439061 
 2696000    1.0494454   -1.7543179   -1.7543179  -0.18015338   0.37960432   -1.7543179    1.5741645   439061 
 2697000    1.0485711   -1.7539501   -1.7539501  -0.18109699   0.37689107   -1.7539501    1.5728531   439061 
 2698000      1.04945   -1.7545081   -1.7545081   -0.1803367   0.38044236   -1.7545081    1.5741714   439061 
 2699000    1.0476995   -1.7513086   -1.7513086  -0.17976297   0.38200364   -1.7513086    1.5715456   439061 
 2700000    1.0507021   -1.7546678   -1.7546678   -0.1786182   0.38129239   -1.7546678    1.5760496   439061 
 2701000    1.0502232   -1.7545395   -1.7545395  -0.17920822    0.3778159   -1.7545395    1.5753312   439061 
 2702000    1.0490333   -1.7545056   -1.7545056  -0.18095924   0.37998386   -1.7545056    1.5735464   439061 
 2703000     1.050572    -1.756015    -1.756015   -0.1801607   0.37926938    -1.756015    1.5758543   439061 
 2704000    1.0496765   -1.7543787   -1.7543787  -0.17986762   0.37743622   -1.7543787    1.5745111   439061 
 2705000    1.0496985   -1.7539121   -1.7539121  -0.17936798    0.3785065   -1.7539121    1.5745441   439061 
 2706000    1.0474193   -1.7515026   -1.7515026  -0.18037724   0.38449009   -1.7515026    1.5711254   439061 
 2707000    1.0471571   -1.7531404   -1.7531404   -0.1824083   0.38277046   -1.7531404    1.5707321   439061 
 2708000    1.0496964   -1.7562077   -1.7562077   -0.1816667   0.38072408   -1.7562077     1.574541   439061 
 2709000    1.0480499    -1.752925    -1.752925  -0.18085383   0.38284218    -1.752925    1.5720712   439061 
 2710000    1.0474451   -1.7528367   -1.7528367  -0.18167262   0.38367336   -1.7528367    1.5711641   439061 
 2711000    1.0487468   -1.7551331   -1.7551331  -0.18201646   0.37949031   -1.7551331    1.5731166   439061 
 2712000    1.0489203   -1.7557033   -1.7557033  -0.18232639   0.37846244   -1.7557033    1.5733769   439061 
 2713000    1.0481484   -1.7540961   -1.7540961  -0.18187713   0.37857735   -1.7540961     1.572219   439061 
 2714000    1.0483817   -1.7547765   -1.7547765  -0.18220762   0.38197233   -1.7547765    1.5725689   439061 
 2715000    1.0484194   -1.7539739   -1.7539739  -0.18134838   0.38220781   -1.7539739    1.5726255   439061 
 2716000     1.047874   -1.7543805   -1.7543805  -0.18257313   0.38271183   -1.7543805    1.5718074   439061 
 2717000    1.0485678   -1.7540848   -1.7540848  -0.18123673   0.37949226   -1.7540848    1.5728481   439061 
 2718000    1.0481863   -1.7547643   -1.7547643  -0.18248842    0.3797248   -1.7547643    1.5722759   439061 
 2719000    1.0485721   -1.7545007   -1.7545007  -0.18164609    0.3781249   -1.7545007    1.5728546   439061 
 2720000    1.0486333   -1.7561124   -1.7561124  -0.18316611    0.3799845   -1.7561124    1.5729463   439061 
 2721000    1.0477922   -1.7536141   -1.7536141  -0.18192941   0.38178253   -1.7536141    1.5716847   439061 
 2722000     1.046269   -1.7528774   -1.7528774   -0.1834775   0.38196738   -1.7528774    1.5693999   439061 
 2723000    1.0471462   -1.7550128   -1.7550128  -0.18429704   0.37999514   -1.7550128    1.5707158   439061 
 2724000    1.0481983   -1.7563622   -1.7563622   -0.1840683   0.37854651   -1.7563622    1.5722939   439061 
 2725000    1.0484406   -1.7562583   -1.7562583  -0.18360095   0.37611009   -1.7562583    1.5726574   439061 
 2726000    1.0488376   -1.7557493   -1.7557493   -0.1824964   0.37718697   -1.7557493    1.5732529   439061 
 2727000    1.0480623    -1.755078    -1.755078   -0.1829881   0.37760464    -1.755078    1.5720899   439061 
 2728000    1.0478606   -1.7551846   -1.7551846  -0.18339727   0.37902025   -1.7551846    1.5717874   439061 
 2729000    1.0485031   -1.7564435   -1.7564435  -0.18369245   0.37742137   -1.7564435    1.5727511   439061 
 2730000    1.0466926   -1.7534743   -1.7534743  -0.18343897   0.37749209   -1.7534743    1.5700354   439061 
 2731000    1.0483165    -1.755452    -1.755452  -0.18298087   0.38362123    -1.755452    1.5724712   439061 
 2732000    1.0480057    -1.755656    -1.755656  -0.18365104   0.37947732    -1.755656     1.572005   439061 
 2733000    1.0479671   -1.7543521   -1.7543521  -0.18240493   0.38172853   -1.7543521    1.5719471   439061 
 2734000    1.0483327   -1.7545128   -1.7545128  -0.18201731   0.37915554   -1.7545128    1.5724955   439061 
 2735000      1.04878   -1.7545395   -1.7545395  -0.18137302   0.38074432   -1.7545395    1.5731665   439061 
 2736000    1.0485396   -1.7556257   -1.7556257  -0.18281991   0.37756808   -1.7556257    1.5728058   439061 
 2737000      1.04894    -1.754602    -1.754602  -0.18119556   0.38019887    -1.754602    1.5734064   439061 
 2738000    1.0474635   -1.7538154   -1.7538154  -0.18262374    0.3824285   -1.7538154    1.5711916   439061 
 2739000    1.0459029   -1.7519765   -1.7519765   -0.1831257   0.38298607   -1.7519765    1.5688508   439061 
 2740000    1.0485867   -1.7557311   -1.7557311  -0.18285463   0.38263426   -1.7557311    1.5728764   439061 
 2741000    1.0469897   -1.7537967   -1.7537967  -0.18331574   0.38296836   -1.7537967     1.570481   439061 
 2742000    1.0483995   -1.7568887   -1.7568887  -0.18429301   0.38146549   -1.7568887    1.5725957   439061 
 2743000     1.048207   -1.7555871   -1.7555871  -0.18328015   0.37800973   -1.7555871     1.572307   439061 
 2744000    1.0481921   -1.7549657   -1.7549657  -0.18268119   0.37946471   -1.7549657    1.5722845   439061 
 2745000    1.0485515   -1.7559495   -1.7559495  -0.18312583   0.38044088   -1.7559495    1.5728237   439061 
 2746000    1.0485267   -1.7550158   -1.7550158  -0.18222933   0.38060694   -1.7550158    1.5727864   439061 
 2747000    1.0479441   -1.7543464   -1.7543464  -0.18243374   0.38065972   -1.7543464    1.5719126   439061 
 2748000    1.0480248   -1.7541245   -1.7541245   -0.1820909   0.38244816   -1.7541245    1.5720336   439061 
 2749000    1.0479526    -1.754595    -1.754595  -0.18266964   0.37765704    -1.754595    1.5719253   439061 
 2750000    1.0488601   -1.7565543   -1.7565543  -0.18326775    0.3775595   -1.7565543    1.5732866   439061 
 2751000    1.0475293   -1.7533988   -1.7533988  -0.18210843   0.38290389   -1.7533988    1.5712904   439061 
 2752000    1.0480481   -1.7553099   -1.7553099   -0.1832413   0.37776467   -1.7553099    1.5720686   439061 
 2753000    1.0479148   -1.7556116   -1.7556116  -0.18374309   0.37917496   -1.7556116    1.5718686   439061 
 2754000    1.0476547    -1.754877    -1.754877  -0.18339853   0.37977636    -1.754877    1.5714784   439061 
 2755000    1.0482897   -1.7558303   -1.7558303  -0.18339938   0.37704018   -1.7558303    1.5724309   439061 
 2756000    1.0477306   -1.7548648   -1.7548648  -0.18327247   0.37992916   -1.7548648    1.5715923   439061 
 2757000    1.0477212   -1.7561298   -1.7561298  -0.18455162   0.37542624   -1.7561298    1.5715782   439061 
 2758000    1.0475862   -1.7568504   -1.7568504  -0.18547469   0.37619268   -1.7568504    1.5713757   439061 
 2759000    1.0470907   -1.7550871   -1.7550871  -0.18445456   0.37945442   -1.7550871    1.5706325   439061 
 2760000     1.046001   -1.7534015   -1.7534015  -0.18440355   0.38015208   -1.7534015    1.5689979   439061 
 2761000    1.0459378   -1.7536358   -1.7536358  -0.18473261   0.38179029   -1.7536358    1.5689032   439061 
 2762000     1.047144   -1.7563593   -1.7563593  -0.18564692   0.37899427   -1.7563593    1.5707124   439061 
 2763000    1.0473184   -1.7552345   -1.7552345  -0.18426048   0.37756022   -1.7552345     1.570974   439061 
 2764000    1.0467831     -1.75523     -1.75523   -0.1850589    0.3772751     -1.75523    1.5701711   439061 
 2765000    1.0475534   -1.7561401   -1.7561401  -0.18481355   0.37811181   -1.7561401    1.5713266   439061 
 2766000    1.0472825   -1.7551427   -1.7551427  -0.18422252   0.37775885   -1.7551427    1.5709201   439061 
 2767000    1.0476409   -1.7545372   -1.7545372   -0.1830794   0.37905174   -1.7545372    1.5714578   439061 
 2768000    1.0479136   -1.7556872   -1.7556872  -0.18382042   0.37751705   -1.7556872    1.5718668   439061 
 2769000    1.0467683    -1.754775    -1.754775  -0.18462617   0.37582216    -1.754775    1.5701489   439061 
 2770000    1.0460391   -1.7534671   -1.7534671  -0.18441204   0.37932785   -1.7534671    1.5690551   439061 
 2771000    1.0486129   -1.7566135   -1.7566135  -0.18369776   0.38038305   -1.7566135    1.5729158   439061 
 2772000    1.0487443   -1.7564612   -1.7564612  -0.18334828   0.37684423   -1.7564612    1.5731129   439061 
 2773000    1.0482133   -1.7553006   -1.7553006  -0.18298414   0.38441678   -1.7553006    1.5723164   439061 
 2774000    1.0482443   -1.7546763   -1.7546763  -0.18231338   0.38259507   -1.7546763    1.5723629   439061 
 2775000     1.048055   -1.7543895   -1.7543895  -0.18231051   0.38064536   -1.7543895     1.572079   439061 
 2776000    1.0481722   -1.7550553   -1.7550553  -0.18280047   0.38146305   -1.7550553    1.5722548   439061 
 2777000    1.0483948   -1.7547801   -1.7547801  -0.18219151    0.3790518   -1.7547801    1.5725886   439061 
 2778000    1.0476186   -1.7542213   -1.7542213  -0.18279692   0.37694577   -1.7542213    1.5714244   439061 
 2779000    1.0466224   -1.7531946   -1.7531946  -0.18326467   0.38138803   -1.7531946      1.56993   439061 
 2780000    1.0480663   -1.7561491   -1.7561491  -0.18405322   0.37557953   -1.7561491    1.5720959   439061 
 2781000    1.0461697   -1.7550362   -1.7550362  -0.18578515   0.38335139   -1.7550362     1.569251   439061 
 2782000    1.0461443   -1.7555271   -1.7555271  -0.18631426   0.37670114   -1.7555271    1.5692128   439061 
 2783000    1.0476735   -1.7560345   -1.7560345  -0.18452792   0.38245029   -1.7560345    1.5715066   439061 
 2784000    1.0467266   -1.7545213   -1.7545213    -0.184435   0.37995383   -1.7545213    1.5700863   439061 
 2785000    1.0480718   -1.7552642   -1.7552642  -0.18316003   0.37901412   -1.7552642    1.5721042   439061 
 2786000    1.0470968   -1.7534558   -1.7534558  -0.18281421   0.38283925   -1.7534558    1.5706416   439061 
 2787000    1.0494534    -1.755079    -1.755079   -0.1809026   0.37940945    -1.755079    1.5741764   439061 
 2788000    1.0486135    -1.754998    -1.754998  -0.18208139   0.38274041    -1.754998    1.5729166   439061 
 2789000    1.0489145   -1.7562905   -1.7562905  -0.18292241   0.37901582   -1.7562905    1.5733681   439061 
 2790000    1.0488355   -1.7551974   -1.7551974  -0.18194781    0.3777748   -1.7551974    1.5732496   439061 
 2791000    1.0487328   -1.7553092   -1.7553092  -0.18221355   0.37939298   -1.7553092    1.5730957   439061 
 2792000    1.0476679   -1.7534062   -1.7534062  -0.18190795    0.3795899   -1.7534062    1.5714982   439061 
 2793000    1.0472093   -1.7536053   -1.7536053   -0.1827949   0.37866423   -1.7536053    1.5708104   439061 
 2794000    1.0494932    -1.756239    -1.756239  -0.18200279   0.37603213    -1.756239    1.5742363   439061 
 2795000    1.0474454   -1.7544853   -1.7544853  -0.18332073   0.38008405   -1.7544853    1.5711646   439061 
 2796000    1.0471356    -1.754454    -1.754454  -0.18375416   0.37618904    -1.754454    1.5706998   439061 
 2797000     1.049353   -1.7557336   -1.7557336  -0.18170766   0.37687218   -1.7557336    1.5740259   439061 
 2798000     1.047857   -1.7548589   -1.7548589  -0.18307694   0.37744571   -1.7548589     1.571782   439061 
 2799000    1.0475829   -1.7551118   -1.7551118  -0.18374113   0.37616905   -1.7551118    1.5713707   439061 
 2800000    1.0478556   -1.7541032   -1.7541032  -0.18232346   0.37924465   -1.7541032    1.5717798   439061 
 2801000    1.0480064   -1.7549349   -1.7549349  -0.18292878   0.37942899   -1.7549349    1.5720061   439061 
 2802000     1.049254   -1.7560526   -1.7560526  -0.18217522   0.37864165   -1.7560526    1.5738774   439061 
 2803000    1.0473305   -1.7537135   -1.7537135  -0.18272135   0.38163993   -1.7537135    1.5709921   439061 
 2804000     1.047841   -1.7545474   -1.7545474  -0.18278954   0.37810358   -1.7545474    1.5717579   439061 
 2805000    1.0480118   -1.7543644   -1.7543644  -0.18235036   0.38376166   -1.7543644     1.572014   439061 
 2806000    1.0478883    -1.755007    -1.755007  -0.18317816   0.37902951    -1.755007    1.5718288   439061 
 2807000    1.0476163   -1.7547675   -1.7547675   -0.1833467   0.38073585   -1.7547675    1.5714208   439061 
 2808000     1.047028   -1.7538726   -1.7538726  -0.18333412   0.38291859   -1.7538726    1.5705385   439061 
 2809000    1.0486446   -1.7560028   -1.7560028  -0.18303951   0.37681033   -1.7560028    1.5729633   439061 
 2810000    1.0484115    -1.754528    -1.754528  -0.18191432   0.38198346    -1.754528    1.5726137   439061 
 2811000    1.0466272    -1.753412    -1.753412  -0.18347472   0.38187839    -1.753412    1.5699373   439061 
 2812000    1.0485588   -1.7560146   -1.7560146  -0.18317989   0.37993617   -1.7560146    1.5728347   439061 
 2813000    1.0477404    -1.755532    -1.755532  -0.18392496   0.37669533    -1.755532     1.571607   439061 
 2814000     1.048922   -1.7559442   -1.7559442   -0.1825648   0.37967095   -1.7559442    1.5733794   439061 
 2815000    1.0478783   -1.7544647   -1.7544647  -0.18265077   0.38479174   -1.7544647    1.5718139   439061 
 2816000    1.0473859    -1.755229    -1.755229  -0.18415367   0.37908419    -1.755229    1.5710753   439061 
 2817000     1.047178   -1.7546187   -1.7546187  -0.18385525   0.37941069   -1.7546187    1.5707635   439061 
 2818000    1.0465669   -1.7546507   -1.7546507  -0.18480396   0.37985929   -1.7546507    1.5698468   439061 
 2819000    1.0476654   -1.7570916   -1.7570916  -0.18559717   0.37785368   -1.7570916    1.5714945   439061 
 2820000    1.0472861   -1.7550166   -1.7550166  -0.18409113   0.37839869   -1.7550166    1.5709255   439061 
 2821000    1.0465856   -1.7537361   -1.7537361  -0.18386138   0.38217051   -1.7537361    1.5698748   439061 
 2822000    1.0481574   -1.7556385   -1.7556385  -0.18340595   0.37330566   -1.7556385    1.5722326   439061 
 2823000    1.0480559   -1.7549027   -1.7549027  -0.18282248   0.38303539   -1.7549027    1.5720803   439061 
 2824000    1.0478374   -1.7549281   -1.7549281  -0.18317564   0.38560909   -1.7549281    1.5717525   439061 
 2825000    1.0478018   -1.7549687   -1.7549687  -0.18326951   0.37494039   -1.7549687    1.5716992   439061 
 2826000    1.0472661   -1.7547811   -1.7547811  -0.18388548   0.37698009   -1.7547811    1.5708956   439061 
 2827000     1.048392   -1.7562172   -1.7562172  -0.18363279   0.37242314   -1.7562172    1.5725844   439061 
 2828000    1.0491451    -1.756766    -1.756766  -0.18305199    0.3745229    -1.756766     1.573714   439061 
 2829000    1.0473878   -1.7541807   -1.7541807  -0.18310252   0.37792655   -1.7541807    1.5710782   439061 
 2830000     1.047056   -1.7539193   -1.7539193  -0.18333889   0.38025849   -1.7539193    1.5705804   439061 
 2831000    1.0479038    -1.754136    -1.754136  -0.18228394   0.38171409    -1.754136     1.571852   439061 
 2832000    1.0468888   -1.7526751   -1.7526751  -0.18234544   0.38253762   -1.7526751    1.5703296   439061 
 2833000    1.0461788   -1.7522503   -1.7522503  -0.18298564   0.38099162   -1.7522503    1.5692646   439061 
 2834000    1.0469634   -1.7541082   -1.7541082  -0.18366664    0.3820498   -1.7541082    1.5704415   439061 
 2835000    1.0475982    -1.755565    -1.755565  -0.18417126   0.37925309    -1.755565    1.5713937   439061 
 2836000    1.0471878   -1.7551406   -1.7551406  -0.18436245   0.37720611   -1.7551406    1.5707782   439061 
 2837000    1.0482346   -1.7563284   -1.7563284  -0.18398005   0.37858921   -1.7563284    1.5723484   439061 
 2838000     1.046043   -1.7534792   -1.7534792  -0.18441832   0.38062494   -1.7534792    1.5690609   439061 
 2839000    1.0466771   -1.7546863   -1.7546863  -0.18467425    0.3760161   -1.7546863     1.570012   439061 
 2840000    1.0466373   -1.7549872   -1.7549872  -0.18503492   0.37657354   -1.7549872    1.5699523   439061 
 2841000    1.0461721   -1.7542025   -1.7542025  -0.18494792   0.38150268   -1.7542025    1.5692546   439061 
 2842000    1.0484454   -1.7558939   -1.7558939  -0.18322934   0.37971301   -1.7558939    1.5726645   439061 
 2843000    1.0461789   -1.7527247   -1.7527247  -0.18345988   0.37884778   -1.7527247    1.5692648   439061 
 2844000    1.0474862   -1.7543801   -1.7543801  -0.18315436   0.38297371   -1.7543801    1.5712258   439061 
 2845000    1.0474473   -1.7553441   -1.7553441  -0.18417669   0.38116118   -1.7553441    1.5711674   439061 
 2846000    1.0466489   -1.7550289   -1.7550289  -0.18505907   0.37991334   -1.7550289    1.5699698   439061 
 2847000    1.0469116    -1.754963    -1.754963  -0.18459919   0.38040666    -1.754963    1.5703638   439061 
 2848000    1.0459819   -1.7546523   -1.7546523  -0.18568299   0.38051416   -1.7546523    1.5689693   439061 
 2849000     1.045497   -1.7541439   -1.7541439  -0.18590193   0.37647524   -1.7541439     1.568242   439061 
 2850000    1.0467752   -1.7551639   -1.7551639  -0.18500468   0.37894398   -1.7551639    1.5701592   439061 
 2851000    1.0474462   -1.7557825   -1.7557825  -0.18461689   0.38080588   -1.7557825    1.5711657   439061 
 2852000    1.0472699   -1.7560527   -1.7560527  -0.18515138   0.38122776   -1.7560527    1.5709013   439061 
 2853000    1.0458105   -1.7532533   -1.7532533  -0.18454122   0.38415399   -1.7532533    1.5687121   439061 
 2854000    1.0472177   -1.7542423   -1.7542423  -0.18341933   0.37904751   -1.7542423     1.570823   439061 
 2855000    1.0474021   -1.7543131   -1.7543131  -0.18321354    0.3816344   -1.7543131    1.5710996   439061 
 2856000    1.0473768    -1.754736    -1.754736  -0.18367439   0.38086212    -1.754736    1.5710616   439061 
 2857000    1.0476545   -1.7546323   -1.7546323  -0.18315415   0.37933838   -1.7546323    1.5714781   439061 
 2858000    1.0487028   -1.7558666   -1.7558666    -0.182816   0.37855789   -1.7558666    1.5730506   439061 
 2859000    1.0474805    -1.754338    -1.754338  -0.18312078   0.37830512    -1.754338    1.5712172   439061 
 2860000    1.0479343   -1.7555385   -1.7555385  -0.18364065   0.37806479   -1.7555385    1.5718978   439061 
 2861000    1.0464955   -1.7544545   -1.7544545  -0.18471484   0.38054258   -1.7544545    1.5697397   439061 
 2862000    1.0460965   -1.7537595   -1.7537595  -0.18461839   0.38102152   -1.7537595    1.5691411   439061 
 2863000    1.0495896   -1.7570424   -1.7570424  -0.18266163   0.37822581   -1.7570424    1.5743808   439061 
 2864000    1.0468319   -1.7537396   -1.7537396  -0.18349539   0.38011783   -1.7537396    1.5702442   439061 
 2865000    1.0471539    -1.754168    -1.754168  -0.18344075   0.37976277    -1.754168    1.5707273   439061 
 2866000    1.0475381   -1.7538709   -1.7538709  -0.18256729   0.37759144   -1.7538709    1.5713036   439061 
 2867000    1.0489578   -1.7551785   -1.7551785  -0.18174542   0.37832534   -1.7551785    1.5734331   439061 
 2868000     1.048529   -1.7548671   -1.7548671  -0.18207718   0.37884115   -1.7548671    1.5727899   439061 
 2869000    1.0493798   -1.7557282   -1.7557282  -0.18166201   0.37704732   -1.7557282    1.5740662   439061 
 2870000    1.0492589   -1.7545525   -1.7545525  -0.18066776   0.37834602   -1.7545525    1.5738847   439061 
 2871000    1.0490938   -1.7553907   -1.7553907  -0.18175362   0.37995684   -1.7553907    1.5736371   439061 
 2872000    1.0486329   -1.7548547   -1.7548547  -0.18190889   0.37857696   -1.7548547    1.5729458   439061 
 2873000    1.0474693   -1.7526474   -1.7526474  -0.18144714   0.38300208   -1.7526474    1.5712003   439061 
 2874000    1.0491038   -1.7555447   -1.7555447  -0.18189253   0.37778226   -1.7555447    1.5736521   439061 
 2875000    1.0485524   -1.7548781   -1.7548781  -0.18205307   0.37908741   -1.7548781    1.5728251   439061 
 2876000    1.0480328   -1.7543537   -1.7543537  -0.18230798   0.37943496   -1.7543537    1.5720457   439061 
 2877000     1.048137   -1.7545322   -1.7545322  -0.18233031   0.37246824   -1.7545322    1.5722019   439061 
 2878000    1.0460161   -1.7519825   -1.7519825  -0.18296188   0.38084111   -1.7519825    1.5690206   439061 
 2879000    1.0465405    -1.753907    -1.753907  -0.18409978   0.37807155    -1.753907    1.5698072   439061 
 2880000    1.0474813   -1.7549045   -1.7549045  -0.18368616    0.3777388   -1.7549045    1.5712183   439061 
 2881000    1.0469809   -1.7534245   -1.7534245  -0.18295665   0.38095125   -1.7534245    1.5704678   439061 
 2882000    1.0473377   -1.7554832   -1.7554832  -0.18448021   0.38248743   -1.7554832    1.5710029   439061 
 2883000    1.0473055    -1.754204    -1.754204  -0.18324933   0.37949044    -1.754204    1.5709547   439061 
 2884000    1.0473575   -1.7558166   -1.7558166  -0.18478388   0.37609559   -1.7558166    1.5710327   439061 
 2885000    1.0475817   -1.7557432   -1.7557432   -0.1843742   0.37788556   -1.7557432     1.571369   439061 
 2886000    1.0476578    -1.755786    -1.755786  -0.18430295   0.37391805    -1.755786    1.5714831   439061 
 2887000    1.0462614   -1.7546598   -1.7546598  -0.18527127   0.38239014   -1.7546598    1.5693885   439061 
 2888000    1.0470544   -1.7561043   -1.7561043  -0.18552628   0.37743329   -1.7561043     1.570578   439061 
 2889000    1.0455412   -1.7541919   -1.7541919  -0.18588373   0.37808338   -1.7541919    1.5683082   439061 
 2890000    1.0472838   -1.7554058   -1.7554058  -0.18448361   0.37959655   -1.7554058    1.5709222   439061 
 2891000    1.0462242   -1.7551293   -1.7551293  -0.18579657   0.37965195   -1.7551293    1.5693328   439061 
 2892000    1.0463491   -1.7551301   -1.7551301  -0.18560999   0.38285742   -1.7551301    1.5695201   439061 
 2893000    1.0484169   -1.7575289   -1.7575289  -0.18490715   0.37591277   -1.7575289    1.5726217   439061 
 2894000    1.0452672   -1.7540146   -1.7540146   -0.1861174    0.3801781   -1.7540146    1.5678972   439061 
 2895000    1.0460889   -1.7551828   -1.7551828    -0.186053   0.38218838   -1.7551828    1.5691298   439061 
 2896000    1.0477127   -1.7569672   -1.7569672  -0.18540169   0.37522558   -1.7569672    1.5715655   439061 
 2897000    1.0479414   -1.7564231   -1.7564231  -0.18451465   0.37466637   -1.7564231    1.5719085   439061 
 2898000    1.0481459   -1.7553752   -1.7553752  -0.18315996   0.37718638   -1.7553752    1.5722152   439061 
 2899000    1.0477364   -1.7557328   -1.7557328  -0.18413173   0.37924603   -1.7557328    1.5716011   439061 
 2900000    1.0481616   -1.7553921   -1.7553921  -0.18315329   0.37835213   -1.7553921    1.5722388   439061 
 2901000    1.0475605   -1.7551675   -1.7551675  -0.18383028   0.37882134   -1.7551675    1.5713372   439061 
 2902000    1.0459867   -1.7540252   -1.7540252  -0.18504864   0.37879062   -1.7540252    1.5689765   439061 
 2903000    1.0477919   -1.7543129   -1.7543129   -0.1826287   0.37664132   -1.7543129    1.5716842   439061 
 2904000    1.0475032    -1.753385    -1.753385  -0.18213375   0.38157469    -1.753385    1.5712513   439061 
 2905000    1.0478076   -1.7549212   -1.7549212  -0.18321346   0.37781976   -1.7549212    1.5717078   439061 
 2906000    1.0483484    -1.754326    -1.754326  -0.18180699   0.37978234    -1.754326     1.572519   439061 
 2907000    1.0483008   -1.7553335   -1.7553335  -0.18288594   0.38152583   -1.7553335    1.5724476   439061 
 2908000    1.0484276   -1.7550826   -1.7550826  -0.18244479   0.37551936   -1.7550826    1.5726378   439061 
 2909000    1.0473305       -1.754       -1.754  -0.18300774   0.38295479       -1.754    1.5709922   439061 
 2910000    1.0473239   -1.7532249   -1.7532249  -0.18224267   0.37706631   -1.7532249    1.5709823   439061 
 2911000    1.0483901   -1.7538735   -1.7538735  -0.18129188   0.38178806   -1.7538735    1.5725816   439061 
 2912000    1.0462114   -1.7518905   -1.7518905  -0.18257706    0.3815647   -1.7518905    1.5693135   439061 
 2913000    1.0479236   -1.7530384   -1.7530384  -0.18115669   0.38304608   -1.7530384    1.5718818   439061 
 2914000    1.0486387   -1.7537881   -1.7537881  -0.18083356   0.38458233   -1.7537881    1.5729545   439061 
 2915000    1.0485647   -1.7543121   -1.7543121  -0.18146861   0.37718301   -1.7543121    1.5728435   439061 
 2916000     1.047453   -1.7531975   -1.7531975  -0.18202153   0.38696315   -1.7531975     1.571176   439061 
 2917000    1.0488345   -1.7541573   -1.7541573  -0.18090909   0.38430653   -1.7541573    1.5732482   439061 
 2918000     1.047081   -1.7525201   -1.7525201   -0.1819022   0.37956792   -1.7525201    1.5706179   439061 
 2919000    1.0471291   -1.7528526   -1.7528526  -0.18216264   0.37896407   -1.7528526      1.57069   439061 
 2920000    1.0482097   -1.7542897   -1.7542897  -0.18197873   0.37596649   -1.7542897     1.572311   439061 
 2921000    1.0480364   -1.7544791   -1.7544791  -0.18242813   0.37771917   -1.7544791     1.572051   439061 
 2922000    1.0474709   -1.7547958   -1.7547958  -0.18359303    0.3778656   -1.7547958    1.5712027   439061 
 2923000     1.047456   -1.7556185   -1.7556185  -0.18443799   0.37837733   -1.7556185    1.5711805   439061 
 2924000    1.0469505   -1.7537461   -1.7537461  -0.18332394   0.38187231   -1.7537461    1.5704221   439061 
 2925000    1.0483688   -1.7560107   -1.7560107  -0.18346109   0.37753952   -1.7560107    1.5725497   439061 
 2926000    1.0471131   -1.7544988   -1.7544988  -0.18383268   0.37799849   -1.7544988    1.5706661   439061 
 2927000    1.0481625   -1.7544184   -1.7544184  -0.18217823   0.38093445   -1.7544184    1.5722402   439061 
 2928000    1.0471081   -1.7537754   -1.7537754  -0.18311681    0.3804927   -1.7537754    1.5706586   439061 
 2929000    1.0479579   -1.7542383   -1.7542383  -0.18230513   0.38053824   -1.7542383    1.5719332   439061 
 2930000    1.0478432   -1.7541162   -1.7541162  -0.18235498   0.38131026   -1.7541162    1.5717612   439061 
 2931000    1.0470586   -1.7540015   -1.7540015  -0.18341711   0.37926331   -1.7540015    1.5705843   439061 
 2932000    1.0472094   -1.7539614   -1.7539614  -0.18315077   0.37696689   -1.7539614    1.5708106   439061 
 2933000    1.0485109   -1.7558734   -1.7558734  -0.18311066   0.37834366   -1.7558734    1.5727627   439061 
 2934000     1.047919   -1.7559431   -1.7559431  -0.18406823   0.37644473   -1.7559431    1.5718749   439061 
 2935000    1.0474335   -1.7541823   -1.7541823  -0.18303573   0.38202011   -1.7541823    1.5711466   439061 
 2936000    1.0478407   -1.7551798   -1.7551798  -0.18342226   0.37698817   -1.7551798    1.5717575   439061 
 2937000    1.0468284   -1.7545517   -1.7545517  -0.18431265   0.37869764   -1.7545517     1.570239   439061 
 2938000    1.0460907   -1.7533535   -1.7533535  -0.18422102    0.3792159   -1.7533535    1.5691325   439061 
 2939000    1.0476056    -1.756198    -1.756198  -0.18479318   0.37424396    -1.756198    1.5714048   439061 
 2940000    1.0473948   -1.7550192   -1.7550192  -0.18393065   0.37862286   -1.7550192    1.5710886   439061 
 2941000    1.0469138   -1.7548881   -1.7548881  -0.18452099   0.37715317   -1.7548881    1.5703671   439061 
 2942000    1.0471701   -1.7551253   -1.7551253  -0.18437366   0.37997748   -1.7551253    1.5707516   439061 
 2943000    1.0460881   -1.7546654   -1.7546654  -0.18553684   0.37690759   -1.7546654    1.5691286   439061 
 2944000    1.0461587   -1.7542774   -1.7542774  -0.18504302   0.37780998   -1.7542774    1.5692344   439061 
 2945000    1.0458099   -1.7546144   -1.7546144  -0.18590312   0.37883592   -1.7546144    1.5687113   439061 
 2946000    1.0475354   -1.7566457   -1.7566457  -0.18534619   0.37608761   -1.7566457    1.5712995   439061 
 2947000    1.0466113   -1.7552484   -1.7552484  -0.18533502   0.37492848   -1.7552484    1.5699133   439061 
 2948000    1.0466864   -1.7563903   -1.7563903  -0.18636427   0.37313931   -1.7563903    1.5700261   439061 
 2949000    1.0459917   -1.7554888   -1.7554888  -0.18650478   0.37628476   -1.7554888     1.568984   439061 
 2950000    1.0446648   -1.7533427   -1.7533427  -0.18634906   0.37949056   -1.7533427    1.5669936   439061 
 2951000    1.0462333    -1.754942    -1.754942  -0.18559558   0.38180947    -1.754942    1.5693464   439061 
 2952000    1.0455632   -1.7532684   -1.7532684  -0.18492715   0.37933899   -1.7532684    1.5683413   439061 
 2953000     1.046226     -1.75505     -1.75505  -0.18571465   0.37966447     -1.75505    1.5693354   439061 
 2954000    1.0452581   -1.7546527   -1.7546527  -0.18676906   0.38256159   -1.7546527    1.5678836   439061 
 2955000    1.0449844   -1.7536765   -1.7536765  -0.18620351   0.38001439   -1.7536765     1.567473   439061 
 2956000    1.0460311   -1.7552285   -1.7552285  -0.18618539    0.3771231   -1.7552285    1.5690431   439061 
 2957000     1.046487   -1.7561938   -1.7561938  -0.18646685   0.37215361   -1.7561938    1.5697269   439061 
 2958000    1.0459314   -1.7544643   -1.7544643  -0.18557067    0.3821416   -1.7544643    1.5688936   439061 
 2959000    1.0476643   -1.7582252   -1.7582252  -0.18673242    0.3740451   -1.7582252    1.5714928   439061 
 2960000    1.0461389   -1.7559462   -1.7559462  -0.18674142   0.38213244   -1.7559462    1.5692047   439061 
 2961000    1.0465961   -1.7554502   -1.7554502  -0.18555957   0.38242478   -1.7554502    1.5698906   439061 
 2962000    1.0463462   -1.7545836   -1.7545836  -0.18506784   0.37863365   -1.7545836    1.5695157   439061 
 2963000    1.0460966   -1.7548597   -1.7548597   -0.1857184   0.38253078   -1.7548597    1.5691413   439061 
 2964000    1.0455298   -1.7532867   -1.7532867  -0.18499558   0.38202353   -1.7532867    1.5682911   439061 
 2965000    1.0464702   -1.7556936   -1.7556936  -0.18599199   0.37266987   -1.7556936    1.5697017   439061 
 2966000    1.0473269   -1.7559092   -1.7559092  -0.18492242   0.37823874   -1.7559092    1.5709868   439061 
 2967000    1.0475568   -1.7553804   -1.7553804  -0.18404884   0.37816815   -1.7553804    1.5713316   439061 
 2968000    1.0486475   -1.7568262   -1.7568262  -0.18385859   0.37239821   -1.7568262    1.5729676   439061 
 2969000    1.0472854   -1.7551753   -1.7551753  -0.18425076   0.37945043   -1.7551753    1.5709245   439061 
 2970000    1.0447837   -1.7524929   -1.7524929  -0.18532082   0.38474503   -1.7524929     1.567172   439061 
 2971000    1.0460982   -1.7549482   -1.7549482  -0.18580449   0.38018524   -1.7549482    1.5691438   439061 
 2972000     1.045427   -1.7537612   -1.7537612  -0.18562425   0.37861307   -1.7537612     1.568137   439061 
 2973000    1.0462177   -1.7547063   -1.7547063  -0.18538327   0.37977503   -1.7547063     1.569323   439061 
 2974000    1.0454994    -1.753501    -1.753501  -0.18525537   0.38060201    -1.753501    1.5682456   439061 
 2975000    1.0467253   -1.7564628   -1.7564628  -0.18637838    0.3744695   -1.7564628    1.5700844   439061 
 2976000    1.0457507   -1.7550312   -1.7550312  -0.18640873   0.37720873   -1.7550312    1.5686225   439061 
 2977000    1.0468334   -1.7556989   -1.7556989  -0.18545239   0.37939732   -1.7556989    1.5702465   439061 
 2978000    1.0462767   -1.7541166   -1.7541166  -0.18470507   0.37911923   -1.7541166    1.5694115   439061 
 2979000     1.046061   -1.7543549   -1.7543549  -0.18526695   0.37495396   -1.7543549     1.569088   439061 
 2980000    1.0464417    -1.755957    -1.755957  -0.18629808    0.3745827    -1.755957     1.569659   439061 
 2981000    1.0465971   -1.7566272   -1.7566272   -0.1867351   0.37853402   -1.7566272    1.5698921   439061 
 2982000    1.0465307   -1.7570768   -1.7570768  -0.18728425   0.37289072   -1.7570768    1.5697925   439061 
 2983000     1.044585   -1.7541869   -1.7541869  -0.18731292   0.38163526   -1.7541869     1.566874   439061 
 2984000    1.0455538     -1.75538     -1.75538  -0.18705292   0.37415872     -1.75538    1.5683271   439061 
 2985000    1.0458531   -1.7552303   -1.7552303  -0.18645421   0.37465272   -1.7552303    1.5687761   439061 
 2986000    1.0459297   -1.7559959   -1.7559959  -0.18710487   0.37770316   -1.7559959     1.568891   439061 
 2987000    1.0449004   -1.7550277   -1.7550277  -0.18768067   0.38210995   -1.7550277     1.567347   439061 
 2988000    1.0453311   -1.7559297   -1.7559297  -0.18793667   0.37754256   -1.7559297     1.567993   439061 
 2989000    1.0454873   -1.7559987   -1.7559987  -0.18777138   0.37506774   -1.7559987    1.5682273   439061 
 2990000    1.0462393    -1.755636    -1.755636  -0.18628066   0.37935156    -1.755636    1.5693553   439061 
 2991000    1.0467204   -1.7564704   -1.7564704   -0.1863934   0.37722471   -1.7564704     1.570077   439061 
 2992000     1.046001   -1.7562825   -1.7562825  -0.18728461    0.3760982   -1.7562825    1.5689979   439061 
 2993000    1.0454178    -1.756273    -1.756273  -0.18814988   0.37766998    -1.756273    1.5681231   439061 
 2994000     1.044669   -1.7537671   -1.7537671  -0.18676721   0.38041037   -1.7537671    1.5669999   439061 
 2995000    1.0449795   -1.7535113   -1.7535113  -0.18604557   0.37821444   -1.7535113    1.5674657   439061 
 2996000    1.0461906   -1.7557996   -1.7557996  -0.18651733   0.37552619   -1.7557996    1.5692823   439061 
 2997000     1.044234   -1.7538221   -1.7538221  -0.18747471   0.37929848   -1.7538221    1.5663474   439061 
 2998000     1.046261   -1.7554653   -1.7554653  -0.18607735   0.38127394   -1.7554653    1.5693879   439061 
 2999000     1.046254   -1.7557488   -1.7557488  -0.18637132   0.37524835   -1.7557488    1.5693775   439061 
 3000000    1.0450684   -1.7541365   -1.7541365   -0.1865374   0.37680057   -1.7541365    1.5675991   439061 
Loop time of 6123.83 on 96 procs for 3000000 steps with 439061 atoms

Performance: 211632.161 tau/day, 489.889 timesteps/s
90.7% CPU use with 96 MPI tasks x 1 OpenMP threads

MPI task timing breakdown:
Section |  min time  |  avg time  |  max time  |%varavg|  %CPU | %total
-----------------------------------------------------------------------
Pair    | 2270.1     | 2742.5     | 3129.9     | 477.2 |  92.4 | 44.78
Bond    | 1.9816     | 2.0852     | 2.2062     |   3.3 | 100.0 |  0.03
Neigh   | 1183.6     | 1297.2     | 1361.7     | 121.3 |  99.1 | 21.18
Comm    | 737.86     | 1534.1     | 2049.4     | 881.1 |  85.4 | 25.05
Output  | 111.66     | 111.89     | 111.9      |   0.2 |  68.1 |  1.83
Modify  | 154.92     | 246.72     | 746.36     |1197.6 |  88.8 |  4.03
Other   |            | 189.4      |            |       |       |  3.09

Nlocal:        4573.55 ave        4699 max        4451 min
Histogram: 3 6 9 14 18 16 13 11 4 2
Nghost:        3715.91 ave        4155 max        2922 min
Histogram: 13 7 4 0 0 0 2 29 30 11
Neighs:        64101.6 ave       72710 max       53457 min
Histogram: 5 6 2 10 16 16 11 10 15 5

Total # of neighbors = 6153753
Ave neighs/atom = 14.015713
Ave special neighs/atom = 0.0000000
Neighbor list builds = 300000
Dangerous builds = 297000

write_data	data.lj
System init for write_data ...
Total wall time: 1:42:06
