LAMMPS (24 Dec 2020)
OMP_NUM_THREADS environment is not set. Defaulting to 1 thread. (src/comm.cpp:94)
  using 1 OpenMP thread(s) per MPI task
#Read the equilibrated lj fluid and add nanocubes

units           lj
atom_style      full
atom_modify     map array first cubes
dimension       3
boundary        p p f
pair_style      lj/cut/opt 2.5

variable        sigma           equal 1.0
variable        epsilon         equal 1.0
read_restart	restart.dat.3000000
Reading restart file ...
  restart file = 24 Dec 2020, LAMMPS = 24 Dec 2020
WARNING: Restart file used different # of processors: 48 vs. 240 (src/read_restart.cpp:697)
  restoring atom style full from restart
  orthogonal box = (0.0000000 0.0000000 0.0000000) to (80.000000 80.000000 160.00000)
  5 by 4 by 12 MPI processor grid
  restoring pair style lj/cut/opt from restart
  518400 atoms
Finding 1-2 1-3 1-4 neighbors ...
  special bond factors lj:    0        0        0       
  special bond factors coul:  0        0        0       
     0 = max # of 1-2 neighbors
     0 = max # of 1-3 neighbors
     0 = max # of 1-4 neighbors
     1 = max # of special neighbors
  special bonds CPU = 1.939 seconds
  read_restart CPU = 2.259 seconds

group		solvent type 1
518400 atoms in group solvent

read_data	data_150.cubes group cubes add append
Reading data file ...
  orthogonal box = (0.0000000 0.0000000 0.0000000) to (80.000000 80.000000 160.00000)
  5 by 4 by 12 MPI processor grid
  reading atoms ...
  200025 atoms
  reading velocities ...
  200025 velocities
Finding 1-2 1-3 1-4 neighbors ...
  special bond factors lj:    0        0        0       
  special bond factors coul:  0        0        0       
     0 = max # of 1-2 neighbors
     0 = max # of 1-3 neighbors
     0 = max # of 1-4 neighbors
     1 = max # of special neighbors
  special bonds CPU = 0.035 seconds
  read_data CPU = 0.466 seconds

group 		hull  type 2
78050 atoms in group hull
group 		dummy type 3
121975 atoms in group dummy

neighbor      0.4 bin
neigh_modify  exclude molecule/intra cubes


pair_modify   shift yes

pair_coeff    1 1 1.0 1.0 #solvent
pair_coeff    2 2 1.0 1.0 1.12 #np
pair_coeff    3 3 0.0 0.0 0.0 #dummy
pair_coeff    2 3 0.0 0.0 0.0 #np dummy
pair_coeff    1 2 ${sol} 1.0 #np solvent
pair_coeff    1 2 1.0 1.0 
pair_coeff    1 3 0.0 0.0 2.5 #dummy solvent

# delete solvent where the cubes are
delete_atoms  overlap 1.0 solvent cubes
System init for delete_atoms ...
Neighbor list info ...
  update every 1 steps, delay 10 steps, check yes
  max neighbors/atom: 2000, page size: 100000
  master list distance cutoff = 2.9
  ghost atom cutoff = 2.9
  binsize = 1.45, bins = 56 56 111
  2 neighbor lists, perpetual/occasional/extra = 1 1 0
  (1) command delete_atoms, occasional
      attributes: full, newton on
      pair build: full/bin
      stencil: full/bin/3d
      bin: standard
  (2) pair lj/cut/opt, perpetual
      attributes: half, newton on
      pair build: half/bin/newton
      stencil: half/bin/3d/newton
      bin: standard
WARNING: Delete_atoms cutoff > minimum neighbor cutoff (src/delete_atoms.cpp:307)
WARNING: Ignoring 'compress yes' for molecular system (src/delete_atoms.cpp:125)
Deleted 130676 atoms, new total = 587749



pair_coeff    1 1 1.0 1.0 #solvent
pair_coeff    2 2 1.0 1.0 1.12 #np
pair_coeff    3 3 0.0 0.0 0.0 #dummy
pair_coeff    2 3 0.0 0.0 0.0 #np dummy
pair_coeff    1 2 ${sol} 1.0 #np solvent
pair_coeff    1 2 1.0 1.0 
pair_coeff    1 3 0.0 0.0 0.0 #dummy solvent


comm_modify   mode multi cutoff/multi 1 2.5 cutoff/multi 2 2.5 cutoff/multi 3 6.95

reset_timestep 	0

balance 	1.05 shift z 10 1.05
Balancing ...
Neighbor list info ...
  update every 1 steps, delay 10 steps, check yes
  max neighbors/atom: 2000, page size: 100000
  master list distance cutoff = 2.9
  ghost atom cutoff = 6.95
  binsize = 1.45, bins = 56 56 111
  1 neighbor lists, perpetual/occasional/extra = 1 0 0
  (1) pair lj/cut/opt, perpetual
      attributes: half, newton on
      pair build: half/bin/newton
      stencil: half/bin/3d/newton
      bin: standard
 rebalancing time: 0.005 seconds
  iteration count = 4
  initial/final maximal load/proc = 3163.0000 3041.0000
  initial/final imbalance factor  = 1.2915717 1.2417546
  x cuts: 0.0000000 0.20000000 0.40000000 0.60000000 0.80000000 1.0000000
  y cuts: 0.0000000 0.25000000 0.50000000 0.75000000 1.0000000
  z cuts: 0.0000000 0.078125000 0.16145833 0.24479167 0.32812500 0.40104167 0.47395833 0.54687500 0.61979167 0.70312500 0.77604167 0.84895833 1.0000000

####################### WALLS ###########################

variable       epsilonWall equal 2*${epsilon}
variable       epsilonWall equal 2*1
variable       repulsive   equal   0.7147*${sigma}
variable       repulsive   equal   0.7147*1
variable       full	   equal   3*${sigma}
variable       full	   equal   3*1
region         lowWall block EDGE EDGE EDGE EDGE EDGE 2

fix            topWall all wall/lj93 zhi EDGE 	       ${epsilonWall} ${sigma} ${repulsive} units box
fix            topWall all wall/lj93 zhi EDGE 	       2 ${sigma} ${repulsive} units box
fix            topWall all wall/lj93 zhi EDGE 	       2 1 ${repulsive} units box
fix            topWall all wall/lj93 zhi EDGE 	       2 1 0.7147 units box
fix            lowSol solvent wall/lj93 zlo EDGE                ${epsilonWall} ${sigma} ${full} units box
fix            lowSol solvent wall/lj93 zlo EDGE                2 ${sigma} ${full} units box
fix            lowSol solvent wall/lj93 zlo EDGE                2 1 ${full} units box
fix            lowSol solvent wall/lj93 zlo EDGE                2 1 3 units box
fix 	       lowCub cubes wall/lj93 zlo EDGE                ${epsilonWall} ${sigma} ${repulsive} units box
fix 	       lowCub cubes wall/lj93 zlo EDGE                2 ${sigma} ${repulsive} units box
fix 	       lowCub cubes wall/lj93 zlo EDGE                2 1 ${repulsive} units box
fix 	       lowCub cubes wall/lj93 zlo EDGE                2 1 0.7147 units box


###################### COMPUTES ##########################

compute        bin1 solvent chunk/atom bin/1d z lower 1.0 units box


######################  FIXES ############################


fix             peclet solvent ave/chunk 10 10 10000 bin1 density/number norm                  none ave one file density.profile

fix              temp solvent ave/chunk 10 10 10000 bin1 temp norm                  none ave one file temp.profile

fix             1 cubes rigid/nve/small molecule
  create bodies CPU = 0.003 seconds
  175 rigid bodies with 200025 atoms
  6.9282032 = max distance from body owner to body atom

fix             2 solvent nve# temp ${temp} ${temp} 10


## Thermostat
region          regthermo block EDGE EDGE EDGE EDGE 0 15
group           thermo dynamic solvent region regthermo every 1000
dynamic group thermo defined
fix             3 thermo langevin ${temp} ${temp} 10 156453
fix             3 thermo langevin 1.0 ${temp} 10 156453
fix             3 thermo langevin 1.0 1.0 10 156453


#### Load balancing

fix             bal all balance 1000 1.05 shift z 10 1.05

############### Diagnostics and computes ###################

compute        	com cubes          rigid/local   1 mol x y z
compute        	quat cubes         rigid/local   1 mol quatw quati quatj quatk

compute 	cc2 cubes 	   chunk/atom 	 molecule
compute 	msd cubes 	   msd/chunk 	 cc2

fix 		msd all ave/time  1 1 10000 c_msd[*] file dump.msd ave one mode vector

dump            1 all custom 500000 dump.lammpstrj id mol type x y z
dump		cubetrj hull custom 500000 cubes.lammpstrj id mol type x y z
dump            com cubes local 10000 dump.*.xyz c_com[*]
dump	        xyz hull xyz 100000 cubes.xyz
dump            quat cubes      local 10000 dump.*.quat c_quat[*]
#dump		mol cubes molfile 10000 mol.xyz xyz


dump            2 all image 10000 image.*.png type type
dump_modify     2 pad 8
dump		image cubes image 10000 image_cubes.*.png type type
dump_modify	image pad 8
dump            3 all movie 5000 movie.avi type type
dump		4 cubes movie 5000 movie_cubes.avi type type


thermo          1000
thermo_style    custom step temp epair evdwl etotal press pe ke atoms

restart         1000000 restart.dat
timestep        0.005
timer           full
New timer settings: style=full  mode=nosync  timeout=off

run 		4000000
Per MPI rank memory allocation (min/avg/max) = 15.43 | 21.49 | 24.08 Mbytes
Step Temp E_pair E_vdwl TotEng Press PotEng KinEng Atoms 
       0    0.9970898   -2.2410931   -2.2410931   -1.2535704  -0.26238072   -2.2410931   0.98752264   587749 
    1000     1.031575   -2.2785298   -2.2785298   -1.2568529  0.066379347   -2.2785298    1.0216769   587749 
    2000     1.033718   -2.2834655   -2.2834655   -1.2596661  0.069489815   -2.2834655    1.0237994   587749 
    3000    1.0355729   -2.2882939   -2.2882939   -1.2626575  0.063830197   -2.2882939    1.0256365   587749 
    4000     1.035867   -2.2915604   -2.2915604   -1.2656327  0.064350951   -2.2915604    1.0259277   587749 
    5000    1.0342101   -2.2922701   -2.2922701   -1.2679833  0.070910625   -2.2922701    1.0242868   587749 
    6000     1.033925   -2.2943333   -2.2943333   -1.2703288  0.051816427   -2.2943333    1.0240044   587749 
    7000    1.0317395   -2.2950553   -2.2950553   -1.2732155  0.057238746   -2.2950553    1.0218399   587749 
    8000    1.0317673   -2.2976398   -2.2976398   -1.2757724  0.056748768   -2.2976398    1.0218674   587749 
    9000    1.0291497   -2.2970605   -2.2970605   -1.2777856   0.06786548   -2.2970605    1.0192749   587749 
   10000    1.0282765   -2.2982692   -2.2982692   -1.2798591   0.05618501   -2.2982692    1.0184101   587749 
   11000    1.0269828   -2.2987153   -2.2987153   -1.2815865   0.04183973   -2.2987153    1.0171288   587749 
   12000    1.0240698   -2.2976475   -2.2976475   -1.2834037  0.055955756   -2.2976475    1.0142438   587749 
   13000    1.0257316   -2.3007957   -2.3007957   -1.2849061  0.056167888   -2.3007957    1.0158896   587749 
   14000    1.0247232   -2.3010226   -2.3010226   -1.2861317  0.049498313   -2.3010226    1.0148909   587749 
   15000    1.0241063   -2.3013906   -2.3013906   -1.2871106  0.051450253   -2.3013906      1.01428   587749 
   16000    1.0257974   -2.3033875   -2.3033875   -1.2874327  0.049079856   -2.3033875    1.0159548   587749 
   17000    1.0262338   -2.3045439   -2.3045439   -1.2881568  0.071522547   -2.3045439    1.0163871   587749 
   18000    1.0266125   -2.3052764   -2.3052764   -1.2885144  0.061500091   -2.3052764    1.0167621   587749 
   19000    1.0265045   -2.3053469   -2.3053469   -1.2886918  0.049591775   -2.3053469    1.0166551   587749 
   20000    1.0227469   -2.3017076   -2.3017076    -1.288774  0.067578957   -2.3017076    1.0129336   587749 
   21000    1.0237285   -2.3040748   -2.3040748   -1.2901691  0.055270967   -2.3040748    1.0139057   587749 
   22000    1.0242712   -2.3056266   -2.3056266   -1.2911834  0.062148873   -2.3056266    1.0144433   587749 
   23000    1.0245299   -2.3062553   -2.3062553   -1.2915558  0.064658418   -2.3062553    1.0146995   587749 
   24000    1.0253438   -2.3076909   -2.3076909   -1.2921854  0.058957994   -2.3076909    1.0155056   587749 
   25000    1.0233561    -2.306485    -2.306485    -1.292948  0.056299385    -2.306485     1.013537   587749 
   26000     1.023869   -2.3066227   -2.3066227   -1.2925778  0.069607429   -2.3066227    1.0140449   587749 
   27000    1.0262404   -2.3097439   -2.3097439   -1.2933504  0.059231122   -2.3097439    1.0163935   587749 
   28000    1.0234041   -2.3076635   -2.3076635    -1.294079  0.061250404   -2.3076635    1.0135845   587749 
   29000    1.0247489   -2.3089145   -2.3089145   -1.2939981  0.050704821   -2.3089145    1.0149164   587749 
   30000    1.0232109   -2.3090451   -2.3090451    -1.295652  0.057750412   -2.3090451    1.0133931   587749 
   31000    1.0218134   -2.3078042   -2.3078042   -1.2957952  0.055759575   -2.3078042     1.012009   587749 
   32000    1.0211158    -2.308298    -2.308298   -1.2969799  0.077765831    -2.308298    1.0113181   587749 
   33000    1.0221573   -2.3091276   -2.3091276    -1.296778  0.050283983   -2.3091276    1.0123496   587749 
   34000    1.0237937   -2.3113198   -2.3113198   -1.2973495  0.058046239   -2.3113198    1.0139703   587749 
   35000    1.0234559   -2.3119278   -2.3119278   -1.2982921  0.055387582   -2.3119278    1.0136357   587749 
   36000    1.0213439   -2.3104835   -2.3104835   -1.2989396   0.05226225   -2.3104835     1.011544   587749 
   37000    1.0229332   -2.3119993   -2.3119993   -1.2988812  0.061226796   -2.3119993    1.0131181   587749 
   38000    1.0227837   -2.3129919   -2.3129919   -1.3000219  0.060124069   -2.3129919      1.01297   587749 
   39000    1.0234315    -2.313779    -2.313779   -1.3001675   0.05455135    -2.313779    1.0136116   587749 
   40000    1.0227554   -2.3140353   -2.3140353   -1.3010933  0.067704208   -2.3140353     1.012942   587749 
   41000    1.0219654   -2.3140857   -2.3140857   -1.3019262  0.046657973   -2.3140857    1.0121595   587749 
   42000    1.0235937   -2.3149495   -2.3149495   -1.3011772  0.060277871   -2.3149495    1.0137723   587749 
   43000      1.02299   -2.3155992   -2.3155992   -1.3024249  0.057590752   -2.3155992    1.0131744   587749 
   44000      1.02194   -2.3160749   -2.3160749   -1.3039405   0.06092293   -2.3160749    1.0121344   587749 
   45000    1.0235622    -2.317867    -2.317867    -1.304126  0.054523155    -2.317867     1.013741   587749 
   46000    1.0232056   -2.3178282   -2.3178282   -1.3044404  0.066685882   -2.3178282    1.0133879   587749 
   47000    1.0225201   -2.3171758   -2.3171758   -1.3044668  0.057250916   -2.3171758    1.0127089   587749 
   48000    1.0223742   -2.3168494   -2.3168494    -1.304285  0.067464604   -2.3168494    1.0125645   587749 
   49000    1.0209111   -2.3156846   -2.3156846   -1.3045692  0.077184969   -2.3156846    1.0111154   587749 
   50000    1.0223436   -2.3174832   -2.3174832   -1.3049491  0.047610046   -2.3174832    1.0125342   587749 
   51000    1.0211241   -2.3171198   -2.3171198   -1.3057934  0.056790697   -2.3171198    1.0113263   587749 
   52000    1.0219135   -2.3175367   -2.3175367   -1.3054285  0.057412592   -2.3175367    1.0121082   587749 
   53000    1.0229135   -2.3195041   -2.3195041   -1.3064056   0.06984842   -2.3195041    1.0130986   587749 
   54000    1.0224493   -2.3201791   -2.3201791   -1.3075403  0.055437028   -2.3201791    1.0126388   587749 
   55000    1.0212362   -2.3195975   -2.3195975   -1.3081601  0.063628605   -2.3195975    1.0114374   587749 
   56000    1.0220103    -2.319716    -2.319716    -1.307512  0.055797493    -2.319716    1.0122041   587749 
   57000     1.022612   -2.3200092   -2.3200092   -1.3072092  0.066235523   -2.3200092       1.0128   587749 
   58000    1.0217317   -2.3191927   -2.3191927   -1.3072645  0.058982345   -2.3191927    1.0119281   587749 
   59000    1.0190927   -2.3175484   -2.3175484    -1.308234  0.055092338   -2.3175484    1.0093144   587749 
   60000    1.0196268   -2.3178591   -2.3178591   -1.3080157  0.057650999   -2.3178591    1.0098434   587749 
   61000     1.023327   -2.3208778   -2.3208778   -1.3073697  0.054152744   -2.3208778    1.0135081   587749 
   62000    1.0219279   -2.3201071   -2.3201071   -1.3079847  0.062283462   -2.3201071    1.0121224   587749 
   63000    1.0217901    -2.319482    -2.319482    -1.307496  0.067017754    -2.319482    1.0119859   587749 
   64000    1.0209527   -2.3192198   -2.3192198   -1.3080632  0.058525697   -2.3192198    1.0111566   587749 
   65000     1.019103   -2.3181564   -2.3181564   -1.3088318  0.061997644   -2.3181564    1.0093246   587749 
   66000    1.0195544   -2.3184573   -2.3184573   -1.3086856  0.055244699   -2.3184573    1.0097717   587749 
   67000    1.0205315   -2.3194894   -2.3194894   -1.3087501  0.058706679   -2.3194894    1.0107394   587749 
   68000    1.0216329   -2.3212907   -2.3212907   -1.3094604  0.060093419   -2.3212907    1.0118303   587749 
   69000    1.0224605   -2.3221962   -2.3221962   -1.3095463  0.060450952   -2.3221962    1.0126499   587749 
   70000    1.0205683   -2.3208931   -2.3208931   -1.3101172  0.055835487   -2.3208931    1.0107759   587749 
   71000    1.0224141   -2.3227339   -2.3227339   -1.3101299  0.065438322   -2.3227339     1.012604   587749 
   72000    1.0229546   -2.3240868   -2.3240868   -1.3109475  0.057597183   -2.3240868    1.0131393   587749 
   73000    1.0219547   -2.3233686   -2.3233686   -1.3112197  0.061334365   -2.3233686    1.0121489   587749 
   74000    1.0205495   -2.3219663   -2.3219663   -1.3112091  0.055156868   -2.3219663    1.0107573   587749 
   75000    1.0215407   -2.3231989   -2.3231989   -1.3114601  0.067542256   -2.3231989    1.0117389   587749 
   76000    1.0206595   -2.3218483   -2.3218483   -1.3109821  0.066169998   -2.3218483    1.0108662   587749 
   77000    1.0214396    -2.323168    -2.323168   -1.3115292  0.051707433    -2.323168    1.0116388   587749 
   78000    1.0212513   -2.3235138   -2.3235138   -1.3120615  0.063779502   -2.3235138    1.0114523   587749 
   79000    1.0199451   -2.3223282   -2.3223282   -1.3121695  0.066550082   -2.3223282    1.0101587   587749 
   80000    1.0210882   -2.3236719   -2.3236719   -1.3123811  0.059750254   -2.3236719    1.0112908   587749 
   81000    1.0207186   -2.3240374   -2.3240374   -1.3131127  0.054295248   -2.3240374    1.0109248   587749 
   82000     1.019852   -2.3232677   -2.3232677   -1.3132013  0.061440812   -2.3232677    1.0100665   587749 
   83000    1.0192579   -2.3233935   -2.3233935   -1.3139154  0.056695808   -2.3233935     1.009478   587749 
   84000    1.0182596   -2.3225811   -2.3225811   -1.3140918  0.061687868   -2.3225811    1.0084893   587749 
   85000    1.0201539   -2.3244525   -2.3244525    -1.314087  0.054920485   -2.3244525    1.0103654   587749 
   86000    1.0205068   -2.3250053   -2.3250053   -1.3142904  0.065491605   -2.3250053    1.0107149   587749 
   87000    1.0212063   -2.3268384   -2.3268384   -1.3154306   0.06278971   -2.3268384    1.0114078   587749 
   88000    1.0214479    -2.327282    -2.327282    -1.315635  0.060490643    -2.327282     1.011647   587749 
   89000    1.0202099   -2.3256849   -2.3256849    -1.315264  0.070542363   -2.3256849    1.0104209   587749 
   90000    1.0215119   -2.3269695   -2.3269695   -1.3152592  0.064761996   -2.3269695    1.0117104   587749 
   91000     1.023839   -2.3299466   -2.3299466   -1.3159314   0.06014014   -2.3299466    1.0140152   587749 
   92000    1.0216535   -2.3281039   -2.3281039   -1.3162533  0.060861547   -2.3281039    1.0118506   587749 
   93000    1.0192321   -2.3262638   -2.3262638   -1.3168114  0.050990715   -2.3262638    1.0094525   587749 
   94000    1.0217797   -2.3286069   -2.3286069   -1.3166313  0.062631607   -2.3286069    1.0119756   587749 
   95000     1.022178   -2.3283824   -2.3283824   -1.3160123  0.064374817   -2.3283824    1.0123701   587749 
   96000    1.0211931    -2.327799    -2.327799   -1.3164043  0.053458635    -2.327799    1.0113947   587749 
   97000    1.0230506   -2.3301952   -2.3301952   -1.3169609  0.060116449   -2.3301952    1.0132344   587749 
   98000    1.0208302   -2.3282145   -2.3282145   -1.3171793  0.058676559   -2.3282145    1.0110352   587749 
   99000    1.0221961   -2.3299144   -2.3299144   -1.3175264    0.0683274   -2.3299144    1.0123881   587749 
  100000    1.0210821   -2.3287012   -2.3287012   -1.3174164   0.07068009   -2.3287012    1.0112847   587749 
  101000    1.0220054   -2.3302844   -2.3302844   -1.3180852  0.057694308   -2.3302844    1.0121992   587749 
  102000    1.0200821   -2.3299534   -2.3299534   -1.3196591  0.066958401   -2.3299534    1.0102943   587749 
  103000    1.0200725   -2.3297502   -2.3297502   -1.3194654  0.069452925   -2.3297502    1.0102848   587749 
  104000    1.0180842   -2.3284411   -2.3284411   -1.3201255  0.068830141   -2.3284411    1.0083156   587749 
  105000     1.018495   -2.3286957   -2.3286957   -1.3199733  0.058844838   -2.3286957    1.0087224   587749 
  106000    1.0202143   -2.3303886   -2.3303886   -1.3199633  0.064146911   -2.3303886    1.0104253   587749 
  107000    1.0186754   -2.3291396   -2.3291396   -1.3202385  0.054681075   -2.3291396    1.0089011   587749 
  108000    1.0173286   -2.3283925   -2.3283925   -1.3208253  0.051409955   -2.3283925    1.0075672   587749 
  109000    1.0208352   -2.3318848   -2.3318848   -1.3208446  0.052013581   -2.3318848    1.0110402   587749 
  110000     1.019117   -2.3310012   -2.3310012   -1.3216627  0.060673855   -2.3310012    1.0093385   587749 
  111000    1.0197219   -2.3310803   -2.3310803   -1.3211427  0.055119842   -2.3310803    1.0099376   587749 
  112000    1.0214197   -2.3335803   -2.3335803   -1.3219612  0.064811531   -2.3335803    1.0116191   587749 
  113000    1.0226509   -2.3346875   -2.3346875    -1.321849  0.070611868   -2.3346875    1.0128385   587749 
  114000    1.0227691   -2.3357358   -2.3357358   -1.3227802  0.060134664   -2.3357358    1.0129556   587749 
  115000    1.0199817   -2.3329082   -2.3329082   -1.3227132  0.062816403   -2.3329082    1.0101949   587749 
  116000    1.0216516   -2.3355564   -2.3355564   -1.3237076  0.057135783   -2.3355564    1.0118488   587749 
  117000    1.0199645   -2.3336908   -2.3336908   -1.3235129  0.060162886   -2.3336908    1.0101779   587749 
  118000    1.0206318   -2.3344167   -2.3344167    -1.323578  0.056663553   -2.3344167    1.0108387   587749 
  119000    1.0196353   -2.3334936   -2.3334936   -1.3236419  0.076725991   -2.3334936    1.0098518   587749 
  120000    1.0215874   -2.3353432   -2.3353432    -1.323558  0.070364883   -2.3353432    1.0117852   587749 
  121000    1.0196456   -2.3336734   -2.3336734   -1.3238114  0.063648635   -2.3336734     1.009862   587749 
  122000    1.0207667   -2.3345353   -2.3345353    -1.323563  0.052407851   -2.3345353    1.0109723   587749 
  123000    1.0201825   -2.3338939   -2.3338939   -1.3235002   0.06195718   -2.3338939    1.0103937   587749 
  124000    1.0205891   -2.3348973   -2.3348973   -1.3241008  0.064037404   -2.3348973    1.0107965   587749 
  125000    1.0203803   -2.3347084   -2.3347084   -1.3241187  0.062400856   -2.3347084    1.0105897   587749 
  126000    1.0216202   -2.3366369   -2.3366369   -1.3248192  0.055004304   -2.3366369    1.0118177   587749 
  127000    1.0208338   -2.3357918   -2.3357918   -1.3247529  0.057476666   -2.3357918    1.0110388   587749 
  128000    1.0201801   -2.3360411   -2.3360411   -1.3256498  0.053994435   -2.3360411    1.0103913   587749 
  129000    1.0210502   -2.3369064   -2.3369064   -1.3256533  0.071661495   -2.3369064    1.0112532   587749 
  130000    1.0202634    -2.335654    -2.335654   -1.3251801   0.06214153    -2.335654    1.0104739   587749 
  131000    1.0194993   -2.3350418   -2.3350418   -1.3253246  0.064029838   -2.3350418    1.0097171   587749 
  132000    1.0207204   -2.3361465   -2.3361465     -1.32522  0.062696625   -2.3361465    1.0109265   587749 
  133000    1.0204671   -2.3368031   -2.3368031   -1.3261275  0.059587759   -2.3368031    1.0106756   587749 
  134000    1.0217184   -2.3386832   -2.3386832   -1.3267683  0.066266927   -2.3386832    1.0119149   587749 
  135000    1.0208892   -2.3385554   -2.3385554   -1.3274616  0.062325573   -2.3385554    1.0110937   587749 
  136000    1.0183653   -2.3358822   -2.3358822   -1.3272882  0.062413354   -2.3358822     1.008594   587749 
  137000    1.0205272   -2.3382593   -2.3382593   -1.3275241  0.050567779   -2.3382593    1.0107351   587749 
  138000    1.0198779    -2.337329    -2.337329   -1.3272369  0.062807612    -2.337329    1.0100921   587749 
  139000    1.0194786   -2.3372975   -2.3372975   -1.3276009  0.072833852   -2.3372975    1.0096966   587749 
  140000    1.0202774   -2.3382742   -2.3382742   -1.3277864  0.074193247   -2.3382742    1.0104878   587749 
  141000    1.0177169   -2.3363234   -2.3363234   -1.3283716  0.059133752   -2.3363234    1.0079518   587749 
  142000    1.0187823   -2.3370556   -2.3370556   -1.3280486  0.062442293   -2.3370556     1.009007   587749 
  143000    1.0202055   -2.3387256   -2.3387256    -1.328309  0.043793205   -2.3387256    1.0104166   587749 
  144000    1.0205135   -2.3394111   -2.3394111   -1.3286895  0.064671458   -2.3394111    1.0107216   587749 
  145000    1.0200518   -2.3389245   -2.3389245   -1.3286603  0.061857911   -2.3389245    1.0102643   587749 
  146000    1.0191539   -2.3387493   -2.3387493   -1.3293742  0.058172664   -2.3387493     1.009375   587749 
  147000    1.0204019   -2.3399537   -2.3399537   -1.3293426  0.067033926   -2.3399537    1.0106111   587749 
  148000    1.0205118   -2.3407333   -2.3407333   -1.3300134  0.069115626   -2.3407333    1.0107199   587749 
  149000    1.0204769   -2.3408164   -2.3408164   -1.3301311  0.061824799   -2.3408164    1.0106853   587749 
  150000    1.0210594   -2.3421586   -2.3421586   -1.3308963  0.056262415   -2.3421586    1.0112623   587749 
  151000    1.0194656   -2.3408699   -2.3408699   -1.3311862  0.054642027   -2.3408699    1.0096838   587749 
  152000    1.0195289   -2.3403792   -2.3403792   -1.3306328   0.07063428   -2.3403792    1.0097464   587749 
  153000    1.0175854   -2.3391572   -2.3391572   -1.3313356  0.067886896   -2.3391572    1.0078216   587749 
  154000    1.0195426   -2.3405289   -2.3405289   -1.3307689  0.070015518   -2.3405289      1.00976   587749 
  155000    1.0169617    -2.338077    -2.338077   -1.3308731  0.053657102    -2.338077    1.0072039   587749 
  156000    1.0199811   -2.3409728   -2.3409728   -1.3307785  0.060433977   -2.3409728    1.0101943   587749 
  157000    1.0192154   -2.3405022   -2.3405022   -1.3310662  0.053880082   -2.3405022     1.009436   587749 
  158000    1.0212322   -2.3428236   -2.3428236   -1.3313902  0.070375003   -2.3428236    1.0114334   587749 
  159000    1.0197248   -2.3423663   -2.3423663   -1.3324259  0.055090654   -2.3423663    1.0099404   587749 
  160000    1.0203392   -2.3430702   -2.3430702   -1.3325212  0.068925152   -2.3430702     1.010549   587749 
  161000    1.0195391   -2.3418483   -2.3418483   -1.3320917  0.057561314   -2.3418483    1.0097566   587749 
  162000     1.020037   -2.3410791   -2.3410791   -1.3308295  0.068749345   -2.3410791    1.0102497   587749 
  163000     1.020732   -2.3427284   -2.3427284   -1.3317905  0.059761353   -2.3427284     1.010938   587749 
  164000    1.0210222   -2.3429319   -2.3429319   -1.3317065  0.061737002   -2.3429319    1.0112254   587749 
  165000    1.0200698   -2.3418481   -2.3418481    -1.331566  0.077740473   -2.3418481    1.0102821   587749 
  166000    1.0221063   -2.3442584   -2.3442584   -1.3319593  0.071436333   -2.3442584    1.0122991   587749 
  167000     1.021174   -2.3432426   -2.3432426   -1.3318668  0.055887751   -2.3432426    1.0113758   587749 
  168000     1.021399   -2.3427136   -2.3427136    -1.331115  0.068354269   -2.3427136    1.0115986   587749 
  169000     1.019268   -2.3414268   -2.3414268   -1.3319387  0.061652547   -2.3414268     1.009488   587749 
  170000    1.0207412   -2.3423749   -2.3423749   -1.3314278  0.058487954   -2.3423749    1.0109471   587749 
  171000    1.0204077   -2.3416201   -2.3416201   -1.3310032   0.06387687   -2.3416201    1.0106168   587749 
  172000    1.0198257   -2.3419822   -2.3419822   -1.3319418  0.056427469   -2.3419822    1.0100404   587749 
  173000    1.0192627   -2.3413259   -2.3413259   -1.3318431  0.060898079   -2.3413259    1.0094828   587749 
  174000    1.0199004    -2.342744    -2.342744   -1.3326296  0.056989667    -2.342744    1.0101144   587749 
  175000    1.0199427   -2.3427977   -2.3427977   -1.3326414  0.065854234   -2.3427977    1.0101563   587749 
  176000    1.0214321   -2.3432152   -2.3432152   -1.3315838  0.069782198   -2.3432152    1.0116314   587749 
  177000    1.0213194   -2.3446275   -2.3446275   -1.3331078  0.071234141   -2.3446275    1.0115197   587749 
  178000    1.0190512   -2.3437131   -2.3437131   -1.3344397  0.056969938   -2.3437131    1.0092733   587749 
  179000    1.0191265   -2.3431475   -2.3431475   -1.3337995   0.07244943   -2.3431475    1.0093479   587749 
  180000    1.0188305   -2.3431307   -2.3431307   -1.3340759  0.059616262   -2.3431307    1.0090548   587749 
  181000    1.0190796   -2.3434266   -2.3434266   -1.3341251  0.063362161   -2.3434266    1.0093015   587749 
  182000    1.0179938   -2.3436336   -2.3436336   -1.3354076  0.061129592   -2.3436336    1.0082261   587749 
  183000     1.019722   -2.3451092   -2.3451092   -1.3351715   0.06235366   -2.3451092    1.0099377   587749 
  184000    1.0203585   -2.3456984   -2.3456984   -1.3351303  0.058481293   -2.3456984     1.010568   587749 
  185000    1.0203727   -2.3458337   -2.3458337   -1.3352516  0.061063328   -2.3458337    1.0105821   587749 
  186000      1.02029   -2.3461524   -2.3461524   -1.3356521  0.059747451   -2.3461524    1.0105003   587749 
  187000     1.019053    -2.345245    -2.345245   -1.3359699  0.067203777    -2.345245    1.0092751   587749 
  188000    1.0196406   -2.3462207   -2.3462207   -1.3363636  0.068666968   -2.3462207    1.0098571   587749 
  189000    1.0218577   -2.3481891   -2.3481891   -1.3361361  0.057437439   -2.3481891    1.0120529   587749 
  190000    1.0191419     -2.34645     -2.34645   -1.3370869  0.052729091     -2.34645    1.0093631   587749 
  191000    1.0194208   -2.3475363   -2.3475363   -1.3378969   0.05140998   -2.3475363    1.0096394   587749 
  192000    1.0156556   -2.3441354   -2.3441354   -1.3382251  0.067412017   -2.3441354    1.0059103   587749 
  193000    1.0194699   -2.3470615   -2.3470615   -1.3373735   0.04621501   -2.3470615     1.009688   587749 
  194000    1.0168997   -2.3455853   -2.3455853   -1.3384428  0.054997528   -2.3455853    1.0071425   587749 
  195000    1.0182653   -2.3472537   -2.3472537   -1.3387587  0.055175586   -2.3472537     1.008495   587749 
  196000    1.0160294   -2.3454526   -2.3454526   -1.3391721  0.061162514   -2.3454526    1.0062805   587749 
  197000    1.0173214   -2.3472005   -2.3472005   -1.3396404  0.068993417   -2.3472005    1.0075601   587749 
  198000    1.0186404   -2.3482668   -2.3482668   -1.3394004   0.05838306   -2.3482668    1.0088664   587749 
  199000    1.0190227   -2.3488699   -2.3488699   -1.3396249  0.065663443   -2.3488699    1.0092451   587749 
  200000    1.0197656   -2.3491769   -2.3491769   -1.3391961  0.056390219   -2.3491769    1.0099808   587749 
  201000    1.0169474   -2.3467195   -2.3467195   -1.3395298  0.056025813   -2.3467195    1.0071897   587749 
  202000    1.0182853   -2.3484597   -2.3484597   -1.3399449  0.054554479   -2.3484597    1.0085148   587749 
  203000    1.0168528   -2.3472176   -2.3472176   -1.3401216  0.053050751   -2.3472176     1.007096   587749 
  204000     1.017584   -2.3476424   -2.3476424   -1.3398222  0.053686695   -2.3476424    1.0078202   587749 
  205000     1.019368   -2.3489742   -2.3489742   -1.3393871  0.066612264   -2.3489742    1.0095871   587749 
  206000     1.018791   -2.3473876   -2.3473876    -1.338372  0.074643685   -2.3473876    1.0090156   587749 
  207000    1.0182655   -2.3484094   -2.3484094   -1.3399143  0.054292833   -2.3484094    1.0084951   587749 
  208000    1.0185365   -2.3489392   -2.3489392   -1.3401757  0.067784101   -2.3489392    1.0087635   587749 
  209000    1.0189522   -2.3492119   -2.3492119   -1.3400366   0.07279113   -2.3492119    1.0091753   587749 
  210000    1.0182359   -2.3487577   -2.3487577   -1.3402918  0.059452107   -2.3487577    1.0084659   587749 
  211000    1.0183793   -2.3489981   -2.3489981   -1.3403903     0.055551   -2.3489981    1.0086078   587749 
  212000    1.0170773   -2.3480862   -2.3480862   -1.3407678  0.063009603   -2.3480862    1.0073184   587749 
  213000    1.0215857   -2.3526461   -2.3526461   -1.3408626  0.061585448   -2.3526461    1.0117835   587749 
  214000    1.0196235   -2.3514981   -2.3514981    -1.341658  0.068269866   -2.3514981    1.0098401   587749 
  215000    1.0186901   -2.3501853   -2.3501853   -1.3412696  0.070326015   -2.3501853    1.0089157   587749 
  216000    1.0193982   -2.3511128   -2.3511128   -1.3414958  0.064440334   -2.3511128     1.009617   587749 
  217000    1.0185935   -2.3512848   -2.3512848   -1.3424648  0.068777788   -2.3512848      1.00882   587749 
  218000    1.0172689   -2.3500051   -2.3500051    -1.342497  0.068415221   -2.3500051    1.0075082   587749 
  219000    1.0191665   -2.3518098   -2.3518098   -1.3424223  0.072832716   -2.3518098    1.0093875   587749 
  220000    1.0181111   -2.3507541   -2.3507541   -1.3424118  0.068914724   -2.3507541    1.0083423   587749 
  221000    1.0191273   -2.3514515   -2.3514515   -1.3421028   0.06740589   -2.3514515    1.0093487   587749 
  222000    1.0201553   -2.3524851   -2.3524851   -1.3421183  0.058019313   -2.3524851    1.0103668   587749 
  223000    1.0184945   -2.3510267   -2.3510267   -1.3423048  0.057613008   -2.3510267     1.008722   587749 
  224000    1.0170556   -2.3498804   -2.3498804   -1.3425835   0.07557167   -2.3498804    1.0072968   587749 
  225000    1.0169459   -2.3501756   -2.3501756   -1.3429874  0.060250474   -2.3501756    1.0071882   587749 
  226000    1.0183654   -2.3520396   -2.3520396   -1.3434455  0.058831549   -2.3520396    1.0085941   587749 
  227000    1.0153745   -2.3487642   -2.3487642   -1.3431322  0.074403765   -2.3487642    1.0056319   587749 
  228000    1.0174049   -2.3502188   -2.3502188    -1.342576  0.056421133   -2.3502188    1.0076428   587749 
  229000     1.017556   -2.3512624   -2.3512624     -1.34347  0.063084051   -2.3512624    1.0077924   587749 
  230000    1.0180886   -2.3515397   -2.3515397   -1.3432198  0.066129787   -2.3515397    1.0083199   587749 
  231000    1.0171526   -2.3507094   -2.3507094   -1.3433165  0.073055013   -2.3507094    1.0073929   587749 
  232000    1.0192274   -2.3532086   -2.3532086   -1.3437607  0.068961812   -2.3532086    1.0094479   587749 
  233000    1.0187761   -2.3531436   -2.3531436   -1.3441428  0.062021338   -2.3531436    1.0090009   587749 
  234000    1.0177006   -2.3528952   -2.3528952   -1.3449595  0.059952699   -2.3528952    1.0079357   587749 
  235000    1.0168983   -2.3522392   -2.3522392   -1.3450981  0.059791453   -2.3522392     1.007141   587749 
  236000    1.0184944   -2.3535547   -2.3535547   -1.3448329  0.064007253   -2.3535547    1.0087219   587749 
  237000    1.0188143   -2.3537729   -2.3537729   -1.3447342     0.066114   -2.3537729    1.0090387   587749 
  238000    1.0186194   -2.3537681   -2.3537681   -1.3449225  0.060421884   -2.3537681    1.0088456   587749 
  239000    1.0164363   -2.3521819   -2.3521819   -1.3454984  0.056824592   -2.3521819    1.0066835   587749 
  240000    1.0187374   -2.3533347   -2.3533347   -1.3443722  0.068953066   -2.3533347    1.0089625   587749 
  241000    1.0194336   -2.3543674   -2.3543674   -1.3447154  0.060420385   -2.3543674     1.009652   587749 
  242000    1.0184701   -2.3542678   -2.3542678     -1.34557  0.074451806   -2.3542678    1.0086977   587749 
  243000    1.0195096   -2.3547116   -2.3547116   -1.3449842  0.054077604   -2.3547116    1.0097273   587749 
  244000    1.0191969   -2.3553052   -2.3553052   -1.3458876  0.063944488   -2.3553052    1.0094176   587749 
  245000    1.0187155   -2.3545503   -2.3545503   -1.3456095  0.063116784   -2.3545503    1.0089408   587749 
  246000    1.0190217   -2.3546981   -2.3546981   -1.3454539  0.064122974   -2.3546981    1.0092441   587749 
  247000    1.0177144   -2.3539763   -2.3539763    -1.346027  0.065858965   -2.3539763    1.0079493   587749 
  248000    1.0168738   -2.3530826   -2.3530826   -1.3459658  0.059551414   -2.3530826    1.0071168   587749 
  249000    1.0173761   -2.3534117   -2.3534117   -1.3457974  0.064205381   -2.3534117    1.0076143   587749 
  250000    1.0179373   -2.3543972   -2.3543972   -1.3462271  0.053711747   -2.3543972    1.0081701   587749 
  251000    1.0178924   -2.3551178   -2.3551178   -1.3469922  0.060066797   -2.3551178    1.0081257   587749 
  252000    1.0184261   -2.3555632   -2.3555632    -1.346909  0.069994546   -2.3555632    1.0086542   587749 
  253000    1.0176316   -2.3543153   -2.3543153    -1.346448  0.067886797   -2.3543153    1.0078673   587749 
  254000    1.0163871   -2.3535256   -2.3535256   -1.3468908  0.066381517   -2.3535256    1.0066348   587749 
  255000    1.0169388   -2.3550614   -2.3550614   -1.3478802  0.054172367   -2.3550614    1.0071812   587749 
  256000    1.0180751   -2.3563491   -2.3563491   -1.3480424  0.069628406   -2.3563491    1.0083066   587749 
  257000    1.0175274   -2.3557103   -2.3557103   -1.3479461  0.063140165   -2.3557103    1.0077642   587749 
  258000    1.0167298   -2.3551154   -2.3551154   -1.3481412   0.07600078   -2.3551154    1.0069742   587749 
  259000    1.0191837   -2.3572611   -2.3572611   -1.3478565  0.065550931   -2.3572611    1.0094046   587749 
  260000    1.0184353   -2.3560301   -2.3560301   -1.3473667  0.062913117   -2.3560301    1.0086634   587749 
  261000    1.0184867   -2.3560008   -2.3560008   -1.3472865   0.06604705   -2.3560008    1.0087142   587749 
  262000    1.0194921   -2.3567618   -2.3567618   -1.3470519  0.071814022   -2.3567618      1.00971   587749 
  263000    1.0186965   -2.3562311   -2.3562311   -1.3473091   0.06799338   -2.3562311     1.008922   587749 
  264000    1.0188666   -2.3557832   -2.3557832   -1.3466927     0.058056   -2.3557832    1.0090905   587749 
  265000    1.0207095   -2.3584701   -2.3584701   -1.3475543  0.063125606   -2.3584701    1.0109157   587749 
  266000    1.0178948   -2.3563369   -2.3563369   -1.3482088  0.049132838   -2.3563369     1.008128   587749 
  267000    1.0175434   -2.3557193   -2.3557193   -1.3479393  0.068845094   -2.3557193      1.00778   587749 
  268000    1.0187373   -2.3574168   -2.3574168   -1.3484544   0.05497935   -2.3574168    1.0089625   587749 
  269000    1.0170668   -2.3568459   -2.3568459   -1.3495379  0.066955522   -2.3568459     1.007308   587749 
  270000    1.0162357   -2.3557426   -2.3557426   -1.3492578  0.070052898   -2.3557426    1.0064848   587749 
  271000    1.0150153   -2.3553295   -2.3553295   -1.3500534  0.063674785   -2.3553295    1.0052761   587749 
  272000    1.0162948    -2.356444    -2.356444   -1.3499007  0.065746412    -2.356444    1.0065433   587749 
  273000    1.0175672   -2.3579484   -2.3579484   -1.3501448  0.062398863   -2.3579484    1.0078035   587749 
  274000    1.0168674   -2.3567714   -2.3567714    -1.349661  0.061714219   -2.3567714    1.0071105   587749 
  275000    1.0181268   -2.3575923   -2.3575923   -1.3492345  0.057997307   -2.3575923    1.0083577   587749 
  276000    1.0185759   -2.3583959   -2.3583959   -1.3495933  0.062156835   -2.3583959    1.0088026   587749 
  277000    1.0178982   -2.3577256   -2.3577256   -1.3495942   0.05505556   -2.3577256    1.0081314   587749 
  278000    1.0183587   -2.3578588   -2.3578588   -1.3492713  0.058246463   -2.3578588    1.0085874   587749 
  279000    1.0191081   -2.3590821   -2.3590821   -1.3497524  0.066137166   -2.3590821    1.0093296   587749 
  280000    1.0195402   -2.3593422   -2.3593422   -1.3495846  0.062194166   -2.3593422    1.0097576   587749 
  281000    1.0179967    -2.357405    -2.357405   -1.3491761  0.061171254    -2.357405    1.0082289   587749 
  282000    1.0154568   -2.3543866   -2.3543866   -1.3486731  0.064648737   -2.3543866    1.0057134   587749 
  283000    1.0178811   -2.3559126   -2.3559126   -1.3477982  0.059713345   -2.3559126    1.0081144   587749 
  284000    1.0182951   -2.3565042   -2.3565042   -1.3479797  0.069569544   -2.3565042    1.0085245   587749 
  285000    1.0173366   -2.3556606   -2.3556606   -1.3480854  0.055057748   -2.3556606    1.0075751   587749 
  286000    1.0172134   -2.3559512   -2.3559512   -1.3484981  0.056168127   -2.3559512    1.0074531   587749 
  287000    1.0174352   -2.3570698   -2.3570698    -1.349397  0.059732656   -2.3570698    1.0076728   587749 
  288000    1.0150427   -2.3543942   -2.3543942    -1.349091  0.059286224   -2.3543942    1.0053033   587749 
  289000    1.0173916   -2.3568198   -2.3568198   -1.3491903  0.069397645   -2.3568198    1.0076296   587749 
  290000    1.0161739   -2.3564443   -2.3564443   -1.3500207  0.064569489   -2.3564443    1.0064236   587749 
  291000    1.0163578   -2.3569998   -2.3569998    -1.350394    0.0663148   -2.3569998    1.0066058   587749 
  292000    1.0176647    -2.357649    -2.357649   -1.3497489  0.061507033    -2.357649    1.0079001   587749 
  293000    1.0182033   -2.3585796   -2.3585796   -1.3501461  0.065089026   -2.3585796    1.0084335   587749 
  294000    1.0166614   -2.3567197   -2.3567197   -1.3498132  0.062007249   -2.3567197    1.0069064   587749 
  295000    1.0159205   -2.3569408   -2.3569408   -1.3507681  0.060829064   -2.3569408    1.0061727   587749 
  296000    1.0187446    -2.358624    -2.358624   -1.3496543  0.061734613    -2.358624    1.0089697   587749 
  297000     1.019172   -2.3587863   -2.3587863   -1.3493933   0.07634538   -2.3587863     1.009393   587749 
  298000    1.0195229    -2.360213    -2.360213   -1.3504725  0.060544188    -2.360213    1.0097405   587749 
  299000    1.0170342   -2.3574233   -2.3574233   -1.3501477  0.061886914   -2.3574233    1.0072757   587749 
  300000    1.0192744   -2.3590826   -2.3590826   -1.3495882  0.066339656   -2.3590826    1.0094944   587749 
  301000     1.017618   -2.3577801   -2.3577801   -1.3499262  0.075515858   -2.3577801    1.0078539   587749 
  302000     1.016907   -2.3577393   -2.3577393   -1.3505896  0.061872881   -2.3577393    1.0071497   587749 
  303000    1.0178082   -2.3582562   -2.3582562   -1.3502139  0.057130737   -2.3582562    1.0080423   587749 
  304000    1.0163485   -2.3575553   -2.3575553   -1.3509587  0.053485554   -2.3575553    1.0065965   587749 
  305000     1.018166   -2.3590426   -2.3590426   -1.3506459  0.078653717   -2.3590426    1.0083966   587749 
  306000    1.0187199   -2.3593609   -2.3593609   -1.3504158  0.064599122   -2.3593609    1.0089452   587749 
  307000    1.0185311   -2.3594777   -2.3594777   -1.3507195  0.064808571   -2.3594777    1.0087582   587749 
  308000     1.016766   -2.3585596   -2.3585596   -1.3515495  0.066857736   -2.3585596    1.0070101   587749 
  309000    1.0190833   -2.3606942   -2.3606942   -1.3513891  0.065250857   -2.3606942    1.0093051   587749 
  310000    1.0166959   -2.3588865   -2.3588865   -1.3519458  0.072123941   -2.3588865    1.0069407   587749 
  311000    1.0179922   -2.3601195   -2.3601195   -1.3518951  0.059869934   -2.3601195    1.0082245   587749 
  312000    1.0176823   -2.3598581   -2.3598581   -1.3519405  0.054357369   -2.3598581    1.0079175   587749 
  313000    1.0185942   -2.3612358   -2.3612358   -1.3524151  0.062469278   -2.3612358    1.0088207   587749 
  314000    1.0162582   -2.3596994   -2.3596994   -1.3531923  0.066719475   -2.3596994    1.0065071   587749 
  315000    1.0174354   -2.3607025   -2.3607025   -1.3530295  0.068176852   -2.3607025     1.007673   587749 
  316000    1.0182872   -2.3606423   -2.3606423   -1.3521257   0.05484995   -2.3606423    1.0085166   587749 
  317000    1.0193423   -2.3620926   -2.3620926   -1.3525309  0.058826415   -2.3620926    1.0095617   587749 
  318000    1.0205352   -2.3626381   -2.3626381    -1.351895  0.069034119   -2.3626381    1.0107431   587749 
  319000    1.0193626   -2.3614195   -2.3614195   -1.3518378  0.067953151   -2.3614195    1.0095817   587749 
  320000    1.0201082   -2.3616852   -2.3616852    -1.351365  0.063349184   -2.3616852    1.0103202   587749 
  321000    1.0199304   -2.3617138   -2.3617138   -1.3515697  0.063620141   -2.3617138    1.0101441   587749 
  322000    1.0177738   -2.3600833   -2.3600833   -1.3520751   0.05545488   -2.3600833    1.0080082   587749 
  323000    1.0195484   -2.3621209   -2.3621209   -1.3523552  0.060794718   -2.3621209    1.0097657   587749 
  324000    1.0169319   -2.3595347   -2.3595347   -1.3523604  0.063179106   -2.3595347    1.0071743   587749 
  325000     1.019955   -2.3624724   -2.3624724    -1.352304   0.07634916   -2.3624724    1.0101684   587749 
  326000     1.019655   -2.3625514   -2.3625514     -1.35268  0.062762616   -2.3625514    1.0098714   587749 
  327000    1.0182744   -2.3614331   -2.3614331   -1.3529291  0.059696137   -2.3614331    1.0085039   587749 
  328000    1.0186179   -2.3617575   -2.3617575   -1.3529134  0.062688157   -2.3617575    1.0088442   587749 
  329000    1.0179759    -2.361476    -2.361476   -1.3532676  0.063469221    -2.361476    1.0082084   587749 
  330000    1.0173752   -2.3611344   -2.3611344    -1.353521  0.053785092   -2.3611344    1.0076134   587749 
  331000    1.0153623    -2.358706    -2.358706   -1.3530862  0.061712358    -2.358706    1.0056198   587749 
  332000    1.0173505   -2.3608096   -2.3608096   -1.3532207  0.056763489   -2.3608096    1.0075889   587749 
  333000    1.0171006   -2.3605992   -2.3605992   -1.3532577   0.05285166   -2.3605992    1.0073415   587749 
  334000     1.017575    -2.361558    -2.361558   -1.3537468  0.063182466    -2.361558    1.0078113   587749 
  335000    1.0162288   -2.3606046   -2.3606046   -1.3541266  0.068229144   -2.3606046     1.006478   587749 
  336000    1.0197947   -2.3634841   -2.3634841   -1.3534745   0.06869784   -2.3634841    1.0100096   587749 
  337000    1.0184312   -2.3617768   -2.3617768   -1.3531176  0.066626367   -2.3617768    1.0086593   587749 
  338000    1.0194521   -2.3630682   -2.3630682   -1.3533978  0.058575455   -2.3630682    1.0096704   587749 
  339000     1.017508   -2.3620402   -2.3620402   -1.3542953  0.059716675   -2.3620402    1.0077449   587749 
  340000    1.0175691   -2.3628061   -2.3628061   -1.3550006  0.062089455   -2.3628061    1.0078055   587749 
  341000    1.0170234   -2.3624329   -2.3624329    -1.355168  0.071912579   -2.3624329     1.007265   587749 
  342000    1.0179653   -2.3632788   -2.3632788    -1.355081  0.064368023   -2.3632788    1.0081978   587749 
  343000    1.0179243   -2.3628721   -2.3628721   -1.3547149  0.068198693   -2.3628721    1.0081573   587749 
  344000    1.0188808   -2.3641707   -2.3641707   -1.3550662  0.058659544   -2.3641707    1.0091046   587749 
  345000    1.0163181   -2.3620507   -2.3620507   -1.3554842  0.063939057   -2.3620507    1.0065665   587749 
  346000    1.0148633   -2.3618934   -2.3618934   -1.3567678  0.058891664   -2.3618934    1.0051256   587749 
  347000     1.015204   -2.3623541   -2.3623541   -1.3568911  0.067661501   -2.3623541     1.005463   587749 
  348000    1.0167708   -2.3637148   -2.3637148      -1.3567  0.057467224   -2.3637148    1.0070148   587749 
  349000     1.017982   -2.3653493   -2.3653493    -1.357135  0.055046196   -2.3653493    1.0082144   587749 
  350000    1.0173015   -2.3648671   -2.3648671   -1.3573267  0.060090206   -2.3648671    1.0075404   587749 
  351000    1.0167603   -2.3638137   -2.3638137   -1.3568093  0.064146607   -2.3638137    1.0070044   587749 
  352000    1.0162626   -2.3634935   -2.3634935    -1.356982  0.067588005   -2.3634935    1.0065115   587749 
  353000    1.0192743    -2.366586    -2.366586   -1.3570917  0.071467063    -2.366586    1.0094943   587749 
  354000    1.0191976    -2.366168    -2.366168   -1.3567497   0.06177553    -2.366168    1.0094183   587749 
  355000    1.0191151   -2.3660365   -2.3660365      -1.3567   0.05799066   -2.3660365    1.0093366   587749 
  356000    1.0181445   -2.3649869   -2.3649869   -1.3566116  0.055724572   -2.3649869    1.0083753   587749 
  357000    1.0179507   -2.3654993   -2.3654993   -1.3573159  0.067970655   -2.3654993    1.0081834   587749 
  358000    1.0174852    -2.364974    -2.364974   -1.3572516  0.064284664    -2.364974    1.0077224   587749 
  359000    1.0177608   -2.3655132   -2.3655132   -1.3575179  0.077938442   -2.3655132    1.0079953   587749 
  360000    1.0175039   -2.3660107   -2.3660107   -1.3582699  0.074870256   -2.3660107    1.0077408   587749 
  361000    1.0195861    -2.367457    -2.367457   -1.3576539  0.069828167    -2.367457    1.0098031   587749 
  362000    1.0178883   -2.3664443   -2.3664443   -1.3583227   0.06751074   -2.3664443    1.0081216   587749 
  363000    1.0176785   -2.3656736   -2.3656736   -1.3577598  0.068533567   -2.3656736    1.0079138   587749 
  364000    1.0181557   -2.3657744   -2.3657744   -1.3573879  0.057077337   -2.3657744    1.0083865   587749 
  365000    1.0166583   -2.3651459   -2.3651459   -1.3582425  0.061141955   -2.3651459    1.0069033   587749 
  366000    1.0162519   -2.3642819   -2.3642819    -1.357781   0.06862609   -2.3642819    1.0065009   587749 
  367000    1.0159832    -2.364266    -2.364266   -1.3580312  0.066556627    -2.364266    1.0062348   587749 
  368000    1.0169646   -2.3649912   -2.3649912   -1.3577844  0.074311545   -2.3649912    1.0072068   587749 
  369000    1.0172385    -2.365235    -2.365235    -1.357757  0.071842034    -2.365235     1.007478   587749 
  370000    1.0173573   -2.3653632   -2.3653632   -1.3577675  0.065152241   -2.3653632    1.0075957   587749 
  371000    1.0182567   -2.3667001   -2.3667001   -1.3582137  0.069785857   -2.3667001    1.0084864   587749 
  372000    1.0171653   -2.3670271   -2.3670271   -1.3596216  0.069735266   -2.3670271    1.0074055   587749 
  373000    1.0164368   -2.3662502   -2.3662502   -1.3595663  0.057553546   -2.3662502     1.006684   587749 
  374000    1.0179864    -2.368427    -2.368427   -1.3602083  0.066717756    -2.368427    1.0082188   587749 
  375000    1.0176429   -2.3689487   -2.3689487   -1.3610702   0.06655949   -2.3689487    1.0078785   587749 
  376000      1.01834   -2.3695446   -2.3695446   -1.3609756  0.074809517   -2.3695446    1.0085689   587749 
  377000    1.0180211   -2.3683872   -2.3683872   -1.3601341   0.06122278   -2.3683872    1.0082531   587749 
  378000    1.0190949   -2.3694192   -2.3694192   -1.3601025  0.085200272   -2.3694192    1.0093166   587749 
  379000    1.0185306   -2.3683068   -2.3683068   -1.3595491  0.069922746   -2.3683068    1.0087577   587749 
  380000    1.0177968   -2.3682123   -2.3682123   -1.3601813  0.058206512   -2.3682123     1.008031   587749 
  381000    1.0166984   -2.3682432   -2.3682432   -1.3613001  0.076153283   -2.3682432    1.0069431   587749 
  382000     1.018422   -2.3688444   -2.3688444   -1.3601943  0.068189905   -2.3688444    1.0086501   587749 
  383000    1.0176246   -2.3686878   -2.3686878   -1.3608274   0.06750201   -2.3686878    1.0078604   587749 
  384000    1.0170631   -2.3681621   -2.3681621   -1.3608578  0.064458976   -2.3681621    1.0073043   587749 
  385000    1.0171331    -2.368358    -2.368358   -1.3609843  0.071456695    -2.368358    1.0073737   587749 
  386000    1.0177196   -2.3690228   -2.3690228   -1.3610683  0.060134546   -2.3690228    1.0079545   587749 
  387000    1.0168547   -2.3677984   -2.3677984   -1.3607005  0.067684941   -2.3677984    1.0070979   587749 
  388000    1.0163804   -2.3675559   -2.3675559   -1.3609277  0.071745315   -2.3675559    1.0066281   587749 
  389000    1.0157194   -2.3673908   -2.3673908   -1.3614173  0.074515782   -2.3673908    1.0059735   587749 
  390000    1.0160736   -2.3680961   -2.3680961   -1.3617718   0.05637198   -2.3680961    1.0063243   587749 
  391000    1.0180263   -2.3695067   -2.3695067   -1.3612485  0.060436508   -2.3695067    1.0082582   587749 
  392000    1.0183817   -2.3701668   -2.3701668   -1.3615565  0.069507392   -2.3701668    1.0086103   587749 
  393000    1.0176366   -2.3697331   -2.3697331   -1.3618608  0.056912672   -2.3697331    1.0078723   587749 
  394000    1.0190978   -2.3702492   -2.3702492   -1.3609298  0.058466012   -2.3702492    1.0093194   587749 
  395000    1.0161725   -2.3677583   -2.3677583    -1.361336  0.054806999   -2.3677583    1.0064222   587749 
  396000    1.0159234    -2.367817    -2.367817   -1.3616415  0.065249591    -2.367817    1.0061755   587749 
  397000    1.0162699   -2.3682904   -2.3682904   -1.3617717  0.071698361   -2.3682904    1.0065187   587749 
  398000    1.0169886   -2.3684916   -2.3684916   -1.3612611  0.065147424   -2.3684916    1.0072305   587749 
  399000    1.0156116   -2.3681125   -2.3681125   -1.3622459  0.071076257   -2.3681125    1.0058667   587749 
  400000    1.0185216    -2.370587    -2.370587   -1.3618382  0.074587512    -2.370587    1.0087488   587749 
  401000    1.0182188   -2.3707103   -2.3707103   -1.3622614  0.068210521   -2.3707103    1.0084489   587749 
  402000    1.0187614   -2.3712091   -2.3712091   -1.3622228  0.076808358   -2.3712091    1.0089863   587749 
  403000    1.0176964   -2.3699652   -2.3699652   -1.3620337  0.075472951   -2.3699652    1.0079316   587749 
  404000    1.0163112   -2.3687587   -2.3687587   -1.3621991  0.075865662   -2.3687587    1.0065596   587749 
  405000    1.0170909   -2.3689774   -2.3689774   -1.3616456   0.05989563   -2.3689774    1.0073318   587749 
  406000    1.0171969    -2.369215    -2.369215   -1.3617782  0.053109181    -2.369215    1.0074368   587749 
  407000    1.0166372   -2.3688521   -2.3688521   -1.3619697  0.058952959   -2.3688521    1.0068825   587749 
  408000     1.015141   -2.3673881   -2.3673881   -1.3619874   0.06308481   -2.3673881    1.0054007   587749 
  409000    1.0163372   -2.3684859   -2.3684859   -1.3619005  0.064263284   -2.3684859    1.0065854   587749 
  410000    1.0168206   -2.3700751   -2.3700751    -1.363011  0.057303403   -2.3700751    1.0070641   587749 
  411000     1.015981   -2.3690983   -2.3690983   -1.3628658  0.063340374   -2.3690983    1.0062325   587749 
  412000    1.0168238   -2.3697038   -2.3697038   -1.3626365  0.072981241   -2.3697038    1.0070673   587749 
  413000    1.0184548   -2.3709976   -2.3709976   -1.3623149  0.067865798   -2.3709976    1.0086827   587749 
  414000    1.0182631   -2.3707846   -2.3707846   -1.3622918   0.06620592   -2.3707846    1.0084928   587749 
  415000    1.0183173   -2.3707896   -2.3707896   -1.3622432   0.05597297   -2.3707896    1.0085465   587749 
  416000     1.017737   -2.3703773   -2.3703773   -1.3624056  0.062544464   -2.3703773    1.0079717   587749 
  417000     1.017137   -2.3690378   -2.3690378   -1.3616604  0.058392559   -2.3690378    1.0073775   587749 
  418000    1.0160431   -2.3683436   -2.3683436   -1.3620496  0.061775598   -2.3683436     1.006294   587749 
  419000    1.0168377   -2.3692283   -2.3692283   -1.3621472  0.059897018   -2.3692283    1.0070811   587749 
  420000    1.0155628   -2.3694347   -2.3694347   -1.3636163  0.059715689   -2.3694347    1.0058184   587749 
  421000    1.0159912   -2.3690136   -2.3690136   -1.3627709  0.069317045   -2.3690136    1.0062427   587749 
  422000    1.0169974   -2.3703306   -2.3703306   -1.3630914  0.064327101   -2.3703306    1.0072392   587749 
  423000    1.0155491   -2.3693463   -2.3693463   -1.3635415  0.057315543   -2.3693463    1.0058048   587749 
  424000    1.0163162   -2.3707828   -2.3707828   -1.3642183  0.062717082   -2.3707828    1.0065645   587749 
  425000    1.0165689   -2.3714558   -2.3714558   -1.3646409  0.058609307   -2.3714558    1.0068149   587749 
  426000    1.0162984   -2.3708783   -2.3708783   -1.3643314  0.071900571   -2.3708783    1.0065469   587749 
  427000    1.0152486   -2.3700421   -2.3700421   -1.3645348  0.061040492   -2.3700421    1.0055073   587749 
  428000     1.016706   -2.3721145   -2.3721145   -1.3651638  0.060808714   -2.3721145    1.0069507   587749 
  429000    1.0174726   -2.3737797   -2.3737797   -1.3660699  0.052375009   -2.3737797    1.0077098   587749 
  430000    1.0176123   -2.3737641   -2.3737641   -1.3659158  0.066605019   -2.3737641    1.0078482   587749 
  431000    1.0168886   -2.3735363   -2.3735363   -1.3664048  0.063184688   -2.3735363    1.0071315   587749 
  432000    1.0163297   -2.3727299   -2.3727299    -1.366152  0.073653001   -2.3727299    1.0065779   587749 
  433000      1.01462   -2.3716401   -2.3716401   -1.3667555  0.061360615   -2.3716401    1.0048846   587749 
  434000    1.0164299   -2.3733202   -2.3733202   -1.3666431  0.064895155   -2.3733202    1.0066771   587749 
  435000    1.0165135   -2.3725387   -2.3725387   -1.3657788  0.063928692   -2.3725387      1.00676   587749 
  436000    1.0167827   -2.3730367   -2.3730367   -1.3660102  0.056046404   -2.3730367    1.0070266   587749 
  437000    1.0144491   -2.3707451   -2.3707451   -1.3660297  0.066962817   -2.3707451    1.0047154   587749 
  438000    1.0151549   -2.3728705   -2.3728705    -1.367456   0.06032476   -2.3728705    1.0054144   587749 
  439000    1.0175598   -2.3743555   -2.3743555   -1.3665593  0.061155967   -2.3743555    1.0077962   587749 
  440000    1.0169768   -2.3733627   -2.3733627   -1.3661439  0.061836778   -2.3733627    1.0072188   587749 
  441000    1.0164363   -2.3730908   -2.3730908   -1.3664073  0.076386209   -2.3730908    1.0066835   587749 
  442000    1.0154999   -2.3726417   -2.3726417   -1.3668856  0.061910878   -2.3726417     1.005756   587749 
  443000    1.0159999   -2.3724272   -2.3724272   -1.3661759   0.04914448   -2.3724272    1.0062513   587749 
  444000    1.0158389   -2.3722023   -2.3722023   -1.3661105  0.058015261   -2.3722023    1.0060919   587749 
  445000    1.0147119   -2.3715626   -2.3715626   -1.3665869  0.068651461   -2.3715626    1.0049757   587749 
  446000    1.0150647   -2.3721612   -2.3721612   -1.3668361  0.061626434   -2.3721612     1.005325   587749 
  447000    1.0145627   -2.3711428   -2.3711428   -1.3663149  0.072277259   -2.3711428    1.0048279   587749 
  448000    1.0149182   -2.3728174   -2.3728174   -1.3676375  0.059547858   -2.3728174    1.0051799   587749 
  449000    1.0142569   -2.3725307   -2.3725307   -1.3680056  0.058695742   -2.3725307     1.004525   587749 
  450000    1.0147944   -2.3730429   -2.3730429   -1.3679855  0.053742843   -2.3730429    1.0050574   587749 
  451000    1.0150826   -2.3728195   -2.3728195   -1.3674766  0.064629821   -2.3728195    1.0053428   587749 
  452000    1.0150247   -2.3725701   -2.3725701   -1.3672847  0.068710406   -2.3725701    1.0052854   587749 
  453000    1.0177217   -2.3759007   -2.3759007   -1.3679442  0.054190318   -2.3759007    1.0079565   587749 
  454000    1.0165626   -2.3737462   -2.3737462   -1.3669376  0.064239638   -2.3737462    1.0068086   587749 
  455000    1.0177456   -2.3754734   -2.3754734   -1.3674931  0.059654748   -2.3754734    1.0079803   587749 
  456000    1.0180138   -2.3753091   -2.3753091   -1.3670633  0.062499239   -2.3753091    1.0082458   587749 
  457000    1.0162323   -2.3735066   -2.3735066   -1.3670252  0.069442132   -2.3735066    1.0064814   587749 
  458000    1.0170888   -2.3752134   -2.3752134   -1.3678836  0.063506461   -2.3752134    1.0073297   587749 
  459000    1.0137326   -2.3725151   -2.3725151   -1.3685093  0.070934637   -2.3725151    1.0040058   587749 
  460000    1.0155882   -2.3743559   -2.3743559   -1.3685123  0.065443093   -2.3743559    1.0058435   587749 
  461000    1.0164559   -2.3748978   -2.3748978   -1.3681949  0.058335769   -2.3748978    1.0067029   587749 
  462000    1.0151332   -2.3735609   -2.3735609    -1.368168  0.067241283   -2.3735609    1.0053929   587749 
  463000    1.0148966   -2.3734133   -2.3734133   -1.3682547  0.064044206   -2.3734133    1.0051586   587749 
  464000    1.0146839   -2.3742825   -2.3742825   -1.3693345  0.058385381   -2.3742825     1.004948   587749 
  465000    1.0148873   -2.3739645   -2.3739645   -1.3688152  0.057697846   -2.3739645    1.0051493   587749 
  466000    1.0159418    -2.374737    -2.374737   -1.3685432  0.064798289    -2.374737    1.0061938   587749 
  467000    1.0169003   -2.3760569   -2.3760569   -1.3689139  0.060390042   -2.3760569     1.007143   587749 
  468000    1.0137594   -2.3726474   -2.3726474   -1.3686151  0.058738891   -2.3726474    1.0040323   587749 
  469000    1.0162746   -2.3748223   -2.3748223   -1.3682989  0.058751801   -2.3748223    1.0065234   587749 
  470000    1.0152209   -2.3744017   -2.3744017   -1.3689219  0.062475531   -2.3744017    1.0054798   587749 
  471000    1.0152563   -2.3742209   -2.3742209   -1.3687061  0.060028919   -2.3742209    1.0055149   587749 
  472000    1.0168694   -2.3754607   -2.3754607   -1.3683482  0.078740697   -2.3754607    1.0071124   587749 
  473000    1.0184705   -2.3763265   -2.3763265   -1.3676283  0.071541574   -2.3763265    1.0086982   587749 
  474000    1.0183835   -2.3753937   -2.3753937   -1.3667817  0.065428664   -2.3753937    1.0086121   587749 
  475000    1.0159445   -2.3731167   -2.3731167   -1.3669203  0.070853106   -2.3731167    1.0061964   587749 
  476000    1.0162388   -2.3738111   -2.3738111   -1.3673232  0.067806787   -2.3738111    1.0064879   587749 
  477000    1.0162769   -2.3743741   -2.3743741   -1.3678485  0.065918593   -2.3743741    1.0065256   587749 
  478000    1.0168733   -2.3753176   -2.3753176   -1.3682012  0.057932984   -2.3753176    1.0071163   587749 
  479000    1.0169108     -2.37546     -2.37546   -1.3683065  0.066107037     -2.37546    1.0071534   587749 
  480000    1.0172867    -2.376603    -2.376603   -1.3690773  0.066636174    -2.376603    1.0075258   587749 
  481000    1.0154182    -2.374722    -2.374722   -1.3690468    0.0691852    -2.374722    1.0056752   587749 
  482000    1.0149542   -2.3748027   -2.3748027    -1.369587   0.06233574   -2.3748027    1.0052157   587749 
  483000    1.0165285   -2.3770047   -2.3770047   -1.3702299  0.051707763   -2.3770047    1.0067749   587749 
  484000    1.0160459   -2.3773766   -2.3773766   -1.3710797  0.061137105   -2.3773766    1.0062969   587749 
  485000    1.0148731   -2.3760821   -2.3760821   -1.3709468  0.058199419   -2.3760821    1.0051353   587749 
  486000    1.0169095   -2.3773113   -2.3773113   -1.3701591  0.068252326   -2.3773113    1.0071522   587749 
  487000    1.0154766    -2.376389    -2.376389   -1.3706559  0.070107795    -2.376389    1.0057331   587749 
  488000    1.0156594   -2.3771069   -2.3771069   -1.3711929  0.055458638   -2.3771069    1.0059141   587749 
  489000    1.0159973   -2.3763729   -2.3763729   -1.3701242   0.07294264   -2.3763729    1.0062487   587749 
  490000    1.0158891   -2.3763431   -2.3763431   -1.3702016  0.053725414   -2.3763431    1.0061416   587749 
  491000    1.0140402    -2.374427    -2.374427   -1.3701165  0.063152154    -2.374427    1.0043104   587749 
  492000    1.0141115   -2.3757891   -2.3757891   -1.3714081   0.05983475   -2.3757891     1.004381   587749 
  493000    1.0144828   -2.3755927   -2.3755927   -1.3708439  0.072448326   -2.3755927    1.0047487   587749 
  494000    1.0132561   -2.3742596   -2.3742596   -1.3707257  0.063807821   -2.3742596    1.0035339   587749 
  495000    1.0141808   -2.3756464   -2.3756464   -1.3711967  0.062871034   -2.3756464    1.0044497   587749 
  496000    1.0158993    -2.377359    -2.377359   -1.3712073  0.058498749    -2.377359    1.0061517   587749 
  497000     1.016371   -2.3769808   -2.3769808    -1.370362  0.055391646   -2.3769808    1.0066189   587749 
  498000    1.0157924   -2.3762548   -2.3762548    -1.370209  0.063895491   -2.3762548    1.0060458   587749 
  499000    1.0168727   -2.3783895   -2.3783895   -1.3712738  0.070341707   -2.3783895    1.0071158   587749 
  500000    1.0175194   -2.3790197   -2.3790197   -1.3712635  0.070475163   -2.3790197    1.0077562   587749 
  501000    1.0161156   -2.3773841   -2.3773841   -1.3710182  0.059637121   -2.3773841    1.0063659   587749 
  502000     1.016245   -2.3773974   -2.3773974   -1.3709033  0.064695749   -2.3773974    1.0064941   587749 
  503000    1.0149718   -2.3764404   -2.3764404   -1.3712073    0.0752426   -2.3764404    1.0052331   587749 
  504000     1.015838   -2.3785322   -2.3785322   -1.3724412  0.058133437   -2.3785322    1.0060909   587749 
  505000    1.0143013   -2.3773749   -2.3773749   -1.3728059  0.076168958   -2.3773749     1.004569   587749 
  506000    1.0143178   -2.3769127   -2.3769127   -1.3723274  0.068968009   -2.3769127    1.0045853   587749 
  507000    1.0161425   -2.3786414   -2.3786414   -1.3722488  0.081781774   -2.3786414    1.0063925   587749 
  508000    1.0149572   -2.3783411   -2.3783411   -1.3731224  0.058410314   -2.3783411    1.0052186   587749 
  509000    1.0153061   -2.3780831   -2.3780831   -1.3725189  0.065298322   -2.3780831    1.0055641   587749 
  510000    1.0149866   -2.3784927   -2.3784927    -1.373245  0.058526783   -2.3784927    1.0052477   587749 
  511000    1.0153523   -2.3786399   -2.3786399     -1.37303   0.05948781   -2.3786399    1.0056099   587749 
  512000    1.0172992   -2.3806322   -2.3806322   -1.3730941  0.048951429   -2.3806322    1.0075381   587749 
  513000    1.0168369   -2.3796746   -2.3796746   -1.3725943   0.06820249   -2.3796746    1.0070803   587749 
  514000    1.0159441   -2.3786293   -2.3786293   -1.3724332  0.066145782   -2.3786293    1.0061961   587749 
  515000    1.0156301   -2.3782127   -2.3782127   -1.3723277  0.075509074   -2.3782127     1.005885   587749 
  516000    1.0151364    -2.377488    -2.377488    -1.372092   0.06540668    -2.377488     1.005396   587749 
  517000    1.0132663   -2.3759772   -2.3759772   -1.3724332  0.076113354   -2.3759772    1.0035439   587749 
  518000     1.014689   -2.3768101   -2.3768101   -1.3718571   0.07659747   -2.3768101     1.004953   587749 
  519000    1.0158497   -2.3785828   -2.3785828   -1.3724802  0.059871155   -2.3785828    1.0061026   587749 
  520000    1.0157465   -2.3777995   -2.3777995   -1.3717991  0.062385159   -2.3777995    1.0060004   587749 
  521000    1.0149895   -2.3772282   -2.3772282   -1.3719776  0.067778087   -2.3772282    1.0052506   587749 
  522000    1.0147686    -2.376767    -2.376767   -1.3717352   0.05810979    -2.376767    1.0050318   587749 
  523000    1.0157202   -2.3776062   -2.3776062   -1.3716319  0.060302834   -2.3776062    1.0059743   587749 
  524000    1.0173758   -2.3796637   -2.3796637   -1.3720497  0.062852581   -2.3796637     1.007614   587749 
  525000    1.0146036   -2.3771899   -2.3771899   -1.3723215  0.073715725   -2.3771899    1.0048684   587749 
  526000    1.0169131   -2.3797437   -2.3797437    -1.372588  0.076604874   -2.3797437    1.0071557   587749 
  527000    1.0160643   -2.3792947   -2.3792947   -1.3729796  0.070185458   -2.3792947    1.0063151   587749 
  528000    1.0173869   -2.3809255   -2.3809255   -1.3733005   0.07602601   -2.3809255     1.007625   587749 
  529000      1.01609   -2.3797495   -2.3797495    -1.373409   0.07410082   -2.3797495    1.0063405   587749 
  530000     1.018047   -2.3809566   -2.3809566   -1.3726778  0.068832959   -2.3809566    1.0082788   587749 
  531000    1.0154916   -2.3786666   -2.3786666   -1.3729187  0.061072936   -2.3786666    1.0057478   587749 
  532000    1.0183517   -2.3815323   -2.3815323   -1.3729517  0.072912679   -2.3815323    1.0085806   587749 
  533000    1.0170739   -2.3802506   -2.3802506   -1.3729356  0.074819112   -2.3802506     1.007315   587749 
  534000    1.0166295   -2.3795141   -2.3795141   -1.3726393  0.068288718   -2.3795141    1.0068748   587749 
  535000    1.0137943   -2.3777118   -2.3777118    -1.373645  0.058499853   -2.3777118    1.0040668   587749 
  536000    1.0150037   -2.3784573   -2.3784573   -1.3731926  0.054840649   -2.3784573    1.0052647   587749 
  537000    1.0136924   -2.3772073   -2.3772073   -1.3732414  0.068139057   -2.3772073    1.0039659   587749 
  538000    1.0148286   -2.3779988   -2.3779988   -1.3729075  0.061058331   -2.3779988    1.0050913   587749 
  539000       1.0153   -2.3778877   -2.3778877   -1.3723296  0.063511781   -2.3778877    1.0055581   587749 
  540000    1.0146337   -2.3776596   -2.3776596   -1.3727614  0.065689346   -2.3776596    1.0048982   587749 
  541000    1.0151903   -2.3787196   -2.3787196   -1.3732701  0.066842935   -2.3787196    1.0054495   587749 
  542000    1.0134714   -2.3768196   -2.3768196   -1.3730725  0.055437669   -2.3768196     1.003747   587749 
  543000    1.0139157   -2.3774222   -2.3774222   -1.3732351  0.049935714   -2.3774222    1.0041871   587749 
  544000    1.0138274   -2.3774861   -2.3774861   -1.3733865  0.060044501   -2.3774861    1.0040996   587749 
  545000    1.0160562   -2.3798228   -2.3798228   -1.3735157  0.060589672   -2.3798228    1.0063071   587749 
  546000     1.016511   -2.3807773   -2.3807773   -1.3740198  0.060024424   -2.3807773    1.0067575   587749 
  547000    1.0162967   -2.3810846   -2.3810846   -1.3745393  0.063962666   -2.3810846    1.0065453   587749 
  548000    1.0165245   -2.3809221   -2.3809221   -1.3741512  0.056911341   -2.3809221    1.0067709   587749 
  549000    1.0156412   -2.3806616   -2.3806616   -1.3747656  0.070778756   -2.3806616     1.005896   587749 
  550000    1.0168016   -2.3816838   -2.3816838   -1.3746385  0.075889975   -2.3816838    1.0070454   587749 
  551000    1.0170535   -2.3823817   -2.3823817   -1.3750869  0.056188759   -2.3823817    1.0072948   587749 
  552000    1.0138389   -2.3802322   -2.3802322   -1.3761211  0.061636486   -2.3802322    1.0041111   587749 
  553000    1.0145042   -2.3813063   -2.3813063   -1.3765363  0.057880428   -2.3813063      1.00477   587749 
  554000    1.0140645   -2.3797194   -2.3797194   -1.3753849  0.067278729   -2.3797194    1.0043345   587749 
  555000    1.0131594   -2.3788505   -2.3788505   -1.3754124  0.057521818   -2.3788505    1.0034381   587749 
  556000    1.0142783   -2.3800867   -2.3800867   -1.3755405  0.080675231   -2.3800867    1.0045462   587749 
  557000    1.0137288   -2.3799133   -2.3799133   -1.3759113  0.072251034   -2.3799133     1.004002   587749 
  558000    1.0140934   -2.3812901   -2.3812901    -1.376927  0.068847624   -2.3812901    1.0043631   587749 
  559000    1.0145395   -2.3816111   -2.3816111   -1.3768063  0.052544435   -2.3816111    1.0048049   587749 
  560000    1.0155824   -2.3820773   -2.3820773   -1.3762396  0.067205246   -2.3820773    1.0058378   587749 
  561000    1.0165736   -2.3835328   -2.3835328   -1.3767133  0.062143798   -2.3835328    1.0068195   587749 
  562000    1.0157851   -2.3825914   -2.3825914   -1.3765529  0.061852445   -2.3825914    1.0060385   587749 
  563000    1.0158211   -2.3824334   -2.3824334   -1.3763592  0.064610967   -2.3824334    1.0060742   587749 
  564000    1.0162261    -2.382425    -2.382425   -1.3759496  0.060760265    -2.382425    1.0064754   587749 
  565000    1.0153351   -2.3826191   -2.3826191   -1.3770262  0.065468547   -2.3826191    1.0055929   587749 
  566000    1.0151626   -2.3813113   -2.3813113   -1.3758893  0.067054388   -2.3813113     1.005422   587749 
  567000    1.0157675   -2.3817552   -2.3817552   -1.3757341  0.050623901   -2.3817552    1.0060211   587749 
  568000    1.0142189   -2.3806586   -2.3806586   -1.3761712  0.064586367   -2.3806586    1.0044874   587749 
  569000    1.0120832   -2.3796175   -2.3796175   -1.3772454  0.058790803   -2.3796175    1.0023722   587749 
  570000    1.0142481   -2.3817938   -2.3817938   -1.3772775  0.053705368   -2.3817938    1.0045164   587749 
  571000    1.0160881   -2.3837451   -2.3837451   -1.3774064  0.062546528   -2.3837451    1.0063387   587749 
  572000    1.0136068   -2.3811389   -2.3811389   -1.3772577  0.061101776   -2.3811389    1.0038812   587749 
  573000    1.0144404   -2.3824844   -2.3824844   -1.3777776  0.062643029   -2.3824844    1.0047067   587749 
  574000    1.0155625   -2.3844149   -2.3844149   -1.3785969  0.078683047   -2.3844149    1.0058181   587749 
  575000       1.0147   -2.3826216   -2.3826216   -1.3776577  0.066948741   -2.3826216    1.0049638   587749 
  576000    1.0135771   -2.3820395   -2.3820395   -1.3781878  0.061342908   -2.3820395    1.0038517   587749 
  577000    1.0151813   -2.3830131   -2.3830131   -1.3775725    0.0680072   -2.3830131    1.0054406   587749 
  578000    1.0148555   -2.3826878   -2.3826878     -1.37757  0.063503379   -2.3826878    1.0051178   587749 
  579000    1.0149992   -2.3824215   -2.3824215   -1.3771613  0.060358342   -2.3824215    1.0052602   587749 
  580000    1.0151599   -2.3822235   -2.3822235   -1.3768041  0.069012969   -2.3822235    1.0054194   587749 
  581000    1.0125144   -2.3801851   -2.3801851   -1.3773859  0.068329287   -2.3801851    1.0027992   587749 
  582000    1.0142884   -2.3822466   -2.3822466   -1.3776904  0.060785057   -2.3822466    1.0045562   587749 
  583000       1.0136   -2.3818681   -2.3818681   -1.3779937  0.054899104   -2.3818681    1.0038745   587749 
  584000    1.0170524   -2.3859381   -2.3859381   -1.3786444  0.070187365   -2.3859381    1.0072937   587749 
  585000    1.0152357    -2.384649    -2.384649   -1.3791546    0.0646439    -2.384649    1.0054944   587749 
  586000    1.0148426   -2.3836408   -2.3836408   -1.3785357  0.060514813   -2.3836408    1.0051051   587749 
  587000    1.0143576   -2.3834185   -2.3834185   -1.3787938  0.066686743   -2.3834185    1.0046247   587749 
  588000    1.0151313    -2.383879    -2.383879    -1.378488   0.06341535    -2.383879     1.005391   587749 
  589000    1.0140058   -2.3835247   -2.3835247   -1.3792484  0.062875071   -2.3835247    1.0042764   587749 
  590000    1.0141707   -2.3843692   -2.3843692   -1.3799295    0.0583072   -2.3843692    1.0044397   587749 
  591000    1.0155165   -2.3851685   -2.3851685   -1.3793959  0.054292698   -2.3851685    1.0057725   587749 
  592000    1.0148273   -2.3855696   -2.3855696   -1.3804797  0.059784894   -2.3855696    1.0050899   587749 
  593000     1.012107   -2.3825189   -2.3825189   -1.3801232  0.066772487   -2.3825189    1.0023957   587749 
  594000    1.0128682   -2.3835689   -2.3835689   -1.3804192  0.058184205   -2.3835689    1.0031496   587749 
  595000    1.0131917   -2.3834377   -2.3834377   -1.3799677   0.06675399   -2.3834377    1.0034701   587749 
  596000    1.0130556   -2.3832322   -2.3832322   -1.3798969  0.054287237   -2.3832322    1.0033352   587749 
  597000    1.0152996   -2.3860244   -2.3860244   -1.3804667  0.074581147   -2.3860244    1.0055577   587749 
  598000    1.0158065   -2.3860478   -2.3860478   -1.3799881  0.065407032   -2.3860478    1.0060598   587749 
  599000    1.0138489   -2.3840535   -2.3840535   -1.3799325  0.068955857   -2.3840535     1.004121   587749 
  600000    1.0159435   -2.3867758   -2.3867758   -1.3805804  0.071951544   -2.3867758    1.0061954   587749 
  601000    1.0131096   -2.3837061   -2.3837061   -1.3803173  0.054776569   -2.3837061    1.0033887   587749 
  602000    1.0152725   -2.3860143   -2.3860143   -1.3804834   0.07199739   -2.3860143    1.0055308   587749 
  603000    1.0140537   -2.3859125   -2.3859125   -1.3815887  0.076007483   -2.3859125    1.0043238   587749 
  604000     1.014368   -2.3863172   -2.3863172   -1.3816821  0.069567675   -2.3863172    1.0046351   587749 
  605000    1.0122324   -2.3837879   -2.3837879   -1.3812679  0.059844748   -2.3837879    1.0025199   587749 
  606000     1.014029   -2.3853082   -2.3853082   -1.3810089  0.066412595   -2.3853082    1.0042993   587749 
  607000    1.0140215   -2.3854946   -2.3854946   -1.3812027  0.057533189   -2.3854946    1.0042919   587749 
  608000    1.0116879   -2.3830895   -2.3830895   -1.3811088  0.059553602   -2.3830895    1.0019807   587749 
  609000     1.013558   -2.3848265   -2.3848265   -1.3809936  0.067956029   -2.3848265    1.0038328   587749 
  610000    1.0143696   -2.3854449   -2.3854449   -1.3808083  0.067718678   -2.3854449    1.0046366   587749 
  611000    1.0155081   -2.3861656   -2.3861656   -1.3804014  0.069406361   -2.3861656    1.0057642   587749 
  612000    1.0145494   -2.3852887   -2.3852887    -1.380474  0.064697768   -2.3852887    1.0048147   587749 
  613000    1.0153009   -2.3858721   -2.3858721   -1.3803131  0.066122302   -2.3858721     1.005559   587749 
  614000    1.0150501   -2.3856653   -2.3856653   -1.3803547  0.062254981   -2.3856653    1.0053106   587749 
  615000     1.014709   -2.3860197   -2.3860197    -1.381047  0.069606733   -2.3860197    1.0049728   587749 
  616000    1.0162474   -2.3877779   -2.3877779   -1.3812814  0.064590584   -2.3877779    1.0064965   587749 
  617000    1.0154902   -2.3867254   -2.3867254   -1.3809788  0.061323292   -2.3867254    1.0057465   587749 
  618000    1.0139468   -2.3853586   -2.3853586   -1.3811407  0.066255979   -2.3853586    1.0042179   587749 
  619000    1.0142828   -2.3859256   -2.3859256   -1.3813749  0.072101864   -2.3859256    1.0045507   587749 
  620000    1.0134449   -2.3851375   -2.3851375   -1.3814167  0.068131115   -2.3851375    1.0037208   587749 
  621000    1.0140664   -2.3861234   -2.3861234    -1.381787  0.061059508   -2.3861234    1.0043364   587749 
  622000    1.0109154   -2.3833558   -2.3833558   -1.3821403  0.058356368   -2.3833558    1.0012156   587749 
  623000    1.0133689   -2.3846619   -2.3846619   -1.3810164  0.081199477   -2.3846619    1.0036455   587749 
  624000    1.0141184   -2.3851223   -2.3851223   -1.3807345  0.074344983   -2.3851223    1.0043879   587749 
  625000    1.0131634   -2.3843637   -2.3843637   -1.3809217  0.066633433   -2.3843637     1.003442   587749 
  626000    1.0148346   -2.3865437   -2.3865437   -1.3814466  0.067734537   -2.3865437    1.0050971   587749 
  627000    1.0132495   -2.3848367   -2.3848367   -1.3813095  0.069972458   -2.3848367    1.0035273   587749 
  628000    1.0126549   -2.3846226   -2.3846226   -1.3816842  0.056740078   -2.3846226    1.0029384   587749 
  629000    1.0147345   -2.3868259   -2.3868259   -1.3818278  0.063916431   -2.3868259    1.0049981   587749 
  630000     1.015145   -2.3871595   -2.3871595   -1.3817549  0.057537067   -2.3871595    1.0054046   587749 
  631000    1.0137577   -2.3861308   -2.3861308   -1.3821001  0.066727031   -2.3861308    1.0040306   587749 
  632000    1.0133375   -2.3860251   -2.3860251   -1.3824106  0.058528471   -2.3860251    1.0036145   587749 
  633000    1.0135136   -2.3853661   -2.3853661   -1.3815772  0.058422097   -2.3853661    1.0037889   587749 
  634000    1.0152678   -2.3861017   -2.3861017   -1.3805756  0.075455112   -2.3861017    1.0055262   587749 
  635000    1.0154974   -2.3864177   -2.3864177   -1.3806641  0.054630549   -2.3864177    1.0057536   587749 
  636000    1.0149866   -2.3859014   -2.3859014   -1.3806538  0.059683366   -2.3859014    1.0052477   587749 
  637000    1.0117992   -2.3825984   -2.3825984   -1.3805075  0.070965564   -2.3825984    1.0020909   587749 
  638000    1.0141079   -2.3840665   -2.3840665   -1.3796891  0.056366118   -2.3840665    1.0043774   587749 
  639000    1.0139856   -2.3842371   -2.3842371   -1.3799808  0.068046182   -2.3842371    1.0042564   587749 
  640000    1.0133997   -2.3838892   -2.3838892   -1.3802132  0.065455387   -2.3838892     1.003676   587749 
  641000     1.016487   -2.3874989   -2.3874989   -1.3807652  0.057671593   -2.3874989    1.0067337   587749 
  642000    1.0127927   -2.3842187   -2.3842187   -1.3811439  0.071328911   -2.3842187    1.0030748   587749 
  643000     1.014743    -2.386113    -2.386113   -1.3811065   0.06054986    -2.386113    1.0050065   587749 
  644000    1.0154956   -2.3860833   -2.3860833   -1.3803314   0.07463073   -2.3860833    1.0057518   587749 
  645000     1.014112   -2.3844998   -2.3844998   -1.3801184   0.05166673   -2.3844998    1.0043815   587749 
  646000    1.0132616    -2.384084    -2.384084   -1.3805447  0.059634357    -2.384084    1.0035393   587749 
  647000     1.014973   -2.3867326   -2.3867326   -1.3814984  0.061785167   -2.3867326    1.0052342   587749 
  648000    1.0134394   -2.3848872   -2.3848872   -1.3811718   0.05710378   -2.3848872    1.0037154   587749 
  649000    1.0146511   -2.3869728   -2.3869728   -1.3820574  0.060321189   -2.3869728    1.0049155   587749 
  650000    1.0133664   -2.3855928   -2.3855928   -1.3819497  0.061720367   -2.3855928     1.003643   587749 
  651000    1.0133113   -2.3853268   -2.3853268   -1.3817382  0.045970961   -2.3853268    1.0035885   587749 
  652000    1.0140834   -2.3859255   -2.3859255   -1.3815724  0.067200251   -2.3859255    1.0043531   587749 
  653000    1.0146108   -2.3873129   -2.3873129   -1.3824373  0.061442948   -2.3873129    1.0048755   587749 
  654000    1.0145009   -2.3872747   -2.3872747    -1.382508  0.072174865   -2.3872747    1.0047667   587749 
  655000    1.0127443   -2.3856366   -2.3856366   -1.3826097  0.065544367   -2.3856366    1.0030269   587749 
  656000    1.0135989   -2.3857636   -2.3857636   -1.3818902  0.065148209   -2.3857636    1.0038734   587749 
  657000    1.0154119   -2.3872093   -2.3872093   -1.3815403   0.06417332   -2.3872093    1.0056689   587749 
  658000    1.0136361   -2.3861225   -2.3861225   -1.3822124  0.060283853   -2.3861225    1.0039101   587749 
  659000    1.0133764   -2.3867649   -2.3867649   -1.3831119  0.060976823   -2.3867649     1.003653   587749 
  660000    1.0126251   -2.3859046   -2.3859046   -1.3829957  0.056059329   -2.3859046    1.0029088   587749 
  661000    1.0140286   -2.3874009   -2.3874009    -1.383102  0.056843316   -2.3874009    1.0042989   587749 
  662000    1.0138312   -2.3873336   -2.3873336   -1.3832302  0.059837746   -2.3873336    1.0041034   587749 
  663000     1.013247   -2.3871245   -2.3871245   -1.3835996   0.06061772   -2.3871245    1.0035248   587749 
  664000    1.0148394   -2.3881207   -2.3881207   -1.3830188  0.079202294   -2.3881207    1.0051019   587749 
  665000    1.0134147   -2.3873665   -2.3873665   -1.3836756   0.05917987   -2.3873665    1.0036909   587749 
  666000    1.0144841   -2.3882627   -2.3882627   -1.3835126  0.056140958   -2.3882627    1.0047501   587749 
  667000    1.0137012   -2.3879741   -2.3879741   -1.3839994  0.053593497   -2.3879741    1.0039747   587749 
  668000    1.0123239   -2.3864719   -2.3864719   -1.3838614  0.068675156   -2.3864719    1.0026105   587749 
  669000    1.0136698   -2.3866837   -2.3866837   -1.3827401    0.0594938   -2.3866837    1.0039436   587749 
  670000    1.0125515    -2.385971    -2.385971   -1.3831351  0.064551822    -2.385971    1.0028359   587749 
  671000    1.0140232    -2.387888    -2.387888   -1.3835944  0.076466293    -2.387888    1.0042936   587749 
  672000    1.0137966   -2.3869073   -2.3869073   -1.3828382  0.064918573   -2.3869073    1.0040692   587749 
  673000    1.0141367   -2.3881966   -2.3881966   -1.3837906  0.061452678   -2.3881966     1.004406   587749 
  674000     1.012792    -2.386143    -2.386143   -1.3830688  0.071676965    -2.386143    1.0030742   587749 
  675000    1.0127448   -2.3858738   -2.3858738   -1.3828464  0.071063368   -2.3858738    1.0030274   587749 
  676000    1.0133205   -2.3874427   -2.3874427   -1.3838452  0.065782356   -2.3874427    1.0035976   587749 
  677000    1.0140452   -2.3873807   -2.3873807   -1.3830654  0.072641761   -2.3873807    1.0043153   587749 
  678000    1.0146249   -2.3876217   -2.3876217   -1.3827322  0.070859953   -2.3876217    1.0048895   587749 
  679000    1.0117772   -2.3863105   -2.3863105   -1.3842413  0.061099016   -2.3863105    1.0020691   587749 
  680000    1.0133856   -2.3879413   -2.3879413   -1.3842792  0.063861095   -2.3879413    1.0036621   587749 
  681000    1.0127762   -2.3877177   -2.3877177   -1.3846591  0.069746266   -2.3877177    1.0030585   587749 
  682000     1.012582    -2.388538    -2.388538   -1.3856718  0.067656895    -2.388538    1.0028662   587749 
  683000    1.0142972   -2.3899306   -2.3899306   -1.3853657  0.066920659   -2.3899306    1.0045649   587749 
  684000     1.014225   -2.3902688   -2.3902688   -1.3857754    0.0709298   -2.3902688    1.0044935   587749 
  685000     1.013321   -2.3900146   -2.3900146   -1.3864165  0.082098632   -2.3900146    1.0035981   587749 
  686000    1.0160539   -2.3925896   -2.3925896   -1.3862848  0.057776936   -2.3925896    1.0063048   587749 
  687000    1.0160438   -2.3921315   -2.3921315   -1.3858367  0.067159492   -2.3921315    1.0062948   587749 
  688000    1.0149905   -2.3921291   -2.3921291   -1.3868775  0.067104861   -2.3921291    1.0052516   587749 
  689000    1.0142855   -2.3918855   -2.3918855   -1.3873322  0.073378319   -2.3918855    1.0045533   587749 
  690000    1.0147044   -2.3917507   -2.3917507   -1.3867824  0.065948273   -2.3917507    1.0049682   587749 
  691000    1.0148669   -2.3914064   -2.3914064   -1.3862772  0.061480836   -2.3914064    1.0051292   587749 
  692000    1.0146035    -2.391465    -2.391465   -1.3865967  0.069400768    -2.391465    1.0048683   587749 
  693000    1.0134783   -2.3900659   -2.3900659    -1.386312  0.070989867   -2.3900659    1.0037539   587749 
  694000    1.0142036   -2.3908082   -2.3908082    -1.386336  0.065171944   -2.3908082    1.0044722   587749 
  695000    1.0125997   -2.3899789   -2.3899789   -1.3870953  0.057527946   -2.3899789    1.0028837   587749 
  696000    1.0139562   -2.3908163   -2.3908163   -1.3865891  0.067336446   -2.3908163    1.0042272   587749 
  697000    1.0147457   -2.3915039   -2.3915039   -1.3864947  0.065681852   -2.3915039    1.0050092   587749 
  698000    1.0110108   -2.3876551   -2.3876551    -1.386345  0.059252232   -2.3876551      1.00131   587749 
  699000    1.0122968   -2.3892749   -2.3892749   -1.3866911  0.055960987   -2.3892749    1.0025837   587749 
  700000    1.0133512   -2.3900379   -2.3900379   -1.3864099  0.074731851   -2.3900379     1.003628   587749 
  701000    1.0136138   -2.3899323   -2.3899323   -1.3860441  0.072668914   -2.3899323    1.0038881   587749 
  702000    1.0152922   -2.3917091   -2.3917091   -1.3861587  0.068411483   -2.3917091    1.0055503   587749 
  703000    1.0158336   -2.3917532   -2.3917532   -1.3856665  0.064863527   -2.3917532    1.0060866   587749 
  704000    1.0126664   -2.3893483   -2.3893483   -1.3863985  0.067848779   -2.3893483    1.0029498   587749 
  705000     1.014512   -2.3920143   -2.3920143   -1.3872366  0.070105746   -2.3920143    1.0047777   587749 
  706000    1.0128094   -2.3907854   -2.3907854   -1.3876939  0.064421306   -2.3907854    1.0030914   587749 
  707000     1.014869   -2.3925679   -2.3925679   -1.3874366   0.06664975   -2.3925679    1.0051313   587749 
  708000    1.0147486   -2.3928493   -2.3928493   -1.3878374  0.061685084   -2.3928493     1.005012   587749 
  709000    1.0140718    -2.392011    -2.392011   -1.3876694  0.057453683    -2.392011    1.0043417   587749 
  710000    1.0132715   -2.3905466   -2.3905466   -1.3869975  0.055960794   -2.3905466    1.0035491   587749 
  711000    1.0138294   -2.3918344   -2.3918344   -1.3877328  0.062557271   -2.3918344    1.0041016   587749 
  712000    1.0143611   -2.3918466   -2.3918466   -1.3872184  0.075977402   -2.3918466    1.0046282   587749 
  713000    1.0148545   -2.3919461   -2.3919461   -1.3868292  0.065943769   -2.3919461    1.0051169   587749 
  714000    1.0114727    -2.389258    -2.389258   -1.3874904  0.057738983    -2.389258    1.0017676   587749 
  715000    1.0131965   -2.3907575   -2.3907575   -1.3872827   0.04842569   -2.3907575    1.0034748   587749 
  716000    1.0120854     -2.39069     -2.39069   -1.3883157  0.069502584     -2.39069    1.0023744   587749 
  717000    1.0138526   -2.3922043   -2.3922043   -1.3880797  0.064194543   -2.3922043    1.0041246   587749 
  718000    1.0151131   -2.3937969   -2.3937969   -1.3884239  0.075732603   -2.3937969     1.005373   587749 
  719000    1.0135226   -2.3921567   -2.3921567   -1.3883589  0.059854202   -2.3921567    1.0037978   587749 
  720000    1.0150329   -2.3927405   -2.3927405    -1.387447   0.05776889   -2.3927405    1.0052936   587749 
  721000    1.0135934   -2.3917331   -2.3917331   -1.3878652  0.063502491   -2.3917331    1.0038679   587749 
  722000    1.0136476   -2.3912917   -2.3912917   -1.3873702   0.06702657   -2.3912917    1.0039215   587749 
  723000    1.0153329   -2.3925181   -2.3925181   -1.3869275  0.062481866   -2.3925181    1.0055907   587749 
  724000    1.0141211   -2.3912735   -2.3912735    -1.386883  0.065582811   -2.3912735    1.0043905   587749 
  725000     1.014901   -2.3917015   -2.3917015   -1.3865385  0.065254054   -2.3917015    1.0051629   587749 
  726000    1.0151863   -2.3925746   -2.3925746   -1.3871291  0.055860385   -2.3925746    1.0054455   587749 
  727000    1.0156928    -2.392873    -2.392873   -1.3869258  0.062446974    -2.392873    1.0059472   587749 
  728000     1.014211   -2.3918467   -2.3918467   -1.3873671  0.071103594   -2.3918467    1.0044795   587749 
  729000    1.0134597   -2.3915393   -2.3915393   -1.3878038  0.058959727   -2.3915393    1.0037354   587749 
  730000    1.0142479   -2.3924862   -2.3924862   -1.3879702  0.065715023   -2.3924862    1.0045161   587749 
  731000    1.0123364   -2.3915501   -2.3915501   -1.3889271  0.054423571   -2.3915501     1.002623   587749 
  732000    1.0134149   -2.3924701   -2.3924701   -1.3887791   0.04909623   -2.3924701    1.0036911   587749 
  733000    1.0142148   -2.3931677   -2.3931677   -1.3886843  0.057232241   -2.3931677    1.0044834   587749 
  734000    1.0136879   -2.3927562   -2.3927562   -1.3887947  0.074361706   -2.3927562    1.0039615   587749 
  735000    1.0139579   -2.3928212   -2.3928212   -1.3885923   0.06999017   -2.3928212    1.0042289   587749 
  736000    1.0137281   -2.3935719   -2.3935719   -1.3895706   0.07662661   -2.3935719    1.0040013   587749 
  737000    1.0138583   -2.3936206   -2.3936206   -1.3894903  0.066058502   -2.3936206    1.0041303   587749 
  738000    1.0148152   -2.3946652   -2.3946652   -1.3895873  0.064494595   -2.3946652     1.005078   587749 
  739000     1.015012    -2.395178    -2.395178   -1.3899052   0.06552869    -2.395178    1.0052729   587749 
  740000    1.0119923   -2.3929245   -2.3929245   -1.3906423  0.057093864   -2.3929245    1.0022821   587749 
  741000     1.011148   -2.3915766   -2.3915766   -1.3901307  0.074479735   -2.3915766     1.001446   587749 
  742000    1.0125135   -2.3928852   -2.3928852   -1.3900868   0.07065191   -2.3928852    1.0027984   587749 
  743000    1.0124361   -2.3931226   -2.3931226   -1.3904009  0.067957186   -2.3931226    1.0027217   587749 
  744000    1.0118278   -2.3922429   -2.3922429   -1.3901236  0.052829624   -2.3922429    1.0021192   587749 
  745000    1.0132333    -2.393692    -2.393692   -1.3901808   0.06947347    -2.393692    1.0035112   587749 
  746000    1.0142901   -2.3949641   -2.3949641   -1.3904061  0.060975673   -2.3949641    1.0045579   587749 
  747000    1.0133395   -2.3945276   -2.3945276   -1.3909111  0.068579915   -2.3945276    1.0036164   587749 
  748000    1.0142141   -2.3954731   -2.3954731   -1.3909905  0.074642779   -2.3954731    1.0044827   587749 
  749000     1.014183   -2.3957608   -2.3957608   -1.3913089  0.060172674   -2.3957608    1.0044518   587749 
  750000    1.0145883   -2.3965622   -2.3965622   -1.3917089  0.060259946   -2.3965622    1.0048533   587749 
  751000    1.0125908   -2.3950613   -2.3950613   -1.3921864  0.055639154   -2.3950613    1.0028749   587749 
  752000    1.0122476    -2.394912    -2.394912    -1.392377  0.059268424    -2.394912     1.002535   587749 
  753000     1.011715   -2.3942176   -2.3942176     -1.39221   0.06487269   -2.3942176    1.0020075   587749 
  754000    1.0132481    -2.395308    -2.395308   -1.3917821  0.055994956    -2.395308    1.0035259   587749 
  755000      1.01299   -2.3944656   -2.3944656   -1.3911953  0.066659883   -2.3944656    1.0032703   587749 
  756000    1.0137102   -2.3957321   -2.3957321   -1.3917485   0.06236149   -2.3957321    1.0039836   587749 
  757000    1.0138885   -2.3954369   -2.3954369   -1.3912768  0.071415114   -2.3954369    1.0041601   587749 
  758000    1.0129376   -2.3952362   -2.3952362   -1.3920178  0.063674845   -2.3952362    1.0032184   587749 
  759000    1.0126818   -2.3954565   -2.3954565   -1.3924914  0.059310356   -2.3954565     1.002965   587749 
  760000    1.0124147   -2.3957515   -2.3957515   -1.3930511  0.067648101   -2.3957515    1.0027005   587749 
  761000    1.0129603   -2.3962394   -2.3962394   -1.3929985  0.050792243   -2.3962394    1.0032409   587749 
  762000    1.0147718    -2.397987    -2.397987    -1.392952  0.056568778    -2.397987     1.005035   587749 
  763000    1.0117866   -2.3956304   -2.3956304   -1.3935519  0.070471147   -2.3956304    1.0020784   587749 
  764000    1.0146849   -2.3975743   -2.3975743   -1.3926254  0.062963543   -2.3975743    1.0049489   587749 
  765000    1.0148085   -2.3976601   -2.3976601   -1.3925888  0.067027824   -2.3976601    1.0050714   587749 
  766000    1.0137451    -2.396855    -2.396855   -1.3928369  0.061562427    -2.396855    1.0040181   587749 
  767000     1.011389   -2.3955172   -2.3955172   -1.3938326  0.056479954   -2.3955172    1.0016847   587749 
  768000    1.0134576   -2.3977084   -2.3977084   -1.3939751  0.052277267   -2.3977084    1.0037334   587749 
  769000    1.0113306    -2.394913    -2.394913   -1.3932862  0.061562509    -2.394913    1.0016268   587749 
  770000    1.0116251   -2.3955072   -2.3955072   -1.3935887  0.062487532   -2.3955072    1.0019184   587749 
  771000    1.0133424   -2.3963083   -2.3963083    -1.392689  0.063412669   -2.3963083    1.0036193   587749 
  772000    1.0132685   -2.3964401   -2.3964401    -1.392894  0.067163307   -2.3964401    1.0035461   587749 
  773000     1.012114   -2.3956526   -2.3956526     -1.39325  0.063354996   -2.3956526    1.0024027   587749 
  774000    1.0132081   -2.3952639   -2.3952639   -1.3917776  0.063758805   -2.3952639    1.0034863   587749 
  775000    1.0113018   -2.3929101   -2.3929101   -1.3913119  0.072202719   -2.3929101    1.0015983   587749 
  776000     1.012452   -2.3947046   -2.3947046   -1.3919672  0.057783261   -2.3947046    1.0027375   587749 
  777000     1.013027   -2.3960999   -2.3960999    -1.392793   0.05849089   -2.3960999    1.0033069   587749 
  778000    1.0145922   -2.3972005   -2.3972005   -1.3923433  0.064450121   -2.3972005    1.0048571   587749 
  779000    1.0125097   -2.3953871   -2.3953871   -1.3925925  0.055402748   -2.3953871    1.0027946   587749 
  780000    1.0137174   -2.3963249   -2.3963249   -1.3923342  0.060468804   -2.3963249    1.0039907   587749 
  781000    1.0115338   -2.3950803   -2.3950803   -1.3932522  0.080287886   -2.3950803    1.0018281   587749 
  782000    1.0125476   -2.3967666   -2.3967666   -1.3939345  0.068925104   -2.3967666    1.0028321   587749 
  783000    1.0127788   -2.3962991   -2.3962991    -1.393238  0.064781684   -2.3962991    1.0030611   587749 
  784000    1.0117131   -2.3952891   -2.3952891   -1.3932835  0.066800834   -2.3952891    1.0020056   587749 
  785000    1.0123224   -2.3961557   -2.3961557   -1.3935466  0.061892666   -2.3961557     1.002609   587749 
  786000    1.0112506    -2.395355    -2.395355   -1.3938075  0.067463145    -2.395355    1.0015475   587749 
  787000    1.0109887   -2.3962556   -2.3962556   -1.3949674   0.07920753   -2.3962556    1.0012882   587749 
  788000    1.0117558   -2.3963937   -2.3963937   -1.3943458  0.066545582   -2.3963937    1.0020479   587749 
  789000    1.0132527   -2.3985315   -2.3985315   -1.3950011  0.063946229   -2.3985315    1.0035304   587749 
  790000    1.0131089   -2.3985625   -2.3985625   -1.3951744  0.063009567   -2.3985625     1.003388   587749 
  791000    1.0132775   -2.3988306   -2.3988306   -1.3952755  0.070364521   -2.3988306    1.0035551   587749 
  792000    1.0116286   -2.3969327   -2.3969327   -1.3950108  0.062291704   -2.3969327    1.0019219   587749 
  793000    1.0135184   -2.3985305   -2.3985305   -1.3947368  0.057606144   -2.3985305    1.0037937   587749 
  794000    1.0106151   -2.3954135   -2.3954135   -1.3944953  0.067274436   -2.3954135    1.0009182   587749 
  795000    1.0120571   -2.3969676   -2.3969676   -1.3946213  0.057923492   -2.3969676    1.0023463   587749 
  796000    1.0119587   -2.3965616   -2.3965616   -1.3943127  0.059908693   -2.3965616    1.0022489   587749 
  797000    1.0116289   -2.3960038   -2.3960038   -1.3940815  0.066581056   -2.3960038    1.0019223   587749 
  798000    1.0135797   -2.3982241   -2.3982241   -1.3943698  0.061729366   -2.3982241    1.0038543   587749 
  799000    1.0125005   -2.3975323   -2.3975323   -1.3947469  0.063793939   -2.3975323    1.0027854   587749 
  800000    1.0117986   -2.3974998   -2.3974998   -1.3954095  0.048082957   -2.3974998    1.0020903   587749 
  801000    1.0105008    -2.396031    -2.396031    -1.395226   0.06349273    -2.396031    1.0008049   587749 
  802000    1.0117025   -2.3966489   -2.3966489   -1.3946537  0.070120494   -2.3966489    1.0019952   587749 
  803000     1.012667   -2.3971406   -2.3971406   -1.3941902  0.074697765   -2.3971406    1.0029504   587749 
  804000    1.0137254   -2.3990175   -2.3990175   -1.3950189  0.074158174   -2.3990175    1.0039986   587749 
  805000    1.0113489   -2.3967941   -2.3967941   -1.3951492   0.04806257   -2.3967941    1.0016449   587749 
  806000    1.0109343   -2.3967424   -2.3967424   -1.3955081  0.065434173   -2.3967424    1.0012343   587749 
  807000    1.0129953     -2.39826     -2.39826   -1.3949844  0.062976885     -2.39826    1.0032755   587749 
  808000    1.0131207    -2.397822    -2.397822   -1.3944223  0.068281075    -2.397822    1.0033997   587749 
  809000    1.0141195    -2.398665    -2.398665    -1.394276  0.071131645    -2.398665     1.004389   587749 
  810000    1.0122409   -2.3970678   -2.3970678   -1.3945394  0.065670811   -2.3970678    1.0025284   587749 
  811000    1.0105821   -2.3953629   -2.3953629   -1.3944774  0.051990046   -2.3953629    1.0008855   587749 
  812000    1.0127934   -2.3983307   -2.3983307   -1.3952552  0.061213214   -2.3983307    1.0030755   587749 
  813000    1.0123944   -2.3974599   -2.3974599   -1.3947796  0.065019502   -2.3974599    1.0026804   587749 
  814000    1.0135094   -2.3985845   -2.3985845   -1.3947998  0.061501952   -2.3985845    1.0037847   587749 
  815000    1.0128779   -2.3978707   -2.3978707   -1.3947115  0.072532003   -2.3978707    1.0031593   587749 
  816000    1.0124877   -2.3967984   -2.3967984   -1.3940256  0.066264451   -2.3967984    1.0027728   587749 
  817000     1.012578   -2.3975835   -2.3975835   -1.3947213  0.056883394   -2.3975835    1.0028622   587749 
  818000    1.0130374   -2.3975661   -2.3975661   -1.3942488  0.064634674   -2.3975661    1.0033173   587749 
  819000    1.0129315   -2.3976645   -2.3976645   -1.3944522  0.063092369   -2.3976645    1.0032123   587749 
  820000    1.0123151   -2.3971597   -2.3971597   -1.3945578  0.063907207   -2.3971597    1.0026019   587749 
  821000     1.010789   -2.3961249   -2.3961249   -1.3950344  0.060037605   -2.3961249    1.0010904   587749 
  822000    1.0118319   -2.3973418   -2.3973418   -1.3952186  0.058640434   -2.3973418    1.0021233   587749 
  823000    1.0107894   -2.3977784   -2.3977784   -1.3966877  0.066065371   -2.3977784    1.0010908   587749 
  824000    1.0108416   -2.3975687   -2.3975687   -1.3964263  0.071058848   -2.3975687    1.0011424   587749 
  825000    1.0137232   -2.4004818   -2.4004818   -1.3964854   0.06973522   -2.4004818    1.0039964   587749 
  826000    1.0144597   -2.4007528   -2.4007528   -1.3960269  0.068142534   -2.4007528    1.0047258   587749 
  827000    1.0120469   -2.3986767   -2.3986767   -1.3963405  0.064333916   -2.3986767    1.0023362   587749 
  828000    1.0135236   -2.4009195   -2.4009195   -1.3971208  0.072639898   -2.4009195    1.0037987   587749 
  829000    1.0135712   -2.4003662   -2.4003662   -1.3965203  0.060852268   -2.4003662    1.0038459   587749 
  830000     1.012693   -2.3996926   -2.3996926   -1.3967165   0.05886722   -2.3996926    1.0029761   587749 
  831000    1.0138444   -2.4009383   -2.4009383   -1.3968219  0.072184486   -2.4009383    1.0041165   587749 
  832000    1.0116818   -2.3999007   -2.3999007    -1.397926  0.061053539   -2.3999007    1.0019747   587749 
  833000    1.0118764   -2.4001824   -2.4001824    -1.398015  0.058954171   -2.4001824    1.0021674   587749 
  834000    1.0137654    -2.401658    -2.401658   -1.3976197  0.071029402    -2.401658    1.0040382   587749 
  835000    1.0148681   -2.4026509   -2.4026509   -1.3975206  0.060040032   -2.4026509    1.0051304   587749 
  836000    1.0125341   -2.4012976   -2.4012976   -1.3984789  0.076616706   -2.4012976    1.0028187   587749 
  837000    1.0157007    -2.404707    -2.404707    -1.398752  0.058387743    -2.404707     1.005955   587749 
  838000    1.0133201   -2.4021622   -2.4021622    -1.398565  0.067343553   -2.4021622    1.0035972   587749 
  839000    1.0132449   -2.4021625   -2.4021625   -1.3986398   0.07059301   -2.4021625    1.0035227   587749 
  840000    1.0134405   -2.4027731   -2.4027731   -1.3990567  0.073223594   -2.4027731    1.0037164   587749 
  841000    1.0135855   -2.4026821   -2.4026821    -1.398822  0.069681275   -2.4026821    1.0038601   587749 
  842000    1.0134343   -2.4028104   -2.4028104   -1.3991001  0.053127415   -2.4028104    1.0037103   587749 
  843000    1.0136821    -2.402944    -2.402944   -1.3989882  0.050204712    -2.402944    1.0039557   587749 
  844000    1.0159668   -2.4045067   -2.4045067   -1.3982883  0.069743566   -2.4045067    1.0062185   587749 
  845000    1.0121547   -2.4011427   -2.4011427   -1.3986997  0.074496231   -2.4011427     1.002443   587749 
  846000    1.0122339    -2.401142    -2.401142   -1.3986206  0.059372415    -2.401142    1.0025214   587749 
  847000     1.011275   -2.4009657   -2.4009657   -1.3993939  0.071431797   -2.4009657    1.0015718   587749 
  848000    1.0109366   -2.4008816   -2.4008816   -1.3996451  0.055279172   -2.4008816    1.0012365   587749 
  849000    1.0119046   -2.4014975   -2.4014975   -1.3993021  0.068308159   -2.4014975    1.0021953   587749 
  850000    1.0134374   -2.4028116   -2.4028116   -1.3990982  0.066360879   -2.4028116    1.0037134   587749 
  851000    1.0110006   -2.4005677   -2.4005677   -1.3992677  0.063158381   -2.4005677       1.0013   587749 
  852000    1.0116852    -2.400989    -2.400989    -1.399011   0.06918201    -2.400989     1.001978   587749 
  853000    1.0131636   -2.4018608   -2.4018608   -1.3984186  0.047562408   -2.4018608    1.0034422   587749 
  854000    1.0120223   -2.4005681   -2.4005681   -1.3982562  0.065526299   -2.4005681    1.0023119   587749 
  855000    1.0125537   -2.4009666   -2.4009666   -1.3981284  0.067158626   -2.4009666    1.0028382   587749 
  856000    1.0139529   -2.4030503   -2.4030503   -1.3988264  0.057427298   -2.4030503    1.0042239   587749 
  857000    1.0109045   -2.4006997   -2.4006997   -1.3994949  0.077356141   -2.4006997    1.0012048   587749 
  858000     1.010883   -2.4012505   -2.4012505    -1.400067  0.064426014   -2.4012505    1.0011835   587749 
  859000    1.0113644   -2.4011441   -2.4011441   -1.3994838  0.062174213   -2.4011441    1.0016603   587749 
  860000    1.0126841   -2.4032993   -2.4032993    -1.400332  0.062385442   -2.4032993    1.0029673   587749 
  861000    1.0113596   -2.4020771   -2.4020771   -1.4004216  0.067460569   -2.4020771    1.0016555   587749 
  862000    1.0123985     -2.40308     -2.40308   -1.4003955  0.060898244     -2.40308    1.0026845   587749 
  863000    1.0123096   -2.4040833   -2.4040833    -1.401487  0.055862052   -2.4040833    1.0025964   587749 
  864000     1.012343   -2.4044984   -2.4044984   -1.4018688  0.064445416   -2.4044984    1.0026295   587749 
  865000    1.0120676   -2.4039124   -2.4039124   -1.4015557  0.064324556   -2.4039124    1.0023568   587749 
  866000    1.0135755   -2.4050283   -2.4050283   -1.4011781  0.061906299   -2.4050283    1.0038502   587749 
  867000    1.0133459   -2.4047027   -2.4047027   -1.4010799  0.066248606   -2.4047027    1.0036227   587749 
  868000    1.0144736   -2.4061276   -2.4061276   -1.4013879  0.072740185   -2.4061276    1.0047397   587749 
  869000     1.013948   -2.4049943   -2.4049943   -1.4007752  0.061672192   -2.4049943    1.0042191   587749 
  870000    1.0131744   -2.4048189   -2.4048189    -1.401366  0.062812957   -2.4048189    1.0034529   587749 
  871000    1.0129249   -2.4051841   -2.4051841   -1.4019784  0.069501631   -2.4051841    1.0032058   587749 
  872000    1.0122631    -2.404417    -2.404417   -1.4018666  0.058025907    -2.404417    1.0025504   587749 
  873000     1.013349   -2.4060977   -2.4060977   -1.4024719  0.064572584   -2.4060977    1.0036259   587749 
  874000    1.0118961   -2.4053729   -2.4053729   -1.4031861  0.056952884   -2.4053729    1.0021869   587749 
  875000    1.0110304   -2.4048178   -2.4048178   -1.4034884  0.062039425   -2.4048178    1.0013294   587749 
  876000    1.0098442   -2.4035732   -2.4035732   -1.4034185   0.05545382   -2.4035732    1.0001547   587749 
  877000    1.0109715   -2.4042093   -2.4042093   -1.4029382  0.066391685   -2.4042093    1.0012712   587749 
  878000    1.0122317   -2.4053637   -2.4053637   -1.4028444  0.069644915   -2.4053637    1.0025193   587749 
  879000    1.0113429   -2.4052614   -2.4052614   -1.4036224  0.063443968   -2.4052614     1.001639   587749 
  880000    1.0119093   -2.4052071   -2.4052071   -1.4030072  0.055621816   -2.4052071       1.0022   587749 
  881000    1.0109605   -2.4038808   -2.4038808   -1.4026206  0.065359118   -2.4038808    1.0012602   587749 
  882000    1.0113278   -2.4038769   -2.4038769   -1.4022528  0.053254265   -2.4038769     1.001624   587749 
  883000    1.0101041   -2.4029852   -2.4029852   -1.4025732  0.066500661   -2.4029852    1.0004121   587749 
  884000    1.0117996   -2.4044004   -2.4044004   -1.4023091  0.061417569   -2.4044004    1.0020913   587749 
  885000    1.0098287   -2.4027141   -2.4027141   -1.4025748  0.072251589   -2.4027141    1.0001394   587749 
  886000    1.0120744   -2.4040659   -2.4040659   -1.4017025   0.06189101   -2.4040659    1.0023634   587749 
  887000    1.0098595   -2.4015404   -2.4015404   -1.4013705  0.076481065   -2.4015404    1.0001699   587749 
  888000    1.0123022   -2.4040393   -2.4040393   -1.4014502  0.069470776   -2.4040393    1.0025891   587749 
  889000    1.0107008   -2.4029393   -2.4029393   -1.4019362  0.064752305   -2.4029393    1.0010031   587749 
  890000    1.0127231   -2.4049629   -2.4049629    -1.401957  0.066038938   -2.4049629    1.0030059   587749 
  891000    1.0112447   -2.4037789   -2.4037789   -1.4022372  0.073158234   -2.4037789    1.0015417   587749 
  892000    1.0113708   -2.4044517   -2.4044517   -1.4027851  0.069615877   -2.4044517    1.0016666   587749 
  893000    1.0113302   -2.4037573   -2.4037573   -1.4021309  0.057848028   -2.4037573    1.0016264   587749 
  894000    1.0128723   -2.4051375   -2.4051375   -1.4019838  0.057511083   -2.4051375    1.0031537   587749 
  895000    1.0117293   -2.4041768   -2.4041768   -1.4021551  0.064263942   -2.4041768    1.0020217   587749 
  896000    1.0111904   -2.4041246   -2.4041246   -1.4026367  0.076347265   -2.4041246    1.0014879   587749 
  897000    1.0111824   -2.4034036   -2.4034036   -1.4019235   0.06575707   -2.4034036      1.00148   587749 
  898000    1.0141073   -2.4069191   -2.4069191   -1.4025422   0.06301473   -2.4069191    1.0043768   587749 
  899000     1.012913   -2.4061753   -2.4061753   -1.4029813  0.057573576   -2.4061753     1.003194   587749 
  900000    1.0122122   -2.4050052   -2.4050052   -1.4025053  0.074438311   -2.4050052       1.0025   587749 
  901000    1.0109795   -2.4046228   -2.4046228   -1.4033438  0.074596153   -2.4046228     1.001279   587749 
  902000    1.0134876   -2.4067704   -2.4067704   -1.4030072  0.073537512   -2.4067704    1.0037632   587749 
  903000    1.0135973   -2.4061668   -2.4061668    -1.402295   0.07395949   -2.4061668    1.0038718   587749 
  904000    1.0136667   -2.4063698   -2.4063698   -1.4024293  0.068433121   -2.4063698    1.0039405   587749 
  905000    1.0121804   -2.4053017   -2.4053017   -1.4028333  0.053140804   -2.4053017    1.0024684   587749 
  906000    1.0123678   -2.4050156   -2.4050156   -1.4023616  0.080638301   -2.4050156     1.002654   587749 
  907000     1.014505   -2.4065289   -2.4065289   -1.4017581  0.063257121   -2.4065289    1.0047708   587749 
  908000    1.0126943   -2.4058698   -2.4058698   -1.4028925  0.066930478   -2.4058698    1.0029774   587749 
  909000    1.0118167   -2.4045435   -2.4045435   -1.4024352  0.063252606   -2.4045435    1.0021083   587749 
  910000    1.0106366   -2.4038953   -2.4038953   -1.4029559   0.07822155   -2.4038953    1.0009395   587749 
  911000    1.0103244   -2.4036162   -2.4036162   -1.4029859  0.056447199   -2.4036162    1.0006303   587749 
  912000    1.0121166   -2.4052836   -2.4052836   -1.4028783  0.063925903   -2.4052836    1.0024052   587749 
  913000    1.0117989   -2.4047757   -2.4047757   -1.4026851  0.065638376   -2.4047757    1.0020906   587749 
  914000    1.0126701   -2.4058617   -2.4058617   -1.4029082  0.058647682   -2.4058617    1.0029535   587749 
  915000    1.0124118   -2.4059621   -2.4059621   -1.4032645  0.074606041   -2.4059621    1.0026976   587749 
  916000    1.0116383   -2.4056569   -2.4056569   -1.4037254  0.050201924   -2.4056569    1.0019315   587749 
  917000    1.0110334   -2.4053247   -2.4053247   -1.4039923  0.065278598   -2.4053247    1.0013324   587749 
  918000    1.0110793   -2.4050702   -2.4050702   -1.4036923  0.056915432   -2.4050702    1.0013779   587749 
  919000    1.0096621   -2.4029406   -2.4029406   -1.4029663  0.056053262   -2.4029406   0.99997432   587749 
  920000    1.0106602   -2.4039386   -2.4039386   -1.4029758  0.080107692   -2.4039386    1.0009628   587749 
  921000    1.0107149   -2.4043115   -2.4043115   -1.4032945    0.0586029   -2.4043115     1.001017   587749 
  922000     1.010742   -2.4043371   -2.4043371   -1.4032933  0.070651132   -2.4043371    1.0010438   587749 
  923000    1.0108864   -2.4045374   -2.4045374   -1.4033506  0.064775159   -2.4045374    1.0011868   587749 
  924000    1.0111002   -2.4048746   -2.4048746    -1.403476  0.063926412   -2.4048746    1.0013986   587749 
  925000    1.0120703   -2.4062375   -2.4062375   -1.4038781  0.050027857   -2.4062375    1.0023594   587749 
  926000    1.0113653   -2.4056616   -2.4056616   -1.4040004  0.058530623   -2.4056616    1.0016612   587749 
  927000    1.0119388   -2.4063288   -2.4063288   -1.4040996  0.065649616   -2.4063288    1.0022292   587749 
  928000    1.0117684    -2.405996    -2.405996   -1.4039357   0.06604079    -2.405996    1.0020603   587749 
  929000    1.0130104   -2.4065377   -2.4065377   -1.4032472  0.064888287   -2.4065377    1.0032905   587749 
  930000    1.0115426   -2.4057768   -2.4057768   -1.4039401  0.061898141   -2.4057768    1.0018367   587749 
  931000    1.0116015   -2.4066541   -2.4066541   -1.4047589  0.082160108   -2.4066541    1.0018951   587749 
  932000    1.0109083   -2.4061495   -2.4061495   -1.4049409  0.065427201   -2.4061495    1.0012086   587749 
  933000    1.0103697    -2.404938    -2.404938   -1.4042629  0.063578362    -2.404938    1.0006751   587749 
  934000    1.0123131   -2.4068991   -2.4068991   -1.4042993  0.069060717   -2.4068991    1.0025998   587749 
  935000    1.0129859   -2.4089846   -2.4089846   -1.4057185  0.059105585   -2.4089846    1.0032662   587749 
  936000    1.0128738   -2.4082902   -2.4082902   -1.4051351   0.06632918   -2.4082902    1.0031552   587749 
  937000    1.0123758   -2.4086694   -2.4086694   -1.4060074  0.052043506   -2.4086694    1.0026619   587749 
  938000    1.0111307    -2.407296    -2.407296   -1.4058672  0.065487205    -2.407296    1.0014288   587749 
  939000    1.0118349   -2.4080545   -2.4080545   -1.4059283  0.065273954   -2.4080545    1.0021263   587749 
  940000    1.0129944   -2.4085851   -2.4085851   -1.4053104  0.074332894   -2.4085851    1.0032747   587749 
  941000    1.0111713   -2.4071667   -2.4071667   -1.4056976  0.061960029   -2.4071667    1.0014691   587749 
  942000    1.0117473    -2.407828    -2.407828   -1.4057885  0.061801082    -2.407828    1.0020395   587749 
  943000    1.0144616   -2.4097315   -2.4097315   -1.4050037  0.058396815   -2.4097315    1.0047278   587749 
  944000     1.012252   -2.4079797   -2.4079797   -1.4054403  0.064649932   -2.4079797    1.0025394   587749 
  945000    1.0127324   -2.4078734   -2.4078734   -1.4048583   0.06315301   -2.4078734    1.0030152   587749 
  946000    1.0125894   -2.4078996   -2.4078996   -1.4050261  0.061386488   -2.4078996    1.0028735   587749 
  947000    1.0117605   -2.4089106   -2.4089106   -1.4068581  0.055608946   -2.4089106    1.0020526   587749 
  948000    1.0120924    -2.408589    -2.408589   -1.4062078  0.073002747    -2.408589    1.0023812   587749 
  949000     1.013498   -2.4102341   -2.4102341   -1.4064608  0.061022725   -2.4102341    1.0037734   587749 
  950000    1.0139935   -2.4111177   -2.4111177   -1.4068535  0.074092608   -2.4111177    1.0042642   587749 
  951000     1.011693     -2.40919     -2.40919   -1.4072042  0.061912995     -2.40919    1.0019857   587749 
  952000    1.0129357   -2.4100444   -2.4100444   -1.4068279  0.065839582   -2.4100444    1.0032165   587749 
  953000    1.0105534   -2.4090185   -2.4090185   -1.4081614  0.048431172   -2.4090185     1.000857   587749 
  954000    1.0108454   -2.4090004   -2.4090004   -1.4078542  0.062645103   -2.4090004    1.0011463   587749 
  955000    1.0105625   -2.4093062   -2.4093062   -1.4084401   0.06811538   -2.4093062    1.0008661   587749 
  956000    1.0110009   -2.4091925   -2.4091925   -1.4078922  0.061195912   -2.4091925    1.0013003   587749 
  957000    1.0104963   -2.4079347   -2.4079347   -1.4071342   0.05865377   -2.4079347    1.0008005   587749 
  958000    1.0114045   -2.4091307   -2.4091307   -1.4074307  0.064323746   -2.4091307       1.0017   587749 
  959000    1.0102605   -2.4080458   -2.4080458   -1.4074789  0.057583895   -2.4080458    1.0005669   587749 
  960000    1.0111713   -2.4083067   -2.4083067   -1.4068376  0.051513267   -2.4083067    1.0014691   587749 
  961000    1.0115141   -2.4090395   -2.4090395   -1.4072309   0.05633936   -2.4090395    1.0018086   587749 
  962000    1.0114217   -2.4092061   -2.4092061   -1.4074891  0.064916243   -2.4092061     1.001717   587749 
  963000    1.0113887    -2.409414    -2.409414   -1.4077297  0.056034727    -2.409414    1.0016843   587749 
  964000    1.0125688   -2.4108514   -2.4108514   -1.4079983  0.058572584   -2.4108514    1.0028531   587749 
  965000    1.0121675   -2.4104089   -2.4104089   -1.4079533  0.068287499   -2.4104089    1.0024557   587749 
  966000    1.0116489   -2.4106317   -2.4106317   -1.4086897  0.066296859   -2.4106317     1.001942   587749 
  967000    1.0110099   -2.4097616   -2.4097616   -1.4084524  0.065555845   -2.4097616    1.0013092   587749 
  968000    1.0131926   -2.4111482   -2.4111482   -1.4076773  0.062725826   -2.4111482    1.0034709   587749 
  969000    1.0125308   -2.4106208   -2.4106208   -1.4078053   0.06110912   -2.4106208    1.0028155   587749 
  970000    1.0118761   -2.4099658   -2.4099658   -1.4077988  0.064880022   -2.4099658     1.002167   587749 
  971000    1.0101464   -2.4086476   -2.4086476   -1.4081936  0.056190816   -2.4086476    1.0004539   587749 
  972000    1.0116597   -2.4100178   -2.4100178    -1.408065  0.061683345   -2.4100178    1.0019528   587749 
  973000    1.0132577   -2.4119075   -2.4119075   -1.4083721  0.068861976   -2.4119075    1.0035354   587749 
  974000    1.0109186   -2.4104647   -2.4104647    -1.409246  0.067056727   -2.4104647    1.0012188   587749 
  975000    1.0135423   -2.4137786   -2.4137786   -1.4099613  0.064326328   -2.4137786    1.0038173   587749 
  976000    1.0109143   -2.4109738   -2.4109738   -1.4097593  0.059523706   -2.4109738    1.0012145   587749 
  977000    1.0109698   -2.4112022   -2.4112022   -1.4099328  0.060899352   -2.4112022    1.0012694   587749 
  978000    1.0103263   -2.4108535   -2.4108535   -1.4102213  0.063952917   -2.4108535    1.0006322   587749 
  979000    1.0112533   -2.4115855   -2.4115855   -1.4100353  0.065167269   -2.4115855    1.0015502   587749 
  980000    1.0087616   -2.4095087   -2.4095087   -1.4104263  0.061766615   -2.4095087   0.99908245   587749 
  981000    1.0098437    -2.410495    -2.410495   -1.4103409  0.061376256    -2.410495    1.0001542   587749 
  982000    1.0114241   -2.4119871   -2.4119871   -1.4102677  0.062368035   -2.4119871    1.0017194   587749 
  983000    1.0098988   -2.4115236   -2.4115236   -1.4113149   0.05502671   -2.4115236    1.0002087   587749 
  984000     1.010798   -2.4120086   -2.4120086   -1.4109093  0.056765274   -2.4120086    1.0010993   587749 
  985000    1.0103858   -2.4120712   -2.4120712   -1.4113801  0.065147495   -2.4120712    1.0006911   587749 
  986000    1.0109504   -2.4130102   -2.4130102   -1.4117599  0.072717138   -2.4130102    1.0012503   587749 
  987000    1.0116465   -2.4133408   -2.4133408   -1.4114011  0.063978983   -2.4133408    1.0019397   587749 
  988000    1.0100809   -2.4118032   -2.4118032   -1.4114141  0.070028852   -2.4118032    1.0003891   587749 
  989000    1.0121131   -2.4143605   -2.4143605   -1.4119587  0.069914318   -2.4143605    1.0024018   587749 
  990000    1.0106626   -2.4139825   -2.4139825   -1.4130173  0.073906255   -2.4139825    1.0009652   587749 
  991000     1.009958   -2.4133756   -2.4133756   -1.4131082  0.074477539   -2.4133756    1.0002674   587749 
  992000    1.0112295   -2.4142259   -2.4142259   -1.4126992  0.069448767   -2.4142259    1.0015267   587749 
  993000    1.0121212   -2.4141634   -2.4141634   -1.4117535  0.070101797   -2.4141634    1.0024098   587749 
  994000    1.0114901   -2.4130722   -2.4130722   -1.4112874  0.062475899   -2.4130722    1.0017848   587749 
  995000    1.0108893   -2.4116917   -2.4116917   -1.4105019  0.067615477   -2.4116917    1.0011897   587749 
  996000    1.0131142   -2.4139431   -2.4139431   -1.4105498  0.057033668   -2.4139431    1.0033933   587749 
  997000    1.0113061   -2.4123509   -2.4123509   -1.4107484  0.066830664   -2.4123509    1.0016025   587749 
  998000    1.0129085   -2.4142694   -2.4142694   -1.4110799  0.072504652   -2.4142694    1.0031896   587749 
  999000    1.0130963   -2.4137195   -2.4137195    -1.410344  0.068209324   -2.4137195    1.0033756   587749 
 1000000    1.0128084   -2.4137859   -2.4137859   -1.4106954  0.061595664   -2.4137859    1.0030905   587749 
 1001000    1.0128718   -2.4135789   -2.4135789   -1.4104257  0.071505152   -2.4135789    1.0031532   587749 
 1002000    1.0128892   -2.4140241   -2.4140241   -1.4108537  0.065671659   -2.4140241    1.0031704   587749 
 1003000    1.0121878   -2.4137693   -2.4137693   -1.4112935   0.05559101   -2.4137693    1.0024758   587749 
 1004000    1.0127137   -2.4143001   -2.4143001   -1.4113035  0.063377153   -2.4143001    1.0029966   587749 
 1005000    1.0125846    -2.414083    -2.414083   -1.4112143  0.067763834    -2.414083    1.0028688   587749 
 1006000    1.0132948   -2.4147741   -2.4147741    -1.411202  0.058013824   -2.4147741    1.0035721   587749 
 1007000    1.0124402   -2.4145469   -2.4145469   -1.4118211  0.066785439   -2.4145469    1.0027257   587749 
 1008000    1.0114919   -2.4129093   -2.4129093   -1.4111228  0.057648675   -2.4129093    1.0017865   587749 
 1009000    1.0107572   -2.4120858   -2.4120858   -1.4110268  0.056693668   -2.4120858    1.0010589   587749 
 1010000    1.0117221   -2.4136272   -2.4136272   -1.4116126  0.056911006   -2.4136272    1.0020146   587749 
 1011000    1.0102872   -2.4128996   -2.4128996   -1.4123062  0.062456107   -2.4128996    1.0005935   587749 
 1012000    1.0117264   -2.4152135   -2.4152135   -1.4131947  0.070421943   -2.4152135    1.0020188   587749 
 1013000    1.0105502   -2.4130254   -2.4130254   -1.4121716  0.064069384   -2.4130254    1.0008538   587749 
 1014000    1.0125804   -2.4153941   -2.4153941   -1.4125295  0.064134926   -2.4153941    1.0028646   587749 
 1015000    1.0104619   -2.4135187   -2.4135187   -1.4127523  0.060197549   -2.4135187    1.0007664   587749 
 1016000    1.0108264   -2.4141158   -2.4141158   -1.4129884  0.061243234   -2.4141158    1.0011274   587749 
 1017000    1.0109857   -2.4140026   -2.4140026   -1.4127174  0.065186944   -2.4140026    1.0012852   587749 
 1018000    1.0099391   -2.4124164   -2.4124164   -1.4121677   0.06268608   -2.4124164    1.0002487   587749 
 1019000    1.0104617   -2.4132374   -2.4132374   -1.4124712  0.062077588   -2.4132374    1.0007662   587749 
 1020000    1.0095691    -2.413043    -2.413043   -1.4131608  0.062782145    -2.413043   0.99988219   587749 
 1021000    1.0107459   -2.4141803   -2.4141803   -1.4131326  0.074298822   -2.4141803    1.0010477   587749 
 1022000    1.0093939   -2.4129946   -2.4129946    -1.413286  0.062927543   -2.4129946   0.99970864   587749 
 1023000    1.0099313   -2.4140191   -2.4140191   -1.4137782    0.0640139   -2.4140191    1.0002409   587749 
 1024000     1.008819   -2.4133577   -2.4133577   -1.4142184  0.057290125   -2.4133577   0.99913928   587749 
 1025000    1.0110395    -2.414587    -2.414587   -1.4132485  0.077309711    -2.414587    1.0013385   587749 
 1026000    1.0114104   -2.4157088   -2.4157088    -1.414003  0.064375485   -2.4157088    1.0017059   587749 
 1027000    1.0119264   -2.4157626   -2.4157626   -1.4135457  0.063591226   -2.4157626    1.0022169   587749 
 1028000    1.0129301   -2.4161989   -2.4161989   -1.4129879  0.070285325   -2.4161989     1.003211   587749 
 1029000    1.0113865   -2.4145518   -2.4145518   -1.4128696  0.066311694   -2.4145518    1.0016822   587749 
 1030000    1.0125256   -2.4160906   -2.4160906   -1.4132802  0.054048991   -2.4160906    1.0028104   587749 
 1031000    1.0128873    -2.416423    -2.416423   -1.4132545  0.062494093    -2.416423    1.0031686   587749 
 1032000    1.0117326   -2.4157522   -2.4157522   -1.4137273  0.074948981   -2.4157522    1.0020249   587749 
 1033000    1.0107928   -2.4146626   -2.4146626   -1.4135685  0.063803712   -2.4146626    1.0010941   587749 
 1034000    1.0113999   -2.4153265   -2.4153265   -1.4136311  0.072662511   -2.4153265    1.0016954   587749 
 1035000    1.0121954   -2.4159036   -2.4159036   -1.4134203  0.061593837   -2.4159036    1.0024833   587749 
 1036000     1.012879   -2.4164223   -2.4164223   -1.4132619  0.056424344   -2.4164223    1.0031604   587749 
 1037000    1.0122981   -2.4161484   -2.4161484   -1.4135634  0.067222245   -2.4161484    1.0025851   587749 
 1038000    1.0105539   -2.4155272   -2.4155272   -1.4146696  0.057513453   -2.4155272    1.0008576   587749 
 1039000    1.0103167   -2.4160166   -2.4160166   -1.4153939  0.057940631   -2.4160166    1.0006226   587749 
 1040000    1.0110406   -2.4160551   -2.4160551   -1.4147155  0.070244115   -2.4160551    1.0013396   587749 
 1041000     1.012317   -2.4176853   -2.4176853   -1.4150815  0.063988595   -2.4176853    1.0026038   587749 
 1042000    1.0115077   -2.4166977   -2.4166977   -1.4148955  0.061105352   -2.4166977    1.0018022   587749 
 1043000    1.0105543   -2.4162673   -2.4162673   -1.4154093   0.06796486   -2.4162673    1.0008579   587749 
 1044000    1.0129696   -2.4181522   -2.4181522   -1.4149022  0.062311998   -2.4181522      1.00325   587749 
 1045000    1.0125513   -2.4182416   -2.4182416   -1.4154057  0.062720727   -2.4182416    1.0028358   587749 
 1046000    1.0125566   -2.4181727   -2.4181727   -1.4153317  0.074611443   -2.4181727     1.002841   587749 
 1047000    1.0120688   -2.4176848   -2.4176848   -1.4153269   0.06854653   -2.4176848    1.0023579   587749 
 1048000    1.0137224   -2.4184821   -2.4184821   -1.4144864  0.063163336   -2.4184821    1.0039957   587749 
 1049000    1.0116536   -2.4167855   -2.4167855   -1.4148389  0.065051091   -2.4167855    1.0019467   587749 
 1050000    1.0121888   -2.4183892   -2.4183892   -1.4159125  0.062120263   -2.4183892    1.0024768   587749 
 1051000    1.0114549   -2.4177351   -2.4177351   -1.4159852  0.058099097   -2.4177351    1.0017499   587749 
 1052000    1.0119198   -2.4187777   -2.4187777   -1.4165674  0.067903623   -2.4187777    1.0022103   587749 
 1053000    1.0107637   -2.4172108   -2.4172108   -1.4161455  0.060332309   -2.4172108    1.0010653   587749 
 1054000    1.0098745   -2.4168842   -2.4168842   -1.4166996  0.079847542   -2.4168842    1.0001846   587749 
 1055000    1.0087258   -2.4160112   -2.4160112   -1.4169642   0.05063882   -2.4160112   0.99904699   587749 
 1056000    1.0106153   -2.4175246   -2.4175246   -1.4166062  0.064667887   -2.4175246    1.0009184   587749 
 1057000    1.0106937   -2.4174237   -2.4174237   -1.4164277  0.065023558   -2.4174237     1.000996   587749 
 1058000    1.0103022   -2.4171366   -2.4171366   -1.4165284  0.062247811   -2.4171366    1.0006082   587749 
 1059000    1.0091401   -2.4166837   -2.4166837   -1.4172264  0.057270255   -2.4166837   0.99945728   587749 
 1060000    1.0105818   -2.4175679   -2.4175679   -1.4166828   0.06462178   -2.4175679    1.0008852   587749 
 1061000    1.0089384   -2.4156647   -2.4156647   -1.4164072   0.06418055   -2.4156647   0.99925755   587749 
 1062000    1.0101949   -2.4176631   -2.4176631   -1.4171611  0.060497051   -2.4176631     1.000502   587749 
 1063000    1.0103761   -2.4171703   -2.4171703   -1.4164889  0.058185267   -2.4171703    1.0006814   587749 
 1064000    1.0108092   -2.4173435   -2.4173435   -1.4162331  0.067532347   -2.4173435    1.0011104   587749 
 1065000    1.0098255   -2.4163123   -2.4163123   -1.4161762  0.064038154   -2.4163123    1.0001361   587749 
 1066000     1.011483   -2.4175872   -2.4175872   -1.4158095   0.06493179   -2.4175872    1.0017777   587749 
 1067000    1.0102424   -2.4167103   -2.4167103   -1.4161612  0.066733148   -2.4167103    1.0005491   587749 
 1068000    1.0100375   -2.4168947   -2.4168947   -1.4165486  0.065744021   -2.4168947    1.0003461   587749 
 1069000    1.0111717   -2.4179653   -2.4179653   -1.4164959  0.068681193   -2.4179653    1.0014694   587749 
 1070000    1.0110096   -2.4177561   -2.4177561   -1.4164472  0.069986074   -2.4177561    1.0013089   587749 
 1071000    1.0111497   -2.4179421   -2.4179421   -1.4164945  0.065166283   -2.4179421    1.0014477   587749 
 1072000    1.0111119   -2.4180262   -2.4180262   -1.4166159  0.060370028   -2.4180262    1.0014102   587749 
 1073000    1.0124596   -2.4195464   -2.4195464   -1.4168014  0.068950064   -2.4195464     1.002745   587749 
 1074000    1.0114248   -2.4182141   -2.4182141   -1.4164941  0.055141936   -2.4182141    1.0017201   587749 
 1075000    1.0114365   -2.4172587   -2.4172587   -1.4155269  0.060388151   -2.4172587    1.0017317   587749 
 1076000    1.0119432   -2.4181292   -2.4181292   -1.4158957  0.067007382   -2.4181292    1.0022335   587749 
 1077000     1.011781   -2.4180429   -2.4180429   -1.4159701  0.075010005   -2.4180429    1.0020728   587749 
 1078000     1.012156   -2.4192517   -2.4192517   -1.4168074  0.063256061   -2.4192517    1.0024443   587749 
 1079000    1.0114101   -2.4178376   -2.4178376    -1.416132  0.064696119   -2.4178376    1.0017055   587749 
 1080000    1.0120902   -2.4185352   -2.4185352   -1.4161561  0.068835462   -2.4185352    1.0023791   587749 
 1081000    1.0139747    -2.420658    -2.420658   -1.4164125  0.058091459    -2.420658    1.0042455   587749 
 1082000    1.0132131   -2.4192184   -2.4192184   -1.4157272  0.079761816   -2.4192184    1.0034912   587749 
 1083000    1.0119245   -2.4187076   -2.4187076   -1.4164926  0.071653756   -2.4187076     1.002215   587749 
 1084000    1.0108755   -2.4180008   -2.4180008   -1.4168248  0.071301996   -2.4180008     1.001176   587749 
 1085000    1.0106864   -2.4172641   -2.4172641   -1.4162753  0.051419213   -2.4172641    1.0009888   587749 
 1086000    1.0101088    -2.416364    -2.416364   -1.4159472  0.062135752    -2.416364    1.0004167   587749 
 1087000    1.0116974   -2.4177395   -2.4177395   -1.4157494  0.069884371   -2.4177395    1.0019901   587749 
 1088000    1.0111094   -2.4179359   -2.4179359   -1.4165282  0.055028642   -2.4179359    1.0014077   587749 
 1089000    1.0101412   -2.4174253   -2.4174253   -1.4169765  0.061156613   -2.4174253    1.0004489   587749 
 1090000    1.0102635   -2.4188157   -2.4188157   -1.4182458  0.065277506   -2.4188157    1.0005699   587749 
 1091000    1.0106081   -2.4184765   -2.4184765   -1.4175653  0.057993363   -2.4184765    1.0009112   587749 
 1092000    1.0090875   -2.4177094   -2.4177094   -1.4183042  0.056732307   -2.4177094   0.99940519   587749 
 1093000    1.0094698    -2.418281    -2.418281   -1.4184972   0.05731359    -2.418281   0.99978383   587749 
 1094000    1.0083705   -2.4169404   -2.4169404   -1.4182453  0.062553784   -2.4169404   0.99869507   587749 
 1095000    1.0084838   -2.4169522   -2.4169522   -1.4181449  0.058716694   -2.4169522   0.99880731   587749 
 1096000    1.0104054    -2.418377    -2.418377   -1.4176665  0.054208848    -2.418377    1.0007104   587749 
 1097000    1.0088356   -2.4163878   -2.4163878   -1.4172321  0.061886203   -2.4163878   0.99915578   587749 
 1098000     1.008868   -2.4173895   -2.4173895   -1.4182017  0.066495906   -2.4173895   0.99918781   587749 
 1099000    1.0088728    -2.417327    -2.417327   -1.4181344  0.060048545    -2.417327   0.99919257   587749 
 1100000    1.0111999   -2.4191053   -2.4191053   -1.4176079  0.064710177   -2.4191053    1.0014974   587749 
 1101000    1.0094254   -2.4172293   -2.4172293   -1.4174894  0.059180644   -2.4172293   0.99973992   587749 
 1102000    1.0099402   -2.4172565   -2.4172565   -1.4170068  0.060795501   -2.4172565    1.0002497   587749 
 1103000    1.0125534   -2.4193616   -2.4193616   -1.4165238  0.070734984   -2.4193616    1.0028378   587749 
 1104000      1.01314   -2.4193431   -2.4193431   -1.4159242  0.060489181   -2.4193431    1.0034188   587749 
 1105000    1.0130882   -2.4188905   -2.4188905   -1.4155229  0.062316339   -2.4188905    1.0033676   587749 
 1106000    1.0135504   -2.4197555   -2.4197555   -1.4159301  0.075356727   -2.4197555    1.0038253   587749 
 1107000    1.0140514    -2.420936    -2.420936   -1.4166145  0.060532205    -2.420936    1.0043215   587749 
 1108000    1.0140169   -2.4221214   -2.4221214   -1.4178341  0.070488432   -2.4221214    1.0042873   587749 
 1109000    1.0130705   -2.4209085   -2.4209085   -1.4175585   0.06000292   -2.4209085      1.00335   587749 
 1110000    1.0103671   -2.4187132   -2.4187132   -1.4180406  0.076323184   -2.4187132    1.0006725   587749 
 1111000     1.009718   -2.4184061   -2.4184061   -1.4183764  0.069982788   -2.4184061    1.0000297   587749 
 1112000    1.0120939   -2.4206691   -2.4206691   -1.4182864  0.061261341   -2.4206691    1.0023827   587749 
 1113000    1.0109946   -2.4199477   -2.4199477   -1.4186538  0.055728218   -2.4199477     1.001294   587749 
 1114000    1.0100302   -2.4191115   -2.4191115   -1.4187726  0.065011351   -2.4191115    1.0003389   587749 
 1115000    1.0092253   -2.4183998   -2.4183998   -1.4188581  0.070466833   -2.4183998   0.99954173   587749 
 1116000     1.010125   -2.4183816   -2.4183816   -1.4179488   0.05308957   -2.4183816    1.0004328   587749 
 1117000    1.0087339   -2.4172006   -2.4172006   -1.4181456  0.071748476   -2.4172006   0.99905504   587749 
 1118000      1.00821   -2.4175684   -2.4175684   -1.4190322  0.065500515   -2.4175684   0.99853618   587749 
 1119000     1.008944   -2.4182954   -2.4182954   -1.4190323  0.053996749   -2.4182954    0.9992631   587749 
 1120000    1.0111575   -2.4201888   -2.4201888   -1.4187334  0.069184061   -2.4201888    1.0014554   587749 
 1121000    1.0107915   -2.4202531   -2.4202531   -1.4191602  0.049152379   -2.4202531    1.0010929   587749 
 1122000    1.0093132   -2.4185529   -2.4185529   -1.4189242  0.068092706   -2.4185529   0.99962877   587749 
 1123000    1.0116001   -2.4206001   -2.4206001   -1.4187063  0.065526718   -2.4206001    1.0018937   587749 
 1124000    1.0088962   -2.4190722   -2.4190722   -1.4198564  0.059341169   -2.4190722    0.9992158   587749 
 1125000    1.0109022   -2.4202172   -2.4202172   -1.4190148  0.070956834   -2.4202172    1.0012025   587749 
 1126000     1.012809   -2.4220559   -2.4220559   -1.4189649   0.06898946   -2.4220559     1.003091   587749 
 1127000    1.0135625   -2.4231312   -2.4231312    -1.419294  0.069362265   -2.4231312    1.0038373   587749 
 1128000    1.0122535   -2.4222025   -2.4222025   -1.4196616  0.072657838   -2.4222025    1.0025408   587749 
 1129000    1.0120114   -2.4208136   -2.4208136   -1.4185125  0.076771104   -2.4208136    1.0023011   587749 
 1130000    1.0124004   -2.4218641   -2.4218641   -1.4191777  0.066943645   -2.4218641    1.0026864   587749 
 1131000    1.0092702   -2.4198888   -2.4198888   -1.4203027  0.071452844   -2.4198888   0.99958615   587749 
 1132000    1.0115224   -2.4212963   -2.4212963   -1.4194796  0.067059018   -2.4212963    1.0018167   587749 
 1133000    1.0101048   -2.4212732   -2.4212732   -1.4208605  0.065582207   -2.4212732    1.0004128   587749 
 1134000    1.0104842     -2.42109     -2.42109   -1.4203014   0.06733932     -2.42109    1.0007886   587749 
 1135000    1.0108403    -2.421238    -2.421238   -1.4200968  0.056601001    -2.421238    1.0011412   587749 
 1136000    1.0107637   -2.4209623   -2.4209623    -1.419897  0.063937805   -2.4209623    1.0010653   587749 
 1137000    1.0125215   -2.4236036   -2.4236036   -1.4207973  0.068918452   -2.4236036    1.0028063   587749 
 1138000    1.0124323   -2.4236922   -2.4236922   -1.4209743  0.069481772   -2.4236922    1.0027179   587749 
 1139000    1.0123075    -2.424249    -2.424249   -1.4216547  0.069483832    -2.424249    1.0025943   587749 
 1140000     1.011351   -2.4234633   -2.4234633   -1.4218162  0.068031043   -2.4234633     1.001647   587749 
 1141000    1.0100827   -2.4234704   -2.4234704   -1.4230796  0.071176538   -2.4234704    1.0003908   587749 
 1142000     1.009336   -2.4233355   -2.4233355   -1.4236841    0.0642928   -2.4233355   0.99965136   587749 
 1143000    1.0105185   -2.4235563   -2.4235563   -1.4227339   0.05990545   -2.4235563    1.0008224   587749 
 1144000    1.0085926   -2.4221852   -2.4221852   -1.4232702  0.067393003   -2.4221852   0.99891503   587749 
 1145000    1.0104264   -2.4241914   -2.4241914   -1.4234601  0.064937407   -2.4241914    1.0007313   587749 
 1146000    1.0105072   -2.4238881   -2.4238881   -1.4230768  0.068723985   -2.4238881    1.0008113   587749 
 1147000    1.0095929   -2.4231709   -2.4231709   -1.4232652  0.067081484   -2.4231709   0.99990576   587749 
 1148000    1.0101667    -2.423682    -2.423682    -1.423208  0.051292181    -2.423682     1.000474   587749 
 1149000    1.0102201   -2.4237964   -2.4237964   -1.4232695  0.068402466   -2.4237964    1.0005269   587749 
 1150000    1.0111362   -2.4243666   -2.4243666   -1.4229323  0.053128546   -2.4243666    1.0014343   587749 
 1151000    1.0096541   -2.4226832   -2.4226832   -1.4227168  0.063837879   -2.4226832    0.9999664   587749 
 1152000    1.0104187   -2.4237375   -2.4237375   -1.4230139    0.0605697   -2.4237375    1.0007236   587749 
 1153000    1.0109349   -2.4240798   -2.4240798   -1.4228448  0.066081315   -2.4240798    1.0012349   587749 
 1154000    1.0089953   -2.4226989   -2.4226989    -1.423385  0.059898725   -2.4226989   0.99931391   587749 
 1155000    1.0104179   -2.4235688   -2.4235688    -1.422846  0.073095487   -2.4235688    1.0007228   587749 
 1156000    1.0103744   -2.4240092   -2.4240092   -1.4233294  0.055738293   -2.4240092    1.0006798   587749 
 1157000    1.0118037   -2.4254456   -2.4254456   -1.4233502  0.063975656   -2.4254456    1.0020953   587749 
 1158000    1.0106154   -2.4248003   -2.4248003   -1.4238818   0.05686941   -2.4248003    1.0009185   587749 
 1159000    1.0088631   -2.4235813   -2.4235813   -1.4243983  0.064318763   -2.4235813     0.999183   587749 
 1160000    1.0109482   -2.4238655   -2.4238655   -1.4226174  0.063226889   -2.4238655    1.0012481   587749 
 1161000    1.0103804   -2.4237824   -2.4237824   -1.4230967  0.078182992   -2.4237824    1.0006857   587749 
 1162000    1.0095021   -2.4231468   -2.4231468   -1.4233309  0.076313088   -2.4231468   0.99981588   587749 
 1163000    1.0089603   -2.4229185   -2.4229185   -1.4236393  0.076591729   -2.4229185   0.99927922   587749 
 1164000    1.0126216   -2.4261377   -2.4261377   -1.4232323  0.069569668   -2.4261377    1.0029054   587749 
 1165000    1.0128481   -2.4264042   -2.4264042   -1.4232745  0.070677506   -2.4264042    1.0031297   587749 
 1166000    1.0126085   -2.4268994   -2.4268994    -1.424007  0.064708596   -2.4268994    1.0028924   587749 
 1167000    1.0123951   -2.4263754   -2.4263754   -1.4236943  0.050411757   -2.4263754    1.0026811   587749 
 1168000    1.0122497    -2.425206    -2.425206   -1.4226689  0.066406997    -2.425206    1.0025371   587749 
 1169000    1.0106555   -2.4237375   -2.4237375   -1.4227793  0.066690088   -2.4237375    1.0009581   587749 
 1170000    1.0104732   -2.4238785   -2.4238785   -1.4231009  0.071243529   -2.4238785    1.0007776   587749 
 1171000    1.0107571   -2.4242313   -2.4242313   -1.4231725   0.07597949   -2.4242313    1.0010588   587749 
 1172000    1.0114077   -2.4254202   -2.4254202    -1.423717  0.058826208   -2.4254202    1.0017032   587749 
 1173000    1.0117838   -2.4257543   -2.4257543   -1.4236787  0.068897065   -2.4257543    1.0020756   587749 
 1174000    1.0110081   -2.4240985   -2.4240985   -1.4227911  0.069452046   -2.4240985    1.0013074   587749 
 1175000    1.0104116   -2.4231269   -2.4231269   -1.4224103  0.067639082   -2.4231269    1.0007166   587749 
 1176000    1.0120697   -2.4249769   -2.4249769   -1.4226181  0.059461797   -2.4249769    1.0023589   587749 
 1177000    1.0110542   -2.4246235   -2.4246235   -1.4232704  0.074276678   -2.4246235    1.0013531   587749 
 1178000    1.0112804   -2.4243893   -2.4243893   -1.4228123  0.074110381   -2.4243893    1.0015771   587749 
 1179000    1.0109527    -2.423452    -2.423452   -1.4221996  0.063713128    -2.423452    1.0012525   587749 
 1180000    1.0118065   -2.4246345   -2.4246345   -1.4225364  0.066536206   -2.4246345    1.0020981   587749 
 1181000    1.0104307   -2.4224023   -2.4224023   -1.4216668  0.063691169   -2.4224023    1.0007356   587749 
 1182000    1.0077834   -2.4205859   -2.4205859   -1.4224723  0.061739384   -2.4205859    0.9981136   587749 
 1183000    1.0103062   -2.4222114   -2.4222114   -1.4215992  0.055716699   -2.4222114    1.0006122   587749 
 1184000    1.0094863    -2.421787    -2.421787   -1.4219868  0.072730188    -2.421787   0.99980023   587749 
 1185000    1.0108073   -2.4224216   -2.4224216   -1.4213131  0.061663801   -2.4224216    1.0011085   587749 
 1186000    1.0097183   -2.4215327   -2.4215327   -1.4215027   0.06539603   -2.4215327      1.00003   587749 
 1187000    1.0104485    -2.421774    -2.421774   -1.4210208  0.055247178    -2.421774    1.0007532   587749 
 1188000    1.0095172   -2.4207442   -2.4207442   -1.4209134  0.066521487   -2.4207442   0.99983079   587749 
 1189000    1.0110828   -2.4223631   -2.4223631   -1.4209818  0.068991519   -2.4223631    1.0013813   587749 
 1190000    1.0094745   -2.4210778   -2.4210778   -1.4212892  0.058403106   -2.4210778   0.99978853   587749 
 1191000    1.0107678   -2.4232871   -2.4232871   -1.4222177   0.07214399   -2.4232871    1.0010694   587749 
 1192000    1.0098823   -2.4223308   -2.4223308   -1.4221385  0.050749284   -2.4223308    1.0001924   587749 
 1193000    1.0097021   -2.4218307   -2.4218307   -1.4218168  0.062521282   -2.4218307     1.000014   587749 
 1194000    1.0096567   -2.4211122   -2.4211122   -1.4211432  0.058315085   -2.4211122     0.999969   587749 
 1195000    1.0102725   -2.4208933   -2.4208933   -1.4203145  0.062155719   -2.4208933    1.0005788   587749 
 1196000    1.0098344   -2.4212905   -2.4212905   -1.4211455  0.080647486   -2.4212905    1.0001449   587749 
 1197000     1.011565   -2.4234347   -2.4234347   -1.4215758  0.049235351   -2.4234347    1.0018589   587749 
 1198000    1.0090951   -2.4213422   -2.4213422   -1.4219294  0.056030687   -2.4213422   0.99941273   587749 
 1199000    1.0109952   -2.4230452   -2.4230452   -1.4217506   0.05586788   -2.4230452    1.0012946   587749 
 1200000    1.0100957   -2.4230318   -2.4230318    -1.422628  0.060814709   -2.4230318    1.0004038   587749 
 1201000    1.0114143    -2.424738    -2.424738   -1.4230283  0.068231101    -2.424738    1.0017097   587749 
 1202000    1.0124432   -2.4259435   -2.4259435   -1.4232148  0.067356487   -2.4259435    1.0027287   587749 
 1203000    1.0109401   -2.4247013   -2.4247013   -1.4234613  0.062242076   -2.4247013      1.00124   587749 
 1204000    1.0113328   -2.4253256   -2.4253256   -1.4236966  0.059205965   -2.4253256     1.001629   587749 
 1205000    1.0107247   -2.4250951   -2.4250951   -1.4240684  0.060294789   -2.4250951    1.0010267   587749 
 1206000    1.0110988   -2.4259925   -2.4259925   -1.4245953  0.053287028   -2.4259925    1.0013972   587749 
 1207000     1.008934   -2.4251193   -2.4251193   -1.4258662    0.0631846   -2.4251193   0.99925315   587749 
 1208000     1.007467   -2.4236412   -2.4236412    -1.425841  0.069243314   -2.4236412    0.9978003   587749 
 1209000    1.0103947   -2.4263409   -2.4263409    -1.425641  0.062259481   -2.4263409    1.0006999   587749 
 1210000    1.0107616   -2.4268232   -2.4268232   -1.4257599   0.07674564   -2.4268232    1.0010633   587749 
 1211000    1.0110413   -2.4278225   -2.4278225   -1.4264823  0.067929684   -2.4278225    1.0013402   587749 
 1212000    1.0114597   -2.4273487   -2.4273487    -1.425594   0.06381887   -2.4273487    1.0017547   587749 
 1213000    1.0099466   -2.4255147   -2.4255147   -1.4252586  0.073745515   -2.4255147    1.0002561   587749 
 1214000    1.0115329   -2.4272827   -2.4272827   -1.4254555  0.058422071   -2.4272827    1.0018271   587749 
 1215000    1.0123426   -2.4280984   -2.4280984   -1.4254693  0.074141868   -2.4280984    1.0026291   587749 
 1216000    1.0107423    -2.425745    -2.425745   -1.4247008  0.067176831    -2.425745    1.0010441   587749 
 1217000    1.0125222   -2.4283407   -2.4283407   -1.4255337  0.067702025   -2.4283407     1.002807   587749 
 1218000    1.0131952   -2.4287331   -2.4287331   -1.4252596  0.054905873   -2.4287331    1.0034735   587749 
 1219000    1.0115847   -2.4271499   -2.4271499   -1.4252714  0.081505784   -2.4271499    1.0018785   587749 
 1220000    1.0121048   -2.4271614   -2.4271614   -1.4247679  0.065135089   -2.4271614    1.0023936   587749 
 1221000    1.0098697   -2.4257174   -2.4257174   -1.4255375  0.075850701   -2.4257174    1.0001799   587749 
 1222000    1.0104421   -2.4260014   -2.4260014   -1.4252545  0.068296838   -2.4260014    1.0007469   587749 
 1223000    1.0088786   -2.4245337   -2.4245337   -1.4253353  0.079467087   -2.4245337   0.99919835   587749 
 1224000    1.0095683   -2.4246623   -2.4246623   -1.4247809   0.07938812   -2.4246623   0.99988139   587749 
 1225000    1.0098156   -2.4252546   -2.4252546   -1.4251283  0.064862621   -2.4252546    1.0001264   587749 
 1226000     1.011491   -2.4266725   -2.4266725   -1.4248869    0.0641137   -2.4266725    1.0017856   587749 
 1227000    1.0105875   -2.4268857   -2.4268857   -1.4259949  0.068241282   -2.4268857    1.0008908   587749 
 1228000    1.0098888   -2.4248343   -2.4248343   -1.4246355  0.056981539   -2.4248343    1.0001988   587749 
 1229000    1.0092403   -2.4243939   -2.4243939   -1.4248374  0.056774861   -2.4243939   0.99955653   587749 
 1230000    1.0092055   -2.4245362   -2.4245362   -1.4250142  0.054806498   -2.4245362   0.99952206   587749 
 1231000     1.008131   -2.4237181   -2.4237181   -1.4252602  0.071842049   -2.4237181   0.99845787   587749 
 1232000    1.0070914   -2.4229799   -2.4229799   -1.4255516  0.068337477   -2.4229799   0.99742829   587749 
 1233000    1.0072294   -2.4219007   -2.4219007   -1.4243357  0.060468338   -2.4219007   0.99756498   587749 
 1234000    1.0084019   -2.4235519   -2.4235519   -1.4248257  0.056629152   -2.4235519   0.99872615   587749 
 1235000    1.0085449   -2.4238442   -2.4238442   -1.4249764  0.070054943   -2.4238442   0.99886786   587749 
 1236000    1.0087993   -2.4243438   -2.4243438   -1.4252241  0.054732428   -2.4243438   0.99911977   587749 
 1237000    1.0080024   -2.4234794   -2.4234794   -1.4251489  0.049010009   -2.4234794   0.99833054   587749 
 1238000    1.0076734    -2.423752    -2.423752   -1.4257474  0.056510808    -2.423752   0.99800466   587749 
 1239000    1.0103013   -2.4246954   -2.4246954   -1.4240881  0.069958582   -2.4246954    1.0006074   587749 
 1240000    1.0085172   -2.4236407   -2.4236407   -1.4248003  0.058141168   -2.4236407   0.99884038   587749 
 1241000    1.0089766   -2.4240752   -2.4240752   -1.4247798  0.061920113   -2.4240752   0.99929541   587749 
 1242000    1.0081855   -2.4241973   -2.4241973   -1.4256855  0.064060766   -2.4241973   0.99851187   587749 
 1243000    1.0090903    -2.425997    -2.425997    -1.426589  0.055789036    -2.425997   0.99940802   587749 
 1244000    1.0082954   -2.4252168   -2.4252168   -1.4265961  0.071284372   -2.4252168   0.99862071   587749 
 1245000    1.0076821   -2.4249232   -2.4249232   -1.4269098   0.05702693   -2.4249232   0.99801333   587749 
 1246000    1.0085982   -2.4259499   -2.4259499   -1.4270293  0.060132605   -2.4259499   0.99892059   587749 
 1247000    1.0083269   -2.4250593   -2.4250593   -1.4264074  0.069038804   -2.4250593   0.99865188   587749 
 1248000    1.0100537   -2.4262897   -2.4262897   -1.4259275  0.060388957   -2.4262897    1.0003622   587749 
 1249000    1.0081243    -2.424992    -2.424992   -1.4265407   0.06553421    -2.424992   0.99845131   587749 
 1250000    1.0104337   -2.4275412   -2.4275412   -1.4268027  0.062087066   -2.4275412    1.0007385   587749 
 1251000    1.0104653   -2.4274833   -2.4274833   -1.4267135  0.067144764   -2.4274833    1.0007698   587749 
 1252000    1.0104279   -2.4280209   -2.4280209   -1.4272882  0.055482692   -2.4280209    1.0007327   587749 
 1253000    1.0103529   -2.4266106   -2.4266106   -1.4259522  0.070352852   -2.4266106    1.0006584   587749 
 1254000    1.0123427   -2.4286661   -2.4286661   -1.4260369  0.060258387   -2.4286661    1.0026292   587749 
 1255000    1.0120775   -2.4282054   -2.4282054   -1.4258389  0.066853144   -2.4282054    1.0023665   587749 
 1256000    1.0120804   -2.4290703   -2.4290703    -1.426701   0.07561426   -2.4290703    1.0023694   587749 
 1257000    1.0100165   -2.4271958   -2.4271958   -1.4268705  0.075517489   -2.4271958    1.0003253   587749 
 1258000    1.0109402   -2.4279645   -2.4279645   -1.4267244  0.064457441   -2.4279645    1.0012401   587749 
 1259000    1.0121797   -2.4284759   -2.4284759   -1.4260082  0.058686294   -2.4284759    1.0024677   587749 
 1260000    1.0109697   -2.4279243   -2.4279243   -1.4266549  0.072156105   -2.4279243    1.0012694   587749 
 1261000    1.0122736   -2.4291583   -2.4291583   -1.4265975  0.069668275   -2.4291583    1.0025608   587749 
 1262000    1.0107147   -2.4265695   -2.4265695   -1.4255527  0.072313922   -2.4265695    1.0010168   587749 
 1263000    1.0105977   -2.4275005   -2.4275005   -1.4265996   0.06840309   -2.4275005    1.0009009   587749 
 1264000    1.0092294   -2.4266465   -2.4266465   -1.4271008     0.061616   -2.4266465   0.99954574   587749 
 1265000    1.0094928   -2.4272708   -2.4272708   -1.4274642  0.069362845   -2.4272708   0.99980662   587749 
 1266000    1.0101854   -2.4272461   -2.4272461   -1.4267535  0.061256966   -2.4272461    1.0004926   587749 
 1267000     1.008621   -2.4262858   -2.4262858   -1.4273426  0.051591708   -2.4262858   0.99894322   587749 
 1268000    1.0082985   -2.4251169   -2.4251169   -1.4264931  0.062251163   -2.4251169   0.99862377   587749 
 1269000    1.0075026    -2.424806    -2.424806   -1.4269705  0.064901203    -2.424806   0.99783551   587749 
 1270000    1.0083169   -2.4254982   -2.4254982   -1.4268562  0.070470111   -2.4254982   0.99864201   587749 
 1271000    1.0094955   -2.4268403   -2.4268403   -1.4270311  0.067109073   -2.4268403   0.99980927   587749 
 1272000     1.010222   -2.4279266   -2.4279266   -1.4273977  0.056190694   -2.4279266    1.0005288   587749 
 1273000    1.0086469   -2.4266373   -2.4266373   -1.4276685  0.071893559   -2.4266373   0.99896883   587749 
 1274000    1.0084132   -2.4261883   -2.4261883   -1.4274509  0.065234218   -2.4261883   0.99873742   587749 
 1275000     1.007408   -2.4252077   -2.4252077   -1.4274658  0.055317442   -2.4252077   0.99774183   587749 
 1276000    1.0107406    -2.427883    -2.427883   -1.4268406  0.066146428    -2.427883    1.0010424   587749 
 1277000     1.007755   -2.4250385   -2.4250385    -1.426953  0.071844973   -2.4250385   0.99808548   587749 
 1278000    1.0076934   -2.4248259   -2.4248259   -1.4268013  0.069210117   -2.4248259   0.99802453   587749 
 1279000    1.0099115   -2.4271038   -2.4271038   -1.4268824  0.068359191   -2.4271038    1.0002214   587749 
 1280000    1.0089345   -2.4264575   -2.4264575   -1.4272038  0.064481102   -2.4264575   0.99925369   587749 
 1281000    1.0087333   -2.4269835   -2.4269835   -1.4279291  0.061476421   -2.4269835   0.99905443   587749 
 1282000    1.0089454   -2.4275324   -2.4275324   -1.4282679  0.064127445   -2.4275324   0.99926447   587749 
 1283000    1.0096823   -2.4281051   -2.4281051   -1.4281108  0.056339986   -2.4281051   0.99999427   587749 
 1284000    1.0098986   -2.4275892   -2.4275892   -1.4273807    0.0667535   -2.4275892    1.0002085   587749 
 1285000    1.0100277   -2.4273067   -2.4273067   -1.4269704   0.06804343   -2.4273067    1.0003364   587749 
 1286000     1.009604    -2.426704    -2.426704   -1.4267872  0.071886831    -2.426704    0.9999168   587749 
 1287000    1.0083389   -2.4261178   -2.4261178    -1.427454  0.059101911   -2.4261178   0.99866379   587749 
 1288000    1.0099634   -2.4269178   -2.4269178    -1.426645  0.064346497   -2.4269178    1.0002727   587749 
 1289000    1.0110386   -2.4287484   -2.4287484   -1.4274108  0.068946615   -2.4287484    1.0013376   587749 
 1290000    1.0114101   -2.4293453   -2.4293453   -1.4276398  0.064000762   -2.4293453    1.0017055   587749 
 1291000    1.0110842   -2.4292142   -2.4292142   -1.4278315  0.062296124   -2.4292142    1.0013828   587749 
 1292000    1.0110084     -2.42885     -2.42885   -1.4275423  0.067112126     -2.42885    1.0013077   587749 
 1293000    1.0107719   -2.4288137   -2.4288137   -1.4277403    0.0614862   -2.4288137    1.0010735   587749 
 1294000    1.0119466   -2.4299787   -2.4299787   -1.4277418  0.055043882   -2.4299787    1.0022369   587749 
 1295000    1.0111279    -2.428604    -2.428604   -1.4271779  0.069480542    -2.428604     1.001426   587749 
 1296000    1.0098583   -2.4269587   -2.4269587   -1.4267901  0.074146196   -2.4269587    1.0001687   587749 
 1297000    1.0104224   -2.4279412   -2.4279412   -1.4272139  0.070947904   -2.4279412    1.0007273   587749 
 1298000    1.0096672    -2.427329    -2.427329   -1.4273497  0.068837682    -2.427329   0.99997933   587749 
 1299000    1.0094039   -2.4272816   -2.4272816    -1.427563  0.067473522   -2.4272816   0.99971858   587749 
 1300000    1.0091491   -2.4274599   -2.4274599   -1.4279937  0.055751464   -2.4274599   0.99946622   587749 
 1301000    1.0093753   -2.4272485   -2.4272485   -1.4275583  0.071463223   -2.4272485   0.99969024   587749 
 1302000    1.0111291   -2.4287485   -2.4287485   -1.4273213  0.068631204   -2.4287485    1.0014273   587749 
 1303000     1.009129   -2.4275561   -2.4275561   -1.4281097  0.074744192   -2.4275561   0.99944634   587749 
 1304000    1.0106466   -2.4292315   -2.4292315   -1.4282821   0.04758822   -2.4292315    1.0009494   587749 
 1305000    1.0094669     -2.42823     -2.42823    -1.428449  0.061873093     -2.42823   0.99978102   587749 
 1306000     1.009256   -2.4275009   -2.4275009   -1.4279288  0.071167549   -2.4275009   0.99957215   587749 
 1307000    1.0109305   -2.4291483   -2.4291483   -1.4279178  0.043118142   -2.4291483    1.0012305   587749 
 1308000    1.0087353   -2.4275814   -2.4275814    -1.428525  0.062041257   -2.4275814   0.99905638   587749 
 1309000    1.0081802   -2.4266806   -2.4266806    -1.428174  0.063489188   -2.4266806   0.99850661   587749 
 1310000    1.0095716   -2.4285356   -2.4285356   -1.4286509  0.060271297   -2.4285356   0.99988468   587749 
 1311000    1.0099025   -2.4289178   -2.4289178   -1.4287054  0.065494074   -2.4289178    1.0002125   587749 
 1312000    1.0090464   -2.4281618   -2.4281618   -1.4287973  0.062785282   -2.4281618   0.99936448   587749 
 1313000    1.0098814   -2.4283395   -2.4283395   -1.4281481   0.06906522   -2.4283395    1.0001915   587749 
 1314000    1.0083296   -2.4278875   -2.4278875   -1.4292329  0.065454541   -2.4278875   0.99865459   587749 
 1315000    1.0083725   -2.4284421   -2.4284421   -1.4297451  0.066820785   -2.4284421   0.99869703   587749 
 1316000    1.0092452   -2.4290243   -2.4290243   -1.4294628  0.065739533   -2.4290243   0.99956145   587749 
 1317000    1.0100459   -2.4298217   -2.4298217   -1.4294673  0.061719809   -2.4298217    1.0003544   587749 
 1318000    1.0075639   -2.4274075   -2.4274075   -1.4295112  0.066191792   -2.4274075   0.99789628   587749 
 1319000     1.007492   -2.4279872   -2.4279872   -1.4301622  0.075480186   -2.4279872   0.99782499   587749 
 1320000     1.010095   -2.4304953   -2.4304953   -1.4300923  0.072050903   -2.4304953     1.000403   587749 
 1321000    1.0089528   -2.4288268   -2.4288268    -1.429555    0.0493503   -2.4288268   0.99927178   587749 
 1322000    1.0105427   -2.4296955   -2.4296955    -1.428849  0.064612259   -2.4296955    1.0008465   587749 
 1323000    1.0088451   -2.4290966   -2.4290966   -1.4299315  0.055799625   -2.4290966   0.99916516   587749 
 1324000    1.0103622   -2.4309459   -2.4309459   -1.4302783  0.062170476   -2.4309459    1.0006677   587749 
 1325000    1.0107308   -2.4311147   -2.4311147    -1.430082   0.06068202   -2.4311147    1.0010327   587749 
 1326000    1.0097647   -2.4310572   -2.4310572   -1.4309813  0.060621108   -2.4310572    1.0000759   587749 
 1327000    1.0106961   -2.4316079   -2.4316079   -1.4306096  0.072663915   -2.4316079    1.0009984   587749 
 1328000     1.010315   -2.4311436   -2.4311436   -1.4305227  0.057873219   -2.4311436    1.0006209   587749 
 1329000    1.0107446   -2.4310232   -2.4310232   -1.4299767   0.06095811   -2.4310232    1.0010464   587749 
 1330000     1.010305   -2.4307978   -2.4307978   -1.4301868  0.066367416   -2.4307978     1.000611   587749 
 1331000    1.0097608   -2.4307009   -2.4307009   -1.4306289  0.061909962   -2.4307009     1.000072   587749 
 1332000    1.0098765    -2.430815    -2.430815   -1.4306284  0.072308747    -2.430815    1.0001866   587749 
 1333000    1.0103252   -2.4316999   -2.4316999   -1.4310689   0.07491417   -2.4316999     1.000631   587749 
 1334000    1.0101818   -2.4310169   -2.4310169   -1.4305279  0.070853022   -2.4310169     1.000489   587749 
 1335000    1.0106539   -2.4309658   -2.4309658   -1.4300092  0.062444454   -2.4309658    1.0009566   587749 
 1336000    1.0091243    -2.429701    -2.429701   -1.4302593  0.084764224    -2.429701   0.99944166   587749 
 1337000    1.0104749   -2.4306363   -2.4306363    -1.429857  0.066233255   -2.4306363    1.0007793   587749 
 1338000    1.0115526    -2.431175    -2.431175   -1.4293284  0.064285209    -2.431175    1.0018466   587749 
 1339000    1.0102708    -2.429584    -2.429584   -1.4290069   0.06092817    -2.429584    1.0005771   587749 
 1340000    1.0118139   -2.4313755   -2.4313755   -1.4292701  0.057514659   -2.4313755    1.0021055   587749 
 1341000    1.0091042   -2.4295729   -2.4295729   -1.4301511  0.067809323   -2.4295729   0.99942176   587749 
 1342000    1.0084659   -2.4290875   -2.4290875   -1.4302979    0.0644719   -2.4290875   0.99878963   587749 
 1343000    1.0097783   -2.4301768   -2.4301768   -1.4300873  0.063958532   -2.4301768    1.0000894   587749 
 1344000    1.0093198   -2.4303331   -2.4303331   -1.4306978  0.070691841   -2.4303331   0.99963525   587749 
 1345000    1.0067368   -2.4282381   -2.4282381    -1.431161  0.065713967   -2.4282381   0.99707704   587749 
 1346000    1.0071259   -2.4282922   -2.4282922   -1.4308298  0.061840702   -2.4282922   0.99746246   587749 
 1347000    1.0075321   -2.4289436   -2.4289436   -1.4310789  0.057066098   -2.4289436   0.99786472   587749 
 1348000    1.0067479   -2.4278703   -2.4278703   -1.4307822  0.057398131   -2.4278703   0.99708809   587749 
 1349000      1.00778   -2.4294782   -2.4294782   -1.4313679  0.058406004   -2.4294782   0.99811029   587749 
 1350000    1.0070818   -2.4276824   -2.4276824   -1.4302636  0.056658302   -2.4276824   0.99741879   587749 
 1351000     1.009282   -2.4304668   -2.4304668   -1.4308689  0.060723686   -2.4304668   0.99959783   587749 
 1352000     1.008596   -2.4294972   -2.4294972   -1.4305788  0.057130469   -2.4294972   0.99891841   587749 
 1353000    1.0067192   -2.4281224   -2.4281224   -1.4310628  0.066325612   -2.4281224   0.99705961   587749 
 1354000    1.0060207   -2.4265723   -2.4265723   -1.4302044  0.061367627   -2.4265723   0.99636786   587749 
 1355000     1.010529   -2.4301649   -2.4301649    -1.429332   0.07311298   -2.4301649    1.0008328   587749 
 1356000    1.0100602   -2.4294937   -2.4294937   -1.4291251  0.070797166   -2.4294937    1.0003686   587749 
 1357000    1.0080243   -2.4277008   -2.4277008   -1.4293486  0.064043204   -2.4277008    0.9983522   587749 
 1358000    1.0105099   -2.4298739   -2.4298739   -1.4290599   0.06688719   -2.4298739     1.000814   587749 
 1359000    1.0115143   -2.4314002   -2.4314002   -1.4295914  0.052217112   -2.4314002    1.0018088   587749 
 1360000    1.0110307   -2.4311851   -2.4311851   -1.4298553  0.055156519   -2.4311851    1.0013298   587749 
 1361000    1.0104842   -2.4312858   -2.4312858   -1.4304973  0.068731997   -2.4312858    1.0007886   587749 
 1362000    1.0113005   -2.4326194   -2.4326194   -1.4310223  0.064451058   -2.4326194     1.001597   587749 
 1363000    1.0122878   -2.4322854   -2.4322854   -1.4297105  0.071744974   -2.4322854    1.0025748   587749 
 1364000    1.0110168    -2.432152    -2.432152    -1.430836  0.078676247    -2.432152     1.001316   587749 
 1365000    1.0116049   -2.4326176   -2.4326176   -1.4307191  0.078351753   -2.4326176    1.0018984   587749 
 1366000    1.0104733   -2.4309306   -2.4309306   -1.4301529  0.070614592   -2.4309306    1.0007777   587749 
 1367000    1.0106419   -2.4315817   -2.4315817   -1.4306369  0.069541525   -2.4315817    1.0009447   587749 
 1368000    1.0115541   -2.4322306   -2.4322306   -1.4303824   0.07266973   -2.4322306    1.0018482   587749 
 1369000    1.0107153   -2.4311564   -2.4311564    -1.430139  0.063722225   -2.4311564    1.0010174   587749 
 1370000    1.0094491   -2.4298182   -2.4298182   -1.4300549  0.063638886   -2.4298182   0.99976336   587749 
 1371000    1.0095707   -2.4304806   -2.4304806   -1.4305968   0.06507719   -2.4304806    0.9998838   587749 
 1372000    1.0098885   -2.4299456   -2.4299456   -1.4297471  0.077226055   -2.4299456    1.0001985   587749 
 1373000    1.0092752    -2.429665    -2.429665   -1.4300738  0.058991847    -2.429665   0.99959116   587749 
 1374000    1.0117174    -2.430855    -2.430855   -1.4288451  0.051231113    -2.430855    1.0020099   587749 
 1375000    1.0102127   -2.4302602   -2.4302602   -1.4297405   0.06970143   -2.4302602    1.0005197   587749 
 1376000    1.0102108   -2.4305318   -2.4305318   -1.4300141    0.0688267   -2.4305318    1.0005178   587749 
 1377000    1.0092694   -2.4292414   -2.4292414    -1.429656  0.057427964   -2.4292414   0.99958537   587749 
 1378000    1.0080752   -2.4277832   -2.4277832   -1.4293806  0.072573444   -2.4277832   0.99840261   587749 
 1379000     1.010446   -2.4294469   -2.4294469   -1.4286962  0.058172698   -2.4294469    1.0007507   587749 
 1380000    1.0069865   -2.4268374   -2.4268374    -1.429513  0.057476896   -2.4268374   0.99732442   587749 
 1381000    1.0077095   -2.4270809   -2.4270809   -1.4290404  0.059587211   -2.4270809   0.99804046   587749 
 1382000     1.006637    -2.426624    -2.426624   -1.4296457  0.045467766    -2.426624   0.99697821   587749 
 1383000    1.0073786   -2.4280369   -2.4280369   -1.4303242  0.061879072   -2.4280369   0.99771271   587749 
 1384000    1.0067415   -2.4275089   -2.4275089   -1.4304272  0.061019725   -2.4275089   0.99708173   587749 
 1385000    1.0083572   -2.4281825   -2.4281825   -1.4295006  0.062296951   -2.4281825   0.99868195   587749 
 1386000     1.007449   -2.4265102   -2.4265102   -1.4287278  0.067051515   -2.4265102   0.99778247   587749 
 1387000    1.0099598   -2.4286967   -2.4286967   -1.4284275  0.063130695   -2.4286967    1.0002691   587749 
 1388000    1.0088897    -2.427229    -2.427229   -1.4280197  0.061071415    -2.427229    0.9992093   587749 
 1389000    1.0086475    -2.426799    -2.426799   -1.4278295  0.068094632    -2.426799   0.99896944   587749 
 1390000    1.0094239   -2.4271069   -2.4271069   -1.4273685   0.06388549   -2.4271069    0.9997384   587749 
 1391000    1.0082799    -2.427474    -2.427474   -1.4288686  0.071466435    -2.427474   0.99860537   587749 
 1392000    1.0110578   -2.4289138   -2.4289138   -1.4275572  0.056239364   -2.4289138    1.0013566   587749 
 1393000    1.0103588   -2.4286334   -2.4286334   -1.4279691  0.062425526   -2.4286334    1.0006643   587749 
 1394000    1.0098962   -2.4288767   -2.4288767   -1.4286705  0.074563324   -2.4288767    1.0002062   587749 
 1395000    1.0087479   -2.4278721   -2.4278721   -1.4288032  0.067526544   -2.4278721   0.99906891   587749 
 1396000     1.008774   -2.4286491   -2.4286491   -1.4295544  0.066771264   -2.4286491   0.99909471   587749 
 1397000    1.0088209   -2.4279008   -2.4279008   -1.4287597  0.072629185   -2.4279008   0.99914113   587749 
 1398000    1.0099774    -2.429665    -2.429665   -1.4293784  0.065810893    -2.429665    1.0002866   587749 
 1399000    1.0102427     -2.42989     -2.42989   -1.4293407  0.053428052     -2.42989    1.0005493   587749 
 1400000    1.0082237   -2.4282003   -2.4282003   -1.4296506  0.080814289   -2.4282003   0.99854971   587749 
 1401000    1.0096651   -2.4298163   -2.4298163    -1.429839  0.064892551   -2.4298163    0.9999773   587749 
 1402000     1.010071   -2.4298381   -2.4298381   -1.4294588  0.069565182   -2.4298381    1.0003792   587749 
 1403000    1.0110307   -2.4316276   -2.4316276   -1.4302979  0.069519248   -2.4316276    1.0013297   587749 
 1404000    1.0120709   -2.4318133   -2.4318133   -1.4294533  0.070689842   -2.4318133      1.00236   587749 
 1405000    1.0117412   -2.4314368   -2.4314368   -1.4294034  0.076027699   -2.4314368    1.0020335   587749 
 1406000    1.0124767   -2.4315623   -2.4315623   -1.4288004  0.076798036   -2.4315623    1.0027619   587749 
 1407000    1.0124448   -2.4316834   -2.4316834   -1.4289531  0.060904978   -2.4316834    1.0027303   587749 
 1408000    1.0102206   -2.4312832   -2.4312832   -1.4307558  0.071375194   -2.4312832    1.0005274   587749 
 1409000    1.0105475   -2.4309519   -2.4309519   -1.4301006  0.064218442   -2.4309519    1.0008512   587749 
 1410000    1.0095812   -2.4297522   -2.4297522    -1.429858  0.071059424   -2.4297522   0.99989421   587749 
 1411000    1.0111384   -2.4309829   -2.4309829   -1.4295465  0.063272095   -2.4309829    1.0014365   587749 
 1412000    1.0099954   -2.4299491   -2.4299491   -1.4296447  0.056113631   -2.4299491    1.0003044   587749 
 1413000    1.0107005   -2.4303026   -2.4303026   -1.4292998  0.062975028   -2.4303026    1.0010028   587749 
 1414000    1.0087294   -2.4292595   -2.4292595    -1.430209  0.059517573   -2.4292595   0.99905052   587749 
 1415000    1.0092095    -2.429749    -2.429749   -1.4302229   0.07298625    -2.429749   0.99952604   587749 
 1416000    1.0100046   -2.4309133   -2.4309133   -1.4305997  0.074088062   -2.4309133    1.0003136   587749 
 1417000    1.0090768   -2.4301081   -2.4301081   -1.4307134  0.062009037   -2.4301081   0.99939464   587749 
 1418000    1.0083182   -2.4293848   -2.4293848   -1.4307415   0.06086957   -2.4293848   0.99864333   587749 
 1419000     1.008763    -2.429868    -2.429868   -1.4307842  0.056677514    -2.429868   0.99908387   587749 
 1420000    1.0073353   -2.4290508   -2.4290508    -1.431381  0.061145552   -2.4290508   0.99766984   587749 
 1421000    1.0082501   -2.4290002   -2.4290002   -1.4304243  0.051723332   -2.4290002   0.99857589   587749 
 1422000    1.0086961   -2.4291951   -2.4291951   -1.4301775  0.060201896   -2.4291951    0.9990176   587749 
 1423000    1.0090722   -2.4302569   -2.4302569   -1.4308668   0.06779921   -2.4302569   0.99939005   587749 
 1424000    1.0089574   -2.4291745   -2.4291745   -1.4298982  0.075275685   -2.4291745   0.99927639   587749 
 1425000    1.0099762   -2.4298765   -2.4298765   -1.4295911   0.07035973   -2.4298765    1.0002854   587749 
 1426000    1.0085362   -2.4287419   -2.4287419   -1.4298827  0.068546669   -2.4287419   0.99885921   587749 
 1427000    1.0087205   -2.4277055   -2.4277055   -1.4286637  0.069751074   -2.4277055   0.99904175   587749 
 1428000    1.0095172   -2.4288956   -2.4288956   -1.4290648  0.064249384   -2.4288956   0.99983084   587749 
 1429000    1.0101804   -2.4291893   -2.4291893   -1.4287016  0.076924535   -2.4291893    1.0004877   587749 
 1430000    1.0105072   -2.4308755   -2.4308755   -1.4300642  0.060683574   -2.4308755    1.0008113   587749 
 1431000    1.0088924   -2.4291249   -2.4291249   -1.4299129  0.064198449   -2.4291249   0.99921196   587749 
 1432000    1.0100721   -2.4298807   -2.4298807   -1.4295003  0.063978037   -2.4298807    1.0003804   587749 
 1433000    1.0090527   -2.4292814   -2.4292814   -1.4299106  0.064149578   -2.4292814   0.99937078   587749 
 1434000    1.0091404   -2.4294488   -2.4294488   -1.4299912   0.06931201   -2.4294488   0.99945757   587749 
 1435000    1.0089956   -2.4294698   -2.4294698   -1.4301556  0.062053774   -2.4294698   0.99931423   587749 
 1436000    1.0086137   -2.4292094   -2.4292094   -1.4302735  0.077542253   -2.4292094   0.99893596   587749 
 1437000    1.0078588   -2.4285639   -2.4285639   -1.4303756  0.066710339   -2.4285639   0.99818832   587749 
 1438000    1.0086875   -2.4286177   -2.4286177   -1.4296087  0.068290423   -2.4286177   0.99900904   587749 
 1439000    1.0088734   -2.4298329   -2.4298329   -1.4306398  0.069751773   -2.4298329   0.99919316   587749 
 1440000    1.0088285   -2.4304424   -2.4304424   -1.4312937  0.055036531   -2.4304424   0.99914871   587749 
 1441000    1.0087052   -2.4300989   -2.4300989   -1.4310723  0.067430793   -2.4300989   0.99902664   587749 
 1442000       1.0079   -2.4292659   -2.4292659   -1.4310368  0.063882741   -2.4292659    0.9982291   587749 
 1443000    1.0085255   -2.4298296   -2.4298296   -1.4309809  0.071989792   -2.4298296   0.99884866   587749 
 1444000    1.0106082   -2.4326131   -2.4326131   -1.4317019  0.063281504   -2.4326131    1.0009113   587749 
 1445000     1.007566   -2.4298649   -2.4298649   -1.4319666  0.075633173   -2.4298649   0.99789833   587749 
 1446000    1.0087165    -2.430475    -2.430475   -1.4314373   0.06994928    -2.430475   0.99903774   587749 
 1447000    1.0080129   -2.4304686   -2.4304686   -1.4321277  0.071013264   -2.4304686   0.99834097   587749 
 1448000    1.0098894   -2.4317496   -2.4317496   -1.4315502  0.054665951   -2.4317496    1.0001994   587749 
 1449000    1.0071873   -2.4294389   -2.4294389   -1.4319156  0.066725526   -2.4294389   0.99752326   587749 
 1450000    1.0106073   -2.4321142   -2.4321142   -1.4312038   0.06971495   -2.4321142    1.0009105   587749 
 1451000    1.0087651   -2.4299484   -2.4299484   -1.4308624  0.070516816   -2.4299484   0.99908595   587749 
 1452000    1.0092667   -2.4316374   -2.4316374   -1.4320548  0.062297307   -2.4316374   0.99958268   587749 
 1453000    1.0067152   -2.4292854   -2.4292854   -1.4322298  0.068054946   -2.4292854   0.99705565   587749 
 1454000    1.0083671   -2.4299317   -2.4299317     -1.43124   0.07463661   -2.4299317   0.99869172   587749 
 1455000    1.0102053   -2.4313413   -2.4313413   -1.4308289  0.072625131   -2.4313413    1.0005123   587749 
 1456000    1.0081582   -2.4296092   -2.4296092   -1.4311244  0.069506383   -2.4296092   0.99848484   587749 
 1457000    1.0071809   -2.4292597   -2.4292597   -1.4317427  0.051941722   -2.4292597   0.99751694   587749 
 1458000    1.0077338   -2.4302416   -2.4302416   -1.4321771  0.059192251   -2.4302416   0.99806453   587749 
 1459000    1.0079015   -2.4300629   -2.4300629   -1.4318323  0.060870818   -2.4300629    0.9982306   587749 
 1460000    1.0092186   -2.4323365   -2.4323365   -1.4328014  0.066620519   -2.4323365   0.99953511   587749 
 1461000    1.0094657   -2.4324622   -2.4324622   -1.4326824  0.062975664   -2.4324622   0.99977979   587749 
 1462000    1.0070134   -2.4303732   -2.4303732   -1.4330222  0.060602392   -2.4303732   0.99735103   587749 
 1463000    1.0073964   -2.4311703   -2.4311703   -1.4334399  0.062886714   -2.4311703   0.99773039   587749 
 1464000    1.0088718   -2.4320871   -2.4320871   -1.4328955  0.064785142   -2.4320871   0.99919163   587749 
 1465000    1.0099838   -2.4326141   -2.4326141   -1.4323212  0.059326328   -2.4326141    1.0002929   587749 
 1466000    1.0109851   -2.4335381   -2.4335381   -1.4322534  0.068572061   -2.4335381    1.0012846   587749 
 1467000    1.0086978   -2.4311267   -2.4311267   -1.4321075    0.0758386   -2.4311267   0.99901927   587749 
 1468000    1.0097812   -2.4321142   -2.4321142   -1.4320219  0.071621136   -2.4321142    1.0000923   587749 
 1469000    1.0115752   -2.4330405   -2.4330405   -1.4311715  0.066071709   -2.4330405     1.001869   587749 
 1470000    1.0091482   -2.4319342   -2.4319342   -1.4324688  0.056703078   -2.4319342   0.99946531   587749 
 1471000    1.0097344   -2.4314679   -2.4314679    -1.431422  0.068878691   -2.4314679    1.0000459   587749 
 1472000     1.010392    -2.432806    -2.432806   -1.4321089  0.068020039    -2.432806    1.0006972   587749 
 1473000    1.0090082    -2.431483    -2.431483   -1.4321563  0.071298969    -2.431483   0.99932667   587749 
 1474000    1.0088044   -2.4316908   -2.4316908   -1.4325659  0.067608962   -2.4316908   0.99912483   587749 
 1475000    1.0090233   -2.4311225   -2.4311225   -1.4317809  0.060521856   -2.4311225   0.99934165   587749 
 1476000     1.009268   -2.4317686   -2.4317686   -1.4321846  0.071953023   -2.4317686   0.99958401   587749 
 1477000    1.0079949   -2.4311959   -2.4311959   -1.4328728  0.066823763   -2.4311959   0.99832309   587749 
 1478000    1.0085534   -2.4315239   -2.4315239   -1.4326477  0.068958293   -2.4315239   0.99887621   587749 
 1479000    1.0098125   -2.4326999   -2.4326999   -1.4325766  0.055888786   -2.4326999    1.0001233   587749 
 1480000    1.0091612   -2.4317782   -2.4317782   -1.4323001  0.072549433   -2.4317782   0.99947817   587749 
 1481000    1.0101572   -2.4330331   -2.4330331   -1.4325685  0.070131381   -2.4330331    1.0004647   587749 
 1482000    1.0099966   -2.4328531   -2.4328531   -1.4325475  0.063722626   -2.4328531    1.0003056   587749 
 1483000    1.0099088   -2.4329637   -2.4329637   -1.4327451  0.065211157   -2.4329637    1.0002186   587749 
 1484000    1.0099849   -2.4334433   -2.4334433   -1.4331493  0.065270684   -2.4334433     1.000294   587749 
 1485000    1.0092726   -2.4327134   -2.4327134   -1.4331249  0.068676818   -2.4327134   0.99958854   587749 
 1486000    1.0085915   -2.4332612   -2.4332612   -1.4343472  0.071946089   -2.4332612   0.99891396   587749 
 1487000    1.0085831   -2.4329517   -2.4329517   -1.4340461  0.073868847   -2.4329517   0.99890566   587749 
 1488000    1.0095614   -2.4336529   -2.4336529   -1.4337783  0.069668329   -2.4336529   0.99987456   587749 
 1489000    1.0081271   -2.4329836   -2.4329836   -1.4345296  0.068855898   -2.4329836   0.99845407   587749 
 1490000    1.0073748   -2.4328573   -2.4328573   -1.4351483  0.067259017   -2.4328573   0.99770895   587749 
 1491000    1.0074861   -2.4332073   -2.4332073   -1.4353881  0.065666834   -2.4332073   0.99781921   587749 
 1492000    1.0067693   -2.4328956   -2.4328956   -1.4357863  0.066355887   -2.4328956   0.99710926   587749 
 1493000     1.007234   -2.4333549   -2.4333549   -1.4357854  0.073232204   -2.4333549   0.99756948   587749 
 1494000    1.0073827   -2.4327836   -2.4327836   -1.4350668  0.070035823   -2.4327836   0.99771678   587749 
 1495000     1.008724   -2.4343143   -2.4343143   -1.4352691  0.066649978   -2.4343143    0.9990452   587749 
 1496000    1.0093201   -2.4350171   -2.4350171   -1.4353815  0.070274803   -2.4350171    0.9996356   587749 
 1497000    1.0102045   -2.4351243   -2.4351243   -1.4346127  0.074044584   -2.4351243    1.0005115   587749 
 1498000    1.0095295   -2.4356032   -2.4356032   -1.4357603  0.063211836   -2.4356032   0.99984293   587749 
 1499000    1.0093035   -2.4357389   -2.4357389   -1.4361197  0.067090177   -2.4357389   0.99961919   587749 
 1500000     1.009912    -2.436041    -2.436041   -1.4358192  0.077057843    -2.436041    1.0002218   587749 
 1501000    1.0100968   -2.4369563   -2.4369563   -1.4365515  0.067651618   -2.4369563    1.0004048   587749 
 1502000    1.0092404   -2.4359842   -2.4359842   -1.4364276  0.068926467   -2.4359842   0.99955666   587749 
 1503000    1.0080812   -2.4345236   -2.4345236    -1.436115  0.064769787   -2.4345236   0.99840861   587749 
 1504000    1.0083124   -2.4357357   -2.4357357   -1.4370982  0.081671909   -2.4357357   0.99863753   587749 
 1505000     1.009908    -2.436477    -2.436477   -1.4362592  0.072750337    -2.436477    1.0002178   587749 
 1506000     1.011012   -2.4366414   -2.4366414   -1.4353301  0.075870273   -2.4366414    1.0013112   587749 
 1507000    1.0099431   -2.4360999   -2.4360999   -1.4358473  0.077907076   -2.4360999    1.0002526   587749 
 1508000    1.0094303   -2.4358289   -2.4358289   -1.4360842  0.060315232   -2.4358289   0.99974468   587749 
 1509000    1.0095675   -2.4356789   -2.4356789   -1.4357983  0.062579297   -2.4356789   0.99988061   587749 
 1510000    1.0116627   -2.4381704   -2.4381704   -1.4362147  0.059941876   -2.4381704    1.0019557   587749 
 1511000    1.0107935   -2.4373826   -2.4373826   -1.4362877  0.063368411   -2.4373826    1.0010949   587749 
 1512000    1.0092881   -2.4367999   -2.4367999    -1.437196  0.070945718   -2.4367999   0.99960392   587749 
 1513000    1.0111423   -2.4384908   -2.4384908   -1.4370505  0.068442621   -2.4384908    1.0014403   587749 
 1514000    1.0104009   -2.4375407   -2.4375407   -1.4368346  0.065138236   -2.4375407     1.000706   587749 
 1515000    1.0089592   -2.4365115   -2.4365115   -1.4372334  0.068211826   -2.4365115   0.99927816   587749 
 1516000    1.0098242   -2.4375704   -2.4375704   -1.4374355  0.071478604   -2.4375704    1.0001349   587749 
 1517000    1.0088733   -2.4370026   -2.4370026   -1.4378095  0.067584894   -2.4370026   0.99919313   587749 
 1518000     1.007913   -2.4365939   -2.4365939    -1.438352  0.067998423   -2.4365939   0.99824196   587749 
 1519000    1.0071889   -2.4354218   -2.4354218   -1.4378969  0.056943939   -2.4354218   0.99752488   587749 
 1520000    1.0074034    -2.435292    -2.435292   -1.4375547  0.063709387    -2.435292   0.99773733   587749 
 1521000    1.0090788   -2.4370256   -2.4370256    -1.437629   0.07804691   -2.4370256   0.99939665   587749 
 1522000    1.0083049   -2.4359382   -2.4359382   -1.4373081  0.066923154   -2.4359382   0.99863017   587749 
 1523000    1.0083667   -2.4356497   -2.4356497   -1.4369584   0.05398939   -2.4356497   0.99869137   587749 
 1524000    1.0085171   -2.4356807   -2.4356807   -1.4368404  0.081022432   -2.4356807   0.99884028   587749 
 1525000    1.0086249   -2.4357423   -2.4357423   -1.4367952  0.065280648   -2.4357423   0.99894707   587749 
 1526000    1.0101891   -2.4377159   -2.4377159   -1.4372197   0.06774969   -2.4377159    1.0004962   587749 
 1527000       1.0091   -2.4368341   -2.4368341   -1.4374164  0.071556992   -2.4368341   0.99941763   587749 
 1528000    1.0086655    -2.436648    -2.436648   -1.4376608  0.077855601    -2.436648   0.99898722   587749 
 1529000    1.0086581   -2.4363186   -2.4363186   -1.4373387  0.064302837   -2.4363186    0.9989799   587749 
 1530000    1.0086612   -2.4364568   -2.4364568   -1.4374738  0.064385576   -2.4364568   0.99898297   587749 
 1531000    1.0073092   -2.4351045   -2.4351045   -1.4374605  0.069588735   -2.4351045     0.997644   587749 
 1532000    1.0076685   -2.4359894   -2.4359894   -1.4379895  0.073492122   -2.4359894   0.99799989   587749 
 1533000    1.0070364   -2.4352477   -2.4352477    -1.437874  0.055256724   -2.4352477   0.99737379   587749 
 1534000    1.0070552   -2.4359217   -2.4359217   -1.4385293  0.063678315   -2.4359217   0.99739238   587749 
 1535000    1.0068769   -2.4356559   -2.4356559     -1.43844  0.068089931   -2.4356559   0.99721586   587749 
 1536000    1.0074221   -2.4355211   -2.4355211   -1.4377653  0.057113731   -2.4355211   0.99775581   587749 
 1537000    1.0090588   -2.4368724   -2.4368724   -1.4374956   0.05637244   -2.4368724   0.99937684   587749 
 1538000    1.0088256   -2.4361262   -2.4361262   -1.4369803  0.065730284   -2.4361262   0.99914585   587749 
 1539000    1.0088203   -2.4367464   -2.4367464   -1.4376058  0.061777957   -2.4367464   0.99914063   587749 
 1540000     1.007642   -2.4352166   -2.4352166    -1.437243     0.071408   -2.4352166   0.99797362   587749 
 1541000    1.0080746   -2.4358352   -2.4358352   -1.4374331  0.063678624   -2.4358352   0.99840209   587749 
 1542000    1.0093373   -2.4366653   -2.4366653   -1.4370127  0.067286992   -2.4366653    0.9996526   587749 
 1543000     1.008197   -2.4354064   -2.4354064   -1.4368831   0.06805276   -2.4354064   0.99852331   587749 
 1544000    1.0079435   -2.4359313   -2.4359313   -1.4376592  0.065492061   -2.4359313   0.99827219   587749 
 1545000    1.0084579   -2.4365679   -2.4365679   -1.4377862  0.069844245   -2.4365679   0.99878169   587749 
 1546000    1.0090079   -2.4363352   -2.4363352   -1.4370088  0.068819436   -2.4363352   0.99932641   587749 
 1547000    1.0091875   -2.4359539   -2.4359539   -1.4364496  0.056617739   -2.4359539   0.99950425   587749 
 1548000    1.0078449   -2.4348622   -2.4348622   -1.4366877  0.077629989   -2.4348622   0.99817458   587749 
 1549000    1.0082676   -2.4343368   -2.4343368   -1.4357436  0.060864512   -2.4343368   0.99859316   587749 
 1550000    1.0105106   -2.4368663   -2.4368663   -1.4360516  0.059477049   -2.4368663    1.0008146   587749 
 1551000    1.0085206   -2.4347981   -2.4347981   -1.4359544  0.071699977   -2.4347981   0.99884373   587749 
 1552000    1.0107634   -2.4369457   -2.4369457   -1.4358807  0.061157227   -2.4369457     1.001065   587749 
 1553000    1.0087733   -2.4352209   -2.4352209   -1.4361269  0.082767965   -2.4352209   0.99909403   587749 
 1554000    1.0091478   -2.4356833   -2.4356833   -1.4362183  0.079749882   -2.4356833   0.99946495   587749 
 1555000     1.011756   -2.4375451   -2.4375451    -1.435497   0.06967865   -2.4375451    1.0020481   587749 
 1556000    1.0092369   -2.4358918   -2.4358918   -1.4363387  0.071517632   -2.4358918   0.99955316   587749 
 1557000    1.0091108   -2.4360468   -2.4360468   -1.4366186  0.073157747   -2.4360468   0.99942827   587749 
 1558000    1.0098386   -2.4363647   -2.4363647   -1.4362155  0.064457079   -2.4363647    1.0001492   587749 
 1559000    1.0090133   -2.4361412   -2.4361412   -1.4368095  0.064886594   -2.4361412   0.99933172   587749 
 1560000    1.0093904    -2.436451    -2.436451   -1.4367458  0.068918153    -2.436451   0.99970518   587749 
 1561000    1.0100084   -2.4362962   -2.4362962   -1.4359789  0.083100527   -2.4362962    1.0003173   587749 
 1562000    1.0097232   -2.4367114   -2.4367114   -1.4366766  0.076890803   -2.4367114    1.0000348   587749 
 1563000    1.0097084   -2.4361233   -2.4361233   -1.4361031  0.067101746   -2.4361233    1.0000202   587749 
 1564000     1.009827   -2.4362158   -2.4362158   -1.4360782  0.067793996   -2.4362158    1.0001376   587749 
 1565000      1.00754   -2.4346736   -2.4346736    -1.436801  0.081725664   -2.4346736   0.99787259   587749 
 1566000    1.0096672   -2.4364593   -2.4364593     -1.43648  0.065853908   -2.4364593   0.99997936   587749 
 1567000    1.0073021   -2.4349189   -2.4349189   -1.4372819  0.059447399   -2.4349189     0.997637   587749 
 1568000    1.0080442   -2.4346864   -2.4346864   -1.4363144   0.06965946   -2.4346864   0.99837198   587749 
 1569000    1.0078146   -2.4342268   -2.4342268   -1.4360823  0.050648952   -2.4342268    0.9981445   587749 
 1570000    1.0089927   -2.4343972   -2.4343972   -1.4350859  0.067185104   -2.4343972   0.99931129   587749 
 1571000    1.0075745    -2.433614    -2.433614   -1.4357072  0.062292443    -2.433614   0.99790678   587749 
 1572000    1.0095498    -2.435077    -2.435077   -1.4352139  0.061007073    -2.435077   0.99986308   587749 
 1573000    1.0083899   -2.4339165   -2.4339165   -1.4352023  0.070927138   -2.4339165   0.99871428   587749 
 1574000    1.0082842    -2.434023    -2.434023   -1.4354134  0.055615661    -2.434023   0.99860961   587749 
 1575000    1.0090959   -2.4334158   -2.4334158   -1.4340023  0.072486239   -2.4334158   0.99941349   587749 
 1576000    1.0111808    -2.436066    -2.436066   -1.4345875  0.062688113    -2.436066    1.0014784   587749 
 1577000    1.0096254   -2.4352153   -2.4352153   -1.4352773  0.063363234   -2.4352153   0.99993797   587749 
 1578000     1.012303   -2.4369566   -2.4369566   -1.4343667  0.070651029   -2.4369566    1.0025899   587749 
 1579000    1.0098468   -2.4348988   -2.4348988   -1.4347415  0.083402792   -2.4348988    1.0001573   587749 
 1580000    1.0092805   -2.4341945   -2.4341945   -1.4345981  0.061993707   -2.4341945   0.99959638   587749 
 1581000    1.0097302    -2.433885    -2.433885   -1.4338432  0.054894204    -2.433885    1.0000418   587749 
 1582000    1.0095535   -2.4340089   -2.4340089   -1.4341421  0.073192983   -2.4340089   0.99986678   587749 
 1583000    1.0104018   -2.4353578   -2.4353578   -1.4346509  0.070557424   -2.4353578    1.0007069   587749 
 1584000    1.0086934   -2.4334513   -2.4334513   -1.4344364  0.073421322   -2.4334513   0.99901487   587749 
 1585000    1.0094057   -2.4346709   -2.4346709   -1.4349505  0.068822324   -2.4346709   0.99972037   587749 
 1586000    1.0091524   -2.4343182   -2.4343182   -1.4348487  0.066477688   -2.4343182   0.99946953   587749 
 1587000    1.0092275    -2.434493    -2.434493   -1.4349491  0.073010817    -2.434493    0.9995439   587749 
 1588000    1.0089071   -2.4349349   -2.4349349   -1.4357084   0.06282858   -2.4349349   0.99922658   587749 
 1589000    1.0095774   -2.4354154   -2.4354154    -1.435525  0.066629282   -2.4354154   0.99989039   587749 
 1590000    1.0085549   -2.4337537   -2.4337537   -1.4348759  0.068864614   -2.4337537   0.99887773   587749 
 1591000     1.008808   -2.4344429   -2.4344429   -1.4353145  0.076633057   -2.4344429   0.99912839   587749 
 1592000    1.0075427   -2.4338877   -2.4338877   -1.4360124  0.065083043   -2.4338877   0.99787528   587749 
 1593000    1.0071488   -2.4329889   -2.4329889   -1.4355037  0.072952595   -2.4329889   0.99748516   587749 
 1594000    1.0078583   -2.4332318   -2.4332318   -1.4350439  0.062917316   -2.4332318   0.99818781   587749 
 1595000    1.0076887   -2.4331379   -2.4331379   -1.4351181  0.057228415   -2.4331379   0.99801979   587749 
 1596000    1.0078664   -2.4336283   -2.4336283   -1.4354324  0.062317049   -2.4336283   0.99819582   587749 
 1597000    1.0088176   -2.4340503   -2.4340503   -1.4349124  0.065937935   -2.4340503   0.99913795   587749 
 1598000    1.0081561   -2.4334448   -2.4334448    -1.434962  0.064825693   -2.4334448   0.99848281   587749 
 1599000    1.0087214     -2.43376     -2.43376   -1.4347173  0.065337032     -2.43376   0.99904267   587749 
 1600000    1.0070236   -2.4321838   -2.4321838   -1.4348226  0.076611895   -2.4321838   0.99736116   587749 
 1601000    1.0082211   -2.4334945   -2.4334945   -1.4349474  0.070130932   -2.4334945   0.99854712   587749 
 1602000    1.0091215    -2.434288    -2.434288   -1.4348491  0.063889082    -2.434288   0.99943894   587749 
 1603000    1.0101883   -2.4358327   -2.4358327   -1.4353373  0.057523468   -2.4358327    1.0004954   587749 
 1604000    1.0082752   -2.4339834   -2.4339834   -1.4353826  0.070401565   -2.4339834   0.99860076   587749 
 1605000    1.0075243   -2.4329824   -2.4329824   -1.4351253  0.062403819   -2.4329824   0.99785705   587749 
 1606000    1.0083234   -2.4338763   -2.4338763   -1.4352278  0.067027517   -2.4338763   0.99864847   587749 
 1607000    1.0080988   -2.4336132   -2.4336132   -1.4351873  0.062344456   -2.4336132   0.99842596   587749 
 1608000    1.0092782   -2.4337676   -2.4337676   -1.4341735  0.059621318   -2.4337676   0.99959406   587749 
 1609000    1.0082442   -2.4326127   -2.4326127   -1.4340427  0.057944942   -2.4326127   0.99857002   587749 
 1610000    1.0089561   -2.4337576   -2.4337576   -1.4344825   0.07916191   -2.4337576    0.9992751   587749 
 1611000    1.0089914   -2.4345483   -2.4345483   -1.4352382  0.066551908   -2.4345483   0.99931004   587749 
 1612000    1.0080223   -2.4337266   -2.4337266   -1.4353764  0.078472503   -2.4337266   0.99835026   587749 
 1613000    1.0108314   -2.4363756   -2.4363756   -1.4352432  0.070670132   -2.4363756    1.0011324   587749 
 1614000    1.0093585   -2.4356498   -2.4356498   -1.4359762  0.069892688   -2.4356498   0.99967361   587749 
 1615000    1.0095693   -2.4362121   -2.4362121   -1.4363297  0.062460109   -2.4362121   0.99988243   587749 
 1616000     1.008151   -2.4348413   -2.4348413   -1.4363636  0.067552084   -2.4348413    0.9984777   587749 
 1617000    1.0093606   -2.4364674   -2.4364674   -1.4367917  0.058152484   -2.4364674   0.99967572   587749 
 1618000    1.0094154   -2.4363052   -2.4363052   -1.4365752   0.07211534   -2.4363052   0.99972997   587749 
 1619000    1.0077706   -2.4350384   -2.4350384   -1.4369374  0.065627742   -2.4350384   0.99810097   587749 
 1620000    1.0093977   -2.4368571   -2.4368571   -1.4371446  0.063225294   -2.4368571   0.99971246   587749 
 1621000    1.0081859    -2.434985    -2.434985   -1.4364727   0.07109124    -2.434985   0.99851226   587749 
 1622000     1.008646   -2.4367902   -2.4367902   -1.4378222  0.078269031   -2.4367902   0.99896796   587749 
 1623000    1.0072098   -2.4356007   -2.4356007   -1.4380551  0.077991019   -2.4356007   0.99754557   587749 
 1624000    1.0089674   -2.4366834   -2.4366834   -1.4373972  0.056958102   -2.4366834   0.99928623   587749 
 1625000    1.0090441    -2.436897    -2.436897   -1.4375348  0.069804818    -2.436897    0.9993622   587749 
 1626000    1.0094465   -2.4367567   -2.4367567   -1.4369959  0.065017683   -2.4367567   0.99976079   587749 
 1627000    1.0088062   -2.4356806   -2.4356806    -1.436554  0.067274381   -2.4356806   0.99912667   587749 
 1628000    1.0099479   -2.4363379   -2.4363379   -1.4360805  0.064339096   -2.4363379    1.0002574   587749 
 1629000    1.0099274   -2.4359438   -2.4359438   -1.4357068   0.05981255   -2.4359438     1.000237   587749 
 1630000    1.0098283   -2.4361316   -2.4361316   -1.4359927  0.077888365   -2.4361316    1.0001389   587749 
 1631000    1.0101293   -2.4367423   -2.4367423   -1.4363053  0.065631296   -2.4367423     1.000437   587749 
 1632000    1.0094942   -2.4348935   -2.4348935   -1.4350855  0.077759032   -2.4348935   0.99980804   587749 
 1633000    1.0100935    -2.435167    -2.435167   -1.4347654  0.076476608    -2.435167    1.0004016   587749 
 1634000    1.0083521   -2.4346798   -2.4346798    -1.436003  0.067894203   -2.4346798   0.99867685   587749 
 1635000    1.0084797   -2.4349462   -2.4349462   -1.4361429  0.065254898   -2.4349462   0.99880328   587749 
 1636000    1.0088854   -2.4345032   -2.4345032   -1.4352981  0.071814331   -2.4345032   0.99920511   587749 
 1637000    1.0081046   -2.4339655   -2.4339655   -1.4355338  0.070270429   -2.4339655   0.99843172   587749 
 1638000    1.0098353   -2.4352481   -2.4352481   -1.4351023  0.063765566   -2.4352481    1.0001458   587749 
 1639000    1.0090961   -2.4344904   -2.4344904   -1.4350767  0.063832066   -2.4344904   0.99941373   587749 
 1640000    1.0080406   -2.4341842   -2.4341842   -1.4358159  0.061335462   -2.4341842   0.99836834   587749 
 1641000    1.0090253   -2.4350988   -2.4350988   -1.4357552  0.063509675   -2.4350988   0.99934359   587749 
 1642000    1.0072775    -2.433777    -2.433777   -1.4361643  0.066105892    -2.433777    0.9976126   587749 
 1643000    1.0073227   -2.4347978   -2.4347978   -1.4371405  0.064609913   -2.4347978   0.99765732   587749 
 1644000    1.0061399   -2.4334871   -2.4334871   -1.4370012  0.059489595   -2.4334871   0.99648591   587749 
 1645000    1.0066928   -2.4344295   -2.4344295    -1.437396  0.060493158   -2.4344295   0.99703349   587749 
 1646000    1.0083567   -2.4355104   -2.4355104    -1.436829  0.065629507   -2.4355104   0.99868146   587749 
 1647000     1.009101   -2.4362343   -2.4362343   -1.4368158  0.067346076   -2.4362343   0.99941855   587749 
 1648000    1.0081999   -2.4352939   -2.4352939   -1.4367678  0.070038163   -2.4352939   0.99852616   587749 
 1649000    1.0096647   -2.4364031   -2.4364031   -1.4364262  0.062861045   -2.4364031   0.99997689   587749 
 1650000    1.0088053   -2.4349923   -2.4349923   -1.4358665  0.067151246   -2.4349923   0.99912571   587749 
 1651000    1.0094543   -2.4361914   -2.4361914   -1.4364229  0.067422003   -2.4361914    0.9997685   587749 
 1652000    1.0088511   -2.4342523   -2.4342523   -1.4350812  0.073232624   -2.4342523   0.99917111   587749 
 1653000    1.0101741   -2.4362548   -2.4362548   -1.4357735  0.071454487   -2.4362548    1.0004814   587749 
 1654000    1.0097655   -2.4367439   -2.4367439   -1.4366672  0.068166592   -2.4367439    1.0000767   587749 
 1655000    1.0084248   -2.4350602   -2.4350602   -1.4363113  0.070946467   -2.4350602   0.99874885   587749 
 1656000    1.0094494   -2.4368389   -2.4368389   -1.4370752   0.06246871   -2.4368389   0.99976368   587749 
 1657000    1.0074731   -2.4357469   -2.4357469   -1.4379406  0.067083285   -2.4357469   0.99780632   587749 
 1658000    1.0080588   -2.4352778   -2.4352778   -1.4368914  0.058905961   -2.4352778   0.99838642   587749 
 1659000    1.0084654    -2.436547    -2.436547   -1.4377579  0.058751543    -2.436547   0.99878914   587749 
 1660000    1.0076264   -2.4349759   -2.4349759   -1.4370178  0.075706754   -2.4349759   0.99795814   587749 
 1661000    1.0096563   -2.4363807   -2.4363807   -1.4364121   0.06887361   -2.4363807   0.99996859   587749 
 1662000    1.0090791   -2.4370036   -2.4370036   -1.4376067  0.063136154   -2.4370036   0.99939693   587749 
 1663000    1.0066949     -2.43495     -2.43495   -1.4379144  0.078194592     -2.43495   0.99703557   587749 
 1664000    1.0081686   -2.4355957   -2.4355957   -1.4371006  0.069468221   -2.4355957   0.99849511   587749 
 1665000    1.0085526   -2.4357482   -2.4357482   -1.4368728  0.089158455   -2.4357482   0.99887544   587749 
 1666000    1.0099564   -2.4373584   -2.4373584   -1.4370926  0.058967712   -2.4373584    1.0002658   587749 
 1667000    1.0086306   -2.4364099   -2.4364099   -1.4374572  0.067852028   -2.4364099   0.99895266   587749 
 1668000    1.0081593   -2.4362679   -2.4362679   -1.4377819  0.064005929   -2.4362679   0.99848594   587749 
 1669000    1.0088539   -2.4363407   -2.4363407   -1.4371669  0.064996431   -2.4363407   0.99917387   587749 
 1670000    1.0073165   -2.4349193   -2.4349193    -1.437268  0.064195813   -2.4349193   0.99765124   587749 
 1671000    1.0088041   -2.4363813   -2.4363813   -1.4372567  0.063081744   -2.4363813   0.99912457   587749 
 1672000    1.0067631   -2.4353124   -2.4353124   -1.4382093   0.05379931   -2.4353124    0.9971031   587749 
 1673000    1.0077578   -2.4356488   -2.4356488   -1.4375606  0.066530421   -2.4356488   0.99808823   587749 
 1674000    1.0079387   -2.4359271   -2.4359271   -1.4376597  0.070926763   -2.4359271    0.9982674   587749 
 1675000    1.0087571     -2.43649     -2.43649    -1.437412  0.068719622     -2.43649   0.99907799   587749 
 1676000    1.0083011   -2.4363046   -2.4363046   -1.4376782  0.067440552   -2.4363046   0.99862635   587749 
 1677000    1.0095562   -2.4365857   -2.4365857   -1.4367162  0.062248005   -2.4365857   0.99986946   587749 
 1678000    1.0093102   -2.4360224   -2.4360224   -1.4363966  0.068769599   -2.4360224   0.99962582   587749 
 1679000    1.0087532    -2.436432    -2.436432   -1.4373579   0.05829862    -2.436432   0.99907413   587749 
 1680000    1.0088142   -2.4361932   -2.4361932   -1.4370587  0.065401848   -2.4361932   0.99913459   587749 
 1681000     1.006854   -2.4333559   -2.4333559   -1.4361628  0.064481181   -2.4333559   0.99719317   587749 
 1682000    1.0086721   -2.4353687   -2.4353687   -1.4363749  0.067759877   -2.4353687   0.99899384   587749 
 1683000    1.0082843   -2.4349593   -2.4349593   -1.4363496  0.069639348   -2.4349593   0.99860969   587749 
 1684000    1.0093559   -2.4356863   -2.4356863   -1.4360152  0.057965139   -2.4356863   0.99967109   587749 
 1685000    1.0089488   -2.4360447   -2.4360447   -1.4367768  0.075522621   -2.4360447   0.99926784   587749 
 1686000    1.0104269    -2.436962    -2.436962   -1.4362302  0.068257159    -2.436962    1.0007318   587749 
 1687000    1.0099501   -2.4362575   -2.4362575    -1.435998  0.065494716   -2.4362575    1.0002595   587749 
 1688000    1.0089469   -2.4356924   -2.4356924   -1.4364264  0.060231573   -2.4356924   0.99926598   587749 
 1689000    1.0103313   -2.4365966   -2.4365966   -1.4359596  0.063264913   -2.4365966    1.0006371   587749 
 1690000    1.0106141   -2.4370961   -2.4370961   -1.4361789  0.057736829   -2.4370961    1.0009172   587749 
 1691000    1.0086239   -2.4355981   -2.4355981    -1.436652  0.065365247   -2.4355981   0.99894609   587749 
 1692000    1.0089274   -2.4354926   -2.4354926   -1.4362459  0.065446167   -2.4354926   0.99924669   587749 
 1693000    1.0084052   -2.4351769   -2.4351769   -1.4364474  0.070277234   -2.4351769    0.9987295   587749 
 1694000    1.0093826   -2.4362626   -2.4362626   -1.4365652   0.06535249   -2.4362626   0.99969745   587749 
 1695000    1.0094708   -2.4357362   -2.4357362   -1.4359514  0.063940716   -2.4357362   0.99978484   587749 
 1696000    1.0097661   -2.4362851   -2.4362851   -1.4362078  0.074766591   -2.4362851    1.0000773   587749 
 1697000    1.0099156   -2.4367826   -2.4367826   -1.4365573  0.068812876   -2.4367826    1.0002254   587749 
 1698000    1.0086044   -2.4356186   -2.4356186   -1.4366918  0.068388175   -2.4356186    0.9989268   587749 
 1699000    1.0086243   -2.4349854   -2.4349854   -1.4360389  0.069432922   -2.4349854    0.9989465   587749 
 1700000    1.0092175   -2.4356141   -2.4356141   -1.4360801  0.067818154   -2.4356141   0.99953395   587749 
 1701000    1.0098815   -2.4360078   -2.4360078   -1.4358162  0.065119949   -2.4360078    1.0001916   587749 
 1702000    1.0068159   -2.4329742   -2.4329742   -1.4358187  0.082438187   -2.4329742   0.99715546   587749 
 1703000    1.0061408   -2.4339387   -2.4339387   -1.4374519  0.078638326   -2.4339387   0.99648684   587749 
 1704000    1.0065701   -2.4335263   -2.4335263   -1.4366143  0.072347333   -2.4335263   0.99691201   587749 
 1705000    1.0066645   -2.4342639   -2.4342639   -1.4372585    0.0650126   -2.4342639   0.99700547   587749 
 1706000    1.0091204   -2.4353251   -2.4353251   -1.4358874  0.066527755   -2.4353251   0.99943779   587749 
 1707000    1.0071274   -2.4332366   -2.4332366   -1.4357726   0.07285637   -2.4332366   0.99746398   587749 
 1708000    1.0099917   -2.4362784   -2.4362784   -1.4359777   0.05460925   -2.4362784    1.0003007   587749 
 1709000    1.0082268   -2.4352412   -2.4352412   -1.4366884   0.06041428   -2.4352412   0.99855279   587749 
 1710000    1.0083574   -2.4355436   -2.4355436   -1.4368615  0.072963028   -2.4355436   0.99868214   587749 
 1711000    1.0087595   -2.4354725   -2.4354725   -1.4363922  0.065317078   -2.4354725   0.99908032   587749 
 1712000    1.0098152   -2.4361322   -2.4361322   -1.4360063  0.074425586   -2.4361322    1.0001259   587749 
 1713000    1.0108814   -2.4372688   -2.4372688   -1.4360869  0.066027251   -2.4372688    1.0011819   587749 
 1714000     1.009597   -2.4364484   -2.4364484   -1.4365386  0.069968749   -2.4364484   0.99990982   587749 
 1715000    1.0095782   -2.4356246   -2.4356246   -1.4357334   0.06848951   -2.4356246   0.99989119   587749 
 1716000    1.0082709   -2.4340909   -2.4340909   -1.4354945  0.072720546   -2.4340909   0.99859641   587749 
 1717000    1.0109137   -2.4366932   -2.4366932   -1.4354793  0.063497285   -2.4366932    1.0012139   587749 
 1718000    1.0095217    -2.435104    -2.435104   -1.4352688  0.071469785    -2.435104   0.99983521   587749 
 1719000    1.0089975   -2.4345084   -2.4345084   -1.4351923  0.066936128   -2.4345084   0.99931605   587749 
 1720000    1.0111682   -2.4366049   -2.4366049   -1.4351389  0.065407939   -2.4366049     1.001466   587749 
 1721000    1.0105011   -2.4367434   -2.4367434   -1.4359381   0.06006909   -2.4367434    1.0008052   587749 
 1722000    1.0080684   -2.4347484   -2.4347484   -1.4363524  0.073397207   -2.4347484   0.99839595   587749 
 1723000    1.0104377    -2.436444    -2.436444   -1.4357015   0.06801537    -2.436444    1.0007425   587749 
 1724000    1.0096438   -2.4356337   -2.4356337   -1.4356775  0.069931486   -2.4356337   0.99995622   587749 
 1725000    1.0093863   -2.4358129   -2.4358129   -1.4361118  0.067630884   -2.4358129   0.99970113   587749 
 1726000     1.009289   -2.4354215   -2.4354215   -1.4358167  0.072171919   -2.4354215   0.99960482   587749 
 1727000    1.0079338    -2.434279    -2.434279   -1.4360163  0.066485577    -2.434279   0.99826263   587749 
 1728000    1.0085437    -2.434705    -2.434705   -1.4358384  0.064793184    -2.434705   0.99886664   587749 
 1729000    1.0092096   -2.4350467   -2.4350467   -1.4355205  0.063591797   -2.4350467    0.9995262   587749 
 1730000    1.0104318   -2.4350972   -2.4350972   -1.4343606   0.05812572   -2.4350972    1.0007366   587749 
 1731000    1.0089723   -2.4327964   -2.4327964   -1.4335053  0.067701124   -2.4327964   0.99929117   587749 
 1732000    1.0095438    -2.434547    -2.434547   -1.4346898  0.067618598    -2.434547   0.99985715   587749 
 1733000    1.0096391   -2.4356991   -2.4356991   -1.4357476  0.070771196   -2.4356991   0.99995154   587749 
 1734000    1.0104862   -2.4356579   -2.4356579   -1.4348675  0.064312676   -2.4356579    1.0007905   587749 
 1735000    1.0089711   -2.4337571   -2.4337571   -1.4344671  0.067819172   -2.4337571   0.99928995   587749 
 1736000    1.0101988   -2.4361014   -2.4361014   -1.4355956  0.056556313   -2.4361014    1.0005058   587749 
 1737000     1.010254   -2.4361405   -2.4361405     -1.43558  0.058543431   -2.4361405    1.0005605   587749 
 1738000    1.0089395    -2.434199    -2.434199   -1.4349403  0.064344583    -2.434199   0.99925868   587749 
 1739000    1.0090633   -2.4346171   -2.4346171   -1.4352358   0.06528782   -2.4346171    0.9993813   587749 
 1740000    1.0075546   -2.4332575   -2.4332575   -1.4353705  0.069619345   -2.4332575   0.99788705   587749 
 1741000    1.0086466   -2.4342306   -2.4342306   -1.4352621  0.067807794   -2.4342306   0.99896857   587749 
 1742000    1.0088374   -2.4342069   -2.4342069   -1.4350494  0.073333047   -2.4342069   0.99915751   587749 
 1743000    1.0090774   -2.4349498   -2.4349498   -1.4355546  0.063750369   -2.4349498   0.99939519   587749 
 1744000    1.0099672   -2.4357231   -2.4357231   -1.4354466  0.064610792   -2.4357231    1.0002765   587749 
 1745000    1.0092463   -2.4348261   -2.4348261   -1.4352636  0.062868711   -2.4348261   0.99956251   587749 
 1746000    1.0087687   -2.4345957   -2.4345957   -1.4355063  0.078019409   -2.4345957   0.99908944   587749 
 1747000    1.0091916   -2.4347595   -2.4347595   -1.4352511  0.079220356   -2.4347595   0.99950835   587749 
 1748000    1.0092331   -2.4350387   -2.4350387   -1.4354892  0.065413451   -2.4350387   0.99954945   587749 
 1749000    1.0097471   -2.4357768   -2.4357768   -1.4357183  0.073401299   -2.4357768    1.0000584   587749 
 1750000    1.0100353   -2.4351988   -2.4351988   -1.4348549  0.075483069   -2.4351988    1.0003439   587749 
 1751000    1.0096315   -2.4358679   -2.4358679   -1.4359239  0.066866444   -2.4358679   0.99994398   587749 
 1752000    1.0083387   -2.4339208   -2.4339208   -1.4352573  0.072182205   -2.4339208   0.99866357   587749 
 1753000    1.0104633   -2.4365958   -2.4365958    -1.435828  0.069781416   -2.4365958    1.0007678   587749 
 1754000    1.0101182   -2.4362139   -2.4362139   -1.4357879  0.058270367   -2.4362139     1.000426   587749 
 1755000     1.009861   -2.4366104   -2.4366104   -1.4364391   0.08146483   -2.4366104    1.0001713   587749 
 1756000    1.0113864   -2.4379382   -2.4379382   -1.4362562   0.07734525   -2.4379382    1.0016821   587749 
 1757000    1.0109259   -2.4371274   -2.4371274   -1.4359014  0.070326307   -2.4371274    1.0012259   587749 
 1758000    1.0095779   -2.4359361   -2.4359361   -1.4360452  0.061727238   -2.4359361   0.99989088   587749 
 1759000    1.0081381   -2.4350452   -2.4350452   -1.4365802  0.074450504   -2.4350452   0.99846498   587749 
 1760000    1.0093143   -2.4367191   -2.4367191   -1.4370892  0.072608582   -2.4367191   0.99962986   587749 
 1761000    1.0076386   -2.4348692   -2.4348692    -1.436899  0.065841984   -2.4348692    0.9979702   587749 
 1762000    1.0087924   -2.4361613   -2.4361613   -1.4370483  0.062084468   -2.4361613   0.99911296   587749 
 1763000    1.0081972    -2.434691    -2.434691   -1.4361675  0.069338406    -2.434691   0.99852351   587749 
 1764000    1.0089975   -2.4348658   -2.4348658   -1.4355497  0.056794921   -2.4348658   0.99931612   587749 
 1765000     1.010558   -2.4366341   -2.4366341   -1.4357724  0.059229654   -2.4366341    1.0008616   587749 
 1766000    1.0077712   -2.4341957   -2.4341957   -1.4360941  0.067890962   -2.4341957   0.99810155   587749 
 1767000    1.0087694   -2.4360326   -2.4360326   -1.4369424  0.062454253   -2.4360326   0.99909019   587749 
 1768000    1.0079814   -2.4348566   -2.4348566   -1.4365469   0.07130738   -2.4348566   0.99830974   587749 
 1769000    1.0073714    -2.433561    -2.433561   -1.4358555  0.063241141    -2.433561   0.99770555   587749 
 1770000    1.0065052    -2.433292    -2.433292   -1.4364443   0.07077589    -2.433292   0.99684767   587749 
 1771000    1.0081338   -2.4349925   -2.4349925   -1.4365318  0.072577195   -2.4349925   0.99846065   587749 
 1772000    1.0083844   -2.4348484   -2.4348484   -1.4361396  0.055052099   -2.4348484   0.99870882   587749 
 1773000    1.0087648    -2.435281    -2.435281   -1.4361954  0.064132939    -2.435281   0.99908561   587749 
 1774000     1.010367   -2.4366891   -2.4366891   -1.4360167  0.058764743   -2.4366891    1.0006724   587749 
 1775000    1.0091424   -2.4361025   -2.4361025   -1.4366429  0.059369046   -2.4361025   0.99945961   587749 
 1776000     1.009743   -2.4369147   -2.4369147   -1.4368602  0.060342165   -2.4369147    1.0000544   587749 
 1777000      1.00656   -2.4335817   -2.4335817   -1.4366797   0.06738178   -2.4335817   0.99690202   587749 
 1778000    1.0088796   -2.4364639   -2.4364639   -1.4372645  0.062279147   -2.4364639   0.99919935   587749 
 1779000     1.008958    -2.435849    -2.435849    -1.436572  0.066159482    -2.435849     0.999277   587749 
 1780000    1.0058372   -2.4326862   -2.4326862   -1.4365001  0.060210571   -2.4326862   0.99618609   587749 
 1781000    1.0072156   -2.4352391   -2.4352391   -1.4376878  0.065608713   -2.4352391   0.99755127   587749 
 1782000     1.008842   -2.4369206   -2.4369206   -1.4377585   0.04992189   -2.4369206   0.99916211   587749 
 1783000    1.0080251   -2.4362582   -2.4362582   -1.4379052  0.061420829   -2.4362582   0.99835302   587749 
 1784000    1.0060268   -2.4337235   -2.4337235   -1.4373496  0.056879418   -2.4337235   0.99637393   587749 
 1785000    1.0083212    -2.435746    -2.435746   -1.4370997  0.058377368    -2.435746   0.99864626   587749 
 1786000    1.0082906   -2.4353074   -2.4353074   -1.4366914  0.056392061   -2.4353074   0.99861599   587749 
 1787000    1.0070124    -2.433955    -2.433955    -1.436605  0.063764577    -2.433955   0.99735002   587749 
 1788000    1.0089225   -2.4366109   -2.4366109   -1.4373691  0.076786092   -2.4366109   0.99924184   587749 
 1789000    1.0088754   -2.4365373   -2.4365373   -1.4373422  0.071585325   -2.4365373   0.99919519   587749 
 1790000    1.0103674   -2.4380561   -2.4380561   -1.4373832  0.068197077   -2.4380561    1.0006728   587749 
 1791000    1.0092412   -2.4368348   -2.4368348   -1.4372774  0.069338116   -2.4368348   0.99955741   587749 
 1792000    1.0090448   -2.4375899   -2.4375899    -1.438227  0.072262673   -2.4375899   0.99936294   587749 
 1793000    1.0088934   -2.4379733   -2.4379733   -1.4387604  0.070183492   -2.4379733   0.99921299   587749 
 1794000    1.0095721   -2.4389056   -2.4389056   -1.4390204  0.060882901   -2.4389056   0.99988517   587749 
 1795000     1.005778   -2.4351058   -2.4351058   -1.4389784  0.064255724   -2.4351058   0.99612745   587749 
 1796000    1.0066183   -2.4360964   -2.4360964   -1.4391367   0.07188091   -2.4360964   0.99695973   587749 
 1797000    1.0067375   -2.4366575   -2.4366575   -1.4395798  0.057096439   -2.4366575   0.99707777   587749 
 1798000    1.0080913   -2.4370124   -2.4370124   -1.4385939  0.061624562   -2.4370124   0.99841856   587749 
 1799000    1.0078801   -2.4363771   -2.4363771   -1.4381677  0.082610213   -2.4363771   0.99820946   587749 
 1800000    1.0077615    -2.436701    -2.436701   -1.4386091  0.065810214    -2.436701   0.99809191   587749 
 1801000    1.0087986   -2.4374254   -2.4374254   -1.4383063  0.074661855   -2.4374254   0.99911912   587749 
 1802000    1.0091559   -2.4371716   -2.4371716   -1.4376987  0.071891894   -2.4371716   0.99947296   587749 
 1803000    1.0097503   -2.4380481   -2.4380481   -1.4379864  0.086821253   -2.4380481    1.0000617   587749 
 1804000    1.0102729   -2.4383768   -2.4383768   -1.4377975  0.073735194   -2.4383768    1.0005793   587749 
 1805000    1.0092854    -2.437483    -2.437483   -1.4378818  0.067629835    -2.437483   0.99960119   587749 
 1806000    1.0100167   -2.4376504   -2.4376504    -1.437325  0.067065603   -2.4376504    1.0003255   587749 
 1807000     1.010741   -2.4384584   -2.4384584   -1.4374156  0.064087106   -2.4384584    1.0010428   587749 
 1808000    1.0083883     -2.43675     -2.43675   -1.4380372  0.077065723     -2.43675   0.99871276   587749 
 1809000    1.0076843   -2.4368714   -2.4368714   -1.4388559  0.060980194   -2.4368714   0.99801547   587749 
 1810000    1.0074936   -2.4356297   -2.4356297   -1.4378031  0.077694968   -2.4356297   0.99782661   587749 
 1811000    1.0073413   -2.4368444   -2.4368444   -1.4391686  0.063550572   -2.4368444    0.9976758   587749 
 1812000    1.0061224   -2.4341842   -2.4341842   -1.4377157  0.067878964   -2.4341842   0.99646853   587749 
 1813000    1.0078797   -2.4364916   -2.4364916   -1.4382826  0.060020665   -2.4364916     0.998209   587749 
 1814000    1.0065546   -2.4353644   -2.4353644   -1.4384677  0.069193588   -2.4353644   0.99689662   587749 
 1815000     1.009657   -2.4367111   -2.4367111   -1.4367418  0.073269651   -2.4367111   0.99996928   587749 
 1816000    1.0091384   -2.4364273   -2.4364273   -1.4369716   0.07021192   -2.4364273   0.99945563   587749 
 1817000    1.0098306   -2.4366116   -2.4366116   -1.4364704  0.069768764   -2.4366116    1.0001412   587749 
 1818000    1.0093358   -2.4363283   -2.4363283   -1.4366772  0.065980187   -2.4363283   0.99965111   587749 
 1819000     1.010994   -2.4374403   -2.4374403   -1.4361469  0.078871132   -2.4374403    1.0012934   587749 
 1820000    1.0078445   -2.4351695   -2.4351695   -1.4369954  0.065499885   -2.4351695   0.99817411   587749 
 1821000    1.0087804   -2.4359115   -2.4359115   -1.4368104  0.066930747   -2.4359115   0.99910111   587749 
 1822000    1.0093682   -2.4359187   -2.4359187   -1.4362354  0.077024444   -2.4359187   0.99968323   587749 
 1823000    1.0089393   -2.4364743   -2.4364743   -1.4372159   0.07816019   -2.4364743   0.99925845   587749 
 1824000    1.0085134   -2.4368736   -2.4368736   -1.4380369  0.066816456   -2.4368736   0.99883667   587749 
 1825000    1.0066534   -2.4345093   -2.4345093   -1.4375148   0.07099563   -2.4345093    0.9969945   587749 
 1826000    1.0061053   -2.4342368   -2.4342368   -1.4377852  0.070044501   -2.4342368   0.99645162   587749 
 1827000    1.0070881   -2.4354775   -2.4354775   -1.4380525  0.069500218   -2.4354775   0.99742504   587749 
 1828000    1.0094585   -2.4375787   -2.4375787    -1.437806  0.065058702   -2.4375787   0.99977264   587749 
 1829000      1.00956   -2.4372434   -2.4372434   -1.4373702  0.064641609   -2.4372434   0.99987323   587749 
 1830000    1.0096154   -2.4370314   -2.4370314   -1.4371033  0.072310923   -2.4370314    0.9999281   587749 
 1831000    1.0071569   -2.4355492   -2.4355492   -1.4380561  0.084415972   -2.4355492    0.9974931   587749 
 1832000    1.0075329    -2.435171    -2.435171   -1.4373055  0.077090638    -2.435171   0.99786555   587749 
 1833000    1.0096016   -2.4371752   -2.4371752   -1.4372609  0.058874563   -2.4371752   0.99991438   587749 
 1834000     1.008273   -2.4368005   -2.4368005   -1.4382019  0.067814571   -2.4368005   0.99859854   587749 
 1835000    1.0080082   -2.4362502   -2.4362502   -1.4379139  0.063147401   -2.4362502   0.99833629   587749 
 1836000    1.0085984   -2.4378203   -2.4378203   -1.4388995  0.066216458   -2.4378203   0.99892082   587749 
 1837000    1.0093941   -2.4383384   -2.4383384   -1.4386295  0.050830539   -2.4383384   0.99970892   587749 
 1838000    1.0064853   -2.4350701   -2.4350701   -1.4382421  0.074864586   -2.4350701   0.99682795   587749 
 1839000    1.0073843   -2.4361933   -2.4361933    -1.438475  0.063372859   -2.4361933   0.99771832   587749 
 1840000    1.0080283   -2.4367817   -2.4367817   -1.4384256  0.066297112   -2.4367817   0.99835617   587749 
 1841000    1.0098479   -2.4375561   -2.4375561   -1.4373978  0.073851689   -2.4375561    1.0001583   587749 
 1842000    1.0104755   -2.4380646   -2.4380646   -1.4372847  0.063980615   -2.4380646    1.0007799   587749 
 1843000    1.0103872   -2.4380237   -2.4380237   -1.4373313  0.068723959   -2.4380237    1.0006925   587749 
 1844000    1.0082715   -2.4358611   -2.4358611    -1.437264  0.056389025   -2.4358611   0.99859704   587749 
 1845000    1.0075849   -2.4350384   -2.4350384   -1.4371213  0.073863161   -2.4350384   0.99791708   587749 
 1846000    1.0081916   -2.4356647   -2.4356647   -1.4371467  0.066389987   -2.4356647   0.99851796   587749 
 1847000     1.009545   -2.4374797   -2.4374797   -1.4376214  0.072926763   -2.4374797   0.99985834   587749 
 1848000    1.0089159   -2.4369985   -2.4369985   -1.4377632   0.07475741   -2.4369985   0.99923529   587749 
 1849000    1.0078749   -2.4363672   -2.4363672   -1.4381629  0.068464831   -2.4363672   0.99820425   587749 
 1850000    1.0074724   -2.4359585   -2.4359585   -1.4381528  0.065664942   -2.4359585   0.99780564   587749 
 1851000    1.0071798   -2.4357671   -2.4357671   -1.4382513  0.062552798   -2.4357671   0.99751579   587749 
 1852000    1.0069687   -2.4350447   -2.4350447   -1.4377379  0.077718144   -2.4350447   0.99730677   587749 
 1853000    1.0064378   -2.4355736   -2.4355736   -1.4387927  0.063748758   -2.4355736   0.99678092   587749 
 1854000    1.0093712   -2.4383534   -2.4383534   -1.4386672  0.062468693   -2.4383534   0.99968621   587749 
 1855000     1.007224   -2.4357462   -2.4357462   -1.4381866  0.053894592   -2.4357462   0.99755962   587749 
 1856000    1.0099979   -2.4380563   -2.4380563   -1.4377495  0.073674491   -2.4380563    1.0003069   587749 
 1857000     1.009219   -2.4370796   -2.4370796   -1.4375442  0.069479499   -2.4370796   0.99953544   587749 
 1858000    1.0085347   -2.4367599   -2.4367599   -1.4379022  0.071132683   -2.4367599   0.99885768   587749 
 1859000     1.008741   -2.4374908   -2.4374908   -1.4384288  0.069703431   -2.4374908   0.99906208   587749 
 1860000    1.0095427   -2.4381754   -2.4381754   -1.4383194  0.064878703   -2.4381754   0.99985602   587749 
 1861000    1.0077071   -2.4359554   -2.4359554   -1.4379173  0.078523695   -2.4359554   0.99803806   587749 
 1862000    1.0077257   -2.4358183   -2.4358183   -1.4377619  0.068803922   -2.4358183   0.99805645   587749 
 1863000     1.008866   -2.4371106   -2.4371106   -1.4379248  0.063032989   -2.4371106   0.99918584   587749 
 1864000    1.0076787   -2.4358866   -2.4358866   -1.4378766  0.069623058   -2.4358866   0.99800998   587749 
 1865000    1.0082166   -2.4365788   -2.4365788   -1.4380361  0.075888772   -2.4365788   0.99854266   587749 
 1866000    1.0089693   -2.4378123   -2.4378123   -1.4385242  0.073572189   -2.4378123   0.99928811   587749 
 1867000    1.0092514   -2.4383256   -2.4383256   -1.4387581   0.06469218   -2.4383256   0.99956754   587749 
 1868000    1.0088185   -2.4386016   -2.4386016   -1.4394628  0.062399302   -2.4386016   0.99913876   587749 
 1869000    1.0086894   -2.4378782   -2.4378782   -1.4388673   0.06232108   -2.4378782    0.9990109   587749 
 1870000    1.0070232    -2.436563    -2.436563   -1.4392022  0.063429203    -2.436563   0.99736077   587749 
 1871000    1.0076108    -2.436943    -2.436943   -1.4390002  0.057475561    -2.436943   0.99794273   587749 
 1872000    1.0108986   -2.4386662   -2.4386662   -1.4374673  0.069109469   -2.4386662    1.0011989   587749 
 1873000     1.008802   -2.4372802   -2.4372802   -1.4381577  0.070613997   -2.4372802   0.99912251   587749 
 1874000    1.0085944   -2.4373702   -2.4373702   -1.4384533  0.067810129   -2.4373702   0.99891688   587749 
 1875000    1.0085561   -2.4369334   -2.4369334   -1.4380545  0.075600997   -2.4369334   0.99887888   587749 
 1876000    1.0072262   -2.4359926   -2.4359926   -1.4384308  0.077417444   -2.4359926   0.99756179   587749 
 1877000    1.0091385   -2.4378473   -2.4378473   -1.4383916  0.066171781   -2.4378473   0.99945569   587749 
 1878000    1.0109232   -2.4400429   -2.4400429   -1.4388196  0.074287865   -2.4400429    1.0012233   587749 
 1879000    1.0084358    -2.437524    -2.437524   -1.4387642  0.069119909    -2.437524   0.99875975   587749 
 1880000    1.0093015    -2.439139    -2.439139   -1.4395219  0.087906781    -2.439139   0.99961713   587749 
 1881000    1.0078475   -2.4379334   -2.4379334   -1.4397563  0.064243242   -2.4379334   0.99817715   587749 
 1882000    1.0074443   -2.4376449   -2.4376449   -1.4398671  0.077347931   -2.4376449   0.99777783   587749 
 1883000    1.0080057     -2.43755     -2.43755   -1.4392162  0.064566032     -2.43755    0.9983338   587749 
 1884000    1.0075253   -2.4365651   -2.4365651   -1.4387071  0.064436799   -2.4365651   0.99785801   587749 
 1885000    1.0084751    -2.437569    -2.437569   -1.4387703  0.064017294    -2.437569   0.99879869   587749 
 1886000    1.0083628   -2.4363682   -2.4363682   -1.4376807  0.080265669   -2.4363682   0.99868745   587749 
 1887000    1.0094414   -2.4372577   -2.4372577    -1.437502   0.06075163   -2.4372577   0.99975577   587749 
 1888000    1.0087308   -2.4367505   -2.4367505   -1.4376985  0.065287335   -2.4367505   0.99905196   587749 
 1889000    1.0095242   -2.4378874   -2.4378874   -1.4380497  0.064108469   -2.4378874   0.99983773   587749 
 1890000    1.0090222   -2.4369325   -2.4369325   -1.4375919  0.063410639   -2.4369325   0.99934059   587749 
 1891000    1.0092349   -2.4371954   -2.4371954   -1.4376442  0.074093802   -2.4371954   0.99955118   587749 
 1892000    1.0065102    -2.435348    -2.435348   -1.4384954  0.073030602    -2.435348   0.99685267   587749 
 1893000    1.0085932   -2.4373041   -2.4373041   -1.4383884  0.056070478   -2.4373041   0.99891567   587749 
 1894000    1.0083124   -2.4361447   -2.4361447   -1.4375072  0.064250821   -2.4361447   0.99863754   587749 
 1895000    1.0089461   -2.4372617   -2.4372617   -1.4379965  0.065176104   -2.4372617   0.99926523   587749 
 1896000    1.0081472   -2.4360064   -2.4360064   -1.4375324  0.073063112   -2.4360064   0.99847396   587749 
 1897000    1.0067794   -2.4343186   -2.4343186   -1.4371993  0.079022646   -2.4343186    0.9971193   587749 
 1898000    1.0099048   -2.4378858   -2.4378858   -1.4376711  0.063741471   -2.4378858    1.0002147   587749 
 1899000    1.0089536   -2.4374979   -2.4374979   -1.4382252  0.057487413   -2.4374979   0.99927264   587749 
 1900000    1.0070392    -2.436376    -2.436376   -1.4389994  0.073683185    -2.436376    0.9973766   587749 
 1901000    1.0093343   -2.4376037   -2.4376037    -1.437954  0.054864545   -2.4376037   0.99964969   587749 
 1902000    1.0104933   -2.4388673   -2.4388673   -1.4380698  0.074183872   -2.4388673    1.0007975   587749 
 1903000    1.0106411   -2.4389443   -2.4389443   -1.4380004  0.058415735   -2.4389443    1.0009439   587749 
 1904000    1.0078722   -2.4355224   -2.4355224   -1.4373208  0.064849913   -2.4355224    0.9982016   587749 
 1905000     1.007784   -2.4364732   -2.4364732   -1.4383589  0.060745187   -2.4364732   0.99811427   587749 
 1906000    1.0083805   -2.4371217   -2.4371217   -1.4384167  0.063393102   -2.4371217   0.99870498   587749 
 1907000    1.0082745   -2.4361581   -2.4361581   -1.4375582  0.071975821   -2.4361581   0.99859999   587749 
 1908000      1.01039   -2.4383305   -2.4383305   -1.4376353  0.068614509   -2.4383305    1.0006953   587749 
 1909000     1.009984   -2.4392855   -2.4392855   -1.4389924  0.065434057   -2.4392855    1.0002931   587749 
 1910000    1.0091462    -2.437509    -2.437509   -1.4380456  0.062920996    -2.437509   0.99946332   587749 
 1911000    1.0096757   -2.4374582   -2.4374582   -1.4374704  0.065549079   -2.4374582    0.9999878   587749 
 1912000    1.0085224   -2.4369775   -2.4369775   -1.4381319  0.070925699   -2.4369775   0.99884557   587749 
 1913000    1.0093391   -2.4379797   -2.4379797   -1.4383252  0.070207949   -2.4379797   0.99965443   587749 
 1914000    1.0100077   -2.4393262   -2.4393262   -1.4390096  0.069060248   -2.4393262    1.0003166   587749 
 1915000    1.0082295   -2.4369917   -2.4369917   -1.4384362  0.067966335   -2.4369917   0.99855547   587749 
 1916000    1.0089945   -2.4373444   -2.4373444   -1.4380313  0.057433877   -2.4373444    0.9993131   587749 
 1917000    1.0105562   -2.4390424   -2.4390424   -1.4381826  0.070316784   -2.4390424    1.0008598   587749 
 1918000    1.0095441   -2.4379184   -2.4379184    -1.438061  0.071265833   -2.4379184   0.99985743   587749 
 1919000    1.0085542   -2.4383602   -2.4383602   -1.4394831  0.061658121   -2.4383602   0.99887708   587749 
 1920000    1.0082181   -2.4381283   -2.4381283   -1.4395842  0.076541111   -2.4381283   0.99854418   587749 
 1921000    1.0082938   -2.4379906   -2.4379906   -1.4393714  0.060519521   -2.4379906   0.99861918   587749 
 1922000    1.0078482   -2.4374992   -2.4374992   -1.4393213  0.076949013   -2.4374992   0.99817784   587749 
 1923000    1.0089683   -2.4385949   -2.4385949   -1.4393077  0.063395203   -2.4385949   0.99928719   587749 
 1924000    1.0084139    -2.437611    -2.437611   -1.4388729  0.072842312    -2.437611   0.99873812   587749 
 1925000    1.0079378   -2.4370492   -2.4370492   -1.4387827  0.068577551   -2.4370492   0.99826654   587749 
 1926000    1.0093603   -2.4384995   -2.4384995    -1.438824  0.074533204   -2.4384995   0.99967543   587749 
 1927000    1.0090837   -2.4380909   -2.4380909   -1.4386894  0.079560754   -2.4380909   0.99940148   587749 
 1928000    1.0090486   -2.4380809   -2.4380809   -1.4387142   0.07142635   -2.4380809   0.99936673   587749 
 1929000    1.0087485   -2.4372663   -2.4372663   -1.4381968  0.073139899   -2.4372663    0.9990695   587749 
 1930000    1.0088306   -2.4374495   -2.4374495   -1.4382987  0.055306786   -2.4374495   0.99915079   587749 
 1931000    1.0102943   -2.4384829   -2.4384829   -1.4378824  0.062109479   -2.4384829    1.0006005   587749 
 1932000    1.0099794    -2.439151    -2.439151   -1.4388624  0.060685094    -2.439151    1.0002885   587749 
 1933000    1.0095028   -2.4387052   -2.4387052   -1.4388886  0.075632482   -2.4387052   0.99981658   587749 
 1934000    1.0103338    -2.438706    -2.438706   -1.4380664  0.080626351    -2.438706    1.0006396   587749 
 1935000    1.0105689   -2.4400906   -2.4400906   -1.4392182  0.071601033   -2.4400906    1.0008724   587749 
 1936000    1.0103264   -2.4393775   -2.4393775   -1.4387453  0.074041888   -2.4393775    1.0006322   587749 
 1937000    1.0098195   -2.4383289   -2.4383289   -1.4381987  0.078190453   -2.4383289    1.0001302   587749 
 1938000    1.0114074    -2.439893    -2.439893   -1.4381902  0.073500041    -2.439893    1.0017028   587749 
 1939000    1.0096657    -2.438555    -2.438555   -1.4385772  0.073531628    -2.438555   0.99997784   587749 
 1940000    1.0102084   -2.4385416   -2.4385416   -1.4380263  0.084231347   -2.4385416    1.0005154   587749 
 1941000    1.0105046   -2.4389556   -2.4389556   -1.4381469  0.066108609   -2.4389556    1.0008087   587749 
 1942000    1.0110583   -2.4399181   -2.4399181   -1.4385611  0.071497737   -2.4399181    1.0013571   587749 
 1943000    1.0107067    -2.438963    -2.438963   -1.4379541  0.065720209    -2.438963    1.0010089   587749 
 1944000    1.0097589   -2.4380634   -2.4380634   -1.4379932  0.058755271   -2.4380634    1.0000702   587749 
 1945000    1.0098022   -2.4384605   -2.4384605   -1.4383475  0.057033513   -2.4384605    1.0001131   587749 
 1946000    1.0089522   -2.4378903   -2.4378903   -1.4386191  0.062215865   -2.4378903    0.9992712   587749 
 1947000    1.0089729   -2.4380633   -2.4380633   -1.4387716  0.061730775   -2.4380633   0.99929169   587749 
 1948000    1.0084637   -2.4367823   -2.4367823   -1.4379949  0.064840417   -2.4367823   0.99878737   587749 
 1949000    1.0062498   -2.4350548   -2.4350548   -1.4384601  0.081010275   -2.4350548   0.99659473   587749 
 1950000    1.0078642   -2.4363468   -2.4363468   -1.4381531  0.073137478   -2.4363468   0.99819367   587749 
 1951000    1.0093401   -2.4378912   -2.4378912   -1.4382358  0.063011767   -2.4378912   0.99965539   587749 
 1952000    1.0093689   -2.4377015   -2.4377015   -1.4380177  0.067586286   -2.4377015   0.99968388   587749 
 1953000    1.0081396   -2.4358305   -2.4358305   -1.4373641  0.072427085   -2.4358305   0.99846645   587749 
 1954000     1.008707    -2.437138    -2.437138   -1.4381095  0.068396066    -2.437138   0.99902841   587749 
 1955000    1.0090638   -2.4378559   -2.4378559   -1.4384742  0.061561024   -2.4378559   0.99938172   587749 
 1956000    1.0101035   -2.4383289   -2.4383289   -1.4379174  0.061246459   -2.4383289    1.0004115   587749 
 1957000     1.008482   -2.4365972   -2.4365972   -1.4377917  0.064600667   -2.4365972   0.99880557   587749 
 1958000    1.0088883   -2.4369985   -2.4369985   -1.4377905  0.058912837   -2.4369985   0.99920797   587749 
 1959000    1.0088359   -2.4369005   -2.4369005   -1.4377445  0.071013072   -2.4369005   0.99915599   587749 
 1960000    1.0073722    -2.435527    -2.435527   -1.4378206  0.071160674    -2.435527   0.99770642   587749 
 1961000    1.0077013   -2.4361396   -2.4361396   -1.4381073  0.066538362   -2.4361396   0.99803228   587749 
 1962000    1.0090941   -2.4375426   -2.4375426   -1.4381308  0.068616719   -2.4375426   0.99941179   587749 
 1963000    1.0081801   -2.4375803   -2.4375803   -1.4390737   0.07480537   -2.4375803   0.99850658   587749 
 1964000     1.008277   -2.4365585   -2.4365585    -1.437956  0.064447133   -2.4365585   0.99860249   587749 
 1965000    1.0069958   -2.4367381   -2.4367381   -1.4394045  0.063500411   -2.4367381   0.99733361   587749 
 1966000    1.0093983   -2.4377543   -2.4377543   -1.4380412  0.072398393   -2.4377543   0.99971304   587749 
 1967000    1.0098109   -2.4385696   -2.4385696    -1.438448  0.071584048   -2.4385696    1.0001217   587749 
 1968000    1.0086745   -2.4378711   -2.4378711   -1.4388749  0.065759565   -2.4378711   0.99899619   587749 
 1969000    1.0093065    -2.438998    -2.438998   -1.4393759  0.070668072    -2.438998   0.99962211   587749 
 1970000    1.0108787   -2.4409019   -2.4409019   -1.4397227  0.067666527   -2.4409019    1.0011793   587749 
 1971000    1.0108365   -2.4411083   -2.4411083   -1.4399708  0.070729839   -2.4411083    1.0011375   587749 
 1972000    1.0086704   -2.4384159   -2.4384159   -1.4394239  0.070576748   -2.4384159   0.99899208   587749 
 1973000    1.0086726    -2.438457    -2.438457   -1.4394627   0.06196788    -2.438457   0.99899435   587749 
 1974000    1.0083708   -2.4388602   -2.4388602   -1.4401648  0.076350098   -2.4388602   0.99869538   587749 
 1975000    1.0079998   -2.4384477   -2.4384477   -1.4401197  0.058476344   -2.4384477   0.99832798   587749 
 1976000    1.0082338   -2.4374499   -2.4374499   -1.4388902  0.082484441   -2.4374499   0.99855973   587749 
 1977000     1.008884   -2.4384532   -2.4384532   -1.4392495  0.069993832   -2.4384532    0.9992037   587749 
 1978000     1.007224   -2.4377711   -2.4377711   -1.4402115  0.076403917   -2.4377711   0.99755959   587749 
 1979000     1.006825   -2.4373521   -2.4373521   -1.4401876   0.06827523   -2.4373521   0.99716445   587749 
 1980000    1.0091358   -2.4383706   -2.4383706   -1.4389175  0.078425616   -2.4383706   0.99945308   587749 
 1981000    1.0083431   -2.4378706   -2.4378706   -1.4392027  0.075964244   -2.4378706   0.99866793   587749 
 1982000    1.0093623   -2.4380345   -2.4380345   -1.4383571  0.072701575   -2.4380345   0.99967736   587749 
 1983000    1.0106068   -2.4390804   -2.4390804   -1.4381705  0.074462825   -2.4390804    1.0009099   587749 
 1984000    1.0117793   -2.4397881   -2.4397881   -1.4377169  0.067343689   -2.4397881    1.0020712   587749 
 1985000    1.0103618   -2.4383668   -2.4383668   -1.4376995  0.080386289   -2.4383668    1.0006673   587749 
 1986000    1.0093164   -2.4385436   -2.4385436   -1.4389118  0.072744186   -2.4385436   0.99963189   587749 
 1987000    1.0082036    -2.437389    -2.437389   -1.4388591  0.073494711    -2.437389   0.99852984   587749 
 1988000    1.0077705   -2.4370093   -2.4370093   -1.4389084    0.0743598   -2.4370093   0.99810087   587749 
 1989000    1.0076704   -2.4372426   -2.4372426   -1.4392409  0.072915877   -2.4372426   0.99800172   587749 
 1990000    1.0085518    -2.438048    -2.438048   -1.4391734  0.067638136    -2.438048   0.99887462   587749 
 1991000    1.0107321   -2.4399449   -2.4399449   -1.4389108  0.066892036   -2.4399449     1.001034   587749 
 1992000    1.0087761   -2.4377346   -2.4377346   -1.4386378  0.056855229   -2.4377346   0.99909678   587749 
 1993000    1.0085198   -2.4378342   -2.4378342   -1.4389913   0.06073847   -2.4378342   0.99884293   587749 
 1994000    1.0083698   -2.4371855   -2.4371855    -1.438491  0.060405668   -2.4371855   0.99869445   587749 
 1995000    1.0094155   -2.4383645   -2.4383645   -1.4386344   0.06848004   -2.4383645   0.99973011   587749 
 1996000    1.0097908   -2.4394394   -2.4394394   -1.4393377  0.063639096   -2.4394394    1.0001017   587749 
 1997000    1.0091852   -2.4380858   -2.4380858   -1.4385838  0.070642681   -2.4380858   0.99950201   587749 
 1998000    1.0068819   -2.4364971   -2.4364971   -1.4392762  0.075468345   -2.4364971   0.99722083   587749 
 1999000    1.0073417   -2.4373539   -2.4373539   -1.4396778  0.057794553   -2.4373539   0.99767615   587749 
 2000000    1.0078547   -2.4378361   -2.4378361   -1.4396519  0.064972152   -2.4378361   0.99818427   587749 
 2001000    1.0063286   -2.4357855   -2.4357855   -1.4391127  0.065430998   -2.4357855   0.99667282   587749 
 2002000    1.0086806   -2.4377002   -2.4377002    -1.438698  0.064967654   -2.4377002   0.99900218   587749 
 2003000    1.0087711   -2.4377571   -2.4377571   -1.4386652  0.070969452   -2.4377571   0.99909186   587749 
 2004000    1.0078549   -2.4370571   -2.4370571   -1.4388726  0.063599113   -2.4370571   0.99818445   587749 
 2005000    1.0082074   -2.4372124   -2.4372124   -1.4386788  0.062058947   -2.4372124   0.99853354   587749 
 2006000    1.0086251   -2.4371115   -2.4371115   -1.4381642  0.068266803   -2.4371115   0.99894722   587749 
 2007000    1.0108653   -2.4399582   -2.4399582   -1.4387922  0.071269808   -2.4399582     1.001166   587749 
 2008000    1.0112663   -2.4394411   -2.4394411    -1.437878  0.060708708   -2.4394411    1.0015631   587749 
 2009000    1.0115884   -2.4397671   -2.4397671    -1.437885  0.070765826   -2.4397671    1.0018821   587749 
 2010000    1.0110878   -2.4392377   -2.4392377   -1.4378513  0.079583995   -2.4392377    1.0013863   587749 
 2011000    1.0107452   -2.4390701   -2.4390701    -1.438023  0.073966394   -2.4390701    1.0010471   587749 
 2012000    1.0109145   -2.4390493   -2.4390493   -1.4378346  0.085865675   -2.4390493    1.0012147   587749 
 2013000    1.0092939   -2.4378403   -2.4378403   -1.4382307  0.068853766   -2.4378403    0.9996096   587749 
 2014000    1.0084905   -2.4370057   -2.4370057   -1.4381918  0.072008828   -2.4370057   0.99881391   587749 
 2015000    1.0094322   -2.4385719   -2.4385719   -1.4388254  0.069740497   -2.4385719   0.99974659   587749 
 2016000    1.0084285    -2.437799    -2.437799   -1.4390465  0.067441405    -2.437799   0.99875253   587749 
 2017000    1.0087102   -2.4376167   -2.4376167   -1.4385852  0.075345672   -2.4376167    0.9990315   587749 
 2018000    1.0086424    -2.437899    -2.437899   -1.4389346  0.070430427    -2.437899   0.99896437   587749 
 2019000    1.0088498   -2.4380102   -2.4380102   -1.4388403  0.059210764   -2.4380102   0.99916982   587749 
 2020000    1.0099761   -2.4389526   -2.4389526   -1.4386673  0.064378086   -2.4389526    1.0002853   587749 
 2021000    1.0098526   -2.4383481   -2.4383481   -1.4381851  0.064984784   -2.4383481     1.000163   587749 
 2022000    1.0097039   -2.4382022   -2.4382022   -1.4381865  0.062894277   -2.4382022    1.0000157   587749 
 2023000    1.0091082   -2.4375595   -2.4375595   -1.4381338  0.062627711   -2.4375595    0.9994257   587749 
 2024000    1.0093921   -2.4386301   -2.4386301   -1.4389232  0.070435842   -2.4386301   0.99970689   587749 
 2025000     1.008801   -2.4381059   -2.4381059   -1.4389845  0.071894096   -2.4381059   0.99912147   587749 
 2026000    1.0081958   -2.4380431   -2.4380431    -1.439521  0.070950202   -2.4380431   0.99852208   587749 
 2027000    1.0093875   -2.4391335   -2.4391335   -1.4394312  0.051941715   -2.4391335   0.99970231   587749 
 2028000    1.0078169   -2.4368193   -2.4368193   -1.4386725  0.068274793   -2.4368193   0.99814681   587749 
 2029000    1.0084882   -2.4369053   -2.4369053   -1.4380936  0.068801818   -2.4369053   0.99881167   587749 
 2030000    1.0089832   -2.4372529   -2.4372529   -1.4379509  0.072227476   -2.4372529   0.99930194   587749 
 2031000    1.0091761    -2.438116    -2.438116    -1.438623  0.073034958    -2.438116   0.99949301   587749 
 2032000     1.009525   -2.4387357   -2.4387357   -1.4388972  0.076056239   -2.4387357   0.99983851   587749 
 2033000    1.0089475   -2.4377473   -2.4377473   -1.4384808  0.065242705   -2.4377473   0.99926655   587749 
 2034000    1.0083444   -2.4374797   -2.4374797   -1.4388105  0.080594703   -2.4374797   0.99866926   587749 
 2035000    1.0068677   -2.4358404   -2.4358404   -1.4386337  0.066672854   -2.4358404   0.99720675   587749 
 2036000     1.006963   -2.4360534   -2.4360534   -1.4387523  0.064547374   -2.4360534    0.9973011   587749 
 2037000    1.0078312   -2.4377942   -2.4377942   -1.4396333  0.060825234   -2.4377942   0.99816098   587749 
 2038000    1.0070408   -2.4380906   -2.4380906   -1.4407125  0.062372071   -2.4380906   0.99737814   587749 
 2039000    1.0081936    -2.438128    -2.438128    -1.439608  0.072002347    -2.438128   0.99851993   587749 
 2040000    1.0069164   -2.4368069   -2.4368069   -1.4395519  0.065350998   -2.4368069   0.99725499   587749 
 2041000    1.0067061   -2.4370686   -2.4370686    -1.440022  0.070308053   -2.4370686   0.99704663   587749 
 2042000    1.0068036    -2.436857    -2.436857   -1.4397137  0.074693331    -2.436857   0.99714323   587749 
 2043000    1.0082136   -2.4389374   -2.4389374   -1.4403977  0.069367216   -2.4389374    0.9985397   587749 
 2044000    1.0076766   -2.4379442   -2.4379442   -1.4399363  0.072219474   -2.4379442   0.99800789   587749 
 2045000    1.0078203   -2.4385354   -2.4385354   -1.4403852  0.071066086   -2.4385354   0.99815022   587749 
 2046000    1.0097914   -2.4398057   -2.4398057   -1.4397033  0.068066382   -2.4398057    1.0001024   587749 
 2047000    1.0096568   -2.4392846   -2.4392846   -1.4393155  0.076258045   -2.4392846   0.99996908   587749 
 2048000    1.0086532   -2.4383306   -2.4383306   -1.4393555  0.069527989   -2.4383306   0.99897511   587749 
 2049000    1.0101892   -2.4390658   -2.4390658   -1.4385694  0.054467343   -2.4390658    1.0004964   587749 
 2050000    1.0091252   -2.4391767   -2.4391767   -1.4397342  0.070709466   -2.4391767   0.99944254   587749 
 2051000    1.0094181   -2.4400058   -2.4400058   -1.4402732  0.056937496   -2.4400058   0.99973262   587749 
 2052000    1.0085094   -2.4390676   -2.4390676    -1.440235  0.070221761   -2.4390676   0.99883267   587749 
 2053000    1.0084572   -2.4388964   -2.4388964   -1.4401154  0.082450298   -2.4388964   0.99878097   587749 
 2054000    1.0098155   -2.4402093   -2.4402093   -1.4400831  0.074942304   -2.4402093    1.0001262   587749 
 2055000    1.0088638   -2.4392576   -2.4392576   -1.4400739  0.073278329   -2.4392576   0.99918369   587749 
 2056000     1.008071   -2.4387896   -2.4387896   -1.4403911  0.067123944   -2.4387896    0.9983985   587749 
 2057000    1.0084076   -2.4387917   -2.4387917   -1.4400599  0.064228965   -2.4387917   0.99873186   587749 
 2058000    1.0079053   -2.4381391   -2.4381391   -1.4399047  0.082097441   -2.4381391    0.9982344   587749 
 2059000    1.0084343   -2.4391711   -2.4391711   -1.4404128   0.08348003   -2.4391711   0.99875832   587749 
 2060000    1.0089476   -2.4399553   -2.4399553   -1.4406887  0.071887776   -2.4399553   0.99926664   587749 
 2061000    1.0089829   -2.4389058   -2.4389058   -1.4396042   0.06362408   -2.4389058   0.99930161   587749 
 2062000    1.0080605    -2.438526    -2.438526   -1.4401379  0.065438296    -2.438526   0.99838807   587749 
 2063000    1.0087599    -2.439097    -2.439097   -1.4400162  0.056773079    -2.439097    0.9990808   587749 
 2064000    1.0087805   -2.4395415   -2.4395415   -1.4404404  0.076399024   -2.4395415   0.99910112   587749 
 2065000    1.0090162   -2.4391192   -2.4391192   -1.4397845   0.07221477   -2.4391192   0.99933465   587749 
 2066000    1.0079464   -2.4381113   -2.4381113   -1.4398363  0.078824667   -2.4381113   0.99827503   587749 
 2067000    1.0088248    -2.438225    -2.438225     -1.43908   0.07287172    -2.438225   0.99914507   587749 
 2068000    1.0095779    -2.439128    -2.439128   -1.4392371   0.07140903    -2.439128   0.99989092   587749 
 2069000    1.0090133   -2.4395495   -2.4395495   -1.4402177   0.08093189   -2.4395495   0.99933178   587749 
 2070000    1.0085678    -2.439489    -2.439489   -1.4405984   0.07190036    -2.439489   0.99889056   587749 
 2071000    1.0088579   -2.4396079   -2.4396079   -1.4404301   0.05856164   -2.4396079   0.99917786   587749 
 2072000    1.0097267   -2.4404483   -2.4404483     -1.44041  0.059046381   -2.4404483    1.0000383   587749 
 2073000     1.007679   -2.4383907   -2.4383907   -1.4403805  0.060785665   -2.4383907   0.99801022   587749 
 2074000    1.0090336   -2.4392455   -2.4392455   -1.4398937  0.064755831   -2.4392455   0.99935183   587749 
 2075000    1.0073936   -2.4373398   -2.4373398   -1.4396123  0.066498332   -2.4373398   0.99772753   587749 
 2076000    1.0097772   -2.4398799   -2.4398799   -1.4397915  0.075244307   -2.4398799    1.0000883   587749 
 2077000    1.0090566   -2.4390628   -2.4390628   -1.4396881  0.062555083   -2.4390628   0.99937463   587749 
 2078000    1.0089626   -2.4386172   -2.4386172   -1.4393356  0.068641269   -2.4386172   0.99928151   587749 
 2079000    1.0082704   -2.4380419   -2.4380419   -1.4394459  0.064236448   -2.4380419   0.99859597   587749 
 2080000    1.0087488   -2.4383188   -2.4383188    -1.439249  0.061030844   -2.4383188   0.99906981   587749 
 2081000     1.007621   -2.4381157   -2.4381157   -1.4401629  0.069809116   -2.4381157   0.99795275   587749 
 2082000    1.0084687   -2.4389428   -2.4389428   -1.4401504  0.068621088   -2.4389428   0.99879239   587749 
 2083000    1.0072585    -2.437406    -2.437406   -1.4398122  0.062782239    -2.437406   0.99759378   587749 
 2084000    1.0089116   -2.4391293   -2.4391293   -1.4398983  0.067024949   -2.4391293   0.99923101   587749 
 2085000    1.0075172   -2.4369861   -2.4369861   -1.4391361  0.078843623   -2.4369861   0.99785002   587749 
 2086000    1.0080086   -2.4383705   -2.4383705   -1.4400339  0.078716338   -2.4383705   0.99833664   587749 
 2087000     1.008812   -2.4394845   -2.4394845   -1.4403521  0.065629667   -2.4394845   0.99913238   587749 
 2088000    1.0102693   -2.4408967   -2.4408967    -1.440321  0.080244226   -2.4408967    1.0005757   587749 
 2089000    1.0070141   -2.4368336   -2.4368336    -1.439482  0.069085548   -2.4368336   0.99735169   587749 
 2090000    1.0104982   -2.4403183   -2.4403183   -1.4395159  0.078232139   -2.4403183    1.0008023   587749 
 2091000     1.009668    -2.438801    -2.438801   -1.4388208  0.068477452    -2.438801   0.99998019   587749 
 2092000    1.0089109   -2.4380754   -2.4380754    -1.438845  0.080467865   -2.4380754   0.99923033   587749 
 2093000    1.0097447   -2.4390799   -2.4390799   -1.4390238  0.064808518   -2.4390799    1.0000561   587749 
 2094000    1.0097493   -2.4390937   -2.4390937    -1.439033  0.067451771   -2.4390937    1.0000607   587749 
 2095000    1.0093029   -2.4395897   -2.4395897   -1.4399711  0.079073214   -2.4395897   0.99961853   587749 
 2096000    1.0087822   -2.4391187   -2.4391187   -1.4400159   0.07164396   -2.4391187    0.9991028   587749 
 2097000    1.0095886   -2.4399863   -2.4399863   -1.4400848  0.072504144   -2.4399863   0.99990156   587749 
 2098000    1.0088879   -2.4404725   -2.4404725    -1.441265   0.07519075   -2.4404725    0.9992075   587749 
 2099000    1.0070043    -2.438695    -2.438695    -1.441353  0.068360708    -2.438695     0.997342   587749 
 2100000    1.0055925   -2.4374763   -2.4374763   -1.4415325  0.078002921   -2.4374763   0.99594373   587749 
 2101000    1.0050566    -2.437234    -2.437234    -1.441821  0.075493128    -2.437234   0.99541303   587749 
 2102000    1.0079839   -2.4397521   -2.4397521   -1.4414398  0.068897139   -2.4397521   0.99831223   587749 
 2103000    1.0052941   -2.4375284   -2.4375284   -1.4418802   0.06608257   -2.4375284   0.99564821   587749 
 2104000    1.0059048   -2.4373372   -2.4373372   -1.4410841  0.068561382   -2.4373372    0.9962531   587749 
 2105000    1.0063362    -2.438252    -2.438252   -1.4415717  0.078753897    -2.438252   0.99668034   587749 
 2106000    1.0065493   -2.4389326   -2.4389326   -1.4420412  0.062993047   -2.4389326   0.99689135   587749 
 2107000     1.008633   -2.4402398   -2.4402398   -1.4412847  0.053831309   -2.4402398   0.99895506   587749 
 2108000    1.0079474   -2.4388793   -2.4388793   -1.4406032  0.063047379   -2.4388793    0.9982761   587749 
 2109000    1.0096093   -2.4406569   -2.4406569   -1.4407349  0.059759609   -2.4406569   0.99992197   587749 
 2110000    1.0076034   -2.4388759   -2.4388759   -1.4409405  0.068675797   -2.4388759   0.99793537   587749 
 2111000    1.0078045   -2.4392238   -2.4392238   -1.4410892  0.078774433   -2.4392238   0.99813456   587749 
 2112000    1.0081841   -2.4393729   -2.4393729   -1.4408623   0.07395728   -2.4393729   0.99851053   587749 
 2113000    1.0089786   -2.4400346   -2.4400346   -1.4407372  0.085506297   -2.4400346   0.99929734   587749 
 2114000    1.0076474   -2.4390219   -2.4390219    -1.441043  0.066920238   -2.4390219    0.9979789   587749 
 2115000    1.0090514    -2.440523    -2.440523   -1.4411536  0.069098611    -2.440523   0.99936945   587749 
 2116000    1.0079691   -2.4394339   -2.4394339   -1.4411363  0.071423688   -2.4394339   0.99829758   587749 
 2117000    1.0074308   -2.4388869   -2.4388869   -1.4411225  0.072314193   -2.4388869   0.99776441   587749 
 2118000    1.0075029   -2.4389876   -2.4389876   -1.4411518  0.074824495   -2.4389876   0.99783581   587749 
 2119000    1.0072833   -2.4396558   -2.4396558   -1.4420375  0.065880749   -2.4396558   0.99761829   587749 
 2120000    1.0075794   -2.4402226   -2.4402226    -1.442311   0.06798204   -2.4402226   0.99791161   587749 
 2121000    1.0083128   -2.4413234   -2.4413234   -1.4426855  0.061074418   -2.4413234   0.99863799   587749 
 2122000    1.0070215   -2.4402451   -2.4402451   -1.4428861  0.068777253   -2.4402451   0.99735901   587749 
 2123000    1.0069973   -2.4401306   -2.4401306   -1.4427955  0.070048778   -2.4401306   0.99733509   587749 
 2124000    1.0074299   -2.4403328   -2.4403328   -1.4425692  0.062620503   -2.4403328   0.99776355   587749 
 2125000    1.0067937   -2.4400935   -2.4400935   -1.4429601  0.072158447   -2.4400935   0.99713348   587749 
 2126000    1.0084257    -2.441321    -2.441321   -1.4425712  0.062883815    -2.441321   0.99874977   587749 
 2127000    1.0066592   -2.4403308   -2.4403308   -1.4433306  0.066298924   -2.4403308    0.9970002   587749 
 2128000    1.0080429   -2.4417573   -2.4417573   -1.4433867  0.059600197   -2.4417573    0.9983706   587749 
 2129000    1.0067879   -2.4399123   -2.4399123   -1.4427847  0.061258307   -2.4399123   0.99712768   587749 
 2130000    1.0076581    -2.441026    -2.441026   -1.4430365  0.065233701    -2.441026    0.9979895   587749 
 2131000    1.0077053    -2.440468    -2.440468   -1.4424318   0.06160104    -2.440468   0.99803627   587749 
 2132000    1.0079628   -2.4405584   -2.4405584   -1.4422671  0.070872651   -2.4405584   0.99829131   587749 
 2133000    1.0086789   -2.4412607   -2.4412607   -1.4422602  0.068529001   -2.4412607   0.99900057   587749 
 2134000    1.0085386   -2.4411855   -2.4411855    -1.442324  0.066294561   -2.4411855   0.99886155   587749 
 2135000     1.008879    -2.441639    -2.441639   -1.4424403  0.083088194    -2.441639    0.9991987   587749 
 2136000    1.0082495    -2.440801    -2.440801   -1.4422257  0.068941522    -2.440801   0.99857526   587749 
 2137000    1.0081097   -2.4403648   -2.4403648   -1.4419279  0.068412633   -2.4403648   0.99843684   587749 
 2138000    1.0077026   -2.4410054   -2.4410054   -1.4429718  0.065480879   -2.4410054   0.99803364   587749 
 2139000    1.0075712   -2.4403992   -2.4403992   -1.4424957  0.063635053   -2.4403992   0.99790348   587749 
 2140000    1.0093977   -2.4416143   -2.4416143   -1.4419019  0.067708117   -2.4416143   0.99971248   587749 
 2141000    1.0100634   -2.4423363   -2.4423363   -1.4419645  0.064828913   -2.4423363    1.0003718   587749 
 2142000    1.0071498   -2.4391599   -2.4391599   -1.4416737   0.07123613   -2.4391599   0.99748616   587749 
 2143000    1.0085978   -2.4412426   -2.4412426   -1.4423223  0.086186632   -2.4412426   0.99892027   587749 
 2144000     1.006185   -2.4376734   -2.4376734   -1.4411428  0.076053581   -2.4376734   0.99653054   587749 
 2145000    1.0067758    -2.438144    -2.438144   -1.4410284  0.064250781    -2.438144   0.99711569   587749 
 2146000    1.0094672   -2.4407975   -2.4407975   -1.4410163  0.065126362   -2.4407975   0.99978123   587749 
 2147000    1.0085045   -2.4401439   -2.4401439   -1.4413161  0.063045193   -2.4401439   0.99882777   587749 
 2148000    1.0080124   -2.4401556   -2.4401556   -1.4418151  0.068208499   -2.4401556   0.99834048   587749 
 2149000    1.0067429    -2.438648    -2.438648   -1.4415649  0.069026735    -2.438648   0.99708312   587749 
 2150000     1.007612   -2.4391179   -2.4391179    -1.441174  0.073501857   -2.4391179   0.99794389   587749 
 2151000    1.0072994    -2.439512    -2.439512   -1.4418778  0.061495784    -2.439512   0.99763427   587749 
 2152000    1.0081249   -2.4405005   -2.4405005   -1.4420486  0.067201417   -2.4405005   0.99845188   587749 
 2153000    1.0075472   -2.4396611   -2.4396611   -1.4417814  0.071994503   -2.4396611   0.99787967   587749 
 2154000    1.0071965   -2.4383134   -2.4383134   -1.4407811  0.081114409   -2.4383134   0.99753234   587749 
 2155000    1.0073651   -2.4383978   -2.4383978   -1.4406984  0.069475808   -2.4383978   0.99769931   587749 
 2156000    1.0080591   -2.4390908   -2.4390908   -1.4407042  0.066880945   -2.4390908   0.99838666   587749 
 2157000    1.0067559   -2.4383591   -2.4383591   -1.4412631  0.060277216   -2.4383591   0.99709597   587749 
 2158000     1.006304   -2.4380215   -2.4380215   -1.4413731  0.073003724   -2.4380215   0.99664848   587749 
 2159000    1.0063962   -2.4378951   -2.4378951   -1.4411554  0.068739215   -2.4378951   0.99673972   587749 
 2160000    1.0069752   -2.4383349   -2.4383349   -1.4410217  0.068871827   -2.4383349   0.99731316   587749 
 2161000     1.008275   -2.4398202   -2.4398202   -1.4412196  0.065147064   -2.4398202   0.99860056   587749 
 2162000    1.0082078   -2.4395388   -2.4395388   -1.4410049  0.072804268   -2.4395388   0.99853394   587749 
 2163000    1.0095919   -2.4404367   -2.4404367   -1.4405318  0.067399408   -2.4404367   0.99990482   587749 
 2164000    1.0084999    -2.439336    -2.439336   -1.4405127  0.068232013    -2.439336   0.99882325   587749 
 2165000    1.0098954   -2.4416591   -2.4416591   -1.4414537  0.063561963   -2.4416591    1.0002053   587749 
 2166000    1.0090897   -2.4405402   -2.4405402   -1.4411328  0.067128722   -2.4405402   0.99940738   587749 
 2167000    1.0075233   -2.4391978   -2.4391978   -1.4413418  0.071682906   -2.4391978   0.99785599   587749 
 2168000    1.0078765   -2.4396881   -2.4396881   -1.4414822  0.073913061   -2.4396881   0.99820584   587749 
 2169000    1.0083603   -2.4400356   -2.4400356   -1.4413506  0.067455791   -2.4400356   0.99868499   587749 
 2170000    1.0076092   -2.4400053   -2.4400053   -1.4420641  0.064032801   -2.4400053   0.99794116   587749 
 2171000    1.0088395   -2.4417404   -2.4417404   -1.4425808  0.080561018   -2.4417404   0.99915956   587749 
 2172000    1.0080541   -2.4415356   -2.4415356   -1.4431539  0.066674783   -2.4415356    0.9983817   587749 
 2173000    1.0078847    -2.441231    -2.441231   -1.4430171   0.06891785    -2.441231   0.99821394   587749 
 2174000    1.0086811   -2.4412808   -2.4412808   -1.4422781  0.068405636   -2.4412808   0.99900267   587749 
 2175000    1.0085897   -2.4411221   -2.4411221     -1.44221  0.062036699   -2.4411221   0.99891217   587749 
 2176000    1.0101128   -2.4428541   -2.4428541   -1.4424334  0.072114274   -2.4428541    1.0004207   587749 
 2177000    1.0105146    -2.443202    -2.443202   -1.4423834  0.075532072    -2.443202    1.0008186   587749 
 2178000      1.00824   -2.4407302   -2.4407302   -1.4421643  0.081044771   -2.4407302   0.99856581   587749 
 2179000    1.0081497   -2.4405157   -2.4405157   -1.4420393  0.074798068   -2.4405157   0.99847641   587749 
 2180000    1.0066348   -2.4399909   -2.4399909   -1.4430148  0.073850796   -2.4399909   0.99697602   587749 
 2181000    1.0065055    -2.439609    -2.439609    -1.442761  0.067068095    -2.439609   0.99684803   587749 
 2182000    1.0073907    -2.440416    -2.440416   -1.4426912  0.067856723    -2.440416   0.99772475   587749 
 2183000    1.0068319    -2.439392    -2.439392   -1.4422207  0.077209984    -2.439392    0.9971713   587749 
 2184000    1.0064157   -2.4397462   -2.4397462   -1.4429872  0.074008947   -2.4397462   0.99675907   587749 
 2185000    1.0072102   -2.4399182   -2.4399182   -1.4423722  0.070448685   -2.4399182   0.99754595   587749 
 2186000    1.0085984   -2.4409354   -2.4409354   -1.4420146  0.069094084   -2.4409354   0.99892077   587749 
 2187000    1.0055328   -2.4385452   -2.4385452   -1.4426605  0.062369518   -2.4385452   0.99588467   587749 
 2188000    1.0057444   -2.4389155   -2.4389155   -1.4428212   0.08222611   -2.4389155   0.99609425   587749 
 2189000     1.008531   -2.4410178   -2.4410178   -1.4421637  0.061507254   -2.4410178   0.99885408   587749 
 2190000    1.0068279   -2.4394174   -2.4394174   -1.4422501  0.056031567   -2.4394174   0.99716726   587749 
 2191000    1.0077102   -2.4406497   -2.4406497   -1.4426086  0.067073471   -2.4406497   0.99804109   587749 
 2192000    1.0070219   -2.4397259   -2.4397259   -1.4423665  0.065696323   -2.4397259   0.99735943   587749 
 2193000    1.0070756   -2.4404022   -2.4404022   -1.4429896  0.067592875   -2.4404022    0.9974126   587749 
 2194000     1.009287   -2.4415376   -2.4415376   -1.4419348  0.068696004   -2.4415376   0.99960283   587749 
 2195000    1.0077433    -2.440354    -2.440354     -1.44228  0.066247403    -2.440354   0.99807397   587749 
 2196000    1.0081146   -2.4406457   -2.4406457   -1.4422041  0.072964949   -2.4406457   0.99844161   587749 
 2197000    1.0082649   -2.4411276   -2.4411276   -1.4425371  0.068208216   -2.4411276   0.99859048   587749 
 2198000    1.0073752   -2.4400703   -2.4400703   -1.4423609  0.070473115   -2.4400703   0.99770939   587749 
 2199000    1.0063219   -2.4392859   -2.4392859   -1.4426198  0.066787215   -2.4392859   0.99666613   587749 
 2200000    1.0072715   -2.4402407   -2.4402407   -1.4426341  0.075193326   -2.4402407   0.99760662   587749 
 2201000    1.0083439   -2.4414597   -2.4414597    -1.442791  0.071576263   -2.4414597   0.99866873   587749 
 2202000    1.0086995   -2.4419302   -2.4419302   -1.4429093  0.064024064   -2.4419302    0.9990209   587749 
 2203000    1.0060978    -2.439013    -2.439013   -1.4425688  0.068402483    -2.439013   0.99644417   587749 
 2204000    1.0077295   -2.4405809   -2.4405809   -1.4425206  0.081587605   -2.4405809   0.99806029   587749 
 2205000    1.0072372   -2.4397878   -2.4397878   -1.4422151  0.076693996   -2.4397878   0.99757271   587749 
 2206000    1.0082041   -2.4412067   -2.4412067   -1.4426764  0.063195434   -2.4412067   0.99853029   587749 
 2207000    1.0081661   -2.4407988   -2.4407988   -1.4423061  0.063855492   -2.4407988   0.99849267   587749 
 2208000    1.0063351   -2.4397275   -2.4397275   -1.4430482  0.080954583   -2.4397275   0.99667927   587749 
 2209000    1.0064311   -2.4403742   -2.4403742   -1.4435999  0.058226971   -2.4403742   0.99677433   587749 
 2210000    1.0058367   -2.4393096   -2.4393096   -1.4431239  0.063343898   -2.4393096   0.99618566   587749 
 2211000    1.0079487   -2.4409254   -2.4409254    -1.442648  0.064180038   -2.4409254   0.99827733   587749 
 2212000    1.0084189    -2.441191    -2.441191    -1.442448  0.067001408    -2.441191   0.99874302   587749 
 2213000    1.0079055   -2.4404692   -2.4404692   -1.4422347  0.066300564   -2.4404692   0.99823458   587749 
 2214000    1.0089181   -2.4411908   -2.4411908   -1.4419534  0.078197048   -2.4411908   0.99923744   587749 
 2215000    1.0094623   -2.4419378   -2.4419378   -1.4421614  0.058321427   -2.4419378   0.99977639   587749 
 2216000    1.0081608   -2.4409245   -2.4409245   -1.4424371  0.069297076   -2.4409245   0.99848746   587749 
 2217000    1.0089001   -2.4421644   -2.4421644   -1.4429447  0.072029384   -2.4421644   0.99921961   587749 
 2218000    1.0074836   -2.4411744   -2.4411744   -1.4433576  0.066472734   -2.4411744   0.99781676   587749 
 2219000    1.0090938   -2.4430081   -2.4430081   -1.4435966  0.059449444   -2.4430081   0.99941146   587749 
 2220000    1.0088653   -2.4427417   -2.4427417   -1.4435565  0.065062153   -2.4427417   0.99918519   587749 
 2221000      1.00884   -2.4435419   -2.4435419   -1.4443818  0.063741324   -2.4435419   0.99916008   587749 
 2222000    1.0064295   -2.4411476   -2.4411476   -1.4443749   0.07360212   -2.4411476    0.9967727   587749 
 2223000     1.005778    -2.440103    -2.440103   -1.4439754  0.072420608    -2.440103   0.99612752   587749 
 2224000    1.0084046   -2.4417624   -2.4417624   -1.4430335  0.056047885   -2.4417624    0.9987289   587749 
 2225000    1.0094417   -2.4428285   -2.4428285   -1.4430725  0.061143503   -2.4428285   0.99975605   587749 
 2226000    1.0086101   -2.4414872   -2.4414872   -1.4425549  0.071615549   -2.4414872   0.99893238   587749 
 2227000    1.0078757     -2.44146     -2.44146    -1.443255   0.07609164     -2.44146   0.99820507   587749 
 2228000     1.008058   -2.4415465   -2.4415465   -1.4431609   0.07781344   -2.4415465   0.99838559   587749 
 2229000     1.008416   -2.4422332   -2.4422332   -1.4434931  0.072950101   -2.4422332   0.99874014   587749 
 2230000    1.0072233   -2.4409248   -2.4409248   -1.4433658  0.074878424   -2.4409248   0.99755895   587749 
 2231000    1.0073814   -2.4411674   -2.4411674    -1.443452  0.087439973   -2.4411674   0.99771548   587749 
 2232000    1.0088438   -2.4418803   -2.4418803   -1.4427165   0.06653183   -2.4418803   0.99916388   587749 
 2233000    1.0071912   -2.4405598   -2.4405598   -1.4430327  0.079762546   -2.4405598    0.9975271   587749 
 2234000    1.0073929   -2.4413038   -2.4413038   -1.4435769    0.0687585   -2.4413038   0.99772692   587749 
 2235000    1.0093763   -2.4420624   -2.4420624   -1.4423712  0.073357281   -2.4420624   0.99969126   587749 
 2236000     1.008877   -2.4418987   -2.4418987   -1.4427019  0.073507032   -2.4418987   0.99919679   587749 
 2237000    1.0073235   -2.4409947   -2.4409947   -1.4433365  0.071063934   -2.4409947   0.99765819   587749 
 2238000    1.0083905   -2.4423233   -2.4423233   -1.4436084   0.06363662   -2.4423233   0.99871491   587749 
 2239000    1.0078692   -2.4416359   -2.4416359   -1.4434373  0.064968899   -2.4416359   0.99819864   587749 
 2240000    1.0075688   -2.4411594   -2.4411594   -1.4432584  0.067526978   -2.4411594   0.99790107   587749 
 2241000    1.0072411   -2.4405337   -2.4405337   -1.4429572  0.064126826   -2.4405337   0.99757651   587749 
 2242000    1.0073775   -2.4409709   -2.4409709   -1.4432593  0.059633086   -2.4409709   0.99771159   587749 
 2243000    1.0084811   -2.4415298   -2.4415298   -1.4427252  0.079764174   -2.4415298   0.99880465   587749 
 2244000    1.0095409   -2.4427048   -2.4427048   -1.4428506  0.066554613   -2.4427048   0.99985423   587749 
 2245000    1.0071612   -2.4405564   -2.4405564    -1.443059  0.068521004   -2.4405564   0.99749743   587749 
 2246000    1.0086821   -2.4412913   -2.4412913   -1.4422876  0.067401975   -2.4412913   0.99900371   587749 
 2247000    1.0083549   -2.4406328   -2.4406328   -1.4419531   0.06502448   -2.4406328   0.99867967   587749 
 2248000    1.0095641   -2.4414137   -2.4414137   -1.4415365  0.064394732   -2.4414137   0.99987726   587749 
 2249000    1.0088478   -2.4409875   -2.4409875   -1.4418197  0.060237023   -2.4409875   0.99916786   587749 
 2250000    1.0101322   -2.4423514   -2.4423514   -1.4419115  0.067774054   -2.4423514    1.0004399   587749 
 2251000    1.0105699   -2.4428637   -2.4428637   -1.4419903  0.067540202   -2.4428637    1.0008734   587749 
 2252000     1.009851   -2.4415287   -2.4415287   -1.4413673  0.062562684   -2.4415287    1.0001614   587749 
 2253000    1.0089711   -2.4414802   -2.4414802   -1.4421903  0.078127625   -2.4414802   0.99928991   587749 
 2254000    1.0088232    -2.441663    -2.441663   -1.4425195  0.067945148    -2.441663   0.99914348   587749 
 2255000    1.0098724   -2.4414607   -2.4414607    -1.441278  0.073915814   -2.4414607    1.0001826   587749 
 2256000    1.0092696   -2.4415939   -2.4415939   -1.4420083  0.070206008   -2.4415939   0.99958555   587749 
 2257000    1.0074572   -2.4400989   -2.4400989   -1.4423083  0.073642614   -2.4400989   0.99779061   587749 
 2258000    1.0075906   -2.4402927   -2.4402927     -1.44237  0.064088225   -2.4402927   0.99792268   587749 
 2259000     1.008098   -2.4400543   -2.4400543    -1.441629  0.067023936   -2.4400543   0.99842524   587749 
 2260000    1.0058162   -2.4377234   -2.4377234   -1.4415581  0.078842608   -2.4377234   0.99616529   587749 
 2261000    1.0080747   -2.4405414   -2.4405414   -1.4421393  0.063163157   -2.4405414   0.99840217   587749 
 2262000    1.0060645   -2.4382179   -2.4382179   -1.4418066  0.067681353   -2.4382179   0.99641127   587749 
 2263000     1.007388   -2.4392862   -2.4392862   -1.4415642  0.060180316   -2.4392862   0.99772198   587749 
 2264000     1.006634   -2.4386569   -2.4386569   -1.4416816  0.068055613   -2.4386569   0.99697529   587749 
 2265000    1.0075176   -2.4399858   -2.4399858   -1.4421354   0.05613043   -2.4399858   0.99785038   587749 
 2266000    1.0074004   -2.4396997   -2.4396997   -1.4419654    0.0768414   -2.4396997   0.99773426   587749 
 2267000    1.0074585   -2.4403687   -2.4403687   -1.4425768  0.070596657   -2.4403687   0.99779183   587749 
 2268000    1.0065742   -2.4395146   -2.4395146   -1.4425985  0.064623542   -2.4395146   0.99691602   587749 
 2269000     1.007359   -2.4397111   -2.4397111   -1.4420178  0.062307838   -2.4397111   0.99769328   587749 
 2270000    1.0089677   -2.4412085   -2.4412085   -1.4419219  0.066499692   -2.4412085   0.99928661   587749 
 2271000    1.0086837   -2.4405164   -2.4405164   -1.4415111  0.071006573   -2.4405164    0.9990053   587749 
 2272000     1.005277   -2.4378854   -2.4378854   -1.4422541  0.064475831   -2.4378854   0.99563131   587749 
 2273000    1.0074092   -2.4403572   -2.4403572   -1.4426141  0.082048866   -2.4403572   0.99774306   587749 
 2274000    1.0069126   -2.4397938   -2.4397938   -1.4425426  0.070450709   -2.4397938   0.99725122   587749 
 2275000    1.0067534   -2.4396822   -2.4396822   -1.4425887  0.071465841   -2.4396822   0.99709351   587749 
 2276000    1.0084574   -2.4420289   -2.4420289   -1.4432477  0.069264866   -2.4420289   0.99878116   587749 
 2277000    1.0079396   -2.4416537   -2.4416537   -1.4433854   0.05784316   -2.4416537   0.99826829   587749 
 2278000    1.0089764    -2.442971    -2.442971   -1.4436758  0.076197908    -2.442971   0.99929521   587749 
 2279000    1.0087633   -2.4423932   -2.4423932   -1.4433091  0.064946673   -2.4423932   0.99908417   587749 
 2280000    1.0084175   -2.4419371   -2.4419371   -1.4431955  0.079283318   -2.4419371   0.99874161   587749 
 2281000    1.0087445   -2.4426568   -2.4426568   -1.4435913  0.072583694   -2.4426568   0.99906551   587749 
 2282000    1.0072208   -2.4404855   -2.4404855   -1.4429291   0.06985614   -2.4404855   0.99755646   587749 
 2283000    1.0085066   -2.4428273   -2.4428273   -1.4439975  0.062305824   -2.4428273   0.99882986   587749 
 2284000    1.0075414   -2.4415523   -2.4415523   -1.4436784  0.060535061   -2.4415523   0.99787394   587749 
 2285000    1.0086546   -2.4425757   -2.4425757   -1.4435992  0.056668418   -2.4425757   0.99897652   587749 
 2286000    1.0073536   -2.4410171   -2.4410171   -1.4433291  0.067932929   -2.4410171   0.99768794   587749 
 2287000    1.0078775   -2.4409259   -2.4409259    -1.442719  0.074418347   -2.4409259   0.99820687   587749 
 2288000    1.0070441   -2.4397866   -2.4397866   -1.4424052  0.071978787   -2.4397866   0.99738147   587749 
 2289000    1.0080102   -2.4412913   -2.4412913    -1.442953  0.063869707   -2.4412913   0.99833826   587749 
 2290000     1.007022   -2.4406047   -2.4406047   -1.4432451     0.065785   -2.4406047   0.99735959   587749 
 2291000      1.00757   -2.4408855   -2.4408855   -1.4429832  0.073991254   -2.4408855   0.99790226   587749 
 2292000    1.0074743   -2.4403334   -2.4403334   -1.4425259  0.078893251   -2.4403334   0.99780751   587749 
 2293000    1.0064345   -2.4399022   -2.4399022   -1.4431245  0.065426739   -2.4399022   0.99677769   587749 
 2294000    1.0070842   -2.4413096   -2.4413096   -1.4438885  0.076198022   -2.4413096    0.9974211   587749 
 2295000     1.005908   -2.4398761   -2.4398761   -1.4436199  0.063811618   -2.4398761    0.9962562   587749 
 2296000    1.0075389   -2.4403979   -2.4403979   -1.4425265  0.069915111   -2.4403979   0.99787146   587749 
 2297000    1.0077306   -2.4412341   -2.4412341   -1.4431728  0.061573336   -2.4412341   0.99806131   587749 
 2298000    1.0046883   -2.4384046   -2.4384046   -1.4433564  0.071002247   -2.4384046   0.99504824   587749 
 2299000    1.0077092   -2.4408921   -2.4408921    -1.442852  0.064812264   -2.4408921   0.99804011   587749 
 2300000     1.007069   -2.4399333   -2.4399333   -1.4425273  0.064113212   -2.4399333   0.99740606   587749 
 2301000    1.0070074   -2.4401123   -2.4401123   -1.4427672   0.06399148   -2.4401123   0.99734507   587749 
 2302000    1.0076584   -2.4410308   -2.4410308   -1.4430409  0.071153277   -2.4410308   0.99798983   587749 
 2303000    1.0076476    -2.441135    -2.441135   -1.4431558  0.069908797    -2.441135   0.99797913   587749 
 2304000    1.0091963   -2.4419935   -2.4419935   -1.4424805  0.070588257   -2.4419935   0.99951301   587749 
 2305000     1.006949   -2.4388919   -2.4388919   -1.4416047   0.07527408   -2.4388919   0.99728719   587749 
 2306000    1.0097588   -2.4420246   -2.4420246   -1.4419546  0.066570374   -2.4420246    1.0000701   587749 
 2307000     1.009474   -2.4413631   -2.4413631   -1.4415751  0.069991744   -2.4413631   0.99978802   587749 
 2308000    1.0068565   -2.4392473   -2.4392473   -1.4420516  0.077360985   -2.4392473   0.99719566   587749 
 2309000    1.0087906   -2.4413477   -2.4413477   -1.4422365  0.075764607   -2.4413477   0.99911114   587749 
 2310000     1.007277   -2.4394358   -2.4394358   -1.4418237  0.071944855   -2.4394358   0.99761206   587749 
 2311000    1.0091523    -2.441219    -2.441219   -1.4417497  0.049412943    -2.441219   0.99946937   587749 
 2312000    1.0071815   -2.4396955   -2.4396955    -1.442178  0.066140293   -2.4396955   0.99751747   587749 
 2313000    1.0084612   -2.4411218   -2.4411218   -1.4423369  0.067705262   -2.4411218   0.99878492   587749 
 2314000    1.0066745   -2.4395845   -2.4395845   -1.4425691  0.053426565   -2.4395845   0.99701542   587749 
 2315000    1.0082275   -2.4409833   -2.4409833   -1.4424299  0.084541767   -2.4409833   0.99855343   587749 
 2316000    1.0057809    -2.438788    -2.438788   -1.4426577  0.058602831    -2.438788   0.99613031   587749 
 2317000    1.0075931   -2.4397317   -2.4397317   -1.4418065  0.068135286   -2.4397317   0.99792514   587749 
 2318000    1.0085273   -2.4405408   -2.4405408   -1.4416904  0.064943575   -2.4405408   0.99885039   587749 
 2319000    1.0092493   -2.4415041   -2.4415041   -1.4419386  0.064421956   -2.4415041   0.99956548   587749 
 2320000    1.0083062   -2.4403746   -2.4403746   -1.4417432  0.075032189   -2.4403746   0.99863138   587749 
 2321000    1.0082145   -2.4409788   -2.4409788   -1.4424382  0.071160116   -2.4409788   0.99854062   587749 
 2322000     1.007381   -2.4395661   -2.4395661    -1.441851  0.066917215   -2.4395661   0.99771509   587749 
 2323000    1.0080221   -2.4407386   -2.4407386   -1.4423885  0.064756387   -2.4407386   0.99835005   587749 
 2324000    1.0076544    -2.440436    -2.440436   -1.4424502  0.085718262    -2.440436   0.99798583   587749 
 2325000    1.0071344   -2.4400004   -2.4400004   -1.4425296  0.079095771   -2.4400004   0.99747087   587749 
 2326000    1.0079207   -2.4400207   -2.4400207   -1.4417711  0.072389245   -2.4400207   0.99824965   587749 
 2327000    1.0068756   -2.4385158   -2.4385158   -1.4413013  0.064403705   -2.4385158   0.99721451   587749 
 2328000    1.0073325   -2.4394074   -2.4394074   -1.4417404  0.063396482   -2.4394074   0.99766706   587749 
 2329000    1.0073656   -2.4389236   -2.4389236   -1.4412238  0.071757778   -2.4389236   0.99769985   587749 
 2330000    1.0080462   -2.4401813   -2.4401813   -1.4418074  0.063413062   -2.4401813   0.99837395   587749 
 2331000    1.0079905   -2.4407933   -2.4407933   -1.4424746  0.060622912   -2.4407933   0.99831873   587749 
 2332000    1.0089961   -2.4406721   -2.4406721   -1.4413574  0.071623051   -2.4406721    0.9993147   587749 
 2333000    1.0079727   -2.4396406   -2.4396406   -1.4413396  0.071628532   -2.4396406   0.99830108   587749 
 2334000    1.0097414   -2.4414355   -2.4414355   -1.4413826  0.062697072   -2.4414355    1.0000528   587749 
 2335000    1.0082486    -2.440032    -2.440032   -1.4414577  0.063211081    -2.440032   0.99857438   587749 
 2336000    1.0069557   -2.4390875   -2.4390875   -1.4417936  0.064700658   -2.4390875   0.99729384   587749 
 2337000    1.0074878   -2.4397285   -2.4397285   -1.4419075  0.067783399   -2.4397285   0.99782092   587749 
 2338000     1.006259   -2.4380658   -2.4380658    -1.441462  0.071202281   -2.4380658   0.99660383   587749 
 2339000    1.0075729   -2.4403503   -2.4403503   -1.4424452  0.061338045   -2.4403503   0.99790518   587749 
 2340000    1.0069201   -2.4402417   -2.4402417   -1.4429831  0.071484379   -2.4402417   0.99725864   587749 
 2341000    1.0079149   -2.4408537   -2.4408537   -1.4426099  0.063712203   -2.4408537   0.99824385   587749 
 2342000    1.0065374   -2.4393291   -2.4393291   -1.4424495  0.065021048   -2.4393291   0.99687959   587749 
 2343000    1.0075237   -2.4409153   -2.4409153   -1.4430588  0.070600076   -2.4409153   0.99785646   587749 
 2344000    1.0072366   -2.4403927   -2.4403927   -1.4428207  0.062929881   -2.4403927   0.99757208   587749 
 2345000    1.0059366   -2.4384354   -2.4384354   -1.4421509  0.065569256   -2.4384354   0.99628457   587749 
 2346000    1.0059368   -2.4383625   -2.4383625   -1.4420778  0.072368159   -2.4383625   0.99628474   587749 
 2347000    1.0068373   -2.4400026   -2.4400026    -1.442826  0.058306989   -2.4400026   0.99717661   587749 
 2348000    1.0061981    -2.438853    -2.438853   -1.4423095   0.05831776    -2.438853   0.99654351   587749 
 2349000    1.0082765   -2.4411247   -2.4411247   -1.4425227  0.071681527   -2.4411247   0.99860196   587749 
 2350000    1.0069412   -2.4389137   -2.4389137   -1.4416342  0.066788678   -2.4389137   0.99727951   587749 
 2351000    1.0078507   -2.4405835   -2.4405835   -1.4424033   0.07301921   -2.4405835   0.99818025   587749 
 2352000    1.0080947   -2.4401786   -2.4401786   -1.4417567  0.068185252   -2.4401786   0.99842195   587749 
 2353000    1.0075403   -2.4397254   -2.4397254   -1.4418525   0.06011506   -2.4397254   0.99787288   587749 
 2354000    1.0069032   -2.4389751   -2.4389751   -1.4417332  0.073769792   -2.4389751   0.99724192   587749 
 2355000     1.006985   -2.4393848   -2.4393848    -1.442062  0.080476085   -2.4393848   0.99732287   587749 
 2356000    1.0073359   -2.4391129   -2.4391129   -1.4414424  0.067638793   -2.4391129   0.99767043   587749 
 2357000     1.007664   -2.4397375   -2.4397375   -1.4417422  0.064363628   -2.4397375   0.99799534   587749 
 2358000    1.0080443   -2.4395895   -2.4395895   -1.4412174  0.077931683   -2.4395895   0.99837205   587749 
 2359000    1.0067739    -2.438096    -2.438096   -1.4409821   0.06895805    -2.438096   0.99711383   587749 
 2360000    1.0076616   -2.4400756   -2.4400756   -1.4420825  0.064952092   -2.4400756   0.99799304   587749 
 2361000    1.0086959   -2.4402461   -2.4402461   -1.4412287  0.066236661   -2.4402461    0.9990174   587749 
 2362000    1.0088413   -2.4400585   -2.4400585   -1.4408971  0.065467865   -2.4400585   0.99916137   587749 
 2363000    1.0085665   -2.4396044   -2.4396044   -1.4407152  0.064353714   -2.4396044   0.99888923   587749 
 2364000    1.0097273   -2.4404915   -2.4404915   -1.4404526   0.07243014   -2.4404915    1.0000389   587749 
 2365000    1.0091323   -2.4398317   -2.4398317   -1.4403821  0.062868726   -2.4398317   0.99944957   587749 
 2366000    1.0092311   -2.4402309   -2.4402309   -1.4406835   0.07074002   -2.4402309   0.99954743   587749 
 2367000    1.0089254   -2.4400009   -2.4400009   -1.4407563  0.070325602   -2.4400009   0.99924465   587749 
 2368000     1.007093   -2.4383783   -2.4383783   -1.4409484   0.07217519   -2.4383783   0.99742987   587749 
 2369000    1.0094441    -2.440482    -2.440482   -1.4407237    0.0605613    -2.440482   0.99975835   587749 
 2370000    1.0068562   -2.4378142   -2.4378142   -1.4406188  0.072761122   -2.4378142   0.99719538   587749 
 2371000    1.0072933   -2.4384444   -2.4384444   -1.4408161  0.071601723   -2.4384444   0.99762826   587749 
 2372000    1.0066349   -2.4374137   -2.4374137   -1.4404376  0.068883939   -2.4374137   0.99697611   587749 
 2373000    1.0077919   -2.4386593   -2.4386593   -1.4405372  0.061642642   -2.4386593   0.99812206   587749 
 2374000    1.0091101   -2.4390506   -2.4390506    -1.439623  0.064465375   -2.4390506    0.9994276   587749 
 2375000    1.0076938   -2.4371955   -2.4371955   -1.4391706  0.068571995   -2.4371955   0.99802487   587749 
 2376000    1.0067686    -2.437276    -2.437276   -1.4401675  0.073616574    -2.437276   0.99710853   587749 
 2377000    1.0085044    -2.439029    -2.439029   -1.4402012  0.065576469    -2.439029   0.99882775   587749 
 2378000    1.0076977   -2.4391146   -2.4391146   -1.4410858  0.061348261   -2.4391146   0.99802877   587749 
 2379000    1.0081384    -2.438478    -2.438478   -1.4400127  0.078337524    -2.438478   0.99846522   587749 
 2380000    1.0077527    -2.439197    -2.439197   -1.4411138  0.066649498    -2.439197   0.99808325   587749 
 2381000    1.0060529    -2.438375    -2.438375   -1.4419753  0.069968943    -2.438375    0.9963997   587749 
 2382000    1.0067181   -2.4390246   -2.4390246    -1.441966  0.070779113   -2.4390246   0.99705857   587749 
 2383000    1.0058599   -2.4383489   -2.4383489   -1.4421403  0.072659952   -2.4383489   0.99620864   587749 
 2384000    1.0062094   -2.4381556   -2.4381556   -1.4416008   0.06644451   -2.4381556   0.99655477   587749 
 2385000    1.0079021   -2.4398382   -2.4398382    -1.441607  0.057806542   -2.4398382   0.99823116   587749 
 2386000    1.0071957   -2.4390539   -2.4390539   -1.4415223  0.070303716   -2.4390539   0.99753156   587749 
 2387000    1.0072465   -2.4394453   -2.4394453   -1.4418634  0.067620263   -2.4394453   0.99758191   587749 
 2388000    1.0062538   -2.4390274   -2.4390274   -1.4424286  0.068217472   -2.4390274   0.99659871   587749 
 2389000    1.0077397   -2.4404802   -2.4404802   -1.4424098  0.068972972   -2.4404802   0.99807036   587749 
 2390000    1.0069887    -2.440079    -2.440079   -1.4427524  0.076301458    -2.440079    0.9973266   587749 
 2391000    1.0084012   -2.4410275   -2.4410275    -1.442302  0.065910695   -2.4410275    0.9987255   587749 
 2392000    1.0088809   -2.4405961   -2.4405961   -1.4413955  0.072999464   -2.4405961    0.9992006   587749 
 2393000    1.0086139   -2.4417165   -2.4417165   -1.4427803  0.065177778   -2.4417165    0.9989362   587749 
 2394000    1.0091984   -2.4416535   -2.4416535   -1.4421384   0.06572723   -2.4416535   0.99951511   587749 
 2395000    1.0099396   -2.4415195   -2.4415195   -1.4412703   0.07319644   -2.4415195    1.0002491   587749 
 2396000    1.0106178   -2.4430572   -2.4430572   -1.4421364  0.070959502   -2.4430572    1.0009209   587749 
 2397000    1.0091509   -2.4421329   -2.4421329   -1.4426649  0.067167954   -2.4421329   0.99946802   587749 
 2398000    1.0061796   -2.4400886   -2.4400886   -1.4435634  0.068915916   -2.4400886    0.9965252   587749 
 2399000    1.0062416   -2.4401541   -2.4401541   -1.4435675  0.056744855   -2.4401541   0.99658662   587749 
 2400000    1.0051755   -2.4389528   -2.4389528    -1.443422  0.063385912   -2.4389528   0.99553072   587749 
 2401000    1.0066915   -2.4407278   -2.4407278   -1.4436956  0.070846671   -2.4407278   0.99703223   587749 
 2402000    1.0067998   -2.4407565   -2.4407565    -1.443617   0.07355154   -2.4407565   0.99713951   587749 
 2403000    1.0069231   -2.4402321   -2.4402321   -1.4429706  0.062905903   -2.4402321   0.99726156   587749 
 2404000    1.0076661   -2.4410914   -2.4410914   -1.4430939  0.067984887   -2.4410914   0.99799748   587749 
 2405000        1.008   -2.4404208   -2.4404208   -1.4420927  0.070683916   -2.4404208   0.99832812   587749 
 2406000    1.0089173   -2.4424762   -2.4424762   -1.4432396  0.061102538   -2.4424762   0.99923668   587749 
 2407000    1.0089322   -2.4419321   -2.4419321   -1.4426807  0.058705171   -2.4419321   0.99925137   587749 
 2408000    1.0085869   -2.4415317   -2.4415317   -1.4426222  0.062738069   -2.4415317   0.99890944   587749 
 2409000    1.0080447   -2.4410577   -2.4410577   -1.4426852  0.061192299   -2.4410577   0.99837244   587749 
 2410000    1.0076725   -2.4403888   -2.4403888    -1.442385  0.082509726   -2.4403888   0.99800381   587749 
 2411000    1.0089158   -2.4413215   -2.4413215   -1.4420863  0.064103896   -2.4413215   0.99923522   587749 
 2412000    1.0075921   -2.4401018   -2.4401018   -1.4421777  0.058107562   -2.4401018   0.99792416   587749 
 2413000     1.008375   -2.4408558   -2.4408558   -1.4421562  0.065461881   -2.4408558   0.99869953   587749 
 2414000    1.0073484   -2.4397149   -2.4397149   -1.4420321  0.059281772   -2.4397149   0.99768277   587749 
 2415000    1.0073714   -2.4390413   -2.4390413   -1.4413357  0.072337469   -2.4390413    0.9977056   587749 
 2416000    1.0084758   -2.4400131   -2.4400131   -1.4412137  0.067951403   -2.4400131    0.9987994   587749 
 2417000    1.0071005   -2.4398094   -2.4398094   -1.4423721  0.072835447   -2.4398094   0.99743726   587749 
 2418000     1.007023   -2.4394614   -2.4394614   -1.4421009  0.076211575   -2.4394614   0.99736054   587749 
 2419000    1.0068576   -2.4394578   -2.4394578   -1.4422611  0.068163425   -2.4394578   0.99719672   587749 
 2420000    1.0061189   -2.4391315   -2.4391315   -1.4426664  0.068990202   -2.4391315   0.99646509   587749 
 2421000    1.0070639   -2.4397327   -2.4397327   -1.4423316  0.060704291   -2.4397327   0.99740108   587749 
 2422000    1.0066599   -2.4400289   -2.4400289   -1.4430279  0.055924518   -2.4400289   0.99700092   587749 
 2423000    1.0065194   -2.4394336   -2.4394336   -1.4425719  0.064955657   -2.4394336   0.99686176   587749 
 2424000    1.0070237   -2.4390289   -2.4390289   -1.4416677  0.061143941   -2.4390289   0.99736125   587749 
 2425000    1.0078742   -2.4400481   -2.4400481   -1.4418445  0.067322428   -2.4400481    0.9982036   587749 
 2426000    1.0078226   -2.4390271   -2.4390271   -1.4408747  0.076442053   -2.4390271   0.99815247   587749 
 2427000    1.0065882   -2.4388255   -2.4388255   -1.4418956  0.067226045   -2.4388255   0.99692994   587749 
 2428000    1.0075947   -2.4398537   -2.4398537    -1.441927  0.072616899   -2.4398537   0.99792674   587749 
 2429000    1.0093169   -2.4416028   -2.4416028   -1.4419703  0.065080196   -2.4416028   0.99963244   587749 
 2430000    1.0081126   -2.4400972   -2.4400972   -1.4416575  0.074843585   -2.4400972   0.99843964   587749 
 2431000    1.0081472   -2.4403062   -2.4403062   -1.4418323  0.073855652   -2.4403062   0.99847398   587749 
 2432000    1.0089863   -2.4413151   -2.4413151   -1.4420101  0.073323232   -2.4413151   0.99930503   587749 
 2433000    1.0098195   -2.4418326   -2.4418326   -1.4417025  0.075272407   -2.4418326    1.0001302   587749 
 2434000    1.0078065   -2.4402999   -2.4402999   -1.4421634  0.075414568   -2.4402999    0.9981365   587749 
 2435000    1.0096268   -2.4422426   -2.4422426   -1.4423033  0.071255901   -2.4422426   0.99993934   587749 
 2436000    1.0088989   -2.4418035   -2.4418035   -1.4425851  0.078050511   -2.4418035   0.99921845   587749 
 2437000    1.0100563   -2.4421897   -2.4421897    -1.441825  0.071132774   -2.4421897    1.0003647   587749 
 2438000    1.0083731   -2.4406303   -2.4406303   -1.4419327  0.077568468   -2.4406303   0.99869768   587749 
 2439000    1.0095484   -2.4419442   -2.4419442   -1.4420825  0.072749103   -2.4419442   0.99986167   587749 
 2440000    1.0088117   -2.4412699   -2.4412699   -1.4421378  0.064997055   -2.4412699   0.99913205   587749 
 2441000    1.0075921   -2.4401005   -2.4401005   -1.4421764  0.063317237   -2.4401005   0.99792416   587749 
 2442000    1.0092175   -2.4419936   -2.4419936   -1.4424597  0.063065666   -2.4419936   0.99953393   587749 
 2443000     1.007099    -2.439335    -2.439335   -1.4418991  0.067861213    -2.439335    0.9974358   587749 
 2444000    1.0057929   -2.4387752   -2.4387752   -1.4426329  0.074969446   -2.4387752   0.99614228   587749 
 2445000    1.0080199   -2.4401186   -2.4401186   -1.4417707   0.07451704   -2.4401186   0.99834788   587749 
 2446000    1.0073619   -2.4401892   -2.4401892    -1.442493  0.062657954   -2.4401892   0.99769618   587749 
 2447000    1.0079777    -2.440829    -2.440829   -1.4425229  0.063167665    -2.440829   0.99830609   587749 
 2448000    1.0084602   -2.4412613   -2.4412613   -1.4424774  0.069526974   -2.4412613   0.99878394   587749 
 2449000    1.0067471   -2.4395405   -2.4395405   -1.4424532  0.062268247   -2.4395405    0.9970873   587749 
 2450000     1.006793   -2.4391876   -2.4391876   -1.4420549  0.068702661   -2.4391876    0.9971327   587749 
 2451000    1.0092905   -2.4415991   -2.4415991   -1.4419929  0.059064355   -2.4415991   0.99960623   587749 
 2452000    1.0079932   -2.4411278   -2.4411278   -1.4428064  0.070726345   -2.4411278   0.99832142   587749 
 2453000    1.0063685   -2.4398516   -2.4398516   -1.4431392  0.074815746   -2.4398516   0.99671235   587749 
 2454000    1.0072384   -2.4410242   -2.4410242   -1.4434504  0.067308424   -2.4410242   0.99757389   587749 
 2455000    1.0063446   -2.4404368   -2.4404368   -1.4437482  0.063360959   -2.4404368    0.9966886   587749 
 2456000     1.007221    -2.440972    -2.440972   -1.4434154  0.057184538    -2.440972    0.9975566   587749 
 2457000    1.0057576   -2.4396048   -2.4396048   -1.4434975  0.071345217   -2.4396048   0.99610731   587749 
 2458000    1.0071224   -2.4408432   -2.4408432   -1.4433842  0.065648137   -2.4408432   0.99745897   587749 
 2459000    1.0076629   -2.4416548   -2.4416548   -1.4436605  0.051834541   -2.4416548   0.99799432   587749 
 2460000     1.007966   -2.4415311   -2.4415311   -1.4432367  0.070008542   -2.4415311   0.99829444   587749 
 2461000    1.0080776   -2.4417341   -2.4417341   -1.4433291    0.0818884   -2.4417341   0.99840504   587749 
 2462000     1.009159   -2.4427323   -2.4427323   -1.4432562   0.06021351   -2.4427323   0.99947608   587749 
 2463000    1.0094409    -2.443271    -2.443271   -1.4435158  0.068324078    -2.443271   0.99975521   587749 
 2464000    1.0065181   -2.4404713   -2.4404713   -1.4436108  0.066979987   -2.4404713   0.99686046   587749 
 2465000    1.0065562   -2.4413899   -2.4413899   -1.4444918   0.06925735   -2.4413899   0.99689819   587749 
 2466000    1.0081754   -2.4434224   -2.4434224   -1.4449205  0.069346704   -2.4434224   0.99850191   587749 
 2467000    1.0057367   -2.4408542   -2.4408542   -1.4447676  0.072251308   -2.4408542   0.99608658   587749 
 2468000    1.0070115   -2.4422336   -2.4422336   -1.4448845  0.074765426   -2.4422336   0.99734914   587749 
 2469000    1.0084747   -2.4438211   -2.4438211   -1.4450227  0.063667448   -2.4438211   0.99879831   587749 
 2470000    1.0073401   -2.4430222   -2.4430222   -1.4453476   0.07399407   -2.4430222    0.9976746   587749 
 2471000    1.0071093   -2.4425217   -2.4425217   -1.4450757  0.078467255   -2.4425217   0.99744596   587749 
 2472000    1.0084116   -2.4433151   -2.4433151   -1.4445793  0.064482823   -2.4433151   0.99873585   587749 
 2473000    1.0087576   -2.4433654   -2.4433654    -1.444287  0.067959625   -2.4433654   0.99907844   587749 
 2474000    1.0093192   -2.4439528   -2.4439528   -1.4443181   0.07865119   -2.4439528   0.99963466   587749 
 2475000    1.0088318   -2.4433972   -2.4433972   -1.4442452  0.084673834   -2.4433972   0.99915195   587749 
 2476000    1.0092205   -2.4441521   -2.4441521   -1.4446152  0.072360047   -2.4441521   0.99953696   587749 
 2477000    1.0079735     -2.44198     -2.44198   -1.4436781  0.068083745     -2.44198   0.99830187   587749 
 2478000    1.0098824   -2.4440331   -2.4440331   -1.4438406  0.067462636   -2.4440331    1.0001925   587749 
 2479000     1.007959   -2.4427876   -2.4427876   -1.4445001  0.078871014   -2.4427876   0.99828752   587749 
 2480000    1.0077921   -2.4430843   -2.4430843    -1.444962  0.070432467   -2.4430843   0.99812227   587749 
 2481000    1.0064835    -2.441814    -2.441814   -1.4449878  0.072812214    -2.441814   0.99682616   587749 
 2482000    1.0078336   -2.4417422   -2.4417422   -1.4435789  0.062473552   -2.4417422   0.99816339   587749 
 2483000    1.0082323   -2.4415284   -2.4415284   -1.4429702  0.070812647   -2.4415284   0.99855822   587749 
 2484000    1.0070157    -2.440992    -2.440992   -1.4436387  0.064650372    -2.440992   0.99735332   587749 
 2485000    1.0064309   -2.4406058   -2.4406058   -1.4438317  0.069111426   -2.4406058   0.99677411   587749 
 2486000    1.0059429    -2.440867    -2.440867   -1.4445762  0.057225035    -2.440867   0.99629077   587749 
 2487000    1.0064965   -2.4408329   -2.4408329   -1.4439939  0.063188931   -2.4408329   0.99683907   587749 
 2488000    1.0073536   -2.4412871   -2.4412871   -1.4435992  0.074292159   -2.4412871   0.99768797   587749 
 2489000    1.0069671   -2.4412463   -2.4412463   -1.4439412  0.073154801   -2.4412463   0.99730513   587749 
 2490000    1.0062193   -2.4402111   -2.4402111   -1.4436466  0.064430131   -2.4402111    0.9965645   587749 
 2491000    1.0080347   -2.4419485   -2.4419485    -1.443586  0.067578521   -2.4419485   0.99836254   587749 
 2492000    1.0060389   -2.4395717   -2.4395717   -1.4431859  0.070150627   -2.4395717   0.99638585   587749 
 2493000    1.0063385   -2.4402892   -2.4402892   -1.4436066  0.060350241   -2.4402892    0.9966826   587749 
 2494000    1.0060786    -2.441152    -2.441152   -1.4447268  0.069705295    -2.441152   0.99642524   587749 
 2495000    1.0060209   -2.4404081   -2.4404081   -1.4440401  0.062598205   -2.4404081   0.99636801   587749 
 2496000    1.0049102   -2.4391667   -2.4391667   -1.4438987  0.058411726   -2.4391667     0.995268   587749 
 2497000    1.0059041   -2.4398208   -2.4398208   -1.4435685  0.053562731   -2.4398208   0.99625234   587749 
 2498000    1.0061281   -2.4406125   -2.4406125   -1.4441383  0.062078807   -2.4406125   0.99647417   587749 
 2499000    1.0069297   -2.4406739   -2.4406739   -1.4434058  0.061852299   -2.4406739   0.99726813   587749 
 2500000    1.0074712   -2.4412653   -2.4412653   -1.4434609  0.071667423   -2.4412653   0.99780445   587749 
 2501000    1.0082106   -2.4417035   -2.4417035   -1.4431668  0.069585538   -2.4417035   0.99853674   587749 
 2502000    1.0090149   -2.4428426   -2.4428426   -1.4435093  0.058387097   -2.4428426   0.99933335   587749 
 2503000    1.0081328    -2.442464    -2.442464   -1.4440043  0.065921255    -2.442464   0.99845969   587749 
 2504000    1.0075131   -2.4415552   -2.4415552   -1.4437093  0.069568584   -2.4415552   0.99784598   587749 
 2505000    1.0083729   -2.4422441   -2.4422441   -1.4435466   0.06926965   -2.4422441   0.99869748   587749 
 2506000    1.0078341   -2.4420562   -2.4420562   -1.4438923  0.067567169   -2.4420562   0.99816388   587749 
 2507000    1.0080132   -2.4420308   -2.4420308   -1.4436895  0.069268824   -2.4420308   0.99834123   587749 
 2508000    1.0080066   -2.4423785   -2.4423785   -1.4440438  0.070604527   -2.4423785   0.99833469   587749 
 2509000    1.0080524    -2.442366    -2.442366    -1.443986   0.07528721    -2.442366   0.99838001   587749 
 2510000    1.0073575   -2.4411318   -2.4411318     -1.44344    0.0788042   -2.4411318   0.99769182   587749 
 2511000    1.0058373   -2.4400567   -2.4400567   -1.4438704  0.069220269   -2.4400567   0.99618622   587749 
 2512000    1.0075986     -2.44212     -2.44212   -1.4441893  0.068611071     -2.44212   0.99793064   587749 
 2513000    1.0086202   -2.4430633   -2.4430633   -1.4441209  0.071669994   -2.4430633   0.99894241   587749 
 2514000    1.0084693   -2.4434451   -2.4434451   -1.4446522   0.06109152   -2.4434451   0.99879295   587749 
 2515000    1.0084935   -2.4431439   -2.4431439    -1.444327  0.065263106   -2.4431439   0.99881694   587749 
 2516000     1.007771   -2.4429894   -2.4429894   -1.4448881  0.065557626   -2.4429894   0.99810135   587749 
 2517000    1.0063374    -2.441906    -2.441906   -1.4452245  0.073329836    -2.441906   0.99668155   587749 
 2518000    1.0072348   -2.4428361   -2.4428361   -1.4452657  0.072221954   -2.4428361   0.99757034   587749 
 2519000    1.0084405   -2.4438328   -2.4438328   -1.4450684   0.07515258   -2.4438328   0.99876442   587749 
 2520000    1.0078596   -2.4434717   -2.4434717   -1.4452826   0.07233813   -2.4434717   0.99818912   587749 
 2521000    1.0076405   -2.4435542   -2.4435542   -1.4455821  0.070249951   -2.4435542    0.9979721   587749 
 2522000    1.0089621   -2.4449651   -2.4449651   -1.4456841  0.068541138   -2.4449651   0.99928106   587749 
 2523000     1.006407   -2.4418585   -2.4418585    -1.445108  0.066354046   -2.4418585   0.99675048   587749 
 2524000    1.0063497   -2.4421996   -2.4421996   -1.4455059  0.081424781   -2.4421996   0.99669366   587749 
 2525000    1.0076947   -2.4429401   -2.4429401   -1.4449142  0.065812547   -2.4429401   0.99802583   587749 
 2526000    1.0083654   -2.4433524   -2.4433524   -1.4446624  0.070670062   -2.4433524      0.99869   587749 
 2527000    1.0068456   -2.4421439   -2.4421439   -1.4449591  0.074856345   -2.4421439   0.99718481   587749 
 2528000    1.0092371   -2.4443034   -2.4443034     -1.44475  0.068104383   -2.4443034   0.99955335   587749 
 2529000    1.0100376   -2.4448339   -2.4448339   -1.4444877  0.062324229   -2.4448339    1.0003462   587749 
 2530000    1.0082393   -2.4432871   -2.4432871    -1.444722  0.076995162   -2.4432871   0.99856515   587749 
 2531000    1.0071677   -2.4418059   -2.4418059   -1.4443021  0.068327611   -2.4418059   0.99750383   587749 
 2532000    1.0064867   -2.4408659   -2.4408659   -1.4440365  0.079498293   -2.4408659   0.99682941   587749 
 2533000    1.0070799   -2.4418607   -2.4418607   -1.4444438  0.064366221   -2.4418607   0.99741687   587749 
 2534000    1.0084081   -2.4428741   -2.4428741   -1.4441417    0.0719151   -2.4428741   0.99873238   587749 
 2535000    1.0091792   -2.4435575   -2.4435575   -1.4440615  0.064877728   -2.4435575     0.999496   587749 
 2536000    1.0045579   -2.4405983   -2.4405983   -1.4456792  0.069597979   -2.4405983   0.99491912   587749 
 2537000    1.0071674   -2.4431259   -2.4431259   -1.4456223  0.070442187   -2.4431259   0.99750359   587749 
 2538000    1.0059907   -2.4417775   -2.4417775   -1.4454394  0.064339959   -2.4417775   0.99633813   587749 
 2539000    1.0059015   -2.4416464   -2.4416464   -1.4453966  0.062004861   -2.4416464   0.99624981   587749 
 2540000    1.0061577   -2.4408268   -2.4408268   -1.4443233  0.069484523   -2.4408268   0.99650352   587749 
 2541000    1.0070557   -2.4419867   -2.4419867   -1.4445937  0.065407191   -2.4419867   0.99739293   587749 
 2542000     1.007087   -2.4419394   -2.4419394   -1.4445155  0.070440428   -2.4419394   0.99742389   587749 
 2543000    1.0076565   -2.4421492   -2.4421492   -1.4441612  0.063485198   -2.4421492   0.99798797   587749 
 2544000    1.0066971   -2.4416745   -2.4416745   -1.4446367  0.065161589   -2.4416745   0.99703781   587749 
 2545000    1.0073324   -2.4413233   -2.4413233   -1.4436564  0.070464363   -2.4413233   0.99766697   587749 
 2546000    1.0082533   -2.4425168   -2.4425168   -1.4439377  0.072154773   -2.4425168   0.99857906   587749 
 2547000    1.0090928   -2.4426804   -2.4426804   -1.4432699  0.072387551   -2.4426804   0.99941052   587749 
 2548000    1.0081732   -2.4420607   -2.4420607   -1.4435611  0.076132682   -2.4420607   0.99849966   587749 
 2549000    1.0062754   -2.4410445   -2.4410445   -1.4444245  0.073928606   -2.4410445   0.99662007   587749 
 2550000    1.0073818   -2.4422236   -2.4422236   -1.4445077  0.072902957   -2.4422236   0.99771594   587749 
 2551000    1.0082265   -2.4417426   -2.4417426   -1.4431901  0.067247672   -2.4417426   0.99855253   587749 
 2552000    1.0089687   -2.4420448   -2.4420448   -1.4427573  0.062546657   -2.4420448   0.99928752   587749 
 2553000    1.0082595   -2.4409473   -2.4409473   -1.4423621  0.069273407   -2.4409473   0.99858521   587749 
 2554000    1.0090187   -2.4418325   -2.4418325   -1.4424954  0.069092317   -2.4418325   0.99933713   587749 
 2555000    1.0066414    -2.439503    -2.439503   -1.4425205  0.066579471    -2.439503   0.99698255   587749 
 2556000    1.0078748   -2.4412471   -2.4412471    -1.443043  0.068459454   -2.4412471   0.99820411   587749 
 2557000    1.0087572   -2.4421487   -2.4421487   -1.4430706  0.067636498   -2.4421487    0.9990781   587749 
 2558000    1.0092509   -2.4431119   -2.4431119   -1.4435448  0.058071497   -2.4431119   0.99956709   587749 
 2559000    1.0079241   -2.4416125   -2.4416125   -1.4433595  0.065442698   -2.4416125   0.99825301   587749 
 2560000    1.0079739   -2.4420069   -2.4420069   -1.4437046  0.055194724   -2.4420069   0.99830232   587749 
 2561000     1.005983   -2.4402393   -2.4402393   -1.4439087  0.068547353   -2.4402393   0.99633054   587749 
 2562000    1.0073899   -2.4414626   -2.4414626   -1.4437387  0.070951442   -2.4414626   0.99772389   587749 
 2563000    1.0081091   -2.4419788   -2.4419788   -1.4435426  0.070276113   -2.4419788   0.99843625   587749 
 2564000    1.0069446   -2.4412745   -2.4412745   -1.4439916  0.067704988   -2.4412745   0.99728289   587749 
 2565000    1.0058812   -2.4396959   -2.4396959   -1.4434662  0.070577893   -2.4396959   0.99622972   587749 
 2566000    1.0075385   -2.4419248   -2.4419248   -1.4440536  0.061867837   -2.4419248   0.99787112   587749 
 2567000    1.0057597   -2.4400721   -2.4400721   -1.4439628  0.073137289   -2.4400721   0.99610932   587749 
 2568000    1.0086446   -2.4431842   -2.4431842   -1.4442177  0.074000899   -2.4431842   0.99896654   587749 
 2569000    1.0076548   -2.4424678   -2.4424678   -1.4444815  0.081106765   -2.4424678   0.99798628   587749 
 2570000    1.0060385   -2.4401772   -2.4401772   -1.4437917  0.073713896   -2.4401772   0.99638551   587749 
 2571000    1.0074052   -2.4413001   -2.4413001   -1.4435611  0.069979507   -2.4413001   0.99773905   587749 
 2572000    1.0065467   -2.4410534   -2.4410534   -1.4441647  0.071746098   -2.4410534   0.99688879   587749 
 2573000     1.008565   -2.4431765   -2.4431765   -1.4442888  0.068431806   -2.4431765   0.99888771   587749 
 2574000    1.0078731   -2.4431223   -2.4431223   -1.4449198  0.067757302   -2.4431223   0.99820249   587749 
 2575000    1.0079234   -2.4431177   -2.4431177   -1.4448654   0.07357043   -2.4431177   0.99825227   587749 
 2576000     1.006833   -2.4420881   -2.4420881   -1.4449158  0.070633955   -2.4420881   0.99717232   587749 
 2577000    1.0074357   -2.4422003   -2.4422003   -1.4444311  0.070679647   -2.4422003   0.99776923   587749 
 2578000    1.0067721   -2.4418071   -2.4418071   -1.4446951  0.069484048   -2.4418071   0.99711201   587749 
 2579000    1.0092276    -2.443794    -2.443794     -1.44425  0.064841904    -2.443794   0.99954396   587749 
 2580000    1.0068843   -2.4416622   -2.4416622    -1.444439  0.070743826   -2.4416622    0.9972232   587749 
 2581000    1.0089678   -2.4442614   -2.4442614   -1.4449748  0.057725606   -2.4442614   0.99928669   587749 
 2582000    1.0086857   -2.4443732   -2.4443732   -1.4453658  0.063233155   -2.4443732   0.99900731   587749 
 2583000    1.0091912   -2.4454475   -2.4454475   -1.4459396  0.075912077   -2.4454475   0.99950789   587749 
 2584000    1.0085326    -2.445186    -2.445186   -1.4463304  0.062214744    -2.445186   0.99885566   587749 
 2585000    1.0084285    -2.444279    -2.444279   -1.4455264  0.055998144    -2.444279   0.99875258   587749 
 2586000    1.0084326   -2.4441797   -2.4441797   -1.4454231  0.074064229   -2.4441797   0.99875658   587749 
 2587000    1.0069897   -2.4429626   -2.4429626    -1.445635  0.054643506   -2.4429626   0.99732755   587749 
 2588000    1.0060897   -2.4423577   -2.4423577   -1.4459216  0.067534341   -2.4423577   0.99643616   587749 
 2589000    1.0057904   -2.4420845   -2.4420845   -1.4459447  0.079983695   -2.4420845   0.99613978   587749 
 2590000    1.0065089     -2.44238     -2.44238   -1.4455286  0.061583828     -2.44238    0.9968514   587749 
 2591000    1.0072873   -2.4437691   -2.4437691   -1.4461468  0.069824497   -2.4437691   0.99762229   587749 
 2592000    1.0060214    -2.442403    -2.442403   -1.4460345  0.064997107    -2.442403   0.99636853   587749 
 2593000    1.0041844   -2.4404998   -2.4404998   -1.4459507  0.055408079   -2.4404998   0.99454913   587749 
 2594000    1.0056669    -2.441897    -2.441897   -1.4458796  0.053702421    -2.441897   0.99601741   587749 
 2595000    1.0061871   -2.4416611   -2.4416611   -1.4451285  0.068184895   -2.4416611   0.99653263   587749 
 2596000    1.0067373   -2.4432487   -2.4432487   -1.4461711  0.051289011   -2.4432487    0.9970776   587749 
 2597000    1.0079638   -2.4434646   -2.4434646   -1.4451722  0.065504869   -2.4434646   0.99829232   587749 
 2598000    1.0076971   -2.4430426   -2.4430426   -1.4450144  0.060121839   -2.4430426    0.9980282   587749 
 2599000    1.0065976   -2.4420504   -2.4420504   -1.4451112  0.072506721   -2.4420504    0.9969392   587749 
 2600000    1.0063437   -2.4418219   -2.4418219   -1.4451342  0.065652514   -2.4418219   0.99668776   587749 
 2601000    1.0055325   -2.4403534   -2.4403534    -1.444469  0.064210879   -2.4403534   0.99588438   587749 
 2602000    1.0060901   -2.4411891   -2.4411891   -1.4447525  0.056150365   -2.4411891   0.99643661   587749 
 2603000     1.005926   -2.4416754   -2.4416754   -1.4454013  0.061349575   -2.4416754    0.9962741   587749 
 2604000    1.0052238   -2.4409357   -2.4409357   -1.4453571   0.06945773   -2.4409357   0.99557864   587749 
 2605000    1.0068613   -2.4424758   -2.4424758   -1.4452755  0.068900822   -2.4424758   0.99720035   587749 
 2606000    1.0062107    -2.441839    -2.441839    -1.445283  0.065690888    -2.441839   0.99655601   587749 
 2607000    1.0069603   -2.4421305   -2.4421305    -1.444832  0.070098985   -2.4421305   0.99729845   587749 
 2608000    1.0071118   -2.4422833   -2.4422833   -1.4448349  0.070090513   -2.4422833   0.99744843   587749 
 2609000    1.0087026   -2.4433798   -2.4433798   -1.4443558  0.069999527   -2.4433798   0.99902398   587749 
 2610000    1.0083029   -2.4435687   -2.4435687   -1.4449405  0.067433471   -2.4435687   0.99862816   587749 
 2611000    1.0085234   -2.4435082   -2.4435082   -1.4446616  0.076144533   -2.4435082   0.99884656   587749 
 2612000    1.0091838   -2.4441362   -2.4441362   -1.4446356  0.062225765   -2.4441362   0.99950065   587749 
 2613000    1.0085043    -2.442757    -2.442757   -1.4439294  0.068740787    -2.442757   0.99882763   587749 
 2614000    1.0086253   -2.4435594   -2.4435594   -1.4446119  0.073095762   -2.4435594   0.99894747   587749 
 2615000    1.0096866   -2.4456589   -2.4456589   -1.4456603  0.051767369   -2.4456589    0.9999986   587749 
 2616000    1.0084103   -2.4453033   -2.4453033   -1.4465688  0.047663808   -2.4453033   0.99873448   587749 
 2617000     1.006896   -2.4436965   -2.4436965   -1.4464618  0.070672221   -2.4436965   0.99723476   587749 
 2618000    1.0066901   -2.4442273   -2.4442273   -1.4471965   0.06576991   -2.4442273   0.99703078   587749 
 2619000    1.0069378   -2.4427909   -2.4427909   -1.4455147  0.066708802   -2.4427909   0.99727615   587749 
 2620000    1.0058477   -2.4426084   -2.4426084   -1.4464119    0.0639221   -2.4426084   0.99619646   587749 
 2621000    1.0071195   -2.4438931   -2.4438931    -1.446437   0.06562367   -2.4438931   0.99745607   587749 
 2622000    1.0050405    -2.441718    -2.441718   -1.4463209  0.067627407    -2.441718   0.99539705   587749 
 2623000     1.005962   -2.4425349   -2.4425349   -1.4462252  0.063184537   -2.4425349   0.99630968   587749 
 2624000    1.0059219    -2.442187    -2.442187   -1.4459169  0.065794721    -2.442187   0.99627002   587749 
 2625000    1.0052554   -2.4420748   -2.4420748    -1.446465  0.072642239   -2.4420748   0.99560984   587749 
 2626000     1.006633   -2.4423458   -2.4423458   -1.4453715  0.059462584   -2.4423458   0.99697429   587749 
 2627000    1.0088355   -2.4439308   -2.4439308   -1.4447752  0.071651862   -2.4439308   0.99915563   587749 
 2628000    1.0098252   -2.4451887   -2.4451887   -1.4450529  0.076467725   -2.4451887    1.0001358   587749 
 2629000    1.0085342   -2.4438889   -2.4438889   -1.4450316  0.065334281   -2.4438889   0.99885728   587749 
 2630000    1.0073368    -2.442869    -2.442869   -1.4451977  0.067746041    -2.442869   0.99767135   587749 
 2631000    1.0073373   -2.4434453   -2.4434453   -1.4457734  0.067490877   -2.4434453   0.99767185   587749 
 2632000    1.0072106   -2.4435176   -2.4435176   -1.4459713   0.06121883   -2.4435176   0.99754631   587749 
 2633000    1.0068277   -2.4430022   -2.4430022   -1.4458351  0.069677551   -2.4430022   0.99716707   587749 
 2634000    1.0095427    -2.444803    -2.444803    -1.444947  0.063796339    -2.444803   0.99985601   587749 
 2635000    1.0089832   -2.4444232   -2.4444232   -1.4451212  0.070306625   -2.4444232   0.99930194   587749 
 2636000    1.0082145   -2.4442234   -2.4442234   -1.4456828  0.067848077   -2.4442234    0.9985406   587749 
 2637000    1.0072602   -2.4435126   -2.4435126   -1.4459171  0.060599193   -2.4435126   0.99759549   587749 
 2638000    1.0062687   -2.4433033   -2.4433033   -1.4466899  0.070069973   -2.4433033   0.99661345   587749 
 2639000     1.006002   -2.4424046   -2.4424046   -1.4460552  0.064946814   -2.4424046   0.99634935   587749 
 2640000    1.0075491   -2.4442103   -2.4442103   -1.4463287  0.070292326   -2.4442103   0.99788156   587749 
 2641000     1.006225   -2.4427671   -2.4427671    -1.446197  0.069662921   -2.4427671   0.99657014   587749 
 2642000     1.007921   -2.4429713   -2.4429713   -1.4447213  0.055108952   -2.4429713   0.99824995   587749 
 2643000    1.0072832    -2.442589    -2.442589   -1.4449707  0.075404459    -2.442589   0.99761826   587749 
 2644000    1.0071547   -2.4437175   -2.4437175   -1.4462265  0.064213013   -2.4437175   0.99749093   587749 
 2645000    1.0061923   -2.4431343   -2.4431343   -1.4465964  0.073949864   -2.4431343   0.99653785   587749 
 2646000    1.0064036   -2.4428082   -2.4428082   -1.4460611  0.066662007   -2.4428082   0.99674712   587749 
 2647000    1.0077881   -2.4436373   -2.4436373    -1.445519  0.069310521   -2.4436373   0.99811832   587749 
 2648000    1.0068396    -2.442365    -2.442365   -1.4451861  0.071084651    -2.442365   0.99717894   587749 
 2649000    1.0066983   -2.4426154   -2.4426154   -1.4455765  0.066511431   -2.4426154   0.99703894   587749 
 2650000    1.0080391   -2.4431981   -2.4431981   -1.4448313   0.06903485   -2.4431981   0.99836689   587749 
 2651000    1.0068242   -2.4429053   -2.4429053   -1.4457417    0.0648709   -2.4429053   0.99716367   587749 
 2652000     1.007751    -2.443203    -2.443203   -1.4451214  0.064367172    -2.443203   0.99808153   587749 
 2653000    1.0053634   -2.4399378   -2.4399378   -1.4442209   0.06748691   -2.4399378    0.9957169   587749 
 2654000    1.0067733   -2.4416322   -2.4416322    -1.444519  0.070913473   -2.4416322   0.99711319   587749 
 2655000    1.0068336   -2.4416551   -2.4416551   -1.4444821  0.074473466   -2.4416551     0.997173   587749 
 2656000    1.0074642   -2.4429158   -2.4429158   -1.4451183  0.069711706   -2.4429158   0.99779751   587749 
 2657000    1.0069652   -2.4429818   -2.4429818   -1.4456785  0.061234632   -2.4429818   0.99730331   587749 
 2658000    1.0065203   -2.4418087   -2.4418087    -1.444946  0.059727531   -2.4418087   0.99686269   587749 
 2659000    1.0061886    -2.441151    -2.441151   -1.4446169  0.071054554    -2.441151   0.99653415   587749 
 2660000    1.0075601   -2.4431536   -2.4431536   -1.4452611   0.06279749   -2.4431536   0.99789247   587749 
 2661000    1.0058629   -2.4412752   -2.4412752   -1.4450636  0.058861732   -2.4412752   0.99621159   587749 
 2662000    1.0072223   -2.4429522   -2.4429522   -1.4453943  0.075697847   -2.4429522   0.99755788   587749 
 2663000    1.0069337   -2.4429856   -2.4429856   -1.4457134  0.066731253   -2.4429856   0.99727213   587749 
 2664000    1.0076472   -2.4437731   -2.4437731   -1.4457943    0.0683609   -2.4437731   0.99797878   587749 
 2665000     1.008432   -2.4440013   -2.4440013   -1.4452454  0.069345568   -2.4440013   0.99875597   587749 
 2666000    1.0062943   -2.4425262   -2.4425262   -1.4458874  0.062341946   -2.4425262   0.99663881   587749 
 2667000    1.0077187   -2.4434908   -2.4434908   -1.4454412  0.064164289   -2.4434908   0.99804957   587749 
 2668000    1.0073465   -2.4437863   -2.4437863   -1.4461054  0.063567531   -2.4437863   0.99768091   587749 
 2669000    1.0062155   -2.4421814   -2.4421814   -1.4456206   0.06631181   -2.4421814   0.99656078   587749 
 2670000    1.0074823   -2.4428135   -2.4428135   -1.4449981  0.066707729   -2.4428135   0.99781539   587749 
 2671000    1.0078996   -2.4432446   -2.4432446   -1.4450159  0.073137311   -2.4432446   0.99822875   587749 
 2672000    1.0098252   -2.4439331   -2.4439331   -1.4437973  0.066335757   -2.4439331    1.0001358   587749 
 2673000    1.0093416   -2.4450031   -2.4450031   -1.4453462   0.06374056   -2.4450031   0.99965686   587749 
 2674000    1.0087354   -2.4435924   -2.4435924    -1.444536  0.073729767   -2.4435924   0.99905648   587749 
 2675000     1.007885   -2.4436182   -2.4436182   -1.4454039  0.067873691   -2.4436182   0.99821425   587749 
 2676000     1.008133   -2.4441581   -2.4441581   -1.4456982  0.081942613   -2.4441581   0.99845989   587749 
 2677000    1.0094214   -2.4456989   -2.4456989   -1.4459629  0.061999879   -2.4456989   0.99973594   587749 
 2678000    1.0077446   -2.4442296   -2.4442296   -1.4461544  0.073259083   -2.4442296    0.9980752   587749 
 2679000     1.008342   -2.4448805   -2.4448805   -1.4462136  0.064662285   -2.4448805   0.99866692   587749 
 2680000    1.0094844   -2.4448848   -2.4448848   -1.4450865  0.067211937   -2.4448848   0.99979833   587749 
 2681000    1.0070858   -2.4427938   -2.4427938    -1.445371  0.062935755   -2.4427938   0.99742272   587749 
 2682000    1.0056817    -2.441693    -2.441693   -1.4456609  0.066285685    -2.441693   0.99603209   587749 
 2683000    1.0082051   -2.4440673   -2.4440673    -1.445536  0.056932231   -2.4440673    0.9985313   587749 
 2684000    1.0059405   -2.4408411   -2.4408411   -1.4445528  0.077997054   -2.4408411   0.99628837   587749 
 2685000    1.0077426   -2.4429869   -2.4429869   -1.4449136  0.072201608   -2.4429869   0.99807327   587749 
 2686000    1.0074243   -2.4430036   -2.4430036   -1.4452456  0.062778509   -2.4430036   0.99775798   587749 
 2687000    1.0066625   -2.4429033   -2.4429033   -1.4458998  0.071484275   -2.4429033   0.99700348   587749 
 2688000    1.0063586   -2.4417117   -2.4417117   -1.4450092  0.065700644   -2.4417117   0.99670247   587749 
 2689000     1.008198   -2.4439371   -2.4439371   -1.4454128  0.067157959   -2.4439371    0.9985243   587749 
 2690000    1.0067354   -2.4431429   -2.4431429   -1.4460672  0.071788005   -2.4431429   0.99707568   587749 
 2691000    1.0048395   -2.4420635   -2.4420635   -1.4468655  0.065729336   -2.4420635   0.99519803   587749 
 2692000    1.0060944    -2.443364    -2.443364   -1.4469232   0.06680998    -2.443364    0.9964408   587749 
 2693000    1.0058165   -2.4422932   -2.4422932   -1.4461276  0.064630397   -2.4422932   0.99616563   587749 
 2694000    1.0042514   -2.4407668   -2.4407668   -1.4461513  0.068604748   -2.4407668   0.99461551   587749 
 2695000    1.0054272   -2.4415834   -2.4415834   -1.4458033  0.077507615   -2.4415834   0.99578003   587749 
 2696000    1.0069065   -2.4427525   -2.4427525   -1.4455073  0.068590975   -2.4427525   0.99724512   587749 
 2697000    1.0064013   -2.4433617   -2.4433617   -1.4466168  0.078599632   -2.4433617   0.99674484   587749 
 2698000    1.0072272   -2.4430812   -2.4430812   -1.4455184   0.06326291   -2.4430812   0.99756278   587749 
 2699000    1.0069541   -2.4418456   -2.4418456   -1.4445533  0.073765395   -2.4418456   0.99729231   587749 
 2700000    1.0084362   -2.4436393   -2.4436393   -1.4448791  0.070117284   -2.4436393   0.99876017   587749 
 2701000    1.0068065   -2.4433094   -2.4433094   -1.4461633  0.065871398   -2.4433094   0.99714614   587749 
 2702000    1.0077945   -2.4440175   -2.4440175   -1.4458928  0.069608588   -2.4440175   0.99812467   587749 
 2703000    1.0077631   -2.4442626   -2.4442626   -1.4461691   0.06942297   -2.4442626   0.99809348   587749 
 2704000     1.007331   -2.4437889   -2.4437889   -1.4461233  0.073042665   -2.4437889   0.99766557   587749 
 2705000    1.0079869   -2.4436872   -2.4436872    -1.445372  0.078530966   -2.4436872   0.99831517   587749 
 2706000    1.0072422   -2.4434784   -2.4434784   -1.4459007  0.075775397   -2.4434784   0.99757761   587749 
 2707000    1.0071901   -2.4435442   -2.4435442   -1.4460181  0.063242275   -2.4435442   0.99752603   587749 
 2708000    1.0069491   -2.4437063   -2.4437063    -1.446419  0.058750287   -2.4437063   0.99728735   587749 
 2709000    1.0068997   -2.4442639   -2.4442639   -1.4470254  0.069871009   -2.4442639   0.99723845   587749 
 2710000    1.0075115   -2.4438317   -2.4438317   -1.4459874  0.065727367   -2.4438317   0.99784436   587749 
 2711000    1.0070341   -2.4426997   -2.4426997   -1.4453282   0.06444405   -2.4426997    0.9973715   587749 
 2712000    1.0080502   -2.4437962   -2.4437962   -1.4454183  0.070603812   -2.4437962   0.99837787   587749 
 2713000    1.0094998   -2.4446511   -2.4446511   -1.4448376  0.070690098   -2.4446511   0.99981356   587749 
 2714000    1.0100874   -2.4462406   -2.4462406   -1.4458451  0.075241529   -2.4462406    1.0003955   587749 
 2715000    1.0086381    -2.445277    -2.445277   -1.4463169  0.067404206    -2.445277    0.9989601   587749 
 2716000    1.0078804   -2.4447023   -2.4447023   -1.4464927  0.073905854   -2.4447023   0.99820966   587749 
 2717000    1.0078736   -2.4446793   -2.4446793   -1.4464763   0.05980081   -2.4446793   0.99820293   587749 
 2718000    1.0078657   -2.4447693   -2.4447693   -1.4465741  0.067387783   -2.4447693   0.99819516   587749 
 2719000    1.0066476   -2.4442959   -2.4442959   -1.4473071  0.052787943   -2.4442959   0.99698877   587749 
 2720000    1.0067731   -2.4436471   -2.4436471    -1.446534  0.066822951   -2.4436471   0.99711307   587749 
 2721000    1.0078639   -2.4449588   -2.4449588   -1.4467655  0.074914128   -2.4449588   0.99819337   587749 
 2722000    1.0074275   -2.4443053   -2.4443053   -1.4465442  0.058775225   -2.4443053   0.99776113   587749 
 2723000    1.0069039    -2.443213    -2.443213   -1.4459704  0.064364575    -2.443213   0.99724261   587749 
 2724000    1.0070418   -2.4426393   -2.4426393   -1.4452601  0.072939283   -2.4426393    0.9973792   587749 
 2725000     1.005816   -2.4423272   -2.4423272   -1.4461621  0.081315003   -2.4423272   0.99616509   587749 
 2726000    1.0064848   -2.4422106   -2.4422106   -1.4453831  0.063120314   -2.4422106   0.99682754   587749 
 2727000    1.0078607   -2.4431085   -2.4431085   -1.4449183  0.075747992   -2.4431085   0.99819024   587749 
 2728000    1.0085757    -2.444327    -2.444327   -1.4454287  0.079395891    -2.444327   0.99889834   587749 
 2729000    1.0084625   -2.4447477   -2.4447477   -1.4459614   0.06698261   -2.4447477   0.99878625   587749 
 2730000    1.0076082   -2.4433699   -2.4433699   -1.4454298   0.06487682   -2.4433699   0.99794011   587749 
 2731000    1.0058764   -2.4419261   -2.4419261   -1.4457012  0.054739051   -2.4419261    0.9962249   587749 
 2732000      1.00721   -2.4438535   -2.4438535   -1.4463077  0.066756922   -2.4438535   0.99754575   587749 
 2733000    1.0072148   -2.4433884   -2.4433884   -1.4458378  0.059980891   -2.4433884   0.99755053   587749 
 2734000    1.0058104   -2.4421353   -2.4421353   -1.4459758  0.069954873   -2.4421353   0.99615952   587749 
 2735000    1.0067164   -2.4424325   -2.4424325   -1.4453757  0.065321078   -2.4424325   0.99705684   587749 
 2736000    1.0074856   -2.4434569   -2.4434569   -1.4456381  0.070411386   -2.4434569   0.99781872   587749 
 2737000    1.0084182   -2.4438649   -2.4438649   -1.4451225  0.071536215   -2.4438649   0.99874236   587749 
 2738000    1.0082561   -2.4427069   -2.4427069   -1.4441251    0.0756311   -2.4427069   0.99858181   587749 
 2739000    1.0079978   -2.4433404   -2.4433404   -1.4450144  0.078109736   -2.4433404   0.99832599   587749 
 2740000    1.0068875   -2.4432664   -2.4432664   -1.4460401  0.074132441   -2.4432664   0.99722638   587749 
 2741000    1.0072691   -2.4436127   -2.4436127   -1.4460084  0.072818839   -2.4436127    0.9976043   587749 
 2742000    1.0090749   -2.4448623   -2.4448623   -1.4454695  0.073923837   -2.4448623   0.99939275   587749 
 2743000     1.007862    -2.443607    -2.443607   -1.4454155  0.063117639    -2.443607   0.99819152   587749 
 2744000    1.0089896   -2.4457688   -2.4457688   -1.4464606  0.058720176   -2.4457688   0.99930827   587749 
 2745000    1.0065267   -2.4440891   -2.4440891   -1.4472201  0.075653061   -2.4440891   0.99686895   587749 
 2746000    1.0079464   -2.4454778   -2.4454778   -1.4472026  0.072717723   -2.4454778   0.99827512   587749 
 2747000    1.0082158   -2.4456107   -2.4456107   -1.4470689  0.070648852   -2.4456107   0.99854187   587749 
 2748000    1.0079463   -2.4459178   -2.4459178   -1.4476428  0.075992348   -2.4459178     0.998275   587749 
 2749000    1.0084362   -2.4459513   -2.4459513   -1.4471911   0.07052616   -2.4459513   0.99876017   587749 
 2750000    1.0086959   -2.4461898   -2.4461898   -1.4471723  0.073934732   -2.4461898   0.99901741   587749 
 2751000    1.0079004   -2.4459369   -2.4459369   -1.4477074    0.0635514   -2.4459369   0.99822956   587749 
 2752000     1.007696   -2.4455819   -2.4455819   -1.4475548  0.059397035   -2.4455819   0.99802708   587749 
 2753000    1.0061097    -2.443293    -2.443293    -1.446837  0.074551486    -2.443293   0.99645602   587749 
 2754000    1.0078695   -2.4457461   -2.4457461   -1.4475472  0.070553805   -2.4457461   0.99819886   587749 
 2755000    1.0097703   -2.4475444   -2.4475444   -1.4474629  0.078969683   -2.4475444    1.0000815   587749 
 2756000    1.0093089   -2.4471977   -2.4471977   -1.4475733   0.06786627   -2.4471977   0.99962448   587749 
 2757000    1.0088344   -2.4470973   -2.4470973   -1.4479428  0.083552427   -2.4470973   0.99915454   587749 
 2758000    1.0088125   -2.4470861   -2.4470861   -1.4479533   0.06632652   -2.4470861   0.99913284   587749 
 2759000    1.0076406   -2.4465663   -2.4465663    -1.448594  0.077494346   -2.4465663   0.99797222   587749 
 2760000    1.0086881   -2.4469308   -2.4469308   -1.4479211  0.077196146   -2.4469308   0.99900967   587749 
 2761000     1.008424   -2.4470449   -2.4470449   -1.4482969  0.072689558   -2.4470449   0.99874807   587749 
 2762000    1.0064221   -2.4455874   -2.4455874   -1.4488221  0.068070596   -2.4455874   0.99676535   587749 
 2763000    1.0079924   -2.4463444   -2.4463444   -1.4480238  0.076582772   -2.4463444   0.99832065   587749 
 2764000    1.0080273   -2.4466198   -2.4466198   -1.4482645  0.079337885   -2.4466198   0.99835524   587749 
 2765000     1.007932   -2.4457189   -2.4457189   -1.4474581  0.069163501   -2.4457189   0.99826085   587749 
 2766000    1.0076763   -2.4466428   -2.4466428   -1.4486352  0.070003203   -2.4466428    0.9980076   587749 
 2767000    1.0067819    -2.445606    -2.445606   -1.4484843  0.078236826    -2.445606    0.9971217   587749 
 2768000    1.0084667   -2.4475335   -2.4475335   -1.4487431  0.056678052   -2.4475335   0.99879042   587749 
 2769000    1.0070407   -2.4457534   -2.4457534   -1.4483754  0.074263488   -2.4457534   0.99737802   587749 
 2770000    1.0073619   -2.4455751   -2.4455751   -1.4478789   0.07275734   -2.4455751    0.9976962   587749 
 2771000    1.0086257    -2.446973    -2.446973   -1.4480251  0.060257291    -2.446973   0.99894788   587749 
 2772000    1.0086152   -2.4460096   -2.4460096   -1.4470722  0.055192642   -2.4460096   0.99893742   587749 
 2773000    1.0063216   -2.4441071   -2.4441071   -1.4474412  0.068317942   -2.4441071   0.99666589   587749 
 2774000    1.0075764   -2.4452821   -2.4452821   -1.4473735  0.070418184   -2.4452821   0.99790867   587749 
 2775000    1.0075599   -2.4453185   -2.4453185   -1.4474262  0.065137525   -2.4453185   0.99789229   587749 
 2776000    1.0095575   -2.4458194   -2.4458194   -1.4459487  0.068509401   -2.4458194   0.99987073   587749 
 2777000    1.0090478   -2.4453123   -2.4453123   -1.4459464  0.059603525   -2.4453123   0.99936591   587749 
 2778000    1.0082862   -2.4449274   -2.4449274   -1.4463158  0.075858827   -2.4449274    0.9986116   587749 
 2779000    1.0081133     -2.44451     -2.44451   -1.4460696  0.070382119     -2.44451   0.99844042   587749 
 2780000    1.0087672    -2.445514    -2.445514    -1.446426     0.066601    -2.445514   0.99908801   587749 
 2781000    1.0084528   -2.4450891   -2.4450891   -1.4463125  0.065885934   -2.4450891   0.99877663   587749 
 2782000    1.0081798   -2.4448499   -2.4448499   -1.4463436  0.067391936   -2.4448499   0.99850627   587749 
 2783000    1.0089853   -2.4458859   -2.4458859   -1.4465819  0.068963613   -2.4458859   0.99930404   587749 
 2784000     1.007755   -2.4447462   -2.4447462   -1.4466607   0.06503492   -2.4447462   0.99808548   587749 
 2785000    1.0071271   -2.4442508   -2.4442508   -1.4467873  0.069240934   -2.4442508   0.99746359   587749 
 2786000    1.0084027    -2.445471    -2.445471    -1.446744  0.053107475    -2.445471   0.99872698   587749 
 2787000    1.0070179   -2.4443663   -2.4443663   -1.4470109  0.074935756   -2.4443663   0.99735543   587749 
 2788000    1.0078845   -2.4446888   -2.4446888   -1.4464751  0.065773764   -2.4446888   0.99821374   587749 
 2789000    1.0073628   -2.4442097   -2.4442097   -1.4465126  0.068294039   -2.4442097    0.9976971   587749 
 2790000    1.0054068   -2.4420994   -2.4420994   -1.4463396  0.072250716   -2.4420994   0.99575984   587749 
 2791000    1.0070284   -2.4431712   -2.4431712   -1.4458053  0.060481256   -2.4431712    0.9973659   587749 
 2792000    1.0068407   -2.4434054   -2.4434054   -1.4462254  0.063737813   -2.4434054   0.99717999   587749 
 2793000    1.0088714   -2.4462407   -2.4462407   -1.4470495   0.07608771   -2.4462407   0.99919115   587749 
 2794000    1.0072107   -2.4450957   -2.4450957   -1.4475493  0.058879147   -2.4450957   0.99754646   587749 
 2795000     1.005874    -2.443615    -2.443615   -1.4473925  0.068254309    -2.443615   0.99622259   587749 
 2796000    1.0079156   -2.4453142   -2.4453142   -1.4470697  0.065494519   -2.4453142   0.99824457   587749 
 2797000    1.0068564   -2.4447736   -2.4447736   -1.4475781  0.069929669   -2.4447736   0.99719548   587749 
 2798000    1.0078069   -2.4458066   -2.4458066   -1.4476697  0.064924231   -2.4458066   0.99813691   587749 
 2799000    1.0088993   -2.4463169   -2.4463169   -1.4470981  0.065762671   -2.4463169   0.99921886   587749 
 2800000    1.0080704   -2.4454763   -2.4454763   -1.4470784  0.053903871   -2.4454763   0.99839793   587749 
 2801000    1.0079841   -2.4457029   -2.4457029   -1.4473906  0.062619535   -2.4457029   0.99831236   587749 
 2802000    1.0083249   -2.4453139   -2.4453139    -1.446664  0.064261773   -2.4453139   0.99864998   587749 
 2803000    1.0085896   -2.4453527   -2.4453527   -1.4464406  0.072670651   -2.4453527   0.99891207   587749 
 2804000    1.0068907   -2.4446617   -2.4446617   -1.4474322  0.075884511   -2.4446617   0.99722953   587749 
 2805000    1.0082661   -2.4459832   -2.4459832   -1.4473916   0.06206875   -2.4459832   0.99859166   587749 
 2806000     1.008757   -2.4456764   -2.4456764   -1.4465985  0.061678327   -2.4456764    0.9990779   587749 
 2807000     1.007546   -2.4454675   -2.4454675    -1.447589  0.070560552   -2.4454675   0.99787847   587749 
 2808000    1.0060636    -2.443524    -2.443524   -1.4471137  0.074686504    -2.443524   0.99641031   587749 
 2809000    1.0082218   -2.4446586   -2.4446586   -1.4461108  0.060651506   -2.4446586   0.99854786   587749 
 2810000    1.0078468   -2.4446803   -2.4446803   -1.4465039  0.068921979   -2.4446803   0.99817644   587749 
 2811000    1.0071598   -2.4440456   -2.4440456   -1.4465496  0.070899636   -2.4440456   0.99749604   587749 
 2812000    1.0072308   -2.4436829   -2.4436829   -1.4461166  0.066434921   -2.4436829    0.9975663   587749 
 2813000     1.008035    -2.444435    -2.444435   -1.4460722  0.066494131    -2.444435    0.9983628   587749 
 2814000    1.0089575   -2.4455748   -2.4455748   -1.4462983  0.058309741   -2.4455748   0.99927647   587749 
 2815000    1.0090746    -2.446029    -2.446029   -1.4466366  0.069286704    -2.446029   0.99939246   587749 
 2816000      1.00689   -2.4437248   -2.4437248    -1.446496  0.081946726   -2.4437248   0.99722882   587749 
 2817000    1.0098119   -2.4462868   -2.4462868   -1.4461642  0.069206148   -2.4462868    1.0001227   587749 
 2818000    1.0082137   -2.4442804   -2.4442804   -1.4457405  0.082017633   -2.4442804   0.99853982   587749 
 2819000    1.0085132   -2.4444975   -2.4444975   -1.4456611  0.066164268   -2.4444975   0.99883639   587749 
 2820000    1.0098612   -2.4453433   -2.4453433   -1.4451717  0.069397633   -2.4453433    1.0001715   587749 
 2821000    1.0078995   -2.4431262   -2.4431262   -1.4448976  0.068537718   -2.4431262   0.99822857   587749 
 2822000    1.0089656   -2.4444476   -2.4444476   -1.4451631  0.066027894   -2.4444476   0.99928452   587749 
 2823000    1.0088077   -2.4444879   -2.4444879   -1.4453598  0.082827959   -2.4444879   0.99912812   587749 
 2824000      1.00953   -2.4447341   -2.4447341   -1.4448907   0.07428951   -2.4447341   0.99984345   587749 
 2825000     1.009366   -2.4449834   -2.4449834   -1.4453024  0.069180327   -2.4449834   0.99968107   587749 
 2826000    1.0066805   -2.4420266   -2.4420266   -1.4450053  0.070780875   -2.4420266   0.99702133   587749 
 2827000    1.0074636   -2.4432128   -2.4432128   -1.4454159  0.062097122   -2.4432128   0.99779687   587749 
 2828000    1.0079304   -2.4433083   -2.4433083   -1.4450491  0.070763742   -2.4433083   0.99825926   587749 
 2829000     1.007772    -2.442823    -2.442823   -1.4447207  0.072541962    -2.442823   0.99810233   587749 
 2830000    1.0079772   -2.4426815   -2.4426815    -1.444376  0.061192441   -2.4426815   0.99830553   587749 
 2831000     1.007254   -2.4421233   -2.4421233    -1.444534  0.065325079   -2.4421233    0.9975893   587749 
 2832000    1.0064284   -2.4411364   -2.4411364   -1.4443647  0.075161998   -2.4411364   0.99677167   587749 
 2833000    1.0058643   -2.4403617   -2.4403617   -1.4441488   0.07303371   -2.4403617   0.99621291   587749 
 2834000    1.0096407    -2.444043    -2.444043   -1.4440898  0.054123257    -2.444043   0.99995313   587749 
 2835000    1.0073012   -2.4415882   -2.4415882   -1.4439522  0.063990403   -2.4415882   0.99763603   587749 
 2836000    1.0068861   -2.4420214   -2.4420214   -1.4447965  0.066322591   -2.4420214   0.99722494   587749 
 2837000    1.0085374   -2.4431275   -2.4431275    -1.444267   0.06540412   -2.4431275   0.99886043   587749 
 2838000    1.0084391    -2.443555    -2.443555    -1.444792  0.065163174    -2.443555   0.99876303   587749 
 2839000    1.0100515   -2.4446545   -2.4446545   -1.4442945  0.069692607   -2.4446545      1.00036   587749 
 2840000    1.0089257   -2.4436354   -2.4436354   -1.4443904  0.069616469   -2.4436354   0.99924494   587749 
 2841000    1.0093053   -2.4447696   -2.4447696   -1.4451486  0.076713232   -2.4447696   0.99962096   587749 
 2842000    1.0082347    -2.443381    -2.443381   -1.4448204  0.066999851    -2.443381   0.99856059   587749 
 2843000    1.0074039   -2.4429918   -2.4429918    -1.445254  0.062861765   -2.4429918   0.99773778   587749 
 2844000    1.0079671   -2.4423967   -2.4423967   -1.4441012  0.075475336   -2.4423967   0.99829557   587749 
 2845000    1.0091657   -2.4437204   -2.4437204   -1.4442377  0.067861523   -2.4437204   0.99948271   587749 
 2846000    1.0091096   -2.4437296   -2.4437296   -1.4443024  0.072146852   -2.4437296   0.99942714   587749 
 2847000     1.009303   -2.4447393   -2.4447393   -1.4451207  0.066570937   -2.4447393   0.99961865   587749 
 2848000     1.009147   -2.4442995   -2.4442995   -1.4448354  0.068271248   -2.4442995   0.99946412   587749 
 2849000    1.0084827   -2.4433561   -2.4433561   -1.4445499  0.076645067   -2.4433561   0.99880625   587749 
 2850000    1.0081323   -2.4433229   -2.4433229   -1.4448637  0.081425339   -2.4433229   0.99845917   587749 
 2851000    1.0084712   -2.4434513   -2.4434513   -1.4446564  0.067005554   -2.4434513   0.99879487   587749 
 2852000    1.0087349   -2.4439469   -2.4439469   -1.4448909  0.070768249   -2.4439469   0.99905598   587749 
 2853000    1.0081065   -2.4431929   -2.4431929   -1.4447593  0.077606988   -2.4431929   0.99843365   587749 
 2854000    1.0054287    -2.441243    -2.441243   -1.4454615  0.073581148    -2.441243   0.99578153   587749 
 2855000    1.0050335   -2.4409996   -2.4409996   -1.4456094  0.066607827   -2.4409996   0.99539015   587749 
 2856000    1.0055644   -2.4422411   -2.4422411   -1.4463252  0.073178052   -2.4422411   0.99591588   587749 
 2857000    1.0063749   -2.4425655   -2.4425655   -1.4458469  0.071455692   -2.4425655   0.99671866   587749 
 2858000    1.0064029   -2.4426826   -2.4426826   -1.4459362  0.060499585   -2.4426826   0.99674642   587749 
 2859000    1.0051691   -2.4420958   -2.4420958   -1.4465713  0.063543849   -2.4420958   0.99552441   587749 
 2860000    1.0055545    -2.442851    -2.442851   -1.4469449  0.057670998    -2.442851   0.99590614   587749 
 2861000    1.0050046   -2.4423911   -2.4423911   -1.4470296  0.065862774   -2.4423911   0.99536153   587749 
 2862000    1.0071594   -2.4438983   -2.4438983   -1.4464027  0.057224126   -2.4438983   0.99749561   587749 
 2863000    1.0063847   -2.4431496   -2.4431496   -1.4464212  0.073577897   -2.4431496   0.99672832   587749 
 2864000     1.005885   -2.4430734   -2.4430734     -1.44684  0.048998555   -2.4430734   0.99623343   587749 
 2865000    1.0070742   -2.4444639   -2.4444639   -1.4470526  0.071480498   -2.4444639   0.99741127   587749 
 2866000    1.0061395   -2.4423611   -2.4423611   -1.4458756   0.07275951   -2.4423611    0.9964855   587749 
 2867000    1.0081753   -2.4445934   -2.4445934   -1.4460916  0.064937928   -2.4445934   0.99850182   587749 
 2868000    1.0069849   -2.4433115   -2.4433115   -1.4459887  0.061400749   -2.4433115   0.99732277   587749 
 2869000    1.0077125   -2.4447384   -2.4447384    -1.446695  0.072022755   -2.4447384   0.99804344   587749 
 2870000    1.0076806   -2.4449918   -2.4449918   -1.4469801  0.079891134   -2.4449918   0.99801178   587749 
 2871000    1.0081257   -2.4452912   -2.4452912   -1.4468385  0.066144673   -2.4452912   0.99845264   587749 
 2872000     1.009549   -2.4468726   -2.4468726   -1.4470103  0.057175989   -2.4468726   0.99986234   587749 
 2873000    1.0094554   -2.4467616   -2.4467616   -1.4469919  0.079567439   -2.4467616   0.99976964   587749 
 2874000    1.0076313   -2.4454707   -2.4454707   -1.4475077  0.074882636   -2.4454707   0.99796296   587749 
 2875000    1.0090418   -2.4463493   -2.4463493   -1.4469894  0.068922889   -2.4463493   0.99935995   587749 
 2876000    1.0080623   -2.4454732   -2.4454732   -1.4470833  0.075238008   -2.4454732   0.99838991   587749 
 2877000    1.0079655   -2.4453357   -2.4453357   -1.4470418  0.067872662   -2.4453357   0.99829397   587749 
 2878000    1.0078266   -2.4449233   -2.4449233   -1.4467669  0.072487771   -2.4449233   0.99815646   587749 
 2879000    1.0068268   -2.4442406   -2.4442406   -1.4470744  0.076329931   -2.4442406   0.99716624   587749 
 2880000    1.0072749   -2.4458723   -2.4458723   -1.4482623  0.080834084   -2.4458723   0.99761004   587749 
 2881000    1.0074181   -2.4454658   -2.4454658   -1.4477139  0.067736136   -2.4454658   0.99775182   587749 
 2882000    1.0052919   -2.4433177   -2.4433177   -1.4476717     0.071085   -2.4433177   0.99564603   587749 
 2883000    1.0066861   -2.4444174   -2.4444174   -1.4473906  0.063962097   -2.4444174   0.99702683   587749 
 2884000    1.0059074   -2.4438266   -2.4438266    -1.447571  0.061879801   -2.4438266   0.99625562   587749 
 2885000    1.0058232   -2.4438478   -2.4438478   -1.4476755  0.074359554   -2.4438478   0.99617225   587749 
 2886000    1.0067122   -2.4440859   -2.4440859   -1.4470332   0.06535032   -2.4440859   0.99705268   587749 
 2887000    1.0054884     -2.44302     -2.44302   -1.4471794  0.071333363     -2.44302   0.99584067   587749 
 2888000    1.0064465   -2.4435607   -2.4435607   -1.4467711  0.070146821   -2.4435607   0.99678957   587749 
 2889000    1.0073635   -2.4437233   -2.4437233   -1.4460255  0.060845241   -2.4437233   0.99769777   587749 
 2890000    1.0079314   -2.4445458   -2.4445458   -1.4462856  0.063917638   -2.4445458   0.99826021   587749 
 2891000    1.0060072   -2.4417967   -2.4417967   -1.4454422  0.060343503   -2.4417967   0.99635447   587749 
 2892000    1.0043473   -2.4412336   -2.4412336   -1.4465231  0.053918674   -2.4412336   0.99471049   587749 
 2893000    1.0055932   -2.4420692   -2.4420692   -1.4461248  0.071725165   -2.4420692   0.99594441   587749 
 2894000    1.0053404   -2.4415012   -2.4415012   -1.4458071  0.070920669   -2.4415012   0.99569409   587749 
 2895000    1.0044934   -2.4407432   -2.4407432   -1.4458881  0.072434774   -2.4407432   0.99485517   587749 
 2896000    1.0067286   -2.4427505   -2.4427505   -1.4456816  0.067192382   -2.4427505   0.99706893   587749 
 2897000    1.0067335   -2.4431075   -2.4431075   -1.4460337  0.068534376   -2.4431075   0.99707385   587749 
 2898000    1.0059522    -2.442002    -2.442002    -1.445702  0.070385922    -2.442002   0.99629998   587749 
 2899000    1.0067209   -2.4428298   -2.4428298   -1.4457685  0.064039557   -2.4428298    0.9970613   587749 
 2900000    1.0059766   -2.4422805   -2.4422805   -1.4459563  0.068838169   -2.4422805   0.99632419   587749 
 2901000    1.0072402   -2.4427862   -2.4427862   -1.4452105  0.071565605   -2.4427862   0.99757565   587749 
 2902000     1.006584   -2.4425704   -2.4425704   -1.4456447  0.074929225   -2.4425704    0.9969257   587749 
 2903000     1.008538   -2.4445863   -2.4445863   -1.4457253   0.05606132   -2.4445863   0.99886096   587749 
 2904000    1.0072786    -2.443574    -2.443574   -1.4459603  0.069628801    -2.443574   0.99761365   587749 
 2905000    1.0079232   -2.4437347   -2.4437347   -1.4454826  0.070860929   -2.4437347   0.99825207   587749 
 2906000    1.0079698   -2.4440672   -2.4440672    -1.445769  0.068487786   -2.4440672   0.99829821   587749 
 2907000    1.0085076   -2.4443229   -2.4443229   -1.4454921  0.083167726   -2.4443229   0.99883085   587749 
 2908000    1.0083013   -2.4444628   -2.4444628   -1.4458362  0.058953262   -2.4444628    0.9986266   587749 
 2909000    1.0084755   -2.4456558   -2.4456558   -1.4468567  0.064653878   -2.4456558   0.99879907   587749 
 2910000    1.0067578   -2.4441344   -2.4441344   -1.4470365  0.078826871   -2.4441344   0.99709788   587749 
 2911000    1.0077641    -2.445175    -2.445175   -1.4470805  0.068563677    -2.445175   0.99809448   587749 
 2912000    1.0077544   -2.4448993   -2.4448993   -1.4468144  0.073351535   -2.4448993   0.99808489   587749 
 2913000     1.008547   -2.4453285   -2.4453285   -1.4464586  0.071454822   -2.4453285   0.99886986   587749 
 2914000    1.0076932   -2.4444969   -2.4444969   -1.4464727  0.071336053   -2.4444969   0.99802429   587749 
 2915000     1.008745   -2.4457148   -2.4457148   -1.4466488  0.072675702   -2.4457148   0.99906596   587749 
 2916000    1.0082329    -2.445135    -2.445135   -1.4465761  0.062767307    -2.445135   0.99855885   587749 
 2917000    1.0071134   -2.4436559   -2.4436559   -1.4462059   0.06492574   -2.4436559   0.99745002   587749 
 2918000    1.0073872   -2.4441902   -2.4441902    -1.446469  0.069889409   -2.4441902    0.9977212   587749 
 2919000    1.0082072   -2.4452841   -2.4452841   -1.4467508  0.060770979   -2.4452841   0.99853333   587749 
 2920000    1.0077384   -2.4441029   -2.4441029   -1.4460339    0.0689017   -2.4441029   0.99806906   587749 
 2921000    1.0065534   -2.4442826   -2.4442826   -1.4473872  0.070063482   -2.4442826   0.99689545   587749 
 2922000    1.0061732   -2.4435864   -2.4435864   -1.4470674  0.076400312   -2.4435864   0.99651893   587749 
 2923000    1.0064721   -2.4432564   -2.4432564   -1.4464415  0.059251071   -2.4432564   0.99681489   587749 
 2924000    1.0076275   -2.4449787   -2.4449787   -1.4470195  0.048899105   -2.4449787   0.99795925   587749 
 2925000     1.008042   -2.4461896   -2.4461896   -1.4478198  0.059433323   -2.4461896   0.99836979   587749 
 2926000    1.0054047   -2.4435704   -2.4435704   -1.4478126  0.080100338   -2.4435704   0.99575772   587749 
 2927000    1.0066734    -2.444611    -2.444611   -1.4475967  0.072325757    -2.444611   0.99701424   587749 
 2928000    1.0075403   -2.4450941   -2.4450941   -1.4472212  0.072542284   -2.4450941   0.99787289   587749 
 2929000    1.0066565   -2.4434236   -2.4434236   -1.4464261  0.071875018   -2.4434236   0.99699755   587749 
 2930000    1.0066363   -2.4427722   -2.4427722   -1.4457946  0.070432271   -2.4427722   0.99697759   587749 
 2931000    1.0050671   -2.4425001   -2.4425001   -1.4470767  0.061191405   -2.4425001   0.99542335   587749 
 2932000    1.0057536   -2.4436293   -2.4436293    -1.447526  0.054064033   -2.4436293   0.99610334   587749 
 2933000    1.0057279   -2.4433125   -2.4433125   -1.4472346  0.067734737   -2.4433125   0.99607786   587749 
 2934000    1.0062094   -2.4442133   -2.4442133   -1.4476585  0.073385353   -2.4442133   0.99655477   587749 
 2935000    1.0084994   -2.4455544   -2.4455544   -1.4467316  0.066875231   -2.4455544    0.9988228   587749 
 2936000    1.0088091    -2.445608    -2.445608   -1.4464785  0.069442869    -2.445608   0.99912949   587749 
 2937000    1.0075995   -2.4446275   -2.4446275   -1.4466961  0.072793393   -2.4446275   0.99793146   587749 
 2938000    1.0085705   -2.4449697   -2.4449697   -1.4460766  0.065452198   -2.4449697   0.99889317   587749 
 2939000    1.0079676   -2.4443422   -2.4443422   -1.4460461  0.071991299   -2.4443422   0.99829608   587749 
 2940000    1.0081283   -2.4442884   -2.4442884   -1.4458332    0.0745942   -2.4442884   0.99845518   587749 
 2941000    1.0068554   -2.4435637   -2.4435637   -1.4463692  0.076907578   -2.4435637    0.9971945   587749 
 2942000    1.0078856   -2.4445086   -2.4445086   -1.4462937  0.072825046   -2.4445086   0.99821488   587749 
 2943000    1.0072412   -2.4444578   -2.4444578   -1.4468812  0.064057058   -2.4444578   0.99757664   587749 
 2944000      1.00568   -2.4430364   -2.4430364    -1.447006  0.070625361   -2.4430364   0.99603042   587749 
 2945000    1.0070365   -2.4447102   -2.4447102   -1.4473363  0.067099718   -2.4447102   0.99737388   587749 
 2946000    1.0063268   -2.4439883   -2.4439883   -1.4473172  0.077547372   -2.4439883   0.99667105   587749 
 2947000    1.0059666   -2.4443728   -2.4443728   -1.4480585  0.064889214   -2.4443728   0.99631425   587749 
 2948000    1.0077248   -2.4453713   -2.4453713   -1.4473157  0.068157978   -2.4453713   0.99805564   587749 
 2949000    1.0074524   -2.4443142   -2.4443142   -1.4465284  0.077919969   -2.4443142   0.99778579   587749 
 2950000    1.0069746   -2.4448725   -2.4448725   -1.4475599  0.058166467   -2.4448725   0.99731259   587749 
 2951000    1.0069845   -2.4443408   -2.4443408   -1.4470183   0.07208873   -2.4443408   0.99732244   587749 
 2952000    1.0070861   -2.4446343   -2.4446343   -1.4472113  0.060971841   -2.4446343   0.99742305   587749 
 2953000    1.0069346   -2.4441637   -2.4441637   -1.4468908  0.069867752   -2.4441637   0.99727296   587749 
 2954000    1.0066012   -2.4443863   -2.4443863   -1.4474435  0.067203605   -2.4443863   0.99694282   587749 
 2955000    1.0066172   -2.4453881   -2.4453881   -1.4484295  0.061400387   -2.4453881   0.99695862   587749 
 2956000    1.0058497   -2.4445551   -2.4445551   -1.4483566  0.070242255   -2.4445551   0.99619851   587749 
 2957000    1.0061847   -2.4446197   -2.4446197   -1.4480894   0.06836311   -2.4446197   0.99653031   587749 
 2958000    1.0072634   -2.4452904   -2.4452904   -1.4476917  0.069011849   -2.4452904   0.99759867   587749 
 2959000    1.0076162    -2.445311    -2.445311    -1.447363  0.073668528    -2.445311   0.99794802   587749 
 2960000    1.0082215   -2.4456117   -2.4456117   -1.4470642  0.065122379   -2.4456117   0.99854753   587749 
 2961000    1.0065139   -2.4447078   -2.4447078   -1.4478515  0.071352125   -2.4447078   0.99685632   587749 
 2962000    1.0077942   -2.4456099   -2.4456099   -1.4474856  0.068134815   -2.4456099   0.99812432   587749 
 2963000    1.0090906   -2.4457261   -2.4457261   -1.4463178  0.071742591   -2.4457261   0.99940834   587749 
 2964000    1.0082553   -2.4451917   -2.4451917   -1.4466107  0.058553552   -2.4451917   0.99858099   587749 
 2965000    1.0083628   -2.4450368   -2.4450368   -1.4463493  0.065873539   -2.4450368   0.99868752   587749 
 2966000    1.0082427   -2.4453366   -2.4453366   -1.4467682  0.073569684   -2.4453366   0.99856848   587749 
 2967000    1.0077148   -2.4448682   -2.4448682   -1.4468225  0.060992303   -2.4448682   0.99804574   587749 
 2968000    1.0093345   -2.4461321   -2.4461321   -1.4464822  0.054660296   -2.4461321   0.99964989   587749 
 2969000    1.0077519   -2.4443477   -2.4443477   -1.4462653  0.076540249   -2.4443477   0.99808244   587749 
 2970000    1.0086561   -2.4451015   -2.4451015   -1.4461235  0.063411542   -2.4451015   0.99897796   587749 
 2971000    1.0078841   -2.4445346   -2.4445346   -1.4463212  0.072775545   -2.4445346   0.99821334   587749 
 2972000    1.0075846   -2.4448192   -2.4448192   -1.4469024  0.067697601   -2.4448192   0.99791676   587749 
 2973000    1.0072001   -2.4446616   -2.4446616   -1.4471257  0.069210018   -2.4446616   0.99753589   587749 
 2974000    1.0065668   -2.4445483   -2.4445483   -1.4476396  0.064697312   -2.4445483   0.99690874   587749 
 2975000    1.0064737   -2.4441167   -2.4441167   -1.4473002  0.073807069   -2.4441167   0.99681654   587749 
 2976000    1.0081547   -2.4460797   -2.4460797   -1.4475984  0.057876617   -2.4460797   0.99848134   587749 
 2977000    1.0072579   -2.4448687   -2.4448687   -1.4472755  0.067898563   -2.4448687   0.99759313   587749 
 2978000    1.0087791   -2.4467787   -2.4467787   -1.4476789  0.051006033   -2.4467787   0.99909978   587749 
 2979000    1.0074942   -2.4456743   -2.4456743   -1.4478471  0.074094339   -2.4456743    0.9978272   587749 
 2980000    1.0083338    -2.445338    -2.445338   -1.4466792  0.069955692    -2.445338    0.9986588   587749 
 2981000    1.0065504   -2.4429973   -2.4429973   -1.4461048   0.06402609   -2.4429973   0.99689247   587749 
 2982000    1.0062293   -2.4436003   -2.4436003   -1.4470259  0.072161169   -2.4436003   0.99657441   587749 
 2983000    1.0078971   -2.4443892   -2.4443892   -1.4461629  0.062615671   -2.4443892   0.99822624   587749 
 2984000    1.0102455   -2.4457249   -2.4457249   -1.4451728   0.07203982   -2.4457249    1.0005521   587749 
 2985000    1.0089963   -2.4442925   -2.4442925   -1.4449776  0.063495042   -2.4442925   0.99931487   587749 
 2986000    1.0098417   -2.4452273   -2.4452273   -1.4450751  0.067064795   -2.4452273    1.0001522   587749 
 2987000    1.0105631   -2.4465461   -2.4465461   -1.4456795  0.072130464   -2.4465461    1.0008667   587749 
 2988000    1.0081864   -2.4445939   -2.4445939   -1.4460812  0.067752198   -2.4445939   0.99851273   587749 
 2989000    1.0073635   -2.4440928   -2.4440928    -1.446395  0.067597819   -2.4440928   0.99769776   587749 
 2990000     1.008262    -2.445084    -2.445084   -1.4464964  0.070678827    -2.445084   0.99858762   587749 
 2991000    1.0089154   -2.4450545   -2.4450545   -1.4458198   0.06124261   -2.4450545   0.99923478   587749 
 2992000    1.0082875   -2.4441822   -2.4441822   -1.4455693  0.066248226   -2.4441822   0.99861289   587749 
 2993000     1.007368   -2.4443704   -2.4443704   -1.4466682  0.057257064   -2.4443704   0.99770227   587749 
 2994000    1.0090141   -2.4471556   -2.4471556   -1.4478231  0.059494954   -2.4471556   0.99933248   587749 
 2995000    1.0068679   -2.4441966   -2.4441966   -1.4469897  0.066263971   -2.4441966   0.99720691   587749 
 2996000    1.0078854   -2.4455579   -2.4455579   -1.4473432  0.071463746   -2.4455579   0.99821463   587749 
 2997000    1.0081535   -2.4453345   -2.4453345   -1.4468543  0.064354386   -2.4453345   0.99848022   587749 
 2998000    1.0076678   -2.4440143   -2.4440143   -1.4460152  0.070817358   -2.4440143   0.99799912   587749 
 2999000    1.0073616    -2.445082    -2.445082   -1.4473861  0.064517234    -2.445082   0.99769589   587749 
 3000000     1.007074   -2.4440132   -2.4440132   -1.4466022  0.075348104   -2.4440132     0.997411   587749 
 3001000    1.0073528   -2.4448309   -2.4448309   -1.4471438  0.057236794   -2.4448309   0.99768714   587749 
 3002000    1.0081187   -2.4458028   -2.4458028   -1.4473571  0.065695451   -2.4458028   0.99844573   587749 
 3003000    1.0069927   -2.4443816   -2.4443816   -1.4470511  0.070969347   -2.4443816   0.99733052   587749 
 3004000    1.0081809   -2.4455238   -2.4455238   -1.4470165  0.079691128   -2.4455238   0.99850728   587749 
 3005000    1.0090738   -2.4458423   -2.4458423   -1.4464507   0.07338833   -2.4458423   0.99939162   587749 
 3006000    1.0059894   -2.4439775   -2.4439775   -1.4476407  0.078673303   -2.4439775    0.9963368   587749 
 3007000    1.0058299   -2.4436973   -2.4436973   -1.4475185  0.063566807   -2.4436973   0.99617884   587749 
 3008000    1.0057319   -2.4431533   -2.4431533   -1.4470716  0.064048333   -2.4431533   0.99608177   587749 
 3009000    1.0064554   -2.4434624   -2.4434624    -1.446664  0.067423149   -2.4434624    0.9967984   587749 
 3010000    1.0047684    -2.443104    -2.443104   -1.4479764  0.060486288    -2.443104    0.9951276   587749 
 3011000    1.0079557   -2.4456111   -2.4456111   -1.4473268  0.058592339   -2.4456111   0.99828432   587749 
 3012000    1.0061476   -2.4448776   -2.4448776    -1.448384  0.058590706   -2.4448776   0.99649358   587749 
 3013000    1.0077522   -2.4460149   -2.4460149   -1.4479322  0.053288138   -2.4460149   0.99808271   587749 
 3014000    1.0080601   -2.4447672   -2.4447672   -1.4463796  0.062515119   -2.4447672   0.99838764   587749 
 3015000     1.008763     -2.44524     -2.44524   -1.4461562  0.079541115     -2.44524   0.99908379   587749 
 3016000    1.0081372   -2.4448922   -2.4448922   -1.4464281  0.068387943   -2.4448922   0.99846405   587749 
 3017000    1.0087903   -2.4453516   -2.4453516   -1.4462407  0.070977498   -2.4453516    0.9991109   587749 
 3018000    1.0073331   -2.4445628   -2.4445628   -1.4468952   0.08168984   -2.4445628   0.99766761   587749 
 3019000    1.0069142   -2.4448457   -2.4448457   -1.4475929  0.067168302   -2.4448457   0.99725279   587749 
 3020000    1.0089083   -2.4457287   -2.4457287    -1.446501  0.061312091   -2.4457287   0.99922771   587749 
 3021000    1.0077242   -2.4453943   -2.4453943   -1.4473393  0.065639189   -2.4453943   0.99805501   587749 
 3022000    1.0073772    -2.444682    -2.444682   -1.4469707  0.075963185    -2.444682   0.99771129   587749 
 3023000    1.0075157   -2.4449292   -2.4449292   -1.4470807  0.065152991   -2.4449292   0.99784847   587749 
 3024000    1.0093461   -2.4473535   -2.4473535   -1.4476922  0.050400304   -2.4473535    0.9996613   587749 
 3025000    1.0078876   -2.4457979   -2.4457979   -1.4475811  0.069351559   -2.4457979   0.99821683   587749 
 3026000    1.0095257   -2.4464849   -2.4464849   -1.4466457  0.069706186   -2.4464849   0.99983922   587749 
 3027000    1.0088971   -2.4452304   -2.4452304   -1.4460138  0.065610256   -2.4452304   0.99921662   587749 
 3028000    1.0073292   -2.4437742   -2.4437742   -1.4461105   0.06346644   -2.4437742   0.99766377   587749 
 3029000    1.0080976   -2.4449749   -2.4449749   -1.4465501  0.067307449   -2.4449749   0.99842486   587749 
 3030000    1.0080314   -2.4454741   -2.4454741   -1.4471149  0.057225634   -2.4454741   0.99835925   587749 
 3031000    1.0085547   -2.4457219   -2.4457219   -1.4468444  0.066015694   -2.4457219   0.99887754   587749 
 3032000    1.0092846   -2.4459361   -2.4459361   -1.4463357  0.067673422   -2.4459361    0.9996004   587749 
 3033000    1.0081603   -2.4444764   -2.4444764   -1.4459895  0.066961297   -2.4444764   0.99848687   587749 
 3034000    1.0082088   -2.4436394   -2.4436394   -1.4451045  0.071938747   -2.4436394   0.99853494   587749 
 3035000    1.0091744   -2.4449687   -2.4449687   -1.4454774  0.072031499   -2.4449687    0.9994913   587749 
 3036000     1.009461   -2.4451729   -2.4451729   -1.4453978  0.069880229   -2.4451729   0.99977515   587749 
 3037000    1.0080318   -2.4439494   -2.4439494   -1.4455898  0.071120973   -2.4439494   0.99835962   587749 
 3038000    1.0076144   -2.4431652   -2.4431652   -1.4452189  0.069580625   -2.4431652   0.99794628   587749 
 3039000    1.0083326   -2.4429635   -2.4429635    -1.444306  0.079801584   -2.4429635   0.99865755   587749 
 3040000     1.009309   -2.4444588   -2.4444588   -1.4448341  0.074846916   -2.4444588   0.99962465   587749 
 3041000    1.0091688   -2.4438205   -2.4438205   -1.4443348  0.077508742   -2.4438205    0.9994857   587749 
 3042000    1.0091975   -2.4441254   -2.4441254   -1.4446113  0.062733821   -2.4441254   0.99951416   587749 
 3043000     1.007293   -2.4423657   -2.4423657   -1.4447378  0.071969983   -2.4423657   0.99762795   587749 
 3044000    1.0082001   -2.4437738   -2.4437738   -1.4452474  0.060060957   -2.4437738   0.99852637   587749 
 3045000    1.0073707   -2.4425025   -2.4425025   -1.4447976  0.066970318   -2.4425025   0.99770485   587749 
 3046000    1.0079855   -2.4429665   -2.4429665   -1.4446528  0.066199846   -2.4429665   0.99831377   587749 
 3047000    1.0088879   -2.4430846   -2.4430846   -1.4438771  0.068781232   -2.4430846   0.99920754   587749 
 3048000    1.0074288   -2.4415482   -2.4415482   -1.4437858  0.065630788   -2.4415482    0.9977624   587749 
 3049000     1.006759   -2.4406535   -2.4406535   -1.4435545  0.078276794   -2.4406535   0.99709902   587749 
 3050000    1.0079936   -2.4412097   -2.4412097   -1.4428879  0.073756451   -2.4412097   0.99832177   587749 
 3051000    1.0071799   -2.4402868   -2.4402868   -1.4427709  0.061442668   -2.4402868   0.99751589   587749 
 3052000    1.0061626   -2.4411812   -2.4411812   -1.4446728  0.070300455   -2.4411812   0.99650842   587749 
 3053000    1.0065515   -2.4416413   -2.4416413   -1.4447477  0.070527378   -2.4416413   0.99689357   587749 
 3054000    1.0075232   -2.4417321   -2.4417321   -1.4438761  0.071985474   -2.4417321   0.99785595   587749 
 3055000    1.0082797   -2.4421119   -2.4421119   -1.4435068  0.063225137   -2.4421119   0.99860515   587749 
 3056000    1.0066762   -2.4413789   -2.4413789   -1.4443618  0.063615123   -2.4413789   0.99701704   587749 
 3057000    1.0065871    -2.440945    -2.440945   -1.4440161  0.058989608    -2.440945   0.99692885   587749 
 3058000    1.0064867   -2.4407357   -2.4407357   -1.4439064  0.087291658   -2.4407357   0.99682933   587749 
 3059000    1.0056394   -2.4403023   -2.4403023   -1.4443121  0.070684984   -2.4403023   0.99599021   587749 
 3060000    1.0076044   -2.4417508   -2.4417508   -1.4438144  0.064596156   -2.4417508   0.99793639   587749 
 3061000    1.0073333   -2.4420059   -2.4420059    -1.444338   0.07222567   -2.4420059   0.99766786   587749 
 3062000    1.0076661   -2.4423292   -2.4423292   -1.4443317  0.070260734   -2.4423292   0.99799743   587749 
 3063000    1.0073497    -2.441868    -2.441868   -1.4441839  0.068969587    -2.441868   0.99768414   587749 
 3064000     1.010107   -2.4437425   -2.4437425   -1.4433276  0.076273174   -2.4437425    1.0004149   587749 
 3065000    1.0085068    -2.442916    -2.442916   -1.4440859  0.081771851    -2.442916   0.99883011   587749 
 3066000    1.0095706   -2.4448039   -2.4448039   -1.4449203   0.07776588   -2.4448039   0.99988364   587749 
 3067000    1.0080918   -2.4431399   -2.4431399   -1.4447208  0.069812152   -2.4431399   0.99841907   587749 
 3068000    1.0071002   -2.4422231   -2.4422231   -1.4447861  0.064318757   -2.4422231   0.99743698   587749 
 3069000    1.0066293   -2.4407206   -2.4407206   -1.4437499  0.073812221   -2.4407206   0.99697063   587749 
 3070000    1.0063907    -2.440975    -2.440975   -1.4442407  0.067584432    -2.440975   0.99673429   587749 
 3071000    1.0065373   -2.4412208   -2.4412208   -1.4443413  0.067703176   -2.4412208   0.99687951   587749 
 3072000    1.0071207   -2.4421893   -2.4421893   -1.4447319  0.057221385   -2.4421893   0.99745733   587749 
 3073000    1.0065499   -2.4419157   -2.4419157   -1.4450237  0.071087649   -2.4419157     0.996892   587749 
 3074000    1.0078006   -2.4428223   -2.4428223   -1.4446917  0.072327692   -2.4428223   0.99813064   587749 
 3075000    1.0056714   -2.4413066   -2.4413066   -1.4452847  0.065873202   -2.4413066   0.99602192   587749 
 3076000    1.0045453   -2.4404307   -2.4404307   -1.4455242  0.068767533   -2.4404307   0.99490658   587749 
 3077000    1.0055681   -2.4410508   -2.4410508   -1.4451313  0.063503419   -2.4410508   0.99591954   587749 
 3078000    1.0052069   -2.4403942   -2.4403942   -1.4448324  0.064069205   -2.4403942   0.99556184   587749 
 3079000    1.0060317    -2.440797    -2.440797   -1.4444183   0.06670266    -2.440797   0.99637872   587749 
 3080000    1.0059032   -2.4411672   -2.4411672   -1.4449157  0.061050541   -2.4411672   0.99625148   587749 
 3081000    1.0057655   -2.4410666   -2.4410666   -1.4449515  0.072056865   -2.4410666    0.9961151   587749 
 3082000    1.0062234   -2.4417988   -2.4417988   -1.4452302   0.06303985   -2.4417988   0.99656857   587749 
 3083000    1.0060844   -2.4413272   -2.4413272   -1.4448963  0.064184611   -2.4413272    0.9964309   587749 
 3084000    1.0074861   -2.4426191   -2.4426191   -1.4447999  0.057288755   -2.4426191   0.99781922   587749 
 3085000    1.0066892   -2.4418159   -2.4418159    -1.444786  0.065488801   -2.4418159   0.99702994   587749 
 3086000    1.0062098   -2.4416919   -2.4416919   -1.4451368   0.06625524   -2.4416919   0.99655514   587749 
 3087000    1.0079913   -2.4439152   -2.4439152   -1.4455957  0.069362019   -2.4439152   0.99831949   587749 
 3088000    1.0074656   -2.4426821   -2.4426821   -1.4448832  0.069647403   -2.4426821   0.99779885   587749 
 3089000    1.0079302   -2.4429231   -2.4429231   -1.4446641  0.067038471   -2.4429231   0.99825903   587749 
 3090000    1.0093467   -2.4446564   -2.4446564   -1.4449945  0.069738761   -2.4446564    0.9996619   587749 
 3091000    1.0087815   -2.4438012   -2.4438012    -1.444699  0.077204081   -2.4438012    0.9991022   587749 
 3092000    1.0081888   -2.4431903   -2.4431903   -1.4446752  0.072465283   -2.4431903   0.99851511   587749 
 3093000    1.0087644   -2.4431108   -2.4431108   -1.4440255  0.065252582   -2.4431108   0.99908523   587749 
 3094000    1.0085647    -2.443404    -2.443404   -1.4445165  0.073742649    -2.443404   0.99888744   587749 
 3095000    1.0081841   -2.4436605   -2.4436605   -1.4451501   0.08115601   -2.4436605   0.99851045   587749 
 3096000    1.0084244   -2.4436922   -2.4436922   -1.4449437   0.06567615   -2.4436922   0.99874852   587749 
 3097000    1.0076945   -2.4434664   -2.4434664   -1.4454408  0.077888088   -2.4434664   0.99802562   587749 
 3098000     1.005229   -2.4414708   -2.4414708    -1.445887  0.076418308   -2.4414708   0.99558375   587749 
 3099000    1.0084052   -2.4444104   -2.4444104    -1.445681   0.05970158   -2.4444104   0.99872943   587749 
 3100000     1.008909   -2.4438363   -2.4438363   -1.4446078  0.070570365   -2.4438363   0.99922848   587749 
 3101000    1.0075397   -2.4422847   -2.4422847   -1.4444124  0.069122895   -2.4422847   0.99787227   587749 
 3102000    1.0087788   -2.4428693   -2.4428693   -1.4437699  0.070635178   -2.4428693   0.99909949   587749 
 3103000    1.0077411   -2.4424013   -2.4424013   -1.4443296  0.069514105   -2.4424013    0.9980717   587749 
 3104000    1.0076588   -2.4420701   -2.4420701   -1.4440799  0.067885463   -2.4420701   0.99799022   587749 
 3105000    1.0088015   -2.4429581   -2.4429581   -1.4438362  0.082627157   -2.4429581   0.99912193   587749 
 3106000    1.0070191   -2.4415829   -2.4415829   -1.4442263  0.070808927   -2.4415829   0.99735664   587749 
 3107000    1.0080266   -2.4417057   -2.4417057   -1.4433512  0.065302082   -2.4417057   0.99835446   587749 
 3108000      1.00939   -2.4425083   -2.4425083   -1.4428035  0.079391838   -2.4425083   0.99970479   587749 
 3109000    1.0095621   -2.4426878   -2.4426878   -1.4428125  0.057454944   -2.4426878   0.99987529   587749 
 3110000    1.0092124   -2.4424256   -2.4424256   -1.4428967  0.065737239   -2.4424256   0.99952888   587749 
 3111000    1.0083459   -2.4413669   -2.4413669   -1.4426962   0.07651232   -2.4413669   0.99867072   587749 
 3112000    1.0071644   -2.4398121   -2.4398121   -1.4423115  0.074831659   -2.4398121    0.9975006   587749 
 3113000    1.0081084   -2.4414973   -2.4414973   -1.4430618  0.057258376   -2.4414973   0.99843551   587749 
 3114000    1.0056214   -2.4388025   -2.4388025   -1.4428301  0.078763139   -2.4388025   0.99597242   587749 
 3115000    1.0065214   -2.4401329   -2.4401329   -1.4432692  0.067351284   -2.4401329   0.99686375   587749 
 3116000    1.0075782   -2.4407153   -2.4407153   -1.4428049  0.065629757   -2.4407153   0.99791044   587749 
 3117000    1.0067194   -2.4398714   -2.4398714   -1.4428116  0.070221163   -2.4398714   0.99705983   587749 
 3118000    1.0073848   -2.4406399   -2.4406399   -1.4429211    0.0616368   -2.4406399   0.99771883   587749 
 3119000    1.0073504    -2.440939    -2.440939   -1.4432542  0.056025255    -2.440939   0.99768481   587749 
 3120000    1.0072114   -2.4407879   -2.4407879   -1.4432408  0.077932242   -2.4407879   0.99754713   587749 
 3121000    1.0074005   -2.4404693   -2.4404693   -1.4427349  0.066142699   -2.4404693   0.99773436   587749 
 3122000    1.0068988   -2.4397153   -2.4397153   -1.4424778  0.066773759   -2.4397153   0.99723748   587749 
 3123000    1.0069363   -2.4404775   -2.4404775   -1.4432028  0.064364185   -2.4404775   0.99727465   587749 
 3124000    1.0078778   -2.4409021   -2.4409021   -1.4426949  0.062446306   -2.4409021   0.99820715   587749 
 3125000    1.0080044   -2.4410381   -2.4410381   -1.4427056  0.062348073   -2.4410381   0.99833254   587749 
 3126000    1.0052952   -2.4390037   -2.4390037   -1.4433543  0.067705191   -2.4390037   0.99564931   587749 
 3127000    1.0068636   -2.4405873   -2.4405873   -1.4433846  0.065814473   -2.4405873    0.9972027   587749 
 3128000    1.0075157   -2.4413968   -2.4413968   -1.4435483  0.068220152   -2.4413968   0.99784848   587749 
 3129000    1.0068514   -2.4400449   -2.4400449   -1.4428543   0.06270963   -2.4400449    0.9971906   587749 
 3130000    1.0079906   -2.4419125   -2.4419125   -1.4435936   0.06793577   -2.4419125   0.99831882   587749 
 3131000    1.0081495   -2.4414313   -2.4414313   -1.4429551  0.064709539   -2.4414313    0.9984762   587749 
 3132000    1.0069875   -2.4410743   -2.4410743    -1.443749  0.064497438   -2.4410743   0.99732537   587749 
 3133000    1.0068062   -2.4411226   -2.4411226   -1.4439768  0.073985707   -2.4411226   0.99714581   587749 
 3134000    1.0080576   -2.4419601   -2.4419601   -1.4435749  0.073258053   -2.4419601   0.99838517   587749 
 3135000    1.0080736   -2.4420402   -2.4420402   -1.4436391  0.066046457   -2.4420402   0.99840105   587749 
 3136000    1.0069909   -2.4409176   -2.4409176   -1.4435889  0.072108636   -2.4409176   0.99732876   587749 
 3137000    1.0086775   -2.4422579   -2.4422579   -1.4432587  0.080071764   -2.4422579   0.99899917   587749 
 3138000    1.0096938   -2.4435902   -2.4435902   -1.4435845  0.064086581   -2.4435902    1.0000057   587749 
 3139000    1.0095661   -2.4437071   -2.4437071   -1.4438279  0.074334653   -2.4437071   0.99987919   587749 
 3140000    1.0087523   -2.4430926   -2.4430926   -1.4440194  0.068858874   -2.4430926   0.99907319   587749 
 3141000    1.0074973   -2.4420003   -2.4420003   -1.4441701  0.067704153   -2.4420003   0.99783025   587749 
 3142000    1.0079001   -2.4423532   -2.4423532   -1.4441239  0.070775538   -2.4423532   0.99822926   587749 
 3143000    1.0077241   -2.4413431   -2.4413431   -1.4432882  0.066269772   -2.4413431   0.99805489   587749 
 3144000    1.0071508   -2.4409463   -2.4409463   -1.4434593  0.067746564   -2.4409463   0.99748709   587749 
 3145000    1.0075643    -2.441576    -2.441576   -1.4436794  0.072231651    -2.441576   0.99789662   587749 
 3146000     1.009012   -2.4429152   -2.4429152   -1.4435847  0.064689262   -2.4429152   0.99933043   587749 
 3147000    1.0064252   -2.4411063   -2.4411063   -1.4443378  0.075028576   -2.4411063   0.99676849   587749 
 3148000    1.0079674   -2.4427239   -2.4427239   -1.4444281  0.074747527   -2.4427239   0.99829585   587749 
 3149000    1.0069107   -2.4416081   -2.4416081   -1.4443587   0.06963591   -2.4416081   0.99724936   587749 
 3150000    1.0078859   -2.4430834   -2.4430834   -1.4448682  0.074926745   -2.4430834   0.99821519   587749 
 3151000      1.00612   -2.4409827   -2.4409827   -1.4445165  0.065707383   -2.4409827   0.99646617   587749 
 3152000    1.0076763   -2.4426054   -2.4426054   -1.4445978  0.067312197   -2.4426054   0.99800761   587749 
 3153000    1.0061706   -2.4412221   -2.4412221   -1.4447058  0.068427858   -2.4412221   0.99651631   587749 
 3154000    1.0069627   -2.4417825   -2.4417825   -1.4444817  0.074788392   -2.4417825   0.99730081   587749 
 3155000    1.0059367   -2.4417156   -2.4417156   -1.4454309  0.070034556   -2.4417156   0.99628467   587749 
 3156000    1.0079508   -2.4426795   -2.4426795   -1.4444001  0.062822013   -2.4426795   0.99827941   587749 
 3157000    1.0072532   -2.4423947   -2.4423947   -1.4448062  0.065746675   -2.4423947   0.99758847   587749 
 3158000    1.0072256   -2.4429626   -2.4429626   -1.4454014  0.068916804   -2.4429626   0.99756121   587749 
 3159000    1.0052459   -2.4416492   -2.4416492   -1.4460487  0.081067152   -2.4416492   0.99560047   587749 
 3160000    1.0058014   -2.4413714   -2.4413714   -1.4452207  0.068638667   -2.4413714   0.99615068   587749 
 3161000    1.0083024   -2.4429492   -2.4429492   -1.4443215  0.069411571   -2.4429492   0.99862768   587749 
 3162000    1.0083108    -2.442257    -2.442257    -1.443621  0.064196178    -2.442257     0.998636   587749 
 3163000      1.00846   -2.4421724   -2.4421724   -1.4433887  0.070080048   -2.4421724   0.99878371   587749 
 3164000    1.0096817   -2.4430056   -2.4430056   -1.4430119  0.059647363   -2.4430056    0.9999937   587749 
 3165000    1.0068281    -2.440091    -2.440091   -1.4429235  0.077901598    -2.440091   0.99716746   587749 
 3166000    1.0079335   -2.4421878   -2.4421878   -1.4439255  0.070490874   -2.4421878   0.99826232   587749 
 3167000    1.0088357   -2.4425264   -2.4425264   -1.4433706  0.061061695   -2.4425264   0.99915584   587749 
 3168000    1.0067786   -2.4413402   -2.4413402   -1.4442218  0.059947449   -2.4413402   0.99711846   587749 
 3169000    1.0074064   -2.4427602   -2.4427602     -1.44502  0.058037425   -2.4427602   0.99774026   587749 
 3170000    1.0076676   -2.4429552   -2.4429552   -1.4449562  0.064116009   -2.4429552   0.99799898   587749 
 3171000    1.0084185   -2.4429958   -2.4429958   -1.4442531  0.070812385   -2.4429958   0.99874265   587749 
 3172000    1.0082345   -2.4423992   -2.4423992   -1.4438388  0.059151967   -2.4423992   0.99856044   587749 
 3173000    1.0078399   -2.4433129   -2.4433129   -1.4451432  0.057361838   -2.4433129   0.99816964   587749 
 3174000    1.0094251   -2.4442458   -2.4442458   -1.4445062  0.067827318   -2.4442458    0.9997396   587749 
 3175000    1.0072967   -2.4412694   -2.4412694   -1.4436378  0.084737258   -2.4412694   0.99763157   587749 
 3176000    1.0091194   -2.4432107   -2.4432107   -1.4437739  0.050738954   -2.4432107   0.99943679   587749 
 3177000    1.0093344   -2.4439223   -2.4439223   -1.4442726  0.072006885   -2.4439223    0.9996497   587749 
 3178000    1.0085546   -2.4431653   -2.4431653   -1.4442878  0.067881212   -2.4431653   0.99887748   587749 
 3179000     1.007759   -2.4428523   -2.4428523   -1.4447628  0.067305943   -2.4428523   0.99808949   587749 
 3180000    1.0086058   -2.4432957   -2.4432957   -1.4443676  0.062727398   -2.4432957    0.9989281   587749 
 3181000     1.007996   -2.4427519   -2.4427519   -1.4444277  0.075824787   -2.4427519   0.99832424   587749 
 3182000    1.0076486   -2.4427625   -2.4427625   -1.4447824  0.078670839   -2.4427625   0.99798009   587749 
 3183000    1.0077258   -2.4430674   -2.4430674   -1.4450109  0.075418134   -2.4430674   0.99805658   587749 
 3184000    1.0076557   -2.4431554   -2.4431554   -1.4451683  0.059938104   -2.4431554   0.99798716   587749 
 3185000    1.0079583   -2.4430558   -2.4430558   -1.4447689  0.066202304   -2.4430558   0.99828684   587749 
 3186000    1.0081065    -2.443535    -2.443535   -1.4451013  0.067971932    -2.443535   0.99843367   587749 
 3187000    1.0082688   -2.4440292   -2.4440292   -1.4454349  0.068851584   -2.4440292   0.99859438   587749 
 3188000    1.0091754   -2.4433592   -2.4433592    -1.443867  0.078669944   -2.4433592   0.99949227   587749 
 3189000     1.008878   -2.4439325   -2.4439325   -1.4447348   0.06198587   -2.4439325   0.99919771   587749 
 3190000    1.0069275   -2.4421925   -2.4421925   -1.4449266  0.063439284   -2.4421925   0.99726592   587749 
 3191000    1.0085128    -2.442986    -2.442986   -1.4441499  0.077171455    -2.442986   0.99883605   587749 
 3192000    1.0073414   -2.4408004   -2.4408004   -1.4431244  0.068085761   -2.4408004   0.99767591   587749 
 3193000    1.0090594   -2.4438391   -2.4438391   -1.4444617  0.069609031   -2.4438391   0.99937742   587749 
 3194000    1.0099868   -2.4431934   -2.4431934   -1.4428975  0.061331296   -2.4431934    1.0002959   587749 
 3195000    1.0097025   -2.4433565   -2.4433565   -1.4433422  0.066591076   -2.4433565    1.0000144   587749 
 3196000    1.0090194   -2.4426183   -2.4426183   -1.4432805  0.074959254   -2.4426183   0.99933779   587749 
 3197000    1.0099893   -2.4437782   -2.4437782   -1.4434797  0.067384015   -2.4437782    1.0002984   587749 
 3198000    1.0105824   -2.4437061   -2.4437061   -1.4428202  0.064004557   -2.4437061    1.0008858   587749 
 3199000    1.0103545   -2.4434946   -2.4434946   -1.4428345  0.073278873   -2.4434946    1.0006601   587749 
 3200000      1.01041   -2.4437014   -2.4437014   -1.4429864  0.068734473   -2.4437014     1.000715   587749 
 3201000    1.0099265   -2.4441564   -2.4441564   -1.4439203  0.068834257   -2.4441564    1.0002362   587749 
 3202000    1.0100562   -2.4433283   -2.4433283   -1.4429636   0.07720793   -2.4433283    1.0003647   587749 
 3203000    1.0097068    -2.443838    -2.443838   -1.4438194  0.073185687    -2.443838    1.0000186   587749 
 3204000    1.0100015   -2.4438458   -2.4438458   -1.4435354  0.062372432   -2.4438458    1.0003104   587749 
 3205000    1.0092056   -2.4431515   -2.4431515   -1.4436293  0.068996786   -2.4431515   0.99952223   587749 
 3206000    1.0093895   -2.4437864   -2.4437864   -1.4440821  0.072428688   -2.4437864   0.99970432   587749 
 3207000    1.0082051   -2.4432537   -2.4432537   -1.4447224  0.066259522   -2.4432537   0.99853127   587749 
 3208000    1.0060109   -2.4415985   -2.4415985   -1.4452403  0.073936447   -2.4415985   0.99635814   587749 
 3209000    1.0062806   -2.4415066   -2.4415066   -1.4448813  0.075526835   -2.4415066   0.99662525   587749 
 3210000      1.00622   -2.4415239   -2.4415239   -1.4449587  0.063221686   -2.4415239   0.99656524   587749 
 3211000    1.0056719   -2.4419277   -2.4419277   -1.4459053  0.064336429   -2.4419277   0.99602243   587749 
 3212000     1.007933   -2.4433719   -2.4433719   -1.4451101  0.051869487   -2.4433719   0.99826181   587749 
 3213000    1.0075536   -2.4420255   -2.4420255   -1.4441394  0.060791811   -2.4420255   0.99788607   587749 
 3214000    1.0072259   -2.4417231   -2.4417231   -1.4441617  0.069841744   -2.4417231   0.99756146   587749 
 3215000    1.0080695   -2.4420276   -2.4420276   -1.4436306  0.074755122   -2.4420276   0.99839703   587749 
 3216000    1.0069553   -2.4409588   -2.4409588   -1.4436653  0.062260948   -2.4409588   0.99729351   587749 
 3217000    1.0071195   -2.4415034   -2.4415034   -1.4440473  0.081452777   -2.4415034   0.99745607   587749 
 3218000    1.0077761   -2.4406238   -2.4406238   -1.4425174  0.067347665   -2.4406238   0.99810645   587749 
 3219000    1.0067162    -2.439946    -2.439946   -1.4428893  0.066827008    -2.439946    0.9970567   587749 
 3220000    1.0094403   -2.4418026   -2.4418026    -1.442048  0.069206952   -2.4418026   0.99975467   587749 
 3221000    1.0079809   -2.4406153   -2.4406153    -1.442306  0.068646869   -2.4406153   0.99830924   587749 
 3222000    1.0096803   -2.4430228   -2.4430228   -1.4430305  0.068030056   -2.4430228   0.99999231   587749 
 3223000    1.0081969   -2.4412511   -2.4412511    -1.442728  0.073587667   -2.4412511   0.99852313   587749 
 3224000    1.0076496   -2.4406725   -2.4406725   -1.4426913  0.065361833   -2.4406725   0.99798117   587749 
 3225000     1.009301   -2.4422702   -2.4422702   -1.4426535  0.060872522   -2.4422702   0.99961672   587749 
 3226000     1.008941   -2.4417555   -2.4417555   -1.4424954  0.066386203   -2.4417555   0.99926009   587749 
 3227000     1.009222   -2.4423652   -2.4423652   -1.4428268  0.078690472   -2.4423652   0.99953845   587749 
 3228000    1.0085516   -2.4409443   -2.4409443   -1.4420699  0.085970222   -2.4409443   0.99887445   587749 
 3229000     1.009196   -2.4424184   -2.4424184   -1.4429057   0.06205239   -2.4424184   0.99951267   587749 
 3230000    1.0078213   -2.4405036   -2.4405036   -1.4423524  0.068675387   -2.4405036   0.99815116   587749 
 3231000    1.0069759   -2.4398388   -2.4398388   -1.4425249  0.067917582   -2.4398388   0.99731389   587749 
 3232000     1.006077   -2.4388265   -2.4388265   -1.4424028   0.07678826   -2.4388265   0.99642365   587749 
 3233000     1.006055   -2.4392306   -2.4392306   -1.4428287  0.062837924   -2.4392306   0.99640186   587749 
 3234000    1.0063882   -2.4396542   -2.4396542   -1.4429223   0.08194325   -2.4396542   0.99673187   587749 
 3235000    1.0062952   -2.4395506   -2.4395506   -1.4429108  0.064402583   -2.4395506   0.99663971   587749 
 3236000    1.0079597   -2.4404081   -2.4404081   -1.4421199  0.054900278   -2.4404081   0.99828824   587749 
 3237000    1.0062123   -2.4387112   -2.4387112   -1.4421536  0.065049721   -2.4387112   0.99655757   587749 
 3238000    1.0070116   -2.4390483   -2.4390483   -1.4416991  0.076996008   -2.4390483    0.9973492   587749 
 3239000    1.0073043   -2.4397606   -2.4397606   -1.4421215  0.064900606   -2.4397606   0.99763911   587749 
 3240000    1.0078273   -2.4410067   -2.4410067   -1.4428496  0.063962603   -2.4410067   0.99815714   587749 
 3241000    1.0090913   -2.4423634   -2.4423634   -1.4429544  0.070555555   -2.4423634   0.99940896   587749 
 3242000    1.0081481   -2.4412967   -2.4412967   -1.4428219  0.077617252   -2.4412967   0.99847479   587749 
 3243000    1.0068657   -2.4401642   -2.4401642   -1.4429595  0.064824497   -2.4401642   0.99720478   587749 
 3244000    1.0079984   -2.4406048   -2.4406048   -1.4422782  0.058015822   -2.4406048   0.99832654   587749 
 3245000    1.0079627   -2.4413766   -2.4413766   -1.4430854  0.055487875   -2.4413766   0.99829122   587749 
 3246000    1.0073477   -2.4406759   -2.4406759   -1.4429938  0.070001936   -2.4406759   0.99768209   587749 
 3247000    1.0083678    -2.441133    -2.441133   -1.4424406  0.073453808    -2.441133   0.99869239   587749 
 3248000    1.0077717   -2.4403951   -2.4403951   -1.4422931  0.073206339   -2.4403951   0.99810204   587749 
 3249000    1.0077901   -2.4403678   -2.4403678   -1.4422475  0.061752929   -2.4403678   0.99812023   587749 
 3250000    1.0085301    -2.441071    -2.441071   -1.4422178  0.060130121    -2.441071   0.99885316   587749 
 3251000    1.0069613   -2.4403466   -2.4403466   -1.4430472  0.072124017   -2.4403466   0.99729938   587749 
 3252000    1.0066133   -2.4410039   -2.4410039   -1.4440492  0.067628032   -2.4410039   0.99695478   587749 
 3253000    1.0072282    -2.442642    -2.442642   -1.4450782  0.061361668    -2.442642   0.99756375   587749 
 3254000    1.0086167   -2.4432654   -2.4432654   -1.4443264  0.062481013   -2.4432654   0.99893891   587749 
 3255000    1.0085787   -2.4440388   -2.4440388   -1.4451375  0.073503677   -2.4440388   0.99890131   587749 
 3256000    1.0095169   -2.4442516   -2.4442516   -1.4444211  0.053972424   -2.4442516   0.99983048   587749 
 3257000    1.0088127    -2.442817    -2.442817   -1.4436839  0.075579051    -2.442817    0.9991331   587749 
 3258000    1.0084577   -2.4427749   -2.4427749   -1.4439934  0.076717723   -2.4427749   0.99878149   587749 
 3259000     1.008002   -2.4429951   -2.4429951    -1.444665  0.066707825   -2.4429951   0.99833011   587749 
 3260000    1.0074641   -2.4413479   -2.4413479   -1.4435505  0.064801451   -2.4413479   0.99779737   587749 
 3261000    1.0104617   -2.4442645   -2.4442645   -1.4434982  0.064001608   -2.4442645    1.0007663   587749 
 3262000    1.0084017   -2.4430253   -2.4430253   -1.4442992  0.068850764   -2.4430253   0.99872604   587749 
 3263000    1.0077227   -2.4423504   -2.4423504   -1.4442969   0.07604414   -2.4423504   0.99805352   587749 
 3264000    1.0081864   -2.4437798   -2.4437798   -1.4452671  0.070403217   -2.4437798   0.99851274   587749 
 3265000    1.0089532   -2.4446546   -2.4446546   -1.4453824  0.069660324   -2.4446546   0.99927224   587749 
 3266000    1.0078307   -2.4435055   -2.4435055    -1.445345  0.069217342   -2.4435055   0.99816048   587749 
 3267000    1.0080525   -2.4430634   -2.4430634   -1.4446832  0.085876505   -2.4430634   0.99838015   587749 
 3268000    1.0098201   -2.4433588   -2.4433588    -1.443228  0.059625257   -2.4433588    1.0001308   587749 
 3269000    1.0083521   -2.4423727   -2.4423727   -1.4436958  0.076413927   -2.4423727   0.99867686   587749 
 3270000    1.0085849   -2.4432003   -2.4432003   -1.4442929  0.067865241   -2.4432003   0.99890741   587749 
 3271000    1.0108466   -2.4447614   -2.4447614   -1.4436139  0.075694375   -2.4447614    1.0011474   587749 
 3272000    1.0085025   -2.4420772   -2.4420772   -1.4432514  0.082342197   -2.4420772   0.99882581   587749 
 3273000    1.0098537   -2.4440188   -2.4440188   -1.4438547  0.073667558   -2.4440188    1.0001641   587749 
 3274000     1.009709   -2.4445949   -2.4445949   -1.4445741  0.079151626   -2.4445949    1.0000207   587749 
 3275000    1.0076957   -2.4430237   -2.4430237   -1.4449969  0.082687057   -2.4430237    0.9980268   587749 
 3276000    1.0083116   -2.4434276   -2.4434276   -1.4447908  0.069278277   -2.4434276   0.99863681   587749 
 3277000    1.0083713   -2.4440093   -2.4440093   -1.4453134  0.056962103   -2.4440093   0.99869588   587749 
 3278000    1.0088193     -2.44359     -2.44359   -1.4444503  0.060648257     -2.44359   0.99913964   587749 
 3279000    1.0059479   -2.4412842   -2.4412842   -1.4449885  0.075160564   -2.4412842   0.99629574   587749 
 3280000    1.0087043    -2.443886    -2.443886   -1.4448604  0.074140434    -2.443886   0.99902567   587749 
 3281000    1.0077038   -2.4424543   -2.4424543   -1.4444195  0.074577143   -2.4424543   0.99803482   587749 
 3282000    1.0071656   -2.4426561   -2.4426561   -1.4451543    0.0775939   -2.4426561   0.99750173   587749 
 3283000    1.0073162    -2.443539    -2.443539   -1.4458882  0.066395778    -2.443539   0.99765087   587749 
 3284000    1.0087912   -2.4441374   -2.4441374   -1.4450256  0.073638082   -2.4441374   0.99911179   587749 
 3285000    1.0064788   -2.4434312   -2.4434312   -1.4466096  0.064628636   -2.4434312   0.99682157   587749 
 3286000    1.0064332   -2.4436604   -2.4436604    -1.446884  0.074578494   -2.4436604   0.99677642   587749 
 3287000    1.0082324   -2.4444895   -2.4444895   -1.4459312   0.06778349   -2.4444895   0.99855833   587749 
 3288000     1.007078   -2.4428138   -2.4428138   -1.4453988  0.073228329   -2.4428138   0.99741503   587749 
 3289000    1.0095984   -2.4444753   -2.4444753   -1.4445641  0.075433993   -2.4444753   0.99991124   587749 
 3290000    1.0096709   -2.4445558   -2.4445558   -1.4445728  0.074335849   -2.4445558     0.999983   587749 
 3291000    1.0078479    -2.442225    -2.442225   -1.4440475  0.060791055    -2.442225   0.99817749   587749 
 3292000    1.0094872   -2.4452389   -2.4452389   -1.4454378  0.064327883   -2.4452389   0.99980108   587749 
 3293000    1.0089126   -2.4436226   -2.4436226   -1.4443906   0.06432332   -2.4436226   0.99923201   587749 
 3294000    1.0083434   -2.4435066   -2.4435066   -1.4448383   0.06959346   -2.4435066   0.99866825   587749 
 3295000     1.006724   -2.4421589   -2.4421589   -1.4450945  0.081494685   -2.4421589   0.99706439   587749 
 3296000    1.0061643   -2.4414429   -2.4414429   -1.4449328  0.077736371   -2.4414429   0.99651012   587749 
 3297000    1.0076141   -2.4425501   -2.4425501   -1.4446042  0.063656793   -2.4425501   0.99794594   587749 
 3298000    1.0067604   -2.4420025   -2.4420025    -1.444902  0.052662643   -2.4420025   0.99710043   587749 
 3299000    1.0080025   -2.4423655   -2.4423655   -1.4440349  0.063668966   -2.4423655   0.99833061   587749 
 3300000    1.0081758   -2.4422052   -2.4422052   -1.4437029  0.067513878   -2.4422052   0.99850225   587749 
 3301000    1.0073282   -2.4420267   -2.4420267   -1.4443639  0.068212196   -2.4420267   0.99766279   587749 
 3302000    1.0047626   -2.4397653   -2.4397653   -1.4446434  0.073697879   -2.4397653   0.99512183   587749 
 3303000    1.0075389   -2.4436257   -2.4436257   -1.4457542  0.067355635   -2.4436257   0.99787149   587749 
 3304000    1.0082718   -2.4438875   -2.4438875   -1.4452901  0.060335558   -2.4438875   0.99859735   587749 
 3305000    1.0076456   -2.4425936   -2.4425936   -1.4446164  0.061080184   -2.4425936   0.99797716   587749 
 3306000      1.00883   -2.4431937   -2.4431937   -1.4440436   0.07214408   -2.4431937   0.99915017   587749 
 3307000    1.0074224   -2.4427388   -2.4427388   -1.4449827  0.068855183   -2.4427388   0.99775613   587749 
 3308000    1.0057216   -2.4411168   -2.4411168   -1.4450452  0.068102165   -2.4411168   0.99607164   587749 
 3309000    1.0068742    -2.441761    -2.441761   -1.4445479  0.057665456    -2.441761   0.99721313   587749 
 3310000    1.0078245   -2.4427404   -2.4427404    -1.444586  0.064728145   -2.4427404   0.99815436   587749 
 3311000    1.0080135   -2.4439145   -2.4439145    -1.445573  0.063447631   -2.4439145    0.9983415   587749 
 3312000    1.0067522   -2.4421249   -2.4421249   -1.4450326    0.0756232   -2.4421249   0.99709229   587749 
 3313000    1.0069067   -2.4430325   -2.4430325   -1.4457872  0.064088421   -2.4430325   0.99724531   587749 
 3314000    1.0072253   -2.4435826   -2.4435826   -1.4460218   0.06129447   -2.4435826   0.99756085   587749 
 3315000    1.0082167   -2.4442232   -2.4442232   -1.4456804  0.061918853   -2.4442232   0.99854279   587749 
 3316000    1.0066722   -2.4424643   -2.4424643   -1.4454512   0.07524817   -2.4424643   0.99701308   587749 
 3317000    1.0078862   -2.4444317   -2.4444317   -1.4462163  0.077643943   -2.4444317   0.99821543   587749 
 3318000    1.0080716   -2.4441474   -2.4441474   -1.4457484  0.072773724   -2.4441474   0.99839904   587749 
 3319000     1.006916   -2.4430429   -2.4430429   -1.4457884  0.078123082   -2.4430429   0.99725451   587749 
 3320000    1.0098813    -2.446795    -2.446795   -1.4466036  0.062632739    -2.446795    1.0001914   587749 
 3321000    1.0077532   -2.4443254   -2.4443254   -1.4462417  0.066319532   -2.4443254    0.9980837   587749 
 3322000     1.008985   -2.4451099   -2.4451099   -1.4458062  0.080829524   -2.4451099   0.99930373   587749 
 3323000     1.006272   -2.4429092   -2.4429092   -1.4462925  0.071406692   -2.4429092   0.99661669   587749 
 3324000    1.0083164   -2.4454878   -2.4454878   -1.4468463  0.073869898   -2.4454878   0.99864147   587749 
 3325000    1.0080534   -2.4451841   -2.4451841    -1.446803  0.072146945   -2.4451841   0.99838106   587749 
 3326000    1.0065624   -2.4436756   -2.4436756   -1.4467712  0.068545791   -2.4436756   0.99690434   587749 
 3327000    1.0063343   -2.4442577   -2.4442577   -1.4475793  0.070002679   -2.4442577   0.99667846   587749 
 3328000    1.0075356   -2.4445497   -2.4445497   -1.4466815  0.078148717   -2.4445497   0.99786818   587749 
 3329000    1.0056137   -2.4434117   -2.4434117   -1.4474469  0.065941533   -2.4434117   0.99596479   587749 
 3330000    1.0069175   -2.4441224   -2.4441224   -1.4468664  0.065295781   -2.4441224   0.99725604   587749 
 3331000    1.0078611   -2.4455664   -2.4455664   -1.4473758  0.059198127   -2.4455664   0.99819061   587749 
 3332000    1.0085053    -2.444785    -2.444785   -1.4459565  0.067639145    -2.444785   0.99882856   587749 
 3333000    1.0083608   -2.4440151   -2.4440151   -1.4453296  0.082016924   -2.4440151    0.9986855   587749 
 3334000    1.0081699   -2.4440867   -2.4440867   -1.4455903  0.077228775   -2.4440867   0.99849638   587749 
 3335000    1.0091382   -2.4452795   -2.4452795   -1.4458241  0.073972571   -2.4452795   0.99945544   587749 
 3336000    1.0078704   -2.4433684   -2.4433684   -1.4451686   0.06596111   -2.4433684   0.99819977   587749 
 3337000    1.0098309   -2.4450699   -2.4450699   -1.4449284  0.062451014   -2.4450699    1.0001415   587749 
 3338000    1.0081354   -2.4445377   -2.4445377   -1.4460754  0.067472846   -2.4445377   0.99846222   587749 
 3339000    1.0086218   -2.4450568   -2.4450568   -1.4461127  0.062534779   -2.4450568   0.99894403   587749 
 3340000    1.0069099   -2.4442265   -2.4442265    -1.446978  0.061706729   -2.4442265   0.99724849   587749 
 3341000    1.0052601   -2.4433503   -2.4433503   -1.4477358  0.058265295   -2.4433503   0.99561456   587749 
 3342000    1.0063927   -2.4444867   -2.4444867   -1.4477503  0.068713807   -2.4444867   0.99673632   587749 
 3343000    1.0061794   -2.4433623   -2.4433623   -1.4468373  0.055632686   -2.4433623   0.99652503   587749 
 3344000    1.0059552   -2.4436645   -2.4436645   -1.4473616   0.06880261   -2.4436645   0.99630295   587749 
 3345000    1.0059476    -2.442955    -2.442955   -1.4466596  0.044528089    -2.442955   0.99629545   587749 
 3346000    1.0067051   -2.4423323   -2.4423323   -1.4452865  0.069317198   -2.4423323   0.99704572   587749 
 3347000    1.0075658   -2.4421823   -2.4421823   -1.4442842  0.067580881   -2.4421823   0.99789813   587749 
 3348000    1.0069394   -2.4421995   -2.4421995   -1.4449218  0.071684846   -2.4421995   0.99727777   587749 
 3349000    1.0092304   -2.4444584   -2.4444584   -1.4449117  0.067497445   -2.4444584   0.99954671   587749 
 3350000    1.0073136   -2.4421798   -2.4421798   -1.4445315  0.066991836   -2.4421798    0.9976483   587749 
 3351000    1.0088431   -2.4435684   -2.4435684   -1.4444052  0.070513017   -2.4435684    0.9991632   587749 
 3352000    1.0079193   -2.4425609   -2.4425609   -1.4443126   0.08512616   -2.4425609   0.99824828   587749 
 3353000    1.0083735    -2.443156    -2.443156    -1.444458   0.06838299    -2.443156   0.99869805   587749 
 3354000    1.0088861   -2.4429697   -2.4429697   -1.4437639  0.081289713   -2.4429697   0.99920574   587749 
 3355000    1.0097348   -2.4441301   -2.4441301   -1.4440838  0.077969606   -2.4441301    1.0000463   587749 
 3356000    1.0090639   -2.4435026   -2.4435026   -1.4441207  0.075570347   -2.4435026   0.99938187   587749 
 3357000    1.0079622    -2.442006    -2.442006   -1.4437152  0.062393693    -2.442006   0.99829074   587749 
 3358000    1.0079967   -2.4420599   -2.4420599    -1.443735  0.078073865   -2.4420599   0.99832489   587749 
 3359000    1.0078546   -2.4422925   -2.4422925   -1.4441084  0.082178271   -2.4422925   0.99818417   587749 
 3360000    1.0079512   -2.4424341   -2.4424341   -1.4441542  0.075089365   -2.4424341   0.99827983   587749 
 3361000    1.0085259   -2.4429132   -2.4429132   -1.4440642    0.0671529   -2.4429132   0.99884901   587749 
 3362000    1.0073256   -2.4420851   -2.4420851   -1.4444249   0.06964409   -2.4420851   0.99766025   587749 
 3363000    1.0069573   -2.4423035   -2.4423035   -1.4450081  0.070513272   -2.4423035   0.99729543   587749 
 3364000     1.007107   -2.4414908   -2.4414908   -1.4440471  0.070898699   -2.4414908   0.99744369   587749 
 3365000    1.0084497   -2.4426968   -2.4426968   -1.4439232  0.068805146   -2.4426968   0.99877359   587749 
 3366000    1.0084973   -2.4421587   -2.4421587   -1.4433381  0.065284986   -2.4421587   0.99882065   587749 
 3367000    1.0080052   -2.4407626   -2.4407626   -1.4424293  0.081721885   -2.4407626   0.99833329   587749 
 3368000    1.0105182   -2.4438204   -2.4438204   -1.4429982  0.061727156   -2.4438204    1.0008222   587749 
 3369000    1.0084974   -2.4418982   -2.4418982   -1.4430774  0.076116759   -2.4418982   0.99882081   587749 
 3370000    1.0094811   -2.4430738   -2.4430738   -1.4432788  0.063439412   -2.4430738   0.99979509   587749 
 3371000    1.0089035   -2.4422295   -2.4422295   -1.4430065  0.070027041   -2.4422295   0.99922297   587749 
 3372000    1.0084544   -2.4413998   -2.4413998   -1.4426217  0.078258503   -2.4413998   0.99877818   587749 
 3373000    1.0095975    -2.442188    -2.442188   -1.4422777  0.074485039    -2.442188   0.99991032   587749 
 3374000    1.0106923   -2.4441459   -2.4441459   -1.4431513  0.069564509   -2.4441459    1.0009946   587749 
 3375000    1.0073054    -2.440715    -2.440715   -1.4430748  0.072924579    -2.440715   0.99764023   587749 
 3376000    1.0075909   -2.4415005   -2.4415005   -1.4435775  0.072849455   -2.4415005   0.99792302   587749 
 3377000    1.0064138    -2.441122    -2.441122   -1.4443649  0.082843215    -2.441122   0.99675715   587749 
 3378000    1.0056361   -2.4400089   -2.4400089    -1.444022  0.068151338   -2.4400089   0.99598695   587749 
 3379000    1.0076197   -2.4411684   -2.4411684   -1.4432169  0.073688846   -2.4411684   0.99795146   587749 
 3380000    1.0068094    -2.440422    -2.440422    -1.443273  0.074128638    -2.440422     0.997149   587749 
 3381000     1.005632    -2.439573    -2.439573   -1.4435901  0.070812313    -2.439573   0.99598289   587749 
 3382000    1.0057863   -2.4401559   -2.4401559   -1.4440202  0.071698239   -2.4401559    0.9961357   587749 
 3383000    1.0068634   -2.4409758   -2.4409758   -1.4437733  0.063718582   -2.4409758   0.99720246   587749 
 3384000     1.007842     -2.44274     -2.44274   -1.4445683  0.062938597     -2.44274   0.99817172   587749 
 3385000     1.007193   -2.4407975   -2.4407975   -1.4432686  0.072639318   -2.4407975   0.99752892   587749 
 3386000    1.0065617   -2.4403209   -2.4403209   -1.4434172  0.066392409   -2.4403209   0.99690364   587749 
 3387000    1.0074191    -2.441589    -2.441589   -1.4438361  0.066595076    -2.441589   0.99775283   587749 
 3388000    1.0084859   -2.4418312   -2.4418312   -1.4430217  0.076437469   -2.4418312   0.99880943   587749 
 3389000    1.0086508    -2.442378    -2.442378   -1.4434052  0.062148985    -2.442378   0.99897272   587749 
 3390000    1.0074643   -2.4408883   -2.4408883   -1.4430907  0.078497587   -2.4408883   0.99779759   587749 
 3391000    1.0076765   -2.4418487   -2.4418487   -1.4438409  0.065690316   -2.4418487    0.9980078   587749 
 3392000     1.007988   -2.4424617   -2.4424617   -1.4441454  0.064895068   -2.4424617   0.99831625   587749 
 3393000    1.0067764   -2.4418261   -2.4418261   -1.4447097  0.071241718   -2.4418261   0.99711634   587749 
 3394000    1.0102507   -2.4451544   -2.4451544   -1.4445972  0.067434643   -2.4451544    1.0005572   587749 
 3395000    1.0065982   -2.4424164   -2.4424164   -1.4454765  0.075654481   -2.4424164   0.99693984   587749 
 3396000    1.0075045    -2.443347    -2.443347   -1.4455095   0.07153698    -2.443347   0.99783742   587749 
 3397000    1.0057806   -2.4419819   -2.4419819   -1.4458519  0.075733127   -2.4419819   0.99613002   587749 
 3398000    1.0074221   -2.4440387   -2.4440387   -1.4462829  0.062612779   -2.4440387   0.99775581   587749 
 3399000    1.0067782   -2.4424164   -2.4424164   -1.4452983  0.071502103   -2.4424164   0.99711807   587749 
 3400000    1.0085067   -2.4440762   -2.4440762   -1.4452461   0.06599238   -2.4440762   0.99883004   587749 
 3401000    1.0075163   -2.4437386   -2.4437386   -1.4458895  0.059876618   -2.4437386   0.99784907   587749 
 3402000    1.0083583   -2.4439537   -2.4439537   -1.4452707   0.07107496   -2.4439537   0.99868303   587749 
 3403000    1.0097434   -2.4450848   -2.4450848   -1.4450299  0.063602151   -2.4450848    1.0000549   587749 
 3404000     1.008364   -2.4439256   -2.4439256    -1.445237  0.070535897   -2.4439256   0.99868866   587749 
 3405000    1.0094323   -2.4451564   -2.4451564   -1.4454097  0.063320506   -2.4451564   0.99974672   587749 
 3406000    1.0088209   -2.4445732   -2.4445732    -1.445432   0.06941658   -2.4445732    0.9991412   587749 
 3407000    1.0095109   -2.4445382   -2.4445382   -1.4447136  0.064827306   -2.4445382   0.99982457   587749 
 3408000    1.0085255   -2.4434611   -2.4434611   -1.4446124  0.070405793   -2.4434611   0.99884863   587749 
 3409000    1.0096538   -2.4453451   -2.4453451    -1.445379  0.074823515   -2.4453451   0.99996613   587749 
 3410000    1.0091188   -2.4441171   -2.4441171   -1.4446809  0.069591823   -2.4441171   0.99943621   587749 
 3411000    1.0083361   -2.4429373   -2.4429373   -1.4442763  0.085136474   -2.4429373   0.99866098   587749 
 3412000    1.0091235   -2.4432239   -2.4432239    -1.443783  0.069324251   -2.4432239   0.99944087   587749 
 3413000    1.0096483   -2.4443742   -2.4443742   -1.4444135  0.067883521   -2.4443742   0.99996066   587749 
 3414000    1.0088069    -2.443757    -2.443757   -1.4446297  0.078688368    -2.443757   0.99912733   587749 
 3415000    1.0089948    -2.443587    -2.443587   -1.4442735  0.069878787    -2.443587   0.99931343   587749 
 3416000    1.0086431   -2.4428232   -2.4428232   -1.4438581  0.072002523   -2.4428232    0.9989651   587749 
 3417000    1.0092891   -2.4434554   -2.4434554   -1.4438506  0.065579859   -2.4434554   0.99960484   587749 
 3418000    1.0088884   -2.4430456   -2.4430456   -1.4438375  0.069173175   -2.4430456   0.99920804   587749 
 3419000    1.0078083   -2.4420554   -2.4420554   -1.4439171  0.067949325   -2.4420554   0.99813832   587749 
 3420000    1.0069823   -2.4410538   -2.4410538   -1.4437337  0.069802165   -2.4410538   0.99732018   587749 
 3421000    1.0076151   -2.4417842   -2.4417842   -1.4438373    0.0662929   -2.4417842     0.997947   587749 
 3422000    1.0079393   -2.4423562   -2.4423562   -1.4440882  0.066155402   -2.4423562   0.99826806   587749 
 3423000     1.007907   -2.4420516   -2.4420516   -1.4438155  0.065629674   -2.4420516    0.9982361   587749 
 3424000    1.0088083   -2.4421484   -2.4421484   -1.4430197   0.07515454   -2.4421484   0.99912874   587749 
 3425000    1.0064763   -2.4402403   -2.4402403   -1.4434212  0.083435629   -2.4402403   0.99681904   587749 
 3426000    1.0073113   -2.4405208   -2.4405208   -1.4428748   0.06488991   -2.4405208   0.99764604   587749 
 3427000    1.0066834   -2.4412349   -2.4412349   -1.4442107  0.075009479   -2.4412349   0.99702417   587749 
 3428000    1.0069562   -2.4409694   -2.4409694    -1.443675  0.071119823   -2.4409694   0.99729439   587749 
 3429000    1.0057392   -2.4403186   -2.4403186   -1.4442295  0.066015074   -2.4403186   0.99608909   587749 
 3430000     1.006873   -2.4408972   -2.4408972   -1.4436852  0.066980683   -2.4408972   0.99721201   587749 
 3431000    1.0067299   -2.4411795   -2.4411795   -1.4441092   0.07162261   -2.4411795   0.99707028   587749 
 3432000     1.008091   -2.4426941   -2.4426941   -1.4442758  0.063728106   -2.4426941   0.99841832   587749 
 3433000    1.0075421    -2.442168    -2.442168   -1.4442934  0.055004425    -2.442168   0.99787465   587749 
 3434000    1.0078085   -2.4423195   -2.4423195    -1.444181  0.065968697   -2.4423195   0.99813845   587749 
 3435000    1.0073728    -2.441795    -2.441795    -1.444088  0.069416066    -2.441795     0.997707   587749 
 3436000    1.0074644   -2.4417325   -2.4417325   -1.4439348  0.066934256   -2.4417325   0.99779767   587749 
 3437000    1.0084503    -2.443324    -2.443324   -1.4445499  0.071247576    -2.443324    0.9987741   587749 
 3438000    1.0101786   -2.4437883   -2.4437883   -1.4433024  0.065318589   -2.4437883    1.0004859   587749 
 3439000    1.0098226   -2.4434551   -2.4434551   -1.4433218  0.062772311   -2.4434551    1.0001333   587749 
 3440000    1.0082602   -2.4418143   -2.4418143   -1.4432284  0.083805996   -2.4418143   0.99858591   587749 
 3441000    1.0084285   -2.4419983   -2.4419983   -1.4432458  0.066768266   -2.4419983   0.99875251   587749 
 3442000    1.0090189    -2.442464    -2.442464   -1.4431266  0.070997876    -2.442464   0.99933731   587749 
 3443000    1.0082364   -2.4412448   -2.4412448   -1.4426825  0.072884753   -2.4412448   0.99856232   587749 
 3444000    1.0093194   -2.4427875   -2.4427875   -1.4431526   0.06127406   -2.4427875   0.99963488   587749 
 3445000    1.0080016    -2.441962    -2.441962   -1.4436323  0.078504586    -2.441962   0.99832972   587749 
 3446000     1.006987   -2.4415094   -2.4415094   -1.4441845  0.071113219   -2.4415094   0.99732492   587749 
 3447000    1.0065193   -2.4416117   -2.4416117     -1.44475  0.067485445   -2.4416117    0.9968617   587749 
 3448000    1.0078941   -2.4430164   -2.4430164   -1.4447931  0.066985781   -2.4430164   0.99822329   587749 
 3449000    1.0077957    -2.442863    -2.442863   -1.4447371   0.06835139    -2.442863   0.99812586   587749 
 3450000    1.0088187   -2.4439277   -2.4439277   -1.4447887  0.069896658   -2.4439277   0.99913903   587749 
 3451000    1.0058345   -2.4406651   -2.4406651   -1.4444817  0.076018664   -2.4406651   0.99618344   587749 
 3452000    1.0082439   -2.4428598   -2.4428598   -1.4442901  0.063525562   -2.4428598   0.99856968   587749 
 3453000    1.0082977   -2.4435051   -2.4435051    -1.444882  0.071734116   -2.4435051   0.99862303   587749 
 3454000    1.0071441   -2.4416484   -2.4416484   -1.4441679  0.076280841   -2.4416484   0.99748047   587749 
 3455000    1.0074356    -2.442199    -2.442199   -1.4444298  0.063760371    -2.442199   0.99776918   587749 
 3456000    1.0091998   -2.4440468   -2.4440468   -1.4445303  0.069359981   -2.4440468   0.99951647   587749 
 3457000    1.0076029   -2.4427719   -2.4427719    -1.444837  0.062824632   -2.4427719   0.99793484   587749 
 3458000    1.0086649   -2.4429592   -2.4429592   -1.4439726  0.067622996   -2.4429592   0.99898667   587749 
 3459000    1.0096241   -2.4439736   -2.4439736   -1.4440369  0.067091925   -2.4439736   0.99993667   587749 
 3460000    1.0098734   -2.4433503   -2.4433503   -1.4431667  0.072910374   -2.4433503    1.0001836   587749 
 3461000    1.0099751   -2.4433005   -2.4433005   -1.4430162  0.080405245   -2.4433005    1.0002843   587749 
 3462000    1.0087514   -2.4426711   -2.4426711   -1.4435987  0.069602577   -2.4426711   0.99907238   587749 
 3463000    1.0071981   -2.4416913   -2.4416913   -1.4441574  0.069697059   -2.4416913   0.99753396   587749 
 3464000    1.0080251   -2.4416216   -2.4416216   -1.4432686  0.074912755   -2.4416216     0.998353   587749 
 3465000    1.0058756   -2.4411052   -2.4411052   -1.4448811  0.075500963   -2.4411052   0.99622415   587749 
 3466000    1.0091186   -2.4440625   -2.4440625   -1.4446264   0.06731291   -2.4440625   0.99943601   587749 
 3467000    1.0096025    -2.444057    -2.444057   -1.4441417     0.062059    -2.444057   0.99991532   587749 
 3468000    1.0092791   -2.4439621   -2.4439621   -1.4443671  0.068881595   -2.4439621   0.99959502   587749 
 3469000    1.0050063   -2.4400498   -2.4400498   -1.4446866  0.067600577   -2.4400498   0.99536322   587749 
 3470000    1.0067613    -2.441218    -2.441218   -1.4441167  0.072814176    -2.441218   0.99710138   587749 
 3471000    1.0058891   -2.4405174   -2.4405174   -1.4442799   0.06346327   -2.4405174   0.99623756   587749 
 3472000     1.006998   -2.4409885   -2.4409885   -1.4436527  0.064489034   -2.4409885   0.99733581   587749 
 3473000    1.0064163   -2.4407683   -2.4407683   -1.4440086  0.072802767   -2.4407683   0.99675969   587749 
 3474000    1.0087873   -2.4424468   -2.4424468   -1.4433389  0.055908174   -2.4424468   0.99910791   587749 
 3475000    1.0086678   -2.4426446   -2.4426446    -1.443655  0.072827949   -2.4426446   0.99898955   587749 
 3476000     1.010177   -2.4438745   -2.4438745   -1.4433903  0.062665553   -2.4438745    1.0004843   587749 
 3477000    1.0077069   -2.4413757   -2.4413757   -1.4433379  0.075626023   -2.4413757   0.99803784   587749 
 3478000    1.0085528    -2.442749    -2.442749   -1.4438734  0.063480488    -2.442749   0.99887561   587749 
 3479000    1.0101002   -2.4436426   -2.4436426   -1.4432344  0.064974038   -2.4436426    1.0004082   587749 
 3480000    1.0076122   -2.4414214   -2.4414214   -1.4434774  0.071525887   -2.4414214   0.99794404   587749 
 3481000    1.0077629    -2.441656    -2.441656   -1.4435627  0.064898952    -2.441656   0.99809335   587749 
 3482000    1.0070006   -2.4409522   -2.4409522   -1.4436139  0.075753669   -2.4409522   0.99733833   587749 
 3483000    1.0079224   -2.4415903   -2.4415903    -1.443339  0.067677675   -2.4415903   0.99825129   587749 
 3484000    1.0069713   -2.4404582   -2.4404582   -1.4431488  0.076719464   -2.4404582   0.99730937   587749 
 3485000    1.0058122   -2.4397931   -2.4397931   -1.4436317  0.067139177   -2.4397931   0.99616137   587749 
 3486000    1.0069899    -2.441832    -2.441832   -1.4445042  0.061611741    -2.441832   0.99732779   587749 
 3487000    1.0056774   -2.4400436   -2.4400436   -1.4440158  0.066497204   -2.4400436   0.99602785   587749 
 3488000    1.0064582   -2.4419601   -2.4419601    -1.445159   0.06947625   -2.4419601   0.99680112   587749 
 3489000    1.0065978   -2.4418644   -2.4418644   -1.4449251  0.061113035   -2.4418644   0.99693937   587749 
 3490000    1.0049964   -2.4406169   -2.4406169   -1.4452635  0.063488736   -2.4406169   0.99535342   587749 
 3491000     1.005993   -2.4409614   -2.4409614    -1.444621  0.064393617   -2.4409614   0.99634045   587749 
 3492000    1.0063814   -2.4415341   -2.4415341    -1.444809  0.072607232   -2.4415341   0.99672505   587749 
 3493000    1.0077309    -2.443532    -2.443532   -1.4454703  0.051711373    -2.443532   0.99806167   587749 
 3494000    1.0075231   -2.4425823   -2.4425823   -1.4447265  0.061378778   -2.4425823   0.99785579   587749 
 3495000    1.0057038   -2.4418604   -2.4418604   -1.4458065  0.066477172   -2.4418604   0.99605396   587749 
 3496000    1.0068535   -2.4435499   -2.4435499   -1.4463572  0.068728735   -2.4435499   0.99719269   587749 
 3497000     1.007301   -2.4443554   -2.4443554   -1.4467195  0.062009184   -2.4443554    0.9976359   587749 
 3498000    1.0086415   -2.4451663   -2.4451663   -1.4462028  0.057484818   -2.4451663   0.99896347   587749 
 3499000    1.0090082   -2.4463856   -2.4463856    -1.447059  0.066950659   -2.4463856   0.99932665   587749 
 3500000     1.007561    -2.444432    -2.444432   -1.4465386  0.075097039    -2.444432    0.9978934   587749 
 3501000    1.0083726   -2.4444349   -2.4444349   -1.4457378  0.085507194   -2.4444349   0.99869714   587749 
 3502000    1.0106534    -2.445935    -2.445935   -1.4449789  0.067713013    -2.445935    1.0009561   587749 
 3503000    1.0098042   -2.4460641   -2.4460641   -1.4459491  0.072805502   -2.4460641     1.000115   587749 
 3504000    1.0091747   -2.4453183   -2.4453183   -1.4458266  0.077582346   -2.4453183   0.99949162   587749 
 3505000    1.0103193   -2.4460857   -2.4460857   -1.4454604  0.076364904   -2.4460857    1.0006252   587749 
 3506000    1.0086478   -2.4449924   -2.4449924   -1.4460226  0.066192179   -2.4449924   0.99896978   587749 
 3507000    1.0094818   -2.4460478   -2.4460478    -1.446252  0.070995246   -2.4460478   0.99979575   587749 
 3508000    1.0076153   -2.4439172   -2.4439172     -1.44597  0.076187981   -2.4439172   0.99794713   587749 
 3509000    1.0088374   -2.4444879   -2.4444879   -1.4453304  0.078533849   -2.4444879   0.99915754   587749 
 3510000    1.0077553   -2.4434503   -2.4434503   -1.4453645  0.073071389   -2.4434503   0.99808579   587749 
 3511000    1.0068793   -2.4423033   -2.4423033   -1.4450851  0.070086442   -2.4423033   0.99721824   587749 
 3512000    1.0079921   -2.4434424   -2.4434424   -1.4451221  0.075104656   -2.4434424   0.99832035   587749 
 3513000    1.0079246   -2.4435479   -2.4435479   -1.4452944  0.077411435   -2.4435479   0.99825351   587749 
 3514000    1.0072087     -2.44305     -2.44305   -1.4455056  0.073666812     -2.44305    0.9975444   587749 
 3515000    1.0082535   -2.4437302   -2.4437302    -1.445151  0.056649122   -2.4437302   0.99857921   587749 
 3516000    1.0065849   -2.4418099   -2.4418099   -1.4448832  0.067521664   -2.4418099   0.99692666   587749 
 3517000    1.0074753   -2.4430802   -2.4430802   -1.4452717  0.068971389   -2.4430802    0.9978085   587749 
 3518000    1.0077353   -2.4422253   -2.4422253   -1.4441592  0.075165182   -2.4422253   0.99806602   587749 
 3519000    1.0081987   -2.4432185   -2.4432185   -1.4446935  0.060785886   -2.4432185   0.99852498   587749 
 3520000    1.0077956   -2.4432065   -2.4432065   -1.4450808  0.071561785   -2.4432065   0.99812573   587749 
 3521000    1.0081476   -2.4434852   -2.4434852   -1.4450108  0.060075293   -2.4434852   0.99847434   587749 
 3522000    1.0081004   -2.4432538   -2.4432538   -1.4448262  0.070945947   -2.4432538   0.99842755   587749 
 3523000    1.0081667   -2.4435343   -2.4435343    -1.445041   0.07303296   -2.4435343   0.99849324   587749 
 3524000    1.0072755   -2.4423462   -2.4423462   -1.4447356  0.064952825   -2.4423462   0.99761061   587749 
 3525000     1.007842   -2.4435014   -2.4435014   -1.4453297  0.055608613   -2.4435014   0.99817165   587749 
 3526000    1.0069221   -2.4421795   -2.4421795   -1.4449189  0.067146138   -2.4421795   0.99726062   587749 
 3527000    1.0083311   -2.4422004   -2.4422004   -1.4435443  0.059443698   -2.4422004   0.99865612   587749 
 3528000    1.0072767   -2.4404885   -2.4404885   -1.4428767  0.059607233   -2.4404885   0.99761179   587749 
 3529000    1.0107415   -2.4438885   -2.4438885   -1.4428452  0.062286191   -2.4438885    1.0010434   587749 
 3530000    1.0095276   -2.4421295   -2.4421295   -1.4422884  0.068321959   -2.4421295    0.9998411   587749 
 3531000    1.0088104   -2.4421691   -2.4421691   -1.4430384  0.062798813   -2.4421691   0.99913075   587749 
 3532000    1.0094178   -2.4431146   -2.4431146   -1.4433822  0.064245248   -2.4431146   0.99973239   587749 
 3533000    1.0086248    -2.442382    -2.442382    -1.443435  0.062601821    -2.442382   0.99894698   587749 
 3534000    1.0098508   -2.4431265   -2.4431265   -1.4429653  0.073878874   -2.4431265    1.0001612   587749 
 3535000    1.0085502   -2.4420276   -2.4420276   -1.4431545  0.065652614   -2.4420276   0.99887308   587749 
 3536000    1.0096229   -2.4420396   -2.4420396   -1.4421041  0.071464517   -2.4420396   0.99993546   587749 
 3537000    1.0090183   -2.4417719   -2.4417719   -1.4424352   0.07199337   -2.4417719   0.99933672   587749 
 3538000    1.0098537   -2.4426814   -2.4426814   -1.4425174  0.068808137   -2.4426814     1.000164   587749 
 3539000     1.009703   -2.4423678   -2.4423678    -1.442353  0.061318892   -2.4423678    1.0000149   587749 
 3540000    1.0078601   -2.4415857   -2.4415857   -1.4433961  0.078743555   -2.4415857    0.9981896   587749 
 3541000    1.0063044   -2.4410049   -2.4410049   -1.4443561  0.077139878   -2.4410049   0.99664883   587749 
 3542000    1.0079952   -2.4420667   -2.4420667   -1.4437433  0.066567477   -2.4420667   0.99832341   587749 
 3543000    1.0065768   -2.4413531   -2.4413531   -1.4444345  0.066370235   -2.4413531    0.9969186   587749 
 3544000    1.0070373   -2.4421061   -2.4421061   -1.4447314  0.056773174   -2.4421061   0.99737468   587749 
 3545000    1.0081502   -2.4419661   -2.4419661   -1.4434893  0.067159728   -2.4419661   0.99847688   587749 
 3546000    1.0064449   -2.4410975   -2.4410975   -1.4443095  0.062223756   -2.4410975   0.99678801   587749 
 3547000    1.0072634   -2.4420993   -2.4420993   -1.4445007  0.065860812   -2.4420993   0.99759863   587749 
 3548000    1.0078017   -2.4427468   -2.4427468    -1.444615  0.073038351   -2.4427468   0.99813179   587749 
 3549000    1.0097576   -2.4439854   -2.4439854   -1.4439165  0.075208085   -2.4439854    1.0000689   587749 
 3550000    1.0080859   -2.4427222   -2.4427222   -1.4443089  0.071539726   -2.4427222   0.99841326   587749 
 3551000    1.0095977   -2.4441995   -2.4441995    -1.444289  0.058564268   -2.4441995   0.99991056   587749 
 3552000    1.0080957   -2.4423845   -2.4423845   -1.4439615  0.088052622   -2.4423845   0.99842294   587749 
 3553000    1.0092852   -2.4436484   -2.4436484   -1.4440474  0.067881296   -2.4436484     0.999601   587749 
 3554000    1.0087563    -2.442919    -2.442919   -1.4438418   0.06132124    -2.442919   0.99907719   587749 
 3555000    1.0082426   -2.4426996   -2.4426996   -1.4441312  0.064264853   -2.4426996   0.99856844   587749 
 3556000    1.0078857   -2.4426808   -2.4426808   -1.4444659  0.078929066   -2.4426808   0.99821496   587749 
 3557000    1.0071036   -2.4420385   -2.4420385   -1.4445982  0.075209011   -2.4420385   0.99744036   587749 
 3558000    1.0098798   -2.4442931   -2.4442931   -1.4441033   0.06943447   -2.4442931    1.0001899   587749 
 3559000    1.0098033   -2.4446804   -2.4446804   -1.4445662  0.072082869   -2.4446804    1.0001142   587749 
 3560000    1.0089001   -2.4440072   -2.4440072   -1.4447875  0.061542805   -2.4440072   0.99921962   587749 
 3561000    1.0093435   -2.4442243   -2.4442243   -1.4445655  0.081902517   -2.4442243   0.99965881   587749 
 3562000     1.010889   -2.4451532   -2.4451532   -1.4439637  0.065353918   -2.4451532    1.0011895   587749 
 3563000    1.0100431   -2.4442624   -2.4442624   -1.4439107  0.065487685   -2.4442624    1.0003517   587749 
 3564000    1.0094046   -2.4436467   -2.4436467   -1.4439274  0.072569734   -2.4436467   0.99971925   587749 
 3565000    1.0088139   -2.4435754   -2.4435754   -1.4444411  0.071914611   -2.4435754   0.99913428   587749 
 3566000    1.0099947   -2.4450714   -2.4450714   -1.4447677  0.071644702   -2.4450714    1.0003037   587749 
 3567000    1.0090938    -2.444249    -2.444249   -1.4448375  0.068513469    -2.444249   0.99941145   587749 
 3568000    1.0100829   -2.4439893   -2.4439893   -1.4435982  0.076672191   -2.4439893    1.0003911   587749 
 3569000    1.0109301   -2.4447246   -2.4447246   -1.4434945  0.065757985   -2.4447246    1.0012301   587749 
 3570000    1.0106724   -2.4444591   -2.4444591   -1.4434842  0.066820959   -2.4444591     1.000975   587749 
 3571000    1.0108881   -2.4450435   -2.4450435   -1.4438549  0.074354692   -2.4450435    1.0011886   587749 
 3572000    1.0097763   -2.4432932   -2.4432932   -1.4432058  0.076571109   -2.4432932    1.0000874   587749 
 3573000    1.0083993   -2.4415104   -2.4415104   -1.4427867  0.066295741   -2.4415104   0.99872364   587749 
 3574000    1.0086383   -2.4425645   -2.4425645   -1.4436043  0.074059334   -2.4425645   0.99896029   587749 
 3575000    1.0072693    -2.441522    -2.441522   -1.4439175  0.083287798    -2.441522   0.99760452   587749 
 3576000     1.008437   -2.4433918   -2.4433918   -1.4446308  0.068824263   -2.4433918   0.99876095   587749 
 3577000    1.0061927   -2.4405905   -2.4405905   -1.4440523  0.073652476   -2.4405905   0.99653816   587749 
 3578000    1.0067453    -2.440892    -2.440892   -1.4438065  0.064460204    -2.440892   0.99708552   587749 
 3579000    1.0071403   -2.4416692   -2.4416692   -1.4441925   0.06026146   -2.4416692   0.99747671   587749 
 3580000    1.0048458   -2.4390451   -2.4390451   -1.4438409  0.075418177   -2.4390451   0.99520424   587749 
 3581000     1.005423   -2.4398511   -2.4398511   -1.4440753  0.075650778   -2.4398511   0.99577588   587749 
 3582000     1.007359   -2.4402421   -2.4402421   -1.4425488  0.069375001   -2.4402421   0.99769332   587749 
 3583000     1.007214   -2.4397134   -2.4397134   -1.4421637  0.059681585   -2.4397134   0.99754967   587749 
 3584000    1.0069351   -2.4405922   -2.4405922   -1.4433186  0.064088919   -2.4405922   0.99727352   587749 
 3585000    1.0061117   -2.4403489   -2.4403489   -1.4438908  0.063198866   -2.4403489   0.99645802   587749 
 3586000    1.0072092   -2.4418807   -2.4418807   -1.4443358  0.042433399   -2.4418807   0.99754491   587749 
 3587000    1.0066328   -2.4414489   -2.4414489   -1.4444748  0.064245828   -2.4414489   0.99697406   587749 
 3588000    1.0056126   -2.4400689   -2.4400689   -1.4441053  0.071951939   -2.4400689   0.99596363   587749 
 3589000    1.0071723   -2.4415696   -2.4415696   -1.4440612  0.061550912   -2.4415696   0.99750837   587749 
 3590000    1.0066939   -2.4415556   -2.4415556    -1.444521  0.062028239   -2.4415556   0.99703455   587749 
 3591000    1.0076786   -2.4415858   -2.4415858   -1.4435759  0.075932727   -2.4415858   0.99800984   587749 
 3592000    1.0072994   -2.4408257   -2.4408257   -1.4431914  0.069445297   -2.4408257   0.99763431   587749 
 3593000    1.0078257   -2.4417015   -2.4417015   -1.4435459  0.063622114   -2.4417015   0.99815555   587749 
 3594000    1.0066237   -2.4414309   -2.4414309   -1.4444658  0.074966072   -2.4414309   0.99696509   587749 
 3595000    1.0093886   -2.4430209   -2.4430209   -1.4433175  0.051974302   -2.4430209    0.9997034   587749 
 3596000     1.008744   -2.4431552   -2.4431552   -1.4440902  0.083476209   -2.4431552   0.99906498   587749 
 3597000    1.0107049   -2.4450206   -2.4450206   -1.4440136  0.067618934   -2.4450206    1.0010071   587749 
 3598000    1.0090682   -2.4438527   -2.4438527   -1.4444667  0.072717116   -2.4438527   0.99938606   587749 
 3599000    1.0097263   -2.4447213   -2.4447213   -1.4446834   0.07205352   -2.4447213    1.0000379   587749 
 3600000    1.0077253   -2.4434786   -2.4434786   -1.4454226  0.070582049   -2.4434786   0.99805607   587749 
 3601000    1.0076652   -2.4438742   -2.4438742   -1.4458777  0.082500596   -2.4438742   0.99799654   587749 
 3602000    1.0060971   -2.4416759   -2.4416759   -1.4452324  0.079859751   -2.4416759   0.99644349   587749 
 3603000     1.008505   -2.4432975   -2.4432975   -1.4444691  0.073981738   -2.4432975   0.99882835   587749 
 3604000    1.0068525   -2.4415079   -2.4415079   -1.4443163  0.089490258   -2.4415079   0.99719163   587749 
 3605000    1.0076265   -2.4420838   -2.4420838   -1.4441256  0.067823918   -2.4420838   0.99795824   587749 
 3606000    1.0104706   -2.4450486   -2.4450486   -1.4442735  0.070481745   -2.4450486    1.0007751   587749 
 3607000    1.0095372   -2.4438661   -2.4438661   -1.4440156  0.053731312   -2.4438661   0.99985058   587749 
 3608000    1.0085179   -2.4437903   -2.4437903   -1.4449492  0.060039435   -2.4437903   0.99884104   587749 
 3609000    1.0101481   -2.4451464   -2.4451464   -1.4446908  0.079926577   -2.4451464    1.0004557   587749 
 3610000    1.0095518   -2.4445093   -2.4445093   -1.4446442  0.063851059   -2.4445093    0.9998651   587749 
 3611000     1.008941   -2.4443814   -2.4443814   -1.4451213  0.074333194   -2.4443814   0.99926017   587749 
 3612000    1.0087611   -2.4443698   -2.4443698   -1.4452879  0.074832021   -2.4443698   0.99908198   587749 
 3613000    1.0084447   -2.4447093   -2.4447093   -1.4459407  0.064582633   -2.4447093    0.9987686   587749 
 3614000    1.0074133   -2.4431883   -2.4431883   -1.4454413   0.08034068   -2.4431883   0.99774704   587749 
 3615000    1.0062341   -2.4424014   -2.4424014   -1.4458222  0.077194494   -2.4424014   0.99657922   587749 
 3616000    1.0070507    -2.443172    -2.443172   -1.4457841   0.07521151    -2.443172   0.99738797   587749 
 3617000    1.0078837   -2.4436233   -2.4436233   -1.4454103  0.065858844   -2.4436233   0.99821297   587749 
 3618000    1.0070435    -2.441615    -2.441615   -1.4442341  0.069227586    -2.441615   0.99738086   587749 
 3619000    1.0077595   -2.4434048   -2.4434048   -1.4453148  0.064115304   -2.4434048   0.99808997   587749 
 3620000    1.0074109   -2.4422876   -2.4422876   -1.4445429  0.069079309   -2.4422876    0.9977447   587749 
 3621000    1.0076797   -2.4422533   -2.4422533   -1.4442423  0.061657465   -2.4422533   0.99801095   587749 
 3622000    1.0065634   -2.4419979   -2.4419979   -1.4450926  0.067351417   -2.4419979   0.99690532   587749 
 3623000    1.0081793   -2.4436292   -2.4436292   -1.4451234  0.072244749   -2.4436292   0.99850579   587749 
 3624000    1.0080093   -2.4428173   -2.4428173     -1.44448  0.064023621   -2.4428173   0.99833733   587749 
 3625000    1.0085912   -2.4440133   -2.4440133   -1.4450997  0.059370982   -2.4440133   0.99891367   587749 
 3626000    1.0061177    -2.442545    -2.442545   -1.4460811  0.070603573    -2.442545   0.99646391   587749 
 3627000    1.0075717   -2.4431135   -2.4431135   -1.4452096  0.061365335   -2.4431135   0.99790395   587749 
 3628000    1.0065119   -2.4422994   -2.4422994   -1.4454451  0.072133626   -2.4422994    0.9968543   587749 
 3629000    1.0064405   -2.4420091   -2.4420091   -1.4452254  0.066215778   -2.4420091   0.99678365   587749 
 3630000    1.0068622   -2.4423123   -2.4423123    -1.445111  0.067038832   -2.4423123   0.99720125   587749 
 3631000    1.0080925   -2.4429078   -2.4429078    -1.444488  0.067869414   -2.4429078   0.99841978   587749 
 3632000    1.0064013   -2.4419981   -2.4419981   -1.4452534  0.078503058   -2.4419981   0.99674475   587749 
 3633000     1.007606   -2.4431427   -2.4431427   -1.4452048   0.06928921   -2.4431427   0.99793793   587749 
 3634000    1.0075172   -2.4433608   -2.4433608   -1.4455108  0.077727871   -2.4433608   0.99784995   587749 
 3635000    1.0067028   -2.4421686   -2.4421686   -1.4451252  0.067140936   -2.4421686   0.99704339   587749 
 3636000    1.0064614   -2.4418714   -2.4418714   -1.4450671  0.065867625   -2.4418714   0.99680435   587749 
 3637000    1.0076532   -2.4428017   -2.4428017    -1.444817  0.060741164   -2.4428017   0.99798468   587749 
 3638000    1.0067643   -2.4423857   -2.4423857   -1.4452814   0.06274673   -2.4423857   0.99710432   587749 
 3639000    1.0084925   -2.4441753   -2.4441753   -1.4453594  0.061831004   -2.4441753   0.99881594   587749 
 3640000    1.0074592   -2.4433093   -2.4433093   -1.4455168  0.072445195   -2.4433093   0.99779253   587749 
 3641000    1.0088973   -2.4443506   -2.4443506   -1.4451338  0.065848977   -2.4443506   0.99921681   587749 
 3642000    1.0062136   -2.4420667   -2.4420667   -1.4455078  0.064386729   -2.4420667   0.99655895   587749 
 3643000    1.0070551   -2.4424176   -2.4424176   -1.4450253  0.067553427   -2.4424176    0.9973923   587749 
 3644000    1.0069356    -2.441589    -2.441589   -1.4443151  0.078485182    -2.441589   0.99727397   587749 
 3645000    1.0084772   -2.4434196   -2.4434196   -1.4446189  0.069005991   -2.4434196   0.99880078   587749 
 3646000    1.0097516   -2.4449362   -2.4449362   -1.4448732  0.066858797   -2.4449362     1.000063   587749 
 3647000     1.008356   -2.4428961   -2.4428961   -1.4442154  0.065901499   -2.4428961   0.99868077   587749 
 3648000    1.0094565   -2.4444379   -2.4444379   -1.4446672  0.062659326   -2.4444379   0.99977069   587749 
 3649000    1.0069523    -2.442464    -2.442464   -1.4451735  0.073922186    -2.442464    0.9972905   587749 
 3650000    1.0065102   -2.4413059   -2.4413059   -1.4444532  0.084138157   -2.4413059   0.99685268   587749 
 3651000     1.008168   -2.4429928   -2.4429928   -1.4444982   0.07922382   -2.4429928   0.99849451   587749 
 3652000    1.0059341   -2.4411789   -2.4411789   -1.4448969  0.062642371   -2.4411789   0.99628208   587749 
 3653000    1.0063336   -2.4414937   -2.4414937   -1.4448159  0.072967419   -2.4414937   0.99667778   587749 
 3654000    1.0074872   -2.4425143   -2.4425143    -1.444694  0.066875262   -2.4425143   0.99782029   587749 
 3655000     1.006763   -2.4429115   -2.4429115   -1.4458085  0.062867888   -2.4429115   0.99710303   587749 
 3656000    1.0077148   -2.4432405   -2.4432405   -1.4451948  0.057818954   -2.4432405   0.99804573   587749 
 3657000    1.0061706   -2.4417048   -2.4417048   -1.4451885  0.061056653   -2.4417048   0.99651633   587749 
 3658000    1.0072519   -2.4428076   -2.4428076   -1.4452204  0.064735512   -2.4428076   0.99758719   587749 
 3659000    1.0061091   -2.4422419   -2.4422419   -1.4457865  0.066674159   -2.4422419   0.99645542   587749 
 3660000    1.0061616   -2.4423178   -2.4423178   -1.4458104  0.081747466   -2.4423178   0.99650743   587749 
 3661000    1.0075498   -2.4433586   -2.4433586   -1.4454763  0.051938916   -2.4433586   0.99788225   587749 
 3662000     1.006681    -2.442551    -2.442551   -1.4455292  0.062468503    -2.442551   0.99702178   587749 
 3663000    1.0074581   -2.4433245   -2.4433245    -1.445533  0.061661358   -2.4433245   0.99779149   587749 
 3664000    1.0081353   -2.4432801   -2.4432801   -1.4448179  0.068147631   -2.4432801   0.99846215   587749 
 3665000    1.0070421   -2.4425849   -2.4425849   -1.4452054  0.072812037   -2.4425849   0.99737948   587749 
 3666000    1.0081173   -2.4444442   -2.4444442   -1.4459999  0.072096048   -2.4444442   0.99844435   587749 
 3667000    1.0083551   -2.4439631   -2.4439631   -1.4452833  0.076663614   -2.4439631   0.99867983   587749 
 3668000     1.006873   -2.4427702   -2.4427702   -1.4455582  0.070621703   -2.4427702   0.99721195   587749 
 3669000    1.0073943   -2.4432498   -2.4432498   -1.4455216  0.063679005   -2.4432498   0.99772824   587749 
 3670000    1.0063612   -2.4425666   -2.4425666   -1.4458615  0.057046939   -2.4425666   0.99670511   587749 
 3671000    1.0057632   -2.4421807   -2.4421807    -1.446068  0.065585252   -2.4421807   0.99611278   587749 
 3672000    1.0057608    -2.441943    -2.441943   -1.4458326  0.059918628    -2.441943   0.99611039   587749 
 3673000    1.0067008   -2.4432481   -2.4432481   -1.4462067  0.056748271   -2.4432481   0.99704144   587749 
 3674000    1.0062628   -2.4424876   -2.4424876     -1.44588  0.071959267   -2.4424876   0.99660764   587749 
 3675000    1.0064055   -2.4434803   -2.4434803   -1.4467313  0.067306119   -2.4434803   0.99674891   587749 
 3676000    1.0072909   -2.4438259   -2.4438259   -1.4462001  0.069960321   -2.4438259   0.99762583   587749 
 3677000    1.0076962   -2.4434038   -2.4434038   -1.4453765  0.077391906   -2.4434038   0.99802728   587749 
 3678000    1.0066539   -2.4430626   -2.4430626   -1.4460676  0.065242154   -2.4430626   0.99699497   587749 
 3679000    1.0072529    -2.444185    -2.444185   -1.4465968  0.072795779    -2.444185   0.99758825   587749 
 3680000    1.0079343   -2.4440515   -2.4440515   -1.4457884  0.065663155   -2.4440515   0.99826306   587749 
 3681000    1.0055056   -2.4417752   -2.4417752   -1.4459175     0.063082   -2.4417752   0.99585766   587749 
 3682000    1.0050744   -2.4406587   -2.4406587   -1.4452281  0.077856354   -2.4406587   0.99543059   587749 
 3683000    1.0056516   -2.4411147   -2.4411147   -1.4451124  0.064527807   -2.4411147   0.99600227   587749 
 3684000     1.006527   -2.4422199   -2.4422199   -1.4453506  0.071645248   -2.4422199   0.99686929   587749 
 3685000    1.0069453   -2.4421123   -2.4421123   -1.4448287  0.059522394   -2.4421123   0.99728354   587749 
 3686000    1.0072586   -2.4421733   -2.4421733   -1.4445794   0.07828395   -2.4421733    0.9975939   587749 
 3687000    1.0075901   -2.4423066   -2.4423066   -1.4443844  0.066741384   -2.4423066   0.99792223   587749 
 3688000    1.0061421   -2.4414764   -2.4414764   -1.4449883  0.072115686   -2.4414764   0.99648811   587749 
 3689000    1.0076229   -2.4425647   -2.4425647     -1.44461  0.067562329   -2.4425647   0.99795472   587749 
 3690000     1.006317    -2.441231    -2.441231   -1.4445697  0.074735309    -2.441231   0.99666128   587749 
 3691000    1.0081066   -2.4433584   -2.4433584   -1.4449247  0.061528373   -2.4433584   0.99843376   587749 
 3692000    1.0061689   -2.4412263   -2.4412263   -1.4447117  0.059084585   -2.4412263   0.99651462   587749 
 3693000    1.0060185   -2.4411759   -2.4411759   -1.4448102  0.070637844   -2.4411759   0.99636572   587749 
 3694000    1.0071725   -2.4421174   -2.4421174   -1.4446089  0.074947903   -2.4421174   0.99750855   587749 
 3695000    1.0066835   -2.4420379   -2.4420379   -1.4450136  0.062399968   -2.4420379    0.9970243   587749 
 3696000    1.0063965   -2.4418959   -2.4418959   -1.4451559  0.069643084   -2.4418959      0.99674   587749 
 3697000    1.0048983   -2.4410284   -2.4410284   -1.4457722   0.06861462   -2.4410284   0.99525626   587749 
 3698000    1.0059293   -2.4413654   -2.4413654   -1.4450881  0.067719431   -2.4413654   0.99627735   587749 
 3699000    1.0050648   -2.4407773   -2.4407773   -1.4453562  0.065072966   -2.4407773   0.99542116   587749 
 3700000    1.0070967   -2.4419114   -2.4419114   -1.4444779  0.075676025   -2.4419114   0.99743354   587749 
 3701000    1.0065811   -2.4409972   -2.4409972   -1.4440743  0.073353682   -2.4409972   0.99692284   587749 
 3702000    1.0076749   -2.4427972   -2.4427972   -1.4447911  0.066206305   -2.4427972   0.99800613   587749 
 3703000    1.0062817   -2.4412834   -2.4412834   -1.4446571  0.053823323   -2.4412834   0.99662632   587749 
 3704000    1.0058994   -2.4415631   -2.4415631   -1.4453155  0.074953553   -2.4415631   0.99624767   587749 
 3705000    1.0085299   -2.4434828   -2.4434828   -1.4446299  0.062452974   -2.4434828   0.99885295   587749 
 3706000    1.0087126   -2.4434405   -2.4434405   -1.4444066  0.062429112   -2.4434405    0.9990339   587749 
 3707000    1.0061599   -2.4408107   -2.4408107   -1.4443051  0.073374658   -2.4408107   0.99650567   587749 
 3708000    1.0080925   -2.4434146   -2.4434146   -1.4449948  0.061811996   -2.4434146    0.9984198   587749 
 3709000    1.0070868   -2.4428639   -2.4428639   -1.4454401  0.063964396   -2.4428639   0.99742372   587749 
 3710000     1.006295   -2.4425625   -2.4425625   -1.4459231  0.060672279   -2.4425625   0.99663948   587749 
 3711000    1.0064618   -2.4421313   -2.4421313   -1.4453266  0.066740296   -2.4421313   0.99680472   587749 
 3712000    1.0062967   -2.4419122   -2.4419122    -1.445271  0.067423072   -2.4419122   0.99664118   587749 
 3713000    1.0079045   -2.4436702   -2.4436702   -1.4454366  0.060040761   -2.4436702   0.99823361   587749 
 3714000     1.006862   -2.4435279   -2.4435279   -1.4463268  0.066343784   -2.4435279   0.99720105   587749 
 3715000    1.0079374   -2.4441999   -2.4441999   -1.4459337   0.06644229   -2.4441999   0.99826617   587749 
 3716000     1.007244   -2.4439302   -2.4439302   -1.4463509  0.054614158   -2.4439302   0.99757937   587749 
 3717000    1.0073764    -2.443575    -2.443575   -1.4458645  0.060540777    -2.443575   0.99771057   587749 
 3718000    1.0067987   -2.4435971   -2.4435971   -1.4464588  0.066221404   -2.4435971   0.99713835   587749 
 3719000    1.0074461    -2.443167    -2.443167   -1.4453874  0.074657524    -2.443167    0.9977796   587749 
 3720000    1.0094276   -2.4456291   -2.4456291   -1.4458871  0.078130818   -2.4456291   0.99974209   587749 
 3721000    1.0076397   -2.4439143   -2.4439143    -1.445943  0.065763132   -2.4439143    0.9979713   587749 
 3722000    1.0078876    -2.443689    -2.443689   -1.4454721  0.078754823    -2.443689   0.99821687   587749 
 3723000    1.0078862   -2.4446347   -2.4446347   -1.4464193  0.071594574   -2.4446347   0.99821541   587749 
 3724000    1.0057811   -2.4424292   -2.4424292   -1.4462986  0.075753936   -2.4424292   0.99613059   587749 
 3725000    1.0078666   -2.4444408   -2.4444408   -1.4462447  0.058470821   -2.4444408   0.99819607   587749 
 3726000    1.0062519   -2.4427823   -2.4427823   -1.4461855  0.073578845   -2.4427823   0.99659682   587749 
 3727000    1.0064024   -2.4434029   -2.4434029    -1.446657   0.07192678   -2.4434029    0.9967459   587749 
 3728000    1.0065682   -2.4437925   -2.4437925   -1.4468824  0.070779683   -2.4437925   0.99691013   587749 
 3729000    1.0059757    -2.443665    -2.443665   -1.4473417  0.064144424    -2.443665   0.99632329   587749 
 3730000    1.0047929   -2.4421479   -2.4421479   -1.4469961  0.061716265   -2.4421479   0.99515179   587749 
 3731000    1.0047934   -2.4408112   -2.4408112   -1.4456589   0.06357088   -2.4408112   0.99515229   587749 
 3732000    1.0067521   -2.4429981   -2.4429981   -1.4459059  0.061284859   -2.4429981   0.99709222   587749 
 3733000    1.0072369    -2.443135    -2.443135   -1.4455627  0.063960437    -2.443135   0.99757238   587749 
 3734000    1.0049777   -2.4407909   -2.4407909    -1.445456  0.072207051   -2.4407909   0.99533489   587749 
 3735000    1.0062626    -2.441717    -2.441717   -1.4451096   0.07065551    -2.441717   0.99660745   587749 
 3736000     1.007971   -2.4427906   -2.4427906   -1.4444911  0.057846962   -2.4427906   0.99829948   587749 
 3737000    1.0080216   -2.4423424   -2.4423424   -1.4439929  0.084076756   -2.4423424   0.99834953   587749 
 3738000    1.0085031   -2.4429119   -2.4429119   -1.4440855  0.076885832   -2.4429119   0.99882638   587749 
 3739000    1.0079076   -2.4427808   -2.4427808   -1.4445442  0.065255818   -2.4427808   0.99823661   587749 
 3740000    1.0072339   -2.4420607   -2.4420607   -1.4444913  0.071461787   -2.4420607   0.99756945   587749 
 3741000     1.008427   -2.4426408   -2.4426408   -1.4438897  0.077515321   -2.4426408   0.99875104   587749 
 3742000    1.0073858   -2.4410958   -2.4410958   -1.4433759  0.077854646   -2.4410958   0.99771986   587749 
 3743000    1.0070838   -2.4401241   -2.4401241   -1.4427033  0.066241701   -2.4401241   0.99742078   587749 
 3744000    1.0059367   -2.4395617   -2.4395617    -1.443277  0.063410862   -2.4395617   0.99628466   587749 
 3745000    1.0057907     -2.43901     -2.43901     -1.44287  0.078831664     -2.43901   0.99614001   587749 
 3746000    1.0060927   -2.4397286   -2.4397286   -1.4432895  0.075464103   -2.4397286   0.99643915   587749 
 3747000    1.0072616   -2.4405696   -2.4405696   -1.4429728  0.065831333   -2.4405696    0.9975968   587749 
 3748000    1.0079042   -2.4416001   -2.4416001   -1.4433669  0.073226909   -2.4416001   0.99823325   587749 
 3749000    1.0074257   -2.4414152   -2.4414152   -1.4436559   0.05798496   -2.4414152   0.99775935   587749 
 3750000    1.0068025   -2.4406036   -2.4406036   -1.4434615  0.067850243   -2.4406036   0.99714214   587749 
 3751000    1.0062039   -2.4398071   -2.4398071   -1.4432579  0.074685961   -2.4398071   0.99654926   587749 
 3752000    1.0073735   -2.4400155   -2.4400155   -1.4423078  0.077518243   -2.4400155   0.99770768   587749 
 3753000    1.0076112   -2.4406363   -2.4406363   -1.4426932  0.064515337   -2.4406363   0.99794308   587749 
 3754000    1.0086954   -2.4425843   -2.4425843   -1.4435674  0.063863862   -2.4425843   0.99901688   587749 
 3755000    1.0051782   -2.4393072   -2.4393072   -1.4437738  0.070096891   -2.4393072   0.99553341   587749 
 3756000    1.0071819   -2.4420617   -2.4420617   -1.4445438  0.062764974   -2.4420617   0.99751791   587749 
 3757000    1.0061255   -2.4407529   -2.4407529   -1.4442812  0.062584979   -2.4407529   0.99647166   587749 
 3758000    1.0065267   -2.4401374   -2.4401374   -1.4432684  0.064345636   -2.4401374   0.99686898   587749 
 3759000     1.008528   -2.4424103   -2.4424103   -1.4435593  0.063588394   -2.4424103   0.99885107   587749 
 3760000    1.0070101   -2.4415052   -2.4415052   -1.4441575  0.071835101   -2.4415052   0.99734776   587749 
 3761000    1.0074811   -2.4421685   -2.4421685   -1.4443543  0.062925829   -2.4421685   0.99781421   587749 
 3762000    1.0072236   -2.4416888   -2.4416888   -1.4441296  0.073381352   -2.4416888   0.99755923   587749 
 3763000    1.0073732   -2.4410061   -2.4410061   -1.4432987  0.080780181   -2.4410061   0.99770736   587749 
 3764000    1.0078951   -2.4426818   -2.4426818   -1.4444575  0.077340218   -2.4426818   0.99822428   587749 
 3765000    1.0074759   -2.4418724   -2.4418724   -1.4440633  0.065387938   -2.4418724    0.9978091   587749 
 3766000    1.0070532   -2.4418556   -2.4418556   -1.4444651  0.074218505   -2.4418556   0.99739046   587749 
 3767000    1.0082938   -2.4431692   -2.4431692   -1.4445501   0.06806443   -2.4431692   0.99861909   587749 
 3768000    1.0074682   -2.4422456   -2.4422456   -1.4444442  0.077477907   -2.4422456   0.99780144   587749 
 3769000    1.0058094   -2.4409205   -2.4409205    -1.444762  0.074680936   -2.4409205   0.99615856   587749 
 3770000    1.0070871   -2.4416462   -2.4416462   -1.4442222  0.071860616   -2.4416462   0.99742403   587749 
 3771000    1.0073959   -2.4413012   -2.4413012   -1.4435714    0.0647617   -2.4413012   0.99772981   587749 
 3772000    1.0088445   -2.4433952   -2.4433952   -1.4442306  0.066627358   -2.4433952   0.99916455   587749 
 3773000    1.0089758   -2.4434667   -2.4434667   -1.4441721  0.066072348   -2.4434667   0.99929462   587749 
 3774000    1.0070769    -2.442057    -2.442057   -1.4446431  0.071450766    -2.442057   0.99741393   587749 
 3775000    1.0068935   -2.4413739   -2.4413739   -1.4441416   0.07092138   -2.4413739   0.99723231   587749 
 3776000    1.0072257   -2.4407482   -2.4407482   -1.4431869  0.068844965   -2.4407482    0.9975613   587749 
 3777000    1.0072888   -2.4418592   -2.4418592   -1.4442354   0.06929119   -2.4418592   0.99762379   587749 
 3778000    1.0068672   -2.4410966   -2.4410966   -1.4438904  0.077497672   -2.4410966   0.99720623   587749 
 3779000    1.0061869   -2.4417112   -2.4417112   -1.4451787  0.063772828   -2.4417112   0.99653249   587749 
 3780000    1.0080825    -2.443139    -2.443139   -1.4447291  0.076617845    -2.443139   0.99840991   587749 
 3781000    1.0068547   -2.4419766   -2.4419766   -1.4447828  0.067259603   -2.4419766   0.99719383   587749 
 3782000    1.0079045   -2.4423815   -2.4423815   -1.4441479   0.06646921   -2.4423815   0.99823359   587749 
 3783000    1.0057668   -2.4403653   -2.4403653   -1.4442489   0.06901235   -2.4403653   0.99611636   587749 
 3784000    1.0074002   -2.4410949   -2.4410949   -1.4433607  0.068496901   -2.4410949   0.99773413   587749 
 3785000    1.0063988   -2.4404371   -2.4404371   -1.4436948  0.075497367   -2.4404371    0.9967423   587749 
 3786000    1.0077096   -2.4424479   -2.4424479   -1.4444073  0.063726752   -2.4424479   0.99804056   587749 
 3787000    1.0086948   -2.4439886   -2.4439886   -1.4449723   0.06992742   -2.4439886   0.99901626   587749 
 3788000    1.0085676   -2.4426026   -2.4426026   -1.4437123  0.068210537   -2.4426026   0.99889029   587749 
 3789000    1.0106377   -2.4453824   -2.4453824   -1.4444419  0.069459454   -2.4453824    1.0009405   587749 
 3790000    1.0086374    -2.442827    -2.442827   -1.4438676  0.053954882    -2.442827   0.99895941   587749 
 3791000    1.0078523   -2.4417493   -2.4417493   -1.4435675  0.081200138   -2.4417493   0.99818186   587749 
 3792000    1.0063726    -2.440752    -2.440752   -1.4440356   0.07560448    -2.440752   0.99671641   587749 
 3793000    1.0074393   -2.4433056   -2.4433056   -1.4455328  0.071926977   -2.4433056   0.99777284   587749 
 3794000    1.0070659   -2.4424826   -2.4424826   -1.4450795  0.065420121   -2.4424826   0.99740306   587749 
 3795000    1.0078573   -2.4434032   -2.4434032   -1.4452164   0.06803295   -2.4434032    0.9981868   587749 
 3796000    1.0080817   -2.4434457   -2.4434457   -1.4450366  0.069086114   -2.4434457   0.99840904   587749 
 3797000    1.0069016   -2.4417348   -2.4417348   -1.4444945  0.072484801   -2.4417348   0.99724031   587749 
 3798000    1.0083981   -2.4439007   -2.4439007   -1.4451782  0.079874218   -2.4439007   0.99872245   587749 
 3799000    1.0068404   -2.4418244   -2.4418244   -1.4446447   0.07404677   -2.4418244   0.99717968   587749 
 3800000    1.0085675   -2.4429403   -2.4429403   -1.4440501  0.080112308   -2.4429403   0.99889019   587749 
 3801000    1.0078546   -2.4421331   -2.4421331   -1.4439489   0.07781824   -2.4421331   0.99818418   587749 
 3802000     1.009225   -2.4430691   -2.4430691   -1.4435278  0.075941131   -2.4430691   0.99954138   587749 
 3803000    1.0085399   -2.4434679   -2.4434679    -1.444605  0.080265319   -2.4434679   0.99886285   587749 
 3804000    1.0090714      -2.4437      -2.4437   -1.4443107  0.074016639      -2.4437   0.99938928   587749 
 3805000    1.0095136   -2.4432069   -2.4432069   -1.4433796  0.066110136   -2.4432069   0.99982723   587749 
 3806000    1.0083218   -2.4417024   -2.4417024   -1.4430555  0.079449929   -2.4417024   0.99864688   587749 
 3807000    1.0082596   -2.4420309   -2.4420309   -1.4434456   0.06126447   -2.4420309   0.99858531   587749 
 3808000    1.0076088   -2.4413597   -2.4413597    -1.443419  0.071848106   -2.4413597    0.9979407   587749 
 3809000    1.0079224   -2.4417622   -2.4417622   -1.4435109  0.063233361   -2.4417622   0.99825127   587749 
 3810000    1.0059118   -2.4406219   -2.4406219   -1.4443619  0.068107026   -2.4406219   0.99625999   587749 
 3811000    1.0079028   -2.4424166   -2.4424166   -1.4441847  0.068835772   -2.4424166   0.99823185   587749 
 3812000    1.0076295   -2.4415253   -2.4415253   -1.4435641  0.062913795   -2.4415253   0.99796123   587749 
 3813000    1.0075192   -2.4412465   -2.4412465   -1.4433945  0.076168396   -2.4412465   0.99785197   587749 
 3814000    1.0084732     -2.44246     -2.44246   -1.4436632  0.071824688     -2.44246   0.99879678   587749 
 3815000    1.0052741   -2.4397461   -2.4397461   -1.4441177  0.078953253   -2.4397461   0.99562837   587749 
 3816000    1.0077775    -2.441867    -2.441867   -1.4437592  0.062409409    -2.441867   0.99810781   587749 
 3817000    1.0075571   -2.4414537   -2.4414537   -1.4435641  0.071748291   -2.4414537   0.99788953   587749 
 3818000    1.0085971    -2.443097    -2.443097   -1.4441775  0.090062426    -2.443097   0.99891954   587749 
 3819000    1.0088741   -2.4434358   -2.4434358   -1.4442419  0.062532164   -2.4434358   0.99919389   587749 
 3820000    1.0084188   -2.4427755   -2.4427755   -1.4440326  0.068990661   -2.4427755   0.99874289   587749 
 3821000    1.0074995   -2.4417042   -2.4417042   -1.4438717   0.07527436   -2.4417042   0.99783246   587749 
 3822000    1.0083572   -2.4429164   -2.4429164   -1.4442346  0.067742734   -2.4429164   0.99868188   587749 
 3823000    1.0070108   -2.4419108   -2.4419108   -1.4445623  0.072761421   -2.4419108   0.99734849   587749 
 3824000    1.0081202   -2.4427227   -2.4427227   -1.4442755  0.068459943   -2.4427227   0.99844722   587749 
 3825000    1.0088157   -2.4433943   -2.4433943   -1.4442582  0.070604293   -2.4433943   0.99913606   587749 
 3826000    1.0074044   -2.4415859   -2.4415859   -1.4438476  0.078799038   -2.4415859   0.99773832   587749 
 3827000    1.0097898    -2.443436    -2.443436   -1.4433352   0.06291338    -2.443436    1.0001008   587749 
 3828000    1.0089619   -2.4423584   -2.4423584   -1.4430776  0.066987177   -2.4423584   0.99928079   587749 
 3829000    1.0085918   -2.4426539   -2.4426539   -1.4437396  0.070648236   -2.4426539    0.9989143   587749 
 3830000    1.0088435   -2.4433114   -2.4433114   -1.4441478  0.076843594   -2.4433114   0.99916361   587749 
 3831000    1.0085264   -2.4421679   -2.4421679   -1.4433184  0.068261779   -2.4421679   0.99884951   587749 
 3832000    1.0091995     -2.44299     -2.44299   -1.4434738  0.073718625     -2.44299   0.99951617   587749 
 3833000    1.0079025   -2.4414962   -2.4414962   -1.4432646  0.064760458   -2.4414962   0.99823162   587749 
 3834000    1.0088239   -2.4429649   -2.4429649   -1.4438207  0.062159343   -2.4429649   0.99914417   587749 
 3835000    1.0087983   -2.4434402   -2.4434402   -1.4443214   0.06969423   -2.4434402   0.99911882   587749 
 3836000    1.0085565   -2.4434568   -2.4434568   -1.4445774  0.064150923   -2.4434568   0.99887933   587749 
 3837000    1.0097643   -2.4440413   -2.4440413   -1.4439657   0.08182637   -2.4440413    1.0000756   587749 
 3838000    1.0075605   -2.4423827   -2.4423827   -1.4444899  0.071969119   -2.4423827   0.99789283   587749 
 3839000    1.0082891   -2.4421976   -2.4421976   -1.4435831  0.074113563   -2.4421976   0.99861446   587749 
 3840000    1.0083341   -2.4424898   -2.4424898   -1.4438308  0.079425667   -2.4424898   0.99865906   587749 
 3841000    1.0085851   -2.4425708   -2.4425708   -1.4436632  0.069687229   -2.4425708   0.99890765   587749 
 3842000     1.007809   -2.4428197   -2.4428197   -1.4446807  0.068800609   -2.4428197   0.99813901   587749 
 3843000    1.0078652   -2.4423002   -2.4423002   -1.4441055  0.072972218   -2.4423002   0.99819464   587749 
 3844000    1.0068539   -2.4421154   -2.4421154   -1.4449223  0.077005313   -2.4421154   0.99719306   587749 
 3845000     1.007121   -2.4434423   -2.4434423   -1.4459847  0.072475695   -2.4434423   0.99745756   587749 
 3846000    1.0051458   -2.4418358   -2.4418358   -1.4463344  0.074238013   -2.4418358   0.99550135   587749 
 3847000    1.0041049   -2.4394919   -2.4394919   -1.4450215  0.071199473   -2.4394919    0.9944704   587749 
 3848000     1.004557   -2.4402467   -2.4402467   -1.4453285  0.062735328   -2.4402467   0.99491824   587749 
 3849000    1.0065852   -2.4413561   -2.4413561   -1.4444291  0.073140903   -2.4413561   0.99692694   587749 
 3850000    1.0064238    -2.441482    -2.441482   -1.4447148  0.080424248    -2.441482   0.99676712   587749 
 3851000    1.0090163   -2.4430626   -2.4430626   -1.4437279  0.077980794   -2.4430626   0.99933472   587749 
 3852000    1.0084499   -2.4426952   -2.4426952   -1.4439214  0.076810097   -2.4426952   0.99877376   587749 
 3853000    1.0096274   -2.4433761   -2.4433761   -1.4434361  0.070105176   -2.4433761   0.99993999   587749 
 3854000    1.0091087    -2.442927    -2.442927   -1.4435008  0.076529224    -2.442927   0.99942625   587749 
 3855000    1.0101457   -2.4438509   -2.4438509   -1.4433976  0.074935798   -2.4438509    1.0004532   587749 
 3856000    1.0078956   -2.4421202   -2.4421202   -1.4438954   0.07270512   -2.4421202    0.9982248   587749 
 3857000    1.0085406   -2.4421292   -2.4421292   -1.4432657  0.068604341   -2.4421292   0.99886356   587749 
 3858000    1.0060499    -2.439842    -2.439842   -1.4434452  0.080440006    -2.439842   0.99639677   587749 
 3859000    1.0072253   -2.4409653   -2.4409653   -1.4434044  0.071342132   -2.4409653   0.99756087   587749 
 3860000    1.0081056   -2.4418375   -2.4418375   -1.4434047  0.062692885   -2.4418375   0.99843276   587749 
 3861000    1.0068484    -2.441179    -2.441179   -1.4439914  0.065447643    -2.441179   0.99718762   587749 
 3862000    1.0058412   -2.4409098   -2.4409098   -1.4447197  0.065564558   -2.4409098    0.9961901   587749 
 3863000    1.0077861   -2.4422409   -2.4422409   -1.4441246  0.068675649   -2.4422409   0.99811631   587749 
 3864000    1.0065972   -2.4416747   -2.4416747   -1.4447359  0.061811296   -2.4416747   0.99693886   587749 
 3865000     1.007042    -2.442735    -2.442735   -1.4453557  0.074627905    -2.442735   0.99737932   587749 
 3866000     1.006347   -2.4419801   -2.4419801   -1.4452891  0.075682353   -2.4419801   0.99669097   587749 
 3867000    1.0082559   -2.4428789   -2.4428789   -1.4442973  0.067123094   -2.4428789   0.99858155   587749 
 3868000     1.008218   -2.4429475   -2.4429475   -1.4444034  0.079082855   -2.4429475   0.99854402   587749 
 3869000    1.0086868   -2.4429694   -2.4429694   -1.4439611  0.068230035   -2.4429694   0.99900832   587749 
 3870000    1.0085598   -2.4437776   -2.4437776    -1.444895  0.054243899   -2.4437776   0.99888254   587749 
 3871000    1.0077447   -2.4430444   -2.4430444   -1.4449691  0.059040778   -2.4430444   0.99807526   587749 
 3872000    1.0062852   -2.4415448   -2.4415448   -1.4449151  0.082253586   -2.4415448   0.99662977   587749 
 3873000    1.0074814    -2.442245    -2.442245   -1.4444304  0.060518523    -2.442245   0.99781453   587749 
 3874000    1.0091164   -2.4427999   -2.4427999    -1.443366  0.073717224   -2.4427999   0.99943386   587749 
 3875000    1.0102038   -2.4449023   -2.4449023   -1.4443914  0.075795921   -2.4449023    1.0005109   587749 
 3876000    1.0086146   -2.4444118   -2.4444118    -1.445475  0.067245602   -2.4444118   0.99893685   587749 
 3877000    1.0081027   -2.4433582   -2.4433582   -1.4449283  0.067124734   -2.4433582   0.99842985   587749 
 3878000    1.0073894   -2.4431857   -2.4431857   -1.4454622  0.068265832   -2.4431857   0.99772346   587749 
 3879000    1.0095936   -2.4447179   -2.4447179   -1.4448114  0.073783286   -2.4447179   0.99990645   587749 
 3880000    1.0096439   -2.4454503   -2.4454503    -1.445494  0.067918729   -2.4454503   0.99995633   587749 
 3881000    1.0083943   -2.4440614   -2.4440614   -1.4453427  0.059953469   -2.4440614    0.9987187   587749 
 3882000     1.007723   -2.4439885   -2.4439885   -1.4459347  0.055283162   -2.4439885   0.99805385   587749 
 3883000    1.0068015   -2.4430798   -2.4430798   -1.4459387  0.073621919   -2.4430798   0.99714113   587749 
 3884000    1.0076264   -2.4435192   -2.4435192   -1.4455611  0.073289821   -2.4435192   0.99795814   587749 
 3885000    1.0075773   -2.4437533   -2.4437533   -1.4458438  0.067875461   -2.4437533   0.99790951   587749 
 3886000    1.0069047   -2.4438025   -2.4438025   -1.4465591  0.061779888   -2.4438025    0.9972434   587749 
 3887000    1.0072484   -2.4445725   -2.4445725   -1.4469887  0.062941355   -2.4445725    0.9975838   587749 
 3888000    1.0059198   -2.4419123   -2.4419123   -1.4456444  0.071146225   -2.4419123   0.99626794   587749 
 3889000    1.0069756    -2.443204    -2.443204   -1.4458903  0.065066707    -2.443204   0.99731363   587749 
 3890000    1.0070245    -2.443675    -2.443675    -1.446313    0.0829073    -2.443675   0.99736197   587749 
 3891000    1.0081741   -2.4445067   -2.4445067   -1.4460061  0.060509369   -2.4445067   0.99850056   587749 
 3892000    1.0078425   -2.4447505   -2.4447505   -1.4465784  0.070909534   -2.4447505   0.99817212   587749 
 3893000    1.0062442   -2.4436347   -2.4436347   -1.4470455  0.063009646   -2.4436347   0.99658917   587749 
 3894000    1.0062679   -2.4432022   -2.4432022   -1.4465895  0.088981008   -2.4432022   0.99661267   587749 
 3895000    1.0072867   -2.4440195   -2.4440195   -1.4463978  0.066836118   -2.4440195   0.99762168   587749 
 3896000    1.0089891   -2.4455705   -2.4455705   -1.4462627  0.060150614   -2.4455705   0.99930777   587749 
 3897000    1.0066696   -2.4432894   -2.4432894   -1.4462789  0.072004126   -2.4432894   0.99701048   587749 
 3898000    1.0084322   -2.4444365   -2.4444365   -1.4456803  0.068732179   -2.4444365    0.9987562   587749 
 3899000    1.0077197   -2.4438305   -2.4438305   -1.4457799  0.069751579   -2.4438305   0.99805058   587749 
 3900000    1.0070804   -2.4438876   -2.4438876   -1.4464702  0.081139665   -2.4438876   0.99741737   587749 
 3901000    1.0079771   -2.4453172   -2.4453172   -1.4470118  0.068071966   -2.4453172   0.99830548   587749 
 3902000    1.0075216   -2.4448034   -2.4448034   -1.4469491  0.068257855   -2.4448034   0.99785431   587749 
 3903000    1.0079761   -2.4452224   -2.4452224   -1.4469179  0.071607192   -2.4452224    0.9983045   587749 
 3904000    1.0073024   -2.4448394   -2.4448394   -1.4472022  0.078288321   -2.4448394   0.99763721   587749 
 3905000    1.0089753   -2.4469483   -2.4469483   -1.4476542   0.07042231   -2.4469483   0.99929405   587749 
 3906000    1.0088301   -2.4463651   -2.4463651   -1.4472148  0.072632212   -2.4463651   0.99915025   587749 
 3907000    1.0075684   -2.4451509   -2.4451509   -1.4472501  0.066904008   -2.4451509   0.99790075   587749 
 3908000    1.0078727   -2.4452567   -2.4452567   -1.4470546   0.06871545   -2.4452567   0.99820209   587749 
 3909000    1.0063633   -2.4440575   -2.4440575   -1.4473504  0.061504159   -2.4440575   0.99670715   587749 
 3910000    1.0061261   -2.4429909   -2.4429909   -1.4465186  0.059268947   -2.4429909   0.99647223   587749 
 3911000    1.0073137   -2.4437335   -2.4437335   -1.4460851  0.073766692   -2.4437335   0.99764844   587749 
 3912000    1.0083766   -2.4443574   -2.4443574   -1.4456563  0.082554787   -2.4443574   0.99870114   587749 
 3913000    1.0089825   -2.4443408   -2.4443408   -1.4450396  0.070895816   -2.4443408   0.99930125   587749 
 3914000    1.0097105   -2.4452341   -2.4452341   -1.4452119  0.058560847   -2.4452341    1.0000223   587749 
 3915000    1.0073949   -2.4425897   -2.4425897   -1.4448609  0.072668611   -2.4425897   0.99772884   587749 
 3916000    1.0085717   -2.4439058   -2.4439058   -1.4450114  0.074100533   -2.4439058   0.99889438   587749 
 3917000    1.0072843   -2.4436651   -2.4436651   -1.4460458   0.07317946   -2.4436651   0.99761928   587749 
 3918000    1.0093151   -2.4459858   -2.4459858   -1.4463551  0.064670819   -2.4459858   0.99963065   587749 
 3919000    1.0075521   -2.4437739   -2.4437739   -1.4458894  0.078310332   -2.4437739   0.99788457   587749 
 3920000    1.0076384   -2.4434353   -2.4434353   -1.4454653  0.073274345   -2.4434353   0.99797002   587749 
 3921000    1.0074354   -2.4427565   -2.4427565   -1.4449875    0.0699124   -2.4427565   0.99776894   587749 
 3922000    1.0076606   -2.4435803   -2.4435803   -1.4455883  0.068743048   -2.4435803     0.997992   587749 
 3923000    1.0065273   -2.4434237   -2.4434237   -1.4465541  0.068063816   -2.4434237   0.99686959   587749 
 3924000    1.0069327   -2.4423992   -2.4423992   -1.4451282  0.061322423   -2.4423992   0.99727107   587749 
 3925000    1.0069608   -2.4433323   -2.4433323   -1.4460334  0.068242967   -2.4433323    0.9972989   587749 
 3926000    1.0052194   -2.4421175   -2.4421175   -1.4465433  0.062647901   -2.4421175   0.99557424   587749 
 3927000    1.0063722   -2.4423872   -2.4423872   -1.4456712  0.067396671   -2.4423872   0.99671601   587749 
 3928000    1.0073162   -2.4434348   -2.4434348   -1.4457839  0.057997105   -2.4434348   0.99765091   587749 
 3929000    1.0054677   -2.4419532   -2.4419532   -1.4461331  0.065940632   -2.4419532   0.99582012   587749 
 3930000    1.0070963   -2.4428579   -2.4428579   -1.4454248  0.076075638   -2.4428579   0.99743317   587749 
 3931000      1.00807   -2.4440787   -2.4440787   -1.4456812  0.076566676   -2.4440787   0.99839745   587749 
 3932000    1.0077587   -2.4429443   -2.4429443   -1.4448551  0.073808624   -2.4429443   0.99808922   587749 
 3933000    1.0091676   -2.4451352   -2.4451352   -1.4456506  0.070094037   -2.4451352   0.99948459   587749 
 3934000    1.0070709   -2.4431441   -2.4431441   -1.4457362  0.077839905   -2.4431441   0.99740794   587749 
 3935000    1.0078022   -2.4429748   -2.4429748   -1.4448425  0.069388627   -2.4429748    0.9981323   587749 
 3936000    1.0091411   -2.4447479   -2.4447479   -1.4452895  0.056945009   -2.4447479   0.99945836   587749 
 3937000    1.0089355   -2.4446683   -2.4446683   -1.4454137  0.069829678   -2.4446683   0.99925465   587749 
 3938000    1.0087137   -2.4450731   -2.4450731   -1.4460381   0.06562501   -2.4450731   0.99903499   587749 
 3939000    1.0086702    -2.445514    -2.445514    -1.446522  0.061798538    -2.445514   0.99899196   587749 
 3940000    1.0075964   -2.4444993   -2.4444993   -1.4465709  0.060952294   -2.4444993   0.99792847   587749 
 3941000    1.0085439   -2.4445178   -2.4445178    -1.445651  0.066458708   -2.4445178   0.99886681   587749 
 3942000    1.0075401    -2.444113    -2.444113   -1.4462404   0.06515616    -2.444113   0.99787262   587749 
 3943000    1.0074236   -2.4441019   -2.4441019   -1.4463447  0.068696014   -2.4441019   0.99775725   587749 
 3944000    1.0078042   -2.4452411   -2.4452411   -1.4471069  0.075172913   -2.4452411   0.99813428   587749 
 3945000    1.0082142   -2.4461655   -2.4461655   -1.4476251  0.075505127   -2.4461655   0.99854031   587749 
 3946000    1.0098261   -2.4468342   -2.4468342   -1.4466974  0.086540433   -2.4468342    1.0001367   587749 
 3947000    1.0070417   -2.4449241   -2.4449241   -1.4475451  0.060452616   -2.4449241   0.99737907   587749 
 3948000    1.0078721   -2.4449409   -2.4449409   -1.4467394  0.075265473   -2.4449409   0.99820148   587749 
 3949000    1.0066812   -2.4445884   -2.4445884   -1.4475664  0.060675039   -2.4445884   0.99702199   587749 
 3950000    1.0067815   -2.4437276   -2.4437276   -1.4466063  0.063277677   -2.4437276   0.99712133   587749 
 3951000     1.007269   -2.4435145   -2.4435145   -1.4459103  0.082846032   -2.4435145   0.99760414   587749 
 3952000    1.0074411    -2.443586    -2.443586   -1.4458113  0.074969261    -2.443586   0.99777465   587749 
 3953000    1.0087719    -2.444833    -2.444833   -1.4457404  0.070837818    -2.444833   0.99909261   587749 
 3954000    1.0097107   -2.4456812   -2.4456812   -1.4456587  0.064670114   -2.4456812    1.0000224   587749 
 3955000    1.0072812   -2.4425484   -2.4425484   -1.4449321  0.086495913   -2.4425484   0.99761628   587749 
 3956000    1.0083691   -2.4439968   -2.4439968   -1.4453031  0.060071414   -2.4439968   0.99869372   587749 
 3957000    1.0070405   -2.4430902   -2.4430902   -1.4457123  0.070769396   -2.4430902    0.9973779   587749 
 3958000    1.0071502   -2.4422207   -2.4422207   -1.4447342  0.069806071   -2.4422207   0.99748655   587749 
 3959000     1.007899   -2.4427028   -2.4427028   -1.4444746  0.066077776   -2.4427028   0.99822811   587749 
 3960000    1.0077181   -2.4419255   -2.4419255   -1.4438765   0.07121511   -2.4419255   0.99804899   587749 
 3961000    1.0081796   -2.4423878   -2.4423878   -1.4438818  0.062897853   -2.4423878   0.99850601   587749 
 3962000    1.0085016   -2.4422687   -2.4422687   -1.4434438  0.068108526   -2.4422687   0.99882491   587749 
 3963000    1.0088172   -2.4415937   -2.4415937   -1.4424562  0.072360539   -2.4415937   0.99913747   587749 
 3964000    1.0077442   -2.4414704   -2.4414704   -1.4433956  0.062691272   -2.4414704   0.99807481   587749 
 3965000    1.0067408   -2.4400108   -2.4400108   -1.4429297  0.068343284   -2.4400108   0.99708103   587749 
 3966000    1.0075366   -2.4407792   -2.4407792   -1.4429099   0.07695032   -2.4407792   0.99786923   587749 
 3967000    1.0080698   -2.4418931   -2.4418931   -1.4434958  0.074940501   -2.4418931    0.9983973   587749 
 3968000    1.0068549    -2.441223    -2.441223    -1.444029   0.06545609    -2.441223   0.99719404   587749 
 3969000    1.0067621   -2.4406607   -2.4406607   -1.4435586  0.060283677   -2.4406607   0.99710211   587749 
 3970000    1.0067517   -2.4410155   -2.4410155   -1.4439237   0.05347017   -2.4410155   0.99709185   587749 
 3971000    1.0067029   -2.4402253   -2.4402253   -1.4431818  0.065738812   -2.4402253   0.99704355   587749 
 3972000    1.0083116   -2.4422315   -2.4422315   -1.4435947  0.071704424   -2.4422315   0.99863678   587749 
 3973000    1.0057203   -2.4396417   -2.4396417   -1.4435713  0.085320006   -2.4396417   0.99607034   587749 
 3974000    1.0069867   -2.4412894   -2.4412894   -1.4439649  0.072342088   -2.4412894   0.99732453   587749 
 3975000    1.0077782   -2.4407414   -2.4407414   -1.4426329  0.072229709   -2.4407414   0.99810849   587749 
 3976000    1.0098878   -2.4424592   -2.4424592   -1.4422613  0.069053468   -2.4424592    1.0001979   587749 
 3977000    1.0091068   -2.4418145   -2.4418145   -1.4423901   0.06105495   -2.4418145   0.99942438   587749 
 3978000    1.0102968   -2.4433241   -2.4433241   -1.4427212  0.075080827   -2.4433241    1.0006029   587749 
 3979000    1.0102519   -2.4415295   -2.4415295    -1.440971  0.074311767   -2.4415295    1.0005584   587749 
 3980000    1.0112291   -2.4423767   -2.4423767   -1.4408505  0.073668347   -2.4423767    1.0015263   587749 
 3981000    1.0105847   -2.4427667   -2.4427667   -1.4418787  0.074175693   -2.4427667    1.0008881   587749 
 3982000    1.0075743    -2.440988    -2.440988   -1.4430815  0.071142484    -2.440988   0.99790652   587749 
 3983000    1.0073271   -2.4405183   -2.4405183   -1.4428566   0.06790485   -2.4405183   0.99766172   587749 
 3984000    1.0073145   -2.4404249   -2.4404249   -1.4427756  0.067971107   -2.4404249   0.99764927   587749 
 3985000    1.0075886    -2.441224    -2.441224   -1.4433034  0.072826209    -2.441224   0.99792069   587749 
 3986000    1.0095355   -2.4426198   -2.4426198   -1.4427708  0.067706077   -2.4426198   0.99984897   587749 
 3987000    1.0085387   -2.4427161   -2.4427161   -1.4438544  0.072280964   -2.4427161   0.99886168   587749 
 3988000    1.0076422   -2.4414646   -2.4414646   -1.4434909  0.080250272   -2.4414646   0.99797376   587749 
 3989000    1.0082686   -2.4427314   -2.4427314   -1.4441372  0.064811533   -2.4427314   0.99859422   587749 
 3990000    1.0088889    -2.442666    -2.442666   -1.4434575  0.077184426    -2.442666   0.99920852   587749 
 3991000    1.0089657   -2.4425349   -2.4425349   -1.4432503  0.071832477   -2.4425349   0.99928462   587749 
 3992000    1.0093529    -2.442983    -2.442983   -1.4433149  0.070937384    -2.442983   0.99966811   587749 
 3993000    1.0087115   -2.4420993   -2.4420993   -1.4430665  0.072750442   -2.4420993   0.99903282   587749 
 3994000    1.0089654   -2.4424792   -2.4424792   -1.4431949   0.06604725   -2.4424792   0.99928429   587749 
 3995000    1.0105472   -2.4434675   -2.4434675   -1.4426166  0.070796749   -2.4434675    1.0008509   587749 
 3996000    1.0088728   -2.4424898   -2.4424898   -1.4432972  0.066618967   -2.4424898   0.99919259   587749 
 3997000    1.0078366   -2.4417422   -2.4417422   -1.4435758  0.076744823   -2.4417422   0.99816636   587749 
 3998000    1.0083613   -2.4429389   -2.4429389   -1.4442528  0.076997217   -2.4429389   0.99868604   587749 
 3999000     1.007692   -2.4426698   -2.4426698   -1.4446467  0.059892467   -2.4426698   0.99802312   587749 
 4000000    1.0070656    -2.442322    -2.442322   -1.4449193  0.076244798    -2.442322   0.99740268   587749 
Loop time of 8483.92 on 240 procs for 4000000 steps with 587749 atoms

Performance: 203679.548 tau/day, 471.480 timesteps/s
99.2% CPU use with 240 MPI tasks x 1 OpenMP threads

MPI task timing breakdown:
Section |  min time  |  avg time  |  max time  |%varavg|  %CPU | %total
-----------------------------------------------------------------------
Pair    | 1649.8     | 2112.9     | 2865.9     | 609.5 |  99.1 | 24.90
Bond    | 2.6337     | 2.835      | 3.1369     |   3.9 | 100.0 |  0.03
Neigh   | 1289.9     | 1978.3     | 2703.6     | 628.3 |  99.6 | 23.32
Comm    | 2145.2     | 2931.9     | 3612.2     | 695.4 |  99.0 | 34.56
Output  | 162.88     | 163.86     | 165.45     |   7.5 |  97.7 |  1.93
Modify  | 847.64     | 1202.4     | 1694.2     | 651.0 |  99.1 | 14.17
Other   |            | 91.74      |            |       |       |  1.08

Nlocal:        2448.95 ave        3107 max        1935 min
Histogram: 9 22 36 41 37 45 26 14 7 3
Nghost:        6238.87 ave        9668 max        2435 min
Histogram: 14 14 17 20 27 36 54 39 15 4
Neighs:        50040.7 ave       71430 max       23369 min
Histogram: 2 1 18 27 52 47 40 26 18 9

Total # of neighbors = 12009777
Ave neighs/atom = 20.433513
Ave special neighs/atom = 0.0000000
Neighbor list builds = 400000
Dangerous builds = 396000

Total wall time: 2:21:28
