LAMMPS (24 Dec 2020)
OMP_NUM_THREADS environment is not set. Defaulting to 1 thread. (src/comm.cpp:94)
  using 1 OpenMP thread(s) per MPI task
#Read the equilibrated lj fluid and add nanocubes

units           lj
atom_style      full
atom_modify     map array first cubes
dimension       3
boundary        p p f
pair_style      lj/cut/opt 2.5

variable        sigma           equal 1.0
variable        epsilon         equal 1.0
read_data	data.lj_eqil
Reading data file ...
  orthogonal box = (0.0000000 0.0000000 0.0000000) to (160.00000 160.00000 320.00000)
  5 by 4 by 12 MPI processor grid
  reading atoms ...
  3993600 atoms
  reading velocities ...
  3993600 velocities
Finding 1-2 1-3 1-4 neighbors ...
  special bond factors lj:    0        0        0       
  special bond factors coul:  0        0        0       
     0 = max # of 1-2 neighbors
     0 = max # of 1-3 neighbors
     0 = max # of 1-4 neighbors
     1 = max # of special neighbors
  special bonds CPU = 1.891 seconds
  read_data CPU = 11.830 seconds

group		solvent type 1
3993600 atoms in group solvent

read_data	data.512seed1 group cubes add append
Reading data file ...
  orthogonal box = (0.0000000 0.0000000 0.0000000) to (160.00000 160.00000 320.00000)
  5 by 4 by 12 MPI processor grid
  reading atoms ...
  585216 atoms
  reading velocities ...
  585216 velocities
Finding 1-2 1-3 1-4 neighbors ...
  special bond factors lj:    0        0        0       
  special bond factors coul:  0        0        0       
     0 = max # of 1-2 neighbors
     0 = max # of 1-3 neighbors
     0 = max # of 1-4 neighbors
     1 = max # of special neighbors
  special bonds CPU = 0.061 seconds
  read_data CPU = 1.411 seconds

neighbor      0.4 bin
neigh_modify  exclude molecule/intra cubes


pair_modify   shift yes

pair_coeff    1 1 1.0 1.0 #solvent
pair_coeff    2 2 0.6 1.0 #np
pair_coeff    3 3 0.0 0.0 0.0 #dummy
pair_coeff    2 3 0.0 0.0 0.0 #np dummy
pair_coeff    1 2 0.8 1.0 #np solvent
pair_coeff    1 3 0.0 0.0 0.0 #dummy solvent


# delete solvent where the cubes are
delete_atoms  overlap 1.0 solvent cubes
System init for delete_atoms ...
Neighbor list info ...
  update every 1 steps, delay 10 steps, check yes
  max neighbors/atom: 2000, page size: 100000
  master list distance cutoff = 2.9
  ghost atom cutoff = 2.9
  binsize = 1.45, bins = 111 111 221
  2 neighbor lists, perpetual/occasional/extra = 1 1 0
  (1) command delete_atoms, occasional
      attributes: full, newton on
      pair build: full/bin
      stencil: full/bin/3d
      bin: standard
  (2) pair lj/cut/opt, perpetual
      attributes: half, newton on
      pair build: half/bin/newton
      stencil: half/bin/3d/newton
      bin: standard
WARNING: Delete_atoms cutoff > minimum neighbor cutoff (src/delete_atoms.cpp:307)
WARNING: Ignoring 'compress yes' for molecular system (src/delete_atoms.cpp:125)
Deleted 345403 atoms, new total = 4233413



comm_modify   mode multi cutoff/multi 1 2.5 cutoff/multi 2 2.5 cutoff/multi 3 6.95

reset_timestep 	0

balance 	1.05 shift z 10 1.05
Balancing ...
Neighbor list info ...
  update every 1 steps, delay 10 steps, check yes
  max neighbors/atom: 2000, page size: 100000
  master list distance cutoff = 2.9
  ghost atom cutoff = 6.95
  binsize = 1.45, bins = 111 111 221
  1 neighbor lists, perpetual/occasional/extra = 1 0 0
  (1) pair lj/cut/opt, perpetual
      attributes: half, newton on
      pair build: half/bin/newton
      stencil: half/bin/3d/newton
      bin: standard
 rebalancing time: 0.032 seconds
  iteration count = 5
  initial/final maximal load/proc = 29955.000 23345.000
  initial/final imbalance factor  = 1.6982043 1.3234712
  x cuts: 0.0000000 0.20000000 0.40000000 0.60000000 0.80000000 1.0000000
  y cuts: 0.0000000 0.25000000 0.50000000 0.75000000 1.0000000
  z cuts: 0.0000000 0.054687500 0.10156250 0.15104167 0.20312500 0.25520833 0.32031250 0.37239583 0.42447917 0.46875000 0.53125000 0.59375000 1.0000000

####################### WALLS ###########################

variable       epsilonWall equal 2*${epsilon}
variable       epsilonWall equal 2*1

variable       cutoffTop   equal   0.7147*${sigma}
variable       cutoffTop   equal   0.7147*1

variable       cutoffLow   equal   3*${sigma}
variable       cutoffLow   equal   3*1

region         lowWall block EDGE EDGE EDGE EDGE EDGE 2


fix            topWall all wall/lj93 zhi EDGE 	       ${epsilonWall} ${sigma} ${cutoffTop} units box
fix            topWall all wall/lj93 zhi EDGE 	       2 ${sigma} ${cutoffTop} units box
fix            topWall all wall/lj93 zhi EDGE 	       2 1 ${cutoffTop} units box
fix            topWall all wall/lj93 zhi EDGE 	       2 1 0.7147 units box

fix            lowWall all wall/lj93 zlo EDGE                ${epsilonWall} ${sigma} ${cutoffLow} units box
fix            lowWall all wall/lj93 zlo EDGE                2 ${sigma} ${cutoffLow} units box
fix            lowWall all wall/lj93 zlo EDGE                2 1 ${cutoffLow} units box
fix            lowWall all wall/lj93 zlo EDGE                2 1 3 units box


######################  FIXES ############################


fix             1 cubes rigid/nvt/small molecule temp 0.8 0.8 0.25
  create bodies CPU = 0.004 seconds
  512 rigid bodies with 585216 atoms
  6.9282032 = max distance from body owner to body atom

fix             2 solvent nve


## Thermostat

region          regthermo block EDGE EDGE EDGE EDGE 0 20

group           thermo dynamic solvent region regthermo every 1000
dynamic group thermo defined

fix             3 thermo langevin ${startTemp} ${temp} 0.1 156453
fix             3 thermo langevin 0.8 ${temp} 0.1 156453
fix             3 thermo langevin 0.8 0.8 0.1 156453




#### Load balancing

fix             bal all balance 1000 1.05 shift z 10 1.05

############### Diagnostics and computes ###################

compute        com cubes          rigid/local   1 mol x y z
compute        quat cubes         rigid/local   1 mol quatw quati quatj quatk
compute 	cc2 cubes chunk/atom molecule

compute 	msd cubes msd/chunk cc2

thermo          1000
thermo_style    custom step temp epair evdwl etotal press pe ke vol

dump            1 all custom 100000 dump.lammpstrj id mol type x y z
dump            2 all image 10000 image.*.png type type

dump_modify     2 pad 8


dump		image cubes image 10000 image.*.png type type

dump_modify	2 pad 8

dump            3 all movie 5000 movie.avi type type
dump           com cubes local 1000 dump.*.xyz c_com[*]
dump           quat cubes      local 1000 dump.*.quat c_quat[*]


restart         500000 restart.dat
timestep        0.0025
timer           full
New timer settings: style=full  mode=nosync  timeout=off

run            1000000
Per MPI rank memory allocation (min/avg/max) = 43.28 | 57.99 | 67.36 Mbytes
Step Temp E_pair E_vdwl TotEng Press PotEng KinEng Volume 
       0   0.77232217   -3.9085463   -3.9085463   -2.9099288 -0.011748461   -3.9085463   0.99861749      8192000 
    1000   0.77675005   -3.8967509   -3.8967509   -2.8924082 -0.015201609   -3.8967509    1.0043428      8192000 
    2000   0.77695003   -3.8950079   -3.8950079   -2.8904066 -0.019804495   -3.8950079    1.0046013      8192000 
    3000   0.77747664   -3.8944464   -3.8944464   -2.8891642 -0.019695281   -3.8944464    1.0052823      8192000 
    4000   0.77798602   -3.8935772   -3.8935772   -2.8876363 -0.020929897   -3.8935772    1.0059409      8192000 
    5000    0.7788684   -3.8936548   -3.8936548    -2.886573 -0.018525354   -3.8936548    1.0070818      8192000 
    6000   0.77997093   -3.8945778   -3.8945778   -2.8860704 -0.015579699   -3.8945778    1.0085074      8192000 
    7000   0.78132443   -3.8951807   -3.8951807   -2.8849232 -0.012792474   -3.8951807    1.0102575      8192000 
    8000   0.78278834   -3.8963396   -3.8963396   -2.8841893 -0.0049307966   -3.8963396    1.0121503      8192000 
    9000   0.78387755   -3.8970805   -3.8970805   -2.8835218 -0.004001834   -3.8970805    1.0135587      8192000 
   10000   0.78534782    -3.898626    -3.898626   -2.8831662 0.0042580728    -3.898626    1.0154597      8192000 
   11000   0.78616163   -3.8992821   -3.8992821   -2.8827701  0.007096814   -3.8992821     1.016512      8192000 
   12000   0.78786481   -3.9005004   -3.9005004   -2.8817862  0.016948726   -3.9005004    1.0187142      8192000 
   13000   0.78919239   -3.9017486   -3.9017486   -2.8813179  0.013904133   -3.9017486    1.0204308      8192000 
   14000   0.79009891   -3.9027706   -3.9027706   -2.8811677  0.025827359   -3.9027706    1.0216029      8192000 
   15000   0.79108617   -3.9040068   -3.9040068   -2.8811274  0.031074075   -3.9040068    1.0228795      8192000 
   16000   0.79306883   -3.9060491   -3.9060491   -2.8806061  0.035002422   -3.9060491    1.0254431      8192000 
   17000   0.79350675   -3.9067343   -3.9067343    -2.880725   0.04268939   -3.9067343    1.0260093      8192000 
   18000   0.79466776    -3.907992    -3.907992   -2.8804815  0.048146692    -3.907992    1.0275105      8192000 
   19000   0.79493685   -3.9081914   -3.9081914    -2.880333   0.04716546   -3.9081914    1.0278584      8192000 
   20000   0.79583611   -3.9093337   -3.9093337   -2.8803125  0.054702507   -3.9093337    1.0290212      8192000 
   21000   0.79589831   -3.9090682   -3.9090682   -2.8799666  0.054521229   -3.9090682    1.0291016      8192000 
   22000   0.79641072   -3.9096745   -3.9096745   -2.8799104  0.054939302   -3.9096745    1.0297641      8192000 
   23000   0.79674898   -3.9100235   -3.9100235    -2.879822  0.057173231   -3.9100235    1.0302015      8192000 
   24000   0.79622506   -3.9097747   -3.9097747   -2.8802506   0.05641914   -3.9097747    1.0295241      8192000 
   25000   0.79684598   -3.9102299   -3.9102299    -2.879903  0.060635613   -3.9102299    1.0303269      8192000 
   26000   0.79717735   -3.9110684   -3.9110684    -2.880313  0.060476911   -3.9110684    1.0307554      8192000 
   27000   0.79718353   -3.9111128   -3.9111128   -2.8803494   0.06058058   -3.9111128    1.0307634      8192000 
   28000    0.7975573   -3.9116225   -3.9116225   -2.8803758  0.056166029   -3.9116225    1.0312467      8192000 
   29000   0.79776739   -3.9116295   -3.9116295   -2.8801112   0.06170516   -3.9116295    1.0315183      8192000 
   30000   0.79770995   -3.9117333   -3.9117333   -2.8802893  0.061732408   -3.9117333    1.0314441      8192000 
   31000   0.79810033   -3.9122666   -3.9122666   -2.8803178  0.062497623   -3.9122666    1.0319488      8192000 
   32000   0.79799382   -3.9119696   -3.9119696   -2.8801585  0.064133424   -3.9119696    1.0318111      8192000 
   33000   0.79760043   -3.9115603   -3.9115603   -2.8802579  0.060532722   -3.9115603    1.0313024      8192000 
   34000   0.79775532   -3.9114826   -3.9114826   -2.8799799  0.061883541   -3.9114826    1.0315027      8192000 
   35000   0.79764545    -3.911383    -3.911383   -2.8800224   0.06086878    -3.911383    1.0313606      8192000 
   36000   0.79773934   -3.9112768   -3.9112768   -2.8797948  0.056969119   -3.9112768    1.0314821      8192000 
   37000   0.79731992   -3.9106293   -3.9106293   -2.8796896  0.051842858   -3.9106293    1.0309397      8192000 
   38000   0.79715721   -3.9100453   -3.9100453    -2.879316  0.057677136   -3.9100453    1.0307293      8192000 
   39000   0.79689079   -3.9098516   -3.9098516   -2.8794668  0.055546595   -3.9098516    1.0303849      8192000 
   40000   0.79692047   -3.9095667   -3.9095667   -2.8791434  0.047749126   -3.9095667    1.0304232      8192000 
   41000   0.79681661   -3.9092716   -3.9092716   -2.8789826  0.052286249   -3.9092716     1.030289      8192000 
   42000   0.79574045   -3.9077299   -3.9077299   -2.8788325  0.050403969   -3.9077299    1.0288975      8192000 
   43000    0.7959073   -3.9074942   -3.9074942   -2.8783809  0.042141698   -3.9074942    1.0291132      8192000 
   44000   0.79513455   -3.9064318   -3.9064318   -2.8783178  0.038101774   -3.9064318     1.028114      8192000 
   45000   0.79417845   -3.9050635   -3.9050635   -2.8781857  0.040767355   -3.9050635    1.0268778      8192000 
   46000   0.79403066   -3.9047344   -3.9047344   -2.8780477  0.035119973   -3.9047344    1.0266867      8192000 
   47000    0.7928488   -3.9030405   -3.9030405    -2.877882  0.038003744   -3.9030405    1.0251586      8192000 
   48000   0.79274708   -3.9024438   -3.9024438   -2.8774168  0.030611711   -3.9024438     1.025027      8192000 
   49000   0.79160694   -3.9007996   -3.9007996   -2.8772468  0.029464012   -3.9007996    1.0235528      8192000 
   50000    0.7908894   -3.8998246   -3.8998246   -2.8771996  0.029158186   -3.8998246     1.022625      8192000 
   51000   0.79058778   -3.8988159   -3.8988159   -2.8765809  0.023358203   -3.8988159     1.022235      8192000 
   52000   0.79069597   -3.8987586   -3.8987586   -2.8763837  0.015647735   -3.8987586    1.0223749      8192000 
   53000   0.79031983   -3.8979561   -3.8979561   -2.8760675  0.016136339   -3.8979561    1.0218886      8192000 
   54000   0.78974681   -3.8971732   -3.8971732   -2.8760255  0.011942594   -3.8971732    1.0211477      8192000 
   55000   0.78898041   -3.8960064   -3.8960064   -2.8758497   0.01549213   -3.8960064    1.0201567      8192000 
   56000   0.78912253   -3.8961183   -3.8961183   -2.8757779  0.013723284   -3.8961183    1.0203405      8192000 
   57000   0.78885939   -3.8949959   -3.8949959   -2.8749957  0.011521809   -3.8949959    1.0200002      8192000 
   58000   0.78870599   -3.8947749   -3.8947749   -2.8749731 0.0095111749   -3.8947749    1.0198019      8192000 
   59000   0.78845659   -3.8941639   -3.8941639   -2.8746845  0.010650205   -3.8941639    1.0194794      8192000 
   60000   0.78852668   -3.8938735   -3.8938735   -2.8743035  0.011712335   -3.8938735      1.01957      8192000 
   61000   0.78834136   -3.8931003   -3.8931003   -2.8737699   0.01239898   -3.8931003    1.0193304      8192000 
   62000   0.78842923   -3.8928543   -3.8928543   -2.8734103 0.0083856739   -3.8928543     1.019444      8192000 
   63000   0.78799619   -3.8919604   -3.8919604   -2.8730763 0.0082225441   -3.8919604    1.0188841      8192000 
   64000   0.78812532   -3.8920584   -3.8920584   -2.8730073 0.0063987882   -3.8920584    1.0190511      8192000 
   65000   0.78788867   -3.8913313   -3.8913313   -2.8725862 0.0074628586   -3.8913313    1.0187451      8192000 
   66000   0.78798551   -3.8906218   -3.8906218   -2.8717515 0.0079290607   -3.8906218    1.0188703      8192000 
   67000   0.78866331   -3.8912985   -3.8912985   -2.8715518 0.0019918765   -3.8912985    1.0197467      8192000 
   68000   0.78788091   -3.8901392   -3.8901392   -2.8714042 0.0079488401   -3.8901392     1.018735      8192000 
   69000   0.78813256   -3.8902369   -3.8902369   -2.8711764 0.0095822183   -3.8902369    1.0190604      8192000 
   70000   0.78862649   -3.8907845   -3.8907845   -2.8710855 0.0058004711   -3.8907845    1.0196991      8192000 
   71000   0.78895828   -3.8907302   -3.8907302   -2.8706021 0.0074433676   -3.8907302    1.0201281      8192000 
   72000   0.78866358   -3.8904588   -3.8904588   -2.8707117 0.0075955493   -3.8904588     1.019747      8192000 
   73000   0.78864021   -3.8904778   -3.8904778   -2.8707609 0.0093082071   -3.8904778    1.0197168      8192000 
   74000   0.78912287   -3.8907143   -3.8907143   -2.8703734  0.010339814   -3.8907143    1.0203409      8192000 
   75000    0.7895347   -3.8910293   -3.8910293   -2.8701559  0.010912398   -3.8910293    1.0208734      8192000 
   76000   0.78959694   -3.8908583   -3.8908583   -2.8699044  0.010789373   -3.8908583    1.0209539      8192000 
   77000   0.78967202   -3.8910652   -3.8910652   -2.8700143  0.013748051   -3.8910652     1.021051      8192000 
   78000   0.78958385   -3.8905942   -3.8905942   -2.8696572  0.012724447   -3.8905942     1.020937      8192000 
   79000   0.79055514   -3.8914239   -3.8914239    -2.869231  0.014684719   -3.8914239    1.0221928      8192000 
   80000   0.79086862   -3.8917626   -3.8917626   -2.8691644  0.015636964   -3.8917626    1.0225982      8192000 
   81000   0.79108589   -3.8915196   -3.8915196   -2.8686405  0.022676962   -3.8915196    1.0228791      8192000 
   82000   0.79179696   -3.8926691   -3.8926691   -2.8688705  0.020661732   -3.8926691    1.0237985      8192000 
   83000   0.79199658   -3.8931165   -3.8931165   -2.8690598  0.020860563   -3.8931165    1.0240566      8192000 
   84000   0.79217644   -3.8933172   -3.8933172    -2.869028   0.02318725   -3.8933172    1.0242892      8192000 
   85000   0.79293755   -3.8938755   -3.8938755   -2.8686022  0.022497812   -3.8938755    1.0252733      8192000 
   86000   0.79291777   -3.8939631   -3.8939631   -2.8687153  0.029560735   -3.8939631    1.0252477      8192000 
   87000   0.79373015   -3.8948279   -3.8948279   -2.8685298  0.029865855   -3.8948279    1.0262981      8192000 
   88000   0.79414623   -3.8950936   -3.8950936   -2.8682575    0.0287101   -3.8950936    1.0268361      8192000 
   89000   0.79403053   -3.8959676   -3.8959676   -2.8692811  0.029404137   -3.8959676    1.0266865      8192000 
   90000   0.79424484   -3.8959266   -3.8959266   -2.8689629  0.033340073   -3.8959266    1.0269636      8192000 
   91000   0.79458816   -3.8958411   -3.8958411   -2.8684335  0.033120859   -3.8958411    1.0274076      8192000 
   92000   0.79501696   -3.8964041   -3.8964041   -2.8684421  0.035357442   -3.8964041     1.027962      8192000 
   93000   0.79509266   -3.8964681   -3.8964681   -2.8684082  0.033893102   -3.8964681    1.0280599      8192000 
   94000   0.79492428    -3.896431    -3.896431   -2.8685889  0.037136008    -3.896431    1.0278422      8192000 
   95000   0.79570431   -3.8973113   -3.8973113   -2.8684606  0.036870012   -3.8973113    1.0288508      8192000 
   96000   0.79572803   -3.8971074   -3.8971074    -2.868226   0.03742597   -3.8971074    1.0288814      8192000 
   97000   0.79597872   -3.8975155   -3.8975155     -2.86831  0.035374226   -3.8975155    1.0292056      8192000 
   98000   0.79588251    -3.897638    -3.897638   -2.8685568   0.03808624    -3.897638    1.0290812      8192000 
   99000   0.79561421   -3.8973296   -3.8973296   -2.8685953  0.038958475   -3.8973296    1.0287342      8192000 
  100000   0.79579426   -3.8973271   -3.8973271     -2.86836   0.04091606   -3.8973271    1.0289671      8192000 
  101000   0.79533257   -3.8969493   -3.8969493   -2.8685793  0.039162516   -3.8969493    1.0283701      8192000 
  102000   0.79588922   -3.8975907   -3.8975907   -2.8685008   0.03867753   -3.8975907    1.0290898      8192000 
  103000   0.79578039   -3.8974345   -3.8974345   -2.8684854  0.040076817   -3.8974345    1.0289491      8192000 
  104000   0.79585446   -3.8975174   -3.8975174   -2.8684726  0.041514891   -3.8975174    1.0290449      8192000 
  105000     0.796371   -3.8984609   -3.8984609   -2.8687481  0.037828449   -3.8984609    1.0297128      8192000 
  106000    0.7958366   -3.8981288   -3.8981288    -2.869107   0.03790528   -3.8981288    1.0290218      8192000 
  107000   0.79580627   -3.8974711   -3.8974711   -2.8684885  0.043953367   -3.8974711    1.0289826      8192000 
  108000   0.79557487   -3.8971043   -3.8971043   -2.8684209   0.03791886   -3.8971043    1.0286834      8192000 
  109000   0.79556948   -3.8970945   -3.8970945    -2.868418  0.039179305   -3.8970945    1.0286764      8192000 
  110000   0.79523894   -3.8963173   -3.8963173   -2.8680683  0.035538146   -3.8963173     1.028249      8192000 
  111000   0.79543569   -3.8962391   -3.8962391   -2.8677357  0.035174565   -3.8962391    1.0285034      8192000 
  112000   0.79521065   -3.8959188   -3.8959188   -2.8677064  0.034531375   -3.8959188    1.0282124      8192000 
  113000   0.79551282   -3.8959764   -3.8959764   -2.8673732  0.034381133   -3.8959764    1.0286031      8192000 
  114000    0.7949865   -3.8953968   -3.8953968   -2.8674742  0.037039976   -3.8953968    1.0279226      8192000 
  115000   0.79486769   -3.8951991   -3.8951991   -2.8674301  0.033240052   -3.8951991     1.027769      8192000 
  116000   0.79509539   -3.8954911   -3.8954911   -2.8674277  0.032334242   -3.8954911    1.0280634      8192000 
  117000   0.79446754   -3.8944263   -3.8944263   -2.8671747  0.035726146   -3.8944263    1.0272516      8192000 
  118000   0.79447708   -3.8941092   -3.8941092   -2.8668453  0.032108662   -3.8941092    1.0272639      8192000 
  119000   0.79405552   -3.8937914   -3.8937914   -2.8670726  0.028486166   -3.8937914    1.0267188      8192000 
  120000   0.79377202   -3.8933797   -3.8933797   -2.8670274  0.028872634   -3.8933797    1.0263523      8192000 
  121000   0.79349257   -3.8925509   -3.8925509     -2.86656  0.029235305   -3.8925509    1.0259909      8192000 
  122000    0.7937833    -3.892648    -3.892648   -2.8662812   0.02512532    -3.892648    1.0263669      8192000 
  123000    0.7932077   -3.8923033   -3.8923033   -2.8666806  0.024757112   -3.8923033    1.0256226      8192000 
  124000   0.79307741   -3.8918244   -3.8918244   -2.8663702   0.02559592   -3.8918244    1.0254541      8192000 
  125000   0.79275138   -3.8909801   -3.8909801   -2.8659475  0.021710232   -3.8909801    1.0250326      8192000 
  126000   0.79222928   -3.8904019   -3.8904019   -2.8660444  0.021604702   -3.8904019    1.0243575      8192000 
  127000   0.79212809   -3.8899257   -3.8899257   -2.8656991  0.023115158   -3.8899257    1.0242267      8192000 
  128000   0.79250399   -3.8904826   -3.8904826   -2.8657699  0.020830589   -3.8904826    1.0247127      8192000 
  129000   0.79209787   -3.8896328   -3.8896328   -2.8654452  0.018040121   -3.8896328    1.0241876      8192000 
  130000   0.79216399   -3.8893343   -3.8893343   -2.8650612  0.018830389   -3.8893343    1.0242731      8192000 
  131000   0.79189876   -3.8889391   -3.8889391   -2.8650089  0.016452924   -3.8889391    1.0239302      8192000 
  132000   0.79245934    -3.889454    -3.889454    -2.864799  0.016931639    -3.889454     1.024655      8192000 
  133000    0.7918598   -3.8884327   -3.8884327    -2.864553  0.016347789   -3.8884327    1.0238798      8192000 
  134000     0.791792   -3.8887532   -3.8887532   -2.8649611  0.016127971   -3.8887532    1.0237921      8192000 
  135000   0.79157652   -3.8882618   -3.8882618   -2.8647483  0.014729578   -3.8882618    1.0235135      8192000 
  136000    0.7914768   -3.8876688   -3.8876688   -2.8642843   0.01822792   -3.8876688    1.0233846      8192000 
  137000   0.79173872   -3.8877362   -3.8877362    -2.864013  0.017585078   -3.8877362    1.0237232      8192000 
  138000   0.79182027   -3.8872755   -3.8872755   -2.8634468  0.017944462   -3.8872755    1.0238287      8192000 
  139000   0.79175435   -3.8872135   -3.8872135     -2.86347  0.018287448   -3.8872135    1.0237434      8192000 
  140000   0.79164491   -3.8869618   -3.8869618   -2.8633599  0.018197986   -3.8869618    1.0236019      8192000 
  141000   0.79158484   -3.8871215   -3.8871215   -2.8635973  0.017459889   -3.8871215    1.0235242      8192000 
  142000   0.79154822   -3.8866907   -3.8866907   -2.8632138  0.018950891   -3.8866907    1.0234769      8192000 
  143000   0.79210777    -3.887251    -3.887251   -2.8630506  0.016824897    -3.887251    1.0242004      8192000 
  144000   0.79232576   -3.8869869   -3.8869869   -2.8625047  0.017971181   -3.8869869    1.0244823      8192000 
  145000   0.79233923   -3.8868748   -3.8868748   -2.8623752  0.019116425   -3.8868748    1.0244997      8192000 
  146000   0.79212087    -3.886894    -3.886894   -2.8626767  0.020542709    -3.886894    1.0242173      8192000 
  147000   0.79261396     -3.88741     -3.88741   -2.8625551  0.017152957     -3.88741    1.0248549      8192000 
  148000   0.79223271   -3.8869943   -3.8869943   -2.8626324  0.018018833   -3.8869943    1.0243619      8192000 
  149000   0.79262488    -3.887262    -3.887262    -2.862393   0.01753884    -3.887262     1.024869      8192000 
  150000   0.79231025   -3.8868739   -3.8868739   -2.8624117  0.018592134   -3.8868739    1.0244622      8192000 
  151000   0.79273324   -3.8871882   -3.8871882   -2.8621791  0.019759939   -3.8871882    1.0250091      8192000 
  152000   0.79262509   -3.8870661   -3.8870661   -2.8621968  0.023250321   -3.8870661    1.0248693      8192000 
  153000   0.79328399   -3.8880273   -3.8880273    -2.862306  0.017462932   -3.8880273    1.0257213      8192000 
  154000   0.79302857   -3.8877149   -3.8877149   -2.8623239  0.022861107   -3.8877149     1.025391      8192000 
  155000   0.79325402   -3.8879368   -3.8879368   -2.8622543  0.022250282   -3.8879368    1.0256825      8192000 
  156000   0.79356125   -3.8879546   -3.8879546   -2.8618748  0.023908067   -3.8879546    1.0260798      8192000 
  157000   0.79306823   -3.8875224   -3.8875224   -2.8620802  0.023324181   -3.8875224    1.0254423      8192000 
  158000   0.79356338   -3.8881986   -3.8881986    -2.862116  0.023530673   -3.8881986    1.0260825      8192000 
  159000   0.79389818   -3.8882419   -3.8882419   -2.8617265  0.023985038   -3.8882419    1.0265154      8192000 
  160000   0.79368268   -3.8881543   -3.8881543   -2.8619176  0.026185712   -3.8881543    1.0262368      8192000 
  161000   0.79420635   -3.8888865   -3.8888865   -2.8619726  0.024220396   -3.8888865    1.0269139      8192000 
  162000   0.79442816   -3.8894089   -3.8894089   -2.8622082  0.030186747   -3.8894089    1.0272007      8192000 
  163000   0.79455073   -3.8894966   -3.8894966   -2.8621374  0.027849193   -3.8894966    1.0273592      8192000 
  164000   0.79447837   -3.8894979   -3.8894979   -2.8622323   0.02765121   -3.8894979    1.0272656      8192000 
  165000    0.7948505   -3.8897226   -3.8897226   -2.8619758  0.027064243   -3.8897226    1.0277468      8192000 
  166000   0.79486431   -3.8895493   -3.8895493   -2.8617847  0.031143711   -3.8895493    1.0277646      8192000 
  167000   0.79464128   -3.8894063   -3.8894063     -2.86193  0.029140946   -3.8894063    1.0274762      8192000 
  168000   0.79539491   -3.8904559   -3.8904559   -2.8620052  0.029616925   -3.8904559    1.0284507      8192000 
  169000   0.79525242   -3.8900115   -3.8900115   -2.8617451  0.028580059   -3.8900115    1.0282664      8192000 
  170000   0.79472626   -3.8896934   -3.8896934   -2.8621073  0.031711342   -3.8896934    1.0275861      8192000 
  171000   0.79537372   -3.8906681   -3.8906681   -2.8622448  0.029602152   -3.8906681    1.0284233      8192000 
  172000   0.79480458   -3.8895321   -3.8895321   -2.8618447  0.034809937   -3.8895321    1.0276874      8192000 
  173000   0.79559614   -3.8902218   -3.8902218   -2.8615109  0.031459434   -3.8902218    1.0287109      8192000 
  174000   0.79527618   -3.8899417   -3.8899417   -2.8616445  0.033751299   -3.8899417    1.0282972      8192000 
  175000   0.79527319   -3.8901963   -3.8901963    -2.861903  0.032708017   -3.8901963    1.0282933      8192000 
  176000   0.79537824   -3.8904011   -3.8904011   -2.8619719  0.031398265   -3.8904011    1.0284291      8192000 
  177000   0.79542257   -3.8901601   -3.8901601   -2.8616736  0.032360067   -3.8901601    1.0284865      8192000 
  178000   0.79548773   -3.8904964   -3.8904964   -2.8619257  0.032522715   -3.8904964    1.0285707      8192000 
  179000   0.79546212   -3.8905932   -3.8905932   -2.8620556  0.032265717   -3.8905932    1.0285376      8192000 
  180000   0.79539497   -3.8906458   -3.8906458    -2.862195  0.030372737   -3.8906458    1.0284508      8192000 
  181000   0.79541704   -3.8903062   -3.8903062   -2.8618269  0.031067935   -3.8903062    1.0284793      8192000 
  182000   0.79556182   -3.8903239   -3.8903239   -2.8616574  0.029667626   -3.8903239    1.0286665      8192000 
  183000   0.79500226   -3.8898304   -3.8898304   -2.8618874  0.031125385   -3.8898304     1.027943      8192000 
  184000   0.79524313   -3.8897574   -3.8897574   -2.8615029  0.034352613   -3.8897574    1.0282544      8192000 
  185000   0.79556994   -3.8899058   -3.8899058   -2.8612288  0.026188898   -3.8899058     1.028677      8192000 
  186000   0.79559381   -3.8897049   -3.8897049    -2.860997  0.026937941   -3.8897049    1.0287079      8192000 
  187000   0.79456329   -3.8888504   -3.8888504    -2.861475  0.029424696   -3.8888504    1.0273754      8192000 
  188000   0.79467016   -3.8890952   -3.8890952   -2.8615816  0.031582275   -3.8890952    1.0275136      8192000 
  189000   0.79520426   -3.8893672   -3.8893672   -2.8611631  0.029441634   -3.8893672    1.0282042      8192000 
  190000   0.79448791   -3.8888466   -3.8888466   -2.8615687  0.030192642   -3.8888466    1.0272779      8192000 
  191000   0.79465337   -3.8886095   -3.8886095   -2.8611177  0.026603517   -3.8886095    1.0274919      8192000 
  192000   0.79390296   -3.8882963   -3.8882963   -2.8617747  0.029678923   -3.8882963    1.0265216      8192000 
  193000   0.79428753   -3.8885075   -3.8885075   -2.8614887  0.028713366   -3.8885075    1.0270188      8192000 
  194000   0.79401149   -3.8878137   -3.8878137   -2.8611518  0.026789225   -3.8878137    1.0266619      8192000 
  195000   0.79417985   -3.8880763   -3.8880763   -2.8611967  0.024285686   -3.8880763    1.0268796      8192000 
  196000   0.79427432   -3.8880884   -3.8880884   -2.8610866   0.02447727   -3.8880884    1.0270018      8192000 
  197000   0.79381004    -3.887605    -3.887605   -2.8612036  0.025192081    -3.887605    1.0264014      8192000 
  198000   0.79366851   -3.8871093   -3.8871093   -2.8608908  0.025961401   -3.8871093    1.0262184      8192000 
  199000   0.79348697   -3.8867885   -3.8867885   -2.8608047  0.026495461   -3.8867885    1.0259837      8192000 
  200000   0.79392876   -3.8869617   -3.8869617   -2.8604068  0.021755326   -3.8869617    1.0265549      8192000 
  201000   0.79371938   -3.8868829   -3.8868829   -2.8605987  0.025661221   -3.8868829    1.0262842      8192000 
  202000    0.7934055   -3.8865246   -3.8865246   -2.8606462  0.022146721   -3.8865246    1.0258784      8192000 
  203000   0.79331402   -3.8863089   -3.8863089   -2.8605489  0.023588947   -3.8863089    1.0257601      8192000 
  204000   0.79354533    -3.886464    -3.886464   -2.8604049  0.019667791    -3.886464    1.0260592      8192000 
  205000    0.7929332   -3.8858824   -3.8858824   -2.8606147  0.020732781   -3.8858824    1.0252677      8192000 
  206000   0.79314989   -3.8860184   -3.8860184   -2.8604705  0.021793066   -3.8860184    1.0255479      8192000 
  207000   0.79335185   -3.8859505   -3.8859505   -2.8601415   0.02113881   -3.8859505     1.025809      8192000 
  208000   0.79370673   -3.8861905   -3.8861905   -2.8599226  0.021017813   -3.8861905    1.0262679      8192000 
  209000   0.79375779   -3.8863253   -3.8863253   -2.8599914  0.019360824   -3.8863253    1.0263339      8192000 
  210000   0.79349218   -3.8856169   -3.8856169   -2.8596265  0.019973175   -3.8856169    1.0259904      8192000 
  211000     0.793935   -3.8861678   -3.8861678   -2.8596048  0.019681303   -3.8861678     1.026563      8192000 
  212000   0.79319907   -3.8851112   -3.8851112   -2.8594998  0.021748302   -3.8851112    1.0256115      8192000 
  213000   0.79348071   -3.8854211   -3.8854211   -2.8594454  0.021790528   -3.8854211    1.0259756      8192000 
  214000   0.79315182   -3.8846051   -3.8846051   -2.8590547  0.023922173   -3.8846051    1.0255504      8192000 
  215000   0.79363337   -3.8850176   -3.8850176   -2.8588446  0.021245891   -3.8850176     1.026173      8192000 
  216000    0.7932593   -3.8848354   -3.8848354    -2.859146  0.023201834   -3.8848354    1.0256893      8192000 
  217000   0.79377622   -3.8851465   -3.8851465   -2.8587888   0.02461131   -3.8851465    1.0263577      8192000 
  218000   0.79359182   -3.8849941   -3.8849941   -2.8588748  0.023681407   -3.8849941    1.0261193      8192000 
  219000   0.79352506   -3.8854459   -3.8854459   -2.8594129  0.023617441   -3.8854459     1.026033      8192000 
  220000   0.79406498   -3.8856845   -3.8856845   -2.8589535   0.02355774   -3.8856845    1.0267311      8192000 
  221000   0.79374402    -3.885143    -3.885143   -2.8588269  0.023173775    -3.885143    1.0263161      8192000 
  222000   0.79417203     -3.88582     -3.88582   -2.8589505   0.01974913     -3.88582    1.0268695      8192000 
  223000   0.79432777   -3.8856584   -3.8856584   -2.8585876  0.020878517   -3.8856584    1.0270709      8192000 
  224000   0.79372022   -3.8854793   -3.8854793    -2.859194  0.022709841   -3.8854793    1.0262853      8192000 
  225000   0.79371531   -3.8852851   -3.8852851   -2.8590062  0.021731932   -3.8852851     1.026279      8192000 
  226000   0.79451904   -3.8862883   -3.8862883   -2.8589702  0.024839421   -3.8862883    1.0273182      8192000 
  227000   0.79431249   -3.8859833   -3.8859833   -2.8589322  0.023850749   -3.8859833    1.0270511      8192000 
  228000    0.7941732   -3.8859429   -3.8859429   -2.8590719  0.023569705   -3.8859429     1.026871      8192000 
  229000   0.79418141   -3.8858137   -3.8858137   -2.8589321  0.023376611   -3.8858137    1.0268816      8192000 
  230000   0.79402172   -3.8857168   -3.8857168   -2.8590416  0.024924753   -3.8857168    1.0266751      8192000 
  231000   0.79434469   -3.8859711   -3.8859711   -2.8588784  0.024991764   -3.8859711    1.0270927      8192000 
  232000     0.794507    -3.886045    -3.886045   -2.8587424   0.02339237    -3.886045    1.0273026      8192000 
  233000   0.79433074   -3.8864958   -3.8864958   -2.8594211  0.025770167   -3.8864958    1.0270747      8192000 
  234000   0.79466006   -3.8866107   -3.8866107   -2.8591102   0.02612468   -3.8866107    1.0275005      8192000 
  235000    0.7949866    -3.886886    -3.886886   -2.8589632  0.026666234    -3.886886    1.0279227      8192000 
  236000   0.79494119   -3.8867511   -3.8867511    -2.858887  0.026128831   -3.8867511     1.027864      8192000 
  237000   0.79504059   -3.8872144   -3.8872144   -2.8592219   0.02543338   -3.8872144    1.0279926      8192000 
  238000   0.79459425    -3.886562    -3.886562   -2.8591466  0.028968299    -3.886562    1.0274154      8192000 
  239000    0.7945218   -3.8867335   -3.8867335   -2.8594117  0.025915021   -3.8867335    1.0273218      8192000 
  240000   0.79492558   -3.8865533   -3.8865533   -2.8587095   0.02704356   -3.8865533    1.0278438      8192000 
  241000   0.79491571    -3.886516    -3.886516    -2.858685  0.029370676    -3.886516    1.0278311      8192000 
  242000   0.79466116   -3.8867504   -3.8867504   -2.8592485  0.030091126   -3.8867504    1.0275019      8192000 
  243000   0.79513385   -3.8870589   -3.8870589   -2.8589458  0.027609793   -3.8870589    1.0281131      8192000 
  244000   0.79510662   -3.8874092   -3.8874092   -2.8593312  0.027000143   -3.8874092    1.0280779      8192000 
  245000   0.79528774   -3.8871297   -3.8871297   -2.8588176  0.026994282   -3.8871297    1.0283121      8192000 
  246000   0.79551632   -3.8874753   -3.8874753   -2.8588676  0.027929656   -3.8874753    1.0286077      8192000 
  247000   0.79547828   -3.8875222   -3.8875222   -2.8589637  0.025958221   -3.8875222    1.0285585      8192000 
  248000   0.79478366   -3.8869061   -3.8869061   -2.8592458  0.028283384   -3.8869061    1.0276603      8192000 
  249000   0.79524553   -3.8873785   -3.8873785    -2.859121  0.027337403   -3.8873785    1.0282575      8192000 
  250000   0.79540276   -3.8873477   -3.8873477   -2.8588868  0.027217965   -3.8873477    1.0284608      8192000 
  251000    0.7956741    -3.887907    -3.887907   -2.8590953  0.027717162    -3.887907    1.0288117      8192000 
  252000   0.79546043   -3.8874151   -3.8874151   -2.8588796  0.028425636   -3.8874151    1.0285354      8192000 
  253000   0.79530648   -3.8873918   -3.8873918   -2.8590554  0.027626536   -3.8873918    1.0283364      8192000 
  254000    0.7951606   -3.8870463   -3.8870463   -2.8588986  0.029068538   -3.8870463    1.0281477      8192000 
  255000   0.79524785   -3.8870038   -3.8870038   -2.8587433   0.02898705   -3.8870038    1.0282605      8192000 
  256000   0.79519027   -3.8872185   -3.8872185   -2.8590324  0.028647453   -3.8872185    1.0281861      8192000 
  257000   0.79512048   -3.8868221   -3.8868221   -2.8587263   0.03013432   -3.8868221    1.0280958      8192000 
  258000   0.79494527   -3.8865755   -3.8865755   -2.8587062  0.027208509   -3.8865755    1.0278693      8192000 
  259000   0.79492337   -3.8866298   -3.8866298   -2.8587888  0.029023373   -3.8866298     1.027841      8192000 
  260000   0.79463754   -3.8862992   -3.8862992   -2.8588278  0.027458453   -3.8862992    1.0274714      8192000 
  261000   0.79481173   -3.8866904   -3.8866904   -2.8589938  0.028404637   -3.8866904    1.0276966      8192000 
  262000   0.79493107   -3.8866091   -3.8866091   -2.8587582  0.024592185   -3.8866091    1.0278509      8192000 
  263000   0.79447944   -3.8860429   -3.8860429   -2.8587759  0.027481353   -3.8860429     1.027267      8192000 
  264000   0.79488885   -3.8862749   -3.8862749   -2.8584786  0.027889718   -3.8862749    1.0277963      8192000 
  265000   0.79463738   -3.8861356   -3.8861356   -2.8586644  0.025956538   -3.8861356    1.0274712      8192000 
  266000   0.79480991   -3.8864526   -3.8864526   -2.8587583  0.023095007   -3.8864526    1.0276943      8192000 
  267000   0.79467291   -3.8865773   -3.8865773   -2.8590601  0.026877207   -3.8865773    1.0275171      8192000 
  268000   0.79479643   -3.8867501   -3.8867501   -2.8590733  0.025743718   -3.8867501    1.0276769      8192000 
  269000   0.79444829   -3.8858233   -3.8858233   -2.8585966  0.024620322   -3.8858233    1.0272267      8192000 
  270000   0.79424885   -3.8857281   -3.8857281   -2.8587593  0.024649398   -3.8857281    1.0269688      8192000 
  271000   0.79449789   -3.8856314   -3.8856314   -2.8583405  0.023783309   -3.8856314    1.0272908      8192000 
  272000   0.79403613   -3.8850253   -3.8850253   -2.8583315  0.029636794   -3.8850253    1.0266938      8192000 
  273000   0.79459554   -3.8855266   -3.8855266   -2.8581095    0.0254056   -3.8855266    1.0274171      8192000 
  274000   0.79463626   -3.8857202   -3.8857202   -2.8582505  0.029498323   -3.8857202    1.0274697      8192000 
  275000   0.79460229   -3.8852994   -3.8852994   -2.8578735  0.027537647   -3.8852994    1.0274258      8192000 
  276000   0.79469916   -3.8857385   -3.8857385   -2.8581874  0.023456914   -3.8857385    1.0275511      8192000 
  277000   0.79475126   -3.8853672   -3.8853672   -2.8577487  0.026867163   -3.8853672    1.0276184      8192000 
  278000   0.79482534   -3.8854887   -3.8854887   -2.8577744  0.026293598   -3.8854887    1.0277142      8192000 
  279000   0.79474231    -3.884939    -3.884939   -2.8573321  0.025075643    -3.884939    1.0276069      8192000 
  280000   0.79463387    -3.885181    -3.885181   -2.8577143  0.023404812    -3.885181    1.0274667      8192000 
  281000    0.7948458   -3.8852141   -3.8852141   -2.8574734  0.025354614   -3.8852141    1.0277407      8192000 
  282000   0.79442467   -3.8849243   -3.8849243   -2.8577281  0.025053493   -3.8849243    1.0271962      8192000 
  283000   0.79501347   -3.8852003   -3.8852003   -2.8572428   0.02746567   -3.8852003    1.0279575      8192000 
  284000   0.79474217   -3.8844558   -3.8844558   -2.8568491  0.026277625   -3.8844558    1.0276067      8192000 
  285000   0.79502847   -3.8847728   -3.8847728   -2.8567959  0.023973838   -3.8847728    1.0279769      8192000 
  286000   0.79453574   -3.8842723   -3.8842723   -2.8569325  0.024447232   -3.8842723    1.0273398      8192000 
  287000   0.79455998   -3.8844257   -3.8844257   -2.8570545  0.024458095   -3.8844257    1.0273711      8192000 
  288000   0.79437801    -3.884202    -3.884202   -2.8570662  0.025583705    -3.884202    1.0271358      8192000 
  289000   0.79504725   -3.8848437   -3.8848437   -2.8568426  0.023761809   -3.8848437    1.0280012      8192000 
  290000   0.79445764   -3.8839404   -3.8839404   -2.8567016  0.026162268   -3.8839404    1.0272388      8192000 
  291000   0.79459247   -3.8844341   -3.8844341   -2.8570209  0.024777094   -3.8844341    1.0274131      8192000 
  292000   0.79535616   -3.8852494   -3.8852494   -2.8568489  0.022052057   -3.8852494    1.0284006      8192000 
  293000   0.79481931   -3.8849026   -3.8849026   -2.8571961  0.022755601   -3.8849026    1.0277064      8192000 
  294000    0.7949659   -3.8844508   -3.8844508   -2.8565548  0.023126819   -3.8844508     1.027896      8192000 
  295000   0.79466302   -3.8839731   -3.8839731   -2.8564687  0.028300879   -3.8839731    1.0275044      8192000 
  296000   0.79489558   -3.8844361   -3.8844361    -2.856631  0.025636147   -3.8844361    1.0278051      8192000 
  297000   0.79514966   -3.8847117   -3.8847117   -2.8565781  0.023303517   -3.8847117    1.0281336      8192000 
  298000   0.79492255    -3.884387    -3.884387   -2.8565471  0.024044864    -3.884387    1.0278399      8192000 
  299000   0.79482595   -3.8842509   -3.8842509   -2.8565359  0.024705119   -3.8842509     1.027715      8192000 
  300000   0.79468941   -3.8840246   -3.8840246   -2.8564861  0.025807336   -3.8840246    1.0275385      8192000 
  301000   0.79482668   -3.8843212   -3.8843212   -2.8566053  0.026650661   -3.8843212     1.027716      8192000 
  302000   0.79482479   -3.8842523   -3.8842523   -2.8565388  0.029083019   -3.8842523    1.0277135      8192000 
  303000   0.79510427   -3.8844269   -3.8844269    -2.856352  0.024011412   -3.8844269    1.0280749      8192000 
  304000   0.79482143    -3.884252    -3.884252   -2.8565428  0.022541945    -3.884252    1.0277092      8192000 
  305000   0.79465271   -3.8837017   -3.8837017   -2.8562107  0.024015874   -3.8837017     1.027491      8192000 
  306000   0.79462581   -3.8835909   -3.8835909   -2.8561347  0.023572742   -3.8835909    1.0274562      8192000 
  307000   0.79496702   -3.8841994   -3.8841994    -2.856302  0.023410549   -3.8841994    1.0278974      8192000 
  308000   0.79449975   -3.8840307   -3.8840307   -2.8567375  0.026716073   -3.8840307    1.0272932      8192000 
  309000   0.79483995   -3.8839856   -3.8839856   -2.8562525  0.026274121   -3.8839856    1.0277331      8192000 
  310000   0.79466974   -3.8837677   -3.8837677   -2.8562547  0.025703176   -3.8837677     1.027513      8192000 
  311000   0.79490277   -3.8841586   -3.8841586   -2.8563443   0.02636541   -3.8841586    1.0278144      8192000 
  312000   0.79491317   -3.8844315   -3.8844315   -2.8566037  0.027199925   -3.8844315    1.0278278      8192000 
  313000   0.79479279   -3.8840203   -3.8840203   -2.8563482  0.024821581   -3.8840203    1.0276721      8192000 
  314000   0.79498208   -3.8838152   -3.8838152   -2.8558983  0.028944094   -3.8838152    1.0279169      8192000 
  315000    0.7948584   -3.8838449   -3.8838449   -2.8560879  0.026324399   -3.8838449     1.027757      8192000 
  316000   0.79505199   -3.8844814   -3.8844814   -2.8564741  0.023431899   -3.8844814    1.0280073      8192000 
  317000   0.79523139   -3.8845027   -3.8845027   -2.8562635  0.025099014   -3.8845027    1.0282393      8192000 
  318000   0.79494672   -3.8841943   -3.8841943   -2.8563231  0.026089646   -3.8841943    1.0278712      8192000 
  319000   0.79502283   -3.8843028   -3.8843028   -2.8563332  0.026058692   -3.8843028    1.0279696      8192000 
  320000    0.7945856   -3.8841419   -3.8841419   -2.8567377  0.029435485   -3.8841419    1.0274042      8192000 
  321000   0.79517209   -3.8843294   -3.8843294   -2.8561668  0.026546277   -3.8843294    1.0281626      8192000 
  322000   0.79534492   -3.8845641   -3.8845641   -2.8561781  0.025855992   -3.8845641    1.0283861      8192000 
  323000   0.79465058   -3.8838976   -3.8838976   -2.8564094   0.02733404   -3.8838976    1.0274883      8192000 
  324000   0.79475125   -3.8840758   -3.8840758   -2.8564573  0.025285407   -3.8840758    1.0276184      8192000 
  325000   0.79481777   -3.8839801   -3.8839801   -2.8562756  0.028358108   -3.8839801    1.0277044      8192000 
  326000   0.79546728   -3.8846448   -3.8846448   -2.8561006  0.026520145   -3.8846448    1.0285443      8192000 
  327000   0.79516297   -3.8843855   -3.8843855   -2.8562347  0.026738021   -3.8843855    1.0281508      8192000 
  328000   0.79534853   -3.8846902   -3.8846902   -2.8562995  0.024927502   -3.8846902    1.0283907      8192000 
  329000   0.79487014    -3.884168    -3.884168   -2.8563958  0.026843912    -3.884168    1.0277722      8192000 
  330000   0.79486098   -3.8840932   -3.8840932   -2.8563329  0.027564425   -3.8840932    1.0277603      8192000 
  331000     0.794836   -3.8837813   -3.8837813   -2.8560533   0.02744122   -3.8837813     1.027728      8192000 
  332000   0.79478115   -3.8837412   -3.8837412   -2.8560841  0.028767723   -3.8837412    1.0276571      8192000 
  333000   0.79492005   -3.8839351   -3.8839351   -2.8560984  0.030649742   -3.8839351    1.0278367      8192000 
  334000   0.79523838   -3.8841891   -3.8841891   -2.8559408  0.028885026   -3.8841891    1.0282483      8192000 
  335000   0.79528818   -3.8842497   -3.8842497   -2.8559371   0.02665195   -3.8842497    1.0283127      8192000 
  336000    0.7949132   -3.8840413   -3.8840413   -2.8562135  0.026448318   -3.8840413    1.0278278      8192000 
  337000   0.79513132   -3.8842393   -3.8842393   -2.8561294  0.025102607   -3.8842393    1.0281099      8192000 
  338000   0.79520024   -3.8839322   -3.8839322   -2.8557332  0.028666336   -3.8839322     1.028199      8192000 
  339000   0.79557327   -3.8842321   -3.8842321   -2.8555508  0.027224998   -3.8842321    1.0286813      8192000 
  340000   0.79534072   -3.8839826   -3.8839826    -2.855602  0.026122655   -3.8839826    1.0283806      8192000 
  341000   0.79558344   -3.8846352   -3.8846352   -2.8559407  0.025638505   -3.8846352    1.0286945      8192000 
  342000   0.79538488   -3.8845366   -3.8845366   -2.8560989  0.025452857   -3.8845366    1.0284377      8192000 
  343000   0.79536055   -3.8844024   -3.8844024   -2.8559961  0.025190902   -3.8844024    1.0284063      8192000 
  344000   0.79518497   -3.8841382   -3.8841382   -2.8559589  0.028055239   -3.8841382    1.0281792      8192000 
  345000   0.79560576   -3.8842569   -3.8842569   -2.8555336  0.027401483   -3.8842569    1.0287233      8192000 
  346000    0.7955412   -3.8840078   -3.8840078    -2.855368  0.025936814   -3.8840078    1.0286398      8192000 
  347000   0.79516672   -3.8836391   -3.8836391   -2.8554835  0.026732205   -3.8836391    1.0281556      8192000 
  348000   0.79568595   -3.8842124   -3.8842124   -2.8553854  0.026510945   -3.8842124     1.028827      8192000 
  349000   0.79540457   -3.8841252   -3.8841252    -2.855662  0.027527402   -3.8841252    1.0284632      8192000 
  350000   0.79513887   -3.8836805   -3.8836805   -2.8555609  0.027917524   -3.8836805    1.0281196      8192000 
  351000    0.7952812   -3.8840179   -3.8840179   -2.8557142  0.023781457   -3.8840179    1.0283037      8192000 
  352000   0.79569738   -3.8843768   -3.8843768    -2.855535  0.027115427   -3.8843768    1.0288418      8192000 
  353000   0.79512789   -3.8836292   -3.8836292   -2.8555238  0.026989499   -3.8836292    1.0281054      8192000 
  354000   0.79535735   -3.8838528   -3.8838528   -2.8554507  0.025693234   -3.8838528    1.0284021      8192000 
  355000   0.79553088   -3.8835391   -3.8835391   -2.8549126  0.029149615   -3.8835391    1.0286265      8192000 
  356000   0.79504081   -3.8833353   -3.8833353   -2.8553424  0.025805104   -3.8833353    1.0279928      8192000 
  357000   0.79485358   -3.8832186   -3.8832186   -2.8554678  0.025190864   -3.8832186    1.0277507      8192000 
  358000    0.7956572   -3.8836077   -3.8836077   -2.8548179  0.024905584   -3.8836077    1.0287898      8192000 
  359000    0.7954481   -3.8832514   -3.8832514    -2.854732   0.02502628   -3.8832514    1.0285195      8192000 
  360000   0.79542077   -3.8835223   -3.8835223   -2.8550382  0.025300718   -3.8835223    1.0284841      8192000 
  361000   0.79485137   -3.8828031   -3.8828031   -2.8550552  0.028808492   -3.8828031    1.0277479      8192000 
  362000    0.7951014   -3.8833593   -3.8833593   -2.8552881  0.025922049   -3.8833593    1.0280712      8192000 
  363000   0.79442831   -3.8825072   -3.8825072   -2.8553064  0.024350454   -3.8825072    1.0272009      8192000 
  364000   0.79486319   -3.8827618   -3.8827618   -2.8549986  0.025732631   -3.8827618    1.0277632      8192000 
  365000   0.79505401   -3.8831425   -3.8831425   -2.8551326  0.019724415   -3.8831425    1.0280099      8192000 
  366000   0.79532615   -3.8830789   -3.8830789   -2.8547172  0.025576406   -3.8830789    1.0283618      8192000 
  367000   0.79508377   -3.8828954   -3.8828954    -2.854847  0.027903635   -3.8828954    1.0280484      8192000 
  368000   0.79477456   -3.8821491   -3.8821491   -2.8545006  0.027779245   -3.8821491    1.0276486      8192000 
  369000   0.79516567   -3.8825261   -3.8825261   -2.8543719  0.025784726   -3.8825261    1.0281543      8192000 
  370000   0.79548943   -3.8826988   -3.8826988   -2.8541259  0.026357329   -3.8826988    1.0285729      8192000 
  371000   0.79579051   -3.8833889   -3.8833889   -2.8544267  0.023590501   -3.8833889    1.0289622      8192000 
  372000   0.79510183   -3.8827009   -3.8827009   -2.8546291  0.025492967   -3.8827009    1.0280717      8192000 
  373000   0.79552944   -3.8826857   -3.8826857   -2.8540611  0.025938124   -3.8826857    1.0286246      8192000 
  374000   0.79564657   -3.8830389   -3.8830389   -2.8542628  0.028839688   -3.8830389    1.0287761      8192000 
  375000   0.79544425   -3.8826392   -3.8826392   -2.8541247      0.02675   -3.8826392    1.0285145      8192000 
  376000   0.79515926   -3.8824273   -3.8824273   -2.8542813  0.023855125   -3.8824273     1.028146      8192000 
  377000   0.79525371   -3.8826808   -3.8826808   -2.8544127  0.026764936   -3.8826808    1.0282681      8192000 
  378000   0.79523418   -3.8822362   -3.8822362   -2.8539934   0.02398018   -3.8822362    1.0282429      8192000 
  379000   0.79559201   -3.8829447   -3.8829447   -2.8542392  0.025102917   -3.8829447    1.0287055      8192000 
  380000   0.79543922   -3.8824756   -3.8824756   -2.8539677  0.023955792   -3.8824756     1.028508      8192000 
  381000   0.79525834    -3.882453    -3.882453   -2.8541789  0.026005727    -3.882453    1.0282741      8192000 
  382000    0.7954614   -3.8825945   -3.8825945   -2.8540578  0.026564228   -3.8825945    1.0285367      8192000 
  383000   0.79525385   -3.8821924   -3.8821924   -2.8539241  0.027342574   -3.8821924    1.0282683      8192000 
  384000    0.7949266   -3.8818424   -3.8818424   -2.8539972  0.026172116   -3.8818424    1.0278452      8192000 
  385000   0.79510629   -3.8818776   -3.8818776   -2.8538001  0.026224361   -3.8818776    1.0280775      8192000 
  386000   0.79463122   -3.8811429   -3.8811429   -2.8536797  0.028595785   -3.8811429    1.0274632      8192000 
  387000   0.79532639   -3.8823668   -3.8823668   -2.8540047  0.024690819   -3.8823668    1.0283621      8192000 
  388000    0.7951657   -3.8823683   -3.8823683   -2.8542139  0.023116436   -3.8823683    1.0281543      8192000 
  389000   0.79498374   -3.8822001   -3.8822001    -2.854281  0.023675354   -3.8822001     1.027919      8192000 
  390000   0.79495092   -3.8820651   -3.8820651   -2.8541885  0.026129687   -3.8820651    1.0278766      8192000 
  391000    0.7952672   -3.8822345   -3.8822345   -2.8539489  0.023106859   -3.8822345    1.0282856      8192000 
  392000   0.79493319   -3.8818007   -3.8818007    -2.853947  0.025766133   -3.8818007    1.0278537      8192000 
  393000   0.79520016   -3.8818142   -3.8818142   -2.8536153  0.025676813   -3.8818142    1.0281989      8192000 
  394000   0.79520506    -3.882255    -3.882255   -2.8540498  0.024702726    -3.882255    1.0282052      8192000 
  395000   0.79532826    -3.881993    -3.881993   -2.8536285  0.027912383    -3.881993    1.0283645      8192000 
  396000   0.79547644   -3.8817952   -3.8817952   -2.8532391  0.024509773   -3.8817952    1.0285561      8192000 
  397000   0.79525945   -3.8817021   -3.8817021   -2.8534265   0.02904398   -3.8817021    1.0282755      8192000 
  398000    0.7951031   -3.8818511   -3.8818511   -2.8537777  0.023349294   -3.8818511    1.0280734      8192000 
  399000   0.79558755   -3.8821815   -3.8821815   -2.8534817  0.025504268   -3.8821815    1.0286998      8192000 
  400000   0.79522212   -3.8817589   -3.8817589   -2.8535316  0.027251978   -3.8817589    1.0282273      8192000 
  401000   0.79580448   -3.8824851   -3.8824851   -2.8535049  0.023845746   -3.8824851    1.0289803      8192000 
  402000   0.79547996   -3.8823046   -3.8823046   -2.8537439  0.027973634   -3.8823046    1.0285607      8192000 
  403000   0.79535512   -3.8818253   -3.8818253    -2.853426  0.025534395   -3.8818253    1.0283992      8192000 
  404000    0.7952867   -3.8819264   -3.8819264   -2.8536156  0.025738167   -3.8819264    1.0283108      8192000 
  405000    0.7953886   -3.8819791   -3.8819791   -2.8535366  0.024364198   -3.8819791    1.0284425      8192000 
  406000   0.79528971   -3.8821218   -3.8821218   -2.8538072  0.023691282   -3.8821218    1.0283147      8192000 
  407000   0.79515044   -3.8819241   -3.8819241   -2.8537895  0.025647739   -3.8819241    1.0281346      8192000 
  408000   0.79528175   -3.8823875   -3.8823875   -2.8540831   0.02512727   -3.8823875    1.0283044      8192000 
  409000   0.79548275   -3.8826174   -3.8826174   -2.8540531   0.02417878   -3.8826174    1.0285643      8192000 
  410000   0.79515916   -3.8819223   -3.8819223   -2.8537765  0.026967136   -3.8819223    1.0281459      8192000 
  411000   0.79525541   -3.8819518   -3.8819518   -2.8536815  0.025491236   -3.8819518    1.0282703      8192000 
  412000    0.7952108    -3.881928    -3.881928   -2.8537154  0.027713303    -3.881928    1.0282126      8192000 
  413000   0.79552847   -3.8822934   -3.8822934     -2.85367  0.024499662   -3.8822934    1.0286234      8192000 
  414000   0.79501726   -3.8816822   -3.8816822   -2.8537198  0.027142487   -3.8816822    1.0279624      8192000 
  415000   0.79534097   -3.8820327   -3.8820327   -2.8536518  0.026657229   -3.8820327    1.0283809      8192000 
  416000   0.79518992   -3.8819154   -3.8819154   -2.8537298  0.025980786   -3.8819154    1.0281856      8192000 
  417000   0.79559541   -3.8819395   -3.8819395   -2.8532296   0.02999834   -3.8819395    1.0287099      8192000 
  418000   0.79580934   -3.8822057   -3.8822057   -2.8532192  0.025716486   -3.8822057    1.0289865      8192000 
  419000   0.79577198   -3.8822822   -3.8822822   -2.8533439  0.024850539   -3.8822822    1.0289382      8192000 
  420000   0.79537629    -3.881558    -3.881558   -2.8531314  0.028767193    -3.881558    1.0284266      8192000 
  421000    0.7964336   -3.8829997   -3.8829997    -2.853206  0.028574389   -3.8829997    1.0297937      8192000 
  422000    0.7959556   -3.8822641   -3.8822641   -2.8530884  0.026883279   -3.8822641    1.0291757      8192000 
  423000   0.79626498   -3.8828221   -3.8828221   -2.8532464   0.02884264   -3.8828221    1.0295757      8192000 
  424000   0.79585694   -3.8825331   -3.8825331    -2.853485  0.025863919   -3.8825331    1.0290481      8192000 
  425000   0.79533239   -3.8816758   -3.8816758   -2.8533059  0.029475364   -3.8816758    1.0283699      8192000 
  426000   0.79579252   -3.8819225   -3.8819225   -2.8529577  0.030922019   -3.8819225    1.0289648      8192000 
  427000   0.79566315   -3.8816784   -3.8816784   -2.8528809  0.028599219   -3.8816784    1.0287975      8192000 
  428000   0.79572059   -3.8818458   -3.8818458    -2.852974   0.02721184   -3.8818458    1.0288718      8192000 
  429000   0.79555927   -3.8817423   -3.8817423   -2.8530791  0.027977647   -3.8817423    1.0286632      8192000 
  430000   0.79583367   -3.8819977   -3.8819977   -2.8529797  0.026378275   -3.8819977     1.029018      8192000 
  431000   0.79598143   -3.8820566   -3.8820566   -2.8528475  0.025781851   -3.8820566    1.0292091      8192000 
  432000   0.79601042   -3.8820404   -3.8820404   -2.8527939  0.025338558   -3.8820404    1.0292466      8192000 
  433000   0.79587159   -3.8816572   -3.8816572   -2.8525902  0.025507676   -3.8816572     1.029067      8192000 
  434000   0.79526176   -3.8812325   -3.8812325   -2.8529539  0.028655752   -3.8812325    1.0282785      8192000 
  435000   0.79600721   -3.8819222   -3.8819222   -2.8526798  0.025685225   -3.8819222    1.0292424      8192000 
  436000   0.79532182   -3.8813446   -3.8813446   -2.8529885  0.025092514   -3.8813446    1.0283562      8192000 
  437000   0.79598494    -3.881847    -3.881847   -2.8526334  0.026688317    -3.881847    1.0292136      8192000 
  438000   0.79494998   -3.8807519   -3.8807519   -2.8528765  0.028530741   -3.8807519    1.0278754      8192000 
  439000   0.79489995   -3.8809188   -3.8809188   -2.8531081  0.027754962   -3.8809188    1.0278107      8192000 
  440000   0.79559768   -3.8816183   -3.8816183   -2.8529054  0.026685778   -3.8816183    1.0287129      8192000 
  441000   0.79575825   -3.8818814   -3.8818814   -2.8529609  0.027646113   -3.8818814    1.0289205      8192000 
  442000   0.79571221   -3.8817887   -3.8817887   -2.8529278  0.022960943   -3.8817887     1.028861      8192000 
  443000   0.79543321   -3.8813877   -3.8813877   -2.8528875  0.027234756   -3.8813877    1.0285002      8192000 
  444000   0.79554159   -3.8815439   -3.8815439   -2.8529035  0.025551522   -3.8815439    1.0286404      8192000 
  445000   0.79557974   -3.8813585   -3.8813585   -2.8526688  0.024634742   -3.8813585    1.0286897      8192000 
  446000   0.79549387    -3.881066    -3.881066   -2.8524873  0.027703932    -3.881066    1.0285786      8192000 
  447000   0.79556987   -3.8813482   -3.8813482   -2.8526713  0.025230632   -3.8813482    1.0286769      8192000 
  448000   0.79548379   -3.8810705   -3.8810705   -2.8525048  0.025687229   -3.8810705    1.0285656      8192000 
  449000   0.79550754   -3.8812242   -3.8812242   -2.8526278   0.02638479   -3.8812242    1.0285963      8192000 
  450000   0.79560668   -3.8811101   -3.8811101   -2.8523856  0.025298715   -3.8811101    1.0287245      8192000 
  451000    0.7958534   -3.8813197   -3.8813197   -2.8522762  0.026404854   -3.8813197    1.0290435      8192000 
  452000   0.79469563   -3.8805646   -3.8805646   -2.8530181  0.027129443   -3.8805646    1.0275465      8192000 
  453000   0.79534161   -3.8810957   -3.8810957   -2.8527139  0.025131463   -3.8810957    1.0283818      8192000 
  454000   0.79523931   -3.8807131   -3.8807131   -2.8524636  0.028232324   -3.8807131    1.0282495      8192000 
  455000   0.79554614    -3.881345    -3.881345   -2.8526988  0.025077294    -3.881345    1.0286462      8192000 
  456000    0.7952477   -3.8806642   -3.8806642   -2.8524038  0.027866226   -3.8806642    1.0282603      8192000 
  457000   0.79501259   -3.8805834   -3.8805834    -2.852627  0.023818707   -3.8805834    1.0279564      8192000 
  458000   0.79532748   -3.8807323   -3.8807323   -2.8523687  0.025393256   -3.8807323    1.0283635      8192000 
  459000   0.79470021   -3.8805362   -3.8805362   -2.8529838  0.024501433   -3.8805362    1.0275524      8192000 
  460000      0.79482   -3.8801008   -3.8801008   -2.8523935  0.025318233   -3.8801008    1.0277073      8192000 
  461000   0.79494829   -3.8802825   -3.8802825   -2.8524093  0.023682657   -3.8802825    1.0278732      8192000 
  462000   0.79514428   -3.8808966   -3.8808966     -2.85277  0.022780775   -3.8808966    1.0281266      8192000 
  463000   0.79525314   -3.8806264   -3.8806264    -2.852359  0.023724308   -3.8806264    1.0282674      8192000 
  464000    0.7953998   -3.8808325   -3.8808325   -2.8523754  0.021847848   -3.8808325     1.028457      8192000 
  465000   0.79530883   -3.8806171   -3.8806171   -2.8522777  0.024562275   -3.8806171    1.0283394      8192000 
  466000    0.7951645   -3.8805177   -3.8805177   -2.8523649  0.024685046   -3.8805177    1.0281528      8192000 
  467000      0.79542   -3.8807646   -3.8807646   -2.8522814   0.02454156   -3.8807646    1.0284831      8192000 
  468000   0.79519741   -3.8806095   -3.8806095   -2.8524141  0.026728158   -3.8806095    1.0281953      8192000 
  469000   0.79533062   -3.8806162   -3.8806162   -2.8522487  0.027979497   -3.8806162    1.0283676      8192000 
  470000   0.79528459   -3.8807436   -3.8807436   -2.8524355  0.026662283   -3.8807436     1.028308      8192000 
  471000   0.79548469    -3.880942    -3.880942   -2.8523752  0.027331279    -3.880942    1.0285668      8192000 
  472000   0.79576718   -3.8810706   -3.8810706   -2.8521385  0.024588425   -3.8810706     1.028932      8192000 
  473000   0.79601522   -3.8813597   -3.8813597    -2.852107   0.02490848   -3.8813597    1.0292527      8192000 
  474000    0.7955406   -3.8804592   -3.8804592   -2.8518202  0.029759292   -3.8804592    1.0286391      8192000 
  475000   0.79567364   -3.8808013   -3.8808013   -2.8519902  0.029608818   -3.8808013    1.0288111      8192000 
  476000   0.79587106   -3.8809905   -3.8809905   -2.8519241  0.026772168   -3.8809905    1.0290664      8192000 
  477000   0.79584164   -3.8810353   -3.8810353    -2.852007  0.025675222   -3.8810353    1.0290283      8192000 
  478000   0.79577129   -3.8811994   -3.8811994    -2.852262  0.025321088   -3.8811994    1.0289373      8192000 
  479000   0.79556574   -3.8810042   -3.8810042   -2.8523327  0.026361935   -3.8810042    1.0286716      8192000 
  480000   0.79569857   -3.8810453   -3.8810453   -2.8522019  0.026986604   -3.8810453    1.0288433      8192000 
  481000   0.79568769   -3.8808284   -3.8808284   -2.8519991  0.026093921   -3.8808284    1.0288293      8192000 
  482000   0.79593173   -3.8812787   -3.8812787   -2.8521339  0.024407113   -3.8812787    1.0291448      8192000 
  483000   0.79568214   -3.8811014   -3.8811014   -2.8522793  0.028751059   -3.8811014    1.0288221      8192000 
  484000   0.79538919   -3.8805257   -3.8805257   -2.8520824  0.028696946   -3.8805257    1.0284433      8192000 
  485000   0.79533999    -3.880585    -3.880585   -2.8522053  0.025415779    -3.880585    1.0283797      8192000 
  486000   0.79585736   -3.8810363   -3.8810363   -2.8519876  0.025006928   -3.8810363    1.0290486      8192000 
  487000   0.79583274    -3.880982    -3.880982   -2.8519652   0.02794179    -3.880982    1.0290168      8192000 
  488000   0.79578966   -3.8809453   -3.8809453   -2.8519842   0.02587329   -3.8809453    1.0289611      8192000 
  489000   0.79565092   -3.8809051   -3.8809051   -2.8521234  0.027821621   -3.8809051    1.0287817      8192000 
  490000   0.79533705   -3.8804914   -3.8804914   -2.8521156  0.027972582   -3.8804914    1.0283759      8192000 
  491000   0.79537909   -3.8806861   -3.8806861   -2.8522559  0.025206701   -3.8806861    1.0284302      8192000 
  492000   0.79557017   -3.8807042   -3.8807042   -2.8520269   0.02605216   -3.8807042    1.0286773      8192000 
  493000   0.79538862   -3.8803843   -3.8803843   -2.8519417  0.027907742   -3.8803843    1.0284426      8192000 
  494000   0.79560386   -3.8808926   -3.8808926   -2.8521717  0.024733997   -3.8808926    1.0287209      8192000 
  495000   0.79566437   -3.8809272   -3.8809272   -2.8521281   0.02464217   -3.8809272    1.0287991      8192000 
  496000   0.79521378   -3.8803073   -3.8803073   -2.8520908  0.030229666   -3.8803073    1.0282165      8192000 
  497000   0.79549563   -3.8806541   -3.8806541   -2.8520732  0.029157765   -3.8806541    1.0285809      8192000 
  498000   0.79611971   -3.8812592   -3.8812592   -2.8518713  0.027160247   -3.8812592    1.0293879      8192000 
  499000   0.79553001   -3.8806423   -3.8806423   -2.8520169  0.027042006   -3.8806423    1.0286254      8192000 
  500000   0.79587382   -3.8811311   -3.8811311   -2.8520612  0.029101168   -3.8811311    1.0290699      8192000 
  501000   0.79556751   -3.8806778   -3.8806778    -2.852004  0.027474227   -3.8806778    1.0286739      8192000 
  502000   0.79561338    -3.880958    -3.880958   -2.8522248  0.027637755    -3.880958    1.0287332      8192000 
  503000   0.79525695    -3.880279    -3.880279   -2.8520067  0.027324425    -3.880279    1.0282723      8192000 
  504000   0.79568739   -3.8806593   -3.8806593   -2.8518304  0.029497735   -3.8806593    1.0288289      8192000 
  505000   0.79558275   -3.8806049   -3.8806049   -2.8519113  0.028619965   -3.8806049    1.0286936      8192000 
  506000   0.79634424   -3.8813049   -3.8813049   -2.8516267  0.027311949   -3.8813049    1.0296782      8192000 
  507000   0.79576032   -3.8803641   -3.8803641   -2.8514409  0.027202206   -3.8803641    1.0289232      8192000 
  508000   0.79580904   -3.8810912   -3.8810912   -2.8521051  0.027787086   -3.8810912    1.0289862      8192000 
  509000    0.7953947   -3.8803204   -3.8803204     -2.85187  0.025990275   -3.8803204    1.0284504      8192000 
  510000   0.79547905   -3.8805493   -3.8805493   -2.8519898  0.025880819   -3.8805493    1.0285595      8192000 
  511000   0.79556415   -3.8805528   -3.8805528   -2.8518833  0.027071447   -3.8805528    1.0286695      8192000 
  512000   0.79558898   -3.8806297   -3.8806297   -2.8519281  0.026178564   -3.8806297    1.0287016      8192000 
  513000   0.79545912   -3.8799935   -3.8799935   -2.8514598  0.027076905   -3.8799935    1.0285337      8192000 
  514000    0.7953424   -3.8804892   -3.8804892   -2.8521064   0.02637133   -3.8804892    1.0283828      8192000 
  515000   0.79536392   -3.8805334   -3.8805334   -2.8521228  0.025478231   -3.8805334    1.0284106      8192000 
  516000   0.79551035   -3.8806807   -3.8806807   -2.8520807  0.026873083   -3.8806807       1.0286      8192000 
  517000   0.79567094   -3.8808316   -3.8808316    -2.852024  0.025868927   -3.8808316    1.0288076      8192000 
  518000   0.79518409   -3.8800612   -3.8800612   -2.8518831  0.026189837   -3.8800612    1.0281781      8192000 
  519000   0.79540329   -3.8802633   -3.8802633   -2.8518017  0.025846605   -3.8802633    1.0284615      8192000 
  520000   0.79537285   -3.8804091   -3.8804091    -2.851987  0.025108201   -3.8804091    1.0284222      8192000 
  521000   0.79567691   -3.8803946   -3.8803946   -2.8515793  0.026475041   -3.8803946    1.0288153      8192000 
  522000   0.79586069    -3.880521    -3.880521   -2.8514681  0.023745422    -3.880521     1.029053      8192000 
  523000   0.79556079   -3.8802006   -3.8802006   -2.8515354  0.024824738   -3.8802006    1.0286652      8192000 
  524000   0.79557724    -3.879919    -3.879919   -2.8512326  0.027260046    -3.879919    1.0286864      8192000 
  525000   0.79547555   -3.8802906   -3.8802906   -2.8517357  0.027847405   -3.8802906     1.028555      8192000 
  526000    0.7957389   -3.8802737   -3.8802737   -2.8513783  0.027091382   -3.8802737    1.0288955      8192000 
  527000   0.79582077    -3.880406    -3.880406   -2.8514046  0.027919448    -3.880406    1.0290013      8192000 
  528000   0.79538808   -3.8798821   -3.8798821   -2.8514402  0.028095933   -3.8798821    1.0284419      8192000 
  529000   0.79563702   -3.8802479   -3.8802479   -2.8514841   0.02801524   -3.8802479    1.0287637      8192000 
  530000    0.7954575   -3.8796246   -3.8796246    -2.851093  0.027603753   -3.8796246    1.0285316      8192000 
  531000   0.79578046   -3.8802975   -3.8802975   -2.8513483  0.027300231   -3.8802975    1.0289492      8192000 
  532000   0.79585354   -3.8803494   -3.8803494   -2.8513057  0.026901175   -3.8803494    1.0290437      8192000 
  533000   0.79597746   -3.8804221   -3.8804221   -2.8512182   0.02713702   -3.8804221    1.0292039      8192000 
  534000   0.79597854   -3.8807953   -3.8807953   -2.8515899  0.025412879   -3.8807953    1.0292053      8192000 
  535000    0.7957164   -3.8799832   -3.8799832   -2.8511168   0.02449989   -3.8799832    1.0288664      8192000 
  536000   0.79573476   -3.8803002   -3.8803002   -2.8514101   0.02475737   -3.8803002    1.0288901      8192000 
  537000   0.79563542   -3.8800381   -3.8800381   -2.8512764  0.025414133   -3.8800381    1.0287617      8192000 
  538000   0.79528077   -3.8795379   -3.8795379   -2.8512348  0.026834213   -3.8795379    1.0283031      8192000 
  539000   0.79512907   -3.8793114   -3.8793114   -2.8512044  0.025904928   -3.8793114     1.028107      8192000 
  540000   0.79526247   -3.8792796   -3.8792796   -2.8510001  0.029252686   -3.8792796    1.0282794      8192000 
  541000   0.79561831   -3.8798101   -3.8798101   -2.8510705   0.02725935   -3.8798101    1.0287395      8192000 
  542000    0.7955768   -3.8800241   -3.8800241   -2.8513382  0.026534021   -3.8800241    1.0286859      8192000 
  543000   0.79599109    -3.880547    -3.880547   -2.8513254  0.026208326    -3.880547    1.0292216      8192000 
  544000   0.79576615   -3.8801415   -3.8801415   -2.8512108  0.026788898   -3.8801415    1.0289307      8192000 
  545000   0.79581381    -3.880234    -3.880234   -2.8512417  0.025652584    -3.880234    1.0289923      8192000 
  546000    0.7956856   -3.8801796   -3.8801796   -2.8513531  0.027835913   -3.8801796    1.0288266      8192000 
  547000   0.79593373   -3.8806264   -3.8806264    -2.851479  0.023175035   -3.8806264    1.0291474      8192000 
  548000   0.79593124   -3.8804968   -3.8804968   -2.8513527   0.02556303   -3.8804968    1.0291442      8192000 
  549000   0.79571486   -3.8804951   -3.8804951   -2.8516307   0.02610013   -3.8804951    1.0288644      8192000 
  550000   0.79576774   -3.8801872   -3.8801872   -2.8512544  0.024707209   -3.8801872    1.0289328      8192000 
  551000   0.79522829    -3.879578    -3.879578   -2.8513428  0.027683922    -3.879578    1.0282352      8192000 
  552000   0.79550734   -3.8801766   -3.8801766   -2.8515806   0.02572451   -3.8801766    1.0285961      8192000 
  553000   0.79525347   -3.8797416   -3.8797416   -2.8514738  0.026654291   -3.8797416    1.0282678      8192000 
  554000   0.79594115   -3.8804276   -3.8804276   -2.8512706  0.024375707   -3.8804276     1.029157      8192000 
  555000   0.79576985   -3.8804654   -3.8804654   -2.8515299  0.026035683   -3.8804654    1.0289355      8192000 
  556000   0.79551048   -3.8798816   -3.8798816   -2.8512815  0.026233041   -3.8798816    1.0286001      8192000 
  557000   0.79570477   -3.8797577   -3.8797577   -2.8509064  0.026168259   -3.8797577    1.0288513      8192000 
  558000   0.79562867   -3.8797084   -3.8797084   -2.8509554  0.026702829   -3.8797084    1.0287529      8192000 
  559000   0.79538439   -3.8798099   -3.8798099   -2.8513728  0.027149211   -3.8798099    1.0284371      8192000 
  560000   0.79555055    -3.879782    -3.879782   -2.8511301  0.025767469    -3.879782    1.0286519      8192000 
  561000   0.79537693   -3.8795919   -3.8795919   -2.8511645   0.02561168   -3.8795919    1.0284274      8192000 
  562000   0.79569503   -3.8800124   -3.8800124   -2.8511737  0.027858888   -3.8800124    1.0288388      8192000 
  563000   0.79566411   -3.8799756   -3.8799756   -2.8511768   0.02806166   -3.8799756    1.0287988      8192000 
  564000   0.79572968   -3.8801418   -3.8801418   -2.8512583   0.02763056   -3.8801418    1.0288835      8192000 
  565000   0.79573977   -3.8800583   -3.8800583   -2.8511617  0.026278464   -3.8800583    1.0288966      8192000 
  566000   0.79570121   -3.8800506   -3.8800506   -2.8512038  0.029516169   -3.8800506    1.0288467      8192000 
  567000   0.79560146   -3.8799899   -3.8799899   -2.8512721  0.028618952   -3.8799899    1.0287178      8192000 
  568000   0.79583633   -3.8800755   -3.8800755   -2.8510541  0.025076045   -3.8800755    1.0290215      8192000 
  569000   0.79572965   -3.8797631   -3.8797631   -2.8508796  0.027073002   -3.8797631    1.0288835      8192000 
  570000   0.79596881   -3.8799963   -3.8799963   -2.8508036  0.026666967   -3.8799963    1.0291927      8192000 
  571000   0.79612713   -3.8804114   -3.8804114   -2.8510139  0.026846473   -3.8804114    1.0293975      8192000 
  572000   0.79628521   -3.8800725   -3.8800725   -2.8504706  0.028215044   -3.8800725    1.0296019      8192000 
  573000   0.79616636   -3.8801201   -3.8801201    -2.850672  0.028324607   -3.8801201    1.0294482      8192000 
  574000   0.79623708    -3.880281    -3.880281   -2.8507414  0.027387639    -3.880281    1.0295396      8192000 
  575000   0.79558182   -3.8797076   -3.8797076   -2.8510152  0.027265012   -3.8797076    1.0286924      8192000 
  576000   0.79666487   -3.8804307   -3.8804307    -2.850338  0.027080974   -3.8804307    1.0300928      8192000 
  577000   0.79654881   -3.8808503   -3.8808503   -2.8509077  0.024551847   -3.8808503    1.0299427      8192000 
  578000   0.79575184   -3.8796542   -3.8796542    -2.850742  0.025819317   -3.8796542    1.0289122      8192000 
  579000    0.7954858   -3.8794929   -3.8794929   -2.8509247  0.028476841   -3.8794929    1.0285682      8192000 
  580000   0.79578916   -3.8798554   -3.8798554    -2.850895  0.027668347   -3.8798554    1.0289605      8192000 
  581000   0.79588225   -3.8796713   -3.8796713   -2.8505905  0.027139382   -3.8796713    1.0290808      8192000 
  582000   0.79511975   -3.8791681   -3.8791681   -2.8510732  0.029887752   -3.8791681    1.0280949      8192000 
  583000   0.79559376   -3.8795853   -3.8795853   -2.8508775  0.024282878   -3.8795853    1.0287078      8192000 
  584000   0.79553902   -3.8796492   -3.8796492   -2.8510122  0.025225893   -3.8796492     1.028637      8192000 
  585000   0.79539546    -3.879248    -3.879248   -2.8507966  0.029223403    -3.879248    1.0284514      8192000 
  586000   0.79587103   -3.8794562   -3.8794562   -2.8503899  0.027415145   -3.8794562    1.0290663      8192000 
  587000   0.79619756   -3.8800672   -3.8800672   -2.8505787  0.027631973   -3.8800672    1.0294885      8192000 
  588000   0.79584285    -3.879658    -3.879658   -2.8506281  0.026182744    -3.879658    1.0290299      8192000 
  589000   0.79617951   -3.8802659   -3.8802659   -2.8508007  0.025826039   -3.8802659    1.0294652      8192000 
  590000   0.79616104   -3.8795529   -3.8795529   -2.8501116  0.028345833   -3.8795529    1.0294413      8192000 
  591000   0.79551202   -3.8792054   -3.8792054   -2.8506033   0.02772077   -3.8792054    1.0286021      8192000 
  592000   0.79584404   -3.8794279   -3.8794279   -2.8503964  0.029604426   -3.8794279    1.0290314      8192000 
  593000    0.7959359   -3.8796817   -3.8796817   -2.8505315  0.025215109   -3.8796817    1.0291502      8192000 
  594000   0.79565502    -3.879603    -3.879603    -2.850816  0.028314218    -3.879603     1.028787      8192000 
  595000    0.7960418   -3.8802227   -3.8802227   -2.8509355  0.024879603   -3.8802227    1.0292871      8192000 
  596000   0.79548336    -3.879362    -3.879362   -2.8507969  0.028237499    -3.879362    1.0285651      8192000 
  597000     0.795847   -3.8794962   -3.8794962   -2.8504609  0.026867323   -3.8794962    1.0290352      8192000 
  598000   0.79638895   -3.8799539   -3.8799539   -2.8502179  0.025125582   -3.8799539     1.029736      8192000 
  599000   0.79582075   -3.8797588   -3.8797588   -2.8507575  0.027787412   -3.8797588    1.0290013      8192000 
  600000    0.7959904   -3.8798942   -3.8798942   -2.8506735  0.027123268   -3.8798942    1.0292207      8192000 
  601000   0.79552222   -3.8793189   -3.8793189   -2.8507036  0.027693856   -3.8793189    1.0286153      8192000 
  602000   0.79579122   -3.8794978   -3.8794978   -2.8505346  0.028011786   -3.8794978    1.0289631      8192000 
  603000   0.79544359   -3.8793588   -3.8793588   -2.8508452  0.022424691   -3.8793588    1.0285136      8192000 
  604000   0.79542384   -3.8790358   -3.8790358   -2.8505477  0.025593248   -3.8790358    1.0284881      8192000 
  605000   0.79567711   -3.8793008   -3.8793008   -2.8504852  0.025400769   -3.8793008    1.0288156      8192000 
  606000   0.79542745   -3.8791405   -3.8791405   -2.8506478  0.024836336   -3.8791405    1.0284928      8192000 
  607000    0.7954149   -3.8788814   -3.8788814   -2.8504049  0.026199349   -3.8788814    1.0284765      8192000 
  608000   0.79564821   -3.8789429   -3.8789429   -2.8501647  0.024473394   -3.8789429    1.0287782      8192000 
  609000   0.79524158   -3.8786706   -3.8786706   -2.8504182  0.025789685   -3.8786706    1.0282524      8192000 
  610000   0.79551891   -3.8792762   -3.8792762   -2.8506652  0.023216963   -3.8792762     1.028611      8192000 
  611000   0.79539816   -3.8786274   -3.8786274   -2.8501725  0.026466233   -3.8786274    1.0284549      8192000 
  612000   0.79557462   -3.8789467   -3.8789467   -2.8502637  0.027299386   -3.8789467    1.0286831      8192000 
  613000   0.79576213   -3.8790645   -3.8790645   -2.8501389  0.025500391   -3.8790645    1.0289255      8192000 
  614000   0.79575494    -3.879344    -3.879344   -2.8504278  0.024136419    -3.879344    1.0289162      8192000 
  615000   0.79564765   -3.8790252   -3.8790252   -2.8502477  0.028992408   -3.8790252    1.0287775      8192000 
  616000   0.79628718    -3.879743    -3.879743   -2.8501386   0.02764376    -3.879743    1.0296044      8192000 
  617000   0.79590902   -3.8790358   -3.8790358   -2.8499204  0.028837759   -3.8790358    1.0291154      8192000 
  618000   0.79563825   -3.8791736   -3.8791736   -2.8504082  0.025289653   -3.8791736    1.0287653      8192000 
  619000   0.79567579   -3.8793498   -3.8793498   -2.8505359  0.029402574   -3.8793498    1.0288139      8192000 
  620000   0.79577762   -3.8789274   -3.8789274   -2.8499819   0.02903413   -3.8789274    1.0289455      8192000 
  621000    0.7956223   -3.8790951   -3.8790951   -2.8503504  0.026872559   -3.8790951    1.0287447      8192000 
  622000   0.79582099   -3.8792252   -3.8792252   -2.8502236  0.026480387   -3.8792252    1.0290016      8192000 
  623000   0.79603605   -3.8793073   -3.8793073   -2.8500276  0.026811413   -3.8793073    1.0292797      8192000 
  624000   0.79555801   -3.8789926   -3.8789926    -2.850331  0.028849264   -3.8789926    1.0286616      8192000 
  625000   0.79589795   -3.8790408   -3.8790408   -2.8499396  0.023619987   -3.8790408    1.0291011      8192000 
  626000   0.79568792   -3.8791024   -3.8791024   -2.8502729  0.025264263   -3.8791024    1.0288296      8192000 
  627000   0.79561336   -3.8787787   -3.8787787   -2.8500455  0.027216307   -3.8787787    1.0287331      8192000 
  628000   0.79541728    -3.878723    -3.878723   -2.8502434  0.026600737    -3.878723    1.0284796      8192000 
  629000   0.79576684   -3.8789485   -3.8789485   -2.8500169  0.028866614   -3.8789485    1.0289316      8192000 
  630000   0.79580178   -3.8787975   -3.8787975   -2.8498207  0.025558835   -3.8787975    1.0289768      8192000 
  631000   0.79593057   -3.8789699   -3.8789699   -2.8498266  0.024910232   -3.8789699    1.0291433      8192000 
  632000   0.79515155   -3.8786322   -3.8786322   -2.8504962  0.026987589   -3.8786322     1.028136      8192000 
  633000   0.79544419   -3.8789922   -3.8789922   -2.8504778  0.025656026   -3.8789922    1.0285144      8192000 
  634000   0.79595648    -3.879552    -3.879552   -2.8503751  0.027045685    -3.879552    1.0291768      8192000 
  635000   0.79577943   -3.8793498   -3.8793498   -2.8504019  0.026543173   -3.8793498    1.0289479      8192000 
  636000   0.79608182   -3.8793353   -3.8793353   -2.8499964  0.025641174   -3.8793353    1.0293389      8192000 
  637000   0.79594017   -3.8795008   -3.8795008   -2.8503451  0.025808538   -3.8795008    1.0291557      8192000 
  638000   0.79544946   -3.8789678   -3.8789678   -2.8504466  0.027091502   -3.8789678    1.0285212      8192000 
  639000   0.79585438   -3.8791033   -3.8791033   -2.8500585   0.02873204   -3.8791033    1.0290448      8192000 
  640000   0.79588915   -3.8789494   -3.8789494   -2.8498597   0.02944027   -3.8789494    1.0290897      8192000 
  641000   0.79615166   -3.8794172   -3.8794172    -2.849988    0.0259724   -3.8794172    1.0294292      8192000 
  642000   0.79647492   -3.8797576   -3.8797576   -2.8499104  0.025475406   -3.8797576    1.0298471      8192000 
  643000    0.7963042   -3.8798859   -3.8798859   -2.8502595  0.025267619   -3.8798859    1.0296264      8192000 
  644000   0.79616795    -3.879295    -3.879295   -2.8498447   0.02922861    -3.879295    1.0294502      8192000 
  645000   0.79591986   -3.8790842   -3.8790842   -2.8499547  0.027683082   -3.8790842    1.0291295      8192000 
  646000   0.79625794   -3.8793738   -3.8793738   -2.8498072  0.028016678   -3.8793738    1.0295666      8192000 
  647000   0.79618537   -3.8795093   -3.8795093   -2.8500365  0.027811994   -3.8795093    1.0294728      8192000 
  648000   0.79617706   -3.8799418   -3.8799418   -2.8504798  0.025522334   -3.8799418     1.029462      8192000 
  649000   0.79571881   -3.8788642   -3.8788642   -2.8499947  0.026492991   -3.8788642    1.0288695      8192000 
  650000   0.79560775   -3.8786631   -3.8786631   -2.8499372   0.03001676   -3.8786631    1.0287259      8192000 
  651000   0.79584622   -3.8794849   -3.8794849   -2.8504507  0.026590268   -3.8794849    1.0290342      8192000 
  652000   0.79521501   -3.8787361   -3.8787361    -2.850518   0.02865129   -3.8787361    1.0282181      8192000 
  653000   0.79575081   -3.8794711   -3.8794711   -2.8505602  0.026928485   -3.8794711    1.0289109      8192000 
  654000   0.79594306   -3.8793642   -3.8793642   -2.8502048  0.028910325   -3.8793642    1.0291595      8192000 
  655000    0.7960793   -3.8794838   -3.8794838   -2.8501482  0.026968647   -3.8794838    1.0293356      8192000 
  656000   0.79578174   -3.8791354   -3.8791354   -2.8501845  0.026176201   -3.8791354    1.0289509      8192000 
  657000   0.79583229   -3.8795975   -3.8795975   -2.8505813  0.026155588   -3.8795975    1.0290162      8192000 
  658000    0.7957446   -3.8790593   -3.8790593   -2.8501565  0.030505685   -3.8790593    1.0289028      8192000 
  659000   0.79609768   -3.8793511   -3.8793511   -2.8499917  0.026654627   -3.8793511    1.0293594      8192000 
  660000   0.79570561    -3.878952    -3.878952   -2.8500995  0.028710498    -3.878952    1.0288524      8192000 
  661000   0.79593417    -3.879471    -3.879471   -2.8503231  0.028270792    -3.879471     1.029148      8192000 
  662000   0.79592483   -3.8792994   -3.8792994   -2.8501635  0.025226117   -3.8792994    1.0291359      8192000 
  663000   0.79591839   -3.8787867   -3.8787867   -2.8496591  0.030153804   -3.8787867    1.0291276      8192000 
  664000   0.79633394   -3.8791958   -3.8791958    -2.849531   0.02828236   -3.8791958    1.0296649      8192000 
  665000   0.79564689   -3.8784102   -3.8784102   -2.8496337  0.029080564   -3.8784102    1.0287765      8192000 
  666000   0.79645812   -3.8792361   -3.8792361   -2.8494106   0.02531572   -3.8792361    1.0298254      8192000 
  667000   0.79617489   -3.8790458   -3.8790458   -2.8495866  0.027403598   -3.8790458    1.0294592      8192000 
  668000   0.79639854   -3.8791415   -3.8791415   -2.8493931  0.026317889   -3.8791415    1.0297484      8192000 
  669000    0.7963543   -3.8790258   -3.8790258   -2.8493346  0.029535782   -3.8790258    1.0296912      8192000 
  670000    0.7964477   -3.8791127   -3.8791127   -2.8493008  0.029828712   -3.8791127     1.029812      8192000 
  671000   0.79610184   -3.8788996   -3.8788996   -2.8495348  0.024689215   -3.8788996    1.0293648      8192000 
  672000   0.79632451   -3.8790186   -3.8790186   -2.8493659  0.025599142   -3.8790186    1.0296527      8192000 
  673000   0.79580727   -3.8788008   -3.8788008   -2.8498169  0.025660283   -3.8788008    1.0289839      8192000 
  674000   0.79566804   -3.8787314   -3.8787314   -2.8499275  0.026771718   -3.8787314    1.0288039      8192000 
  675000   0.79580842   -3.8788159   -3.8788159   -2.8498305  0.026674076   -3.8788159    1.0289854      8192000 
  676000   0.79549044   -3.8783034   -3.8783034   -2.8497292  0.029000975   -3.8783034    1.0285742      8192000 
  677000   0.79569326   -3.8784829   -3.8784829   -2.8496464  0.025182367   -3.8784829    1.0288365      8192000 
  678000   0.79548922    -3.878419    -3.878419   -2.8498464  0.026239624    -3.878419    1.0285726      8192000 
  679000    0.7956263   -3.8784458   -3.8784458    -2.849696  0.026263613   -3.8784458    1.0287499      8192000 
  680000   0.79519627    -3.878382    -3.878382   -2.8501882   0.02348172    -3.878382    1.0281939      8192000 
  681000   0.79531439   -3.8781979   -3.8781979   -2.8498513  0.022238758   -3.8781979    1.0283466      8192000 
  682000   0.79499132   -3.8776469   -3.8776469    -2.849718  0.026173225   -3.8776469    1.0279288      8192000 
  683000   0.79534457   -3.8783151   -3.8783151   -2.8499295  0.025593779   -3.8783151    1.0283856      8192000 
  684000   0.79574763   -3.8783152   -3.8783152   -2.8494085  0.024631424   -3.8783152    1.0289068      8192000 
  685000   0.79552692   -3.8782013   -3.8782013   -2.8495799  0.027823744   -3.8782013    1.0286214      8192000 
  686000   0.79595918     -3.87868     -3.87868   -2.8494997  0.025451031     -3.87868    1.0291803      8192000 
  687000    0.7960953   -3.8788259   -3.8788259   -2.8494696  0.026595657   -3.8788259    1.0293563      8192000 
  688000    0.7956752   -3.8782597   -3.8782597   -2.8494466  0.028428919   -3.8782597    1.0288131      8192000 
  689000   0.79523687   -3.8778537   -3.8778537   -2.8496074  0.027442107   -3.8778537    1.0282463      8192000 
  690000   0.79569811   -3.8784923   -3.8784923   -2.8496496  0.022025154   -3.8784923    1.0288427      8192000 
  691000   0.79561392   -3.8781506   -3.8781506   -2.8494167  0.026994007   -3.8781506    1.0287339      8192000 
  692000   0.79566643   -3.8785107   -3.8785107    -2.849709  0.026817339   -3.8785107    1.0288018      8192000 
  693000   0.79562328   -3.8782992   -3.8782992   -2.8495532  0.027789792   -3.8782992     1.028746      8192000 
  694000   0.79554713   -3.8780663   -3.8780663   -2.8494188  0.025337258   -3.8780663    1.0286475      8192000 
  695000   0.79614142   -3.8787098   -3.8787098   -2.8492938  0.024111208   -3.8787098    1.0294159      8192000 
  696000   0.79550101   -3.8779119   -3.8779119    -2.849324  0.027387995   -3.8779119    1.0285879      8192000 
  697000   0.79578711   -3.8779914   -3.8779914   -2.8490335  0.029828544   -3.8779914    1.0289578      8192000 
  698000   0.79578162   -3.8783163   -3.8783163   -2.8493656  0.025154482   -3.8783163    1.0289507      8192000 
  699000   0.79583252    -3.878209    -3.878209   -2.8491925  0.029082702    -3.878209    1.0290165      8192000 
  700000   0.79584301   -3.8782985   -3.8782985   -2.8492684  0.025511382   -3.8782985    1.0290301      8192000 
  701000   0.79563488   -3.8785739   -3.8785739   -2.8498129   0.02425773   -3.8785739     1.028761      8192000 
  702000   0.79596025   -3.8783335   -3.8783335   -2.8491518  0.025801997   -3.8783335    1.0291817      8192000 
  703000   0.79567247   -3.8781062   -3.8781062   -2.8492967  0.026420711   -3.8781062    1.0288096      8192000 
  704000   0.79582384   -3.8783533   -3.8783533    -2.849348  0.026929344   -3.8783533    1.0290053      8192000 
  705000   0.79553295   -3.8777021   -3.8777021   -2.8490729  0.027821664   -3.8777021    1.0286292      8192000 
  706000   0.79532075   -3.8777403   -3.8777403   -2.8493855  0.025674423   -3.8777403    1.0283548      8192000 
  707000   0.79576606   -3.8787161   -3.8787161   -2.8497855  0.025576512   -3.8787161    1.0289306      8192000 
  708000   0.79545723   -3.8780745   -3.8780745   -2.8495433  0.022682651   -3.8780745    1.0285313      8192000 
  709000   0.79544339   -3.8781265   -3.8781265   -2.8496131  0.023378855   -3.8781265    1.0285134      8192000 
  710000   0.79593197   -3.8786655   -3.8786655   -2.8495204   0.02519775   -3.8786655    1.0291451      8192000 
  711000   0.79584396   -3.8784915   -3.8784915   -2.8494602  0.027079942   -3.8784915    1.0290313      8192000 
  712000   0.79544388   -3.8782977   -3.8782977   -2.8497837  0.025728267   -3.8782977     1.028514      8192000 
  713000   0.79590207   -3.8786153   -3.8786153   -2.8495089  0.025511763   -3.8786153    1.0291064      8192000 
  714000   0.79561266   -3.8784902   -3.8784902   -2.8497579  0.026703127   -3.8784902    1.0287322      8192000 
  715000   0.79583585   -3.8787058   -3.8787058    -2.849685  0.026643565   -3.8787058    1.0290208      8192000 
  716000   0.79572829   -3.8789063   -3.8789063   -2.8500246  0.028497003   -3.8789063    1.0288818      8192000 
  717000   0.79613524   -3.8790509   -3.8790509   -2.8496429  0.026747471   -3.8790509    1.0294079      8192000 
  718000    0.7962375   -3.8791852   -3.8791852    -2.849645  0.026615846   -3.8791852    1.0295402      8192000 
  719000   0.79610261   -3.8789998   -3.8789998   -2.8496341  0.027744548   -3.8789998    1.0293657      8192000 
  720000   0.79621647   -3.8793302   -3.8793302   -2.8498172  0.028518081   -3.8793302     1.029513      8192000 
  721000   0.79574671   -3.8785226   -3.8785226   -2.8496171  0.026470775   -3.8785226    1.0289056      8192000 
  722000   0.79574064   -3.8788997   -3.8788997    -2.850002  0.026790674   -3.8788997    1.0288977      8192000 
  723000   0.79623644   -3.8792515   -3.8792515   -2.8497127  0.026528504   -3.8792515    1.0295388      8192000 
  724000   0.79629248   -3.8791308   -3.8791308   -2.8495196  0.029397508   -3.8791308    1.0296113      8192000 
  725000   0.79621072   -3.8791347   -3.8791347   -2.8496291   0.02604143   -3.8791347    1.0295055      8192000 
  726000    0.7958849   -3.8789788   -3.8789788   -2.8498945  0.026715552   -3.8789788    1.0290842      8192000 
  727000    0.7963363   -3.8793826   -3.8793826   -2.8497147  0.027417224   -3.8793826    1.0296679      8192000 
  728000   0.79579816   -3.8785033   -3.8785033   -2.8495312  0.028373452   -3.8785033    1.0289721      8192000 
  729000   0.79611166   -3.8789525   -3.8789525   -2.8495751  0.027225228   -3.8789525    1.0293775      8192000 
  730000   0.79600646   -3.8789778   -3.8789778   -2.8497364  0.026406087   -3.8789778    1.0292414      8192000 
  731000    0.7961445   -3.8788702   -3.8788702   -2.8494503  0.027535147   -3.8788702    1.0294199      8192000 
  732000   0.79593081   -3.8789095   -3.8789095   -2.8497659  0.027463541   -3.8789095    1.0291436      8192000 
  733000   0.79640496   -3.8794241   -3.8794241   -2.8496674  0.027012781   -3.8794241    1.0297567      8192000 
  734000   0.79617251   -3.8794368   -3.8794368   -2.8499807  0.026105955   -3.8794368    1.0294561      8192000 
  735000   0.79614404   -3.8795849   -3.8795849   -2.8501656  0.028442429   -3.8795849    1.0294193      8192000 
  736000   0.79627569   -3.8792738   -3.8792738   -2.8496843  0.028757492   -3.8792738    1.0295895      8192000 
  737000   0.79589887   -3.8792042   -3.8792042   -2.8501019  0.030125409   -3.8792042    1.0291023      8192000 
  738000   0.79614593   -3.8794469   -3.8794469   -2.8500252  0.029393675   -3.8794469    1.0294218      8192000 
  739000   0.79622148   -3.8791065   -3.8791065    -2.849587  0.031474684   -3.8791065    1.0295194      8192000 
  740000   0.79621174   -3.8793847   -3.8793847   -2.8498778  0.026604788   -3.8793847    1.0295069      8192000 
  741000     0.796269   -3.8792598   -3.8792598   -2.8496789  0.031228793   -3.8792598    1.0295809      8192000 
  742000   0.79664541   -3.8795061   -3.8795061   -2.8494385  0.030158348   -3.8795061    1.0300676      8192000 
  743000   0.79609825   -3.8789285   -3.8789285   -2.8495684  0.029478558   -3.8789285    1.0293601      8192000 
  744000   0.79612785   -3.8788384   -3.8788384     -2.84944  0.027873732   -3.8788384    1.0293984      8192000 
  745000   0.79626916   -3.8789976   -3.8789976   -2.8494165  0.027849437   -3.8789976    1.0295811      8192000 
  746000    0.7960708   -3.8787804   -3.8787804   -2.8494558  0.027001298   -3.8787804    1.0293246      8192000 
  747000   0.79652375   -3.8789716   -3.8789716   -2.8490614   0.03103173   -3.8789716    1.0299103      8192000 
  748000   0.79624285   -3.8789683   -3.8789683   -2.8494212  0.029947429   -3.8789683    1.0295471      8192000 
  749000   0.79634452   -3.8792903   -3.8792903   -2.8496118  0.028732253   -3.8792903    1.0296785      8192000 
  750000   0.79623952   -3.8786475   -3.8786475   -2.8491047  0.029133268   -3.8786475    1.0295428      8192000 
  751000   0.79586554   -3.8782214   -3.8782214   -2.8491622  0.030272797   -3.8782214    1.0290592      8192000 
  752000   0.79602006   -3.8788722   -3.8788722   -2.8496132  0.026279379   -3.8788722     1.029259      8192000 
  753000   0.79561861   -3.8780334   -3.8780334   -2.8492934  0.031101901   -3.8780334    1.0287399      8192000 
  754000   0.79603601   -3.8786406   -3.8786406    -2.849361  0.024856114   -3.8786406    1.0292796      8192000 
  755000   0.79546821   -3.8783679   -3.8783679   -2.8498225  0.027163783   -3.8783679    1.0285455      8192000 
  756000   0.79581627   -3.8785087   -3.8785087   -2.8495132  0.025939563   -3.8785087    1.0289955      8192000 
  757000   0.79551278   -3.8781585   -3.8781585   -2.8495554  0.026493821   -3.8781585    1.0286031      8192000 
  758000    0.7959006   -3.8785754   -3.8785754   -2.8494708  0.025265398   -3.8785754    1.0291046      8192000 
  759000   0.79576882   -3.8787141   -3.8787141     -2.84978  0.025747638   -3.8787141    1.0289342      8192000 
  760000   0.79610174   -3.8790255   -3.8790255   -2.8496609  0.025635912   -3.8790255    1.0293646      8192000 
  761000   0.79543314   -3.8779554   -3.8779554   -2.8494552  0.028352124   -3.8779554    1.0285001      8192000 
  762000   0.79594672   -3.8782538   -3.8782538   -2.8490896  0.025293337   -3.8782538    1.0291642      8192000 
  763000   0.79574687   -3.8782488   -3.8782488   -2.8493431  0.026660396   -3.8782488    1.0289058      8192000 
  764000   0.79559566    -3.877998    -3.877998   -2.8492878  0.027737718    -3.877998    1.0287103      8192000 
  765000   0.79588174   -3.8784872   -3.8784872    -2.849407  0.025949855   -3.8784872    1.0290802      8192000 
  766000   0.79559848   -3.8781772   -3.8781772   -2.8494633  0.024947531   -3.8781772    1.0287139      8192000 
  767000   0.79509025   -3.8773351   -3.8773351   -2.8492783  0.026563139   -3.8773351    1.0280568      8192000 
  768000   0.79585153   -3.8782969   -3.8782969   -2.8492558  0.025654408   -3.8782969    1.0290411      8192000 
  769000   0.79502605   -3.8771039   -3.8771039   -2.8491301  0.028609718   -3.8771039    1.0279737      8192000 
  770000   0.79517463   -3.8776754   -3.8776754   -2.8495095  0.024775836   -3.8776754    1.0281659      8192000 
  771000   0.79522659   -3.8773205   -3.8773205   -2.8490875  0.026203996   -3.8773205    1.0282331      8192000 
  772000   0.79525105   -3.8775355   -3.8775355   -2.8492708  0.028151981   -3.8775355    1.0282647      8192000 
  773000   0.79516053   -3.8776322   -3.8776322   -2.8494845    0.0229861   -3.8776322    1.0281476      8192000 
  774000   0.79538402   -3.8778549   -3.8778549   -2.8494183  0.025982387   -3.8778549    1.0284366      8192000 
  775000   0.79535119   -3.8778408   -3.8778408   -2.8494467  0.021923306   -3.8778408    1.0283942      8192000 
  776000   0.79546686   -3.8778861   -3.8778861   -2.8493423  0.025119719   -3.8778861    1.0285437      8192000 
  777000   0.79525287   -3.8775829   -3.8775829   -2.8493158  0.025756283   -3.8775829     1.028267      8192000 
  778000   0.79541157   -3.8775643   -3.8775643   -2.8490921  0.026341517   -3.8775643    1.0284722      8192000 
  779000   0.79540244   -3.8775247   -3.8775247   -2.8490643  0.023876252   -3.8775247    1.0284604      8192000 
  780000   0.79534961   -3.8774391   -3.8774391    -2.849047  0.027680981   -3.8774391    1.0283921      8192000 
  781000   0.79541986   -3.8775928   -3.8775928   -2.8491098  0.027215333   -3.8775928    1.0284829      8192000 
  782000   0.79519959   -3.8772278   -3.8772278   -2.8490297  0.022262709   -3.8772278    1.0281981      8192000 
  783000   0.79536119   -3.8775558   -3.8775558   -2.8491487   0.02319035   -3.8775558    1.0284071      8192000 
  784000    0.7953077   -3.8777548   -3.8777548   -2.8494169  0.026165213   -3.8777548    1.0283379      8192000 
  785000   0.79569282   -3.8782255   -3.8782255   -2.8493897  0.026040747   -3.8782255    1.0288359      8192000 
  786000   0.79539329   -3.8778388   -3.8778388   -2.8493902  0.021830459   -3.8778388    1.0284486      8192000 
  787000   0.79530537   -3.8775581   -3.8775581   -2.8492232   0.02584833   -3.8775581    1.0283349      8192000 
  788000   0.79579448   -3.8778711   -3.8778711   -2.8489037  0.026756825   -3.8778711    1.0289673      8192000 
  789000   0.79571135   -3.8777046   -3.8777046   -2.8488448  0.029510798   -3.8777046    1.0288599      8192000 
  790000   0.79580197   -3.8781409   -3.8781409   -2.8491639  0.023740056   -3.8781409     1.028977      8192000 
  791000   0.79558277   -3.8781063   -3.8781063   -2.8494127  0.025923829   -3.8781063    1.0286936      8192000 
  792000   0.79590827   -3.8783211   -3.8783211   -2.8492067  0.026261406   -3.8783211    1.0291145      8192000 
  793000    0.7958516    -3.878175    -3.878175   -2.8491338  0.027270421    -3.878175    1.0290412      8192000 
  794000   0.79538302   -3.8779276   -3.8779276   -2.8494923  0.027369232   -3.8779276    1.0284353      8192000 
  795000   0.79549965   -3.8782041   -3.8782041    -2.849618  0.028219445   -3.8782041    1.0285861      8192000 
  796000   0.79627388    -3.878654    -3.878654   -2.8490668  0.024931622    -3.878654    1.0295872      8192000 
  797000   0.79623803   -3.8787142   -3.8787142   -2.8491734  0.026628821   -3.8787142    1.0295409      8192000 
  798000    0.7960142   -3.8783725   -3.8783725    -2.849121  0.028739554   -3.8783725    1.0292514      8192000 
  799000   0.79607016    -3.878539    -3.878539   -2.8492152  0.026580093    -3.878539    1.0293238      8192000 
  800000   0.79622313   -3.8786734   -3.8786734   -2.8491518  0.029572522   -3.8786734    1.0295216      8192000 
  801000   0.79611596   -3.8785074   -3.8785074   -2.8491244  0.026527023   -3.8785074     1.029383      8192000 
  802000   0.79610904   -3.8783512   -3.8783512   -2.8489771  0.026888167   -3.8783512    1.0293741      8192000 
  803000   0.79628359   -3.8788051   -3.8788051   -2.8492054  0.027548618   -3.8788051    1.0295998      8192000 
  804000   0.79601582   -3.8782733   -3.8782733   -2.8490198  0.029124836   -3.8782733    1.0292535      8192000 
  805000    0.7957183   -3.8781309   -3.8781309    -2.849262  0.028660969   -3.8781309    1.0288688      8192000 
  806000   0.79600489   -3.8783472   -3.8783472   -2.8491078  0.028456785   -3.8783472    1.0292394      8192000 
  807000   0.79584167   -3.8781488   -3.8781488   -2.8491204  0.029002012   -3.8781488    1.0290284      8192000 
  808000   0.79579643   -3.8783547   -3.8783547   -2.8493848  0.028714675   -3.8783547    1.0289699      8192000 
  809000   0.79591559   -3.8784064   -3.8784064   -2.8492825  0.028612872   -3.8784064    1.0291239      8192000 
  810000   0.79563758     -3.87798     -3.87798   -2.8492155  0.031424373     -3.87798    1.0287645      8192000 
  811000   0.79586186   -3.8783035   -3.8783035    -2.849249  0.028467023   -3.8783035    1.0290545      8192000 
  812000   0.79604186   -3.8785124   -3.8785124   -2.8492252  0.029201709   -3.8785124    1.0292872      8192000 
  813000   0.79626964   -3.8788321   -3.8788321   -2.8492504  0.027239346   -3.8788321    1.0295817      8192000 
  814000   0.79608324   -3.8785956   -3.8785956   -2.8492549  0.029757997   -3.8785956    1.0293407      8192000 
  815000   0.79584905   -3.8783091   -3.8783091   -2.8492712  0.030112543   -3.8783091    1.0290379      8192000 
  816000   0.79649043   -3.8790343   -3.8790343   -2.8491671  0.025378053   -3.8790343    1.0298672      8192000 
  817000   0.79629069    -3.878435    -3.878435   -2.8488261  0.030625628    -3.878435    1.0296089      8192000 
  818000   0.79666721   -3.8790469   -3.8790469   -2.8489511  0.028313403   -3.8790469    1.0300958      8192000 
  819000   0.79631784   -3.8787498   -3.8787498   -2.8491058   0.02833795   -3.8787498     1.029644      8192000 
  820000   0.79634543   -3.8788115   -3.8788115   -2.8491318  0.025927435   -3.8788115    1.0296797      8192000 
  821000   0.79628879   -3.8782944   -3.8782944   -2.8486879  0.029920921   -3.8782944    1.0296065      8192000 
  822000   0.79639757   -3.8786909   -3.8786909   -2.8489438  0.027920709   -3.8786909    1.0297471      8192000 
  823000   0.79638723   -3.8787267   -3.8787267   -2.8489929  0.030120015   -3.8787267    1.0297338      8192000 
  824000   0.79608077   -3.8783855   -3.8783855    -2.849048   0.03026121   -3.8783855    1.0293375      8192000 
  825000   0.79592293    -3.878309    -3.878309   -2.8491755  0.026752291    -3.878309    1.0291334      8192000 
  826000   0.79623089   -3.8785014   -3.8785014   -2.8489698  0.028089886   -3.8785014    1.0295316      8192000 
  827000   0.79587903   -3.8781925   -3.8781925   -2.8491159  0.027691329   -3.8781925    1.0290767      8192000 
  828000   0.79603257   -3.8785739   -3.8785739   -2.8492987  0.026243495   -3.8785739    1.0292752      8192000 
  829000   0.79592148   -3.8782165   -3.8782165   -2.8490849  0.028764839   -3.8782165    1.0291316      8192000 
  830000   0.79574471   -3.8780343   -3.8780343   -2.8491313  0.027069817   -3.8780343     1.028903      8192000 
  831000    0.7955763   -3.8771315   -3.8771315   -2.8484463  0.030981748   -3.8771315    1.0286852      8192000 
  832000   0.79623261   -3.8781619   -3.8781619    -2.848628  0.029134717   -3.8781619    1.0295338      8192000 
  833000   0.79588585   -3.8778781   -3.8778781   -2.8487926  0.028067935   -3.8778781    1.0290855      8192000 
  834000   0.79587756   -3.8778147   -3.8778147   -2.8487399  0.028067013   -3.8778147    1.0290748      8192000 
  835000   0.79596724   -3.8778691   -3.8778691   -2.8486784   0.03075659   -3.8778691    1.0291907      8192000 
  836000   0.79568315   -3.8775331   -3.8775331   -2.8487097  0.028340813   -3.8775331    1.0288234      8192000 
  837000   0.79572149   -3.8773908   -3.8773908   -2.8485178  0.027690526   -3.8773908     1.028873      8192000 
  838000   0.79569755    -3.877697    -3.877697   -2.8488549  0.026561773    -3.877697     1.028842      8192000 
  839000   0.79610445   -3.8779122   -3.8779122   -2.8485441  0.025917663   -3.8779122    1.0293681      8192000 
  840000   0.79565855   -3.8773982   -3.8773982   -2.8486066  0.026104442   -3.8773982    1.0287916      8192000 
  841000   0.79563403   -3.8774302   -3.8774302   -2.8486704  0.027637091   -3.8774302    1.0287599      8192000 
  842000   0.79571938   -3.8779377   -3.8779377   -2.8490675  0.024744732   -3.8779377    1.0288702      8192000 
  843000   0.79547555   -3.8774954   -3.8774954   -2.8489405   0.02731744   -3.8774954     1.028555      8192000 
  844000   0.79582775   -3.8777177   -3.8777177   -2.8487073  0.028730828   -3.8777177    1.0290104      8192000 
  845000   0.79622029   -3.8782409   -3.8782409    -2.848723  0.025616008   -3.8782409    1.0295179      8192000 
  846000   0.79596046   -3.8778253   -3.8778253   -2.8486434  0.026191498   -3.8778253    1.0291819      8192000 
  847000     0.795383   -3.8769021   -3.8769021   -2.8484669  0.030037407   -3.8769021    1.0284353      8192000 
  848000    0.7953163   -3.8766233   -3.8766233   -2.8482742  0.026595154   -3.8766233     1.028349      8192000 
  849000   0.79528719   -3.8768826   -3.8768826   -2.8485712  0.027350098   -3.8768826    1.0283114      8192000 
  850000   0.79546536    -3.876978    -3.876978   -2.8484362  0.028895657    -3.876978    1.0285418      8192000 
  851000   0.79558399    -3.877526    -3.877526   -2.8488308  0.028269254    -3.877526    1.0286952      8192000 
  852000   0.79561684   -3.8774811   -3.8774811   -2.8487434  0.024699792   -3.8774811    1.0287376      8192000 
  853000   0.79557114   -3.8770708   -3.8770708   -2.8483923  0.027505035   -3.8770708    1.0286786      8192000 
  854000   0.79612003    -3.877707    -3.877707   -2.8483188  0.025424632    -3.877707    1.0293883      8192000 
  855000   0.79570016   -3.8773625   -3.8773625   -2.8485171  0.025927949   -3.8773625    1.0288454      8192000 
  856000   0.79591039   -3.8772037   -3.8772037   -2.8480865  0.025639942   -3.8772037    1.0291172      8192000 
  857000   0.79577444   -3.8771818   -3.8771818   -2.8482404  0.023084844   -3.8771818    1.0289414      8192000 
  858000   0.79565264   -3.8772455   -3.8772455   -2.8484616  0.025013519   -3.8772455    1.0287839      8192000 
  859000   0.79585494   -3.8772454   -3.8772454   -2.8481999   0.02528368   -3.8772454    1.0290455      8192000 
  860000   0.79538321   -3.8770164   -3.8770164   -2.8485808   0.02570989   -3.8770164    1.0284356      8192000 
  861000   0.79579379   -3.8774065   -3.8774065   -2.8484401  0.027702399   -3.8774065    1.0289664      8192000 
  862000   0.79571561    -3.877179    -3.877179   -2.8483136  0.026294792    -3.877179    1.0288654      8192000 
  863000    0.7958318   -3.8774841   -3.8774841   -2.8484685  0.028038054   -3.8774841    1.0290156      8192000 
  864000   0.79583147   -3.8775307   -3.8775307   -2.8485155  0.025376038   -3.8775307    1.0290152      8192000 
  865000   0.79606831   -3.8775656   -3.8775656   -2.8482442  0.025472022   -3.8775656    1.0293214      8192000 
  866000   0.79567888   -3.8772642   -3.8772642   -2.8484464  0.026053244   -3.8772642    1.0288179      8192000 
  867000   0.79553245   -3.8768224   -3.8768224   -2.8481939  0.026731563   -3.8768224    1.0286285      8192000 
  868000   0.79538457   -3.8771942   -3.8771942   -2.8487569  0.028319167   -3.8771942    1.0284373      8192000 
  869000   0.79592391   -3.8778222   -3.8778222   -2.8486875  0.027799627   -3.8778222    1.0291347      8192000 
  870000   0.79577986   -3.8775173   -3.8775173   -2.8485689   0.02529722   -3.8775173    1.0289484      8192000 
  871000   0.79550167   -3.8769047   -3.8769047   -2.8483159  0.027272966   -3.8769047    1.0285887      8192000 
  872000   0.79596646   -3.8775298   -3.8775298   -2.8483401  0.026551706   -3.8775298    1.0291897      8192000 
  873000   0.79588527   -3.8779624   -3.8779624   -2.8488777  0.026207593   -3.8779624    1.0290847      8192000 
  874000   0.79549498   -3.8772862   -3.8772862   -2.8487061  0.028862326   -3.8772862    1.0285801      8192000 
  875000   0.79548769   -3.8770902   -3.8770902   -2.8485196  0.028918163   -3.8770902    1.0285707      8192000 
  876000   0.79589268   -3.8774459   -3.8774459   -2.8483515   0.02841111   -3.8774459    1.0290943      8192000 
  877000   0.79609025   -3.8776435   -3.8776435   -2.8482937  0.025326356   -3.8776435    1.0293498      8192000 
  878000   0.79620223   -3.8778346   -3.8778346     -2.84834  0.027317186   -3.8778346    1.0294946      8192000 
  879000   0.79600746   -3.8778872   -3.8778872   -2.8486445  0.027964213   -3.8778872    1.0292427      8192000 
  880000   0.79615412   -3.8776357   -3.8776357   -2.8482033  0.027569473   -3.8776357    1.0294323      8192000 
  881000   0.79625234   -3.8780505   -3.8780505   -2.8484911  0.027205334   -3.8780505    1.0295594      8192000 
  882000   0.79586951   -3.8772249   -3.8772249   -2.8481606  0.027277339   -3.8772249    1.0290643      8192000 
  883000   0.79636649    -3.877783    -3.877783    -2.848076  0.027753855    -3.877783     1.029707      8192000 
  884000   0.79647987   -3.8780826   -3.8780826    -2.848229  0.027950436   -3.8780826    1.0298536      8192000 
  885000   0.79659607   -3.8780074   -3.8780074   -2.8480036  0.028633434   -3.8780074    1.0300038      8192000 
  886000   0.79610738    -3.877741    -3.877741   -2.8483691  0.028516249    -3.877741    1.0293719      8192000 
  887000   0.79636488   -3.8782939   -3.8782939    -2.848589  0.026508936   -3.8782939    1.0297049      8192000 
  888000   0.79608748   -3.8781428   -3.8781428   -2.8487966   0.02939659   -3.8781428    1.0293462      8192000 
  889000   0.79663192   -3.8784862   -3.8784862    -2.848436  0.026517563   -3.8784862    1.0300501      8192000 
  890000   0.79637319    -3.878161    -3.878161   -2.8484454  0.028692255    -3.878161    1.0297156      8192000 
  891000   0.79697598   -3.8785669   -3.8785669   -2.8480719  0.028935381   -3.8785669     1.030495      8192000 
  892000   0.79620887    -3.877521    -3.877521   -2.8480179  0.031131715    -3.877521    1.0295032      8192000 
  893000   0.79628836   -3.8778106   -3.8778106   -2.8482047  0.030047503   -3.8778106    1.0296059      8192000 
  894000   0.79667104   -3.8781721   -3.8781721   -2.8480714  0.026603379   -3.8781721    1.0301007      8192000 
  895000   0.79646899   -3.8780491   -3.8780491   -2.8482096  0.029046556   -3.8780491    1.0298395      8192000 
  896000   0.79580363   -3.8773058   -3.8773058   -2.8483267  0.028160767   -3.8773058    1.0289792      8192000 
  897000   0.79631958   -3.8776785   -3.8776785   -2.8480322  0.027507061   -3.8776785    1.0296463      8192000 
  898000   0.79655853    -3.877974    -3.877974   -2.8480188  0.026167633    -3.877974    1.0299553      8192000 
  899000   0.79644803   -3.8781085   -3.8781085   -2.8482961   0.02480805   -3.8781085    1.0298124      8192000 
  900000   0.79556339   -3.8773865   -3.8773865    -2.848718  0.028648282   -3.8773865    1.0286685      8192000 
  901000   0.79563298   -3.8767908   -3.8767908   -2.8480323   0.03191844   -3.8767908    1.0287585      8192000 
  902000   0.79618654   -3.8777143   -3.8777143     -2.84824  0.027670008   -3.8777143    1.0294743      8192000 
  903000   0.79609681   -3.8775387   -3.8775387   -2.8481805   0.02987872   -3.8775387    1.0293582      8192000 
  904000   0.79649489   -3.8781102   -3.8781102   -2.8482372   0.03029251   -3.8781102     1.029873      8192000 
  905000   0.79629559   -3.8775234   -3.8775234   -2.8479081  0.028057652   -3.8775234    1.0296153      8192000 
  906000   0.79589947   -3.8772188   -3.8772188   -2.8481157  0.027126167   -3.8772188    1.0291031      8192000 
  907000   0.79605472   -3.8774706   -3.8774706   -2.8481668  0.028569597   -3.8774706    1.0293038      8192000 
  908000    0.7960625    -3.877437    -3.877437   -2.8481232  0.028075228    -3.877437    1.0293139      8192000 
  909000   0.79576353   -3.8769223   -3.8769223   -2.8479949  0.027146602   -3.8769223    1.0289273      8192000 
  910000   0.79615567   -3.8778526   -3.8778526   -2.8484183  0.025036908   -3.8778526    1.0294344      8192000 
  911000   0.79600541   -3.8772981   -3.8772981   -2.8480581  0.027341308   -3.8772981    1.0292401      8192000 
  912000    0.7962562    -3.877303    -3.877303   -2.8477387  0.025431106    -3.877303    1.0295643      8192000 
  913000   0.79620994   -3.8774485   -3.8774485    -2.847944  0.027256125   -3.8774485    1.0295045      8192000 
  914000   0.79548328   -3.8765657   -3.8765657   -2.8480007  0.029243234   -3.8765657    1.0285649      8192000 
  915000    0.7962059   -3.8770728   -3.8770728   -2.8475735  0.027759127   -3.8770728    1.0294993      8192000 
  916000   0.79565933   -3.8764705   -3.8764705   -2.8476779  0.028161519   -3.8764705    1.0287926      8192000 
  917000   0.79590115   -3.8771461   -3.8771461   -2.8480408  0.026667384   -3.8771461    1.0291053      8192000 
  918000   0.79587386   -3.8770664   -3.8770664   -2.8479964  0.024704762   -3.8770664      1.02907      8192000 
  919000   0.79564776   -3.8771001   -3.8771001   -2.8483225  0.026418155   -3.8771001    1.0287776      8192000 
  920000   0.79584225   -3.8770591   -3.8770591     -2.84803  0.025159145   -3.8770591    1.0290291      8192000 
  921000   0.79559109    -3.876446    -3.876446   -2.8477417  0.027046758    -3.876446    1.0287044      8192000 
  922000   0.79536142   -3.8765506   -3.8765506   -2.8481432  0.021984237   -3.8765506    1.0284074      8192000 
  923000   0.79527419   -3.8760536   -3.8760536    -2.847759    0.0293576   -3.8760536    1.0282946      8192000 
  924000   0.79578219   -3.8769465   -3.8769465   -2.8479951  0.023405615   -3.8769465    1.0289514      8192000 
  925000   0.79533284   -3.8764223   -3.8764223   -2.8480519   0.02673615   -3.8764223    1.0283704      8192000 
  926000   0.79562875    -3.876715    -3.876715    -2.847962   0.02425606    -3.876715    1.0287531      8192000 
  927000   0.79553243   -3.8765726   -3.8765726   -2.8479441  0.024303303   -3.8765726    1.0286285      8192000 
  928000   0.79537957    -3.876385    -3.876385   -2.8479541  0.025159498    -3.876385    1.0284309      8192000 
  929000    0.7955707   -3.8763808   -3.8763808   -2.8477028   0.02680591   -3.8763808     1.028678      8192000 
  930000   0.79561068   -3.8766694   -3.8766694   -2.8479397  0.025565191   -3.8766694    1.0287297      8192000 
  931000   0.79569118   -3.8766732   -3.8766732   -2.8478394   0.02673329   -3.8766732    1.0288338      8192000 
  932000   0.79564353   -3.8768963   -3.8768963   -2.8481241  0.023224148   -3.8768963    1.0287722      8192000 
  933000   0.79612054    -3.877185    -3.877185    -2.847796   0.02376199    -3.877185    1.0293889      8192000 
  934000   0.79601903   -3.8770115   -3.8770115   -2.8477539  0.027098318   -3.8770115    1.0292577      8192000 
  935000   0.79587042   -3.8769585   -3.8769585   -2.8478929  0.026367069   -3.8769585    1.0290655      8192000 
  936000   0.79623775   -3.8771691   -3.8771691   -2.8476287  0.024620047   -3.8771691    1.0295405      8192000 
  937000   0.79581599   -3.8769411   -3.8769411    -2.847946  0.023699958   -3.8769411    1.0289951      8192000 
  938000    0.7960693    -3.876969    -3.876969   -2.8476464  0.025021847    -3.876969    1.0293227      8192000 
  939000     0.796571   -3.8770002   -3.8770002   -2.8470288  0.026064726   -3.8770002    1.0299714      8192000 
  940000   0.79688916   -3.8774058   -3.8774058   -2.8470231   0.02540724   -3.8774058    1.0303828      8192000 
  941000   0.79606273   -3.8767673   -3.8767673   -2.8474531  0.025198336   -3.8767673    1.0293142      8192000 
  942000   0.79618484   -3.8772231   -3.8772231   -2.8477511  0.025754072   -3.8772231    1.0294721      8192000 
  943000   0.79607538   -3.8768219   -3.8768219   -2.8474914   0.02991037   -3.8768219    1.0293305      8192000 
  944000   0.79601522   -3.8770665   -3.8770665   -2.8478137  0.028352475   -3.8770665    1.0292528      8192000 
  945000   0.79582092   -3.8769521   -3.8769521   -2.8479505  0.028014533   -3.8769521    1.0290015      8192000 
  946000   0.79567181   -3.8764599   -3.8764599   -2.8476512  0.029517056   -3.8764599    1.0288087      8192000 
  947000   0.79629292   -3.8769068   -3.8769068    -2.847295  0.027805313   -3.8769068    1.0296118      8192000 
  948000   0.79645288   -3.8768168   -3.8768168   -2.8469982  0.029563654   -3.8768168    1.0298187      8192000 
  949000   0.79581013   -3.8769678   -3.8769678   -2.8479803  0.025536606   -3.8769678    1.0289876      8192000 
  950000   0.79597253   -3.8772159   -3.8772159   -2.8480184  0.028774739   -3.8772159    1.0291976      8192000 
  951000   0.79588527   -3.8767674   -3.8767674   -2.8476826  0.028864816   -3.8767674    1.0290847      8192000 
  952000   0.79636187   -3.8775475   -3.8775475   -2.8478465  0.028693369   -3.8775475     1.029701      8192000 
  953000   0.79619618   -3.8775065   -3.8775065   -2.8480198  0.030330679   -3.8775065    1.0294867      8192000 
  954000   0.79609818   -3.8772273   -3.8772273   -2.8478673  0.029183934   -3.8772273      1.02936      8192000 
  955000    0.7962262   -3.8773047   -3.8773047   -2.8477792   0.02861862   -3.8773047    1.0295256      8192000 
  956000   0.79599553   -3.8770771   -3.8770771   -2.8478498  0.028607886   -3.8770771    1.0292273      8192000 
  957000   0.79619736   -3.8771911   -3.8771911   -2.8477029  0.030665516   -3.8771911    1.0294883      8192000 
  958000   0.79677594   -3.8775451   -3.8775451   -2.8473087  0.030164224   -3.8775451    1.0302364      8192000 
  959000   0.79603818   -3.8769452   -3.8769452   -2.8476627  0.030677838   -3.8769452    1.0292824      8192000 
  960000   0.79664479   -3.8776621   -3.8776621   -2.8475954   0.02881185   -3.8776621    1.0300668      8192000 
  961000   0.79642639   -3.8771932   -3.8771932   -2.8474088  0.030034861   -3.8771932    1.0297844      8192000 
  962000   0.79651073   -3.8771024   -3.8771024   -2.8472089  0.030475075   -3.8771024    1.0298934      8192000 
  963000   0.79595227   -3.8766541   -3.8766541   -2.8474827  0.028151847   -3.8766541    1.0291714      8192000 
  964000   0.79623404   -3.8773439   -3.8773439   -2.8478082  0.028465464   -3.8773439    1.0295357      8192000 
  965000   0.79652228   -3.8773579   -3.8773579   -2.8474495  0.026112653   -3.8773579    1.0299084      8192000 
  966000   0.79643072   -3.8775013   -3.8775013   -2.8477113  0.026479726   -3.8775013      1.02979      8192000 
  967000   0.79623925    -3.877092    -3.877092   -2.8475495  0.028873999    -3.877092    1.0295424      8192000 
  968000   0.79622618   -3.8774909   -3.8774909   -2.8479654  0.028431905   -3.8774909    1.0295255      8192000 
  969000   0.79622835   -3.8770027   -3.8770027   -2.8474744  0.029606222   -3.8770027    1.0295283      8192000 
  970000   0.79573778   -3.8764834   -3.8764834   -2.8475894  0.029725326   -3.8764834     1.028894      8192000 
  971000   0.79617679   -3.8771247   -3.8771247   -2.8476631  0.028638348   -3.8771247    1.0294617      8192000 
  972000   0.79638159   -3.8774317   -3.8774317   -2.8477052   0.02860831   -3.8774317    1.0297265      8192000 
  973000   0.79585478   -3.8767608   -3.8767608   -2.8477155  0.027539779   -3.8767608    1.0290453      8192000 
  974000   0.79634713   -3.8771241   -3.8771241   -2.8474422  0.025782203   -3.8771241    1.0296819      8192000 
  975000   0.79611609    -3.876772    -3.876772   -2.8473888  0.025754937    -3.876772    1.0293832      8192000 
  976000    0.7966342   -3.8771171   -3.8771171    -2.847064  0.026918136   -3.8771171    1.0300531      8192000 
  977000    0.7960738   -3.8768586   -3.8768586   -2.8475301  0.028841694   -3.8768586    1.0293285      8192000 
  978000   0.79541175   -3.8763712   -3.8763712   -2.8478988  0.030496994   -3.8763712    1.0284725      8192000 
  979000    0.7963251   -3.8772696   -3.8772696   -2.8476162  0.026466483   -3.8772696    1.0296534      8192000 
  980000   0.79650842   -3.8771761   -3.8771761   -2.8472856   0.02689903   -3.8771761    1.0298905      8192000 
  981000   0.79621879   -3.8768315   -3.8768315   -2.8473155  0.028529367   -3.8768315     1.029516      8192000 
  982000   0.79603564    -3.877065    -3.877065   -2.8477859  0.028613432    -3.877065    1.0292792      8192000 
  983000    0.7966167   -3.8773772   -3.8773772   -2.8473467  0.026225583   -3.8773772    1.0300305      8192000 
  984000   0.79635931   -3.8769184   -3.8769184   -2.8472207  0.029001708   -3.8769184    1.0296977      8192000 
  985000    0.7963331    -3.876955    -3.876955   -2.8472912  0.025179502    -3.876955    1.0296638      8192000 
  986000   0.79620805    -3.876676    -3.876676   -2.8471739  0.027293998    -3.876676    1.0295021      8192000 
  987000   0.79620013   -3.8768782   -3.8768782   -2.8473863  0.025960001   -3.8768782    1.0294918      8192000 
  988000   0.79621941   -3.8767219   -3.8767219   -2.8472051  0.026612808   -3.8767219    1.0295168      8192000 
  989000   0.79530352   -3.8762128   -3.8762128   -2.8478803  0.027124616   -3.8762128    1.0283325      8192000 
  990000   0.79546981   -3.8762837   -3.8762837   -2.8477362  0.026689245   -3.8762837    1.0285475      8192000 
  991000   0.79561195   -3.8765511   -3.8765511   -2.8478198  0.024470792   -3.8765511    1.0287313      8192000 
  992000    0.7955384    -3.876453    -3.876453   -2.8478168  0.022785259    -3.876453    1.0286362      8192000 
  993000   0.79506445   -3.8757253   -3.8757253   -2.8477019  0.028690005   -3.8757253    1.0280234      8192000 
  994000   0.79508717   -3.8757019   -3.8757019   -2.8476491  0.028930326   -3.8757019    1.0280528      8192000 
  995000   0.79534264   -3.8759823   -3.8759823   -2.8475992  0.025320279   -3.8759823    1.0283831      8192000 
  996000   0.79568238    -3.876143    -3.876143   -2.8473206  0.025553349    -3.876143    1.0288224      8192000 
  997000    0.7954134   -3.8761685   -3.8761685   -2.8476939  0.024514789   -3.8761685    1.0284746      8192000 
  998000   0.79558783   -3.8760601   -3.8760601   -2.8473599  0.023026174   -3.8760601    1.0287001      8192000 
  999000   0.79541119   -3.8761771   -3.8761771   -2.8477053  0.026240162   -3.8761771    1.0284717      8192000 
 1000000   0.79541568   -3.8760093   -3.8760093   -2.8475318  0.027482758   -3.8760093    1.0284775      8192000 
Loop time of 16843.2 on 240 procs for 1000000 steps with 4233413 atoms

Performance: 12824.195 tau/day, 59.371 timesteps/s
97.7% CPU use with 240 MPI tasks x 1 OpenMP threads

MPI task timing breakdown:
Section |  min time  |  avg time  |  max time  |%varavg|  %CPU | %total
-----------------------------------------------------------------------
Pair    | 6701.9     | 7571.3     | 9104       | 595.8 |  99.5 | 44.95
Bond    | 0.82242    | 0.9313     | 1.0577     |   4.5 | 100.0 |  0.01
Neigh   | 2848.7     | 3812.6     | 4754.6     | 615.9 |  99.6 | 22.64
Comm    | 1558.4     | 2984.4     | 4769.2     |1201.0 |  93.7 | 17.72
Output  | 282.34     | 283.75     | 286.73     |   8.5 |  91.4 |  1.68
Modify  | 1265.8     | 1907.3     | 2702.4     | 747.3 |  94.7 | 11.32
Other   |            | 282.9      |            |       |       |  1.68

Nlocal:        17639.2 ave       19537 max       16249 min
Histogram: 11 16 30 45 64 36 25 7 4 2
Nghost:        16215.3 ave       20788 max        9640 min
Histogram: 21 11 5 23 11 19 43 50 50 7
Neighs:        570680.0 ave      655032 max      468555 min
Histogram: 1 3 10 21 97 48 1 19 20 20

Total # of neighbors = 1.3696319e+08
Ave neighs/atom = 32.352902
Ave special neighs/atom = 0.0000000
Neighbor list builds = 63021
Dangerous builds = 0
Total wall time: 4:40:58
