LAMMPS (24 Dec 2020)
OMP_NUM_THREADS environment is not set. Defaulting to 1 thread. (src/comm.cpp:94)
  using 1 OpenMP thread(s) per MPI task
#Read the equilibrated lj fluid and add nanocubes

units           lj
atom_style      full
atom_modify     map array first cubes
dimension       3
boundary        p p f
pair_style      lj/cut/opt 2.5

variable        sigma           equal 1.0
variable        epsilon         equal 1.0
read_data	data.lj_eqil
Reading data file ...
  orthogonal box = (0.0000000 0.0000000 0.0000000) to (160.00000 160.00000 320.00000)
  5 by 4 by 12 MPI processor grid
  reading atoms ...
  3993600 atoms
  reading velocities ...
  3993600 velocities
Finding 1-2 1-3 1-4 neighbors ...
  special bond factors lj:    0        0        0       
  special bond factors coul:  0        0        0       
     0 = max # of 1-2 neighbors
     0 = max # of 1-3 neighbors
     0 = max # of 1-4 neighbors
     1 = max # of special neighbors
  special bonds CPU = 1.936 seconds
  read_data CPU = 11.841 seconds

group		solvent type 1
3993600 atoms in group solvent

read_data	data.512seed1 group cubes add append
Reading data file ...
  orthogonal box = (0.0000000 0.0000000 0.0000000) to (160.00000 160.00000 320.00000)
  5 by 4 by 12 MPI processor grid
  reading atoms ...
  585216 atoms
  reading velocities ...
  585216 velocities
Finding 1-2 1-3 1-4 neighbors ...
  special bond factors lj:    0        0        0       
  special bond factors coul:  0        0        0       
     0 = max # of 1-2 neighbors
     0 = max # of 1-3 neighbors
     0 = max # of 1-4 neighbors
     1 = max # of special neighbors
  special bonds CPU = 0.060 seconds
  read_data CPU = 1.397 seconds

neighbor      0.4 bin
neigh_modify  exclude molecule/intra cubes


pair_modify   shift yes

pair_coeff    1 1 1.0 1.0 #solvent
pair_coeff    2 2 0.6 1.0 #np
pair_coeff    3 3 0.0 0.0 0.0 #dummy
pair_coeff    2 3 0.0 0.0 0.0 #np dummy
pair_coeff    1 2 0.8 1.0 #np solvent
pair_coeff    1 3 0.0 0.0 0.0 #dummy solvent


# delete solvent where the cubes are
delete_atoms  overlap 1.0 solvent cubes
System init for delete_atoms ...
Neighbor list info ...
  update every 1 steps, delay 10 steps, check yes
  max neighbors/atom: 2000, page size: 100000
  master list distance cutoff = 2.9
  ghost atom cutoff = 2.9
  binsize = 1.45, bins = 111 111 221
  2 neighbor lists, perpetual/occasional/extra = 1 1 0
  (1) command delete_atoms, occasional
      attributes: full, newton on
      pair build: full/bin
      stencil: full/bin/3d
      bin: standard
  (2) pair lj/cut/opt, perpetual
      attributes: half, newton on
      pair build: half/bin/newton
      stencil: half/bin/3d/newton
      bin: standard
WARNING: Delete_atoms cutoff > minimum neighbor cutoff (src/delete_atoms.cpp:307)
WARNING: Ignoring 'compress yes' for molecular system (src/delete_atoms.cpp:125)
Deleted 345403 atoms, new total = 4233413



comm_modify   mode multi cutoff/multi 1 2.5 cutoff/multi 2 2.5 cutoff/multi 3 6.95

reset_timestep 	0

balance 	1.05 shift z 10 1.05
Balancing ...
Neighbor list info ...
  update every 1 steps, delay 10 steps, check yes
  max neighbors/atom: 2000, page size: 100000
  master list distance cutoff = 2.9
  ghost atom cutoff = 6.95
  binsize = 1.45, bins = 111 111 221
  1 neighbor lists, perpetual/occasional/extra = 1 0 0
  (1) pair lj/cut/opt, perpetual
      attributes: half, newton on
      pair build: half/bin/newton
      stencil: half/bin/3d/newton
      bin: standard
 rebalancing time: 0.034 seconds
  iteration count = 5
  initial/final maximal load/proc = 29955.000 23345.000
  initial/final imbalance factor  = 1.6982043 1.3234712
  x cuts: 0.0000000 0.20000000 0.40000000 0.60000000 0.80000000 1.0000000
  y cuts: 0.0000000 0.25000000 0.50000000 0.75000000 1.0000000
  z cuts: 0.0000000 0.054687500 0.10156250 0.15104167 0.20312500 0.25520833 0.32031250 0.37239583 0.42447917 0.46875000 0.53125000 0.59375000 1.0000000

####################### WALLS ###########################

variable       epsilonWall equal 2*${epsilon}
variable       epsilonWall equal 2*1

variable       cutoffTop   equal   0.7147*${sigma}
variable       cutoffTop   equal   0.7147*1

variable       cutoffLow   equal   3*${sigma}
variable       cutoffLow   equal   3*1

region         lowWall block EDGE EDGE EDGE EDGE EDGE 2


fix            topWall all wall/lj93 zhi EDGE 	       ${epsilonWall} ${sigma} ${cutoffTop} units box
fix            topWall all wall/lj93 zhi EDGE 	       2 ${sigma} ${cutoffTop} units box
fix            topWall all wall/lj93 zhi EDGE 	       2 1 ${cutoffTop} units box
fix            topWall all wall/lj93 zhi EDGE 	       2 1 0.7147 units box

fix            lowWall all wall/lj93 zlo EDGE                ${epsilonWall} ${sigma} ${cutoffLow} units box
fix            lowWall all wall/lj93 zlo EDGE                2 ${sigma} ${cutoffLow} units box
fix            lowWall all wall/lj93 zlo EDGE                2 1 ${cutoffLow} units box
fix            lowWall all wall/lj93 zlo EDGE                2 1 3 units box


######################  FIXES ############################


fix             1 cubes rigid/nve/small molecule #temp 1.0 1.0 0.25
  create bodies CPU = 0.004 seconds
  512 rigid bodies with 585216 atoms
  6.9282032 = max distance from body owner to body atom

fix             2 solvent nve


## Thermostat

region          regthermo block EDGE EDGE EDGE EDGE 0 20

group           thermo dynamic solvent region regthermo every 1000
dynamic group thermo defined

fix             3 thermo langevin ${startTemp} ${temp} 0.1 156453
fix             3 thermo langevin 0.8 ${temp} 0.1 156453
fix             3 thermo langevin 0.8 0.8 0.1 156453




#### Load balancing

fix             bal all balance 1000 1.05 shift z 10 1.05

############### Diagnostics and computes ###################

compute        com cubes          rigid/local   1 mol x y z
compute        quat cubes         rigid/local   1 mol quatw quati quatj quatk
compute 	cc2 cubes chunk/atom molecule

compute 	msd cubes msd/chunk cc2

thermo          1000
thermo_style    custom step temp epair evdwl etotal press pe ke vol

dump            1 all custom 100000 dump.lammpstrj id mol type x y z
dump            2 all image 10000 image.*.png type type

dump_modify     2 pad 8


dump		image cubes image 10000 image.*.png type type

dump_modify	2 pad 8

dump            3 all movie 5000 movie.avi type type
dump           com cubes local 1000 dump.*.xyz c_com[*]
dump           quat cubes      local 1000 dump.*.quat c_quat[*]


restart         500000 restart.dat
timestep        0.005
timer           full
New timer settings: style=full  mode=nosync  timeout=off

run            1000000
Per MPI rank memory allocation (min/avg/max) = 43.28 | 57.99 | 67.36 Mbytes
Step Temp E_pair E_vdwl TotEng Press PotEng KinEng Volume 
       0   0.77232217   -3.9085463   -3.9085463   -2.9099288 -0.011748461   -3.9085463   0.99861749      8192000 
    1000   0.77965081   -3.8933459   -3.8933459   -2.8852524 -0.013217809   -3.8933459    1.0080935      8192000 
    2000   0.78024932   -3.8911876   -3.8911876   -2.8823203  -0.01311548   -3.8911876    1.0088673      8192000 
    3000   0.78207992   -3.8913737   -3.8913737   -2.8801394 -0.0090582632   -3.8913737    1.0112343      8192000 
    4000    0.7846843   -3.8933325   -3.8933325   -2.8787307 -0.0050914074   -3.8933325    1.0146018      8192000 
    5000    0.7866819    -3.894687    -3.894687   -2.8775023 0.0069200802    -3.894687    1.0171847      8192000 
    6000   0.78906862   -3.8967911   -3.8967911   -2.8765203  0.017292526   -3.8967911    1.0202708      8192000 
    7000   0.79151729   -3.8993544   -3.8993544   -2.8759175  0.023448071   -3.8993544    1.0234369      8192000 
    8000   0.79411342   -3.9020402   -3.9020402   -2.8752465  0.035478535   -3.9020402    1.0267937      8192000 
    9000   0.79561561    -3.903737    -3.903737    -2.875001  0.044965598    -3.903737    1.0287361      8192000 
   10000   0.79647114   -3.9043691   -3.9043691   -2.8745269  0.050348888   -3.9043691    1.0298423      8192000 
   11000   0.79711853   -3.9048575   -3.9048575   -2.8741782  0.051240239   -3.9048575    1.0306793      8192000 
   12000   0.79763242   -3.9057322   -3.9057322   -2.8743884  0.054724928   -3.9057322    1.0313438      8192000 
   13000   0.79883908   -3.9070539   -3.9070539   -2.8741498  0.056920139   -3.9070539     1.032904      8192000 
   14000   0.79916894   -3.9076472   -3.9076472   -2.8743166  0.063225084   -3.9076472    1.0333305      8192000 
   15000   0.79944736   -3.9082705   -3.9082705     -2.87458  0.066004754   -3.9082705    1.0336905      8192000 
   16000     0.799678   -3.9087043   -3.9087043   -2.8747156  0.065198954   -3.9087043    1.0339888      8192000 
   17000   0.79965313    -3.908299    -3.908299   -2.8743424  0.062815536    -3.908299    1.0339566      8192000 
   18000   0.79932801   -3.9077262   -3.9077262     -2.87419   0.06309931   -3.9077262    1.0335362      8192000 
   19000   0.79848954   -3.9060931   -3.9060931    -2.873641  0.060127624   -3.9060931    1.0324521      8192000 
   20000   0.79829448   -3.9046347   -3.9046347   -2.8724349  0.059304473   -3.9046347    1.0321999      8192000 
   21000   0.79769681   -3.9034914   -3.9034914   -2.8720643   0.05311294   -3.9034914    1.0314271      8192000 
   22000   0.79727153   -3.9024208   -3.9024208   -2.8715436  0.043657576   -3.9024208    1.0308772      8192000 
   23000   0.79473219   -3.8986863   -3.8986863   -2.8710925  0.042398549   -3.8986863    1.0275938      8192000 
   24000   0.79361425   -3.8964418   -3.8964418   -2.8702935  0.032687107   -3.8964418    1.0261483      8192000 
   25000   0.79202897   -3.8937815   -3.8937815    -2.869683  0.025616729   -3.8937815    1.0240985      8192000 
   26000   0.79103627   -3.8920861   -3.8920861   -2.8692711  0.016261722   -3.8920861    1.0228149      8192000 
   27000   0.79012598   -3.8901031   -3.8901031   -2.8684652  0.013181734   -3.8901031    1.0216379      8192000 
   28000   0.78939802   -3.8883307   -3.8883307    -2.867634 0.0087860237   -3.8883307    1.0206967      8192000 
   29000   0.78872908   -3.8867397   -3.8867397    -2.866908  0.005890268   -3.8867397    1.0198317      8192000 
   30000   0.78840225    -3.885524    -3.885524   -2.8661149 0.0041510881    -3.885524    1.0194091      8192000 
   31000   0.78804437   -3.8841365   -3.8841365   -2.8651901 -0.00069942031   -3.8841365    1.0189464      8192000 
   32000   0.78721812   -3.8821844   -3.8821844   -2.8643063 -0.0027593406   -3.8821844     1.017878      8192000 
   33000   0.78772848   -3.8816617   -3.8816617   -2.8631237 -0.0039078004   -3.8816617    1.0185379      8192000 
   34000   0.78774866   -3.8813859   -3.8813859   -2.8628218 -0.0042231884   -3.8813859     1.018564      8192000 
   35000   0.78755485   -3.8807034   -3.8807034   -2.8623899 -0.0054104771   -3.8807034    1.0183134      8192000 
   36000    0.7881316   -3.8809156   -3.8809156   -2.8618565 -0.0050874179   -3.8809156    1.0190592      8192000 
   37000   0.78875819   -3.8813092   -3.8813092   -2.8614399 0.00097691881   -3.8813092    1.0198694      8192000 
   38000   0.78881238   -3.8813113   -3.8813113   -2.8613719 0.00081725628   -3.8813113    1.0199394      8192000 
   39000   0.78994679    -3.882012    -3.882012   -2.8606058 0.0036135126    -3.882012    1.0214062      8192000 
   40000   0.79028737   -3.8823383   -3.8823383   -2.8604917 0.0083812389   -3.8823383    1.0218466      8192000 
   41000   0.79159954   -3.8836952   -3.8836952    -2.860152  0.012186382   -3.8836952    1.0235433      8192000 
   42000   0.79234623   -3.8849121   -3.8849121   -2.8604034  0.017055649   -3.8849121    1.0245087      8192000 
   43000   0.79367547   -3.8863004   -3.8863004    -2.860073  0.021988329   -3.8863004    1.0262274      8192000 
   44000   0.79447777   -3.8873021   -3.8873021   -2.8600373  0.028095895   -3.8873021    1.0272648      8192000 
   45000   0.79553793   -3.8885543   -3.8885543   -2.8599187  0.030694562   -3.8885543    1.0286356      8192000 
   46000   0.79638268   -3.8896471   -3.8896471   -2.8599192  0.035229001   -3.8896471    1.0297279      8192000 
   47000    0.7969944   -3.8904649   -3.8904649    -2.859946  0.040714367   -3.8904649    1.0305188      8192000 
   48000   0.79726225   -3.8909009   -3.8909009   -2.8600357  0.042068034   -3.8909009    1.0308652      8192000 
   49000   0.79811277   -3.8922951   -3.8922951   -2.8603302  0.040711919   -3.8922951    1.0319649      8192000 
   50000   0.79849015   -3.8930812   -3.8930812   -2.8606283  0.043463534   -3.8930812    1.0324529      8192000 
   51000   0.79807124   -3.8927203   -3.8927203   -2.8608091  0.046389966   -3.8927203    1.0319112      8192000 
   52000   0.79843148   -3.8928432   -3.8928432   -2.8604662  0.045911475   -3.8928432     1.032377      8192000 
   53000   0.79824217   -3.8932301   -3.8932301   -2.8610979  0.047422643   -3.8932301    1.0321322      8192000 
   54000   0.79798004   -3.8931557   -3.8931557   -2.8613624  0.045084089   -3.8931557    1.0317933      8192000 
   55000   0.79788486   -3.8925817   -3.8925817   -2.8609115  0.043641793   -3.8925817    1.0316702      8192000 
   56000   0.79776699   -3.8921574   -3.8921574   -2.8606396  0.041885017   -3.8921574    1.0315178      8192000 
   57000   0.79706114   -3.8915006   -3.8915006   -2.8608955  0.040205516   -3.8915006    1.0306051      8192000 
   58000   0.79658202    -3.890542    -3.890542   -2.8605563  0.039840256    -3.890542    1.0299856      8192000 
   59000    0.7961307   -3.8898042   -3.8898042   -2.8604021  0.032581092   -3.8898042    1.0294021      8192000 
   60000   0.79541875    -3.888102    -3.888102   -2.8596205   0.02825336    -3.888102    1.0284815      8192000 
   61000   0.79436726   -3.8865798   -3.8865798   -2.8594578  0.027682893   -3.8865798    1.0271219      8192000 
   62000   0.79396274   -3.8859786   -3.8859786   -2.8593797  0.023852934   -3.8859786    1.0265989      8192000 
   63000   0.79350568   -3.8846425   -3.8846425   -2.8586346  0.020945368   -3.8846425    1.0260079      8192000 
   64000   0.79281675   -3.8833012   -3.8833012   -2.8581841    0.0213374   -3.8833012    1.0251171      8192000 
   65000   0.79265324   -3.8827151   -3.8827151   -2.8578094  0.017589294   -3.8827151    1.0249057      8192000 
   66000   0.79184034   -3.8816657   -3.8816657   -2.8578111  0.015561115   -3.8816657    1.0238546      8192000 
   67000   0.79170345    -3.880935    -3.880935   -2.8572574  0.014434153    -3.880935    1.0236776      8192000 
   68000   0.79203359     -3.88076     -3.88076   -2.8566555  0.011030509     -3.88076    1.0241045      8192000 
   69000     0.791313   -3.8791477   -3.8791477   -2.8559749   0.01357629   -3.8791477    1.0231728      8192000 
   70000   0.79164348    -3.879468    -3.879468   -2.8558679  0.011434487    -3.879468    1.0236001      8192000 
   71000   0.79192372   -3.8792941   -3.8792941   -2.8553317  0.011845502   -3.8792941    1.0239624      8192000 
   72000   0.79187732   -3.8794916   -3.8794916   -2.8555892 0.0089176008   -3.8794916    1.0239024      8192000 
   73000   0.79178237   -3.8786219   -3.8786219   -2.8548422   0.01023339   -3.8786219    1.0237796      8192000 
   74000   0.79203932   -3.8787613   -3.8787613   -2.8546494  0.011421725   -3.8787613    1.0241119      8192000 
   75000   0.79218047   -3.8790137   -3.8790137   -2.8547193  0.014873288   -3.8790137    1.0242944      8192000 
   76000   0.79311342   -3.8800075   -3.8800075   -2.8545068  0.014416037   -3.8800075    1.0255007      8192000 
   77000   0.79323852   -3.8801878   -3.8801878   -2.8545254  0.018896526   -3.8801878    1.0256625      8192000 
   78000   0.79378685     -3.88084     -3.88084   -2.8544685   0.02022391     -3.88084    1.0263715      8192000 
   79000   0.79463302   -3.8819854   -3.8819854   -2.8545198  0.020717392   -3.8819854    1.0274656      8192000 
   80000    0.7952755   -3.8827408   -3.8827408   -2.8544445  0.024057795   -3.8827408    1.0282963      8192000 
   81000   0.79533928   -3.8832452   -3.8832452   -2.8548664  0.028088231   -3.8832452    1.0283788      8192000 
   82000   0.79582578   -3.8834319   -3.8834319   -2.8544241  0.030339784   -3.8834319    1.0290078      8192000 
   83000   0.79643254   -3.8842912   -3.8842912   -2.8544989  0.033122422   -3.8842912    1.0297924      8192000 
   84000   0.79678223   -3.8847908   -3.8847908   -2.8545463  0.032960055   -3.8847908    1.0302445      8192000 
   85000   0.79663483    -3.884823    -3.884823   -2.8547691  0.034773491    -3.884823    1.0300539      8192000 
   86000   0.79720743   -3.8855144   -3.8855144   -2.8547201  0.032902985   -3.8855144    1.0307943      8192000 
   87000   0.79668132   -3.8849908   -3.8849908   -2.8548768  0.037231316   -3.8849908     1.030114      8192000 
   88000   0.79758729    -3.885986    -3.885986   -2.8547006  0.036750097    -3.885986    1.0312855      8192000 
   89000   0.79749211   -3.8858555   -3.8858555   -2.8546931  0.037437224   -3.8858555    1.0311624      8192000 
   90000   0.79739009   -3.8859132   -3.8859132   -2.8548827  0.037191166   -3.8859132    1.0310305      8192000 
   91000   0.79723925   -3.8858971   -3.8858971   -2.8550616  0.036306002   -3.8858971    1.0308354      8192000 
   92000   0.79711773   -3.8854474   -3.8854474   -2.8547691  0.037869788   -3.8854474    1.0306783      8192000 
   93000   0.79671348   -3.8849748   -3.8849748   -2.8548192  0.035059214   -3.8849748    1.0301556      8192000 
   94000   0.79655837   -3.8845475   -3.8845475   -2.8545924  0.033239361   -3.8845475     1.029955      8192000 
   95000    0.7965945   -3.8843638   -3.8843638   -2.8543621  0.034633355   -3.8843638    1.0300018      8192000 
   96000   0.79598138   -3.8832599   -3.8832599   -2.8540509  0.032125555   -3.8832599     1.029209      8192000 
   97000   0.79562932    -3.882935    -3.882935   -2.8541812  0.027804233    -3.882935    1.0287538      8192000 
   98000   0.79476494   -3.8815818   -3.8815818   -2.8539457   0.02509608   -3.8815818    1.0276361      8192000 
   99000   0.79494914   -3.8818334   -3.8818334   -2.8539591  0.022343646   -3.8818334    1.0278743      8192000 
  100000   0.79457539   -3.8809456   -3.8809456   -2.8535545  0.022553425   -3.8809456    1.0273911      8192000 
  101000   0.79443925   -3.8803783   -3.8803783   -2.8531633  0.020567432   -3.8803783     1.027215      8192000 
  102000   0.79351872   -3.8791755   -3.8791755   -2.8531508  0.018269089   -3.8791755    1.0260248      8192000 
  103000   0.79405153   -3.8789224   -3.8789224   -2.8522087  0.021286042   -3.8789224    1.0267137      8192000 
  104000   0.79405375   -3.8787433   -3.8787433   -2.8520267  0.020583142   -3.8787433    1.0267166      8192000 
  105000   0.79398124   -3.8788459   -3.8788459    -2.852223  0.015568945   -3.8788459    1.0266228      8192000 
  106000   0.79369308   -3.8783254   -3.8783254   -2.8520751  0.015059147   -3.8783254    1.0262502      8192000 
  107000   0.79318053   -3.8771046   -3.8771046   -2.8515171  0.015899181   -3.8771046    1.0255875      8192000 
  108000   0.79340357   -3.8772726   -3.8772726   -2.8513967  0.015430444   -3.8772726    1.0258759      8192000 
  109000    0.7933631   -3.8770612   -3.8770612   -2.8512376  0.015132127   -3.8770612    1.0258235      8192000 
  110000   0.79316649   -3.8766392   -3.8766392   -2.8510699  0.015466089   -3.8766392    1.0255693      8192000 
  111000    0.7937558    -3.877554    -3.877554   -2.8512227  0.014804181    -3.877554    1.0263313      8192000 
  112000   0.79439024   -3.8775405   -3.8775405   -2.8503888  0.017312068   -3.8775405    1.0271517      8192000 
  113000   0.79421322   -3.8777295   -3.8777295   -2.8508067  0.017139449   -3.8777295    1.0269228      8192000 
  114000   0.79491418   -3.8782677   -3.8782677   -2.8504386  0.021518885   -3.8782677    1.0278291      8192000 
  115000   0.79518232   -3.8790186   -3.8790186   -2.8508428  0.023368852   -3.8790186    1.0281758      8192000 
  116000   0.79593975   -3.8798976   -3.8798976   -2.8507424  0.022461177   -3.8798976    1.0291552      8192000 
  117000   0.79557225   -3.8792167   -3.8792167   -2.8505368   0.02697525   -3.8792167      1.02868      8192000 
  118000   0.79632452   -3.8798886   -3.8798886   -2.8502359  0.025646978   -3.8798886    1.0296527      8192000 
  119000   0.79589821   -3.8796988   -3.8796988   -2.8505973  0.030296517   -3.8796988    1.0291015      8192000 
  120000   0.79598927   -3.8799177   -3.8799177   -2.8506985  0.030249531   -3.8799177    1.0292192      8192000 
  121000   0.79612672    -3.880054    -3.880054   -2.8506571  0.031274196    -3.880054    1.0293969      8192000 
  122000   0.79677302   -3.8811395   -3.8811395   -2.8509069  0.028453141   -3.8811395    1.0302326      8192000 
  123000   0.79702402   -3.8812772   -3.8812772   -2.8507201  0.029545558   -3.8812772    1.0305571      8192000 
  124000   0.79679262   -3.8811384   -3.8811384   -2.8508805  0.031007043   -3.8811384    1.0302579      8192000 
  125000   0.79715904    -3.881355    -3.881355   -2.8506233  0.030996701    -3.881355    1.0307317      8192000 
  126000   0.79736069   -3.8822564   -3.8822564   -2.8512639  0.032674387   -3.8822564    1.0309925      8192000 
  127000   0.79714192   -3.8816336   -3.8816336    -2.850924  0.032844725   -3.8816336    1.0307096      8192000 
  128000   0.79713019   -3.8811344   -3.8811344   -2.8504399  0.030265226   -3.8811344    1.0306944      8192000 
  129000   0.79705042   -3.8811343   -3.8811343    -2.850543  0.031730295   -3.8811343    1.0305913      8192000 
  130000   0.79665395   -3.8809078   -3.8809078   -2.8508292  0.032074543   -3.8809078    1.0300786      8192000 
  131000   0.79647847   -3.8806307   -3.8806307   -2.8507789  0.030280386   -3.8806307    1.0298517      8192000 
  132000   0.79648672   -3.8805089   -3.8805089   -2.8506465    0.0281998   -3.8805089    1.0298624      8192000 
  133000   0.79585073   -3.8792144   -3.8792144   -2.8501743  0.026570461   -3.8792144    1.0290401      8192000 
  134000   0.79629725   -3.8798881   -3.8798881   -2.8502707  0.025010579   -3.8798881    1.0296174      8192000 
  135000   0.79563259   -3.8792011   -3.8792011    -2.850443  0.025881038   -3.8792011     1.028758      8192000 
  136000   0.79520379   -3.8783367   -3.8783367   -2.8501331  0.025686994   -3.8783367    1.0282036      8192000 
  137000   0.79567607   -3.8783318   -3.8783318   -2.8495175  0.023095864   -3.8783318    1.0288142      8192000 
  138000   0.79499273   -3.8775179   -3.8775179   -2.8495872  0.023064754   -3.8775179    1.0279307      8192000 
  139000   0.79490537   -3.8770987   -3.8770987    -2.849281  0.021429045   -3.8770987    1.0278177      8192000 
  140000   0.79525714   -3.8777225   -3.8777225   -2.8494499  0.021847464   -3.8777225    1.0282726      8192000 
  141000    0.7947334   -3.8770453   -3.8770453   -2.8494499  0.021682575   -3.8770453    1.0275954      8192000 
  142000   0.79495192   -3.8768009   -3.8768009    -2.848923  0.021512307   -3.8768009    1.0278779      8192000 
  143000    0.7949538   -3.8764755   -3.8764755   -2.8485952   0.01825684   -3.8764755    1.0278803      8192000 
  144000   0.79479126   -3.8763011   -3.8763011    -2.848631  0.018434251   -3.8763011    1.0276702      8192000 
  145000   0.79488421   -3.8763857   -3.8763857   -2.8485954  0.016194347   -3.8763857    1.0277903      8192000 
  146000   0.79479086   -3.8762916   -3.8762916    -2.848622  0.020246682   -3.8762916    1.0276696      8192000 
  147000   0.79514453   -3.8763998   -3.8763998   -2.8482728  0.018087509   -3.8763998     1.028127      8192000 
  148000    0.7950665    -3.875845    -3.875845   -2.8478189  0.020364176    -3.875845    1.0280261      8192000 
  149000   0.79553996   -3.8765747   -3.8765747   -2.8479364  0.020451207   -3.8765747    1.0286382      8192000 
  150000   0.79602936   -3.8770005   -3.8770005   -2.8477295  0.024822406   -3.8770005     1.029271      8192000 
  151000   0.79548013   -3.8767244   -3.8767244   -2.8481635  0.022873177   -3.8767244    1.0285609      8192000 
  152000   0.79527261   -3.8763875   -3.8763875   -2.8480949  0.024997312   -3.8763875    1.0282926      8192000 
  153000   0.79567505   -3.8766849   -3.8766849    -2.847872   0.02267654   -3.8766849    1.0288129      8192000 
  154000   0.79619095   -3.8769803   -3.8769803   -2.8475004  0.024068254   -3.8769803      1.02948      8192000 
  155000   0.79602359   -3.8773111   -3.8773111   -2.8480475  0.022655786   -3.8773111    1.0292636      8192000 
  156000   0.79655815   -3.8775927   -3.8775927   -2.8476379  0.024622575   -3.8775927    1.0299548      8192000 
  157000   0.79615249   -3.8775245   -3.8775245   -2.8480943  0.026054999   -3.8775245    1.0294303      8192000 
  158000   0.79605619   -3.8775373   -3.8775373   -2.8482316  0.024707983   -3.8775373    1.0293057      8192000 
  159000    0.7963804   -3.8774716   -3.8774716   -2.8477466  0.027287229   -3.8774716    1.0297249      8192000 
  160000   0.79665453   -3.8778505   -3.8778505   -2.8477711  0.029461727   -3.8778505    1.0300794      8192000 
  161000    0.7968434   -3.8781431   -3.8781431   -2.8478195  0.028937661   -3.8781431    1.0303236      8192000 
  162000   0.79687415   -3.8782851   -3.8782851   -2.8479218  0.028568883   -3.8782851    1.0303634      8192000 
  163000   0.79707191   -3.8783862   -3.8783862   -2.8477672  0.027634108   -3.8783862    1.0306191      8192000 
  164000   0.79721861   -3.8784642   -3.8784642   -2.8476554    0.0283019   -3.8784642    1.0308087      8192000 
  165000   0.79677619   -3.8778697   -3.8778697    -2.847633  0.029150971   -3.8778697    1.0302367      8192000 
  166000   0.79628597   -3.8776479   -3.8776479   -2.8480451  0.030171144   -3.8776479    1.0296028      8192000 
  167000   0.79694639   -3.8781439   -3.8781439   -2.8476871  0.025992992   -3.8781439    1.0304568      8192000 
  168000   0.79632536   -3.8775068   -3.8775068    -2.847853  0.024644832   -3.8775068    1.0296538      8192000 
  169000   0.79635736   -3.8770291   -3.8770291   -2.8473339  0.026221606   -3.8770291    1.0296951      8192000 
  170000    0.7961682   -3.8769949   -3.8769949   -2.8475444  0.025112426   -3.8769949    1.0294506      8192000 
  171000   0.79617056   -3.8771307   -3.8771307   -2.8476771  0.022442143   -3.8771307    1.0294536      8192000 
  172000   0.79609677   -3.8770584   -3.8770584   -2.8477002  0.027826179   -3.8770584    1.0293582      8192000 
  173000   0.79576924   -3.8768903   -3.8768903   -2.8479555  0.024371085   -3.8768903    1.0289347      8192000 
  174000   0.79654932   -3.8771118   -3.8771118   -2.8471684  0.025871194   -3.8771118    1.0299434      8192000 
  175000   0.79571298   -3.8759864   -3.8759864   -2.8471245  0.025735951   -3.8759864     1.028862      8192000 
  176000   0.79606784   -3.8762235   -3.8762235   -2.8469027  0.024514269   -3.8762235    1.0293208      8192000 
  177000   0.79576963   -3.8759627   -3.8759627   -2.8470274  0.024858595   -3.8759627    1.0289352      8192000 
  178000   0.79528964   -3.8755351   -3.8755351   -2.8472205  0.022601674   -3.8755351    1.0283146      8192000 
  179000   0.79548053   -3.8758621   -3.8758621   -2.8473007  0.023075829   -3.8758621    1.0285614      8192000 
  180000   0.79539462   -3.8753996   -3.8753996   -2.8469493   0.02263036   -3.8753996    1.0284503      8192000 
  181000   0.79515054   -3.8753037   -3.8753037    -2.847169  0.022260484   -3.8753037    1.0281347      8192000 
  182000   0.79503548   -3.8756833   -3.8756833   -2.8476973  0.021397612   -3.8756833    1.0279859      8192000 
  183000   0.79525562   -3.8753173   -3.8753173   -2.8470467  0.024280185   -3.8753173    1.0282706      8192000 
  184000   0.79552281   -3.8755665   -3.8755665   -2.8469505  0.024145464   -3.8755665    1.0286161      8192000 
  185000   0.79540743   -3.8754203   -3.8754203   -2.8469534  0.022634947   -3.8754203    1.0284669      8192000 
  186000   0.79542045   -3.8756397   -3.8756397    -2.847156  0.020862854   -3.8756397    1.0284837      8192000 
  187000   0.79591384   -3.8757079   -3.8757079   -2.8465862  0.023385126   -3.8757079    1.0291217      8192000 
  188000   0.79594801   -3.8760797   -3.8760797   -2.8469138  0.023352141   -3.8760797    1.0291659      8192000 
  189000   0.79632605   -3.8764889   -3.8764889   -2.8468342  0.022359821   -3.8764889    1.0296547      8192000 
  190000   0.79569262    -3.875861    -3.875861   -2.8470254  0.027180258    -3.875861    1.0288356      8192000 
  191000   0.79599583   -3.8757003   -3.8757003   -2.8464726  0.024325071   -3.8757003    1.0292277      8192000 
  192000   0.79641011   -3.8764481   -3.8764481   -2.8466848  0.022568152   -3.8764481    1.0297634      8192000 
  193000   0.79630417    -3.876529    -3.876529   -2.8469026  0.023307836    -3.876529    1.0296264      8192000 
  194000   0.79634613   -3.8764199   -3.8764199   -2.8467393  0.027488423   -3.8764199    1.0296806      8192000 
  195000   0.79673387   -3.8768899   -3.8768899   -2.8467079  0.026042959   -3.8768899     1.030182      8192000 
  196000   0.79643499   -3.8766362   -3.8766362   -2.8468407  0.030280553   -3.8766362    1.0297955      8192000 
  197000   0.79635208   -3.8771748   -3.8771748   -2.8474865   0.02927594   -3.8771748    1.0296883      8192000 
  198000   0.79661379   -3.8770754   -3.8770754   -2.8470487  0.029132828   -3.8770754    1.0300267      8192000 
  199000   0.79652798   -3.8769601   -3.8769601   -2.8470443  0.027897428   -3.8769601    1.0299158      8192000 
  200000   0.79653458   -3.8768318   -3.8768318   -2.8469075  0.027809672   -3.8768318    1.0299243      8192000 
  201000   0.79625139   -3.8766716   -3.8766716   -2.8471135  0.028892023   -3.8766716    1.0295581      8192000 
  202000   0.79651466   -3.8771156   -3.8771156   -2.8472171  0.030287236   -3.8771156    1.0298985      8192000 
  203000   0.79643129   -3.8772438   -3.8772438    -2.847453  0.026301251   -3.8772438    1.0297907      8192000 
  204000    0.7964756   -3.8768789   -3.8768789   -2.8470309   0.02920792   -3.8768789     1.029848      8192000 
  205000   0.79655242   -3.8766256   -3.8766256   -2.8466782  0.029095477   -3.8766256    1.0299474      8192000 
  206000   0.79641396   -3.8766589   -3.8766589   -2.8468906  0.027612688   -3.8766589    1.0297683      8192000 
  207000   0.79626431   -3.8766503   -3.8766503   -2.8470755  0.027301592   -3.8766503    1.0295748      8192000 
  208000   0.79640817   -3.8766062   -3.8766062   -2.8468454  0.027457986   -3.8766062    1.0297608      8192000 
  209000   0.79641622    -3.876451    -3.876451   -2.8466798  0.025398911    -3.876451    1.0297713      8192000 
  210000    0.7960139   -3.8760795   -3.8760795   -2.8468285  0.023335497   -3.8760795    1.0292511      8192000 
  211000   0.79613602   -3.8757511   -3.8757511   -2.8463421  0.026184664   -3.8757511    1.0294089      8192000 
  212000   0.79594926   -3.8756625   -3.8756625    -2.846495  0.027905868   -3.8756625    1.0291675      8192000 
  213000   0.79588282    -3.875687    -3.875687   -2.8466054  0.024241149    -3.875687    1.0290816      8192000 
  214000   0.79588674   -3.8757363   -3.8757363   -2.8466497  0.024619636   -3.8757363    1.0290866      8192000 
  215000   0.79627615   -3.8755437   -3.8755437   -2.8459535  0.024874318   -3.8755437    1.0295901      8192000 
  216000    0.7962088   -3.8756359   -3.8756359   -2.8461328  0.024765792   -3.8756359    1.0295031      8192000 
  217000   0.79620639   -3.8753611   -3.8753611   -2.8458612  0.026459422   -3.8753611    1.0294999      8192000 
  218000   0.79576489   -3.8752455   -3.8752455   -2.8463164  0.021948566   -3.8752455    1.0289291      8192000 
  219000   0.79566662   -3.8751643   -3.8751643   -2.8463623  0.024866049   -3.8751643     1.028802      8192000 
  220000   0.79599065   -3.8753438   -3.8753438   -2.8461228  0.020009368   -3.8753438     1.029221      8192000 
  221000   0.79573225   -3.8746795   -3.8746795   -2.8457926  0.024459651   -3.8746795    1.0288869      8192000 
  222000   0.79576089    -3.874745    -3.874745   -2.8458211  0.022263593    -3.874745    1.0289239      8192000 
  223000   0.79550434   -3.8746012   -3.8746012    -2.846009  0.023710883   -3.8746012    1.0285922      8192000 
  224000   0.79592542   -3.8746559   -3.8746559   -2.8455192  0.023644986   -3.8746559    1.0291366      8192000 
  225000   0.79647497   -3.8751634   -3.8751634   -2.8453162  0.025326883   -3.8751634    1.0298472      8192000 
  226000   0.79604264   -3.8750037   -3.8750037   -2.8457155  0.026093703   -3.8750037    1.0292882      8192000 
  227000   0.79614407    -3.875209    -3.875209   -2.8457896   0.02335589    -3.875209    1.0294194      8192000 
  228000   0.79641806   -3.8753789   -3.8753789   -2.8456053  0.023711301   -3.8753789    1.0297736      8192000 
  229000   0.79625431   -3.8749322   -3.8749322   -2.8453703  0.024249653   -3.8749322    1.0295619      8192000 
  230000   0.79616852   -3.8748841   -3.8748841   -2.8454331   0.02549956   -3.8748841     1.029451      8192000 
  231000     0.796191   -3.8752499   -3.8752499   -2.8457698  0.022924544   -3.8752499      1.02948      8192000 
  232000   0.79610215   -3.8749428   -3.8749428   -2.8455776  0.027067843   -3.8749428    1.0293652      8192000 
  233000   0.79645335   -3.8748757   -3.8748757   -2.8450564  0.029082625   -3.8748757    1.0298193      8192000 
  234000   0.79624935    -3.875135    -3.875135   -2.8455795  0.027148536    -3.875135    1.0295555      8192000 
  235000   0.79659344   -3.8751139   -3.8751139   -2.8451135   0.02692746   -3.8751139    1.0300004      8192000 
  236000   0.79654316   -3.8752294   -3.8752294    -2.845294  0.025730824   -3.8752294    1.0299354      8192000 
  237000   0.79678633   -3.8753946   -3.8753946   -2.8451448  0.026084002   -3.8753946    1.0302498      8192000 
  238000   0.79664418   -3.8756096   -3.8756096   -2.8455436  0.026334794   -3.8756096     1.030066      8192000 
  239000   0.79670978   -3.8751696   -3.8751696   -2.8450188  0.028236887   -3.8751696    1.0301508      8192000 
  240000   0.79673765    -3.875478    -3.875478   -2.8452911   0.02599743    -3.875478    1.0301869      8192000 
  241000   0.79642606   -3.8751056   -3.8751056   -2.8453217  0.029159693   -3.8751056     1.029784      8192000 
  242000    0.7965301   -3.8750378   -3.8750378   -2.8451193   0.02667765   -3.8750378    1.0299185      8192000 
  243000   0.79636191   -3.8748968   -3.8748968   -2.8451957  0.028544609   -3.8748968     1.029701      8192000 
  244000   0.79614746   -3.8747861   -3.8747861   -2.8453624  0.028190972   -3.8747861    1.0294237      8192000 
  245000   0.79629854   -3.8751316   -3.8751316   -2.8455125   0.02397238   -3.8751316    1.0296191      8192000 
  246000     0.796654   -3.8751356   -3.8751356   -2.8450569  0.027818189   -3.8751356    1.0300787      8192000 
  247000   0.79584882   -3.8746613   -3.8746613   -2.8456237  0.024650484   -3.8746613    1.0290376      8192000 
  248000   0.79617461   -3.8748987   -3.8748987   -2.8454398  0.026029098   -3.8748987    1.0294589      8192000 
  249000   0.79648715   -3.8747036   -3.8747036   -2.8448407  0.025035967   -3.8747036     1.029863      8192000 
  250000   0.79630685   -3.8745632   -3.8745632   -2.8449333  0.026343549   -3.8745632    1.0296298      8192000 
  251000   0.79614398   -3.8744009   -3.8744009   -2.8449817  0.028194488   -3.8744009    1.0294192      8192000 
  252000   0.79662801   -3.8748496   -3.8748496   -2.8448045  0.022239049   -3.8748496    1.0300451      8192000 
  253000   0.79592782   -3.8745282   -3.8745282   -2.8453884  0.022216572   -3.8745282    1.0291398      8192000 
  254000   0.79592056   -3.8743295   -3.8743295   -2.8451991  0.021093739   -3.8743295    1.0291304      8192000 
  255000   0.79626452   -3.8743717   -3.8743717   -2.8447966  0.025851414   -3.8743717    1.0295751      8192000 
  256000    0.7964945   -3.8744942   -3.8744942   -2.8446217  0.022921014   -3.8744942    1.0298725      8192000 
  257000   0.79646246   -3.8743163   -3.8743163   -2.8444852  0.022262625   -3.8743163     1.029831      8192000 
  258000   0.79640983   -3.8741863   -3.8741863   -2.8444233  0.026778312   -3.8741863     1.029763      8192000 
  259000   0.79654201   -3.8744428   -3.8744428   -2.8445089  0.023320557   -3.8744428    1.0299339      8192000 
  260000   0.79648289   -3.8744248   -3.8744248   -2.8445674  0.024537459   -3.8744248    1.0298575      8192000 
  261000   0.79655588   -3.8744806   -3.8744806   -2.8445287  0.022915067   -3.8744806    1.0299518      8192000 
  262000   0.79638925   -3.8738893   -3.8738893   -2.8441529  0.026322027   -3.8738893    1.0297364      8192000 
  263000   0.79614394   -3.8737739   -3.8737739   -2.8443548  0.025328994   -3.8737739    1.0294192      8192000 
  264000     0.795885   -3.8736026   -3.8736026   -2.8445182  0.021773087   -3.8736026    1.0290844      8192000 
  265000   0.79623237   -3.8740561   -3.8740561   -2.8445225   0.02523108   -3.8740561    1.0295335      8192000 
  266000   0.79624114   -3.8740007   -3.8740007   -2.8444558  0.024093803   -3.8740007    1.0295449      8192000 
  267000   0.79633536    -3.874201    -3.874201   -2.8445343  0.023054462    -3.874201    1.0296667      8192000 
  268000   0.79645673   -3.8744375   -3.8744375   -2.8446138  0.024568381   -3.8744375    1.0298236      8192000 
  269000    0.7966036     -3.87429     -3.87429   -2.8442765  0.023610547     -3.87429    1.0300135      8192000 
  270000   0.79641957   -3.8740233   -3.8740233   -2.8442477  0.025778933   -3.8740233    1.0297756      8192000 
  271000   0.79624519   -3.8741948   -3.8741948   -2.8446447  0.026820477   -3.8741948    1.0295501      8192000 
  272000    0.7957792   -3.8735609   -3.8735609   -2.8446133  0.027335441   -3.8735609    1.0289476      8192000 
  273000   0.79614039   -3.8740489   -3.8740489   -2.8446343  0.022191076   -3.8740489    1.0294146      8192000 
  274000   0.79616962    -3.873766    -3.873766   -2.8443136   0.02750695    -3.873766    1.0294524      8192000 
  275000   0.79660603    -3.874288    -3.874288   -2.8442713   0.02479437    -3.874288    1.0300167      8192000 
  276000   0.79682177   -3.8743404   -3.8743404   -2.8440448  0.027760226   -3.8743404    1.0302956      8192000 
  277000   0.79679202   -3.8746708   -3.8746708   -2.8444137  0.025893248   -3.8746708    1.0302572      8192000 
  278000   0.79661641    -3.874409    -3.874409   -2.8443789  0.026060692    -3.874409    1.0300301      8192000 
  279000   0.79673553   -3.8744162   -3.8744162   -2.8442321  0.026965431   -3.8744162    1.0301841      8192000 
  280000   0.79679354   -3.8750684   -3.8750684   -2.8448092  0.027550321   -3.8750684    1.0302591      8192000 
  281000   0.79654762   -3.8742387   -3.8742387   -2.8442975  0.029145837   -3.8742387    1.0299412      8192000 
  282000   0.79664121   -3.8741156   -3.8741156   -2.8440534  0.027565487   -3.8741156    1.0300622      8192000 
  283000   0.79654551   -3.8738873   -3.8738873   -2.8439489  0.026507089   -3.8738873    1.0299384      8192000 
  284000   0.79640054   -3.8741389   -3.8741389    -2.844388  0.025053118   -3.8741389     1.029751      8192000 
  285000   0.79667745   -3.8742302   -3.8742302   -2.8441212  0.026538509   -3.8742302     1.030109      8192000 
  286000   0.79606271    -3.873735    -3.873735   -2.8444208  0.026648383    -3.873735    1.0293142      8192000 
  287000    0.7967351   -3.8742048   -3.8742048   -2.8440213  0.026688662   -3.8742048    1.0301836      8192000 
  288000   0.79681497   -3.8741414   -3.8741414   -2.8438546   0.02746609   -3.8741414    1.0302868      8192000 
  289000   0.79654157   -3.8741372   -3.8741372   -2.8442039  0.028126464   -3.8741372    1.0299333      8192000 
  290000   0.79631506   -3.8737384   -3.8737384   -2.8440979  0.026188711   -3.8737384    1.0296405      8192000 
  291000   0.79655198   -3.8738189   -3.8738189   -2.8438721  0.026032103   -3.8738189    1.0299468      8192000 
  292000    0.7965424   -3.8740825   -3.8740825   -2.8441481  0.024116972   -3.8740825    1.0299344      8192000 
  293000   0.79638377    -3.873605    -3.873605   -2.8438758   0.02313637    -3.873605    1.0297293      8192000 
  294000   0.79651429   -3.8739137   -3.8739137   -2.8440156  0.023119096   -3.8739137    1.0298981      8192000 
  295000   0.79630087   -3.8734834   -3.8734834   -2.8438613  0.025608327   -3.8734834    1.0296221      8192000 
  296000    0.7962931   -3.8738614   -3.8738614   -2.8442493  0.025986109   -3.8738614    1.0296121      8192000 
  297000   0.79633438   -3.8736323   -3.8736323   -2.8439669   0.02597856   -3.8736323    1.0296654      8192000 
  298000   0.79669248   -3.8738666   -3.8738666   -2.8437381  0.024633818   -3.8738666    1.0301285      8192000 
  299000   0.79630793    -3.873461    -3.873461   -2.8438298  0.023700026    -3.873461    1.0296312      8192000 
  300000   0.79617454   -3.8731809   -3.8731809   -2.8437221  0.024397514   -3.8731809    1.0294588      8192000 
  301000   0.79613982   -3.8733146   -3.8733146   -2.8439008  0.023230132   -3.8733146    1.0294139      8192000 
  302000   0.79648591   -3.8738498   -3.8738498   -2.8439884  0.025231937   -3.8738498    1.0298614      8192000 
  303000   0.79601659   -3.8732904   -3.8732904   -2.8440359  0.023204931   -3.8732904    1.0292545      8192000 
  304000   0.79643594   -3.8737085   -3.8737085   -2.8439118  0.025167167   -3.8737085    1.0297967      8192000 
  305000   0.79644091   -3.8738224   -3.8738224   -2.8440193  0.022684049   -3.8738224    1.0298032      8192000 
  306000   0.79635359   -3.8734914   -3.8734914   -2.8438012  0.025793226   -3.8734914    1.0296903      8192000 
  307000   0.79669275   -3.8732741   -3.8732741   -2.8431453  0.028166429   -3.8732741    1.0301288      8192000 
  308000   0.79654946   -3.8737123   -3.8737123   -2.8437688  0.025048473   -3.8737123    1.0299435      8192000 
  309000   0.79667968   -3.8740295   -3.8740295   -2.8439176  0.024889067   -3.8740295    1.0301119      8192000 
  310000   0.79690747   -3.8741334   -3.8741334   -2.8437269  0.026785285   -3.8741334    1.0304064      8192000 
  311000    0.7964663   -3.8733403   -3.8733403   -2.8435043  0.027809572   -3.8733403     1.029836      8192000 
  312000   0.79669335   -3.8739783   -3.8739783   -2.8438488  0.028990345   -3.8739783    1.0301296      8192000 
  313000   0.79646082   -3.8736485   -3.8736485   -2.8438195  0.027009462   -3.8736485    1.0298289      8192000 
  314000   0.79656678   -3.8737932   -3.8737932   -2.8438273  0.025924408   -3.8737932    1.0299659      8192000 
  315000   0.79686575   -3.8741434   -3.8741434   -2.8437909    0.0263266   -3.8741434    1.0303525      8192000 
  316000   0.79638682   -3.8736312   -3.8736312    -2.843898  0.027766302   -3.8736312    1.0297332      8192000 
  317000   0.79620738   -3.8735037   -3.8735037   -2.8440025  0.026096709   -3.8735037    1.0295012      8192000 
  318000   0.79694968   -3.8736997   -3.8736997   -2.8432387  0.030001764   -3.8736997     1.030461      8192000 
  319000   0.79710871   -3.8739412   -3.8739412   -2.8432746  0.030320365   -3.8739412    1.0306666      8192000 
  320000   0.79695065   -3.8740235   -3.8740235   -2.8435612  0.026451276   -3.8740235    1.0304623      8192000 
  321000    0.7965235   -3.8734871   -3.8734871   -2.8435772  0.031871118   -3.8734871      1.02991      8192000 
  322000   0.79695965   -3.8739569   -3.8739569    -2.843483  0.028426395   -3.8739569    1.0304739      8192000 
  323000   0.79718532   -3.8743032   -3.8743032   -2.8435375  0.026561737   -3.8743032    1.0307657      8192000 
  324000   0.79629113   -3.8730306   -3.8730306   -2.8434211  0.028818101   -3.8730306    1.0296095      8192000 
  325000   0.79684966   -3.8737167   -3.8737167    -2.843385  0.027662555   -3.8737167    1.0303317      8192000 
  326000   0.79684945   -3.8737282   -3.8737282   -2.8433968  0.023474152   -3.8737282    1.0303314      8192000 
  327000   0.79641948   -3.8730515   -3.8730515    -2.843276  0.027270491   -3.8730515    1.0297755      8192000 
  328000   0.79656294   -3.8733355   -3.8733355   -2.8433746  0.024878672   -3.8733355     1.029961      8192000 
  329000   0.79619728   -3.8730735   -3.8730735   -2.8435854  0.026673445   -3.8730735    1.0294882      8192000 
  330000   0.79649298   -3.8735483   -3.8735483   -2.8436778  0.023905651   -3.8735483    1.0298705      8192000 
  331000   0.79642466   -3.8734194   -3.8734194   -2.8436372  0.025344909   -3.8734194    1.0297822      8192000 
  332000   0.79653498   -3.8735456   -3.8735456   -2.8436208  0.026162383   -3.8735456    1.0299248      8192000 
  333000   0.79652138   -3.8734319   -3.8734319   -2.8435247  0.024633565   -3.8734319    1.0299072      8192000 
  334000   0.79645938   -3.8729416   -3.8729416   -2.8431146  0.027395008   -3.8729416    1.0298271      8192000 
  335000   0.79675409   -3.8732116   -3.8732116   -2.8430035  0.025531764   -3.8732116    1.0302081      8192000 
  336000   0.79646975    -3.872959    -3.872959   -2.8431185  0.027688956    -3.872959    1.0298405      8192000 
  337000   0.79684627   -3.8730424   -3.8730424   -2.8427151  0.027748936   -3.8730424    1.0303273      8192000 
  338000   0.79686677   -3.8735208   -3.8735208    -2.843167  0.027474946   -3.8735208    1.0303538      8192000 
  339000   0.79678617   -3.8731462   -3.8731462   -2.8428966  0.023835966   -3.8731462    1.0302496      8192000 
  340000    0.7967239   -3.8728583   -3.8728583   -2.8426892  0.027617426   -3.8728583    1.0301691      8192000 
  341000   0.79643879   -3.8727847   -3.8727847   -2.8429843  0.026926641   -3.8727847    1.0298004      8192000 
  342000   0.79665175   -3.8725428   -3.8725428    -2.842467  0.027114616   -3.8725428    1.0300758      8192000 
  343000   0.79638137   -3.8721159   -3.8721159   -2.8423897  0.026796727   -3.8721159    1.0297262      8192000 
  344000   0.79695059   -3.8727975   -3.8727975   -2.8423353   0.02593501   -3.8727975    1.0304622      8192000 
  345000   0.79703765   -3.8730217   -3.8730217   -2.8424469  0.025686878   -3.8730217    1.0305748      8192000 
  346000   0.79642604   -3.8723272   -3.8723272   -2.8425432  0.029428894   -3.8723272    1.0297839      8192000 
  347000   0.79685118   -3.8730819   -3.8730819   -2.8427483  0.026613004   -3.8730819    1.0303337      8192000 
  348000   0.79668567   -3.8727251   -3.8727251   -2.8426054  0.027557517   -3.8727251    1.0301197      8192000 
  349000   0.79671251   -3.8723776   -3.8723776   -2.8422232  0.027053077   -3.8723776    1.0301544      8192000 
  350000   0.79680047   -3.8725374   -3.8725374   -2.8422693  0.028516941   -3.8725374    1.0302681      8192000 
  351000   0.79691601   -3.8729548   -3.8729548   -2.8425373   0.02711578   -3.8729548    1.0304175      8192000 
  352000   0.79635063   -3.8725413   -3.8725413   -2.8428549  0.025492048   -3.8725413    1.0296864      8192000 
  353000   0.79645157   -3.8724367   -3.8724367   -2.8426198  0.026067179   -3.8724367     1.029817      8192000 
  354000   0.79664956   -3.8728784   -3.8728784   -2.8428054   0.02675066   -3.8728784     1.030073      8192000 
  355000    0.7966022   -3.8724584   -3.8724584   -2.8424467  0.027054317   -3.8724584    1.0300117      8192000 
  356000   0.79646881   -3.8724172   -3.8724172    -2.842578  0.026082013   -3.8724172    1.0298392      8192000 
  357000   0.79627913   -3.8724417   -3.8724417   -2.8428477  0.025831116   -3.8724417     1.029594      8192000 
  358000   0.79637668   -3.8726177   -3.8726177   -2.8428976  0.026095863   -3.8726177    1.0297201      8192000 
  359000   0.79663926   -3.8727092   -3.8727092   -2.8426495  0.025337616   -3.8727092    1.0300596      8192000 
  360000   0.79697957   -3.8728327   -3.8728327    -2.842333  0.024647415   -3.8728327    1.0304997      8192000 
  361000   0.79751785   -3.8732365   -3.8732365   -2.8420408  0.023219536   -3.8732365    1.0311957      8192000 
  362000   0.79763644   -3.8732139   -3.8732139   -2.8418649  0.025779668   -3.8732139     1.031349      8192000 
  363000   0.79703638   -3.8728438   -3.8728438   -2.8422707  0.023949856   -3.8728438    1.0305731      8192000 
  364000    0.7968215   -3.8723858   -3.8723858   -2.8420905  0.029743867   -3.8723858    1.0302953      8192000 
  365000   0.79653079   -3.8726285   -3.8726285   -2.8427091  0.024852477   -3.8726285    1.0299194      8192000 
  366000   0.79672344   -3.8729433   -3.8729433   -2.8427748  0.024816132   -3.8729433    1.0301685      8192000 
  367000    0.7965535   -3.8725826   -3.8725826   -2.8426338  0.025684105   -3.8725826    1.0299488      8192000 
  368000   0.79656158   -3.8722847   -3.8722847   -2.8423255  0.025662964   -3.8722847    1.0299592      8192000 
  369000   0.79641472   -3.8722963   -3.8722963    -2.842527   0.02684125   -3.8722963    1.0297693      8192000 
  370000   0.79585689   -3.8720222   -3.8720222   -2.8429741  0.026656661   -3.8720222     1.029048      8192000 
  371000    0.7964537   -3.8726109   -3.8726109   -2.8427912  0.024937089   -3.8726109    1.0298197      8192000 
  372000   0.79679635   -3.8728384   -3.8728384   -2.8425756  0.026405903   -3.8728384    1.0302628      8192000 
  373000   0.79656319   -3.8724053   -3.8724053    -2.842444  0.028651678   -3.8724053    1.0299613      8192000 
  374000   0.79656227   -3.8727279   -3.8727279   -2.8427678  0.026446931   -3.8727279    1.0299601      8192000 
  375000    0.7966973   -3.8727196   -3.8727196   -2.8425849  0.029021272   -3.8727196    1.0301347      8192000 
  376000   0.79671516   -3.8727745   -3.8727745   -2.8426167  0.027371759   -3.8727745    1.0301578      8192000 
  377000   0.79639036   -3.8724961   -3.8724961   -2.8427583  0.029351126   -3.8724961    1.0297378      8192000 
  378000   0.79638108   -3.8725122   -3.8725122   -2.8427864  0.026765124   -3.8725122    1.0297258      8192000 
  379000   0.79646988   -3.8723023   -3.8723023   -2.8424616    0.0283589   -3.8723023    1.0298406      8192000 
  380000   0.79682324   -3.8728229   -3.8728229   -2.8425253  0.025357653   -3.8728229    1.0302975      8192000 
  381000    0.7962908   -3.8720079   -3.8720079   -2.8423988   0.02812604   -3.8720079    1.0296091      8192000 
  382000   0.79666893   -3.8720471   -3.8720471   -2.8419491   0.02787211   -3.8720471     1.030098      8192000 
  383000   0.79678135   -3.8722598   -3.8722598   -2.8420164  0.029343571   -3.8722598    1.0302434      8192000 
  384000   0.79657914   -3.8724912   -3.8724912   -2.8425093  0.027470997   -3.8724912    1.0299819      8192000 
  385000    0.7968413   -3.8728611   -3.8728611   -2.8425402  0.025907118   -3.8728611    1.0303209      8192000 
  386000   0.79682881   -3.8726956   -3.8726956   -2.8423909  0.024138817   -3.8726956    1.0303047      8192000 
  387000   0.79661674   -3.8724985   -3.8724985    -2.842468  0.027057422   -3.8724985    1.0300305      8192000 
  388000   0.79624619   -3.8724111   -3.8724111   -2.8428597  0.025322275   -3.8724111    1.0295514      8192000 
  389000   0.79738284   -3.8730153   -3.8730153   -2.8419942   0.02398833   -3.8730153    1.0310211      8192000 
  390000   0.79674625   -3.8722451   -3.8722451   -2.8420471    0.0269223   -3.8722451     1.030198      8192000 
  391000    0.7969144   -3.8724182   -3.8724182   -2.8420028  0.026306327   -3.8724182    1.0304154      8192000 
  392000   0.79675328   -3.8724494   -3.8724494   -2.8422423  0.026314226   -3.8724494    1.0302071      8192000 
  393000   0.79655517   -3.8725075   -3.8725075   -2.8425566  0.027218876   -3.8725075    1.0299509      8192000 
  394000    0.7962905   -3.8723378   -3.8723378   -2.8427291  0.026132579   -3.8723378    1.0296087      8192000 
  395000   0.79653469   -3.8723168   -3.8723168   -2.8423924  0.025417103   -3.8723168    1.0299244      8192000 
  396000    0.7965625   -3.8726063   -3.8726063   -2.8426459  0.025882148   -3.8726063    1.0299604      8192000 
  397000    0.7965045   -3.8722933   -3.8722933   -2.8424079  0.024648103   -3.8722933    1.0298854      8192000 
  398000   0.79664319   -3.8721004   -3.8721004   -2.8420357  0.027321404   -3.8721004    1.0300647      8192000 
  399000   0.79676892   -3.8725987   -3.8725987   -2.8423714  0.026127393   -3.8725987    1.0302273      8192000 
  400000   0.79655722   -3.8722553   -3.8722553   -2.8423017  0.024541031   -3.8722553    1.0299536      8192000 
  401000   0.79614294   -3.8718949   -3.8718949    -2.842477  0.026533291   -3.8718949    1.0294179      8192000 
  402000   0.79642564   -3.8722434   -3.8722434     -2.84246  0.026026216   -3.8722434    1.0297834      8192000 
  403000   0.79650249   -3.8722699   -3.8722699   -2.8423871  0.026090652   -3.8722699    1.0298828      8192000 
  404000   0.79654176   -3.8726371   -3.8726371   -2.8427035  0.027533064   -3.8726371    1.0299336      8192000 
  405000     0.796438   -3.8722681   -3.8722681   -2.8424687  0.026552128   -3.8722681    1.0297994      8192000 
  406000   0.79677987    -3.872643    -3.872643   -2.8424016  0.025653917    -3.872643    1.0302415      8192000 
  407000   0.79623462   -3.8715868   -3.8715868   -2.8420504  0.027490816   -3.8715868    1.0295364      8192000 
  408000   0.79684011   -3.8723931   -3.8723931   -2.8420738  0.024255451   -3.8723931    1.0303193      8192000 
  409000   0.79670512   -3.8727266   -3.8727266   -2.8425818  0.027410067   -3.8727266    1.0301448      8192000 
  410000   0.79679185   -3.8727016   -3.8727016   -2.8424446  0.028199419   -3.8727016    1.0302569      8192000 
  411000   0.79638106   -3.8719446   -3.8719446   -2.8422188  0.027651869   -3.8719446    1.0297258      8192000 
  412000   0.79643827   -3.8722563   -3.8722563   -2.8424565  0.024195763   -3.8722563    1.0297998      8192000 
  413000   0.79666881   -3.8724471   -3.8724471   -2.8423493  0.027509729   -3.8724471    1.0300979      8192000 
  414000   0.79673693   -3.8725245   -3.8725245   -2.8423385  0.026236507   -3.8725245    1.0301859      8192000 
  415000   0.79696748   -3.8728214   -3.8728214   -2.8423374  0.024273646   -3.8728214     1.030484      8192000 
  416000   0.79682765   -3.8730006   -3.8730006   -2.8426974  0.025235044   -3.8730006    1.0303032      8192000 
  417000   0.79644894   -3.8721267   -3.8721267   -2.8423131  0.026598728   -3.8721267    1.0298136      8192000 
  418000    0.7965443   -3.8722278   -3.8722278   -2.8422909  0.025947993   -3.8722278    1.0299369      8192000 
  419000   0.79668745   -3.8721415   -3.8721415   -2.8420196  0.030255386   -3.8721415     1.030122      8192000 
  420000   0.79680972   -3.8724352   -3.8724352   -2.8421552  0.028556968   -3.8724352      1.03028      8192000 
  421000   0.79679428   -3.8725629   -3.8725629   -2.8423028  0.028838227   -3.8725629    1.0302601      8192000 
  422000   0.79664559   -3.8722705   -3.8722705   -2.8422027   0.02727334   -3.8722705    1.0300678      8192000 
  423000   0.79658797   -3.8721947   -3.8721947   -2.8422013  0.027621677   -3.8721947    1.0299933      8192000 
  424000   0.79660983   -3.8725965   -3.8725965   -2.8425749  0.023786333   -3.8725965    1.0300216      8192000 
  425000   0.79710685   -3.8726863   -3.8726863   -2.8420221    0.0244847   -3.8726863    1.0306642      8192000 
  426000   0.79669993   -3.8723395   -3.8723395   -2.8422014    0.0241533   -3.8723395    1.0301381      8192000 
  427000   0.79679361   -3.8722627   -3.8722627   -2.8420035  0.028365097   -3.8722627    1.0302592      8192000 
  428000   0.79639219   -3.8718156   -3.8718156   -2.8420754   0.02649765   -3.8718156    1.0297402      8192000 
  429000   0.79625822    -3.871815    -3.871815   -2.8422481  0.028517278    -3.871815     1.029567      8192000 
  430000   0.79634755   -3.8721775   -3.8721775   -2.8424951  0.026510777   -3.8721775    1.0296825      8192000 
  431000   0.79634893    -3.872106    -3.872106   -2.8424218  0.026743403    -3.872106    1.0296842      8192000 
  432000   0.79688508   -3.8724792   -3.8724792   -2.8421017  0.028161873   -3.8724792    1.0303775      8192000 
  433000   0.79654003   -3.8721567   -3.8721567   -2.8422254  0.028034321   -3.8721567    1.0299313      8192000 
  434000   0.79658504   -3.8722009   -3.8722009   -2.8422114   0.02770342   -3.8722009    1.0299895      8192000 
  435000   0.79660274   -3.8724711   -3.8724711   -2.8424587  0.026636088   -3.8724711    1.0300124      8192000 
  436000   0.79622738   -3.8718488   -3.8718488   -2.8423217  0.025184619   -3.8718488    1.0295271      8192000 
  437000   0.79642939   -3.8718207   -3.8718207   -2.8420324  0.027236195   -3.8718207    1.0297883      8192000 
  438000   0.79632617   -3.8719264   -3.8719264   -2.8422716  0.027760972   -3.8719264    1.0296548      8192000 
  439000   0.79661919   -3.8721425   -3.8721425   -2.8421088  0.025956562   -3.8721425    1.0300337      8192000 
  440000   0.79642651   -3.8721436   -3.8721436    -2.842359  0.029238264   -3.8721436    1.0297846      8192000 
  441000   0.79658936   -3.8722106   -3.8722106   -2.8422155  0.026175119   -3.8722106    1.0299951      8192000 
  442000   0.79644083   -3.8718788   -3.8718788   -2.8420757  0.025839792   -3.8718788    1.0298031      8192000 
  443000    0.7965475    -3.871968    -3.871968    -2.842027  0.026295232    -3.871968     1.029941      8192000 
  444000   0.79670921   -3.8720681   -3.8720681    -2.841918  0.026562702   -3.8720681    1.0301501      8192000 
  445000   0.79693409   -3.8721659   -3.8721659   -2.8417251   0.02852028   -3.8721659    1.0304409      8192000 
  446000   0.79725841   -3.8723467   -3.8723467   -2.8414865  0.027196911   -3.8723467    1.0308602      8192000 
  447000    0.7969207   -3.8723666   -3.8723666    -2.841943  0.024005137   -3.8723666    1.0304235      8192000 
  448000   0.79680909   -3.8722076   -3.8722076   -2.8419284  0.029128272   -3.8722076    1.0302792      8192000 
  449000   0.79649567   -3.8720046   -3.8720046   -2.8421307  0.025731747   -3.8720046     1.029874      8192000 
  450000   0.79646189   -3.8717897   -3.8717897   -2.8419594  0.028868441   -3.8717897    1.0298303      8192000 
  451000   0.79633707   -3.8718239   -3.8718239    -2.842155  0.030667447   -3.8718239    1.0296689      8192000 
  452000   0.79666709   -3.8721676   -3.8721676   -2.8420719  0.025890119   -3.8721676    1.0300956      8192000 
  453000   0.79685242   -3.8720754   -3.8720754   -2.8417401   0.02574131   -3.8720754    1.0303353      8192000 
  454000   0.79689353   -3.8724129   -3.8724129   -2.8420245  0.025641596   -3.8724129    1.0303884      8192000 
  455000   0.79706691   -3.8725618   -3.8725618   -2.8419492  0.027010957   -3.8725618    1.0306126      8192000 
  456000   0.79669949   -3.8722571   -3.8722571   -2.8421196  0.027791609   -3.8722571    1.0301375      8192000 
  457000   0.79658863   -3.8720235   -3.8720235   -2.8420293  0.026143825   -3.8720235    1.0299942      8192000 
  458000   0.79685153   -3.8720506   -3.8720506   -2.8417165  0.026731852   -3.8720506    1.0303341      8192000 
  459000   0.79715437   -3.8724713   -3.8724713   -2.8417456  0.026233224   -3.8724713    1.0307257      8192000 
  460000   0.79632142   -3.8715271   -3.8715271   -2.8418784  0.029601767   -3.8715271    1.0296487      8192000 
  461000   0.79664464   -3.8717529   -3.8717529   -2.8416863  0.027285157   -3.8717529    1.0300666      8192000 
  462000   0.79665951   -3.8719026   -3.8719026   -2.8418168  0.030344454   -3.8719026    1.0300858      8192000 
  463000   0.79656288   -3.8718559   -3.8718559    -2.841895  0.026512003   -3.8718559    1.0299609      8192000 
  464000   0.79650796   -3.8716586   -3.8716586   -2.8417687  0.026472935   -3.8716586    1.0298899      8192000 
  465000   0.79705951   -3.8724001   -3.8724001    -2.841797  0.023511791   -3.8724001     1.030603      8192000 
  466000   0.79662219   -3.8718684   -3.8718684   -2.8418308  0.024754658   -3.8718684    1.0300376      8192000 
  467000   0.79674406   -3.8716414   -3.8716414   -2.8414463  0.027367626   -3.8716414    1.0301951      8192000 
  468000    0.7964431   -3.8714479   -3.8714479   -2.8416419  0.026538482   -3.8714479     1.029806      8192000 
  469000   0.79706891     -3.87213     -3.87213   -2.8415148   0.02503177     -3.87213    1.0306152      8192000 
  470000    0.7968627    -3.872487    -3.872487   -2.8421385  0.024817969    -3.872487    1.0303486      8192000 
  471000   0.79637239   -3.8715391   -3.8715391   -2.8418245  0.028444803   -3.8715391    1.0297146      8192000 
  472000    0.7967005   -3.8721352   -3.8721352   -2.8419964   0.02619622   -3.8721352    1.0301388      8192000 
  473000   0.79662678    -3.871897    -3.871897   -2.8418535  0.026156396    -3.871897    1.0300435      8192000 
  474000   0.79640819   -3.8718189   -3.8718189    -2.842058  0.029043653   -3.8718189    1.0297609      8192000 
  475000   0.79661944   -3.8717373   -3.8717373   -2.8417033  0.024742067   -3.8717373     1.030034      8192000 
  476000   0.79652274   -3.8716662   -3.8716662   -2.8417572  0.025440908   -3.8716662     1.029909      8192000 
  477000   0.79643067   -3.8718635   -3.8718635   -2.8420735  0.024876352   -3.8718635    1.0297899      8192000 
  478000   0.79644244    -3.871721    -3.871721   -2.8419159  0.027632713    -3.871721    1.0298052      8192000 
  479000   0.79646972   -3.8715082   -3.8715082   -2.8416677  0.025674932   -3.8715082    1.0298404      8192000 
  480000   0.79659477   -3.8719423   -3.8719423   -2.8419401   0.02728555   -3.8719423    1.0300021      8192000 
  481000    0.7966602   -3.8716131   -3.8716131   -2.8415263  0.025596341   -3.8716131    1.0300867      8192000 
  482000   0.79699744    -3.871864    -3.871864   -2.8413412  0.028659316    -3.871864    1.0305228      8192000 
  483000   0.79692447   -3.8721729   -3.8721729   -2.8417444  0.026592353   -3.8721729    1.0304284      8192000 
  484000   0.79730844   -3.8722016   -3.8722016   -2.8412767  0.027463308   -3.8722016    1.0309249      8192000 
  485000    0.7968306   -3.8715818   -3.8715818   -2.8412747  0.027747076   -3.8715818     1.030307      8192000 
  486000   0.79660379   -3.8715366   -3.8715366   -2.8415229  0.027529504   -3.8715366    1.0300138      8192000 
  487000   0.79725582   -3.8722457   -3.8722457   -2.8413888  0.022787937   -3.8722457    1.0308569      8192000 
  488000   0.79650637   -3.8715181   -3.8715181   -2.8416303  0.026142798   -3.8715181    1.0298878      8192000 
  489000   0.79674059   -3.8716264   -3.8716264   -2.8414358  0.028844629   -3.8716264    1.0301907      8192000 
  490000   0.79604355   -3.8709933   -3.8709933   -2.8417039  0.027668318   -3.8709933    1.0292894      8192000 
  491000   0.79667905   -3.8715451   -3.8715451    -2.841434  0.025433832   -3.8715451    1.0301111      8192000 
  492000   0.79656207   -3.8713662   -3.8713662   -2.8414063  0.025701596   -3.8713662    1.0299598      8192000 
  493000   0.79657809   -3.8716782   -3.8716782   -2.8416977   0.02664602   -3.8716782    1.0299806      8192000 
  494000   0.79635361   -3.8715113   -3.8715113    -2.841821  0.025352119   -3.8715113    1.0296903      8192000 
  495000    0.7960978   -3.8712722   -3.8712722   -2.8419127  0.026177088   -3.8712722    1.0293595      8192000 
  496000   0.79618029   -3.8714027   -3.8714027   -2.8419365  0.025305388   -3.8714027    1.0294662      8192000 
  497000   0.79672167   -3.8715812   -3.8715812    -2.841415   0.02683496   -3.8715812    1.0301662      8192000 
  498000    0.7968126   -3.8718347   -3.8718347   -2.8415509  0.025266756   -3.8718347    1.0302838      8192000 
  499000   0.79616812   -3.8713145   -3.8713145   -2.8418641  0.026957159   -3.8713145    1.0294505      8192000 
  500000   0.79671579    -3.871705    -3.871705   -2.8415464  0.026392674    -3.871705    1.0301586      8192000 
  501000   0.79668953   -3.8716834   -3.8716834   -2.8415587   0.02613999   -3.8716834    1.0301246      8192000 
  502000   0.79675959   -3.8720452   -3.8720452     -2.84183  0.027470969   -3.8720452    1.0302152      8192000 
  503000   0.79685981   -3.8720955   -3.8720955   -2.8417507  0.027869718   -3.8720955    1.0303448      8192000 
  504000   0.79652079   -3.8717931   -3.8717931   -2.8418866  0.028525682   -3.8717931    1.0299065      8192000 
  505000   0.79650224   -3.8715497   -3.8715497   -2.8416673   0.03029864   -3.8715497    1.0298825      8192000 
  506000   0.79726107   -3.8726741   -3.8726741   -2.8418104  0.027328325   -3.8726741    1.0308636      8192000 
  507000   0.79662746   -3.8719115   -3.8719115   -2.8418671  0.026802184   -3.8719115    1.0300444      8192000 
  508000    0.7965878   -3.8720986   -3.8720986   -2.8421055  0.026127282   -3.8720986    1.0299931      8192000 
  509000   0.79610104   -3.8713708   -3.8713708   -2.8420071  0.028777273   -3.8713708    1.0293637      8192000 
  510000   0.79651968   -3.8717936   -3.8717936   -2.8418886  0.025891683   -3.8717936     1.029905      8192000 
  511000   0.79608933   -3.8712745   -3.8712745   -2.8419259  0.028497024   -3.8712745    1.0293486      8192000 
  512000   0.79641144   -3.8719244   -3.8719244   -2.8421593  0.025963847   -3.8719244    1.0297651      8192000 
  513000   0.79668416   -3.8724069   -3.8724069   -2.8422892   0.02554357   -3.8724069    1.0301177      8192000 
  514000   0.79678153   -3.8713906   -3.8713906    -2.841147   0.02931825   -3.8713906    1.0302436      8192000 
  515000   0.79690959   -3.8720782   -3.8720782    -2.841669  0.023641696   -3.8720782    1.0304092      8192000 
  516000   0.79659169    -3.871824    -3.871824   -2.8418258  0.030554108    -3.871824    1.0299981      8192000 
  517000   0.79726229   -3.8723753   -3.8723753   -2.8415101  0.024755478   -3.8723753    1.0308652      8192000 
  518000   0.79665656   -3.8718651   -3.8718651   -2.8417831  0.027986549   -3.8718651     1.030082      8192000 
  519000   0.79708915   -3.8725006   -3.8725006   -2.8418592  0.025559091   -3.8725006    1.0306414      8192000 
  520000    0.7964839   -3.8719599   -3.8719599   -2.8421012  0.027523014   -3.8719599    1.0298588      8192000 
  521000   0.79697271    -3.872066    -3.872066   -2.8415752   0.02738767    -3.872066    1.0304908      8192000 
  522000   0.79642161   -3.8715506   -3.8715506   -2.8417724  0.025820726   -3.8715506    1.0297782      8192000 
  523000   0.79652758   -3.8716554   -3.8716554   -2.8417402  0.025359652   -3.8716554    1.0299152      8192000 
  524000   0.79641031   -3.8714507   -3.8714507   -2.8416871  0.025299709   -3.8714507    1.0297636      8192000 
  525000   0.79616901   -3.8713971   -3.8713971   -2.8419455  0.026426733   -3.8713971    1.0294516      8192000 
  526000   0.79617407   -3.8712457   -3.8712457   -2.8417876  0.027154536   -3.8712457    1.0294581      8192000 
  527000   0.79669329   -3.8717209   -3.8717209   -2.8415914  0.027338969   -3.8717209    1.0301295      8192000 
  528000   0.79706031   -3.8719144   -3.8719144   -2.8413103  0.025331223   -3.8719144    1.0306041      8192000 
  529000   0.79670487   -3.8717468   -3.8717468   -2.8416024  0.030157805   -3.8717468    1.0301445      8192000 
  530000   0.79674012   -3.8718049   -3.8718049   -2.8416149  0.025640392   -3.8718049    1.0301901      8192000 
  531000   0.79676199   -3.8719812   -3.8719812   -2.8417628  0.027348042   -3.8719812    1.0302183      8192000 
  532000   0.79666043   -3.8718767   -3.8718767   -2.8417897  0.027673415   -3.8718767     1.030087      8192000 
  533000   0.79661899   -3.8719223   -3.8719223   -2.8418889  0.027869209   -3.8719223    1.0300334      8192000 
  534000   0.79690588   -3.8721804   -3.8721804    -2.841776  0.026758343   -3.8721804    1.0304044      8192000 
  535000   0.79697875   -3.8720232   -3.8720232   -2.8415246  0.027408818   -3.8720232    1.0304986      8192000 
  536000   0.79678609   -3.8717865   -3.8717865    -2.841537  0.026385999   -3.8717865    1.0302495      8192000 
  537000   0.79591071   -3.8710654   -3.8710654   -2.8419478  0.028861957   -3.8710654    1.0291176      8192000 
  538000   0.79637204   -3.8713504   -3.8713504   -2.8416363    0.0273808   -3.8713504    1.0297141      8192000 
  539000   0.79684863   -3.8722674   -3.8722674    -2.841937  0.027609519   -3.8722674    1.0303304      8192000 
  540000   0.79653603   -3.8719836   -3.8719836   -2.8420574  0.027454703   -3.8719836    1.0299262      8192000 
  541000   0.79712532   -3.8722163   -3.8722163   -2.8415281   0.02834207   -3.8722163    1.0306881      8192000 
  542000   0.79663744   -3.8717478   -3.8717478   -2.8416906  0.025787417   -3.8717478    1.0300573      8192000 
  543000   0.79646702   -3.8717792   -3.8717792   -2.8419422  0.025722342   -3.8717792    1.0298369      8192000 
  544000   0.79679242   -3.8719802   -3.8719802   -2.8417225  0.026477993   -3.8719802    1.0302577      8192000 
  545000   0.79641376   -3.8714383   -3.8714383   -2.8416702  0.029205102   -3.8714383    1.0297681      8192000 
  546000   0.79690291   -3.8719957   -3.8719957   -2.8415951  0.025169242   -3.8719957    1.0304005      8192000 
  547000   0.79610333   -3.8714078   -3.8714078   -2.8420412  0.024858667   -3.8714078    1.0293667      8192000 
  548000   0.79662894   -3.8714531   -3.8714531   -2.8414068  0.028491853   -3.8714531    1.0300463      8192000 
  549000   0.79678571   -3.8718425   -3.8718425   -2.8415935  0.027493962   -3.8718425     1.030249      8192000 
  550000   0.79699413   -3.8718877   -3.8718877   -2.8413692  0.027263172   -3.8718877    1.0305185      8192000 
  551000   0.79612557    -3.871094    -3.871094   -2.8416986  0.029311364    -3.871094    1.0293954      8192000 
  552000   0.79657261   -3.8716013   -3.8716013   -2.8416279  0.025808852   -3.8716013    1.0299735      8192000 
  553000   0.79608595    -3.871575    -3.871575   -2.8422307    0.0238028    -3.871575    1.0293442      8192000 
  554000   0.79685396    -3.872112    -3.872112   -2.8417748  0.024819873    -3.872112    1.0303372      8192000 
  555000   0.79624197   -3.8712283   -3.8712283   -2.8416824  0.025508227   -3.8712283    1.0295459      8192000 
  556000   0.79658789    -3.871666    -3.871666   -2.8416728  0.025449641    -3.871666    1.0299932      8192000 
  557000     0.796545   -3.8711836   -3.8711836   -2.8412458  0.023917578   -3.8711836    1.0299378      8192000 
  558000   0.79607185   -3.8709234   -3.8709234   -2.8415974  0.024469887   -3.8709234     1.029326      8192000 
  559000   0.79636346   -3.8713806   -3.8713806   -2.8416776  0.024963132   -3.8713806     1.029703      8192000 
  560000   0.79614866   -3.8712821   -3.8712821   -2.8418568  0.024954473   -3.8712821    1.0294253      8192000 
  561000   0.79582919   -3.8709359   -3.8709359   -2.8419237  0.026542024   -3.8709359    1.0290122      8192000 
  562000   0.79640031   -3.8714708   -3.8714708   -2.8417201  0.025418895   -3.8714708    1.0297507      8192000 
  563000   0.79659342   -3.8718262   -3.8718262   -2.8418258  0.026229568   -3.8718262    1.0300004      8192000 
  564000   0.79635638   -3.8714458   -3.8714458    -2.841752  0.029241068   -3.8714458    1.0296939      8192000 
  565000   0.79676797   -3.8717674   -3.8717674   -2.8415414  0.026772162   -3.8717674    1.0302261      8192000 
  566000   0.79651683   -3.8716836   -3.8716836   -2.8417822  0.025478329   -3.8716836    1.0299013      8192000 
  567000   0.79688343   -3.8718085   -3.8718085   -2.8414331   0.02765023   -3.8718085    1.0303754      8192000 
  568000   0.79674724   -3.8716296   -3.8716296   -2.8414303   0.02643585   -3.8716296    1.0301993      8192000 
  569000   0.79749471   -3.8729043   -3.8729043   -2.8417385    0.0252912   -3.8729043    1.0311657      8192000 
  570000   0.79676582   -3.8718143   -3.8718143    -2.841591  0.027802441   -3.8718143    1.0302233      8192000 
  571000   0.79675139   -3.8722131   -3.8722131   -2.8420085  0.029069423   -3.8722131    1.0302046      8192000 
  572000   0.79692901   -3.8722087   -3.8722087   -2.8417745   0.02776327   -3.8722087    1.0304343      8192000 
  573000   0.79674877    -3.871933    -3.871933   -2.8417318   0.02888806    -3.871933    1.0302012      8192000 
  574000   0.79689837   -3.8716548   -3.8716548   -2.8412601  0.031739928   -3.8716548    1.0303947      8192000 
  575000   0.79685519   -3.8713708   -3.8713708    -2.841032   0.03000171   -3.8713708    1.0303388      8192000 
  576000   0.79707102   -3.8719266   -3.8719266   -2.8413087  0.026819909   -3.8719266    1.0306179      8192000 
  577000   0.79670909   -3.8717539   -3.8717539   -2.8416039  0.031546536   -3.8717539    1.0301499      8192000 
  578000   0.79663501   -3.8714736   -3.8714736   -2.8414195  0.029122088   -3.8714736    1.0300542      8192000 
  579000   0.79660628   -3.8718608   -3.8718608   -2.8418438  0.026356943   -3.8718608     1.030017      8192000 
  580000   0.79683556   -3.8720844   -3.8720844   -2.8417709  0.027263826   -3.8720844    1.0303135      8192000 
  581000   0.79637261   -3.8712359   -3.8712359   -2.8415211  0.026960377   -3.8712359    1.0297149      8192000 
  582000   0.79658382    -3.871689    -3.871689   -2.8417011  0.028511956    -3.871689     1.029988      8192000 
  583000   0.79636286   -3.8709728   -3.8709728   -2.8412706  0.027669472   -3.8709728    1.0297023      8192000 
  584000   0.79681556   -3.8719139   -3.8719139   -2.8416263  0.026427817   -3.8719139    1.0302876      8192000 
  585000   0.79645404   -3.8712953   -3.8712953   -2.8414751  0.025884709   -3.8712953    1.0298202      8192000 
  586000   0.79662676   -3.8712691   -3.8712691   -2.8412256  0.025100602   -3.8712691    1.0300435      8192000 
  587000   0.79639977   -3.8707163   -3.8707163   -2.8409663  0.027480716   -3.8707163      1.02975      8192000 
  588000   0.79658151   -3.8710334   -3.8710334   -2.8410484   0.02791716   -3.8710334     1.029985      8192000 
  589000    0.7966938   -3.8712492   -3.8712492   -2.8411191  0.029542955   -3.8712492    1.0301302      8192000 
  590000   0.79681662   -3.8715641   -3.8715641   -2.8412751  0.026239643   -3.8715641     1.030289      8192000 
  591000   0.79675392   -3.8710322   -3.8710322   -2.8408243  0.027797139   -3.8710322    1.0302079      8192000 
  592000   0.79654665   -3.8705704   -3.8705704   -2.8406305  0.028764827   -3.8705704    1.0299399      8192000 
  593000   0.79670717   -3.8709388   -3.8709388   -2.8407914  0.024018427   -3.8709388    1.0301475      8192000 
  594000   0.79664342     -3.87067     -3.87067    -2.840605  0.024463675     -3.87067     1.030065      8192000 
  595000   0.79605666   -3.8702988   -3.8702988   -2.8409925  0.025089481   -3.8702988    1.0293063      8192000 
  596000   0.79666766   -3.8707731   -3.8707731   -2.8406767  0.023851402   -3.8707731    1.0300964      8192000 
  597000   0.79647746   -3.8708135   -3.8708135   -2.8409631  0.026861562   -3.8708135    1.0298504      8192000 
  598000   0.79657017   -3.8709305   -3.8709305   -2.8409602  0.025009458   -3.8709305    1.0299703      8192000 
  599000   0.79621805   -3.8706967   -3.8706967   -2.8411817  0.027581081   -3.8706967     1.029515      8192000 
  600000   0.79649254   -3.8705328   -3.8705328   -2.8406629  0.028571609   -3.8705328    1.0298699      8192000 
  601000   0.79658167   -3.8709173   -3.8709173   -2.8409321  0.026727061   -3.8709173    1.0299852      8192000 
  602000   0.79688213   -3.8712567   -3.8712567    -2.840883  0.024516318   -3.8712567    1.0303737      8192000 
  603000   0.79680242   -3.8707068   -3.8707068   -2.8404362  0.025474432   -3.8707068    1.0302706      8192000 
  604000   0.79669024   -3.8709246   -3.8709246    -2.840799  0.027180876   -3.8709246    1.0301256      8192000 
  605000   0.79693367   -3.8710446   -3.8710446   -2.8406043   0.02340973   -3.8710446    1.0304403      8192000 
  606000   0.79681127    -3.871536    -3.871536   -2.8412539  0.026577744    -3.871536    1.0302821      8192000 
  607000   0.79694991   -3.8712967   -3.8712967   -2.8408354  0.027146161   -3.8712967    1.0304613      8192000 
  608000    0.7968651   -3.8713276   -3.8713276   -2.8409759  0.027732789   -3.8713276    1.0303517      8192000 
  609000   0.79652394   -3.8709439   -3.8709439   -2.8410334  0.029939301   -3.8709439    1.0299105      8192000 
  610000   0.79700171   -3.8713549   -3.8713549   -2.8408266  0.028687475   -3.8713549    1.0305283      8192000 
  611000   0.79653729   -3.8708918   -3.8708918    -2.840964  0.028885102   -3.8708918    1.0299278      8192000 
  612000   0.79696508   -3.8713156   -3.8713156   -2.8408347  0.026587409   -3.8713156    1.0304809      8192000 
  613000    0.7971194    -3.871774    -3.871774   -2.8410936  0.028422231    -3.871774    1.0306805      8192000 
  614000   0.79712294   -3.8715194   -3.8715194   -2.8408343  0.028507548   -3.8715194     1.030685      8192000 
  615000   0.79692324   -3.8712189   -3.8712189   -2.8407921  0.029566533   -3.8712189    1.0304268      8192000 
  616000   0.79719305   -3.8715535   -3.8715535   -2.8407777  0.027429513   -3.8715535    1.0307757      8192000 
  617000    0.7972308   -3.8717479   -3.8717479   -2.8409234  0.028471219   -3.8717479    1.0308245      8192000 
  618000   0.79708273   -3.8714798   -3.8714798   -2.8408467  0.027814147   -3.8714798    1.0306331      8192000 
  619000   0.79679168   -3.8711657   -3.8711657    -2.840909  0.028819445   -3.8711657    1.0302567      8192000 
  620000   0.79647371   -3.8710809   -3.8710809   -2.8412353  0.027702487   -3.8710809    1.0298456      8192000 
  621000   0.79646971   -3.8708186   -3.8708186   -2.8409782  0.027513892   -3.8708186    1.0298404      8192000 
  622000   0.79670761   -3.8710645   -3.8710645   -2.8409165  0.025328021   -3.8710645     1.030148      8192000 
  623000   0.79628429   -3.8708701   -3.8708701   -2.8412695  0.026046969   -3.8708701    1.0296007      8192000 
  624000   0.79642739    -3.870866    -3.870866   -2.8410803  0.026336933    -3.870866    1.0297857      8192000 
  625000   0.79676033   -3.8712023   -3.8712023   -2.8409861  0.024315818   -3.8712023    1.0302162      8192000 
  626000   0.79614063   -3.8703859   -3.8703859    -2.840971   0.02652116   -3.8703859    1.0294149      8192000 
  627000   0.79638674   -3.8709504   -3.8709504   -2.8412172  0.023591286   -3.8709504    1.0297331      8192000 
  628000   0.79607015   -3.8707331   -3.8707331   -2.8414093  0.024879117   -3.8707331    1.0293238      8192000 
  629000   0.79639484   -3.8707598   -3.8707598   -2.8410162  0.027921935   -3.8707598    1.0297436      8192000 
  630000   0.79650846   -3.8712448   -3.8712448   -2.8413543  0.027285155   -3.8712448    1.0298905      8192000 
  631000   0.79594231    -3.870069    -3.870069   -2.8409105   0.02996554    -3.870069    1.0291585      8192000 
  632000   0.79624203    -3.870483    -3.870483    -2.840937  0.027962057    -3.870483     1.029546      8192000 
  633000   0.79658923   -3.8710384   -3.8710384   -2.8410434  0.024922688   -3.8710384    1.0299949      8192000 
  634000   0.79606623    -3.870222    -3.870222   -2.8409033  0.028130398    -3.870222    1.0293187      8192000 
  635000   0.79694727   -3.8711926   -3.8711926   -2.8407347  0.027917506   -3.8711926    1.0304579      8192000 
  636000   0.79681856   -3.8710391   -3.8710391   -2.8407476  0.028629696   -3.8710391    1.0302915      8192000 
  637000   0.79677354   -3.8711144   -3.8711144   -2.8408812  0.026209781   -3.8711144    1.0302333      8192000 
  638000   0.79689608   -3.8714374   -3.8714374   -2.8410457   0.02790082   -3.8714374    1.0303917      8192000 
  639000   0.79643225   -3.8705912   -3.8705912   -2.8407992  0.028404358   -3.8705912     1.029792      8192000 
  640000    0.7967825   -3.8714587   -3.8714587   -2.8412139  0.025847358   -3.8714587    1.0302449      8192000 
  641000   0.79696033    -3.870877    -3.870877   -2.8404022  0.027925901    -3.870877    1.0304748      8192000 
  642000   0.79652933   -3.8707065   -3.8707065    -2.840789  0.028147435   -3.8707065    1.0299175      8192000 
  643000   0.79639606   -3.8707625   -3.8707625   -2.8410173  0.025628568   -3.8707625    1.0297452      8192000 
  644000   0.79717993   -3.8716038   -3.8716038    -2.840845  0.026919852   -3.8716038    1.0307587      8192000 
  645000   0.79683896   -3.8714854   -3.8714854   -2.8411675  0.027189619   -3.8714854    1.0303179      8192000 
  646000   0.79680053   -3.8712166   -3.8712166   -2.8409485  0.029532286   -3.8712166    1.0302682      8192000 
  647000   0.79679341   -3.8712948   -3.8712948   -2.8410358  0.030686895   -3.8712948     1.030259      8192000 
  648000   0.79698619      -3.8714      -3.8714   -2.8408918  0.027413936      -3.8714    1.0305082      8192000 
  649000   0.79664486   -3.8711242   -3.8711242   -2.8410573  0.029574155   -3.8711242    1.0300669      8192000 
  650000   0.79707635   -3.8714075   -3.8714075   -2.8407827  0.026985029   -3.8714075    1.0306248      8192000 
  651000   0.79632414   -3.8706033   -3.8706033   -2.8409511  0.028657159   -3.8706033    1.0296522      8192000 
  652000   0.79677154   -3.8714923   -3.8714923   -2.8412616  0.027974715   -3.8714923    1.0302307      8192000 
  653000   0.79689682   -3.8713297   -3.8713297    -2.840937  0.027877073   -3.8713297    1.0303927      8192000 
  654000   0.79654648   -3.8710185   -3.8710185   -2.8410788  0.025566175   -3.8710185    1.0299397      8192000 
  655000   0.79668616   -3.8711947   -3.8711947   -2.8410744  0.026253523   -3.8711947    1.0301203      8192000 
  656000   0.79694129   -3.8714478   -3.8714478   -2.8409976  0.027432819   -3.8714478    1.0304502      8192000 
  657000   0.79664293   -3.8711579   -3.8711579   -2.8410936  0.028514688   -3.8711579    1.0300644      8192000 
  658000   0.79651074   -3.8710934   -3.8710934      -2.8412  0.025575374   -3.8710934    1.0298935      8192000 
  659000    0.7963149   -3.8710585   -3.8710585   -2.8414183  0.027707615   -3.8710585    1.0296402      8192000 
  660000   0.79650909      -3.8711      -3.8711   -2.8412087  0.026376264      -3.8711    1.0298913      8192000 
  661000   0.79682264   -3.8713069   -3.8713069   -2.8410101  0.026324786   -3.8713069    1.0302968      8192000 
  662000   0.79611561   -3.8706018   -3.8706018   -2.8412193  0.026563821   -3.8706018    1.0293826      8192000 
  663000   0.79654103   -3.8710797   -3.8710797   -2.8411471  0.025153374   -3.8710797    1.0299326      8192000 
  664000   0.79658416   -3.8710308   -3.8710308   -2.8410424  0.027444316   -3.8710308    1.0299884      8192000 
  665000   0.79607916   -3.8703448   -3.8703448   -2.8410094  0.027853233   -3.8703448    1.0293354      8192000 
  666000   0.79661643   -3.8707803   -3.8707803   -2.8407502  0.027564253   -3.8707803    1.0300301      8192000 
  667000   0.79637034   -3.8704831   -3.8704831   -2.8407711  0.027545087   -3.8704831    1.0297119      8192000 
  668000   0.79686385   -3.8705657   -3.8705657   -2.8402156  0.028003711   -3.8705657      1.03035      8192000 
  669000   0.79677569   -3.8710047   -3.8710047   -2.8407687  0.024901085   -3.8710047     1.030236      8192000 
  670000   0.79663842   -3.8707906   -3.8707906    -2.840732  0.026430102   -3.8707906    1.0300586      8192000 
  671000    0.7966046   -3.8707964   -3.8707964   -2.8407815  0.028797141   -3.8707964    1.0300148      8192000 
  672000   0.79696817   -3.8708897   -3.8708897   -2.8404048  0.028822519   -3.8708897    1.0304849      8192000 
  673000   0.79674044   -3.8709717   -3.8709717   -2.8407812  0.028876885   -3.8709717    1.0301905      8192000 
  674000   0.79673375   -3.8704118   -3.8704118   -2.8402299  0.028779101   -3.8704118    1.0301818      8192000 
  675000   0.79692227   -3.8707829   -3.8707829   -2.8403574  0.024802261   -3.8707829    1.0304256      8192000 
  676000   0.79666653   -3.8706258   -3.8706258   -2.8405309  0.028425751   -3.8706258    1.0300949      8192000 
  677000   0.79677471   -3.8707645   -3.8707645   -2.8405297  0.026854224   -3.8707645    1.0302348      8192000 
  678000    0.7965758   -3.8705517   -3.8705517   -2.8405741  0.028630898   -3.8705517    1.0299776      8192000 
  679000   0.79689998   -3.8710371   -3.8710371   -2.8406403  0.027425599   -3.8710371    1.0303968      8192000 
  680000    0.7968093   -3.8705431   -3.8705431   -2.8402636  0.028467919   -3.8705431    1.0302795      8192000 
  681000   0.79661484   -3.8706866   -3.8706866   -2.8406585  0.028543393   -3.8706866    1.0300281      8192000 
  682000   0.79726495   -3.8712195   -3.8712195   -2.8403508  0.027453108   -3.8712195    1.0308687      8192000 
  683000   0.79683716     -3.87101     -3.87101   -2.8406944  0.030280436     -3.87101    1.0303155      8192000 
  684000   0.79704336   -3.8708721   -3.8708721     -2.84029  0.029368118   -3.8708721    1.0305822      8192000 
  685000   0.79692303   -3.8709767   -3.8709767   -2.8405501  0.028848638   -3.8709767    1.0304266      8192000 
  686000   0.79641668    -3.870623    -3.870623   -2.8408512  0.027639757    -3.870623    1.0297718      8192000 
  687000   0.79652277   -3.8706664   -3.8706664   -2.8407574   0.02754937   -3.8706664     1.029909      8192000 
  688000   0.79643678   -3.8704768   -3.8704768   -2.8406789  0.026788049   -3.8704768    1.0297978      8192000 
  689000   0.79632534   -3.8708414   -3.8708414   -2.8411877    0.0241977   -3.8708414    1.0296537      8192000 
  690000   0.79654212   -3.8708399   -3.8708399   -2.8409059  0.021624786   -3.8708399     1.029934      8192000 
  691000   0.79635838    -3.870561    -3.870561   -2.8408646  0.026842148    -3.870561    1.0296965      8192000 
  692000   0.79645578   -3.8708774   -3.8708774    -2.841055  0.025549607   -3.8708774    1.0298224      8192000 
  693000   0.79631507   -3.8704231   -3.8704231   -2.8407827  0.028096503   -3.8704231    1.0296405      8192000 
  694000   0.79669971   -3.8706033   -3.8706033   -2.8404655  0.028389499   -3.8706033    1.0301378      8192000 
  695000   0.79707157   -3.8709033   -3.8709033   -2.8402847  0.027046242   -3.8709033    1.0306186      8192000 
  696000   0.79664372   -3.8704913   -3.8704913   -2.8404258  0.031119164   -3.8704913    1.0300654      8192000 
  697000   0.79705328   -3.8706419   -3.8706419   -2.8400469  0.028975914   -3.8706419     1.030595      8192000 
  698000   0.79682229   -3.8707041   -3.8707041   -2.8404078  0.029369997   -3.8707041    1.0302963      8192000 
  699000   0.79722786   -3.8713429   -3.8713429   -2.8405222  0.027071827   -3.8713429    1.0308207      8192000 
  700000   0.79718872   -3.8710205   -3.8710205   -2.8402504  0.028846791   -3.8710205    1.0307701      8192000 
  701000   0.79690731   -3.8708068   -3.8708068   -2.8404006  0.029270585   -3.8708068    1.0304062      8192000 
  702000   0.79693887   -3.8708645   -3.8708645   -2.8404174  0.028047656   -3.8708645     1.030447      8192000 
  703000   0.79690965   -3.8707078   -3.8707078   -2.8402985  0.030365049   -3.8707078    1.0304093      8192000 
  704000   0.79710268   -3.8708908   -3.8708908    -2.840232  0.025811344   -3.8708908    1.0306588      8192000 
  705000   0.79692366   -3.8706032   -3.8706032   -2.8401758  0.027060955   -3.8706032    1.0304274      8192000 
  706000   0.79754074   -3.8710464   -3.8710464   -2.8398212  0.028716915   -3.8710464    1.0312253      8192000 
  707000   0.79691353   -3.8706389   -3.8706389   -2.8402247  0.027664021   -3.8706389    1.0304143      8192000 
  708000   0.79713896   -3.8705705   -3.8705705   -2.8398648   0.02842323   -3.8705705    1.0307058      8192000 
  709000   0.79705924   -3.8702439   -3.8702439   -2.8396412  0.027034694   -3.8702439    1.0306027      8192000 
  710000    0.7975088   -3.8709101   -3.8709101   -2.8397261  0.024848887   -3.8709101     1.031184      8192000 
  711000   0.79720561   -3.8710116   -3.8710116   -2.8402196  0.027323882   -3.8710116    1.0307919      8192000 
  712000   0.79632163   -3.8696023   -3.8696023   -2.8399533  0.026410648   -3.8696023    1.0296489      8192000 
  713000    0.7965257   -3.8701489   -3.8701489   -2.8402361  0.026286438   -3.8701489    1.0299128      8192000 
  714000      0.79654   -3.8700249   -3.8700249   -2.8400936  0.028704101   -3.8700249    1.0299313      8192000 
  715000   0.79690327    -3.870007    -3.870007    -2.839606  0.027647715    -3.870007     1.030401      8192000 
  716000    0.7967403   -3.8701147   -3.8701147   -2.8399245  0.024295074   -3.8701147    1.0301903      8192000 
  717000   0.79694481   -3.8702886   -3.8702886   -2.8398339  0.024683375   -3.8702886    1.0304547      8192000 
  718000   0.79688258   -3.8704431   -3.8704431   -2.8400689  0.026540722   -3.8704431    1.0303743      8192000 
  719000   0.79663711   -3.8700283   -3.8700283   -2.8399714  0.023864511   -3.8700283    1.0300569      8192000 
  720000   0.79716765   -3.8706358   -3.8706358    -2.839893  0.025901469   -3.8706358    1.0307429      8192000 
  721000   0.79733137   -3.8704152   -3.8704152   -2.8394607  0.029243573   -3.8704152    1.0309546      8192000 
  722000   0.79732245   -3.8705876   -3.8705876   -2.8396445  0.027199859   -3.8705876     1.030943      8192000 
  723000   0.79653255   -3.8696785   -3.8696785   -2.8397569  0.026719843   -3.8696785    1.0299217      8192000 
  724000   0.79655491   -3.8700741   -3.8700741   -2.8401235  0.025171798   -3.8700741    1.0299506      8192000 
  725000    0.7964984   -3.8699921   -3.8699921   -2.8401146   0.02591308   -3.8699921    1.0298775      8192000 
  726000   0.79630427   -3.8699729   -3.8699729   -2.8403464  0.028079402   -3.8699729    1.0296265      8192000 
  727000   0.79621062   -3.8698081   -3.8698081   -2.8403027  0.027735317   -3.8698081    1.0295054      8192000 
  728000   0.79647578   -3.8701299   -3.8701299   -2.8402817  0.026616188   -3.8701299    1.0298483      8192000 
  729000   0.79666926    -3.870608    -3.870608   -2.8405095  0.024184117    -3.870608    1.0300984      8192000 
  730000   0.79716633   -3.8708257   -3.8708257   -2.8400846  0.026967078   -3.8708257    1.0307412      8192000 
  731000     0.796982   -3.8702318   -3.8702318    -2.839729  0.027709693   -3.8702318    1.0305028      8192000 
  732000   0.79669332   -3.8701483   -3.8701483   -2.8400187   0.02822619   -3.8701483    1.0301295      8192000 
  733000   0.79711688   -3.8703672   -3.8703672   -2.8396899  0.027827804   -3.8703672    1.0306772      8192000 
  734000   0.79702943   -3.8703775   -3.8703775   -2.8398134  0.031485554   -3.8703775    1.0305641      8192000 
  735000   0.79714281   -3.8705486   -3.8705486   -2.8398379  0.028516608   -3.8705486    1.0307107      8192000 
  736000   0.79702823   -3.8707936   -3.8707936    -2.840231  0.027990556   -3.8707936    1.0305626      8192000 
  737000   0.79671432   -3.8704221   -3.8704221   -2.8402654  0.027765715   -3.8704221    1.0301567      8192000 
  738000   0.79702713   -3.8707633   -3.8707633   -2.8402022  0.026017688   -3.8707633    1.0305612      8192000 
  739000   0.79751739   -3.8714722   -3.8714722   -2.8402771  0.028475364   -3.8714722    1.0311951      8192000 
  740000   0.79701398   -3.8710077   -3.8710077   -2.8404635  0.029409362   -3.8710077    1.0305442      8192000 
  741000   0.79685698   -3.8703819   -3.8703819   -2.8400408  0.029167423   -3.8703819    1.0303412      8192000 
  742000   0.79654812   -3.8702961   -3.8702961   -2.8403543  0.027654426   -3.8702961    1.0299418      8192000 
  743000   0.79693787   -3.8704722   -3.8704722   -2.8400264  0.025711975   -3.8704722    1.0304457      8192000 
  744000   0.79734106   -3.8710411   -3.8710411    -2.840074  0.027771604   -3.8710411    1.0309671      8192000 
  745000   0.79694184    -3.870571    -3.870571   -2.8401201  0.028260903    -3.870571    1.0304509      8192000 
  746000   0.79701637   -3.8707044   -3.8707044   -2.8401572  0.029252313   -3.8707044    1.0305472      8192000 
  747000   0.79685568   -3.8705567   -3.8705567   -2.8402172  0.026736507   -3.8705567    1.0303395      8192000 
  748000   0.79733301   -3.8711232   -3.8711232   -2.8401665  0.029105284   -3.8711232    1.0309567      8192000 
  749000   0.79680637   -3.8702581   -3.8702581   -2.8399824  0.028255155   -3.8702581    1.0302757      8192000 
  750000   0.79686237   -3.8700429   -3.8700429   -2.8396947  0.029478035   -3.8700429    1.0303481      8192000 
  751000   0.79681801   -3.8702911   -3.8702911   -2.8400004  0.027029007   -3.8702911    1.0302908      8192000 
  752000   0.79659723   -3.8699782   -3.8699782   -2.8399729  0.029609199   -3.8699782    1.0300053      8192000 
  753000   0.79676071   -3.8698925   -3.8698925   -2.8396758  0.026114711   -3.8698925    1.0302167      8192000 
  754000   0.79667628   -3.8703093   -3.8703093   -2.8402018  0.025742613   -3.8703093    1.0301075      8192000 
  755000   0.79639519   -3.8695831   -3.8695831    -2.839839  0.028797868   -3.8695831    1.0297441      8192000 
  756000   0.79627674   -3.8692904   -3.8692904   -2.8396995  0.028670521   -3.8692904    1.0295909      8192000 
  757000   0.79665118   -3.8698138   -3.8698138   -2.8397387  0.026920478   -3.8698138    1.0300751      8192000 
  758000   0.79657138   -3.8696133   -3.8696133   -2.8396415  0.026482195   -3.8696133    1.0299719      8192000 
  759000   0.79681691   -3.8699005   -3.8699005   -2.8396111   0.02914721   -3.8699005    1.0302893      8192000 
  760000   0.79666295   -3.8696017   -3.8696017   -2.8395114  0.028717248   -3.8696017    1.0300903      8192000 
  761000   0.79678158   -3.8700513   -3.8700513   -2.8398076  0.027129888   -3.8700513    1.0302437      8192000 
  762000   0.79630977   -3.8700087   -3.8700087   -2.8403751  0.024586141   -3.8700087    1.0296336      8192000 
  763000    0.7963759   -3.8695771   -3.8695771    -2.839858  0.024898805   -3.8695771    1.0297191      8192000 
  764000    0.7959048   -3.8693886   -3.8693886   -2.8402786  0.023912818   -3.8693886      1.02911      8192000 
  765000   0.79672069   -3.8701815   -3.8701815   -2.8400166  0.023444217   -3.8701815    1.0301649      8192000 
  766000   0.79686814   -3.8699046   -3.8699046    -2.839549  0.025941362   -3.8699046    1.0303556      8192000 
  767000   0.79639425   -3.8695291   -3.8695291   -2.8397862  0.026279262   -3.8695291    1.0297428      8192000 
  768000   0.79643968    -3.869264    -3.869264   -2.8394624  0.027880504    -3.869264    1.0298016      8192000 
  769000   0.79683002   -3.8701369   -3.8701369   -2.8398306  0.029804628   -3.8701369    1.0303063      8192000 
  770000   0.79672036   -3.8702319   -3.8702319   -2.8400674  0.032741658   -3.8702319    1.0301645      8192000 
  771000   0.79721258   -3.8703801   -3.8703801   -2.8395792  0.029871028   -3.8703801     1.030801      8192000 
  772000   0.79728413   -3.8705768   -3.8705768   -2.8396834  0.027993356   -3.8705768    1.0308935      8192000 
  773000   0.79709062   -3.8704486   -3.8704486   -2.8398054  0.028812484   -3.8704486    1.0306433      8192000 
  774000   0.79731752     -3.87033     -3.87033   -2.8393934  0.031390068     -3.87033    1.0309366      8192000 
  775000   0.79725711   -3.8703878   -3.8703878   -2.8395292  0.028604923   -3.8703878    1.0308585      8192000 
  776000   0.79731631   -3.8704625   -3.8704625   -2.8395274  0.029405181   -3.8704625    1.0309351      8192000 
  777000   0.79741371   -3.8703555   -3.8703555   -2.8392945  0.028274678   -3.8703555     1.031061      8192000 
  778000   0.79747178   -3.8709292   -3.8709292   -2.8397931  0.027902559   -3.8709292    1.0311361      8192000 
  779000   0.79711952   -3.8705308   -3.8705308   -2.8398502  0.028711278   -3.8705308    1.0306806      8192000 
  780000   0.79745471   -3.8706704   -3.8706704   -2.8395564  0.028784429   -3.8706704     1.031114      8192000 
  781000   0.79748077   -3.8708722   -3.8708722   -2.8397245  0.028331165   -3.8708722    1.0311477      8192000 
  782000   0.79709254    -3.870113    -3.870113   -2.8394673   0.03218609    -3.870113    1.0306457      8192000 
  783000   0.79699171   -3.8699776   -3.8699776   -2.8394622   0.03099217   -3.8699776    1.0305154      8192000 
  784000   0.79658924   -3.8697917   -3.8697917   -2.8397967   0.03038707   -3.8697917     1.029995      8192000 
  785000   0.79669964   -3.8700399   -3.8700399   -2.8399022  0.027021727   -3.8700399    1.0301377      8192000 
  786000   0.79669076   -3.8698431   -3.8698431   -2.8397168  0.027919275   -3.8698431    1.0301262      8192000 
  787000   0.79642246   -3.8696626   -3.8696626   -2.8398833  0.025190714   -3.8696626    1.0297793      8192000 
  788000   0.79626934   -3.8696008   -3.8696008   -2.8400195  0.026567942   -3.8696008    1.0295813      8192000 
  789000   0.79620907   -3.8692491   -3.8692491   -2.8397457  0.025806501   -3.8692491    1.0295034      8192000 
  790000   0.79614181   -3.8691416   -3.8691416   -2.8397251  0.024436132   -3.8691416    1.0294164      8192000 
  791000   0.79630528   -3.8692009   -3.8692009   -2.8395731  0.027299793   -3.8692009    1.0296278      8192000 
  792000   0.79657531   -3.8694856   -3.8694856   -2.8395087  0.026065705   -3.8694856    1.0299769      8192000 
  793000   0.79668676    -3.869693    -3.869693   -2.8395719  0.024148139    -3.869693    1.0301211      8192000 
  794000    0.7964768   -3.8693508   -3.8693508   -2.8395012  0.026173654   -3.8693508    1.0298496      8192000 
  795000   0.79638467    -3.869621    -3.869621   -2.8398905  0.026157601    -3.869621    1.0297305      8192000 
  796000   0.79721284    -3.870078    -3.870078   -2.8392767  0.024501833    -3.870078    1.0308013      8192000 
  797000   0.79679343   -3.8695255   -3.8695255   -2.8392665  0.028054179   -3.8695255     1.030259      8192000 
  798000   0.79686882   -3.8696348   -3.8696348   -2.8392783  0.025624469   -3.8696348    1.0303565      8192000 
  799000   0.79698057   -3.8697496   -3.8697496   -2.8392487  0.024727883   -3.8697496     1.030501      8192000 
  800000   0.79638961   -3.8689342   -3.8689342   -2.8391974  0.028407362   -3.8689342    1.0297368      8192000 
  801000   0.79684694   -3.8694241   -3.8694241   -2.8390959  0.024605059   -3.8694241    1.0303282      8192000 
  802000   0.79737755   -3.8700694   -3.8700694   -2.8390551  0.027379436   -3.8700694    1.0310143      8192000 
  803000   0.79706063   -3.8694782   -3.8694782   -2.8388737  0.028299979   -3.8694782    1.0306045      8192000 
  804000   0.79657258   -3.8694236   -3.8694236   -2.8394502  0.026202187   -3.8694236    1.0299734      8192000 
  805000   0.79695518   -3.8696048   -3.8696048   -2.8391367   0.02813726   -3.8696048    1.0304681      8192000 
  806000   0.79717659    -3.870096    -3.870096   -2.8393416  0.027166543    -3.870096    1.0307544      8192000 
  807000   0.79684123   -3.8697042   -3.8697042   -2.8393834  0.030084686   -3.8697042    1.0303208      8192000 
  808000    0.7967488   -3.8695743   -3.8695743    -2.839373  0.029538274   -3.8695743    1.0302013      8192000 
  809000   0.79688344   -3.8699725   -3.8699725   -2.8395971  0.026264953   -3.8699725    1.0303754      8192000 
  810000   0.79668799   -3.8692756   -3.8692756    -2.839153  0.028609518   -3.8692756    1.0301226      8192000 
  811000   0.79685268   -3.8697245   -3.8697245   -2.8393889  0.026673506   -3.8697245    1.0303356      8192000 
  812000   0.79658342   -3.8691505   -3.8691505    -2.839163  0.025703028   -3.8691505    1.0299874      8192000 
  813000   0.79715612   -3.8700117   -3.8700117   -2.8392837  0.027680571   -3.8700117    1.0307279      8192000 
  814000   0.79687207   -3.8694908   -3.8694908   -2.8391301  0.028387089   -3.8694908    1.0303607      8192000 
  815000   0.79667225   -3.8698421   -3.8698421   -2.8397398  0.026639623   -3.8698421    1.0301023      8192000 
  816000   0.79761377   -3.8707343   -3.8707343   -2.8394146  0.026377103   -3.8707343    1.0313197      8192000 
  817000   0.79675874   -3.8695195   -3.8695195   -2.8393054  0.027822411   -3.8695195    1.0302141      8192000 
  818000   0.79742923   -3.8703101   -3.8703101    -2.839229  0.028473287   -3.8703101    1.0310811      8192000 
  819000   0.79762722   -3.8701777   -3.8701777   -2.8388406    0.0288794   -3.8701777    1.0313371      8192000 
  820000   0.79719939   -3.8700393   -3.8700393   -2.8392554  0.026485085   -3.8700393    1.0307839      8192000 
  821000   0.79715351   -3.8701295   -3.8701295   -2.8394049  0.027569242   -3.8701295    1.0307246      8192000 
  822000   0.79686918    -3.869641    -3.869641   -2.8392841  0.028146368    -3.869641    1.0303569      8192000 
  823000   0.79677183   -3.8699024   -3.8699024   -2.8396713  0.024924296   -3.8699024    1.0302311      8192000 
  824000   0.79668346   -3.8694377   -3.8694377   -2.8393209  0.026761328   -3.8694377    1.0301168      8192000 
  825000   0.79647098   -3.8696145   -3.8696145   -2.8397724  0.027098657   -3.8696145    1.0298421      8192000 
  826000    0.7966948   -3.8698525   -3.8698525    -2.839721  0.027574171   -3.8698525    1.0301315      8192000 
  827000    0.7967746   -3.8696805   -3.8696805   -2.8394459  0.026727117   -3.8696805    1.0302346      8192000 
  828000   0.79696866   -3.8698904   -3.8698904   -2.8394048  0.027277014   -3.8698904    1.0304856      8192000 
  829000   0.79698554   -3.8698465   -3.8698465   -2.8393391  0.025611388   -3.8698465    1.0305074      8192000 
  830000   0.79646885   -3.8694603   -3.8694603    -2.839621  0.028509937   -3.8694603    1.0298393      8192000 
  831000   0.79644767   -3.8690321   -3.8690321   -2.8392201  0.027367465   -3.8690321    1.0298119      8192000 
  832000   0.79666275   -3.8695275   -3.8695275   -2.8394375  0.029340589   -3.8695275      1.03009      8192000 
  833000   0.79677954   -3.8697802   -3.8697802   -2.8395392  0.026391217   -3.8697802     1.030241      8192000 
  834000   0.79685201    -3.869767    -3.869767   -2.8394323  0.030032902    -3.869767    1.0303347      8192000 
  835000   0.79701791   -3.8698674   -3.8698674   -2.8393181  0.026994586   -3.8698674    1.0305492      8192000 
  836000   0.79686681   -3.8697535   -3.8697535   -2.8393997  0.026535944   -3.8697535    1.0303539      8192000 
  837000   0.79689329   -3.8697485   -3.8697485   -2.8393604  0.026638591   -3.8697485    1.0303881      8192000 
  838000   0.79674664   -3.8695352   -3.8695352   -2.8393367  0.027088008   -3.8695352    1.0301985      8192000 
  839000   0.79732228   -3.8703422   -3.8703422   -2.8393995  0.027378671   -3.8703422    1.0309428      8192000 
  840000   0.79725647   -3.8703265   -3.8703265   -2.8394688  0.027664602   -3.8703265    1.0308577      8192000 
  841000   0.79686476   -3.8696557   -3.8696557   -2.8393045  0.029710754   -3.8696557    1.0303512      8192000 
  842000   0.79698381   -3.8697707   -3.8697707   -2.8392655  0.025948747   -3.8697707    1.0305051      8192000 
  843000   0.79759552   -3.8704346   -3.8704346   -2.8391385  0.025231954   -3.8704346    1.0312961      8192000 
  844000   0.79694354   -3.8697221   -3.8697221    -2.839269   0.02618815   -3.8697221    1.0304531      8192000 
  845000   0.79611805   -3.8686265   -3.8686265   -2.8392408  0.031690698   -3.8686265    1.0293857      8192000 
  846000    0.7969378   -3.8696498   -3.8696498   -2.8392041  0.027039329   -3.8696498    1.0304457      8192000 
  847000   0.79708702   -3.8697939   -3.8697939   -2.8391553  0.026539926   -3.8697939    1.0306386      8192000 
  848000   0.79730324   -3.8704583   -3.8704583   -2.8395401  0.026413466   -3.8704583    1.0309182      8192000 
  849000   0.79672095   -3.8699093   -3.8699093    -2.839744  0.027079637   -3.8699093    1.0301653      8192000 
  850000   0.79683616   -3.8699672   -3.8699672    -2.839653  0.026707404   -3.8699672    1.0303142      8192000 
  851000   0.79732214    -3.870244    -3.870244   -2.8393014  0.027945772    -3.870244    1.0309426      8192000 
  852000    0.7968644   -3.8695875   -3.8695875   -2.8392368  0.027746406   -3.8695875    1.0303507      8192000 
  853000    0.7970319   -3.8693472   -3.8693472   -2.8387799   0.02793924   -3.8693472    1.0305673      8192000 
  854000   0.79703741    -3.869373    -3.869373   -2.8387986  0.026294472    -3.869373    1.0305744      8192000 
  855000   0.79714238   -3.8697041   -3.8697041   -2.8389939  0.027153494   -3.8697041    1.0307102      8192000 
  856000   0.79696994   -3.8693954   -3.8693954   -2.8389082  0.029250787   -3.8693954    1.0304872      8192000 
  857000   0.79739833   -3.8699741   -3.8699741    -2.838933  0.023720723   -3.8699741    1.0310411      8192000 
  858000   0.79752839   -3.8699036   -3.8699036   -2.8386943  0.030330593   -3.8699036    1.0312093      8192000 
  859000   0.79714951   -3.8697029   -3.8697029   -2.8389835  0.025813633   -3.8697029    1.0307194      8192000 
  860000   0.79685147   -3.8691148   -3.8691148   -2.8387807  0.027956602   -3.8691148     1.030334      8192000 
  861000   0.79669505   -3.8688053   -3.8688053   -2.8386735  0.028848727   -3.8688053    1.0301318      8192000 
  862000   0.79656055   -3.8689674   -3.8689674   -2.8390096  0.025672157   -3.8689674    1.0299579      8192000 
  863000   0.79678652   -3.8691243   -3.8691243   -2.8388742  0.027837815   -3.8691243      1.03025      8192000 
  864000   0.79658091   -3.8687143   -3.8687143   -2.8387301   0.03041994   -3.8687143    1.0299842      8192000 
  865000    0.7968416    -3.869023    -3.869023   -2.8387017  0.026763267    -3.869023    1.0303213      8192000 
  866000    0.7967645     -3.86941     -3.86941   -2.8391884  0.025363951     -3.86941    1.0302216      8192000 
  867000   0.79653875   -3.8686414   -3.8686414   -2.8387117  0.025706317   -3.8686414    1.0299297      8192000 
  868000   0.79647722   -3.8689613   -3.8689613   -2.8391112  0.026005574   -3.8689613    1.0298501      8192000 
  869000   0.79613473   -3.8691009   -3.8691009   -2.8396936  0.027328486   -3.8691009    1.0294073      8192000 
  870000   0.79643733   -3.8692209   -3.8692209   -2.8394224  0.026936205   -3.8692209    1.0297985      8192000 
  871000   0.79644062   -3.8689287   -3.8689287   -2.8391259  0.028049436   -3.8689287    1.0298028      8192000 
  872000   0.79668948   -3.8692558   -3.8692558   -2.8391312  0.030611643   -3.8692558    1.0301246      8192000 
  873000   0.79654214   -3.8692843   -3.8692843   -2.8393503  0.025991854   -3.8692843    1.0299341      8192000 
  874000   0.79665483   -3.8690352   -3.8690352   -2.8389554  0.026397672   -3.8690352    1.0300798      8192000 
  875000   0.79663681   -3.8689377   -3.8689377   -2.8388813  0.026233328   -3.8689377    1.0300565      8192000 
  876000   0.79694082   -3.8694383   -3.8694383   -2.8389887  0.023750469   -3.8694383    1.0304496      8192000 
  877000   0.79684382   -3.8689648   -3.8689648   -2.8386407  0.027304159   -3.8689648    1.0303241      8192000 
  878000   0.79719659   -3.8697889   -3.8697889   -2.8390086     0.028168   -3.8697889    1.0307803      8192000 
  879000   0.79689592   -3.8692646   -3.8692646   -2.8388731  0.027101303   -3.8692646    1.0303915      8192000 
  880000   0.79730969   -3.8696587   -3.8696587   -2.8387322  0.029488774   -3.8696587    1.0309265      8192000 
  881000   0.79720247   -3.8694264   -3.8694264   -2.8386385  0.028696028   -3.8694264    1.0307879      8192000 
  882000   0.79722878   -3.8694556   -3.8694556   -2.8386337  0.030995357   -3.8694556    1.0308219      8192000 
  883000   0.79705256   -3.8689409   -3.8689409   -2.8383469  0.032213679   -3.8689409     1.030594      8192000 
  884000   0.79715848     -3.86929     -3.86929    -2.838559  0.027970386     -3.86929     1.030731      8192000 
  885000   0.79714777   -3.8693792   -3.8693792   -2.8386621  0.025481304   -3.8693792    1.0307171      8192000 
  886000   0.79650751   -3.8693142   -3.8693142   -2.8394249  0.029374736   -3.8693142    1.0298893      8192000 
  887000   0.79683846   -3.8693962   -3.8693962    -2.839079  0.028557119   -3.8693962    1.0303172      8192000 
  888000    0.7964967   -3.8687678   -3.8687678   -2.8388925  0.027720529   -3.8687678    1.0298753      8192000 
  889000   0.79680861   -3.8693336   -3.8693336    -2.839055  0.025105672   -3.8693336    1.0302786      8192000 
  890000   0.79664513   -3.8690295   -3.8690295   -2.8389622  0.027927985   -3.8690295    1.0300672      8192000 
  891000   0.79694224   -3.8692974   -3.8692974    -2.838846  0.027498211   -3.8692974    1.0304514      8192000 
  892000   0.79714962   -3.8695319   -3.8695319   -2.8388124  0.026241427   -3.8695319    1.0307195      8192000 
  893000   0.79684249   -3.8690898   -3.8690898   -2.8387674  0.028429943   -3.8690898    1.0303224      8192000 
  894000   0.79705562   -3.8688259   -3.8688259   -2.8382279  0.029227627   -3.8688259     1.030598      8192000 
  895000   0.79723269   -3.8692301   -3.8692301   -2.8384032  0.028175985   -3.8692301     1.030827      8192000 
  896000    0.7963621   -3.8680719   -3.8680719   -2.8383706  0.032158768   -3.8680719    1.0297013      8192000 
  897000   0.79728251   -3.8695576   -3.8695576   -2.8386662  0.026115026   -3.8695576    1.0308914      8192000 
  898000   0.79693292   -3.8687566   -3.8687566   -2.8383172  0.026627639   -3.8687566    1.0304393      8192000 
  899000   0.79683275   -3.8685497   -3.8685497   -2.8382399  0.028589076   -3.8685497    1.0303098      8192000 
  900000   0.79713065   -3.8689077   -3.8689077   -2.8382127  0.027840098   -3.8689077     1.030695      8192000 
  901000   0.79715358   -3.8689224   -3.8689224   -2.8381977  0.027631416   -3.8689224    1.0307247      8192000 
  902000   0.79698483    -3.868995    -3.868995   -2.8384885  0.027152333    -3.868995    1.0305065      8192000 
  903000   0.79678132   -3.8687641   -3.8687641   -2.8385208  0.026244107   -3.8687641    1.0302433      8192000 
  904000    0.7966932   -3.8685427   -3.8685427   -2.8384133  0.027576314   -3.8685427    1.0301294      8192000 
  905000   0.79673957   -3.8685853   -3.8685853   -2.8383959  0.029462641   -3.8685853    1.0301893      8192000 
  906000   0.79708972   -3.8689653   -3.8689653   -2.8383233  0.026435235   -3.8689653    1.0306421      8192000 
  907000   0.79679238   -3.8687205   -3.8687205   -2.8384629  0.027300141   -3.8687205    1.0302576      8192000 
  908000   0.79662211   -3.8687945   -3.8687945    -2.838757  0.026796703   -3.8687945    1.0300375      8192000 
  909000   0.79685009   -3.8689656   -3.8689656   -2.8386333  0.025839982   -3.8689656    1.0303322      8192000 
  910000   0.79682696   -3.8691479   -3.8691479   -2.8388455   0.02460682   -3.8691479    1.0303023      8192000 
  911000   0.79651316   -3.8687886   -3.8687886    -2.838892  0.027572367   -3.8687886    1.0298966      8192000 
  912000   0.79701981   -3.8692836   -3.8692836   -2.8387319  0.023949382   -3.8692836    1.0305517      8192000 
  913000   0.79684778    -3.869494    -3.869494   -2.8391647  0.024164737    -3.869494    1.0303293      8192000 
  914000    0.7970333   -3.8691115   -3.8691115   -2.8385424  0.025200247   -3.8691115    1.0305691      8192000 
  915000   0.79639731   -3.8687429   -3.8687429   -2.8389961  0.027163249   -3.8687429    1.0297468      8192000 
  916000    0.7970186   -3.8693188   -3.8693188   -2.8387686  0.024912276   -3.8693188    1.0305501      8192000 
  917000   0.79719803   -3.8692571   -3.8692571   -2.8384749  0.033624049   -3.8692571    1.0307821      8192000 
  918000   0.79752504   -3.8698678   -3.8698678   -2.8386628  0.027941103   -3.8698678     1.031205      8192000 
  919000    0.7975392   -3.8696502   -3.8696502   -2.8384269  0.030308875   -3.8696502    1.0312233      8192000 
  920000   0.79707144   -3.8692031   -3.8692031   -2.8385846  0.026255826   -3.8692031    1.0306185      8192000 
  921000   0.79736619    -3.869482    -3.869482   -2.8384824  0.028402887    -3.869482    1.0309996      8192000 
  922000   0.79701392   -3.8689178   -3.8689178   -2.8383737  0.030407408   -3.8689178    1.0305441      8192000 
  923000    0.7972316   -3.8694096   -3.8694096   -2.8385841  0.027851054   -3.8694096    1.0308255      8192000 
  924000   0.79685632   -3.8692497   -3.8692497   -2.8389094  0.027847205   -3.8692497    1.0303403      8192000 
  925000   0.79672578   -3.8689908   -3.8689908   -2.8388193  0.028630018   -3.8689908    1.0301715      8192000 
  926000   0.79728204   -3.8696103   -3.8696103   -2.8387195  0.025305212   -3.8696103    1.0308908      8192000 
  927000    0.7973272   -3.8692757   -3.8692757   -2.8383265   0.02770713   -3.8692757    1.0309492      8192000 
  928000   0.79746913   -3.8693825   -3.8693825   -2.8382498  0.027672041   -3.8693825    1.0311327      8192000 
  929000   0.79720285   -3.8693256   -3.8693256   -2.8385372  0.025700442   -3.8693256    1.0307884      8192000 
  930000   0.79714599   -3.8693597   -3.8693597   -2.8386448  0.026528226   -3.8693597    1.0307149      8192000 
  931000   0.79726388   -3.8691382   -3.8691382   -2.8382709  0.028655996   -3.8691382    1.0308673      8192000 
  932000   0.79709143    -3.869555    -3.869555   -2.8389107  0.027075905    -3.869555    1.0306443      8192000 
  933000   0.79684929   -3.8690722   -3.8690722    -2.838741  0.027965792   -3.8690722    1.0303312      8192000 
  934000   0.79712427   -3.8691718   -3.8691718    -2.838485  0.026670535   -3.8691718    1.0306868      8192000 
  935000   0.79694034   -3.8692691   -3.8692691   -2.8388202  0.026033681   -3.8692691    1.0304489      8192000 
  936000   0.79643229   -3.8686724   -3.8686724   -2.8388804  0.026517597   -3.8686724     1.029792      8192000 
  937000   0.79672919   -3.8692191   -3.8692191   -2.8390432  0.024944701   -3.8692191    1.0301759      8192000 
  938000   0.79705095   -3.8693568   -3.8693568   -2.8387648  0.026612709   -3.8693568     1.030592      8192000 
  939000   0.79707701   -3.8690689   -3.8690689   -2.8384432  0.026932367   -3.8690689    1.0306257      8192000 
  940000   0.79698485   -3.8692032   -3.8692032   -2.8386967  0.026466454   -3.8692032    1.0305065      8192000 
  941000   0.79722046    -3.869231    -3.869231   -2.8384199  0.026563784    -3.869231    1.0308111      8192000 
  942000   0.79715905   -3.8693807   -3.8693807    -2.838649  0.027081007   -3.8693807    1.0307317      8192000 
  943000   0.79737952   -3.8696548   -3.8696548    -2.838638  0.026445355   -3.8696548    1.0310168      8192000 
  944000   0.79766276   -3.8694022   -3.8694022   -2.8380191  0.027354635   -3.8694022     1.031383      8192000 
  945000   0.79773438   -3.8692413   -3.8692413   -2.8377656  0.028730641   -3.8692413    1.0314756      8192000 
  946000   0.79743965   -3.8693084   -3.8693084   -2.8382138  0.027220763   -3.8693084    1.0310945      8192000 
  947000   0.79745238   -3.8692563   -3.8692563   -2.8381453  0.030045802   -3.8692563     1.031111      8192000 
  948000   0.79740283   -3.8691727   -3.8691727   -2.8381258  0.029630687   -3.8691727    1.0310469      8192000 
  949000   0.79699835   -3.8689467   -3.8689467   -2.8384228  0.028158702   -3.8689467     1.030524      8192000 
  950000   0.79730376   -3.8691785   -3.8691785   -2.8382597  0.026683858   -3.8691785    1.0309188      8192000 
  951000   0.79689706   -3.8688375   -3.8688375   -2.8384445  0.029685476   -3.8688375     1.030393      8192000 
  952000   0.79787383   -3.8700161   -3.8700161   -2.8383602  0.028105189   -3.8700161    1.0316559      8192000 
  953000   0.79739529   -3.8691436   -3.8691436   -2.8381064  0.029015705   -3.8691436    1.0310372      8192000 
  954000    0.7971505   -3.8690903   -3.8690903   -2.8383696   0.02732769   -3.8690903    1.0307207      8192000 
  955000   0.79735189   -3.8696068   -3.8696068   -2.8386257  0.027698642   -3.8696068    1.0309811      8192000 
  956000   0.79712628   -3.8689746   -3.8689746   -2.8382852  0.025833778   -3.8689746    1.0306894      8192000 
  957000   0.79694789   -3.8685214   -3.8685214   -2.8380627  0.027685424   -3.8685214    1.0304587      8192000 
  958000   0.79682216   -3.8684156   -3.8684156   -2.8381195  0.028584736   -3.8684156    1.0302961      8192000 
  959000   0.79714442   -3.8689005   -3.8689005   -2.8381876  0.023936099   -3.8689005    1.0307128      8192000 
  960000   0.79681326    -3.868758    -3.868758   -2.8384734  0.027136739    -3.868758    1.0302846      8192000 
  961000   0.79690728   -3.8685162   -3.8685162     -2.83811  0.028725085   -3.8685162    1.0304062      8192000 
  962000   0.79729603   -3.8690592   -3.8690592   -2.8381504  0.027124385   -3.8690592    1.0309088      8192000 
  963000   0.79704061   -3.8683736   -3.8683736    -2.837795  0.029250662   -3.8683736    1.0305786      8192000 
  964000   0.79782177   -3.8693103   -3.8693103   -2.8377217  0.025190346   -3.8693103    1.0315886      8192000 
  965000   0.79715275   -3.8689266   -3.8689266    -2.838203  0.026098404   -3.8689266    1.0307236      8192000 
  966000   0.79676641    -3.868218    -3.868218    -2.837994  0.030408046    -3.868218     1.030224      8192000 
  967000   0.79704478   -3.8688072   -3.8688072   -2.8382232  0.025319113   -3.8688072     1.030584      8192000 
  968000   0.79691877   -3.8683404   -3.8683404   -2.8379194  0.025610965   -3.8683404     1.030421      8192000 
  969000   0.79694591   -3.8685997   -3.8685997   -2.8381435  0.026668653   -3.8685997    1.0304561      8192000 
  970000   0.79707625   -3.8686405   -3.8686405   -2.8380158  0.028165114   -3.8686405    1.0306247      8192000 
  971000   0.79746064   -3.8688859   -3.8688859   -2.8377642  0.024196405   -3.8688859    1.0311217      8192000 
  972000   0.79719348   -3.8682914   -3.8682914   -2.8375152  0.026164982   -3.8682914    1.0307763      8192000 
  973000    0.7970679   -3.8683086   -3.8683086   -2.8376948  0.029133095   -3.8683086    1.0306139      8192000 
  974000   0.79711688   -3.8688262   -3.8688262    -2.838149  0.026944792   -3.8688262    1.0306772      8192000 
  975000   0.79703087    -3.868831    -3.868831    -2.838265   0.02902249    -3.868831     1.030566      8192000 
  976000   0.79722956   -3.8691264   -3.8691264   -2.8383035   0.02766154   -3.8691264    1.0308229      8192000 
  977000   0.79718326   -3.8688536   -3.8688536   -2.8380906  0.028427716   -3.8688536     1.030763      8192000 
  978000   0.79713738   -3.8688417   -3.8688417    -2.838138  0.025873667   -3.8688417    1.0307037      8192000 
  979000   0.79680968   -3.8689016   -3.8689016   -2.8386216  0.024086003   -3.8689016      1.03028      8192000 
  980000    0.7969145   -3.8686776   -3.8686776    -2.838262  0.025930086   -3.8686776    1.0304155      8192000 
  981000   0.79667106   -3.8684515   -3.8684515   -2.8383507  0.028376035   -3.8684515    1.0301008      8192000 
  982000   0.79674302    -3.868367    -3.868367   -2.8381732  0.025512273    -3.868367    1.0301938      8192000 
  983000   0.79712125   -3.8686689   -3.8686689    -2.837986   0.02329408   -3.8686689    1.0306829      8192000 
  984000   0.79715507   -3.8687204   -3.8687204   -2.8379938  0.030734912   -3.8687204    1.0307266      8192000 
  985000    0.7976812   -3.8692573   -3.8692573   -2.8378504  0.024846268   -3.8692573    1.0314069      8192000 
  986000   0.79742225   -3.8688751   -3.8688751   -2.8378031  0.026957782   -3.8688751    1.0310721      8192000 
  987000   0.79719485   -3.8687429   -3.8687429   -2.8379649  0.029814531   -3.8687429     1.030778      8192000 
  988000    0.7977777   -3.8692572   -3.8692572   -2.8377256  0.029067585   -3.8692572    1.0315317      8192000 
  989000   0.79740388   -3.8690792   -3.8690792   -2.8380309  0.028887293   -3.8690792    1.0310483      8192000 
  990000   0.79735947   -3.8690802   -3.8690802   -2.8380894  0.027843373   -3.8690802    1.0309909      8192000 
  991000   0.79741004   -3.8691413   -3.8691413   -2.8380851  0.027410521   -3.8691413    1.0310563      8192000 
  992000   0.79708502   -3.8686699   -3.8686699   -2.8380339  0.024093349   -3.8686699     1.030636      8192000 
  993000   0.79740616   -3.8687482   -3.8687482   -2.8376969  0.028363387   -3.8687482    1.0310513      8192000 
  994000   0.79708081   -3.8684362   -3.8684362   -2.8378057   0.02751215   -3.8684362    1.0306306      8192000 
  995000   0.79718976   -3.8684193   -3.8684193   -2.8376479  0.028474145   -3.8684193    1.0307714      8192000 
  996000   0.79747306   -3.8686621   -3.8686621   -2.8375243  0.031694964   -3.8686621    1.0311377      8192000 
  997000   0.79766509   -3.8690525   -3.8690525   -2.8376664  0.027094872   -3.8690525     1.031386      8192000 
  998000   0.79784254   -3.8692901   -3.8692901   -2.8376746  0.027851861   -3.8692901    1.0316155      8192000 
  999000   0.79749446   -3.8686219   -3.8686219   -2.8374565   0.03006803   -3.8686219    1.0311654      8192000 
 1000000   0.79763102   -3.8689716   -3.8689716   -2.8376296  0.028962948   -3.8689716     1.031342      8192000 
Loop time of 19421.5 on 240 procs for 1000000 steps with 4233413 atoms

Performance: 22243.436 tau/day, 51.489 timesteps/s
97.6% CPU use with 240 MPI tasks x 1 OpenMP threads

MPI task timing breakdown:
Section |  min time  |  avg time  |  max time  |%varavg|  %CPU | %total
-----------------------------------------------------------------------
Pair    | 6585       | 7557       | 8966       | 627.0 |  99.4 | 38.91
Bond    | 0.7659     | 0.90754    | 1.0587     |   4.2 | 100.0 |  0.00
Neigh   | 4379.7     | 6013.6     | 7655.1     | 777.9 |  99.6 | 30.96
Comm    | 1655.1     | 3592.6     | 6143.7     |1428.7 |  93.6 | 18.50
Output  | 257.01     | 259.28     | 264.07     |  15.2 |  91.4 |  1.33
Modify  | 1210.9     | 1797.3     | 2786.5     | 791.0 |  94.1 |  9.25
Other   |            | 200.9      |            |       |       |  1.03

Nlocal:        17639.2 ave       19481 max       15924 min
Histogram: 2 17 12 52 58 43 23 20 7 6
Nghost:        16158.0 ave       21007 max        9550 min
Histogram: 25 12 3 20 12 20 45 58 33 12
Neighs:        569852.0 ave      654764 max      480102 min
Histogram: 4 8 8 52 91 16 1 17 23 20

Total # of neighbors = 1.367646e+08
Ave neighs/atom = 32.305990
Ave special neighs/atom = 0.0000000
Neighbor list builds = 100000
Dangerous builds = 99000
Total wall time: 5:23:57
