LAMMPS (24 Dec 2020)
OMP_NUM_THREADS environment is not set. Defaulting to 1 thread. (src/comm.cpp:94)
  using 1 OpenMP thread(s) per MPI task
#Read the equilibrated lj fluid and add nanocubes

units           lj
atom_style      full
atom_modify     map array first cubes
dimension       3
boundary        p p f
pair_style      lj/cut/opt 2.5

variable        sigma           equal 1.0
variable        epsilon         equal 1.0
read_restart	restart.dat.1000000
Reading restart file ...
  restart file = 24 Dec 2020, LAMMPS = 24 Dec 2020
  restoring atom style full from restart
  orthogonal box = (0.0000000 0.0000000 0.0000000) to (160.00000 160.00000 320.00000)
  5 by 4 by 12 MPI processor grid
  restoring pair style lj/cut/opt from restart
  4233413 atoms
Finding 1-2 1-3 1-4 neighbors ...
  special bond factors lj:    0        0        0       
  special bond factors coul:  0        0        0       
     0 = max # of 1-2 neighbors
     0 = max # of 1-3 neighbors
     0 = max # of 1-4 neighbors
     1 = max # of special neighbors
  special bonds CPU = 1.908 seconds
  read_restart CPU = 3.732 seconds

group		solvent type 1
3648197 atoms in group solvent

neighbor      0.4 bin
neigh_modify  exclude molecule/intra cubes


pair_modify   shift yes

pair_coeff    1 1 1.0 1.0 #solvent
pair_coeff    2 2 0.6 1.0 #np
pair_coeff    3 3 0.0 0.0 0.0 #dummy
pair_coeff    2 3 0.0 0.0 0.0 #np dummy
pair_coeff    1 2 0.8 1.0 #np solvent
pair_coeff    1 3 0.0 0.0 0.0 #dummy solvent


comm_modify   mode multi cutoff/multi 1 2.5 cutoff/multi 2 2.5 cutoff/multi 3 6.95

reset_timestep 	0

balance 	1.05 shift z 10 1.05
Balancing ...
Unused restart file global fix info:
  fix style: STORE, fix ID: msd_COMPUTE_STORE
Neighbor list info ...
  update every 1 steps, delay 10 steps, check yes
  max neighbors/atom: 2000, page size: 100000
  master list distance cutoff = 2.9
  ghost atom cutoff = 6.95
  binsize = 1.45, bins = 111 111 221
  1 neighbor lists, perpetual/occasional/extra = 1 0 0
  (1) pair lj/cut/opt, perpetual
      attributes: half, newton on
      pair build: half/bin/newton
      stencil: half/bin/3d/newton
      bin: standard
 rebalancing time: 0.064 seconds
  iteration count = 4
  initial/final maximal load/proc = 30442.000 25144.000
  initial/final imbalance factor  = 1.7258132 1.4254598
  x cuts: 0.0000000 0.20000000 0.40000000 0.60000000 0.80000000 1.0000000
  y cuts: 0.0000000 0.25000000 0.50000000 0.75000000 1.0000000
  z cuts: 0.0000000 0.057291667 0.10937500 0.15625000 0.21875000 0.26041667 0.32812500 0.38020833 0.43229167 0.47916667 0.52083333 0.60416667 1.0000000

####################### WALLS ###########################

variable       epsilonWall equal 2*${epsilon}
variable       epsilonWall equal 2*1

variable       cutoffTop   equal   0.7147*${sigma}
variable       cutoffTop   equal   0.7147*1

variable       cutoffLow   equal   3*${sigma}
variable       cutoffLow   equal   3*1

region         lowWall block EDGE EDGE EDGE EDGE EDGE 2


fix            topWall all wall/lj93 zhi EDGE 	       ${epsilonWall} ${sigma} ${cutoffTop} units box
fix            topWall all wall/lj93 zhi EDGE 	       2 ${sigma} ${cutoffTop} units box
fix            topWall all wall/lj93 zhi EDGE 	       2 1 ${cutoffTop} units box
fix            topWall all wall/lj93 zhi EDGE 	       2 1 0.7147 units box

fix            lowWall all wall/lj93 zlo EDGE                ${epsilonWall} ${sigma} ${cutoffLow} units box
fix            lowWall all wall/lj93 zlo EDGE                2 ${sigma} ${cutoffLow} units box
fix            lowWall all wall/lj93 zlo EDGE                2 1 ${cutoffLow} units box
fix            lowWall all wall/lj93 zlo EDGE                2 1 3 units box


######################  FIXES ############################


fix             1 cubes rigid/nve/small molecule #temp 1.0 1.0 0.25
  create bodies CPU = 0.031 seconds
  512 rigid bodies with 585216 atoms
  6.9282032 = max distance from body owner to body atom

fix             2 solvent nve


## Thermostat

region          regthermo block EDGE EDGE EDGE EDGE 0 20

group           thermo dynamic solvent region regthermo every 1000
dynamic group thermo defined

fix             3 thermo langevin ${startTemp} ${temp} 0.1 156453
fix             3 thermo langevin 0.8 ${temp} 0.1 156453
fix             3 thermo langevin 0.8 0.8 0.1 156453




#### Load balancing

fix             bal all balance 1000 1.05 shift z 10 1.05

############### Diagnostics and computes ###################

compute        com cubes          rigid/local   1 mol x y z
compute        quat cubes         rigid/local   1 mol quatw quati quatj quatk
compute 	cc2 cubes chunk/atom molecule

compute 	msd cubes msd/chunk cc2

thermo          1000
thermo_style    custom step temp epair evdwl etotal press pe ke vol

dump            1 all custom 100000 dump.lammpstrj id mol type x y z
dump            2 all image 10000 image.*.png type type

dump_modify     2 pad 8


dump		image cubes image 10000 image_cubes.*.png type type

dump_modify	image pad 8

dump            3 all movie 5000 movie.avi type type
dump		4 cubes movie 5000 movie_cubes.avi type type
dump           com cubes local 1000 dump.*.xyz c_com[*]
dump           quat cubes      local 1000 dump.*.quat c_quat[*]


restart         500000 restart.dat
timestep        0.005
timer           full
New timer settings: style=full  mode=nosync  timeout=off

run            1000000
Per MPI rank memory allocation (min/avg/max) = 43.58 | 55.28 | 60.31 Mbytes
Step Temp E_pair E_vdwl TotEng Press PotEng KinEng Volume 
       0   0.79763102   -3.8689716   -3.8689716   -2.8376296  0.023395161   -3.8689716     1.031342      8192000 
    1000   0.79744225   -3.8686008   -3.8686008   -2.8375029   0.02672398   -3.8686008    1.0310979      8192000 
    2000   0.79725808   -3.8685677   -3.8685677   -2.8377079  0.028054145   -3.8685677    1.0308598      8192000 
    3000   0.79685605   -3.8679236   -3.8679236   -2.8375836  0.029722652   -3.8679236    1.0303399      8192000 
    4000   0.79698276   -3.8683525   -3.8683525   -2.8378487  0.028097833   -3.8683525    1.0305038      8192000 
    5000   0.79713639   -3.8681862   -3.8681862   -2.8374838  0.025503372   -3.8681862    1.0307024      8192000 
    6000   0.79671349   -3.8676965   -3.8676965   -2.8375409  0.026885884   -3.8676965    1.0301556      8192000 
    7000   0.79645335   -3.8676437   -3.8676437   -2.8378245  0.024796138   -3.8676437    1.0298193      8192000 
    8000   0.79696406   -3.8678878   -3.8678878   -2.8374082   0.02576174   -3.8678878    1.0304796      8192000 
    9000   0.79660525   -3.8677692   -3.8677692   -2.8377536  0.027791742   -3.8677692    1.0300157      8192000 
   10000   0.79729818   -3.8681948   -3.8681948   -2.8372831  0.025209775   -3.8681948    1.0309116      8192000 
   11000   0.79702816   -3.8682612   -3.8682612   -2.8376987  0.027384943   -3.8682612    1.0305625      8192000 
   12000   0.79702087   -3.8679742   -3.8679742   -2.8374212  0.027186461   -3.8679742    1.0305531      8192000 
   13000   0.79702924   -3.8679034   -3.8679034   -2.8373395  0.025964369   -3.8679034    1.0305639      8192000 
   14000   0.79709512   -3.8677742   -3.8677742   -2.8371251  0.028287125   -3.8677742    1.0306491      8192000 
   15000   0.79679477   -3.8679462   -3.8679462   -2.8376855   0.02790615   -3.8679462    1.0302607      8192000 
   16000   0.79717878   -3.8680648   -3.8680648   -2.8373076  0.026953639   -3.8680648    1.0307572      8192000 
   17000   0.79733796   -3.8685152   -3.8685152   -2.8375522  0.027752116   -3.8685152    1.0309631      8192000 
   18000   0.79700927   -3.8680167   -3.8680167   -2.8374787  0.027916964   -3.8680167    1.0305381      8192000 
   19000   0.79736543   -3.8684715   -3.8684715    -2.837473  0.027235869   -3.8684715    1.0309986      8192000 
   20000   0.79734797   -3.8684412   -3.8684412   -2.8374652  0.029254093   -3.8684412     1.030976      8192000 
   21000   0.79756534   -3.8681823   -3.8681823   -2.8369252  0.030124808   -3.8681823    1.0312571      8192000 
   22000   0.79755845   -3.8683529   -3.8683529   -2.8371047  0.029023089   -3.8683529    1.0312482      8192000 
   23000   0.79738963   -3.8680714   -3.8680714   -2.8370416  0.030389337   -3.8680714    1.0310299      8192000 
   24000   0.79757861   -3.8685383   -3.8685383   -2.8372641  0.027725693   -3.8685383    1.0312742      8192000 
   25000   0.79789436   -3.8688768   -3.8688768   -2.8371943  0.028512564   -3.8688768    1.0316825      8192000 
   26000   0.79737419   -3.8681307   -3.8681307   -2.8371208  0.031732798   -3.8681307    1.0310099      8192000 
   27000    0.7973406    -3.868466    -3.868466   -2.8374995  0.029827247    -3.868466    1.0309665      8192000 
   28000   0.79741105   -3.8684168   -3.8684168   -2.8373592  0.025801288   -3.8684168    1.0310576      8192000 
   29000   0.79757424   -3.8686899   -3.8686899   -2.8374213  0.027653218   -3.8686899    1.0312686      8192000 
   30000   0.79734645   -3.8685082   -3.8685082   -2.8375341  0.028447533   -3.8685082     1.030974      8192000 
   31000   0.79754611   -3.8687392   -3.8687392    -2.837507  0.027152298   -3.8687392    1.0312322      8192000 
   32000    0.7973481    -3.868507    -3.868507   -2.8375309  0.026751902    -3.868507    1.0309762      8192000 
   33000   0.79730699   -3.8680109   -3.8680109   -2.8370879  0.029272546   -3.8680109     1.030923      8192000 
   34000   0.79754568   -3.8684278   -3.8684278   -2.8371961  0.026834646   -3.8684278    1.0312316      8192000 
   35000    0.7971596   -3.8678537   -3.8678537   -2.8371213  0.027423173   -3.8678537    1.0307324      8192000 
   36000   0.79685104   -3.8680373   -3.8680373   -2.8377038  0.028111932   -3.8680373    1.0303335      8192000 
   37000   0.79724086   -3.8685908   -3.8685908   -2.8377533  0.027733057   -3.8685908    1.0308375      8192000 
   38000   0.79698367   -3.8677491   -3.8677491   -2.8372442  0.029311429   -3.8677491     1.030505      8192000 
   39000   0.79699231    -3.867763    -3.867763   -2.8372468  0.029004106    -3.867763    1.0305161      8192000 
   40000   0.79672797   -3.8676453   -3.8676453    -2.837471  0.027428893   -3.8676453    1.0301743      8192000 
   41000   0.79727557   -3.8681825   -3.8681825   -2.8373001  0.025934205   -3.8681825    1.0308824      8192000 
   42000   0.79692451   -3.8678067   -3.8678067   -2.8373783  0.026981193   -3.8678067    1.0304285      8192000 
   43000   0.79725304   -3.8684072   -3.8684072   -2.8375539  0.025182658   -3.8684072    1.0308533      8192000 
   44000   0.79747646   -3.8682696   -3.8682696   -2.8371274   0.02701311   -3.8682696    1.0311421      8192000 
   45000   0.79738729   -3.8683009   -3.8683009    -2.837274  0.028439608   -3.8683009    1.0310268      8192000 
   46000   0.79754117    -3.868564    -3.868564   -2.8373381    0.0261906    -3.868564    1.0312258      8192000 
   47000   0.79694132   -3.8679924   -3.8679924   -2.8375422  0.028528736   -3.8679924    1.0304502      8192000 
   48000   0.79708904   -3.8683025   -3.8683025   -2.8376613  0.028746571   -3.8683025    1.0306412      8192000 
   49000   0.79739414    -3.868624    -3.868624   -2.8375883  0.028078924    -3.868624    1.0310357      8192000 
   50000   0.79787601   -3.8686304   -3.8686304   -2.8369716   0.02781822   -3.8686304    1.0316588      8192000 
   51000   0.79759583   -3.8687716   -3.8687716   -2.8374751  0.029564561   -3.8687716    1.0312965      8192000 
   52000   0.79765119   -3.8687203   -3.8687203   -2.8373523   0.03058984   -3.8687203    1.0313681      8192000 
   53000   0.79762766   -3.8686018   -3.8686018   -2.8372641  0.030227035   -3.8686018    1.0313376      8192000 
   54000   0.79738814   -3.8688148   -3.8688148   -2.8377868  0.027963994   -3.8688148     1.031028      8192000 
   55000   0.79725792   -3.8683675   -3.8683675   -2.8375079  0.027574436   -3.8683675    1.0308596      8192000 
   56000   0.79737716   -3.8683015   -3.8683015   -2.8372877  0.030426721   -3.8683015    1.0310137      8192000 
   57000   0.79754738   -3.8685086   -3.8685086   -2.8372748  0.028542113   -3.8685086    1.0312338      8192000 
   58000   0.79756878   -3.8687654   -3.8687654   -2.8375039   0.02634786   -3.8687654    1.0312615      8192000 
   59000   0.79743054   -3.8687946   -3.8687946   -2.8377118  0.026155658   -3.8687946    1.0310828      8192000 
   60000   0.79734699   -3.8686333   -3.8686333   -2.8376586  0.028251572   -3.8686333    1.0309747      8192000 
   61000   0.79737371   -3.8682249   -3.8682249   -2.8372156  0.027055228   -3.8682249    1.0310093      8192000 
   62000   0.79729145   -3.8684381   -3.8684381   -2.8375351  0.026452697   -3.8684381    1.0309029      8192000 
   63000    0.7974169   -3.8685464   -3.8685464   -2.8374813  0.028074783   -3.8685464    1.0310651      8192000 
   64000    0.7973638   -3.8687564   -3.8687564   -2.8377599  0.027798822   -3.8687564    1.0309965      8192000 
   65000   0.79780957    -3.868958    -3.868958   -2.8373852  0.027064309    -3.868958    1.0315729      8192000 
   66000   0.79739858   -3.8681121   -3.8681121   -2.8370707  0.028870147   -3.8681121    1.0310415      8192000 
   67000   0.79767667    -3.868514    -3.868514    -2.837113  0.028602191    -3.868514     1.031401      8192000 
   68000   0.79744554   -3.8684336   -3.8684336   -2.8373315  0.027247981   -3.8684336    1.0311022      8192000 
   69000   0.79678504   -3.8677989   -3.8677989   -2.8375507  0.027968845   -3.8677989    1.0302481      8192000 
   70000   0.79738075   -3.8683662   -3.8683662   -2.8373478  0.027348705   -3.8683662    1.0310184      8192000 
   71000   0.79699949   -3.8679095   -3.8679095    -2.837384  0.026074056   -3.8679095    1.0305254      8192000 
   72000   0.79691111   -3.8678112   -3.8678112   -2.8374001  0.028362295   -3.8678112    1.0304111      8192000 
   73000   0.79695929    -3.867581    -3.867581   -2.8371076  0.030374162    -3.867581    1.0304734      8192000 
   74000   0.79733819   -3.8682283   -3.8682283   -2.8372649  0.027483651   -3.8682283    1.0309634      8192000 
   75000   0.79743898   -3.8683118   -3.8683118   -2.8372181  0.026725163   -3.8683118    1.0310937      8192000 
   76000   0.79734974   -3.8686171   -3.8686171   -2.8376388  0.026791607   -3.8686171    1.0309783      8192000 
   77000   0.79748056   -3.8687581   -3.8687581   -2.8376106   0.02743968   -3.8687581    1.0311475      8192000 
   78000   0.79781395   -3.8686624   -3.8686624   -2.8370839  0.028954683   -3.8686624    1.0315785      8192000 
   79000   0.79755894    -3.868415    -3.868415   -2.8371662  0.028208055    -3.868415    1.0312488      8192000 
   80000   0.79728918   -3.8680925   -3.8680925   -2.8371925  0.028089749   -3.8680925       1.0309      8192000 
   81000   0.79730841   -3.8679803   -3.8679803   -2.8370555  0.030342114   -3.8679803    1.0309249      8192000 
   82000     0.797564   -3.8685506   -3.8685506   -2.8372953  0.030145739   -3.8685506    1.0312553      8192000 
   83000   0.79724105   -3.8680128   -3.8680128    -2.837175  0.028662557   -3.8680128    1.0308378      8192000 
   84000   0.79776252    -3.868456    -3.868456   -2.8369439  0.025806714    -3.868456     1.031512      8192000 
   85000   0.79725065   -3.8683185   -3.8683185   -2.8374683  0.028787143   -3.8683185    1.0308502      8192000 
   86000   0.79753396   -3.8684585   -3.8684585    -2.837242  0.025458283   -3.8684585    1.0312165      8192000 
   87000   0.79725917   -3.8683713   -3.8683713   -2.8375101   0.02774302   -3.8683713    1.0308612      8192000 
   88000   0.79769673   -3.8685666   -3.8685666   -2.8371396  0.027658956   -3.8685666     1.031427      8192000 
   89000   0.79758208   -3.8681561   -3.8681561   -2.8368774  0.031162785   -3.8681561    1.0312787      8192000 
   90000   0.79752773   -3.8681846   -3.8681846   -2.8369762  0.031108971   -3.8681846    1.0312084      8192000 
   91000   0.79765946   -3.8688316   -3.8688316   -2.8374528  0.027538554   -3.8688316    1.0313788      8192000 
   92000     0.797646   -3.8684951   -3.8684951   -2.8371338  0.028338219   -3.8684951    1.0313614      8192000 
   93000   0.79741008   -3.8683076   -3.8683076   -2.8372513  0.025707056   -3.8683076    1.0310563      8192000 
   94000   0.79741614   -3.8683505   -3.8683505   -2.8372863  0.028503233   -3.8683505    1.0310641      8192000 
   95000   0.79757274   -3.8684364   -3.8684364   -2.8371698  0.028520191   -3.8684364    1.0312666      8192000 
   96000   0.79753005    -3.868121    -3.868121   -2.8369096  0.029045435    -3.868121    1.0312114      8192000 
   97000   0.79731418   -3.8683055   -3.8683055   -2.8373732  0.026571605   -3.8683055    1.0309323      8192000 
   98000   0.79741508   -3.8682212   -3.8682212   -2.8371584  0.028607855   -3.8682212    1.0310628      8192000 
   99000   0.79694841   -3.8676759   -3.8676759   -2.8372165  0.029410992   -3.8676759    1.0304594      8192000 
  100000    0.7972203   -3.8680612   -3.8680612   -2.8372502  0.027753383   -3.8680612    1.0308109      8192000 
  101000   0.79751089   -3.8681304   -3.8681304   -2.8369437  0.026939231   -3.8681304    1.0311867      8192000 
  102000   0.79749044   -3.8680975   -3.8680975   -2.8369373  0.029675774   -3.8680975    1.0311602      8192000 
  103000   0.79773606   -3.8682234   -3.8682234   -2.8367456  0.028670935   -3.8682234    1.0314778      8192000 
  104000    0.7973377   -3.8680229   -3.8680229   -2.8370602  0.029609988   -3.8680229    1.0309627      8192000 
  105000   0.79700598   -3.8675866   -3.8675866   -2.8370528  0.031013595   -3.8675866    1.0305338      8192000 
  106000   0.79763622    -3.868075    -3.868075   -2.8367263  0.028702847    -3.868075    1.0313487      8192000 
  107000   0.79741315   -3.8681703   -3.8681703     -2.83711  0.027089423   -3.8681703    1.0310603      8192000 
  108000   0.79776326   -3.8688794   -3.8688794   -2.8373664  0.023923165   -3.8688794     1.031513      8192000 
  109000   0.79763908   -3.8684063   -3.8684063   -2.8370539  0.025755557   -3.8684063    1.0313524      8192000 
  110000   0.79746628   -3.8681006   -3.8681006   -2.8369716  0.026398971   -3.8681006     1.031129      8192000 
  111000   0.79755201   -3.8682729   -3.8682729   -2.8370331  0.025890088   -3.8682729    1.0312398      8192000 
  112000   0.79764825   -3.8683734   -3.8683734   -2.8370092  0.025917565   -3.8683734    1.0313643      8192000 
  113000   0.79732539    -3.867914    -3.867914   -2.8369672  0.028800984    -3.867914    1.0309468      8192000 
  114000   0.79727049   -3.8676928   -3.8676928    -2.836817  0.026354777   -3.8676928    1.0308758      8192000 
  115000   0.79801524   -3.8684202   -3.8684202   -2.8365814  0.025735553   -3.8684202    1.0318388      8192000 
  116000   0.79763853   -3.8682545   -3.8682545   -2.8369028  0.026362103   -3.8682545    1.0313517      8192000 
  117000   0.79743578   -3.8682063   -3.8682063   -2.8371167  0.026365577   -3.8682063    1.0310896      8192000 
  118000     0.797644   -3.8681401   -3.8681401   -2.8367813  0.027026737   -3.8681401    1.0313588      8192000 
  119000   0.79714081   -3.8674948   -3.8674948   -2.8367866  0.027134461   -3.8674948    1.0307081      8192000 
  120000   0.79714633   -3.8675656   -3.8675656   -2.8368503  0.029217247   -3.8675656    1.0307153      8192000 
  121000   0.79690491   -3.8677894   -3.8677894   -2.8373863  0.028539485   -3.8677894    1.0304031      8192000 
  122000    0.7974595   -3.8680066   -3.8680066   -2.8368864  0.029526833   -3.8680066    1.0311202      8192000 
  123000   0.79775969   -3.8683653   -3.8683653    -2.836857  0.024614814   -3.8683653    1.0315084      8192000 
  124000   0.79745502   -3.8677787   -3.8677787   -2.8366643  0.028865271   -3.8677787    1.0311144      8192000 
  125000   0.79752357   -3.8680341   -3.8680341    -2.836831  0.028616255   -3.8680341    1.0312031      8192000 
  126000   0.79743638   -3.8679909   -3.8679909   -2.8369006  0.029002181   -3.8679909    1.0310903      8192000 
  127000   0.79762077     -3.86813     -3.86813   -2.8368012  0.029501253     -3.86813    1.0313287      8192000 
  128000   0.79750773   -3.8681154   -3.8681154   -2.8369329  0.031165171   -3.8681154    1.0311826      8192000 
  129000   0.79748071    -3.867886    -3.867886   -2.8367384  0.029510155    -3.867886    1.0311476      8192000 
  130000   0.79787698   -3.8682644   -3.8682644   -2.8366044  0.028175495   -3.8682644      1.03166      8192000 
  131000   0.79717292   -3.8675352   -3.8675352   -2.8367856   0.02870993   -3.8675352    1.0307497      8192000 
  132000   0.79713101   -3.8678294   -3.8678294   -2.8371339  0.027465685   -3.8678294    1.0306955      8192000 
  133000   0.79775855   -3.8681665   -3.8681665   -2.8366596  0.027777524   -3.8681665    1.0315069      8192000 
  134000   0.79734709   -3.8680281   -3.8680281   -2.8370532  0.027865832   -3.8680281    1.0309749      8192000 
  135000   0.79757292   -3.8675532   -3.8675532   -2.8362863  0.025730397   -3.8675532    1.0312669      8192000 
  136000   0.79775666   -3.8683481   -3.8683481   -2.8368436  0.024520659   -3.8683481    1.0315045      8192000 
  137000   0.79770153   -3.8680136   -3.8680136   -2.8365804  0.028285403   -3.8680136    1.0314332      8192000 
  138000   0.79756706   -3.8680757   -3.8680757   -2.8368164   0.02716283   -3.8680757    1.0312593      8192000 
  139000    0.7974039   -3.8675941   -3.8675941   -2.8365458  0.030466718   -3.8675941    1.0310483      8192000 
  140000   0.79742599   -3.8672706   -3.8672706   -2.8361937  0.027477373   -3.8672706    1.0310769      8192000 
  141000   0.79698282   -3.8669738   -3.8669738     -2.83647   0.03045594   -3.8669738    1.0305039      8192000 
  142000   0.79726219   -3.8673759   -3.8673759   -2.8365108  0.026920311   -3.8673759    1.0308651      8192000 
  143000   0.79749882   -3.8674018   -3.8674018   -2.8362308  0.026144501   -3.8674018    1.0311711      8192000 
  144000   0.79716221   -3.8669272   -3.8669272   -2.8361914  0.028115433   -3.8669272    1.0307358      8192000 
  145000   0.79694046   -3.8668765   -3.8668765   -2.8364274   0.02860004   -3.8668765    1.0304491      8192000 
  146000   0.79749934   -3.8671821   -3.8671821   -2.8360104  0.025976986   -3.8671821    1.0311717      8192000 
  147000   0.79747214   -3.8676533   -3.8676533   -2.8365168  0.023465545   -3.8676533    1.0311366      8192000 
  148000   0.79764893   -3.8674887   -3.8674887   -2.8361236   0.02493396   -3.8674887    1.0313652      8192000 
  149000   0.79743352   -3.8674786   -3.8674786    -2.836392  0.026739246   -3.8674786    1.0310866      8192000 
  150000   0.79771264   -3.8674752   -3.8674752   -2.8360277  0.028325063   -3.8674752    1.0314475      8192000 
  151000   0.79759412   -3.8673979   -3.8673979   -2.8361036  0.027767802   -3.8673979    1.0312943      8192000 
  152000    0.7977746   -3.8673545   -3.8673545   -2.8358268  0.029530704   -3.8673545    1.0315276      8192000 
  153000   0.79760236   -3.8674009   -3.8674009    -2.836096  0.027709445   -3.8674009    1.0313049      8192000 
  154000    0.7977406    -3.867604    -3.867604   -2.8361203  0.025706709    -3.867604    1.0314837      8192000 
  155000   0.79785678   -3.8676263   -3.8676263   -2.8359924  0.025567906   -3.8676263    1.0316339      8192000 
  156000   0.79770237   -3.8673734   -3.8673734   -2.8359392  0.028151712   -3.8673734    1.0314343      8192000 
  157000   0.79791178   -3.8675079   -3.8675079   -2.8358029  0.028425647   -3.8675079     1.031705      8192000 
  158000   0.79792497   -3.8676143   -3.8676143   -2.8358922  0.028561442   -3.8676143    1.0317221      8192000 
  159000   0.79819611   -3.8678919   -3.8678919   -2.8358193  0.027928745   -3.8678919    1.0320727      8192000 
  160000   0.79796562   -3.8673961   -3.8673961   -2.8356214  0.026350464   -3.8673961    1.0317746      8192000 
  161000   0.79731455   -3.8669425   -3.8669425   -2.8360097  0.032815095   -3.8669425    1.0309328      8192000 
  162000   0.79823241   -3.8673024   -3.8673024   -2.8351828  0.025429841   -3.8673024    1.0321196      8192000 
  163000   0.79761521   -3.8670192   -3.8670192   -2.8356977  0.027054059   -3.8670192    1.0313215      8192000 
  164000   0.79743984   -3.8667748   -3.8667748     -2.83568  0.028845545   -3.8667748    1.0310948      8192000 
  165000    0.7972721    -3.866812    -3.866812    -2.835934  0.025983266    -3.866812    1.0308779      8192000 
  166000   0.79724962   -3.8669901   -3.8669901   -2.8361413  0.025946173   -3.8669901    1.0308488      8192000 
  167000   0.79764727   -3.8674499   -3.8674499   -2.8360869  0.027343567   -3.8674499     1.031363      8192000 
  168000   0.79743921   -3.8668413   -3.8668413   -2.8357473  0.025827642   -3.8668413     1.031094      8192000 
  169000   0.79708763    -3.866682    -3.866682   -2.8360426  0.028469987    -3.866682    1.0306394      8192000 
  170000   0.79762912   -3.8670348   -3.8670348   -2.8356952  0.026643795   -3.8670348    1.0313395      8192000 
  171000    0.7975495   -3.8670494   -3.8670494   -2.8358128  0.025770068   -3.8670494    1.0312366      8192000 
  172000   0.79752072   -3.8669544   -3.8669544    -2.835755   0.02644624   -3.8669544    1.0311994      8192000 
  173000   0.79742254   -3.8669459   -3.8669459   -2.8358735  0.029014514   -3.8669459    1.0310724      8192000 
  174000   0.79729891   -3.8677622   -3.8677622   -2.8368497  0.024941664   -3.8677622    1.0309126      8192000 
  175000   0.79717382   -3.8671376   -3.8671376   -2.8363868  0.027006884   -3.8671376    1.0307508      8192000 
  176000   0.79734742   -3.8673047   -3.8673047   -2.8363294  0.025841093   -3.8673047    1.0309753      8192000 
  177000   0.79746314   -3.8671319   -3.8671319    -2.836007  0.026510286   -3.8671319    1.0311249      8192000 
  178000   0.79693382    -3.866763    -3.866763   -2.8363225  0.029159459    -3.866763    1.0304405      8192000 
  179000   0.79702539   -3.8671159   -3.8671159    -2.836557   0.02844949   -3.8671159    1.0305589      8192000 
  180000   0.79766793    -3.867589    -3.867589   -2.8361992  0.023739101    -3.867589    1.0313897      8192000 
  181000   0.79737595   -3.8677043   -3.8677043   -2.8366921  0.027955876   -3.8677043    1.0310122      8192000 
  182000   0.79760657   -3.8677902   -3.8677902   -2.8364798  0.026904522   -3.8677902    1.0313104      8192000 
  183000   0.79812071   -3.8683284   -3.8683284   -2.8363532  0.027703871   -3.8683284    1.0319752      8192000 
  184000    0.7977282   -3.8680541   -3.8680541   -2.8365864  0.029711308   -3.8680541    1.0314676      8192000 
  185000   0.79791838   -3.8681595   -3.8681595   -2.8364459  0.025569157   -3.8681595    1.0317135      8192000 
  186000   0.79750002   -3.8673787   -3.8673787   -2.8362061  0.030522487   -3.8673787    1.0311726      8192000 
  187000   0.79775046   -3.8677617   -3.8677617   -2.8362653   0.03003295   -3.8677617    1.0314964      8192000 
  188000   0.79770534   -3.8680668   -3.8680668   -2.8366287   0.03081537   -3.8680668    1.0314381      8192000 
  189000   0.79779791   -3.8678641   -3.8678641   -2.8363063  0.027882153   -3.8678641    1.0315578      8192000 
  190000   0.79751545    -3.867805    -3.867805   -2.8366124  0.029264825    -3.867805    1.0311926      8192000 
  191000   0.79798238   -3.8683553   -3.8683553    -2.836559  0.027547756   -3.8683553    1.0317963      8192000 
  192000   0.79762833   -3.8679431   -3.8679431   -2.8366046  0.028011075   -3.8679431    1.0313385      8192000 
  193000   0.79750415   -3.8677333   -3.8677333   -2.8365553  0.028934324   -3.8677333     1.031178      8192000 
  194000    0.7978584   -3.8682776   -3.8682776   -2.8366416  0.029300215   -3.8682776     1.031636      8192000 
  195000   0.79756953   -3.8678761   -3.8678761   -2.8366136  0.030076819   -3.8678761    1.0312625      8192000 
  196000   0.79810778    -3.868365    -3.868365   -2.8364066  0.028799664    -3.868365    1.0319584      8192000 
  197000   0.79779339   -3.8682942   -3.8682942   -2.8367423  0.029690611   -3.8682942    1.0315519      8192000 
  198000   0.79782384   -3.8681205   -3.8681205   -2.8365292    0.0283948   -3.8681205    1.0315913      8192000 
  199000   0.79775035   -3.8681251   -3.8681251   -2.8366289  0.027882122   -3.8681251    1.0314963      8192000 
  200000   0.79745758   -3.8673396   -3.8673396   -2.8362219  0.031949151   -3.8673396    1.0311177      8192000 
  201000   0.79801314   -3.8678633   -3.8678633   -2.8360272  0.026587168   -3.8678633    1.0318361      8192000 
  202000   0.79744403   -3.8675571   -3.8675571   -2.8364569  0.028316867   -3.8675571    1.0311002      8192000 
  203000   0.79769085   -3.8678914   -3.8678914   -2.8364721  0.029511317   -3.8678914    1.0314194      8192000 
  204000    0.7976775   -3.8681293   -3.8681293   -2.8367272   0.02568217   -3.8681293    1.0314021      8192000 
  205000   0.79726118   -3.8673641   -3.8673641   -2.8365003  0.028825007   -3.8673641    1.0308638      8192000 
  206000   0.79774046   -3.8682196   -3.8682196   -2.8367361  0.026991367   -3.8682196    1.0314835      8192000 
  207000   0.79709172    -3.866959    -3.866959   -2.8363143  0.029075623    -3.866959    1.0306447      8192000 
  208000   0.79707343   -3.8674093   -3.8674093   -2.8367882  0.026894267   -3.8674093     1.030621      8192000 
  209000   0.79736556   -3.8680733   -3.8680733   -2.8370745  0.026957842   -3.8680733    1.0309988      8192000 
  210000   0.79712921   -3.8674662   -3.8674662   -2.8367731  0.025881593   -3.8674662    1.0306932      8192000 
  211000   0.79729112   -3.8678047   -3.8678047   -2.8369022  0.024331399   -3.8678047    1.0309025      8192000 
  212000   0.79736328   -3.8676089   -3.8676089   -2.8366131   0.02851644   -3.8676089    1.0309958      8192000 
  213000   0.79729164   -3.8674415   -3.8674415   -2.8365383  0.027762959   -3.8674415    1.0309032      8192000 
  214000   0.79754995   -3.8676731   -3.8676731    -2.836436  0.027697779   -3.8676731    1.0312372      8192000 
  215000   0.79718713   -3.8673319   -3.8673319   -2.8365639  0.026465784   -3.8673319     1.030768      8192000 
  216000   0.79764535   -3.8679596   -3.8679596    -2.836599  0.024769439   -3.8679596    1.0313605      8192000 
  217000   0.79717962   -3.8678177   -3.8678177   -2.8370593  0.028082585   -3.8678177    1.0307583      8192000 
  218000   0.79796298    -3.868263    -3.868263   -2.8364917  0.026926279    -3.868263    1.0317712      8192000 
  219000   0.79824498   -3.8685244   -3.8685244   -2.8363886  0.026344954   -3.8685244    1.0321359      8192000 
  220000   0.79755075   -3.8677866   -3.8677866   -2.8365484   0.02897988   -3.8677866    1.0312382      8192000 
  221000   0.79729238   -3.8679809   -3.8679809   -2.8370768   0.02797548   -3.8679809    1.0309041      8192000 
  222000   0.79709736   -3.8677302   -3.8677302   -2.8370782  0.025290171   -3.8677302     1.030652      8192000 
  223000   0.79782242   -3.8681645   -3.8681645   -2.8365751  0.026900559   -3.8681645    1.0315895      8192000 
  224000   0.79725541   -3.8675535   -3.8675535   -2.8366971   0.03173501   -3.8675535    1.0308563      8192000 
  225000   0.79753602   -3.8679257   -3.8679257   -2.8367066  0.030940092   -3.8679257    1.0312192      8192000 
  226000   0.79787447   -3.8680234   -3.8680234   -2.8363666  0.031724785   -3.8680234    1.0316568      8192000 
  227000   0.79786631   -3.8684661   -3.8684661   -2.8368198  0.028525905   -3.8684661    1.0316462      8192000 
  228000   0.79781561   -3.8680865   -3.8680865   -2.8365058  0.030926267   -3.8680865    1.0315807      8192000 
  229000   0.79764381   -3.8680335   -3.8680335   -2.8366749  0.028525376   -3.8680335    1.0313585      8192000 
  230000   0.79784311   -3.8681447   -3.8681447   -2.8365285  0.033203829   -3.8681447    1.0316162      8192000 
  231000    0.7979839   -3.8683569   -3.8683569   -2.8365586  0.025838635   -3.8683569    1.0317983      8192000 
  232000   0.79786389   -3.8685947   -3.8685947   -2.8369516  0.028612025   -3.8685947    1.0316431      8192000 
  233000   0.79785529   -3.8686854   -3.8686854   -2.8370534  0.028047901   -3.8686854     1.031632      8192000 
  234000   0.79752327   -3.8682467   -3.8682467    -2.837044   0.02885284   -3.8682467    1.0312027      8192000 
  235000   0.79722408   -3.8674563   -3.8674563   -2.8366404   0.02926251   -3.8674563    1.0308158      8192000 
  236000   0.79737257   -3.8677959   -3.8677959   -2.8367881  0.029822665   -3.8677959    1.0310078      8192000 
  237000   0.79795976   -3.8684791   -3.8684791    -2.836712  0.026791449   -3.8684791    1.0317671      8192000 
  238000   0.79765128   -3.8680284   -3.8680284   -2.8366602  0.029740742   -3.8680284    1.0313682      8192000 
  239000   0.79750114   -3.8676459   -3.8676459   -2.8364718  0.029299241   -3.8676459    1.0311741      8192000 
  240000   0.79721793   -3.8675619   -3.8675619    -2.836754  0.031132512   -3.8675619    1.0308079      8192000 
  241000   0.79767827   -3.8677474   -3.8677474   -2.8363443  0.030141415   -3.8677474    1.0314031      8192000 
  242000   0.79734594    -3.867234    -3.867234   -2.8362606  0.028320561    -3.867234    1.0309734      8192000 
  243000   0.79746129   -3.8675966   -3.8675966    -2.836474  0.027281877   -3.8675966    1.0311225      8192000 
  244000   0.79791629    -3.867883    -3.867883   -2.8361721  0.026400254    -3.867883    1.0317108      8192000 
  245000   0.79767566   -3.8676894   -3.8676894   -2.8362897  0.029478958   -3.8676894    1.0313997      8192000 
  246000   0.79737407   -3.8673517   -3.8673517   -2.8363419  0.026441892   -3.8673517    1.0310098      8192000 
  247000   0.79739984    -3.867339    -3.867339   -2.8362959  0.029131164    -3.867339    1.0310431      8192000 
  248000   0.79691237   -3.8669488   -3.8669488   -2.8365361   0.02956211   -3.8669488    1.0304128      8192000 
  249000   0.79752435   -3.8678275   -3.8678275   -2.8366234  0.024925069   -3.8678275    1.0312041      8192000 
  250000   0.79708181   -3.8672473   -3.8672473   -2.8366154  0.025604423   -3.8672473    1.0306319      8192000 
  251000   0.79693321   -3.8673801   -3.8673801   -2.8369404  0.025793769   -3.8673801    1.0304397      8192000 
  252000   0.79696983   -3.8670946   -3.8670946   -2.8366075  0.022554543   -3.8670946    1.0304871      8192000 
  253000   0.79675762   -3.8669902   -3.8669902   -2.8367775   0.02689038   -3.8669902    1.0302127      8192000 
  254000   0.79675432   -3.8668965   -3.8668965   -2.8366881  0.028310938   -3.8668965    1.0302084      8192000 
  255000   0.79711654   -3.8673129   -3.8673129   -2.8366362  0.026183235   -3.8673129    1.0306768      8192000 
  256000   0.79728114   -3.8676656   -3.8676656    -2.836776  0.026921015   -3.8676656    1.0308896      8192000 
  257000   0.79742355   -3.8678454   -3.8678454   -2.8367717   0.02836743   -3.8678454    1.0310737      8192000 
  258000   0.79745681    -3.868011    -3.868011   -2.8368943  0.027919002    -3.868011    1.0311167      8192000 
  259000   0.79732646   -3.8677886   -3.8677886   -2.8368404  0.027832672   -3.8677886    1.0309482      8192000 
  260000   0.79729906   -3.8676024   -3.8676024   -2.8366896  0.028332364   -3.8676024    1.0309128      8192000 
  261000   0.79746202   -3.8678727   -3.8678727   -2.8367492  0.027015174   -3.8678727    1.0311235      8192000 
  262000   0.79749622   -3.8676198   -3.8676198   -2.8364521  0.030089718   -3.8676198    1.0311677      8192000 
  263000   0.79756125   -3.8676678   -3.8676678    -2.836416  0.032619763   -3.8676678    1.0312518      8192000 
  264000   0.79795635   -3.8684256   -3.8684256   -2.8366629  0.029970419   -3.8684256    1.0317626      8192000 
  265000   0.79819375   -3.8685393   -3.8685393   -2.8364697  0.031494654   -3.8685393    1.0320696      8192000 
  266000   0.79803282   -3.8685592   -3.8685592   -2.8366977  0.034359607   -3.8685592    1.0318615      8192000 
  267000    0.7980675   -3.8688996   -3.8688996   -2.8369932  0.032360682   -3.8688996    1.0319064      8192000 
  268000   0.79773089   -3.8684115   -3.8684115   -2.8369404   0.03110987   -3.8684115    1.0314711      8192000 
  269000   0.79806566   -3.8687907   -3.8687907   -2.8368867  0.031714655   -3.8687907     1.031904      8192000 
  270000   0.79769948   -3.8685827   -3.8685827   -2.8371522  0.028563985   -3.8685827    1.0314305      8192000 
  271000   0.79803646   -3.8689292   -3.8689292    -2.837063  0.026734488   -3.8689292    1.0318662      8192000 
  272000   0.79744046   -3.8680791   -3.8680791   -2.8369835   0.03018559   -3.8680791    1.0310956      8192000 
  273000   0.79779992   -3.8684886   -3.8684886   -2.8369282  0.026687407   -3.8684886    1.0315604      8192000 
  274000   0.79734618   -3.8680991   -3.8680991   -2.8371254  0.028921392   -3.8680991    1.0309737      8192000 
  275000   0.79715066   -3.8680909   -3.8680909     -2.83737  0.029234489   -3.8680909    1.0307209      8192000 
  276000   0.79721363   -3.8685039   -3.8685039   -2.8377016  0.027580224   -3.8685039    1.0308023      8192000 
  277000   0.79740935   -3.8680977   -3.8680977   -2.8370423  0.025431291   -3.8680977    1.0310554      8192000 
  278000   0.79734824   -3.8677839   -3.8677839   -2.8368075  0.029601795   -3.8677839    1.0309764      8192000 
  279000   0.79750413   -3.8679735   -3.8679735   -2.8367955  0.028326076   -3.8679735    1.0311779      8192000 
  280000   0.79731843   -3.8676985   -3.8676985   -2.8367607  0.029927099   -3.8676985    1.0309378      8192000 
  281000   0.79772529    -3.867885    -3.867885   -2.8364211  0.030335104    -3.867885    1.0314639      8192000 
  282000   0.79761016   -3.8679339   -3.8679339   -2.8366188  0.026911135   -3.8679339     1.031315      8192000 
  283000    0.7970572   -3.8671767   -3.8671767   -2.8365767  0.027300967   -3.8671767       1.0306      8192000 
  284000    0.7972916   -3.8673746   -3.8673746   -2.8364715  0.027439759   -3.8673746    1.0309031      8192000 
  285000   0.79684851   -3.8672469   -3.8672469   -2.8369167  0.026071912   -3.8672469    1.0303302      8192000 
  286000    0.7973069   -3.8680588   -3.8680588   -2.8371359  0.024223137   -3.8680588    1.0309229      8192000 
  287000   0.79736941   -3.8676978   -3.8676978    -2.836694  0.025740837   -3.8676978    1.0310037      8192000 
  288000   0.79678348   -3.8671068   -3.8671068   -2.8368607  0.025801743   -3.8671068    1.0302461      8192000 
  289000   0.79732073   -3.8678055   -3.8678055   -2.8368647  0.028208576   -3.8678055    1.0309408      8192000 
  290000    0.7972197   -3.8676682   -3.8676682   -2.8368581  0.027686833   -3.8676682    1.0308102      8192000 
  291000   0.79757942    -3.867759    -3.867759   -2.8364837   0.02991813    -3.867759    1.0312753      8192000 
  292000    0.7976313   -3.8679138   -3.8679138   -2.8365714  0.027321814   -3.8679138    1.0313424      8192000 
  293000   0.79747229   -3.8678839   -3.8678839   -2.8367471  0.024798258   -3.8678839    1.0311368      8192000 
  294000   0.79730996   -3.8673458   -3.8673458    -2.836419    0.0308177   -3.8673458    1.0309269      8192000 
  295000    0.7975195   -3.8676909   -3.8676909   -2.8364931  0.028081557   -3.8676909    1.0311978      8192000 
  296000   0.79776706   -3.8676619   -3.8676619    -2.836144   0.02898033   -3.8676619    1.0315179      8192000 
  297000   0.79740775   -3.8677247   -3.8677247   -2.8366714  0.027008311   -3.8677247    1.0310533      8192000 
  298000   0.79737183   -3.8680104   -3.8680104   -2.8370036  0.029788768   -3.8680104    1.0310069      8192000 
  299000   0.79789665   -3.8682706   -3.8682706   -2.8365851  0.029074147   -3.8682706    1.0316855      8192000 
  300000   0.79784876   -3.8683713   -3.8683713   -2.8367478  0.024940794   -3.8683713    1.0316235      8192000 
  301000   0.79725597   -3.8678915   -3.8678915   -2.8370344  0.026962208   -3.8678915    1.0308571      8192000 
  302000   0.79763489   -3.8680574   -3.8680574   -2.8367104   0.02754973   -3.8680574     1.031347      8192000 
  303000   0.79779568   -3.8679707   -3.8679707   -2.8364158  0.029135904   -3.8679707    1.0315549      8192000 
  304000   0.79787731   -3.8681166   -3.8681166   -2.8364562  0.028497401   -3.8681166    1.0316604      8192000 
  305000   0.79815476   -3.8687717   -3.8687717   -2.8367525   0.02581502   -3.8687717    1.0320192      8192000 
  306000   0.79793638   -3.8681815   -3.8681815   -2.8364446  0.032489639   -3.8681815    1.0317368      8192000 
  307000   0.79797174   -3.8682667   -3.8682667   -2.8364842  0.026921484   -3.8682667    1.0317825      8192000 
  308000   0.79785251   -3.8680241   -3.8680241   -2.8363957  0.028413347   -3.8680241    1.0316284      8192000 
  309000    0.7978337   -3.8678965   -3.8678965   -2.8362925  0.029790162   -3.8678965    1.0316041      8192000 
  310000   0.79785667   -3.8683619   -3.8683619   -2.8367281  0.028108136   -3.8683619    1.0316338      8192000 
  311000   0.79759764   -3.8680684   -3.8680684   -2.8367696  0.028106274   -3.8680684    1.0312988      8192000 
  312000   0.79735258   -3.8676588   -3.8676588   -2.8366768   0.02695499   -3.8676588     1.030982      8192000 
  313000   0.79707588   -3.8672449   -3.8672449   -2.8366208  0.027355578   -3.8672449    1.0306242      8192000 
  314000   0.79715852    -3.867157    -3.867157   -2.8364259  0.027104974    -3.867157     1.030731      8192000 
  315000   0.79763215   -3.8680543   -3.8680543   -2.8367109  0.027957789   -3.8680543    1.0313435      8192000 
  316000   0.79753546   -3.8673777   -3.8673777   -2.8361593  0.027505123   -3.8673777    1.0312184      8192000 
  317000   0.79734854   -3.8671204   -3.8671204   -2.8361436  0.029455887   -3.8671204    1.0309767      8192000 
  318000   0.79771298   -3.8675903   -3.8675903   -2.8361423  0.027513764   -3.8675903     1.031448      8192000 
  319000    0.7976945   -3.8679169   -3.8679169   -2.8364928  0.027701861   -3.8679169    1.0314241      8192000 
  320000   0.79776695   -3.8679199   -3.8679199   -2.8364021   0.02707548   -3.8679199    1.0315178      8192000 
  321000   0.79739962   -3.8674512   -3.8674512   -2.8364084  0.028288551   -3.8674512    1.0310428      8192000 
  322000    0.7969893   -3.8669913   -3.8669913    -2.836479  0.028414955   -3.8669913    1.0305122      8192000 
  323000   0.79709636   -3.8669534   -3.8669534   -2.8363027  0.028760669   -3.8669534    1.0306507      8192000 
  324000   0.79733776   -3.8673418   -3.8673418    -2.836379  0.027261717   -3.8673418    1.0309628      8192000 
  325000   0.79698496   -3.8668264   -3.8668264   -2.8363197  0.026465668   -3.8668264    1.0305066      8192000 
  326000   0.79779113   -3.8676073   -3.8676073   -2.8360583  0.024667044   -3.8676073     1.031549      8192000 
  327000   0.79747997   -3.8673742   -3.8673742   -2.8362275  0.028078298   -3.8673742    1.0311467      8192000 
  328000   0.79768029   -3.8674304   -3.8674304   -2.8360247  0.031394894   -3.8674304    1.0314057      8192000 
  329000   0.79757798   -3.8675802   -3.8675802   -2.8363067  0.027519098   -3.8675802    1.0312734      8192000 
  330000   0.79777468   -3.8679545   -3.8679545   -2.8364267  0.025111071   -3.8679545    1.0315277      8192000 
  331000   0.79746229   -3.8674985   -3.8674985   -2.8363747  0.029892849   -3.8674985    1.0311238      8192000 
  332000   0.79768978   -3.8677821   -3.8677821   -2.8363641  0.026399234   -3.8677821     1.031418      8192000 
  333000   0.79753011    -3.867391    -3.867391   -2.8361795  0.027939103    -3.867391    1.0312115      8192000 
  334000   0.79759496   -3.8681173   -3.8681173   -2.8368219  0.024596325   -3.8681173    1.0312954      8192000 
  335000   0.79711929   -3.8673451   -3.8673451   -2.8366648  0.031170836   -3.8673451    1.0306803      8192000 
  336000   0.79747321   -3.8676676   -3.8676676   -2.8365297  0.025487835   -3.8676676    1.0311379      8192000 
  337000   0.79748649    -3.867551    -3.867551   -2.8363958  0.029389804    -3.867551    1.0311551      8192000 
  338000   0.79707966   -3.8675597   -3.8675597   -2.8369306   0.02739198   -3.8675597    1.0306291      8192000 
  339000   0.79761293   -3.8679991   -3.8679991   -2.8366805  0.026441233   -3.8679991    1.0313186      8192000 
  340000   0.79798394   -3.8677508   -3.8677508   -2.8359525  0.027182235   -3.8677508    1.0317983      8192000 
  341000   0.79729562   -3.8672839   -3.8672839   -2.8363756  0.029728297   -3.8672839    1.0309083      8192000 
  342000   0.79777156   -3.8680284   -3.8680284   -2.8365047   0.03142932   -3.8680284    1.0315237      8192000 
  343000   0.79779995   -3.8679952   -3.8679952   -2.8364347   0.03097705   -3.8679952    1.0315604      8192000 
  344000   0.79816489    -3.868232    -3.868232   -2.8361997  0.029735215    -3.868232    1.0320323      8192000 
  345000     0.798271   -3.8681389   -3.8681389   -2.8359694  0.029809233   -3.8681389    1.0321695      8192000 
  346000    0.7978464   -3.8678216   -3.8678216   -2.8362012  0.028249611   -3.8678216    1.0316205      8192000 
  347000   0.79803125    -3.867822    -3.867822   -2.8359625  0.027716313    -3.867822    1.0318595      8192000 
  348000   0.79751268   -3.8676711   -3.8676711   -2.8364822  0.028031063   -3.8676711     1.031189      8192000 
  349000   0.79710922   -3.8671798   -3.8671798   -2.8365125   0.02927165   -3.8671798    1.0306673      8192000 
  350000    0.7979361   -3.8682643   -3.8682643   -2.8365278  0.025450543   -3.8682643    1.0317365      8192000 
  351000   0.79749972   -3.8679405   -3.8679405   -2.8367682  0.029192728   -3.8679405    1.0311722      8192000 
  352000   0.79753493   -3.8673423   -3.8673423   -2.8361246  0.026518273   -3.8673423    1.0312177      8192000 
  353000   0.79750765   -3.8674293   -3.8674293   -2.8362468   0.02755845   -3.8674293    1.0311825      8192000 
  354000    0.7974761   -3.8671824   -3.8671824   -2.8360407  0.028829779   -3.8671824    1.0311417      8192000 
  355000   0.79741929   -3.8673609   -3.8673609   -2.8362927  0.031358619   -3.8673609    1.0310682      8192000 
  356000   0.79759515   -3.8677494   -3.8677494   -2.8364537   0.02568882   -3.8677494    1.0312956      8192000 
  357000   0.79724923   -3.8669589   -3.8669589   -2.8361106  0.028971366   -3.8669589    1.0308483      8192000 
  358000   0.79734932   -3.8675004   -3.8675004   -2.8365227  0.027561604   -3.8675004    1.0309778      8192000 
  359000   0.79748839    -3.867657    -3.867657   -2.8364994  0.023752252    -3.867657    1.0311576      8192000 
  360000   0.79701104   -3.8671793   -3.8671793   -2.8366389  0.027468871   -3.8671793    1.0305404      8192000 
  361000   0.79683842   -3.8669208   -3.8669208   -2.8366036  0.025847117   -3.8669208    1.0303172      8192000 
  362000   0.79726062   -3.8676395   -3.8676395   -2.8367765  0.026480903   -3.8676395    1.0308631      8192000 
  363000   0.79712975   -3.8672931   -3.8672931   -2.8365993  0.028045462   -3.8672931    1.0306938      8192000 
  364000   0.79772791   -3.8677201   -3.8677201   -2.8362528  0.028697449   -3.8677201    1.0314673      8192000 
  365000   0.79749434   -3.8676975   -3.8676975   -2.8365322  0.029153333   -3.8676975    1.0311653      8192000 
  366000   0.79751666   -3.8672362   -3.8672362   -2.8360421  0.029457829   -3.8672362    1.0311941      8192000 
  367000   0.79801439   -3.8679203   -3.8679203   -2.8360826  0.028664085   -3.8679203    1.0318377      8192000 
  368000   0.79779071   -3.8675616   -3.8675616   -2.8360132  0.027525301   -3.8675616    1.0315485      8192000 
  369000    0.7975038   -3.8674679   -3.8674679   -2.8362904  0.031686969   -3.8674679    1.0311775      8192000 
  370000   0.79774064    -3.867598    -3.867598   -2.8361143  0.028662129    -3.867598    1.0314837      8192000 
  371000   0.79770345   -3.8675178   -3.8675178   -2.8360822  0.026790666   -3.8675178    1.0314356      8192000 
  372000   0.79773635   -3.8678478   -3.8678478   -2.8363696  0.029710046   -3.8678478    1.0314782      8192000 
  373000   0.79780995   -3.8680248   -3.8680248   -2.8364514  0.027987614   -3.8680248    1.0315734      8192000 
  374000   0.79778395   -3.8678741   -3.8678741   -2.8363344  0.028321875   -3.8678741    1.0315397      8192000 
  375000   0.79722873   -3.8674493   -3.8674493   -2.8366275  0.027405026   -3.8674493    1.0308218      8192000 
  376000    0.7975503   -3.8679171   -3.8679171   -2.8366794  0.024007323   -3.8679171    1.0312376      8192000 
  377000   0.79741611   -3.8679155   -3.8679155   -2.8368514    0.0295284   -3.8679155    1.0310641      8192000 
  378000   0.79812694   -3.8683909   -3.8683909   -2.8364077   0.02955793   -3.8683909    1.0319832      8192000 
  379000    0.7972903   -3.8677263   -3.8677263   -2.8368248  0.029166931   -3.8677263    1.0309014      8192000 
  380000   0.79771922   -3.8679159   -3.8679159   -2.8364599  0.029028473   -3.8679159     1.031456      8192000 
  381000   0.79766416   -3.8678615   -3.8678615   -2.8364766  0.029728416   -3.8678615    1.0313848      8192000 
  382000   0.79745509   -3.8673953   -3.8673953   -2.8362808  0.029226778   -3.8673953    1.0311145      8192000 
  383000   0.79743133   -3.8676394   -3.8676394   -2.8365556  0.028747624   -3.8676394    1.0310838      8192000 
  384000   0.79747389    -3.867505    -3.867505   -2.8363662  0.029541559    -3.867505    1.0311388      8192000 
  385000   0.79778661   -3.8679636   -3.8679636   -2.8364205  0.028145937   -3.8679636    1.0315432      8192000 
  386000   0.79759843   -3.8679074   -3.8679074   -2.8366075  0.025481851   -3.8679074    1.0312999      8192000 
  387000   0.79769297   -3.8681186   -3.8681186   -2.8366965  0.027083882   -3.8681186    1.0314221      8192000 
  388000   0.79743697   -3.8677222   -3.8677222   -2.8366311  0.028287882   -3.8677222    1.0310911      8192000 
  389000   0.79713619   -3.8670638   -3.8670638   -2.8363616  0.027534597   -3.8670638    1.0307022      8192000 
  390000     0.797057    -3.867481    -3.867481   -2.8368812  0.023961592    -3.867481    1.0305998      8192000 
  391000   0.79712012   -3.8673517   -3.8673517   -2.8366703  0.026151486   -3.8673517    1.0306814      8192000 
  392000   0.79752148   -3.8680185   -3.8680185   -2.8368181  0.028626422   -3.8680185    1.0312004      8192000 
  393000   0.79755719   -3.8679458   -3.8679458   -2.8366993  0.027046592   -3.8679458    1.0312465      8192000 
  394000   0.79778625   -3.8679907   -3.8679907    -2.836448  0.025514664   -3.8679907    1.0315427      8192000 
  395000   0.79728706   -3.8677818   -3.8677818   -2.8368845  0.029216885   -3.8677818    1.0308973      8192000 
  396000   0.79741038   -3.8674811   -3.8674811   -2.8364244  0.028821752   -3.8674811    1.0310567      8192000 
  397000   0.79755857   -3.8676243   -3.8676243    -2.836376  0.027354113   -3.8676243    1.0312483      8192000 
  398000   0.79752034   -3.8676997   -3.8676997   -2.8365008   0.03104767   -3.8676997    1.0311989      8192000 
  399000   0.79716001   -3.8676299   -3.8676299   -2.8368969  0.029959552   -3.8676299     1.030733      8192000 
  400000   0.79771757    -3.868079    -3.868079   -2.8366251  0.027315931    -3.868079    1.0314539      8192000 
  401000   0.79704789   -3.8673553   -3.8673553   -2.8367673  0.027985227   -3.8673553     1.030588      8192000 
  402000   0.79759819   -3.8680893   -3.8680893   -2.8367898  0.026251074   -3.8680893    1.0312995      8192000 
  403000   0.79724623   -3.8675749   -3.8675749   -2.8367305  0.028454154   -3.8675749    1.0308445      8192000 
  404000   0.79712668   -3.8674795   -3.8674795   -2.8367897   0.02928164   -3.8674795    1.0306899      8192000 
  405000   0.79703806   -3.8673286   -3.8673286   -2.8367533  0.026177479   -3.8673286    1.0305753      8192000 
  406000   0.79743256    -3.867797    -3.867797   -2.8367116   0.02694616    -3.867797    1.0310854      8192000 
  407000   0.79730174   -3.8675132   -3.8675132    -2.836597  0.033138662   -3.8675132    1.0309162      8192000 
  408000    0.7975789   -3.8681054   -3.8681054   -2.8368308  0.028673813   -3.8681054    1.0312746      8192000 
  409000   0.79771055   -3.8681965   -3.8681965   -2.8367516   0.02781068   -3.8681965    1.0314448      8192000 
  410000    0.7978238   -3.8679881   -3.8679881   -2.8363968  0.029009257   -3.8679881    1.0315913      8192000 
  411000   0.79755281   -3.8677642   -3.8677642   -2.8365234  0.027748757   -3.8677642    1.0312409      8192000 
  412000   0.79767699   -3.8678144   -3.8678144   -2.8364129  0.028763254   -3.8678144    1.0314014      8192000 
  413000   0.79769088   -3.8677811   -3.8677811   -2.8363617   0.03245163   -3.8677811    1.0314194      8192000 
  414000   0.79793567   -3.8684045   -3.8684045   -2.8366685  0.027435377   -3.8684045    1.0317359      8192000 
  415000   0.79787709   -3.8677266   -3.8677266   -2.8360665  0.027342913   -3.8677266    1.0316602      8192000 
  416000   0.79747563   -3.8673243   -3.8673243   -2.8361832  0.029791489   -3.8673243    1.0311411      8192000 
  417000   0.79772717   -3.8680661   -3.8680661   -2.8365998  0.029823311   -3.8680661    1.0314663      8192000 
  418000   0.79721811   -3.8672442   -3.8672442   -2.8364361  0.029361479   -3.8672442    1.0308081      8192000 
  419000   0.79773224   -3.8678682   -3.8678682   -2.8363953  0.030866864   -3.8678682    1.0314729      8192000 
  420000   0.79764341   -3.8678986   -3.8678986   -2.8365406   0.02723762   -3.8678986     1.031358      8192000 
  421000   0.79678837   -3.8668746   -3.8668746   -2.8366222  0.030336464   -3.8668746    1.0302524      8192000 
  422000   0.79768753   -3.8678791   -3.8678791    -2.836464  0.027396182   -3.8678791    1.0314151      8192000 
  423000   0.79734948   -3.8678021   -3.8678021   -2.8368242   0.02470597   -3.8678021     1.030978      8192000 
  424000   0.79719012    -3.867482    -3.867482   -2.8367101  0.025650212    -3.867482    1.0307719      8192000 
  425000   0.79730902   -3.8674772   -3.8674772   -2.8365516  0.026498981   -3.8674772    1.0309256      8192000 
  426000   0.79715619   -3.8672912   -3.8672912   -2.8365632  0.026857091   -3.8672912     1.030728      8192000 
  427000   0.79712056   -3.8672732   -3.8672732   -2.8365912  0.025984509   -3.8672732     1.030682      8192000 
  428000   0.79721658   -3.8676743   -3.8676743   -2.8368682  0.027168362   -3.8676743    1.0308061      8192000 
  429000   0.79728205   -3.8675152   -3.8675152   -2.8366244  0.024765546   -3.8675152    1.0308908      8192000 
  430000   0.79724342   -3.8673425   -3.8673425   -2.8365017  0.028243589   -3.8673425    1.0308408      8192000 
  431000   0.79737059   -3.8677022   -3.8677022   -2.8366969  0.025048357   -3.8677022    1.0310053      8192000 
  432000   0.79680253   -3.8667226   -3.8667226   -2.8364518  0.028367774   -3.8667226    1.0302707      8192000 
  433000   0.79737065   -3.8678017   -3.8678017   -2.8367964  0.028020947   -3.8678017    1.0310053      8192000 
  434000   0.79715561   -3.8672633   -3.8672633    -2.836536  0.028360745   -3.8672633    1.0307273      8192000 
  435000   0.79748212   -3.8673835   -3.8673835    -2.836234  0.028119398   -3.8673835    1.0311495      8192000 
  436000   0.79748551   -3.8677673   -3.8677673   -2.8366135   0.02863141   -3.8677673    1.0311539      8192000 
  437000   0.79745157   -3.8674853   -3.8674853   -2.8363754  0.026972473   -3.8674853      1.03111      8192000 
  438000   0.79774482   -3.8680338   -3.8680338   -2.8365446   0.02940098   -3.8680338    1.0314891      8192000 
  439000   0.79751574   -3.8679533   -3.8679533   -2.8367603  0.028587941   -3.8679533    1.0311929      8192000 
  440000   0.79764139   -3.8677886   -3.8677886   -2.8364332  0.028150098   -3.8677886    1.0313554      8192000 
  441000   0.79786286   -3.8680611   -3.8680611   -2.8364193  0.029027954   -3.8680611    1.0316418      8192000 
  442000    0.7979847   -3.8681552   -3.8681552   -2.8363559  0.028514971   -3.8681552    1.0317993      8192000 
  443000   0.79815434   -3.8685925   -3.8685925   -2.8365738  0.027816806   -3.8685925    1.0320186      8192000 
  444000   0.79793596   -3.8680714   -3.8680714   -2.8363351  0.032112486   -3.8680714    1.0317363      8192000 
  445000    0.7985381   -3.8688559   -3.8688559   -2.8363411  0.027407735   -3.8688559    1.0325149      8192000 
  446000   0.79780822   -3.8680122   -3.8680122    -2.836441  0.029107912   -3.8680122    1.0315711      8192000 
  447000    0.7980014    -3.867896    -3.867896   -2.8360751  0.029763653    -3.867896    1.0318209      8192000 
  448000   0.79793098   -3.8682931   -3.8682931   -2.8365633  0.029140865   -3.8682931    1.0317298      8192000 
  449000   0.79785083   -3.8681067   -3.8681067   -2.8364805  0.026481644   -3.8681067    1.0316262      8192000 
  450000    0.7975358   -3.8677672   -3.8677672   -2.8365483  0.029896211   -3.8677672    1.0312189      8192000 
  451000   0.79760809   -3.8677632   -3.8677632   -2.8364508  0.028961488   -3.8677632    1.0313123      8192000 
  452000   0.79704747   -3.8667781   -3.8667781   -2.8361906  0.030495662   -3.8667781    1.0305875      8192000 
  453000   0.79768159   -3.8675319   -3.8675319   -2.8361245  0.026052219   -3.8675319    1.0314074      8192000 
  454000   0.79737823   -3.8669412   -3.8669412   -2.8359261  0.028608273   -3.8669412    1.0310151      8192000 
  455000   0.79750656   -3.8672564   -3.8672564   -2.8360753  0.030091049   -3.8672564    1.0311811      8192000 
  456000   0.79750001   -3.8672074   -3.8672074   -2.8360348   0.02989187   -3.8672074    1.0311726      8192000 
  457000   0.79721551   -3.8673041   -3.8673041   -2.8364994  0.028563934   -3.8673041    1.0308047      8192000 
  458000    0.7973763   -3.8673771   -3.8673771   -2.8363644  0.026032274   -3.8673771    1.0310126      8192000 
  459000   0.79695813   -3.8667442   -3.8667442   -2.8362722  0.027178797   -3.8667442    1.0304719      8192000 
  460000   0.79697771   -3.8668682   -3.8668682    -2.836371  0.027067676   -3.8668682    1.0304973      8192000 
  461000   0.79727059   -3.8671073   -3.8671073   -2.8362313  0.026043161   -3.8671073     1.030876      8192000 
  462000    0.7967219   -3.8666468   -3.8666468   -2.8364803  0.026040646   -3.8666468    1.0301665      8192000 
  463000    0.7974039   -3.8670129   -3.8670129   -2.8359645  0.026276726   -3.8670129    1.0310483      8192000 
  464000   0.79717681   -3.8668789   -3.8668789   -2.8361242  0.029150611   -3.8668789    1.0307547      8192000 
  465000   0.79733876   -3.8668043   -3.8668043   -2.8358402  0.026001876   -3.8668043    1.0309641      8192000 
  466000   0.79741841   -3.8671181   -3.8671181    -2.836051  0.025207145   -3.8671181    1.0310671      8192000 
  467000    0.7964587     -3.86623     -3.86623   -2.8364039  0.028384804     -3.86623    1.0298262      8192000 
  468000   0.79750168   -3.8671817   -3.8671817   -2.8360069  0.025835712   -3.8671817    1.0311748      8192000 
  469000   0.79757792   -3.8675432   -3.8675432   -2.8362699  0.028227005   -3.8675432    1.0312733      8192000 
  470000   0.79766477   -3.8673598   -3.8673598   -2.8359742  0.028833382   -3.8673598    1.0313856      8192000 
  471000   0.79774931    -3.868141    -3.868141   -2.8366461  0.027336996    -3.868141    1.0314949      8192000 
  472000   0.79741631   -3.8674381   -3.8674381   -2.8363737  0.030048556   -3.8674381    1.0310644      8192000 
  473000   0.79732281   -3.8673201   -3.8673201   -2.8363766   0.02546083   -3.8673201    1.0309435      8192000 
  474000   0.79765162   -3.8675204   -3.8675204   -2.8361518  0.028567974   -3.8675204    1.0313686      8192000 
  475000   0.79736528    -3.867397    -3.867397   -2.8363986  0.030977532    -3.867397    1.0309984      8192000 
  476000   0.79776618   -3.8677302   -3.8677302   -2.8362135  0.027290183   -3.8677302    1.0315168      8192000 
  477000   0.79728619   -3.8677085   -3.8677085   -2.8368124  0.027968486   -3.8677085    1.0308961      8192000 
  478000   0.79819459   -3.8684452   -3.8684452   -2.8363745  0.025802912   -3.8684452    1.0320707      8192000 
  479000   0.79765336    -3.868275    -3.868275   -2.8369041   0.02858283    -3.868275    1.0313709      8192000 
  480000   0.79742096    -3.868109    -3.868109   -2.8370386   0.02759626    -3.868109    1.0310704      8192000 
  481000   0.79727096   -3.8673511   -3.8673511   -2.8364747  0.033069634   -3.8673511    1.0308764      8192000 
  482000   0.79770395   -3.8677252   -3.8677252   -2.8362889  0.028851866   -3.8677252    1.0314363      8192000 
  483000   0.79766035    -3.867881    -3.867881   -2.8365011  0.030593048    -3.867881    1.0313799      8192000 
  484000   0.79766107   -3.8678294   -3.8678294   -2.8364486  0.027586247   -3.8678294    1.0313809      8192000 
  485000   0.79772427   -3.8675764   -3.8675764   -2.8361138  0.030626925   -3.8675764    1.0314626      8192000 
  486000   0.79778284   -3.8675867   -3.8675867   -2.8360484  0.029842242   -3.8675867    1.0315383      8192000 
  487000   0.79738291   -3.8673405   -3.8673405   -2.8363194  0.029842023   -3.8673405    1.0310212      8192000 
  488000     0.797828   -3.8677621   -3.8677621   -2.8361654  0.028757924   -3.8677621    1.0315967      8192000 
  489000   0.79801993   -3.8679372   -3.8679372   -2.8360923  0.027483566   -3.8679372    1.0318449      8192000 
  490000   0.79785868   -3.8677428   -3.8677428   -2.8361064  0.029917825   -3.8677428    1.0316364      8192000 
  491000    0.7972469   -3.8669133   -3.8669133    -2.836068  0.029093512   -3.8669133    1.0308453      8192000 
  492000   0.79757822   -3.8674164   -3.8674164   -2.8361427   0.02504328   -3.8674164    1.0312737      8192000 
  493000   0.79735604   -3.8671548   -3.8671548   -2.8361684   0.02791093   -3.8671548    1.0309864      8192000 
  494000   0.79786918   -3.8676893   -3.8676893   -2.8360394  0.026072241   -3.8676893    1.0316499      8192000 
  495000   0.79785063   -3.8679973   -3.8679973   -2.8363714   0.02557848   -3.8679973     1.031626      8192000 
  496000   0.79683738   -3.8667858   -3.8667858     -2.83647   0.03008228   -3.8667858    1.0303158      8192000 
  497000   0.79787698   -3.8679157   -3.8679157   -2.8362557  0.024732841   -3.8679157      1.03166      8192000 
  498000   0.79770489   -3.8674553   -3.8674553   -2.8360177  0.026754362   -3.8674553    1.0314375      8192000 
  499000   0.79728412   -3.8671035   -3.8671035     -2.83621    0.0267014   -3.8671035    1.0308934      8192000 
  500000   0.79737938   -3.8671968   -3.8671968   -2.8361802  0.026997522   -3.8671968    1.0310166      8192000 
  501000   0.79751563   -3.8670624   -3.8670624   -2.8358696  0.027353948   -3.8670624    1.0311928      8192000 
  502000   0.79773328   -3.8674735   -3.8674735   -2.8359992  0.027814226   -3.8674735    1.0314742      8192000 
  503000    0.7973181    -3.867335    -3.867335   -2.8363976    0.0267899    -3.867335    1.0309374      8192000 
  504000   0.79729577   -3.8672303   -3.8672303   -2.8363218  0.028937373   -3.8672303    1.0309085      8192000 
  505000   0.79743992   -3.8669032   -3.8669032   -2.8358083  0.029350509   -3.8669032    1.0310949      8192000 
  506000    0.7972201    -3.866878    -3.866878   -2.8360673  0.028170571    -3.866878    1.0308107      8192000 
  507000   0.79725608    -3.867161    -3.867161   -2.8363038  0.024755556    -3.867161    1.0308572      8192000 
  508000   0.79737488   -3.8667248   -3.8667248    -2.835714   0.02612542   -3.8667248    1.0310108      8192000 
  509000   0.79742065    -3.867322    -3.867322    -2.836252  0.027925036    -3.867322      1.03107      8192000 
  510000   0.79718041   -3.8669578   -3.8669578   -2.8361985  0.029742728   -3.8669578    1.0307594      8192000 
  511000   0.79714023   -3.8672085   -3.8672085   -2.8365011  0.027069328   -3.8672085    1.0307074      8192000 
  512000   0.79764634    -3.867666    -3.867666   -2.8363042  0.027396432    -3.867666    1.0313618      8192000 
  513000   0.79805613   -3.8677473   -3.8677473   -2.8358556  0.026832051   -3.8677473    1.0318917      8192000 
  514000   0.79747595   -3.8672689   -3.8672689   -2.8361274  0.028776135   -3.8672689    1.0311415      8192000 
  515000   0.79756777   -3.8673252   -3.8673252    -2.836065  0.028982378   -3.8673252    1.0312602      8192000 
  516000   0.79820906   -3.8680944   -3.8680944    -2.836005  0.027165269   -3.8680944    1.0320894      8192000 
  517000   0.79819241   -3.8680337   -3.8680337   -2.8359658  0.026272168   -3.8680337    1.0320679      8192000 
  518000   0.79780907   -3.8673814   -3.8673814   -2.8358092  0.030208771   -3.8673814    1.0315722      8192000 
  519000   0.79769572   -3.8674562   -3.8674562   -2.8360305  0.028567269   -3.8674562    1.0314256      8192000 
  520000   0.79765489   -3.8674208   -3.8674208   -2.8360479  0.031890801   -3.8674208    1.0313729      8192000 
  521000   0.79794037     -3.86802     -3.86802    -2.836278  0.031207765     -3.86802     1.031742      8192000 
  522000   0.79791662   -3.8680585   -3.8680585   -2.8363472  0.029333147   -3.8680585    1.0317113      8192000 
  523000   0.79727826   -3.8672564   -3.8672564   -2.8363705   0.03113566   -3.8672564    1.0308859      8192000 
  524000   0.79785872   -3.8674981   -3.8674981   -2.8358617  0.028689258   -3.8674981    1.0316364      8192000 
  525000   0.79759976   -3.8674264   -3.8674264   -2.8361248  0.028937938   -3.8674264    1.0313016      8192000 
  526000   0.79751156   -3.8675334   -3.8675334   -2.8363459  0.029031712   -3.8675334    1.0311875      8192000 
  527000   0.79759356   -3.8675788   -3.8675788   -2.8362852  0.030646014   -3.8675788    1.0312936      8192000 
  528000    0.7976239   -3.8673758   -3.8673758    -2.836043  0.028033272   -3.8673758    1.0313328      8192000 
  529000   0.79757187   -3.8674059   -3.8674059   -2.8361404  0.028414587   -3.8674059    1.0312655      8192000 
  530000   0.79774494   -3.8674375   -3.8674375   -2.8359482  0.030313111   -3.8674375    1.0314893      8192000 
  531000   0.79766225    -3.867329    -3.867329   -2.8359467  0.026863745    -3.867329    1.0313824      8192000 
  532000   0.79767562   -3.8672871   -3.8672871   -2.8358874  0.027992974   -3.8672871    1.0313997      8192000 
  533000   0.79740265   -3.8668894   -3.8668894   -2.8358427  0.027631832   -3.8668894    1.0310467      8192000 
  534000   0.79739467   -3.8671021   -3.8671021   -2.8360658  0.027235071   -3.8671021    1.0310364      8192000 
  535000   0.79767388    -3.867064    -3.867064   -2.8356666  0.029831986    -3.867064    1.0313974      8192000 
  536000   0.79759872   -3.8666104   -3.8666104   -2.8353102  0.028428915   -3.8666104    1.0313002      8192000 
  537000    0.7976467   -3.8669741   -3.8669741   -2.8356119  0.028899278   -3.8669741    1.0313623      8192000 
  538000   0.79766031   -3.8668753   -3.8668753   -2.8354955  0.025617982   -3.8668753    1.0313799      8192000 
  539000   0.79720089    -3.866572    -3.866572   -2.8357862  0.026183733    -3.866572    1.0307858      8192000 
  540000   0.79685832   -3.8659163   -3.8659163   -2.8355734  0.029497975   -3.8659163    1.0303429      8192000 
  541000   0.79761695   -3.8669093   -3.8669093   -2.8355855  0.024239925   -3.8669093    1.0313238      8192000 
  542000   0.79784023   -3.8670524   -3.8670524   -2.8354399  0.028731982   -3.8670524    1.0316125      8192000 
  543000   0.79752131    -3.866486    -3.866486   -2.8352859  0.027853088    -3.866486    1.0312001      8192000 
  544000   0.79731388   -3.8662972   -3.8662972   -2.8353653  0.028982471   -3.8662972    1.0309319      8192000 
  545000    0.7971033   -3.8662448   -3.8662448   -2.8355851  0.028170053   -3.8662448    1.0306597      8192000 
  546000   0.79767606   -3.8665075   -3.8665075   -2.8351072  0.028103759   -3.8665075    1.0314002      8192000 
  547000   0.79735514   -3.8665865   -3.8665865   -2.8356012  0.024851768   -3.8665865    1.0309853      8192000 
  548000   0.79788757   -3.8669129   -3.8669129   -2.8352392  0.027133248   -3.8669129    1.0316737      8192000 
  549000   0.79747005   -3.8665058   -3.8665058   -2.8353719  0.026908999   -3.8665058    1.0311339      8192000 
  550000   0.79767424   -3.8666308   -3.8666308   -2.8352329  0.026112522   -3.8666308    1.0313979      8192000 
  551000   0.79756338   -3.8665408   -3.8665408   -2.8352862   0.02630633   -3.8665408    1.0312545      8192000 
  552000   0.79777791   -3.8671593   -3.8671593   -2.8356273  0.024859517   -3.8671593    1.0315319      8192000 
  553000   0.79769531    -3.866796    -3.866796   -2.8353709  0.026499113    -3.866796    1.0314251      8192000 
  554000   0.79818294    -3.867541    -3.867541   -2.8354853  0.026576474    -3.867541    1.0320556      8192000 
  555000   0.79800196   -3.8667732   -3.8667732   -2.8349516   0.02747515   -3.8667732    1.0318216      8192000 
  556000   0.79773548   -3.8666623   -3.8666623   -2.8351853  0.029016168   -3.8666623    1.0314771      8192000 
  557000   0.79824719   -3.8670477   -3.8670477    -2.834909  0.029317017   -3.8670477    1.0321387      8192000 
  558000   0.79779237   -3.8668227   -3.8668227   -2.8352721  0.028081806   -3.8668227    1.0315506      8192000 
  559000     0.797795   -3.8666397   -3.8666397   -2.8350857  0.030621982   -3.8666397     1.031554      8192000 
  560000   0.79809668   -3.8672426   -3.8672426   -2.8352985   0.02778499   -3.8672426    1.0319441      8192000 
  561000   0.79758015   -3.8668296   -3.8668296   -2.8355534  0.026631158   -3.8668296    1.0312762      8192000 
  562000   0.79806391   -3.8670544   -3.8670544   -2.8351526  0.026207025   -3.8670544    1.0319017      8192000 
  563000   0.79798013   -3.8672932   -3.8672932   -2.8354998  0.025400902   -3.8672932    1.0317934      8192000 
  564000     0.797801   -3.8667756   -3.8667756   -2.8352138  0.030059038   -3.8667756    1.0315618      8192000 
  565000   0.79770933   -3.8669539   -3.8669539   -2.8355107  0.031291674   -3.8669539    1.0314433      8192000 
  566000   0.79769378    -3.866795    -3.866795   -2.8353718  0.029301533    -3.866795    1.0314231      8192000 
  567000   0.79788896   -3.8669361   -3.8669361   -2.8352606  0.028562348   -3.8669361    1.0316755      8192000 
  568000   0.79810669   -3.8668619   -3.8668619   -2.8349048  0.029783623   -3.8668619     1.031957      8192000 
  569000   0.79838782   -3.8671415   -3.8671415   -2.8348209  0.026588249   -3.8671415    1.0323205      8192000 
  570000   0.79812199   -3.8670056   -3.8670056   -2.8350287   0.02765048   -3.8670056    1.0319768      8192000 
  571000   0.79778231   -3.8666417   -3.8666417   -2.8351041  0.028847362   -3.8666417    1.0315376      8192000 
  572000   0.79739525   -3.8660042   -3.8660042    -2.834967  0.031335597   -3.8660042    1.0310371      8192000 
  573000   0.79785349   -3.8667099   -3.8667099   -2.8350802  0.028096336   -3.8667099    1.0316296      8192000 
  574000   0.79816936   -3.8668536   -3.8668536   -2.8348155  0.031112642   -3.8668536    1.0320381      8192000 
  575000   0.79777409   -3.8666092   -3.8666092   -2.8350822  0.027163233   -3.8666092     1.031527      8192000 
  576000   0.79747013   -3.8665218   -3.8665218   -2.8353878  0.030057928   -3.8665218     1.031134      8192000 
  577000   0.79796085   -3.8669186   -3.8669186   -2.8351502  0.027900652   -3.8669186    1.0317685      8192000 
  578000   0.79790489   -3.8670065   -3.8670065   -2.8353104  0.024792329   -3.8670065    1.0316961      8192000 
  579000   0.79769333   -3.8664475   -3.8664475   -2.8350249  0.026441717   -3.8664475    1.0314226      8192000 
  580000   0.79715871   -3.8659163   -3.8659163    -2.835185  0.030685572   -3.8659163    1.0307313      8192000 
  581000     0.797715   -3.8665738   -3.8665738   -2.8351232   0.02543036   -3.8665738    1.0314506      8192000 
  582000   0.79745217   -3.8659537   -3.8659537    -2.834843  0.026753005   -3.8659537    1.0311107      8192000 
  583000   0.79777451   -3.8664306   -3.8664306    -2.834903   0.02616541   -3.8664306    1.0315275      8192000 
  584000   0.79798126   -3.8664018   -3.8664018   -2.8346069  0.026326605   -3.8664018    1.0317949      8192000 
  585000   0.79772429   -3.8661461   -3.8661461   -2.8346835  0.029388146   -3.8661461    1.0314626      8192000 
  586000   0.79817806   -3.8665071   -3.8665071   -2.8344578  0.028202662   -3.8665071    1.0320493      8192000 
  587000   0.79756831   -3.8662378   -3.8662378   -2.8349769  0.028492335   -3.8662378    1.0312609      8192000 
  588000    0.7976856   -3.8661632   -3.8661632   -2.8347507  0.028103561   -3.8661632    1.0314126      8192000 
  589000    0.7976939   -3.8664394   -3.8664394   -2.8350161  0.025562297   -3.8664394    1.0314233      8192000 
  590000   0.79715134    -3.865909    -3.865909   -2.8351872  0.029380754    -3.865909    1.0307218      8192000 
  591000   0.79733888   -3.8660668   -3.8660668   -2.8351025  0.029086502   -3.8660668    1.0309643      8192000 
  592000   0.79745973   -3.8659019   -3.8659019   -2.8347813  0.028285211   -3.8659019    1.0311205      8192000 
  593000   0.79766647   -3.8660581   -3.8660581   -2.8346702  0.026062953   -3.8660581    1.0313878      8192000 
  594000   0.79703806   -3.8658699   -3.8658699   -2.8352947  0.028096214   -3.8658699    1.0305753      8192000 
  595000   0.79801528   -3.8669811   -3.8669811   -2.8351423  0.026912044   -3.8669811    1.0318388      8192000 
  596000   0.79761126   -3.8662666   -3.8662666   -2.8349501  0.026760103   -3.8662666    1.0313164      8192000 
  597000   0.79786682   -3.8661939   -3.8661939    -2.834547  0.031554467   -3.8661939    1.0316469      8192000 
  598000   0.79801929   -3.8662008   -3.8662008   -2.8343568  0.030546924   -3.8662008     1.031844      8192000 
  599000   0.79801759   -3.8664929   -3.8664929    -2.834651  0.031534535   -3.8664929    1.0318418      8192000 
  600000   0.79813748    -3.866509    -3.866509   -2.8345121  0.032322597    -3.866509    1.0319969      8192000 
  601000   0.79827027   -3.8667778   -3.8667778   -2.8346093  0.030765596   -3.8667778    1.0321686      8192000 
  602000   0.79809543   -3.8666531   -3.8666531   -2.8347106   0.02738253   -3.8666531    1.0319425      8192000 
  603000   0.79796138    -3.866306    -3.866306   -2.8345368  0.029521782    -3.866306    1.0317691      8192000 
  604000   0.79794229   -3.8665878   -3.8665878   -2.8348433  0.028038487   -3.8665878    1.0317445      8192000 
  605000   0.79779287     -3.86613     -3.86613   -2.8345788  0.029415821     -3.86613    1.0315513      8192000 
  606000   0.79755445   -3.8660429   -3.8660429   -2.8347999  0.028639571   -3.8660429     1.031243      8192000 
  607000   0.79748566   -3.8660407   -3.8660407   -2.8348866  0.031681525   -3.8660407     1.031154      8192000 
  608000   0.79791739    -3.866449    -3.866449   -2.8347368  0.030605766    -3.866449    1.0317123      8192000 
  609000   0.79833498   -3.8665699   -3.8665699   -2.8343177   0.02888529   -3.8665699    1.0322522      8192000 
  610000   0.79775341    -3.866172    -3.866172   -2.8346717  0.030376979    -3.866172    1.0315002      8192000 
  611000   0.79829528    -3.866577    -3.866577   -2.8343761    0.0268322    -3.866577    1.0322009      8192000 
  612000   0.79801129   -3.8666151   -3.8666151   -2.8347814   0.03000212   -3.8666151    1.0318337      8192000 
  613000   0.79713798    -3.865682    -3.865682   -2.8349775  0.028554795    -3.865682    1.0307045      8192000 
  614000   0.79759088   -3.8660445   -3.8660445   -2.8347544  0.028074978   -3.8660445    1.0312901      8192000 
  615000   0.79755153   -3.8664337   -3.8664337   -2.8351945  0.025518654   -3.8664337    1.0312392      8192000 
  616000   0.79757211   -3.8664162   -3.8664162   -2.8351503  0.026713759   -3.8664162    1.0312658      8192000 
  617000   0.79758911   -3.8662037   -3.8662037   -2.8349159  0.025689723   -3.8662037    1.0312878      8192000 
  618000    0.7971055   -3.8657763   -3.8657763   -2.8351139  0.030339099   -3.8657763    1.0306625      8192000 
  619000   0.79768803   -3.8659835   -3.8659835   -2.8345677  0.027296902   -3.8659835    1.0314157      8192000 
  620000   0.79737861   -3.8664506   -3.8664506    -2.835435  0.024970626   -3.8664506    1.0310156      8192000 
  621000   0.79826792   -3.8669906   -3.8669906   -2.8348251   0.02357135   -3.8669906    1.0321655      8192000 
  622000   0.79799215    -3.866766    -3.866766   -2.8349571  0.026215893    -3.866766    1.0318089      8192000 
  623000   0.79773454   -3.8663982   -3.8663982   -2.8349224  0.028244546   -3.8663982    1.0314759      8192000 
  624000   0.79780856   -3.8666495   -3.8666495   -2.8350779  0.029240031   -3.8666495    1.0315716      8192000 
  625000   0.79768704    -3.866553    -3.866553   -2.8351386  0.031178487    -3.866553    1.0314144      8192000 
  626000   0.79758447   -3.8666125   -3.8666125   -2.8353307  0.026266323   -3.8666125    1.0312818      8192000 
  627000   0.79782097    -3.866662    -3.866662   -2.8350744  0.025782402    -3.866662    1.0315876      8192000 
  628000   0.79772001    -3.866594    -3.866594   -2.8351369  0.028803032    -3.866594    1.0314571      8192000 
  629000   0.79796126   -3.8672261   -3.8672261   -2.8354571  0.028355792   -3.8672261     1.031769      8192000 
  630000   0.79752488   -3.8667619   -3.8667619   -2.8355572  0.028039377   -3.8667619    1.0312048      8192000 
  631000   0.79780358   -3.8672197   -3.8672197   -2.8356546  0.027792924   -3.8672197    1.0315651      8192000 
  632000    0.7981949   -3.8676098   -3.8676098   -2.8355387  0.027606089   -3.8676098    1.0320711      8192000 
  633000   0.79830547   -3.8673718   -3.8673718   -2.8351578  0.030770102   -3.8673718    1.0322141      8192000 
  634000   0.79802309   -3.8673173   -3.8673173   -2.8354683  0.027673002   -3.8673173    1.0318489      8192000 
  635000   0.79797084   -3.8673239   -3.8673239   -2.8355426  0.029731098   -3.8673239    1.0317814      8192000 
  636000   0.79772033   -3.8668596   -3.8668596   -2.8354022  0.030085852   -3.8668596    1.0314575      8192000 
  637000   0.79831438   -3.8672278   -3.8672278   -2.8350022  0.029361545   -3.8672278    1.0322256      8192000 
  638000   0.79806901   -3.8669601   -3.8669601   -2.8350517  0.028622195   -3.8669601    1.0319083      8192000 
  639000   0.79794216   -3.8669157   -3.8669157   -2.8351714  0.028185961   -3.8669157    1.0317443      8192000 
  640000   0.79780803   -3.8670633   -3.8670633   -2.8354924  0.031334852   -3.8670633    1.0315709      8192000 
  641000   0.79814631   -3.8672967   -3.8672967   -2.8352884  0.026823796   -3.8672967    1.0320083      8192000 
  642000   0.79783161   -3.8666385   -3.8666385   -2.8350371  0.029089009   -3.8666385    1.0316014      8192000 
  643000   0.79764744   -3.8666166   -3.8666166   -2.8352534  0.028877807   -3.8666166    1.0313632      8192000 
  644000   0.79802485   -3.8669104   -3.8669104   -2.8350592   0.02794104   -3.8669104    1.0318512      8192000 
  645000   0.79823883   -3.8669512   -3.8669512   -2.8348233  0.028482958   -3.8669512    1.0321279      8192000 
  646000   0.79805003   -3.8669735   -3.8669735   -2.8350898  0.029065265   -3.8669735    1.0318838      8192000 
  647000   0.79807888   -3.8665445   -3.8665445   -2.8346234  0.026761752   -3.8665445    1.0319211      8192000 
  648000   0.79814774   -3.8667468   -3.8667468   -2.8347367  0.028313166   -3.8667468    1.0320101      8192000 
  649000    0.7978827   -3.8665774   -3.8665774   -2.8349099  0.029790147   -3.8665774    1.0316674      8192000 
  650000   0.79796322   -3.8662793   -3.8662793   -2.8345078  0.029332231   -3.8662793    1.0317715      8192000 
  651000   0.79764671   -3.8661782   -3.8661782    -2.834816  0.025403576   -3.8661782    1.0313623      8192000 
  652000   0.79698875   -3.8651736   -3.8651736   -2.8346621    0.0271973   -3.8651736    1.0305115      8192000 
  653000   0.79748789   -3.8660999   -3.8660999    -2.834943  0.027491512   -3.8660999    1.0311569      8192000 
  654000   0.79714811   -3.8655439   -3.8655439   -2.8348263  0.027067402   -3.8655439    1.0307176      8192000 
  655000   0.79753995   -3.8661149   -3.8661149   -2.8348907  0.025612245   -3.8661149    1.0312242      8192000 
  656000   0.79746903   -3.8659324   -3.8659324   -2.8347998  0.025979452   -3.8659324    1.0311325      8192000 
  657000   0.79711032    -3.866117    -3.866117   -2.8354483  0.027233405    -3.866117    1.0306687      8192000 
  658000   0.79712218   -3.8656027   -3.8656027   -2.8349186  0.025158055   -3.8656027    1.0306841      8192000 
  659000   0.79695778   -3.8655043   -3.8655043   -2.8350328  0.028520439   -3.8655043    1.0304715      8192000 
  660000   0.79763762   -3.8664079   -3.8664079   -2.8350574  0.023579924   -3.8664079    1.0313505      8192000 
  661000   0.79726208   -3.8660998   -3.8660998   -2.8352349  0.024275541   -3.8660998     1.030865      8192000 
  662000    0.7975231   -3.8659291   -3.8659291   -2.8347267  0.027878509   -3.8659291    1.0312025      8192000 
  663000   0.79777584    -3.866553    -3.866553   -2.8350238   0.02450217    -3.866553    1.0315292      8192000 
  664000   0.79785458   -3.8669636   -3.8669636   -2.8353326  0.026701983   -3.8669636    1.0316311      8192000 
  665000   0.79743818   -3.8660777   -3.8660777   -2.8349851  0.026053591   -3.8660777    1.0310927      8192000 
  666000   0.79793347   -3.8668944   -3.8668944   -2.8351613  0.026394574   -3.8668944    1.0317331      8192000 
  667000   0.79794282   -3.8670857   -3.8670857   -2.8353405  0.027815587   -3.8670857    1.0317451      8192000 
  668000   0.79777821   -3.8667025   -3.8667025   -2.8351702  0.027517823   -3.8667025    1.0315323      8192000 
  669000    0.7976714   -3.8668247   -3.8668247   -2.8354305  0.028659797   -3.8668247    1.0313942      8192000 
  670000   0.79801934   -3.8672264   -3.8672264   -2.8353823  0.029106499   -3.8672264    1.0318441      8192000 
  671000   0.79767965   -3.8667656   -3.8667656   -2.8353607  0.030904761   -3.8667656    1.0314049      8192000 
  672000   0.79787297   -3.8669403   -3.8669403   -2.8352854  0.027214357   -3.8669403    1.0316548      8192000 
  673000   0.79781929   -3.8673083   -3.8673083   -2.8357228  0.030217986   -3.8673083    1.0315854      8192000 
  674000   0.79827823    -3.867353    -3.867353   -2.8351741  0.029665082    -3.867353    1.0321788      8192000 
  675000   0.79793064   -3.8671566   -3.8671566   -2.8354272  0.027587548   -3.8671566    1.0317294      8192000 
  676000   0.79823657   -3.8674333   -3.8674333   -2.8353084  0.031563445   -3.8674333     1.032125      8192000 
  677000   0.79829986   -3.8672809   -3.8672809   -2.8350741  0.028864506   -3.8672809    1.0322068      8192000 
  678000   0.79842854   -3.8678479   -3.8678479   -2.8354747  0.029671684   -3.8678479    1.0323732      8192000 
  679000   0.79824706   -3.8672966   -3.8672966    -2.835158  0.029063699   -3.8672966    1.0321385      8192000 
  680000   0.79833827    -3.867263    -3.867263   -2.8350065  0.030102907    -3.867263    1.0322565      8192000 
  681000   0.79843955   -3.8671893   -3.8671893   -2.8348018  0.031073789   -3.8671893    1.0323874      8192000 
  682000   0.79830602   -3.8673367   -3.8673367   -2.8351219  0.028727858   -3.8673367    1.0322148      8192000 
  683000   0.79864023   -3.8677803   -3.8677803   -2.8351334  0.027691891   -3.8677803    1.0326469      8192000 
  684000    0.7977971     -3.86681     -3.86681   -2.8352533  0.027711196     -3.86681    1.0315567      8192000 
  685000   0.79821577     -3.86694     -3.86694    -2.834842  0.028565664     -3.86694    1.0320981      8192000 
  686000    0.7977068   -3.8663608   -3.8663608   -2.8349208  0.029263233   -3.8663608      1.03144      8192000 
  687000   0.79809938   -3.8663883   -3.8663883   -2.8344407  0.027324104   -3.8663883    1.0319476      8192000 
  688000   0.79771491   -3.8657944   -3.8657944   -2.8343439  0.027361872   -3.8657944    1.0314505      8192000 
  689000   0.79733661    -3.865719    -3.865719   -2.8347577  0.027788429    -3.865719    1.0309613      8192000 
  690000   0.79726251    -3.865815    -3.865815   -2.8349495  0.028364887    -3.865815    1.0308655      8192000 
  691000   0.79758303   -3.8662263   -3.8662263   -2.8349463  0.025852798   -3.8662263    1.0312799      8192000 
  692000   0.79740357   -3.8659371   -3.8659371   -2.8348892  0.025417347   -3.8659371    1.0310479      8192000 
  693000   0.79746101   -3.8657319   -3.8657319   -2.8346098  0.026923793   -3.8657319    1.0311222      8192000 
  694000   0.79772561   -3.8660731   -3.8660731   -2.8346088  0.026476481   -3.8660731    1.0314643      8192000 
  695000   0.79757909   -3.8656057   -3.8656057   -2.8343308  0.026801887   -3.8656057    1.0312748      8192000 
  696000   0.79740994   -3.8656547   -3.8656547   -2.8345986  0.029010641   -3.8656547    1.0310561      8192000 
  697000   0.79744985   -3.8653321   -3.8653321   -2.8342244  0.027477207   -3.8653321    1.0311077      8192000 
  698000   0.79782847   -3.8657678   -3.8657678   -2.8341705  0.028117136   -3.8657678    1.0315973      8192000 
  699000   0.79749423   -3.8656815   -3.8656815   -2.8345164  0.028678021   -3.8656815    1.0311651      8192000 
  700000   0.79754876   -3.8656674   -3.8656674   -2.8344318  0.028180851   -3.8656674    1.0312356      8192000 
  701000   0.79769356   -3.8655347   -3.8655347   -2.8341118  0.025258075   -3.8655347    1.0314229      8192000 
  702000    0.7974114   -3.8653011   -3.8653011   -2.8342431  0.027808295   -3.8653011     1.031058      8192000 
  703000   0.79822999   -3.8663706   -3.8663706   -2.8342542  0.027372849   -3.8663706    1.0321165      8192000 
  704000   0.79800321   -3.8656077   -3.8656077   -2.8337845  0.027678808   -3.8656077    1.0318232      8192000 
  705000   0.79808804   -3.8660884   -3.8660884   -2.8341555  0.027884332   -3.8660884    1.0319329      8192000 
  706000   0.79847917   -3.8663876   -3.8663876   -2.8339489  0.030120502   -3.8663876    1.0324387      8192000 
  707000   0.79875113   -3.8666361   -3.8666361   -2.8338458  0.029801259   -3.8666361    1.0327903      8192000 
  708000   0.79791027   -3.8661139   -3.8661139   -2.8344108  0.031181683   -3.8661139    1.0317031      8192000 
  709000   0.79841934   -3.8664344   -3.8664344   -2.8340731  0.029048352   -3.8664344    1.0323613      8192000 
  710000   0.79799391   -3.8656126   -3.8656126   -2.8338014  0.029998881   -3.8656126    1.0318112      8192000 
  711000   0.79805801   -3.8660875   -3.8660875   -2.8341934  0.030013869   -3.8660875    1.0318941      8192000 
  712000   0.79817324   -3.8661773   -3.8661773   -2.8341342  0.029651467   -3.8661773    1.0320431      8192000 
  713000   0.79758272   -3.8659175   -3.8659175   -2.8346379  0.027008529   -3.8659175    1.0312795      8192000 
  714000   0.79800084   -3.8665811   -3.8665811   -2.8347609  0.027139307   -3.8665811    1.0318202      8192000 
  715000   0.79777908    -3.866203    -3.866203   -2.8346696  0.028362723    -3.866203    1.0315334      8192000 
  716000    0.7977487   -3.8658015   -3.8658015   -2.8343073  0.030368946   -3.8658015    1.0314942      8192000 
  717000   0.79756627   -3.8657391   -3.8657391   -2.8344808   0.02727091   -3.8657391    1.0312583      8192000 
  718000   0.79806402   -3.8661864   -3.8661864   -2.8342845  0.032902112   -3.8661864    1.0319019      8192000 
  719000   0.79787809   -3.8658562   -3.8658562   -2.8341947  0.029119445   -3.8658562    1.0316615      8192000 
  720000   0.79763189   -3.8657614   -3.8657614   -2.8344183  0.028725968   -3.8657614    1.0313431      8192000 
  721000   0.79791886    -3.865456    -3.865456   -2.8337418  0.029018135    -3.865456    1.0317142      8192000 
  722000   0.79785115   -3.8657931   -3.8657931   -2.8341664  0.028993278   -3.8657931    1.0316266      8192000 
  723000    0.7981535   -3.8660589   -3.8660589   -2.8340413  0.026254153   -3.8660589    1.0320176      8192000 
  724000   0.79791193   -3.8658864   -3.8658864   -2.8341812  0.025858562   -3.8658864    1.0317052      8192000 
  725000   0.79742259    -3.865189    -3.865189   -2.8341165  0.028361429    -3.865189    1.0310725      8192000 
  726000   0.79776481   -3.8657726   -3.8657726   -2.8342576   0.03183678   -3.8657726     1.031515      8192000 
  727000    0.7977526   -3.8658173   -3.8658173   -2.8343181   0.02610486   -3.8658173    1.0314992      8192000 
  728000   0.79800402   -3.8657747   -3.8657747   -2.8339504  0.029932132   -3.8657747    1.0318243      8192000 
  729000   0.79825482   -3.8659148   -3.8659148   -2.8337662  0.026044816   -3.8659148    1.0321486      8192000 
  730000   0.79778888   -3.8660142   -3.8660142    -2.834468  0.025247093   -3.8660142    1.0315461      8192000 
  731000   0.79779337   -3.8655807   -3.8655807   -2.8340287  0.026753949   -3.8655807    1.0315519      8192000 
  732000   0.79799382   -3.8654027   -3.8654027   -2.8335916  0.029440639   -3.8654027    1.0318111      8192000 
  733000   0.79808687   -3.8656328   -3.8656328   -2.8337014  0.027677544   -3.8656328    1.0319314      8192000 
  734000   0.79766316   -3.8653581   -3.8653581   -2.8339746  0.027831622   -3.8653581    1.0313836      8192000 
  735000   0.79776884   -3.8652016   -3.8652016   -2.8336814  0.027151786   -3.8652016    1.0315202      8192000 
  736000   0.79758577   -3.8651642   -3.8651642   -2.8338807   0.02840442   -3.8651642    1.0312835      8192000 
  737000   0.79776794   -3.8648996   -3.8648996   -2.8333806  0.028999308   -3.8648996     1.031519      8192000 
  738000   0.79814901   -3.8654668   -3.8654668   -2.8334551  0.026939031   -3.8654668    1.0320118      8192000 
  739000   0.79815361   -3.8654779   -3.8654779   -2.8334602   0.02827078   -3.8654779    1.0320177      8192000 
  740000   0.79837376   -3.8659321   -3.8659321   -2.8336298  0.028636899   -3.8659321    1.0323024      8192000 
  741000   0.79833696   -3.8656861   -3.8656861   -2.8334313  0.031074193   -3.8656861    1.0322548      8192000 
  742000   0.79820321    -3.865685    -3.865685   -2.8336032  0.028955788    -3.865685    1.0320818      8192000 
  743000   0.79822765   -3.8654849   -3.8654849   -2.8333714  0.028787893   -3.8654849    1.0321134      8192000 
  744000   0.79820404   -3.8658804   -3.8658804   -2.8337975  0.027171382   -3.8658804    1.0320829      8192000 
  745000   0.79797504   -3.8651244   -3.8651244   -2.8333376  0.027677549   -3.8651244    1.0317868      8192000 
  746000   0.79810062   -3.8656193   -3.8656193   -2.8336701  0.028711149   -3.8656193    1.0319492      8192000 
  747000   0.79776545   -3.8651245   -3.8651245   -2.8336086  0.026368124   -3.8651245    1.0315158      8192000 
  748000   0.79791896   -3.8655747   -3.8655747   -2.8338605  0.028368751   -3.8655747    1.0317143      8192000 
  749000   0.79776786   -3.8653352   -3.8653352   -2.8338163  0.027204471   -3.8653352    1.0315189      8192000 
  750000   0.79798586   -3.8657497   -3.8657497   -2.8339489  0.027351857   -3.8657497    1.0318008      8192000 
  751000   0.79789754   -3.8653244   -3.8653244   -2.8336378  0.029813572   -3.8653244    1.0316866      8192000 
  752000   0.79798209   -3.8657022   -3.8657022   -2.8339063   0.03069213   -3.8657022    1.0317959      8192000 
  753000   0.79833963   -3.8659094   -3.8659094   -2.8336512  0.028388016   -3.8659094    1.0322582      8192000 
  754000   0.79796819   -3.8653412   -3.8653412   -2.8335633  0.027695278   -3.8653412     1.031778      8192000 
  755000   0.79796686   -3.8657584   -3.8657584   -2.8339822  0.028079336   -3.8657584    1.0317762      8192000 
  756000   0.79736843   -3.8650731   -3.8650731   -2.8340707  0.029762849   -3.8650731    1.0310025      8192000 
  757000   0.79770579   -3.8657954   -3.8657954   -2.8343568  0.027816441   -3.8657954    1.0314387      8192000 
  758000   0.79795819   -3.8656676   -3.8656676   -2.8339026  0.027483833   -3.8656676     1.031765      8192000 
  759000   0.79808855   -3.8659038   -3.8659038   -2.8339702  0.026796287   -3.8659038    1.0319336      8192000 
  760000   0.79810216   -3.8658602   -3.8658602    -2.833909  0.028454276   -3.8658602    1.0319512      8192000 
  761000   0.79783185    -3.865744    -3.865744   -2.8341423  0.026347979    -3.865744    1.0316017      8192000 
  762000   0.79797431    -3.865609    -3.865609   -2.8338231  0.029240221    -3.865609    1.0317859      8192000 
  763000   0.79834876   -3.8660319   -3.8660319   -2.8337619  0.028369542   -3.8660319      1.03227      8192000 
  764000   0.79834992   -3.8660254   -3.8660254   -2.8337538  0.030473597   -3.8660254    1.0322715      8192000 
  765000   0.79838811   -3.8660973   -3.8660973   -2.8337763  0.030064268   -3.8660973    1.0323209      8192000 
  766000   0.79834099   -3.8655502   -3.8655502   -2.8332902  0.030524634   -3.8655502      1.03226      8192000 
  767000   0.79830833   -3.8658264   -3.8658264   -2.8336086  0.029729144   -3.8658264    1.0322178      8192000 
  768000   0.79826227   -3.8657854   -3.8657854   -2.8336272  0.030492805   -3.8657854    1.0321582      8192000 
  769000   0.79830444   -3.8656965   -3.8656965   -2.8334837  0.028920976   -3.8656965    1.0322127      8192000 
  770000   0.79862093   -3.8659201   -3.8659201   -2.8332981  0.029658278   -3.8659201     1.032622      8192000 
  771000   0.79851785   -3.8658682   -3.8658682   -2.8333795  0.029188377   -3.8658682    1.0324887      8192000 
  772000   0.79838111   -3.8653237   -3.8653237   -2.8330118  0.030206459   -3.8653237    1.0323119      8192000 
  773000   0.79817699   -3.8652376   -3.8652376   -2.8331897  0.027581142   -3.8652376    1.0320479      8192000 
  774000   0.79806327   -3.8648457   -3.8648457   -2.8329448  0.029793884   -3.8648457    1.0319009      8192000 
  775000   0.79790794   -3.8649465   -3.8649465   -2.8332464  0.029582346   -3.8649465       1.0317      8192000 
  776000   0.79778623   -3.8646303   -3.8646303   -2.8330876  0.031112965   -3.8646303    1.0315427      8192000 
  777000    0.7984057   -3.8654561   -3.8654561   -2.8331125  0.028175977   -3.8654561    1.0323437      8192000 
  778000   0.79769134   -3.8648366   -3.8648366   -2.8334166  0.027086931   -3.8648366      1.03142      8192000 
  779000   0.79801279   -3.8648546   -3.8648546    -2.833019  0.025672221   -3.8648546    1.0318356      8192000 
  780000   0.79806989   -3.8651253   -3.8651253   -2.8332158  0.024058015   -3.8651253    1.0319095      8192000 
  781000   0.79755081   -3.8641294   -3.8641294   -2.8328911  0.025174323   -3.8641294    1.0312383      8192000 
  782000     0.797237     -3.86383     -3.86383   -2.8329975  0.027773204     -3.86383    1.0308325      8192000 
  783000   0.79769236    -3.864579    -3.864579   -2.8331577  0.025291587    -3.864579    1.0314213      8192000 
  784000   0.79790631   -3.8651186   -3.8651186   -2.8334206  0.024867315   -3.8651186    1.0316979      8192000 
  785000    0.7973437   -3.8642336   -3.8642336   -2.8332631  0.027110594   -3.8642336    1.0309705      8192000 
  786000   0.79733487   -3.8642247   -3.8642247   -2.8332656  0.027417131   -3.8642247    1.0309591      8192000 
  787000   0.79820665   -3.8648927   -3.8648927   -2.8328064  0.026894707   -3.8648927    1.0320863      8192000 
  788000   0.79776779   -3.8645536   -3.8645536   -2.8330348  0.025957126   -3.8645536    1.0315188      8192000 
  789000   0.79767926   -3.8647221   -3.8647221   -2.8333178  0.026371682   -3.8647221    1.0314044      8192000 
  790000   0.79798475   -3.8653138   -3.8653138   -2.8335145  0.027069951   -3.8653138    1.0317994      8192000 
  791000   0.79819145   -3.8650326   -3.8650326   -2.8329659   0.02864566   -3.8650326    1.0320666      8192000 
  792000   0.79837673   -3.8655064   -3.8655064   -2.8332002  0.024282825   -3.8655064    1.0323062      8192000 
  793000   0.79814567    -3.865392    -3.865392   -2.8333845  0.029759667    -3.865392    1.0320074      8192000 
  794000   0.79813631   -3.8650464   -3.8650464   -2.8330511  0.031421076   -3.8650464    1.0319953      8192000 
  795000   0.79803541   -3.8651784   -3.8651784   -2.8333136  0.028591176   -3.8651784    1.0318649      8192000 
  796000    0.7980966   -3.8653442   -3.8653442   -2.8334002  0.028611951   -3.8653442     1.031944      8192000 
  797000    0.7983704   -3.8657536   -3.8657536   -2.8334556  0.031401882   -3.8657536     1.032298      8192000 
  798000   0.79880824   -3.8662603   -3.8662603   -2.8333962  0.027398539   -3.8662603    1.0328641      8192000 
  799000   0.79846975   -3.8661579   -3.8661579   -2.8337315  0.028635182   -3.8661579    1.0324265      8192000 
  800000   0.79867771   -3.8660002   -3.8660002   -2.8333048  0.030780623   -3.8660002    1.0326954      8192000 
  801000   0.79811974   -3.8653755   -3.8653755   -2.8334016  0.029060432   -3.8653755    1.0319739      8192000 
  802000   0.79874042     -3.86642     -3.86642   -2.8336435  0.029183975     -3.86642    1.0327765      8192000 
  803000   0.79870512   -3.8659238   -3.8659238   -2.8331929  0.030830888   -3.8659238    1.0327308      8192000 
  804000   0.79849061    -3.866031    -3.866031   -2.8335776  0.027583704    -3.866031    1.0324535      8192000 
  805000   0.79851586    -3.866057    -3.866057   -2.8335709  0.031992652    -3.866057    1.0324861      8192000 
  806000   0.79875636   -3.8662818   -3.8662818   -2.8334847  0.026187079   -3.8662818    1.0327971      8192000 
  807000   0.79846638   -3.8659102   -3.8659102   -2.8334881  0.029523183   -3.8659102    1.0324221      8192000 
  808000   0.79822427   -3.8659312   -3.8659312   -2.8338222  0.029072009   -3.8659312    1.0321091      8192000 
  809000   0.79831682   -3.8654877   -3.8654877    -2.833259  0.028801504   -3.8654877    1.0322287      8192000 
  810000   0.79823277   -3.8657313   -3.8657313   -2.8336112  0.028589834   -3.8657313    1.0321201      8192000 
  811000   0.79802602   -3.8649879   -3.8649879   -2.8331351   0.02876091   -3.8649879    1.0318527      8192000 
  812000   0.79792794   -3.8651823   -3.8651823   -2.8334564  0.029233523   -3.8651823    1.0317259      8192000 
  813000   0.79771326   -3.8649739   -3.8649739   -2.8335256  0.027732546   -3.8649739    1.0314483      8192000 
  814000   0.79789462   -3.8651671   -3.8651671   -2.8334842  0.028964641   -3.8651671    1.0316828      8192000 
  815000   0.79778327   -3.8652352   -3.8652352   -2.8336964  0.029484698   -3.8652352    1.0315388      8192000 
  816000   0.79792611   -3.8657683   -3.8657683   -2.8340447  0.025290089   -3.8657683    1.0317236      8192000 
  817000   0.79822747   -3.8657324   -3.8657324   -2.8336192   0.02722853   -3.8657324    1.0321132      8192000 
  818000   0.79794648   -3.8650209   -3.8650209    -2.833271  0.026608399   -3.8650209    1.0317499      8192000 
  819000   0.79820741   -3.8651557   -3.8651557   -2.8330685  0.026469294   -3.8651557    1.0320873      8192000 
  820000   0.79767406   -3.8648125   -3.8648125   -2.8334148  0.027384721   -3.8648125    1.0313976      8192000 
  821000   0.79800662   -3.8650999   -3.8650999   -2.8332722  0.027826291   -3.8650999    1.0318277      8192000 
  822000   0.79821055   -3.8654417   -3.8654417   -2.8333504  0.026459132   -3.8654417    1.0320913      8192000 
  823000   0.79815048   -3.8658127   -3.8658127    -2.833799  0.027291339   -3.8658127    1.0320137      8192000 
  824000   0.79795469   -3.8653853   -3.8653853   -2.8336248   0.02704332   -3.8653853    1.0317605      8192000 
  825000   0.79819199   -3.8653721   -3.8653721   -2.8333048  0.029484597   -3.8653721    1.0320673      8192000 
  826000   0.79807817   -3.8651946   -3.8651946   -2.8332745  0.030284167   -3.8651946    1.0319202      8192000 
  827000   0.79805108    -3.865135    -3.865135   -2.8332499  0.028557235    -3.865135    1.0318851      8192000 
  828000   0.79823968   -3.8651535   -3.8651535   -2.8330245  0.030024545   -3.8651535     1.032129      8192000 
  829000   0.79828714   -3.8653696   -3.8653696   -2.8331792   0.02933729   -3.8653696    1.0321904      8192000 
  830000   0.79863396   -3.8656266   -3.8656266   -2.8329878  0.029328954   -3.8656266    1.0326388      8192000 
  831000   0.79876284   -3.8662484   -3.8662484   -2.8334429  0.028735217   -3.8662484    1.0328054      8192000 
  832000   0.79838974   -3.8656339   -3.8656339   -2.8333108  0.028705923   -3.8656339     1.032323      8192000 
  833000   0.79835874   -3.8654666   -3.8654666   -2.8331837  0.028050649   -3.8654666    1.0322829      8192000 
  834000   0.79838097   -3.8655818   -3.8655818   -2.8332701  0.026851645   -3.8655818    1.0323117      8192000 
  835000   0.79771451   -3.8650612   -3.8650612   -2.8336112  0.030626032   -3.8650612    1.0314499      8192000 
  836000   0.79800453    -3.865411    -3.865411   -2.8335861  0.028470824    -3.865411    1.0318249      8192000 
  837000   0.79813631   -3.8652458   -3.8652458   -2.8332505  0.030491254   -3.8652458    1.0319953      8192000 
  838000   0.79839911   -3.8655372   -3.8655372   -2.8332021  0.028975861   -3.8655372    1.0323351      8192000 
  839000   0.79836572   -3.8654592   -3.8654592   -2.8331673  0.030578674   -3.8654592     1.032292      8192000 
  840000   0.79833753   -3.8657055   -3.8657055     -2.83345  0.026396929   -3.8657055    1.0322555      8192000 
  841000   0.79802558   -3.8652025   -3.8652025   -2.8333504  0.029533682   -3.8652025    1.0318522      8192000 
  842000   0.79820862   -3.8652259   -3.8652259    -2.833137  0.029393232   -3.8652259    1.0320888      8192000 
  843000   0.79818554   -3.8653486   -3.8653486   -2.8332896  0.027145889   -3.8653486     1.032059      8192000 
  844000   0.79808932   -3.8649939   -3.8649939   -2.8330593  0.027540604   -3.8649939    1.0319346      8192000 
  845000    0.7977198   -3.8645486   -3.8645486   -2.8330918   0.03187679   -3.8645486    1.0314568      8192000 
  846000   0.79790801    -3.864909    -3.864909   -2.8332088  0.027720951    -3.864909    1.0317001      8192000 
  847000   0.79782238   -3.8643968   -3.8643968   -2.8328074  0.028418941   -3.8643968    1.0315894      8192000 
  848000   0.79803753   -3.8648259   -3.8648259   -2.8329583  0.027032419   -3.8648259    1.0318676      8192000 
  849000   0.79832587   -3.8649803   -3.8649803   -2.8327398  0.026871112   -3.8649803    1.0322404      8192000 
  850000    0.7977615   -3.8642533   -3.8642533   -2.8327426  0.027771747   -3.8642533    1.0315107      8192000 
  851000   0.79820077    -3.864849    -3.864849   -2.8327703  0.028569725    -3.864849    1.0320787      8192000 
  852000    0.7978477   -3.8645046   -3.8645046   -2.8328824  0.029041823   -3.8645046    1.0316222      8192000 
  853000   0.79856052    -3.865366    -3.865366   -2.8328222  0.026332666    -3.865366    1.0325438      8192000 
  854000   0.79788278   -3.8646269   -3.8646269   -2.8329594   0.02563512   -3.8646269    1.0316675      8192000 
  855000   0.79755937   -3.8642962   -3.8642962   -2.8330468  0.028249516   -3.8642962    1.0312493      8192000 
  856000   0.79800119   -3.8647906   -3.8647906     -2.83297  0.027187832   -3.8647906    1.0318206      8192000 
  857000   0.79782084   -3.8643181   -3.8643181   -2.8327307  0.029006101   -3.8643181    1.0315874      8192000 
  858000   0.79790826   -3.8646586   -3.8646586   -2.8329581  0.025712916   -3.8646586    1.0317005      8192000 
  859000   0.79800357   -3.8647859   -3.8647859   -2.8329622  0.028099577   -3.8647859    1.0318237      8192000 
  860000   0.79809656   -3.8648915   -3.8648915   -2.8329476  0.023736261   -3.8648915    1.0319439      8192000 
  861000   0.79789291   -3.8651616   -3.8651616   -2.8334809  0.027926731   -3.8651616    1.0316806      8192000 
  862000   0.79795194   -3.8650304   -3.8650304   -2.8332735  0.026871713   -3.8650304    1.0317569      8192000 
  863000   0.79779265   -3.8650495   -3.8650495   -2.8334985  0.028585564   -3.8650495     1.031551      8192000 
  864000   0.79798481   -3.8656721   -3.8656721   -2.8338726  0.027380493   -3.8656721    1.0317994      8192000 
  865000   0.79843457   -3.8658207   -3.8658207   -2.8334397  0.025398462   -3.8658207     1.032381      8192000 
  866000   0.79783083   -3.8652296   -3.8652296   -2.8336292  0.027934377   -3.8652296    1.0316004      8192000 
  867000   0.79832258   -3.8656065   -3.8656065   -2.8333703  0.029048571   -3.8656065    1.0322362      8192000 
  868000   0.79819267   -3.8653167   -3.8653167   -2.8332484  0.028450538   -3.8653167    1.0320682      8192000 
  869000    0.7982712   -3.8656575   -3.8656575   -2.8334877  0.028225647   -3.8656575    1.0321698      8192000 
  870000   0.79861317   -3.8658795   -3.8658795   -2.8332676  0.029420136   -3.8658795    1.0326119      8192000 
  871000   0.79849356   -3.8657112   -3.8657112   -2.8332539  0.029299908   -3.8657112    1.0324573      8192000 
  872000   0.79880132    -3.865969    -3.865969   -2.8331138  0.029868592    -3.865969    1.0328552      8192000 
  873000   0.79838836   -3.8661756   -3.8661756   -2.8338543  0.027381249   -3.8661756    1.0323212      8192000 
  874000   0.79861032   -3.8660859   -3.8660859   -2.8334776  0.028708904   -3.8660859    1.0326082      8192000 
  875000    0.7982913   -3.8659204   -3.8659204   -2.8337246  0.029258132   -3.8659204    1.0321957      8192000 
  876000   0.79909288   -3.8664964   -3.8664964   -2.8332642  0.029240285   -3.8664964    1.0332322      8192000 
  877000   0.79819124   -3.8655799   -3.8655799   -2.8335135  0.032703089   -3.8655799    1.0320664      8192000 
  878000   0.79827185   -3.8656822   -3.8656822   -2.8335117  0.028174224   -3.8656822    1.0321706      8192000 
  879000   0.79806432   -3.8650625   -3.8650625   -2.8331602  0.028436323   -3.8650625    1.0319023      8192000 
  880000   0.79779994   -3.8649931   -3.8649931   -2.8334327  0.027912353   -3.8649931    1.0315604      8192000 
  881000   0.79797968   -3.8653106   -3.8653106   -2.8335178  0.027876838   -3.8653106    1.0317928      8192000 
  882000   0.79810927   -3.8654866   -3.8654866   -2.8335262  0.027189116   -3.8654866    1.0319604      8192000 
  883000   0.79806409   -3.8651581   -3.8651581   -2.8332561  0.027736756   -3.8651581     1.031902      8192000 
  884000   0.79771519   -3.8651774   -3.8651774   -2.8337266  0.029023291   -3.8651774    1.0314508      8192000 
  885000   0.79832238   -3.8655045   -3.8655045   -2.8332685   0.02712948   -3.8655045    1.0322359      8192000 
  886000   0.79789237   -3.8643806   -3.8643806   -2.8327007  0.027256379   -3.8643806    1.0316799      8192000 
  887000   0.79762482   -3.8645851   -3.8645851   -2.8332511  0.027385232   -3.8645851     1.031334      8192000 
  888000   0.79808482   -3.8648561   -3.8648561   -2.8329273  0.026455386   -3.8648561    1.0319288      8192000 
  889000    0.7977245   -3.8647781   -3.8647781   -2.8333152  0.027629769   -3.8647781    1.0314629      8192000 
  890000   0.79796743   -3.8652316   -3.8652316   -2.8334546  0.025624618   -3.8652316     1.031777      8192000 
  891000   0.79763066   -3.8644077   -3.8644077   -2.8330662  0.030021006   -3.8644077    1.0313415      8192000 
  892000    0.7976011   -3.8643599   -3.8643599   -2.8330566  0.028478113   -3.8643599    1.0313033      8192000 
  893000   0.79803771   -3.8645917   -3.8645917   -2.8327238  0.024411788   -3.8645917    1.0318678      8192000 
  894000   0.79752347   -3.8640457   -3.8640457   -2.8328428  0.026953053   -3.8640457    1.0312029      8192000 
  895000   0.79793933   -3.8646378   -3.8646378   -2.8328972  0.025004452   -3.8646378    1.0317406      8192000 
  896000   0.79776896   -3.8641796   -3.8641796   -2.8326592  0.027492341   -3.8641796    1.0315204      8192000 
  897000   0.79768245   -3.8645115   -3.8645115    -2.833103   0.02760118   -3.8645115    1.0314085      8192000 
  898000   0.79861698   -3.8653365   -3.8653365   -2.8327197  0.028886166   -3.8653365    1.0326168      8192000 
  899000   0.79830917   -3.8653953   -3.8653953   -2.8331765  0.029746633   -3.8653953    1.0322188      8192000 
  900000   0.79831336   -3.8652713   -3.8652713    -2.833047  0.029034274   -3.8652713    1.0322243      8192000 
  901000   0.79806711   -3.8648746   -3.8648746   -2.8329688  0.028439623   -3.8648746    1.0319059      8192000 
  902000   0.79784876   -3.8645302   -3.8645302   -2.8329066  0.028418988   -3.8645302    1.0316235      8192000 
  903000   0.79765756   -3.8641437   -3.8641437   -2.8327674  0.030424686   -3.8641437    1.0313763      8192000 
  904000   0.79848215   -3.8648883   -3.8648883   -2.8324458  0.028324451   -3.8648883    1.0324425      8192000 
  905000   0.79800733   -3.8641206   -3.8641206    -2.832292   0.02784865   -3.8641206    1.0318286      8192000 
  906000   0.79858572   -3.8651646   -3.8651646   -2.8325881  0.023901936   -3.8651646    1.0325764      8192000 
  907000   0.79797333   -3.8646994   -3.8646994   -2.8329148  0.027565691   -3.8646994    1.0317846      8192000 
  908000   0.79819673   -3.8648535   -3.8648535     -2.83278  0.030234177   -3.8648535    1.0320735      8192000 
  909000     0.798787   -3.8655192   -3.8655192   -2.8326825  0.026794825   -3.8655192    1.0328367      8192000 
  910000   0.79834342    -3.864956    -3.864956   -2.8326928  0.029857508    -3.864956    1.0322631      8192000 
  911000   0.79892036   -3.8658158   -3.8658158   -2.8328067  0.029409852   -3.8658158    1.0330091      8192000 
  912000    0.7983886   -3.8650345   -3.8650345    -2.832713  0.029562002   -3.8650345    1.0323216      8192000 
  913000   0.79823093   -3.8650037   -3.8650037    -2.832886  0.028225066   -3.8650037    1.0321177      8192000 
  914000   0.79821987   -3.8647705   -3.8647705   -2.8326671  0.026991967   -3.8647705    1.0321034      8192000 
  915000    0.7984032   -3.8650027   -3.8650027   -2.8326623  0.028102042   -3.8650027    1.0323404      8192000 
  916000   0.79824021   -3.8650138   -3.8650138   -2.8328842    0.0298197   -3.8650138    1.0321297      8192000 
  917000   0.79838012   -3.8651023   -3.8651023   -2.8327917  0.028405615   -3.8651023    1.0323106      8192000 
  918000   0.79829028   -3.8654649   -3.8654649   -2.8332705   0.02695715   -3.8654649    1.0321944      8192000 
  919000   0.79796992   -3.8648611   -3.8648611   -2.8330809   0.03099867   -3.8648611    1.0317802      8192000 
  920000    0.7984639   -3.8652119   -3.8652119   -2.8327929  0.027249623   -3.8652119    1.0324189      8192000 
  921000   0.79841089   -3.8649047   -3.8649047   -2.8325543  0.028325361   -3.8649047    1.0323504      8192000 
  922000   0.79822719   -3.8650084   -3.8650084   -2.8328956  0.027798408   -3.8650084    1.0321128      8192000 
  923000   0.79822291   -3.8651457   -3.8651457   -2.8330384  0.028226213   -3.8651457    1.0321073      8192000 
  924000   0.79827512   -3.8646356   -3.8646356   -2.8324608  0.027917255   -3.8646356    1.0321748      8192000 
  925000   0.79827224   -3.8650385   -3.8650385   -2.8328674   0.02705434   -3.8650385    1.0321711      8192000 
  926000   0.79806445   -3.8644089   -3.8644089   -2.8325065  0.029333075   -3.8644089    1.0319024      8192000 
  927000   0.79792461    -3.864779    -3.864779   -2.8330573  0.026477041    -3.864779    1.0317216      8192000 
  928000   0.79798711   -3.8651105   -3.8651105   -2.8333081  0.027883474   -3.8651105    1.0318024      8192000 
  929000   0.79822388   -3.8650463   -3.8650463   -2.8329378  0.026472821   -3.8650463    1.0321086      8192000 
  930000   0.79777276   -3.8646356   -3.8646356   -2.8331104  0.028876397   -3.8646356    1.0315253      8192000 
  931000    0.7980097   -3.8648772   -3.8648772   -2.8330456  0.024932426   -3.8648772    1.0318316      8192000 
  932000   0.79793681   -3.8648245   -3.8648245   -2.8330871  0.026895807   -3.8648245    1.0317374      8192000 
  933000   0.79784622   -3.8646974   -3.8646974   -2.8330772  0.028873556   -3.8646974    1.0316203      8192000 
  934000   0.79855082   -3.8653642   -3.8653642   -2.8328329  0.025121944   -3.8653642    1.0325313      8192000 
  935000   0.79819421   -3.8654265   -3.8654265   -2.8333563  0.027862483   -3.8654265    1.0320702      8192000 
  936000   0.79800131   -3.8648973   -3.8648973   -2.8330765  0.028484295   -3.8648973    1.0318208      8192000 
  937000   0.79805061   -3.8649442   -3.8649442   -2.8330597  0.028924901   -3.8649442    1.0318845      8192000 
  938000   0.79787546   -3.8646631   -3.8646631    -2.833005  0.029461906   -3.8646631    1.0316581      8192000 
  939000   0.79795247   -3.8650147   -3.8650147    -2.833257    0.0281748   -3.8650147    1.0317576      8192000 
  940000   0.79797437   -3.8648819   -3.8648819   -2.8330959  0.029675227   -3.8648819    1.0317859      8192000 
  941000   0.79849182   -3.8655516   -3.8655516   -2.8330966    0.0272804   -3.8655516     1.032455      8192000 
  942000   0.79804894   -3.8651329   -3.8651329   -2.8332505  0.028570273   -3.8651329    1.0318824      8192000 
  943000   0.79833811   -3.8653942   -3.8653942   -2.8331379  0.029313004   -3.8653942    1.0322563      8192000 
  944000   0.79825264   -3.8651714   -3.8651714   -2.8330256  0.030449845   -3.8651714    1.0321458      8192000 
  945000   0.79838635   -3.8656674   -3.8656674   -2.8333487  0.029693082   -3.8656674    1.0323186      8192000 
  946000   0.79814584   -3.8650508   -3.8650508   -2.8330431  0.030594999   -3.8650508    1.0320077      8192000 
  947000   0.79808923   -3.8650548   -3.8650548   -2.8331204  0.028222032   -3.8650548    1.0319345      8192000 
  948000   0.79805415   -3.8648115   -3.8648115   -2.8329224  0.029824985   -3.8648115    1.0318891      8192000 
  949000   0.79815755   -3.8650911   -3.8650911   -2.8330683  0.030399457   -3.8650911    1.0320228      8192000 
  950000   0.79858907   -3.8653941   -3.8653941   -2.8328133  0.028548988   -3.8653941    1.0325808      8192000 
  951000    0.7983444   -3.8651628   -3.8651628   -2.8328984  0.028094773   -3.8651628    1.0322644      8192000 
  952000   0.79830091   -3.8651492   -3.8651492   -2.8329411  0.025562513   -3.8651492    1.0322082      8192000 
  953000   0.79840921   -3.8655192   -3.8655192    -2.833171  0.027050799   -3.8655192    1.0323482      8192000 
  954000   0.79858711   -3.8653703   -3.8653703   -2.8327921  0.027701506   -3.8653703    1.0325782      8192000 
  955000   0.79854708    -3.865167    -3.865167   -2.8326406  0.028640828    -3.865167    1.0325265      8192000 
  956000   0.79886484   -3.8652509   -3.8652509   -2.8323135  0.028124148   -3.8652509    1.0329373      8192000 
  957000   0.79832376   -3.8650578   -3.8650578   -2.8328201  0.027203098   -3.8650578    1.0322377      8192000 
  958000    0.7983283   -3.8650203   -3.8650203   -2.8327767  0.028817363   -3.8650203    1.0322436      8192000 
  959000   0.79780897   -3.8644952   -3.8644952   -2.8329231   0.02693878   -3.8644952    1.0315721      8192000 
  960000   0.79791538   -3.8646374   -3.8646374   -2.8329277  0.027520557   -3.8646374    1.0317097      8192000 
  961000   0.79802527   -3.8649259   -3.8649259   -2.8330741  0.026121753   -3.8649259    1.0318518      8192000 
  962000   0.79780048   -3.8644721   -3.8644721    -2.832911  0.025502297   -3.8644721    1.0315611      8192000 
  963000   0.79759969   -3.8640147   -3.8640147   -2.8327132    0.0248597   -3.8640147    1.0313015      8192000 
  964000     0.797719   -3.8641241   -3.8641241   -2.8326683  0.027598936   -3.8641241    1.0314558      8192000 
  965000    0.7976731   -3.8644443   -3.8644443   -2.8330479  0.028485626   -3.8644443    1.0313964      8192000 
  966000   0.79790788   -3.8645095   -3.8645095   -2.8328095  0.027942823   -3.8645095       1.0317      8192000 
  967000   0.79840487   -3.8647673   -3.8647673   -2.8324247  0.028024813   -3.8647673    1.0323426      8192000 
  968000   0.79810673   -3.8646726   -3.8646726   -2.8327155  0.027614111   -3.8646726    1.0319571      8192000 
  969000   0.79826249   -3.8649275   -3.8649275    -2.832769  0.025884057   -3.8649275    1.0321585      8192000 
  970000   0.79816098   -3.8650051   -3.8650051   -2.8329779  0.026842365   -3.8650051    1.0320272      8192000 
  971000    0.7982548   -3.8647407   -3.8647407   -2.8325922  0.027494195   -3.8647407    1.0321485      8192000 
  972000   0.79796923    -3.864174    -3.864174   -2.8323947  0.028859743    -3.864174    1.0317793      8192000 
  973000    0.7983269    -3.864814    -3.864814   -2.8325722  0.026014121    -3.864814    1.0322418      8192000 
  974000    0.7979564   -3.8641449   -3.8641449   -2.8323822  0.027801221   -3.8641449    1.0317627      8192000 
  975000   0.79869208   -3.8647324   -3.8647324   -2.8320184     0.024332   -3.8647324     1.032714      8192000 
  976000   0.79797594   -3.8641215   -3.8641215   -2.8323335   0.03042578   -3.8641215     1.031788      8192000 
  977000   0.79832454   -3.8642947   -3.8642947   -2.8320559  0.029179144   -3.8642947    1.0322387      8192000 
  978000   0.79809665   -3.8643582   -3.8643582   -2.8324142  0.030065931   -3.8643582    1.0319441      8192000 
  979000   0.79856556    -3.864705    -3.864705   -2.8321546  0.027465909    -3.864705    1.0325504      8192000 
  980000   0.79897771   -3.8650864   -3.8650864   -2.8320031  0.029127668   -3.8650864    1.0330833      8192000 
  981000    0.7985822   -3.8648821   -3.8648821   -2.8323103  0.028349145   -3.8648821    1.0325719      8192000 
  982000   0.79785377   -3.8639611   -3.8639611   -2.8323311  0.029439178   -3.8639611      1.03163      8192000 
  983000   0.79804524   -3.8645812   -3.8645812   -2.8327036    0.0296159   -3.8645812    1.0318776      8192000 
  984000   0.79839569   -3.8645579   -3.8645579   -2.8322272  0.027052286   -3.8645579    1.0323307      8192000 
  985000   0.79773015   -3.8639975   -3.8639975   -2.8325273  0.029676612   -3.8639975    1.0314702      8192000 
  986000   0.79812349   -3.8641756   -3.8641756   -2.8321969   0.02789873   -3.8641756    1.0319788      8192000 
  987000   0.79795272   -3.8640089   -3.8640089    -2.832251  0.029457349   -3.8640089     1.031758      8192000 
  988000   0.79829419   -3.8641669   -3.8641669   -2.8319674  0.028722664   -3.8641669    1.0321995      8192000 
  989000   0.79837252   -3.8640512   -3.8640512   -2.8317504  0.029293372   -3.8640512    1.0323008      8192000 
  990000   0.79885092   -3.8646724   -3.8646724    -2.831753  0.027458631   -3.8646724    1.0329193      8192000 
  991000   0.79882295   -3.8648067   -3.8648067   -2.8319235  0.028626711   -3.8648067    1.0328832      8192000 
  992000   0.79848337   -3.8645671   -3.8645671    -2.832123  0.031616678   -3.8645671    1.0324441      8192000 
  993000   0.79840558   -3.8647592   -3.8647592   -2.8324157  0.027451573   -3.8647592    1.0323435      8192000 
  994000   0.79845334   -3.8642304   -3.8642304   -2.8318252  0.026704889   -3.8642304    1.0324053      8192000 
  995000   0.79852006   -3.8641632   -3.8641632   -2.8316717  0.029817799   -3.8641632    1.0324915      8192000 
  996000   0.79820366    -3.864031    -3.864031   -2.8319485  0.028698997    -3.864031    1.0320824      8192000 
  997000    0.7980558   -3.8639958   -3.8639958   -2.8321046  0.025698679   -3.8639958    1.0318912      8192000 
  998000   0.79790137   -3.8639398   -3.8639398   -2.8322482  0.025369076   -3.8639398    1.0316916      8192000 
  999000   0.79812767   -3.8636305   -3.8636305   -2.8316463  0.029776469   -3.8636305    1.0319842      8192000 
 1000000    0.7978735   -3.8640559   -3.8640559   -2.8324003  0.028151801   -3.8640559    1.0316555      8192000 
Loop time of 19365.1 on 240 procs for 1000000 steps with 4233413 atoms

Performance: 22308.128 tau/day, 51.639 timesteps/s
98.4% CPU use with 240 MPI tasks x 1 OpenMP threads

MPI task timing breakdown:
Section |  min time  |  avg time  |  max time  |%varavg|  %CPU | %total
-----------------------------------------------------------------------
Pair    | 6516.9     | 7608.3     | 9033.8     | 688.2 |  99.5 | 39.29
Bond    | 0.80086    | 0.915      | 1.0292     |   4.4 | 100.0 |  0.00
Neigh   | 4427.6     | 6022.5     | 7765.7     | 802.9 |  99.6 | 31.10
Comm    | 1322.5     | 3676.6     | 6078.2     |1629.6 |  96.0 | 18.99
Output  | 47.23      | 51.667     | 55.922     |  49.9 |  93.9 |  0.27
Modify  | 1103.8     | 1801.4     | 2776       |1028.2 |  96.2 |  9.30
Other   |            | 203.9      |            |       |       |  1.05

Nlocal:        17639.2 ave       19380 max       15892 min
Histogram: 2 5 22 33 69 46 36 9 12 6
Nghost:        16159.0 ave       21907 max        9627 min
Histogram: 28 12 0 27 18 39 45 43 23 5
Neighs:        569242.0 ave      651466 max      482221 min
Histogram: 7 5 10 43 94 21 0 19 21 20

Total # of neighbors = 1.3661805e+08
Ave neighs/atom = 32.271373
Ave special neighs/atom = 0.0000000
Neighbor list builds = 100000
Dangerous builds = 99000
Total wall time: 5:22:51
