LAMMPS (24 Dec 2020)
OMP_NUM_THREADS environment is not set. Defaulting to 1 thread. (src/comm.cpp:94)
  using 1 OpenMP thread(s) per MPI task
# Simple rigid body system
# needed variables: startTemp, temp

units		lj
atom_style	full
dimension 	3
boundary	p p f
pair_style	lj/cut/opt 2.5

variable 	gcmcdisplace	equal 0
variable 	sigma		equal 1.0
variable 	epsilon 	equal 1.0


read_restart	restart.dat.3000000
Reading restart file ...
  restart file = 24 Dec 2020, LAMMPS = 24 Dec 2020
WARNING: Restart file used different # of processors: 144 vs. 192 (src/read_restart.cpp:697)
  restoring atom style full from restart
  orthogonal box = (0.0000000 0.0000000 0.0000000) to (100.00000 100.00000 200.00000)
  4 by 4 by 12 MPI processor grid
  restoring pair style lj/cut/opt from restart
  878832 atoms
Finding 1-2 1-3 1-4 neighbors ...
  special bond factors lj:    0        0        0       
  special bond factors coul:  0        0        0       
     0 = max # of 1-2 neighbors
     0 = max # of 1-3 neighbors
     0 = max # of 1-4 neighbors
     1 = max # of special neighbors
  special bonds CPU = 1.407 seconds
  read_restart CPU = 1.882 seconds

mass		1 1.0
mass		2 1.0
mass		3 1.0


group		solvent type 1
878832 atoms in group solvent


neighbor 	0.4 bin

pair_coeff	1 1 1.0 1.0
pair_coeff	2 2 0.0 0.0
pair_coeff	3 3 0.0 0.0
pair_coeff	2 3 0.0 0.0
pair_coeff	1 2*3 0.0 0.0

pair_modify 	shift yes


balance 	1.05 shift z 10 1.05
Balancing ...
Neighbor list info ...
  update every 1 steps, delay 10 steps, check yes
  max neighbors/atom: 2000, page size: 100000
  master list distance cutoff = 2.9
  ghost atom cutoff = 2.9
  binsize = 1.45, bins = 69 69 138
  1 neighbor lists, perpetual/occasional/extra = 1 0 0
  (1) pair lj/cut/opt, perpetual
      attributes: half, newton on
      pair build: half/bin/newton
      stencil: half/bin/3d/newton
      bin: standard
 rebalancing time: 0.008 seconds
  iteration count = 4
  initial/final maximal load/proc = 6332.0000 5548.0000
  initial/final imbalance factor  = 1.3833634 1.2120815
  x cuts: 0.0000000 0.25000000 0.50000000 0.75000000 1.0000000
  y cuts: 0.0000000 0.25000000 0.50000000 0.75000000 1.0000000
  z cuts: 0.0000000 0.067708333 0.13020833 0.19270833 0.25520833 0.32291667 0.38541667 0.44791667 0.51041667 0.57812500 0.63020833 0.68229167 1.0000000


####################### WALLS ###########################


variable       epsilonWall equal 2*${epsilon}
variable       epsilonWall equal 2*1

variable       cutoffTop   equal   0.7147*${sigma}
variable       cutoffTop   equal   0.7147*1

variable       cutoffLow   equal   3*${sigma}
variable       cutoffLow   equal   3*1


fix            topWall all wall/lj93 zhi EDGE                ${epsilonWall} ${sigma} ${cutoffTop} units box
fix            topWall all wall/lj93 zhi EDGE                2 ${sigma} ${cutoffTop} units box
fix            topWall all wall/lj93 zhi EDGE                2 1 ${cutoffTop} units box
fix            topWall all wall/lj93 zhi EDGE                2 1 0.7147 units box

fix            lowWall all wall/lj93 zlo EDGE                ${epsilonWall} ${sigma} ${cutoffLow} units box
fix            lowWall all wall/lj93 zlo EDGE                2 ${sigma} ${cutoffLow} units box
fix            lowWall all wall/lj93 zlo EDGE                2 1 ${cutoffLow} units box
fix            lowWall all wall/lj93 zlo EDGE                2 1 3 units box


###################### COMPUTES ##########################

compute        bin1 solvent chunk/atom bin/1d z upper 1.0



######################	FIXES ############################


fix 		peclet solvent ave/chunk 1000 1 1000 bin1 density/number norm 		 none ave one file density.profile

fix 		 temp solvent ave/chunk 1000 1 1000 bin1 temp norm none ave one file temp.profile

fix 		2 solvent nve

## Thermostat


region		regthermo block EDGE EDGE EDGE EDGE 0 20

group 		thermo dynamic solvent region regthermo every 1000
dynamic group thermo defined

fix 		3 thermo langevin ${startTemp} ${temp} 10 156453
fix 		3 thermo langevin 1.0 ${temp} 10 156453
fix 		3 thermo langevin 1.0 1.0 10 156453


## Evaporation

region		regevap block EDGE EDGE EDGE EDGE 180 198
fix 		gcmc solvent gcmc 100 100 0 1 780493 ${temp} ${mu} ${gcmcdisplace} region regevap
fix 		gcmc solvent gcmc 100 100 0 1 780493 1.0 ${mu} ${gcmcdisplace} region regevap
fix 		gcmc solvent gcmc 100 100 0 1 780493 1.0 -.50 ${gcmcdisplace} region regevap
fix 		gcmc solvent gcmc 100 100 0 1 780493 1.0 -.50 0 region regevap


#### Load balancing

fix 		bal all balance 1000 1.05 shift z 10 1.05

############### Diagnostics and computes ###################
#compute 	com cube	  rigid/local	1 mol x y z
#compute 	quat cube	  rigid/local	1 mol quatw quati quatj quatk

thermo 		1000
thermo_style 	custom step temp epair etotal press pe ke atoms

dump		1 all custom 100000 dump.lammpstrj id mol type x y z
dump 		2 all image 10000 image.*.png type type
dump 		3 all movie 1000 movie.avi type type
#dump 		com cube local 1000 dump.*.xyz c_com[*]
#dump		quat cube      local 1000 dump.*.quat c_quat[*]


restart 	1000000 restart.dat
timestep 	0.005
timer 		full
New timer settings: style=full  mode=nosync  timeout=off


run		5000000
Per MPI rank memory allocation (min/avg/max) = 12.26 | 12.63 | 13.06 Mbytes
Step Temp E_pair TotEng Press PotEng KinEng Atoms 
 3000000   0.98378862   -3.3591705   -1.8834892  0.056035388   -3.3591705    1.4756812   878832 
 3001000   0.98576653   -3.3596124   -1.8815748  0.056595092   -3.3596124    1.4780376   879195 
 3002000   0.98562507   -3.3586498   -1.8814292  0.057891083   -3.3586498    1.4772206   879555 
 3003000   0.98636601   -3.3581171   -1.8804059  0.056076594   -3.3581171    1.4777112   879924 
 3004000   0.98641694   -3.3564685   -1.8792937  0.054458839   -3.3564685    1.4771747   880289 
 3005000   0.98750237    -3.355626   -1.8773951  0.056819938    -3.355626    1.4782309   880628 
 3006000   0.98820663   -3.3550185   -1.8762875  0.055062321   -3.3550185     1.478731   880958 
 3007000   0.98780705   -3.3521571   -1.8746043  0.059231694   -3.3521571    1.4775528   881304 
 3008000   0.98875812   -3.3520719   -1.8736434  0.058891001   -3.3520719    1.4784285   881630 
 3009000    0.9895496   -3.3512277   -1.8722079  0.059112075   -3.3512277    1.4790198   881983 
 3010000   0.99012523     -3.35042   -1.8711303  0.059705709     -3.35042    1.4792897   882335 
 3011000    0.9911387   -3.3493617   -1.8691566  0.055276521   -3.3493617     1.480205   882692 
 3012000   0.99187467   -3.3488561   -1.8681307  0.059206429   -3.3488561    1.4807254   883037 
 3013000   0.99256854   -3.3485612   -1.8674156  0.059358524   -3.3485612    1.4811457   883404 
 3014000   0.99275868   -3.3469508   -1.8661181   0.05849146   -3.3469508    1.4808326   883760 
 3015000    0.9931999   -3.3460331   -1.8651573  0.055339054   -3.3460331    1.4808758   884127 
 3016000   0.99392848   -3.3447145   -1.8633221  0.057905453   -3.3447145    1.4813924   884467 
 3017000   0.99472808    -3.344194   -1.8622096   0.05903499    -3.344194    1.4819844   884825 
 3018000   0.99496885   -3.3431757   -1.8613937  0.060406353   -3.3431757    1.4817821   885160 
 3019000   0.99479219   -3.3406215   -1.8597233  0.061885356   -3.3406215    1.4808983   885531 
 3020000   0.99632503   -3.3411287   -1.8585195  0.059323134   -3.3411287    1.4826092   885872 
 3021000   0.99788955   -3.3409834   -1.8565939   0.06039771   -3.3409834    1.4843894   886199 
 3022000   0.99859766    -3.339907    -1.855044   0.06265262    -3.339907     1.484863   886545 
 3023000   0.99936087   -3.3404097   -1.8550049   0.06146649   -3.3404097    1.4854047   886899 
 3024000    0.9989571    -3.338281   -1.8539969  0.063109683    -3.338281    1.4842841   887210 
 3025000   0.99951551   -3.3382262   -1.8537047  0.062664466   -3.3382262    1.4845215   887564 
 3026000    1.0003674   -3.3381829   -1.8529284  0.061096511   -3.3381829    1.4852545   887882 
 3027000    1.0023752   -3.3394784   -1.8517689  0.060019833   -3.3394784    1.4877095   888196 
 3028000    1.0020476   -3.3374035   -1.8507343  0.064677686   -3.3374035    1.4866692   888527 
 3029000    1.0025179    -3.336281   -1.8495013  0.065546284    -3.336281    1.4867797   888878 
 3030000    1.0029025   -3.3353982   -1.8486036  0.066438127   -3.3353982    1.4867947   889210 
 3031000    1.0042817    -3.336397   -1.8481201  0.064486434    -3.336397    1.4882769   889546 
 3032000    1.0041685   -3.3350972   -1.8475064   0.06629505   -3.3350972    1.4875908   889856 
 3033000    1.0053113   -3.3352836   -1.8465553  0.064733884   -3.3352836    1.4887283   890188 
 3034000    1.0058971    -3.335627   -1.8465631  0.062720927    -3.335627    1.4890639   890506 
 3035000    1.0064606   -3.3352058   -1.8458646  0.067050744   -3.3352058    1.4893412   890839 
 3036000    1.0061496   -3.3337413   -1.8454184  0.067070178   -3.3337413    1.4883229   891173 
 3037000    1.0054588   -3.3318342    -1.845032  0.068896068   -3.3318342    1.4868023   891472 
 3038000    1.0072026   -3.3330671   -1.8442374  0.065769581   -3.3330671    1.4888297   891802 
 3039000    1.0078659   -3.3319826   -1.8427035  0.065515065   -3.3319826    1.4892792   892120 
 3040000    1.0077694   -3.3309773   -1.8424014     0.067038   -3.3309773     1.488576   892456 
 3041000    1.0075462   -3.3298049    -1.842122  0.067219225   -3.3298049    1.4876828   892794 
 3042000    1.0091177   -3.3309919    -1.841556  0.064276546   -3.3309919    1.4894359   893134 
 3043000    1.0087021   -3.3294271   -1.8411662   0.06696462   -3.3294271    1.4882609   893471 
 3044000    1.0103296   -3.3301036    -1.839965  0.066625588   -3.3301036    1.4901386   893785 
 3045000     1.011343   -3.3304096   -1.8392919   0.06780246   -3.3304096    1.4911177   894094 
 3046000    1.0114545   -3.3289877   -1.8382175  0.071055367   -3.3289877    1.4907702   894401 
 3047000    1.0121391   -3.3290941   -1.8378668  0.071671897   -3.3290941    1.4912273   894732 
 3048000    1.0134955   -3.3293386     -1.83664  0.071993652   -3.3293386    1.4926986   895048 
 3049000    1.0129155    -3.327711   -1.8363898  0.071826603    -3.327711    1.4913212   895362 
 3050000    1.0137636   -3.3281412   -1.8361079  0.068337227   -3.3281412    1.4920333   895684 
 3051000    1.0147219   -3.3274175   -1.8345023  0.068696257   -3.3274175    1.4929152   896001 
 3052000    1.0149322   -3.3264422   -1.8337539   0.06995998   -3.3264422    1.4926883   896323 
 3053000    1.0157145   -3.3258844   -1.8325087  0.075511658   -3.3258844    1.4933757   896601 
 3054000    1.0168529    -3.327045   -1.8325173  0.072398023    -3.327045    1.4945277   896914 
 3055000    1.0161679   -3.3256852   -1.8327019  0.072432347   -3.3256852    1.4929833   897237 
 3056000    1.0176716   -3.3255776   -1.8309765  0.069975741   -3.3255776    1.4946011   897592 
 3057000    1.0177779   -3.3242035   -1.8299872  0.074589182   -3.3242035    1.4942163   897917 
 3058000    1.0175417   -3.3232375   -1.8298903    0.0717706   -3.3232375    1.4933472   898231 
 3059000    1.0180782    -3.322448   -1.8288355    0.0753809    -3.322448    1.4936125   898545 
 3060000    1.0201166   -3.3238343   -1.8277858  0.069997973   -3.3238343    1.4960485   898878 
 3061000    1.0193986   -3.3228295   -1.8283326  0.072987992   -3.3228295    1.4944968   899178 
 3062000    1.0203965   -3.3229357   -1.8274831  0.071375049   -3.3229357    1.4954526   899483 
 3063000    1.0201141   -3.3213811   -1.8268808  0.072816924   -3.3213811    1.4945003   899807 
 3064000    1.0209909   -3.3215282   -1.8262619  0.074732698   -3.3215282    1.4952663   900119 
 3065000    1.0211381   -3.3212805   -1.8263035  0.072684446   -3.3212805     1.494977   900423 
 3066000    1.0216944   -3.3202665   -1.8250114  0.070954902   -3.3202665    1.4952551   900746 
 3067000    1.0216358   -3.3189637   -1.8243137  0.075184738   -3.3189637    1.4946501   901059 
 3068000    1.0229943    -3.318826   -1.8226899   0.07539632    -3.318826     1.496136   901361 
 3069000    1.0238517   -3.3177976    -1.820939  0.072399123   -3.3177976    1.4968586   901681 
 3070000    1.0236687   -3.3172853   -1.8211804  0.075428998   -3.3172853    1.4961049   901974 
 3071000    1.0234672   -3.3156836   -1.8204319  0.072501185   -3.3156836    1.4952517   902311 
 3072000    1.0242175   -3.3156747    -1.819854  0.076945575   -3.3156747    1.4958207   902629 
 3073000     1.025489    -3.315808   -1.8186378  0.072931485    -3.315808    1.4971702   902935 
 3074000    1.0256397    -3.314662    -1.817784  0.077680597    -3.314662    1.4968779   903244 
 3075000    1.0281875   -3.3173095   -1.8172596   0.07156842   -3.3173095    1.5000498   903573 
 3076000    1.0268789   -3.3131365    -1.815503  0.075311829   -3.3131365    1.4976335   903879 
 3077000    1.0279077   -3.3137232   -1.8150916  0.074203784   -3.3137232    1.4986316   904182 
 3078000    1.0275619   -3.3130736    -1.815491  0.073887429   -3.3130736    1.4975826   904511 
 3079000    1.0276749   -3.3112249   -1.8139908  0.076250266   -3.3112249     1.497234   904821 
 3080000    1.0292603   -3.3112045   -1.8122057  0.077085677   -3.3112045    1.4989989   905150 
 3081000    1.0298291     -3.31026   -1.8109496  0.076956673     -3.31026    1.4993104   905462 
 3082000    1.0303934   -3.3104615   -1.8108297  0.076064519   -3.3104615    1.4996318   905764 
 3083000    1.0300798   -3.3089048   -1.8102489  0.079320372   -3.3089048    1.4986558   906078 
 3084000    1.0308298   -3.3095222   -1.8102831  0.076317756   -3.3095222    1.4992391   906385 
 3085000    1.0322799   -3.3090119   -1.8081772  0.073985247   -3.3090119    1.5008347   906695 
 3086000    1.0318886   -3.3076361   -1.8078665  0.075455557   -3.3076361    1.4997696   906995 
 3087000    1.0319858   -3.3068587   -1.8074107  0.075952744   -3.3068587    1.4994479   907275 
 3088000    1.0323768   -3.3058054   -1.8062702  0.072695993   -3.3058054    1.4995351   907566 
 3089000    1.0320228   -3.3033397   -1.8048174  0.076828239   -3.3033397    1.4985223   907868 
 3090000    1.0331729   -3.3038236   -1.8041384  0.075182059   -3.3038236    1.4996852   908175 
 3091000    1.0320369   -3.3022697   -1.8047447  0.078623199   -3.3022697    1.4975251   908485 
 3092000    1.0342796   -3.3035795   -1.8033122  0.075387851   -3.3035795    1.5002674   908795 
 3093000     1.034885    -3.303061   -1.8024025  0.075881866    -3.303061    1.5006585   909090 
 3094000    1.0349339   -3.3027065   -1.8024558  0.078533678   -3.3027065    1.5002507   909380 
 3095000    1.0359833    -3.303211   -1.8019426  0.076142692    -3.303211    1.5012684   909685 
 3096000    1.0353979   -3.3008901   -1.8009531  0.076211642   -3.3008901    1.4999369   909978 
 3097000     1.037574   -3.3026819   -1.8000928  0.071473351   -3.3026819    1.5025891   910281 
 3098000    1.0377233     -3.30148   -1.7991682  0.079911343     -3.30148    1.5023118   910580 
 3099000    1.0386504    -3.301291   -1.7981653  0.074695742    -3.301291    1.5031257   910900 
 3100000     1.038781   -3.2994377   -1.7966394   0.07465233   -3.2994377    1.5027983   911213 
 3101000    1.0388822    -3.299089   -1.7966158   0.08130172    -3.299089    1.5024732   911499 
 3102000    1.0396322   -3.2989573   -1.7958727  0.080554671   -3.2989573    1.5030846   911786 
 3103000    1.0403797   -3.2985214   -1.7948805  0.079319252   -3.2985214    1.5036409   912104 
 3104000     1.041975   -3.2990965   -1.7936154  0.079688483   -3.2990965    1.5054811   912386 
 3105000    1.0417386    -3.298113   -1.7934516  0.080009117    -3.298113    1.5046614   912676 
 3106000    1.0434567    -3.299512   -1.7928429  0.081728503    -3.299512     1.506669   912963 
 3107000    1.0430553   -3.2979011   -1.7923112  0.079730509   -3.2979011    1.5055899   913266 
 3108000    1.0433772   -3.2975948   -1.7920366  0.079582667   -3.2975948    1.5055582   913567 
 3109000    1.0434295    -3.296684   -1.7915412  0.080454798    -3.296684    1.5051428   913865 
 3110000    1.0431205   -3.2955682   -1.7913437  0.081506278   -3.2955682    1.5042246   914152 
 3111000    1.0455143   -3.2971206   -1.7899931  0.080759891   -3.2971206    1.5071276   914485 
 3112000    1.0447854   -3.2948676   -1.7892764  0.084275338   -3.2948676    1.5055912   914780 
 3113000     1.045325   -3.2939613   -1.7880552  0.086313299   -3.2939613    1.5059062   915061 
 3114000    1.0463433   -3.2941842   -1.7872607  0.081872042   -3.2941842    1.5069235   915334 
 3115000    1.0462464     -3.29361   -1.7872852  0.082028501     -3.29361    1.5063249   915613 
 3116000    1.0472198   -3.2939482   -1.7866811  0.084578487   -3.2939482     1.507267   915892 
 3117000    1.0473277   -3.2939472   -1.7869708  0.085017033   -3.2939472    1.5069764   916163 
 3118000     1.048137   -3.2937941   -1.7861205   0.08200709   -3.2937941    1.5076735   916447 
 3119000    1.0488621   -3.2930731   -1.7848075  0.084900827   -3.2930731    1.5082656   916721 
 3120000    1.0492477   -3.2922159   -1.7838877   0.08552012   -3.2922159    1.5083281   917020 
 3121000    1.0497837   -3.2917692   -1.7831329  0.083145392   -3.2917692    1.5086363   917301 
 3122000    1.0508567   -3.2932508   -1.7834872  0.083827165   -3.2932508    1.5097636   917553 
 3123000    1.0518921   -3.2929261   -1.7821195   0.08316776   -3.2929261    1.5108067   917823 
 3124000    1.0504419   -3.2896635   -1.7813423  0.087627929   -3.2896635    1.5083212   918068 
 3125000    1.0518247   -3.2909179   -1.7809977  0.084618697   -3.2909179    1.5099202   918303 
 3126000     1.050502   -3.2878072   -1.7802488  0.084720138   -3.2878072    1.5075584   918585 
 3127000    1.0514823   -3.2881448   -1.7796147  0.084765657   -3.2881448    1.5085301   918850 
 3128000    1.0523367   -3.2888914   -1.7795609  0.084459688   -3.2888914    1.5093304   919109 
 3129000    1.0519663   -3.2874391   -1.7790961  0.084893017   -3.2874391    1.5083429   919387 
 3130000    1.0535116   -3.2882425   -1.7781355  0.086085485   -3.2882425    1.5101069   919662 
 3131000    1.0535397    -3.287332   -1.7776477  0.083335672    -3.287332    1.5096843   919944 
 3132000    1.0547235   -3.2884992   -1.7775702   0.07974213   -3.2884992     1.510929   920219 
 3133000    1.0547594   -3.2874307   -1.7768804  0.082153149   -3.2874307    1.5105504   920481 
 3134000    1.0536393   -3.2848581   -1.7763708  0.086758702   -3.2848581    1.5084873   920761 
 3135000    1.0549352    -3.284929   -1.7750553  0.084058686    -3.284929    1.5098736   921047 
 3136000     1.056318   -3.2855428   -1.7741478  0.086962042   -3.2855428     1.511395   921326 
 3137000    1.0561205   -3.2839489   -1.7733612  0.081760406   -3.2839489    1.5105877   921646 
 3138000     1.055789   -3.2821837   -1.7725353  0.085432907   -3.2821837    1.5096484   921930 
 3139000    1.0579386   -3.2840028   -1.7717318  0.086947182   -3.2840028     1.512271   922205 
 3140000    1.0588122   -3.2832727   -1.7701764  0.088346618   -3.2832727    1.5130964   922463 
 3141000    1.0588912   -3.2830604   -1.7703069  0.085574724   -3.2830604    1.5127535   922741 
 3142000    1.0589087   -3.2822316   -1.7699186  0.084203083   -3.2822316     1.512313   923025 
 3143000    1.0600002     -3.28224   -1.7688223  0.089364467     -3.28224    1.5134177   923302 
 3144000    1.0601203   -3.2814814   -1.7683298   0.08380197   -3.2814814    1.5131516   923569 
 3145000    1.0589969   -3.2789803   -1.7679345  0.085699789   -3.2789803    1.5110458   923876 
 3146000    1.0600885   -3.2794756   -1.7672912  0.082537399   -3.2794756    1.5121844   924132 
 3147000    1.0621552   -3.2811235    -1.766463  0.083187291   -3.2811235    1.5146605   924420 
 3148000    1.0603228   -3.2791421   -1.7675215  0.087809305   -3.2791421    1.5116206   924681 
 3149000    1.0619025   -3.2810709   -1.7676517   0.08547488   -3.2810709    1.5134192   924958 
 3150000    1.0615336   -3.2789372    -1.766459  0.086480741   -3.2789372    1.5124782   925212 
 3151000    1.0618608   -3.2779788   -1.7654758  0.084851078   -3.2779788     1.512503   925482 
 3152000    1.0606591   -3.2757258   -1.7653849  0.088764428   -3.2757258    1.5103409   925758 
 3153000    1.0621985   -3.2768019   -1.7647019  0.085863382   -3.2768019       1.5121   926023 
 3154000      1.06367   -3.2775881   -1.7638297  0.085427131   -3.2775881    1.5137584   926290 
 3155000    1.0643081    -3.277968   -1.7637314  0.086896553    -3.277968    1.5142366   926553 
 3156000    1.0641202   -3.2774169    -1.763936  0.089100622   -3.2774169    1.5134808   926852 
 3157000    1.0649644   -3.2775205   -1.7632964  0.086963406   -3.2775205    1.5142241   927132 
 3158000    1.0664375   -3.2778309   -1.7619374  0.089160681   -3.2778309    1.5158935   927392 
 3159000    1.0663339   -3.2770737   -1.7617638  0.086142203   -3.2770737    1.5153099   927659 
 3160000    1.0669509   -3.2772934   -1.7615479  0.087502109   -3.2772934    1.5157456   927929 
 3161000    1.0683316   -3.2772896   -1.7600421  0.088968003   -3.2772896    1.5172476   928210 
 3162000     1.066452    -3.273909   -1.7597957  0.088040225    -3.273909    1.5141132   928495 
 3163000    1.0672049   -3.2746988   -1.7599358  0.091716202   -3.2746988     1.514763   928752 
 3164000    1.0684544    -3.274678   -1.7585398  0.089952116    -3.274678    1.5161382   928996 
 3165000    1.0679454   -3.2738978   -1.7588815  0.091033644   -3.2738978    1.5150163   929241 
 3166000    1.0690419   -3.2746112   -1.7585173  0.088963493   -3.2746112    1.5160938   929534 
 3167000    1.0687056   -3.2730499   -1.7578503  0.089884724   -3.2730499    1.5151996   929790 
 3168000    1.0690711   -3.2720534   -1.7567626  0.089013723   -3.2720534    1.5152907   930052 
 3169000    1.0694566   -3.2712941   -1.7558837  0.089788472   -3.2712941    1.5154103   930314 
 3170000    1.0709893   -3.2722315   -1.7550293    0.0910315   -3.2722315    1.5172022   930547 
 3171000    1.0708766    -3.271674   -1.7550226  0.090285965    -3.271674    1.5166514   930787 
 3172000    1.0713504   -3.2715188   -1.7546186  0.090717315   -3.2715188    1.5169002   931046 
 3173000    1.0714974   -3.2705593   -1.7539151   0.09133629   -3.2705593    1.5166442   931331 
 3174000    1.0734332   -3.2724692   -1.7535287  0.088523753   -3.2724692    1.5189405   931603 
 3175000    1.0728942   -3.2695311   -1.7517867   0.09419204   -3.2695311    1.5177445   931869 
 3176000    1.0736265   -3.2696032   -1.7512432    0.0954792   -3.2696032      1.51836   932127 
 3177000    1.0738477   -3.2693156     -1.75112  0.090100075   -3.2693156    1.5181956   932420 
 3178000    1.0743182   -3.2692915   -1.7508654  0.093183672   -3.2692915    1.5184261   932687 
 3179000    1.0749756   -3.2693437   -1.7504265  0.089519922   -3.2693437    1.5189171   932956 
 3180000    1.0753238   -3.2676585   -1.7486857  0.093040653   -3.2676585    1.5189727   933224 
 3181000    1.0757962   -3.2681951   -1.7489377  0.090487037   -3.2681951    1.5192575   933459 
 3182000    1.0755548   -3.2670802   -1.7486028   0.09117307   -3.2670802    1.5184773   933729 
 3183000    1.0768582   -3.2674142   -1.7475345  0.094485793   -3.2674142    1.5198797   933998 
 3184000    1.0771691   -3.2666703   -1.7468385  0.094625694   -3.2666703    1.5198319   934297 
 3185000    1.0781819    -3.266912   -1.7460807  0.095314452    -3.266912    1.5208313   934561 
 3186000    1.0783307   -3.2661788    -1.745582  0.089727925   -3.2661788    1.5205969   934834 
 3187000    1.0786149   -3.2653656   -1.7448233  0.093103461   -3.2653656    1.5205422   935114 
 3188000    1.0783004   -3.2640612   -1.7443459  0.093305227   -3.2640612    1.5197154   935350 
 3189000    1.0791704   -3.2635713   -1.7430427  0.093712976   -3.2635713    1.5205286   935604 
 3190000    1.0808601   -3.2652156   -1.7427489  0.093786205   -3.2652156    1.5224667   935876 
 3191000    1.0813639   -3.2643203   -1.7416093  0.092796268   -3.2643203     1.522711   936162 
 3192000    1.0803985   -3.2630526   -1.7420926  0.093250076   -3.2630526      1.52096   936403 
 3193000    1.0818192   -3.2638383   -1.7412913  0.095061686   -3.2638383     1.522547   936657 
 3194000    1.0819556   -3.2631923   -1.7408629  0.089098921   -3.2631923    1.5223294   936909 
 3195000    1.0827715    -3.263119   -1.7400415  0.097048906    -3.263119    1.5230775   937155 
 3196000    1.0832429   -3.2622293   -1.7389113  0.096603458   -3.2622293     1.523318   937415 
 3197000    1.0836097    -3.261652   -1.7382245  0.094321001    -3.261652    1.5234275   937665 
 3198000    1.0837276   -3.2605243   -1.7373469  0.093403443   -3.2605243    1.5231774   937921 
 3199000    1.0845859     -3.26109   -1.7371337  0.096382748     -3.26109    1.5239564   938184 
 3200000    1.0838779   -3.2601525   -1.7375885   0.09140152   -3.2601525    1.5225641   938429 
 3201000    1.0845483   -3.2598686   -1.7367476  0.092861301   -3.2598686    1.5231211   938666 
 3202000    1.0847864   -3.2597635   -1.7367251  0.095557926   -3.2597635    1.5230384   938923 
 3203000    1.0854688    -3.259482   -1.7358911  0.096107636    -3.259482    1.5235909   939173 
 3204000    1.0853276   -3.2575158   -1.7345739   0.09649947   -3.2575158    1.5229419   939451 
 3205000    1.0866995   -3.2595896   -1.7351299  0.094760026   -3.2595896    1.5244597   939702 
 3206000    1.0873587   -3.2590956   -1.7341412  0.097136181   -3.2590956    1.5249544   939967 
 3207000    1.0865369   -3.2578079   -1.7344097  0.094793882   -3.2578079    1.5233983   940216 
 3208000    1.0860169   -3.2567259   -1.7344776  0.095450965   -3.2567259    1.5222483   940476 
 3209000    1.0869098   -3.2564496   -1.7332995  0.093557504   -3.2564496    1.5231501   940692 
 3210000    1.0866747   -3.2560651   -1.7336233  0.096003123   -3.2560651    1.5224419   940926 
 3211000    1.0883655   -3.2572491   -1.7328774  0.093909671   -3.2572491    1.5243717   941197 
 3212000    1.0886347   -3.2564715   -1.7320807  0.094199165   -3.2564715    1.5243908   941418 
 3213000     1.088899   -3.2560338   -1.7316988  0.098120899   -3.2560338     1.524335   941681 
 3214000    1.0896681   -3.2573148   -1.7322901  0.093381734   -3.2573148    1.5250246   941920 
 3215000     1.089942   -3.2565467   -1.7315338  0.097697638   -3.2565467    1.5250129   942164 
 3216000    1.0912124   -3.2571181   -1.7307522  0.096802413   -3.2571181    1.5263659   942426 
 3217000    1.0908882   -3.2564995   -1.7309837  0.095013075   -3.2564995    1.5255159   942671 
 3218000    1.0923712   -3.2569188   -1.7297439  0.093561374   -3.2569188    1.5271749   942927 
 3219000    1.0923086   -3.2558068   -1.7291209  0.092679408   -3.2558068    1.5266859   943175 
 3220000    1.0922642   -3.2555523   -1.7292747  0.096344011   -3.2555523    1.5262776   943389 
 3221000    1.0932031   -3.2550391   -1.7278349   0.10272611   -3.2550391    1.5272043   943627 
 3222000    1.0934995   -3.2554974   -1.7282788  0.097579827   -3.2554974    1.5272186   943874 
 3223000     1.093208   -3.2545931   -1.7281974   0.09706509   -3.2545931    1.5263958   944131 
 3224000    1.0939593   -3.2555678   -1.7284967  0.097537936   -3.2555678    1.5270712   944362 
 3225000    1.0944168   -3.2566717   -1.7293225  0.094216767   -3.2566717    1.5273492   944585 
 3226000    1.0941793   -3.2547273   -1.7281249  0.097619021   -3.2547273    1.5266024   944842 
 3227000     1.095783   -3.2556671   -1.7272398  0.099177863   -3.2556671    1.5284273   945097 
 3228000     1.096157   -3.2555442   -1.7269899  0.098837186   -3.2555442    1.5285543   945341 
 3229000    1.0953632   -3.2543058    -1.727246   0.10139914   -3.2543058    1.5270597   945581 
 3230000    1.0969626   -3.2557763   -1.7268862  0.098106178   -3.2557763    1.5288901   945828 
 3231000    1.0978513   -3.2563732   -1.7266472  0.095421565   -3.2563732     1.529726   946077 
 3232000     1.097541   -3.2547288    -1.725844  0.099852697   -3.2547288    1.5288849   946330 
 3233000    1.0983751   -3.2553315   -1.7257067  0.097404067   -3.2553315    1.5296248   946591 
 3234000     1.097982   -3.2539552   -1.7252896   0.10106468   -3.2539552    1.5286656   946846 
 3235000    1.0975598   -3.2527035   -1.7249726   0.10195996   -3.2527035     1.527731   947061 
 3236000    1.0981104   -3.2527419   -1.7246205   0.10066157   -3.2527419    1.5281214   947294 
 3237000    1.0994002   -3.2534824   -1.7239665  0.099153201   -3.2534824    1.5295158   947542 
 3238000    1.1002915   -3.2538612    -1.723514  0.097001762   -3.2538612    1.5303472   947795 
 3239000    1.1000472   -3.2527328   -1.7231289   0.09979228   -3.2527328    1.5296039   948045 
 3240000     1.100425   -3.2519149   -1.7221665   0.10158088   -3.2519149    1.5297484   948281 
 3241000     1.100899   -3.2509646   -1.7209653   0.10152737   -3.2509646    1.5299992   948534 
 3242000    1.1017912   -3.2515221   -1.7206914   0.10237451   -3.2515221    1.5308308   948787 
 3243000     1.102503   -3.2515148   -1.7200533   0.10078092   -3.2515148    1.5314615   949009 
 3244000    1.1022747   -3.2509648   -1.7202139   0.10311632   -3.2509648    1.5307508   949253 
 3245000    1.1026994   -3.2501147    -1.719187    0.1014108   -3.2501147    1.5309276   949509 
 3246000    1.1024437   -3.2489053   -1.7186807   0.10240109   -3.2489053    1.5302245   949725 
 3247000    1.1035093   -3.2491938   -1.7178981   0.09782381   -3.2491938    1.5312958   949978 
 3248000    1.1033344    -3.248956   -1.7182477  0.099808598    -3.248956    1.5307083   950192 
 3249000    1.1038432   -3.2482073   -1.7171461   0.10143123   -3.2482073    1.5310612   950411 
 3250000    1.1045885   -3.2469852   -1.7152706   0.10275907   -3.2469852    1.5317146   950647 
 3251000    1.1043898   -3.2467941    -1.715727   0.10227214   -3.2467941    1.5310671   950878 
 3252000    1.1062571   -3.2481226   -1.7148716   0.10349504   -3.2481226     1.533251   951129 
 3253000    1.1051472   -3.2458835   -1.7145105   0.10186838   -3.2458835     1.531373   951340 
 3254000    1.1072609   -3.2472499   -1.7133027   0.10177502   -3.2472499    1.5339472   951560 
 3255000     1.106412   -3.2457447   -1.7133391   0.10141016   -3.2457447    1.5324056   951787 
 3256000    1.1071646   -3.2453648   -1.7122889   0.10137032   -3.2453648    1.5330759   952018 
 3257000    1.1069213   -3.2444874   -1.7121396   0.10100448   -3.2444874    1.5323478   952261 
 3258000    1.1079762   -3.2442887   -1.7108395   0.10391233   -3.2442887    1.5334492   952484 
 3259000    1.1082864   -3.2442978   -1.7107751   0.10513297   -3.2442978    1.5335226   952705 
 3260000    1.1072256   -3.2420946   -1.7104272    0.1010685   -3.2420946    1.5316674   952946 
 3261000     1.107842   -3.2425799    -1.710457   0.10234146   -3.2425799    1.5321229   953193 
 3262000    1.1092997    -3.243721    -1.709928   0.10527268    -3.243721     1.533793   953408 
 3263000    1.1088667   -3.2426597   -1.7098272   0.09813766   -3.2426597    1.5328326   953633 
 3264000    1.1101938   -3.2431371   -1.7088643  0.099291326   -3.2431371    1.5342728   953878 
 3265000    1.1083445   -3.2402572    -1.708911  0.099687562   -3.2402572    1.5313462   954109 
 3266000    1.1089802   -3.2400694   -1.7082093   0.10035501   -3.2400694    1.5318601   954336 
 3267000    1.1101125   -3.2407828   -1.7077571    0.0980694   -3.2407828    1.5330258   954584 
 3268000    1.1113449   -3.2420043   -1.7076302  0.099716696   -3.2420043    1.5343741   954804 
 3269000    1.1108609   -3.2404054   -1.7070464   0.10086034   -3.2404054     1.533359   955020 
 3270000    1.1109714   -3.2398583   -1.7067241   0.10076037   -3.2398583    1.5331343   955255 
 3271000    1.1118507   -3.2407345   -1.7067787   0.10219434   -3.2407345    1.5339558   955499 
 3272000    1.1111714   -3.2392385   -1.7065711  0.099686056   -3.2392385    1.5326674   955718 
 3273000    1.1131967   -3.2407915   -1.7056213  0.098981043   -3.2407915    1.5351702   955899 
 3274000    1.1125911   -3.2392196   -1.7052729   0.10265556   -3.2392196    1.5339467   956141 
 3275000    1.1130679   -3.2397482   -1.7055213   0.10004379   -3.2397482     1.534227   956376 
 3276000    1.1138612   -3.2398433   -1.7049081   0.10249091   -3.2398433    1.5349352   956616 
 3277000     1.114775   -3.2406257   -1.7047748   0.10191994   -3.2406257    1.5358509   956830 
 3278000    1.1148518   -3.2399888   -1.7043867   0.10319832   -3.2399888    1.5356021   957051 
 3279000    1.1167192   -3.2412566   -1.7035066   0.10357111   -3.2412566    1.5377501   957315 
 3280000    1.1159783   -3.2399784   -1.7036113   0.10009091   -3.2399784    1.5363671   957541 
 3281000    1.1158139   -3.2392867   -1.7035261    0.1049159   -3.2392867    1.5357606   957778 
 3282000    1.1171044   -3.2408478   -1.7036833   0.10394148   -3.2408478    1.5371645   958010 
 3283000    1.1183273    -3.241395   -1.7029092   0.10216662    -3.241395    1.5384859   958235 
 3284000    1.1181143   -3.2402042   -1.7023531   0.10844148   -3.2402042    1.5378511   958448 
 3285000    1.1176046   -3.2391644   -1.7023768    0.1108694   -3.2391644    1.5367876   958674 
 3286000     1.118532   -3.2398207   -1.7021364   0.10580151   -3.2398207    1.5376843   958910 
 3287000    1.1198786   -3.2416113   -1.7024547   0.10254856   -3.2416113    1.5391567   959146 
 3288000    1.1192584    -3.240372   -1.7024637   0.10439855    -3.240372    1.5379083   959393 
 3289000    1.1198091   -3.2400076    -1.701713    0.1081561   -3.2400076    1.5382945   959624 
 3290000    1.1211851   -3.2416139   -1.7018447   0.10688059   -3.2416139    1.5397693   959883 
 3291000    1.1216916   -3.2413042   -1.7012292    0.1042056   -3.2413042    1.5400749   960126 
 3292000    1.1202584   -3.2396351   -1.7018451   0.10871979   -3.2396351      1.53779   960324 
 3293000    1.1229171   -3.2418697   -1.7008055   0.10527333   -3.2418697    1.5410642   960558 
 3294000    1.1220503   -3.2395584     -1.70007   0.10737661   -3.2395584    1.5394884   960799 
 3295000    1.1224235   -3.2400498   -1.7004052   0.10584222   -3.2400498    1.5396446   961021 
 3296000    1.1222632   -3.2385225   -1.6994325   0.10512236   -3.2385225      1.53909   961230 
 3297000    1.1234061    -3.239671   -1.6993421   0.11192642    -3.239671    1.5403289   961435 
 3298000    1.1236294   -3.2394436   -1.6991897   0.10611155   -3.2394436    1.5402538   961673 
 3299000    1.1224325   -3.2372377   -1.6989924   0.10926444   -3.2372377    1.5382453   961903 
 3300000    1.1239508   -3.2397111    -1.699747   0.10646121   -3.2397111    1.5399642   962129 
 3301000    1.1248255   -3.2395783   -1.6987776   0.10576969   -3.2395783    1.5408007   962355 
 3302000    1.1243608   -3.2387127   -1.6989389   0.10889224   -3.2387127    1.5397738   962599 
 3303000    1.1247735   -3.2379357   -1.6979423   0.10612526   -3.2379357    1.5399934   962815 
 3304000    1.1250918   -3.2374609   -1.6974269   0.10553145   -3.2374609    1.5400341   963062 
 3305000     1.125393   -3.2380435   -1.6979105   0.10738331   -3.2380435     1.540133   963258 
 3306000    1.1251134   -3.2364927   -1.6970717   0.10740389   -3.2364927     1.539421   963464 
 3307000     1.126221   -3.2367517   -1.6961909   0.10516494   -3.2367517    1.5405608   963699 
 3308000    1.1261329   -3.2352016   -1.6951161   0.10882072   -3.2352016    1.5400855   963921 
 3309000    1.1263026   -3.2352549   -1.6952904   0.10481775   -3.2352549    1.5399645   964142 
 3310000    1.1266176   -3.2355306   -1.6955011     0.107805   -3.2355306    1.5400295   964371 
 3311000    1.1267096    -3.235097     -1.69529   0.10870338    -3.235097     1.539807   964589 
 3312000    1.1268903   -3.2352704   -1.6955772   0.10727938   -3.2352704    1.5396932   964815 
 3313000    1.1282977   -3.2354437   -1.6942044   0.10341343   -3.2354437    1.5412393   965051 
 3314000    1.1285286   -3.2354804   -1.6943122   0.10886435   -3.2354804    1.5411683   965293 
 3315000    1.1280931   -3.2334963   -1.6932611   0.10821223   -3.2334963    1.5402352   965505 
 3316000    1.1294454   -3.2341922   -1.6924524   0.11213434   -3.2341922    1.5417398   965719 
 3317000    1.1300908    -3.234477   -1.6921532   0.10751777    -3.234477    1.5423238   965905 
 3318000    1.1305385   -3.2340927    -1.691487   0.10836464   -3.2340927    1.5426058   966111 
 3319000    1.1304753   -3.2335078   -1.6913345   0.11124682   -3.2335078    1.5421732   966328 
 3320000    1.1309381   -3.2336379   -1.6911526    0.1080209   -3.2336379    1.5424853   966528 
 3321000    1.1322386   -3.2340887   -1.6901636   0.11095243   -3.2340887    1.5439251   966737 
 3322000    1.1326241   -3.2337858   -1.6896752   0.10999688   -3.2337858    1.5441106   966950 
 3323000    1.1328149   -3.2336002   -1.6895553   0.11360933   -3.2336002    1.5440449   967154 
 3324000    1.1333184   -3.2342011   -1.6898499   0.10950756   -3.2342011    1.5443512   967392 
 3325000    1.1334467   -3.2333518   -1.6891896   0.10970446   -3.2333518    1.5441622   967620 
 3326000    1.1337549   -3.2330758   -1.6888401   0.10660451   -3.2330758    1.5442357   967837 
 3327000    1.1332181   -3.2326048    -1.689443   0.10582383   -3.2326048    1.5431618   968052 
 3328000    1.1350172   -3.2334412   -1.6881727   0.10889464   -3.2334412    1.5452685   968267 
 3329000    1.1349969   -3.2319404    -1.687057    0.1066712   -3.2319404    1.5448834   968491 
 3330000    1.1346738   -3.2303766   -1.6862884   0.11048414   -3.2303766    1.5440882   968714 
 3331000    1.1346791   -3.2296201   -1.6858466   0.11628552   -3.2296201    1.5437734   968916 
 3332000    1.1355028    -3.230564   -1.6860062   0.11024099    -3.230564    1.5445577   969127 
 3333000    1.1348517   -3.2297128   -1.6863975   0.10963018   -3.2297128    1.5433154   969351 
 3334000    1.1363423   -3.2311783   -1.6862056   0.10933664   -3.2311783    1.5449727   969583 
 3335000    1.1351759   -3.2295372     -1.68644   0.11099081   -3.2295372    1.5430972   969765 
 3336000    1.1366794   -3.2312201   -1.6864344   0.10690825   -3.2312201    1.5447857   969988 
 3337000    1.1366076   -3.2317761   -1.6874016   0.11429948   -3.2317761    1.5443745   970185 
 3338000    1.1382327   -3.2328245   -1.6865956   0.11110377   -3.2328245    1.5462289   970407 
 3339000    1.1381855   -3.2319435   -1.6860975   0.10834775   -3.2319435     1.545846   970607 
 3340000    1.1392886   -3.2320852   -1.6850899   0.11046369   -3.2320852    1.5469953   970826 
 3341000    1.1388469   -3.2305927   -1.6845714   0.11488082   -3.2305927    1.5460212   971061 
 3342000    1.1388399   -3.2306502   -1.6849774   0.11249881   -3.2306502    1.5456727   971274 
 3343000    1.1397981   -3.2319253   -1.6852578   0.10950508   -3.2319253    1.5466675   971466 
 3344000    1.1397441   -3.2314761   -1.6851733   0.11633496   -3.2314761    1.5463028   971649 
 3345000    1.1408756   -3.2329512    -1.685427   0.11154344   -3.2329512    1.5475242   971846 
 3346000    1.1400992   -3.2321381   -1.6859565   0.11025825   -3.2321381    1.5461816   972028 
 3347000    1.1409574   -3.2323852    -1.685401   0.11099454   -3.2323852    1.5469842   972255 
 3348000      1.14106   -3.2315586   -1.6848059    0.1130012   -3.2315586    1.5467527   972488 
 3349000    1.1413319   -3.2322582   -1.6854965   0.10999033   -3.2322582    1.5467617   972714 
 3350000    1.1406778   -3.2300486   -1.6845451   0.11750819   -3.2300486    1.5455034   972948 
 3351000    1.1407736   -3.2298931    -1.684649   0.11256295   -3.2298931    1.5452441   973193 
 3352000    1.1417442   -3.2304432   -1.6842194   0.11152308   -3.2304432    1.5462237   973404 
 3353000    1.1423349   -3.2304367   -1.6837643   0.11027287   -3.2304367    1.5466724   973625 
 3354000    1.1424448   -3.2303609   -1.6838334   0.11391172   -3.2303609    1.5465275   973810 
 3355000    1.1443583   -3.2307229   -1.6819138   0.11144505   -3.2307229    1.5488092   974004 
 3356000    1.1436602   -3.2300422   -1.6824781   0.11441112   -3.2300422    1.5475641   974193 
 3357000    1.1435557   -3.2291158   -1.6819886   0.11590799   -3.2291158    1.5471272   974379 
 3358000    1.1439401   -3.2296417   -1.6823311   0.11282927   -3.2296417    1.5473106   974591 
 3359000    1.1450145    -3.230355   -1.6819215   0.11357903    -3.230355    1.5484335   974799 
 3360000    1.1451809   -3.2295644   -1.6812379   0.11510727   -3.2295644    1.5483265   975008 
 3361000    1.1448428   -3.2277328   -1.6801825   0.11549132   -3.2277328    1.5475503   975209 
 3362000    1.1465909   -3.2281775    -1.678636   0.11910317   -3.2281775    1.5495415   975443 
 3363000    1.1468283   -3.2278752   -1.6782971   0.11734691   -3.2278752     1.549578   975622 
 3364000    1.1464813   -3.2267811   -1.6780307   0.11788139   -3.2267811    1.5487504   975848 
 3365000    1.1469108   -3.2268156   -1.6778041   0.11656292   -3.2268156    1.5490115   976049 
 3366000    1.1481643   -3.2277038   -1.6773265   0.11541993   -3.2277038    1.5503772   976255 
 3367000    1.1467987   -3.2261526   -1.6779317   0.11238033   -3.2261526    1.5482208   976452 
 3368000    1.1481667    -3.228107    -1.678363   0.11313676    -3.228107     1.549744   976656 
 3369000    1.1485089   -3.2270703   -1.6772199   0.11524264   -3.2270703    1.5498504   976880 
 3370000    1.1484483   -3.2263916   -1.6769387   0.11321011   -3.2263916    1.5494529   977079 
 3371000    1.1494675   -3.2272067   -1.6767182   0.10990511   -3.2272067    1.5504884   977293 
 3372000    1.1493179   -3.2264076   -1.6764143   0.11613465   -3.2264076    1.5499932   977478 
 3373000    1.1492593   -3.2257615    -1.676185   0.10931115   -3.2257615    1.5495765   977691 
 3374000    1.1498996    -3.225478   -1.6753868   0.11263599    -3.225478    1.5500911   977911 
 3375000    1.1503117   -3.2253563   -1.6750316   0.11737071   -3.2253563    1.5503248   978114 
 3376000    1.1499489   -3.2243215   -1.6747898   0.11310285   -3.2243215    1.5495317   978306 
 3377000    1.1512541   -3.2248826   -1.6739727    0.1129632   -3.2248826    1.5509099   978546 
 3378000    1.1501144   -3.2234255   -1.6744039   0.11321509   -3.2234255    1.5490215   978769 
 3379000    1.1519899   -3.2241712   -1.6729439   0.11429289   -3.2241712    1.5512274   978971 
 3380000    1.1525599   -3.2245904   -1.6729441   0.11764926   -3.2245904    1.5516463   979191 
 3381000    1.1510684   -3.2224823   -1.6731463   0.11560632   -3.2224823     1.549336   979382 
 3382000     1.152674   -3.2237124   -1.6725192   0.11773188   -3.2237124    1.5511932   979574 
 3383000    1.1528649   -3.2236865    -1.672569   0.11589343   -3.2236865    1.5511175   979784 
 3384000    1.1532538   -3.2241361   -1.6728483   0.11714544   -3.2241361    1.5512877   980007 
 3385000    1.1526808    -3.222516   -1.6722791   0.11755093    -3.222516    1.5502369   980184 
 3386000    1.1544856   -3.2237292   -1.6713611   0.11465109   -3.2237292     1.552368   980371 
 3387000    1.1559353    -3.225098   -1.6711119   0.11562853    -3.225098     1.553986   980580 
 3388000    1.1552137   -3.2237739   -1.6710682   0.11954534   -3.2237739    1.5527057   980776 
 3389000    1.1554459   -3.2235669   -1.6708832   0.12308903   -3.2235669    1.5526837   980987 
 3390000    1.1566558   -3.2250767   -1.6710887   0.12212569   -3.2250767     1.553988   981190 
 3391000     1.156429   -3.2247501   -1.6713898   0.11651808   -3.2247501    1.5533603   981394 
 3392000    1.1563408   -3.2243021   -1.6713878   0.11351562   -3.2243021    1.5529143   981601 
 3393000    1.1569987   -3.2246559   -1.6711889   0.11825328   -3.2246559     1.553467   981810 
 3394000    1.1566995     -3.22393   -1.6711652   0.11886885     -3.22393    1.5527648   982000 
 3395000     1.156848   -3.2240871   -1.6714534   0.11664074   -3.2240871    1.5526337   982209 
 3396000    1.1574246   -3.2245072   -1.6713984   0.11824415   -3.2245072    1.5531088   982398 
 3397000    1.1582297   -3.2247546   -1.6709308   0.11880455   -3.2247546    1.5538238   982629 
 3398000      1.15981   -3.2261578   -1.6705417    0.1198777   -3.2261578    1.5556161   982836 
 3399000    1.1593907   -3.2252924   -1.6705314   0.11940921   -3.2252924     1.554761   983021 
 3400000    1.1593489   -3.2249499   -1.6705533   0.11830496   -3.2249499    1.5543967   983216 
 3401000    1.1598208    -3.224478   -1.6698044   0.11944526    -3.224478    1.5546736   983441 
 3402000    1.1590755   -3.2236536   -1.6702823   0.11924954   -3.2236536    1.5533713   983633 
 3403000    1.1606179   -3.2253596   -1.6702438   0.12175315   -3.2253596    1.5551158   983837 
 3404000    1.1603869   -3.2240529   -1.6695752    0.1206201   -3.2240529    1.5544777   984045 
 3405000    1.1613298   -3.2246115   -1.6691552   0.11786374   -3.2246115    1.5554563   984225 
 3406000    1.1609861   -3.2238949   -1.6692102    0.1195343   -3.2238949    1.5546847   984422 
 3407000    1.1623426   -3.2253053   -1.6691265   0.11942772   -3.2253053    1.5561788   984626 
 3408000    1.1612225   -3.2235207   -1.6691367   0.12221911   -3.2235207     1.554384   984813 
 3409000    1.1629505   -3.2262078   -1.6698079   0.11750439   -3.2262078    1.5563998   985001 
 3410000    1.1624348   -3.2245169   -1.6690583   0.12244622   -3.2245169    1.5554586   985160 
 3411000    1.1635771   -3.2251766    -1.668477   0.11684836   -3.2251766    1.5566996   985342 
 3412000    1.1633329   -3.2241995    -1.668111   0.12137153   -3.2241995    1.5560885   985522 
 3413000    1.1628485   -3.2226654   -1.6675482   0.12627856   -3.2226654    1.5551172   985727 
 3414000    1.1651846   -3.2249299   -1.6669873   0.11840672   -3.2249299    1.5579426   985916 
 3415000    1.1646816   -3.2237781   -1.6668365   0.12571829   -3.2237781    1.5569416   986124 
 3416000    1.1647167   -3.2239557   -1.6672545   0.12114905   -3.2239557    1.5567012   986306 
 3417000     1.165649   -3.2240994   -1.6664286   0.11725506   -3.2240994    1.5576709   986481 
 3418000      1.16554    -3.223124   -1.6659178   0.12322415    -3.223124    1.5572063   986683 
 3419000    1.1656907   -3.2226076   -1.6654809   0.12078086   -3.2226076    1.5571268   986861 
 3420000    1.1672901   -3.2232755   -1.6642981   0.12254464   -3.2232755    1.5589773   987042 
 3421000    1.1663897   -3.2221492   -1.6646915   0.12622905   -3.2221492    1.5574576   987243 
 3422000    1.1677359   -3.2236311   -1.6646822   0.11882882   -3.2236311    1.5589489   987437 
 3423000    1.1657376   -3.2206725   -1.6646814   0.12432377   -3.2206725    1.5559911   987621 
 3424000    1.1676879   -3.2215961   -1.6633252   0.12375973   -3.2215961    1.5582709   987826 
 3425000     1.167302   -3.2210529   -1.6635809   0.12031084   -3.2210529     1.557472   988006 
 3426000    1.1675891   -3.2203776   -1.6628473   0.12080351   -3.2203776    1.5575304   988212 
 3427000    1.1701619   -3.2228049   -1.6621646    0.1192482   -3.2228049    1.5606403   988416 
 3428000    1.1683063   -3.2198462   -1.6619754    0.1229182   -3.2198462    1.5578708   988603 
 3429000    1.1701855   -3.2213444   -1.6613023   0.11618043   -3.2213444    1.5600421   988815 
 3430000    1.1693258   -3.2197356   -1.6611439    0.1215013   -3.2197356    1.5585917   989008 
 3431000    1.1706074   -3.2202026   -1.6602039   0.11681811   -3.2202026    1.5599987   989199 
 3432000    1.1704497   -3.2197081   -1.6602176   0.11980944   -3.2197081    1.5594905   989388 
 3433000    1.1704098   -3.2202639   -1.6611212   0.12120998   -3.2202639    1.5591427   989575 
 3434000    1.1700645   -3.2191679   -1.6607703   0.11891685   -3.2191679    1.5583976   989756 
 3435000    1.1715536   -3.2198266   -1.6597293   0.11871959   -3.2198266    1.5600973   989936 
 3436000    1.1710437   -3.2180363   -1.6589126   0.12271037   -3.2180363    1.5591237   990123 
 3437000    1.1709389   -3.2182283   -1.6595401   0.12193635   -3.2182283    1.5586883   990311 
 3438000    1.1716853   -3.2196228   -1.6602291   0.12146896   -3.2196228    1.5593937   990494 
 3439000    1.1718154   -3.2191511   -1.6598503   0.11976084   -3.2191511    1.5593008   990663 
 3440000    1.1708512   -3.2179507   -1.6602254   0.12589535   -3.2179507    1.5577253   990849 
 3441000    1.1713763   -3.2189248   -1.6607761   0.11810871   -3.2189248    1.5581487   991024 
 3442000    1.1726054   -3.2198054   -1.6603303   0.11814402   -3.2198054    1.5594751   991220 
 3443000    1.1716506   -3.2183194   -1.6604048   0.12033385   -3.2183194    1.5579146   991405 
 3444000    1.1722855   -3.2189382   -1.6604404   0.12192144   -3.2189382    1.5584978   991571 
 3445000    1.1732578   -3.2199626   -1.6604789   0.11952085   -3.2199626    1.5594837   991766 
 3446000    1.1732823   -3.2191409   -1.6598934   0.12205958   -3.2191409    1.5592475   991937 
 3447000    1.1738153   -3.2195163   -1.6598371   0.12296687   -3.2195163    1.5596791   992113 
 3448000     1.175077   -3.2200662   -1.6589781   0.11977996   -3.2200662    1.5610881   992283 
 3449000    1.1757066   -3.2211249   -1.6594854    0.1221218   -3.2211249    1.5616396   992464 
 3450000    1.1763112   -3.2213418    -1.659195   0.12282738   -3.2213418    1.5621468   992652 
 3451000    1.1769275   -3.2218395   -1.6591388      0.12559   -3.2218395    1.5627007   992820 
 3452000    1.1779214   -3.2222939   -1.6585665   0.12585074   -3.2222939    1.5637274   993006 
 3453000    1.1772043   -3.2212991   -1.6588304   0.12423069   -3.2212991    1.5624687   993201 
 3454000    1.1775681   -3.2212656   -1.6586146   0.12672793   -3.2212656     1.562651   993392 
 3455000    1.1791651   -3.2230459   -1.6585449   0.12715612   -3.2230459     1.564501   993563 
 3456000     1.177999   -3.2205926    -1.657955   0.12864973   -3.2205926    1.5626376   993764 
 3457000    1.1787168   -3.2223121   -1.6590211   0.12424209   -3.2223121     1.563291   993954 
 3458000    1.1783148   -3.2213221   -1.6588521    0.1256142   -3.2213221    1.5624701   994137 
 3459000    1.1792894   -3.2216664   -1.6582013   0.12693197   -3.2216664    1.5634652   994326 
 3460000    1.1798228   -3.2214446   -1.6575742   0.12443709   -3.2214446    1.5638704   994518 
 3461000    1.1793848   -3.2208413   -1.6578296   0.12652835   -3.2208413    1.5630117   994695 
 3462000    1.1801948   -3.2214779    -1.657715   0.12790067   -3.2214779    1.5637629   994900 
 3463000    1.1809446   -3.2216333   -1.6571804    0.1266721   -3.2216333    1.5644529   995093 
 3464000     1.180789   -3.2213359   -1.6573941   0.12813942   -3.2213359    1.5639418   995287 
 3465000    1.1805615   -3.2206082   -1.6572725   0.12801214   -3.2206082    1.5633357   995481 
 3466000      1.18096    -3.220051   -1.6563964   0.12851501    -3.220051    1.5636545   995614 
 3467000    1.1802156   -3.2186484   -1.6562745   0.12451029   -3.2186484     1.562374   995802 
 3468000    1.1821026   -3.2202293   -1.6556386   0.12437702   -3.2202293    1.5645907   995981 
 3469000    1.1828337   -3.2207886   -1.6554817   0.12653876   -3.2207886    1.5653069   996141 
 3470000    1.1824559   -3.2206503   -1.6561166   0.12800992   -3.2206503    1.5645337   996315 
 3471000    1.1814119   -3.2188149    -1.655945   0.12880771   -3.2188149    1.5628699   996495 
 3472000     1.182294   -3.2194252   -1.6556897   0.12496963   -3.2194252    1.5637355   996687 
 3473000    1.1824948   -3.2195637   -1.6558543   0.12546663   -3.2195637    1.5637094   996873 
 3474000    1.1834372   -3.2203399    -1.655681   0.12272094   -3.2203399    1.5646589   997062 
 3475000    1.1828147   -3.2190063   -1.6554652   0.12370505   -3.2190063    1.5635411   997250 
 3476000    1.1840916   -3.2204134    -1.655448   0.12325628   -3.2204134    1.5649653   997418 
 3477000    1.1829836   -3.2187832   -1.6555267   0.12737038   -3.2187832    1.5632565   997574 
 3478000    1.1844427   -3.2206557   -1.6557252   0.12329457   -3.2206557    1.5649305   997736 
 3479000    1.1842524   -3.2190234    -1.654622   0.12621781   -3.2190234    1.5644015   997913 
 3480000      1.18496   -3.2192475   -1.6541654   0.12890135   -3.2192475    1.5650821   998075 
 3481000     1.186367   -3.2201133   -1.6534616   0.12610582   -3.2201133    1.5666517   998259 
 3482000    1.1853868   -3.2179978   -1.6529008   0.12705191   -3.2179978     1.565097   998425 
 3483000    1.1868254    -3.220029   -1.6533339      0.12526    -3.220029    1.5666952   998617 
 3484000     1.186403   -3.2191905   -1.6533493   0.12834804   -3.2191905    1.5658412   998806 
 3485000    1.1863627   -3.2189367   -1.6534261   0.13140748   -3.2189367    1.5655105   998983 
 3486000    1.1872029   -3.2196481   -1.6532468   0.12643898   -3.2196481    1.5664013   999122 
 3487000    1.1867895   -3.2194556    -1.653888   0.12682709   -3.2194556    1.5655676   999306 
 3488000    1.1873002   -3.2202009   -1.6542371   0.12742644   -3.2202009    1.5659639   999483 
 3489000    1.1871893   -3.2201445   -1.6546118   0.13047023   -3.2201445    1.5655326   999665 
 3490000    1.1881677   -3.2206899   -1.6541132   0.12753464   -3.2206899    1.5665767   999822 
 3491000    1.1879855   -3.2208699   -1.6547824   0.12843671   -3.2208699    1.5660875   999981 
 3492000    1.1882081   -3.2203247   -1.6542491   0.12604156   -3.2203247    1.5660756  1000176 
 3493000     1.188532   -3.2197467   -1.6535042    0.1297052   -3.2197467    1.5662425  1000342 
 3494000    1.1884436   -3.2204571   -1.6545815   0.13178581   -3.2204571    1.5658756  1000502 
 3495000    1.1896003    -3.221005   -1.6538639   0.12805452    -3.221005    1.5671411  1000667 
 3496000    1.1892066   -3.2201223   -1.6537863   0.13099516   -3.2201223     1.566336  1000850 
 3497000    1.1903239   -3.2209723   -1.6534418   0.12633068   -3.2209723    1.5675305  1001027 
 3498000    1.1910306   -3.2213024   -1.6530998   0.12918258   -3.2213024    1.5682026  1001192 
 3499000    1.1913918   -3.2212403    -1.652841    0.1326793   -3.2212403    1.5683993  1001370 
 3500000    1.1914492   -3.2210239   -1.6528356   0.13277493   -3.2210239    1.5681883  1001553 
 3501000    1.1925965   -3.2224677   -1.6530232   0.12867356   -3.2224677    1.5694445  1001715 
 3502000    1.1925275   -3.2219871   -1.6529184   0.12985924   -3.2219871    1.5690687  1001897 
 3503000    1.1932989   -3.2226706   -1.6528581    0.1287151   -3.2226706    1.5698126  1002070 
 3504000    1.1925108   -3.2214043   -1.6528883   0.13270859   -3.2214043     1.568516  1002236 
 3505000    1.1936234   -3.2219905   -1.6522946   0.13299944   -3.2219905    1.5696959  1002417 
 3506000    1.1932948   -3.2213957   -1.6524183   0.13460859   -3.2213957    1.5689774  1002600 
 3507000    1.1946241   -3.2223936     -1.65193   0.13069517   -3.2223936    1.5704636  1002767 
 3508000     1.194258   -3.2223298   -1.6526199   0.12941492   -3.2223298    1.5697099  1002941 
 3509000      1.19288   -3.2199976   -1.6523208   0.13276674   -3.2199976    1.5676768  1003083 
 3510000    1.1943826   -3.2209948   -1.6515906   0.13117991   -3.2209948    1.5694042  1003241 
 3511000    1.1953068   -3.2218917   -1.6515157   0.13091265   -3.2218917    1.5703761  1003396 
 3512000     1.195719   -3.2223285    -1.651663   0.12939674   -3.2223285    1.5706655  1003557 
 3513000    1.1949681   -3.2207475   -1.6513201   0.13181925   -3.2207475    1.5694274  1003718 
 3514000    1.1956455   -3.2219954   -1.6519396   0.13061127   -3.2219954    1.5700558  1003885 
 3515000    1.1951636   -3.2211854   -1.6520265   0.13267848   -3.2211854    1.5691589  1004054 
 3516000    1.1941427   -3.2194475   -1.6518898   0.13092849   -3.2194475    1.5675577  1004221 
 3517000    1.1956065   -3.2205761   -1.6513546   0.13163426   -3.2205761    1.5692215  1004386 
 3518000    1.1960113   -3.2201598   -1.6506727   0.12826859   -3.2201598    1.5694872  1004556 
 3519000     1.196542   -3.2196147   -1.6496734   0.13194711   -3.2196147    1.5699413  1004711 
 3520000    1.1980668   -3.2207668   -1.6490658    0.1315374   -3.2207668     1.571701  1004865 
 3521000    1.1970935    -3.219144   -1.6490151   0.13449335    -3.219144    1.5701289  1005054 
 3522000    1.1969094   -3.2195834   -1.6499411   0.12981595   -3.2195834    1.5696422  1005211 
 3523000    1.1974888   -3.2197377   -1.6496276   0.13249818   -3.2197377      1.57011  1005398 
 3524000    1.1963709   -3.2181142   -1.6497289   0.12985345   -3.2181142    1.5683853  1005564 
 3525000    1.1975118   -3.2199066   -1.6502645    0.1296838   -3.2199066    1.5696421  1005717 
 3526000    1.1972138   -3.2194019   -1.6504748   0.13025387   -3.2194019     1.568927  1005925 
 3527000    1.1977087   -3.2193633   -1.6500373   0.13065843   -3.2193633     1.569326  1006085 
 3528000    1.1980226   -3.2188576   -1.6494089   0.13097981   -3.2188576    1.5694487  1006270 
 3529000    1.1986577   -3.2198975   -1.6499164   0.12857091   -3.2198975    1.5699811  1006462 
 3530000    1.1989671   -3.2196547    -1.649518    0.1302836   -3.2196547    1.5701367  1006622 
 3531000     1.199336   -3.2200417   -1.6496605   0.12834783   -3.2200417    1.5703811  1006775 
 3532000     1.199225   -3.2188587   -1.6488911   0.13405322   -3.2188587    1.5699675  1006947 
 3533000    1.1999793     -3.21947   -1.6487957    0.1352759     -3.21947    1.5706743  1007127 
 3534000    1.1993275   -3.2186267   -1.6490472    0.1344336   -3.2186267    1.5695795  1007282 
 3535000     1.201234   -3.2206851   -1.6488584   0.13185352   -3.2206851    1.5718266  1007441 
 3536000    1.2011316   -3.2207996   -1.6493473   0.13377564   -3.2207996    1.5714523  1007595 
 3537000    1.2008892   -3.2207836   -1.6498808   0.13288812   -3.2207836    1.5709028  1007744 
 3538000    1.2010524   -3.2212383   -1.6503885   0.13450678   -3.2212383    1.5708498  1007915 
 3539000    1.2016781   -3.2215476   -1.6501429   0.13153146   -3.2215476    1.5714047  1008084 
 3540000    1.2029719   -3.2225875   -1.6497031     0.131183   -3.2225875    1.5728844  1008220 
 3541000    1.2015649   -3.2204878   -1.6496892   0.13445903   -3.2204878    1.5707986  1008378 
 3542000    1.2029959   -3.2218868   -1.6494623   0.13180029   -3.2218868    1.5724245  1008535 
 3543000    1.2025381   -3.2214957   -1.6499065   0.13286641   -3.2214957    1.5715892  1008687 
 3544000    1.2032637   -3.2214489   -1.6492059   0.13631961   -3.2214489    1.5722429  1008876 
 3545000    1.2034043   -3.2204726   -1.6482999   0.13715007   -3.2204726    1.5721727  1009039 
 3546000    1.2049208   -3.2221769   -1.6483132   0.13498443   -3.2221769    1.5738637  1009225 
 3547000    1.2037771   -3.2199565   -1.6478234   0.14147227   -3.2199565    1.5721331  1009377 
 3548000    1.2051399   -3.2217692   -1.6481244   0.13794927   -3.2217692    1.5736448  1009549 
 3549000    1.2044928   -3.2210633     -1.64853   0.13785833   -3.2210633    1.5725334  1009720 
 3550000    1.2061199   -3.2226324   -1.6482413   0.13488736   -3.2226324    1.5743911  1009891 
 3551000    1.2070631    -3.222991   -1.6476387   0.14059392    -3.222991    1.5753523  1010064 
 3552000    1.2079605   -3.2231553   -1.6468971   0.13590435   -3.2231553    1.5762582  1010234 
 3553000    1.2064269   -3.2208212   -1.6468118   0.13732141   -3.2208212    1.5740094  1010393 
 3554000    1.2075256   -3.2222133   -1.6470495    0.1373471   -3.2222133    1.5751638  1010572 
 3555000     1.207662   -3.2217883   -1.6466819   0.13654174   -3.2217883    1.5751064  1010723 
 3556000    1.2080833   -3.2220184   -1.6465995   0.13531108   -3.2220184    1.5754188  1010875 
 3557000    1.2080268   -3.2213827   -1.6462728   0.13723244   -3.2213827    1.5751099  1011026 
 3558000    1.2080964   -3.2212053   -1.6462616   0.13700927   -3.2212053    1.5749437  1011191 
 3559000    1.2072132   -3.2214739   -1.6479135   0.13101794   -3.2214739    1.5735604  1011340 
 3560000    1.2081966   -3.2219891   -1.6474022   0.13352162   -3.2219891    1.5745869  1011504 
 3561000    1.2083726   -3.2213399   -1.6467385    0.1355821   -3.2213399    1.5746014  1011642 
 3562000    1.2086768   -3.2211483   -1.6463685   0.13645702   -3.2211483    1.5747798  1011782 
 3563000    1.2094728   -3.2216794   -1.6460789   0.13635918   -3.2216794    1.5756006  1011921 
 3564000    1.2088387   -3.2197028   -1.6451866   0.13787538   -3.2197028    1.5745162  1012087 
 3565000    1.2104954   -3.2212636   -1.6448356     0.135348   -3.2212636     1.576428  1012245 
 3566000    1.2086493   -3.2197526   -1.6459993   0.13764109   -3.2197526    1.5737533  1012419 
 3567000    1.2101136    -3.221657   -1.6462647   0.14029168    -3.221657    1.5753923  1012591 
 3568000    1.2101877    -3.220794   -1.6455417   0.13355767    -3.220794    1.5752522  1012743 
 3569000     1.210489   -3.2206455   -1.6452453   0.13814376   -3.2206455    1.5754003  1012900 
 3570000    1.2111931   -3.2211547   -1.6450513   0.13608881   -3.2211547    1.5761033  1013037 
 3571000    1.2118466   -3.2206229    -1.643915   0.13791008   -3.2206229    1.5767079  1013195 
 3572000    1.2123403   -3.2204946   -1.6433981   0.13737594   -3.2204946    1.5770965  1013358 
 3573000    1.2143677   -3.2220153   -1.6425371   0.13599277   -3.2220153    1.5794782  1013522 
 3574000    1.2137662   -3.2206543   -1.6422123   0.13659758   -3.2206543     1.578442  1013685 
 3575000    1.2133157   -3.2198699    -1.642283   0.13784193   -3.2198699    1.5775869  1013858 
 3576000    1.2129748   -3.2184622   -1.6415564   0.14378416   -3.2184622    1.5769058  1014011 
 3577000    1.2133698   -3.2184635   -1.6412714   0.14288213   -3.2184635    1.5771922  1014157 
 3578000    1.2138758     -3.21897   -1.6413488   0.13656709     -3.21897    1.5776212  1014304 
 3579000    1.2145036   -3.2196346   -1.6414433   0.14146384   -3.2196346    1.5781914  1014462 
 3580000    1.2148597   -3.2198578   -1.6414635   0.14047273   -3.2198578    1.5783942  1014629 
 3581000    1.2156681   -3.2212989   -1.6420847   0.13825029   -3.2212989    1.5792142  1014777 
 3582000    1.2151718   -3.2208298    -1.642503   0.13639878   -3.2208298    1.5783268  1014933 
 3583000    1.2157778   -3.2205847   -1.6417524   0.13986499   -3.2205847    1.5788324  1015114 
 3584000    1.2155139   -3.2199061   -1.6416078   0.13698567   -3.2199061    1.5782984  1015237 
 3585000    1.2165134    -3.220982   -1.6416083   0.13843592    -3.220982    1.5793737  1015380 
 3586000    1.2161372   -3.2201638   -1.6414915   0.13983802   -3.2201638    1.5786723  1015517 
 3587000    1.2170304   -3.2210238   -1.6414377   0.13969115   -3.2210238    1.5795861  1015675 
 3588000    1.2168525   -3.2212044   -1.6420995   0.14152209   -3.2212044    1.5791049  1015836 
 3589000    1.2168774     -3.22137   -1.6424567   0.14009193     -3.22137    1.5789133  1015980 
 3590000    1.2171201   -3.2216002   -1.6426269   0.13876636   -3.2216002    1.5789733  1016144 
 3591000    1.2170124   -3.2210166   -1.6423865    0.1447685   -3.2210166    1.5786301  1016275 
 3592000    1.2187723   -3.2229323   -1.6422573   0.13630336   -3.2229323    1.5806751  1016428 
 3593000    1.2185716   -3.2233326   -1.6431465   0.13443916   -3.2233326    1.5801861  1016575 
 3594000    1.2172749   -3.2209578   -1.6426628   0.14504228   -3.2209578     1.578295  1016710 
 3595000    1.2174041   -3.2204459   -1.6422472   0.13913994   -3.2204459    1.5781987  1016880 
 3596000    1.2181821   -3.2214431    -1.642489   0.13906515   -3.2214431    1.5789542  1017043 
 3597000     1.216851   -3.2196225   -1.6426185   0.14311087   -3.2196225    1.5770041  1017188 
 3598000    1.2185618   -3.2213126   -1.6423755   0.14060542   -3.2213126    1.5789371  1017371 
 3599000    1.2187128    -3.221163   -1.6422723   0.14473865    -3.221163    1.5788907  1017527 
 3600000    1.2201267   -3.2226732    -1.642193   0.14399238   -3.2226732    1.5804802  1017683 
 3601000    1.2204592   -3.2228499   -1.6421814   0.13895229   -3.2228499    1.5806685  1017839 
 3602000     1.221163   -3.2227904   -1.6414543   0.14623794   -3.2227904    1.5813361  1017996 
 3603000    1.2205892    -3.221389   -1.6410288   0.14022059    -3.221389    1.5803603  1018146 
 3604000    1.2215362   -3.2222454   -1.6409184   0.14493002   -3.2222454     1.581327  1018313 
 3605000    1.2205101    -3.220248   -1.6404635    0.1488107    -3.220248    1.5797845  1018451 
 3606000     1.221488   -3.2210107   -1.6402072   0.14744497   -3.2210107    1.5808035  1018610 
 3607000    1.2221597   -3.2223817   -1.6409278   0.13862381   -3.2223817    1.5814539  1018751 
 3608000    1.2230983   -3.2235015   -1.6411266   0.14077372   -3.2235015    1.5823749  1018940 
 3609000    1.2224183   -3.2221114   -1.6408801   0.14108429   -3.2221114    1.5812313  1019110 
 3610000    1.2221997   -3.2207594   -1.6400373   0.14463675   -3.2207594    1.5807221  1019256 
 3611000    1.2233504   -3.2220295   -1.6400814   0.13970682   -3.2220295    1.5819481  1019425 
 3612000    1.2238067    -3.222478   -1.6401542   0.14181636    -3.222478    1.5823238  1019563 
 3613000    1.2239661   -3.2220958   -1.6397847   0.14407972   -3.2220958    1.5823111  1019704 
 3614000    1.2238157    -3.221652   -1.6397695   0.14386566    -3.221652    1.5818825  1019855 
 3615000    1.2240937   -3.2218632   -1.6398835   0.14404094   -3.2218632    1.5819797  1020024 
 3616000    1.2238339   -3.2204614   -1.6390439    0.1482127   -3.2204614    1.5814175  1020170 
 3617000    1.2253772   -3.2227693   -1.6395918   0.14397246   -3.2227693    1.5831775  1020321 
 3618000    1.2250102   -3.2223353   -1.6398801   0.14464779   -3.2223353    1.5824551  1020481 
 3619000    1.2250602   -3.2216427   -1.6393509   0.14235093   -3.2216427    1.5822918  1020628 
 3620000    1.2259491    -3.222293   -1.6390345   0.14195685    -3.222293    1.5832584  1020745 
 3621000    1.2259772   -3.2215983   -1.6384959   0.14444426   -3.2215983    1.5831024  1020869 
 3622000    1.2267077    -3.221251   -1.6374225   0.14514715    -3.221251    1.5838285  1021009 
 3623000    1.2270344   -3.2212907     -1.63727   0.14239163   -3.2212907    1.5840207  1021157 
 3624000    1.2273202   -3.2212102   -1.6370811    0.1436195   -3.2212102    1.5841291  1021325 
 3625000    1.2271548   -3.2212035   -1.6375391   0.14555938   -3.2212035    1.5836644  1021487 
 3626000    1.2271698    -3.221016   -1.6375664   0.14653123    -3.221016    1.5834496  1021638 
 3627000    1.2277282   -3.2213335   -1.6373727   0.14354651   -3.2213335    1.5839608  1021773 
 3628000    1.2288936   -3.2225356    -1.637293   0.14171545   -3.2225356    1.5852426  1021916 
 3629000    1.2281735   -3.2212229   -1.6371543   0.14408478   -3.2212229    1.5840687  1022074 
 3630000    1.2282931   -3.2210289   -1.6370198    0.1446226   -3.2210289    1.5840091  1022212 
 3631000    1.2280056    -3.220463   -1.6370647   0.14637304    -3.220463    1.5833983  1022367 
 3632000     1.229384   -3.2217608   -1.6368256   0.14501234   -3.2217608    1.5849353  1022522 
 3633000    1.2284448   -3.2207272   -1.6372289   0.14559806   -3.2207272    1.5834983  1022668 
 3634000    1.2293973   -3.2216437   -1.6371469   0.14213047   -3.2216437    1.5844968  1022816 
 3635000    1.2298741   -3.2223718   -1.6374913   0.14159769   -3.2223718    1.5848805  1022965 
 3636000    1.2290196   -3.2211463   -1.6376053   0.14208096   -3.2211463     1.583541  1023119 
 3637000    1.2301766   -3.2221948   -1.6373878   0.14575574   -3.2221948     1.584807  1023264 
 3638000    1.2293905   -3.2214503   -1.6378973   0.14445083   -3.2214503     1.583553  1023420 
 3639000    1.2290898   -3.2205498   -1.6376131   0.14651559   -3.2205498    1.5829367  1023568 
 3640000    1.2303443    -3.221532   -1.6372164    0.1458139    -3.221532    1.5843156  1023721 
 3641000    1.2309663   -3.2217226   -1.6368013    0.1443649   -3.2217226    1.5849214  1023847 
 3642000    1.2320222   -3.2232327   -1.6371594   0.14214143   -3.2232327    1.5860733  1023981 
 3643000    1.2321405   -3.2225171   -1.6364991   0.14455086   -3.2225171    1.5860181  1024115 
 3644000    1.2322691   -3.2221524    -1.636198   0.14746232   -3.2221524    1.5859544  1024263 
 3645000    1.2336325   -3.2237658   -1.6362953   0.14129449   -3.2237658    1.5874705  1024417 
 3646000     1.233141   -3.2230168   -1.6364126   0.14562921   -3.2230168    1.5866041  1024568 
 3647000    1.2326414   -3.2214468   -1.6357084   0.14882737   -3.2214468    1.5857384  1024712 
 3648000     1.234125   -3.2227954   -1.6353714   0.14848335   -3.2227954     1.587424  1024856 
 3649000    1.2346806   -3.2230551   -1.6351365   0.14810663   -3.2230551    1.5879186  1024998 
 3650000     1.233921   -3.2224232   -1.6356936   0.14649336   -3.2224232    1.5867296  1025135 
 3651000    1.2345538   -3.2231223   -1.6358329   0.14344556   -3.2231223    1.5872893  1025299 
 3652000    1.2357933   -3.2239348   -1.6352687   0.14638454   -3.2239348    1.5886661  1025439 
 3653000    1.2349028   -3.2229741   -1.6357005   0.14844317   -3.2229741    1.5872736  1025599 
 3654000    1.2362792   -3.2242391   -1.6354256    0.1450425   -3.2242391    1.5888136  1025747 
 3655000    1.2354485   -3.2227305    -1.635226   0.14654786   -3.2227305    1.5875045  1025903 
 3656000    1.2363313   -3.2234603   -1.6350382   0.14395032   -3.2234603    1.5884221  1026043 
 3657000    1.2356554   -3.2223758   -1.6350526   0.14810066   -3.2223758    1.5873232  1026192 
 3658000    1.2361684   -3.2231389    -1.635401   0.14532904   -3.2231389    1.5877378  1026350 
 3659000    1.2363025   -3.2232048   -1.6355067   0.14741331   -3.2232048    1.5876981  1026487 
 3660000    1.2360698   -3.2232508   -1.6360804   0.14267915   -3.2232508    1.5871704  1026635 
 3661000    1.2375656   -3.2237655   -1.6348757   0.14357156   -3.2237655    1.5888898  1026765 
 3662000     1.236362   -3.2231787    -1.636018   0.14784215   -3.2231787    1.5871606  1026884 
 3663000    1.2368827   -3.2227554   -1.6351536   0.14536811   -3.2227554    1.5876019  1027031 
 3664000    1.2369372   -3.2226272   -1.6351748   0.14836829   -3.2226272    1.5874524  1027173 
 3665000     1.235948   -3.2227434    -1.636769   0.14755643   -3.2227434    1.5859744  1027308 
 3666000    1.2369931   -3.2233448   -1.6362365   0.14517659   -3.2233448    1.5871084  1027442 
 3667000    1.2378181   -3.2240067    -1.636053   0.14290251   -3.2240067    1.5879536  1027580 
 3668000    1.2365653   -3.2217744   -1.6356272   0.14898266   -3.2217744    1.5861473  1027709 
 3669000    1.2384764   -3.2237612   -1.6353649   0.14775174   -3.2237612    1.5883963  1027840 
 3670000    1.2384996   -3.2232261   -1.6350165   0.14644736   -3.2232261    1.5882096  1027980 
 3671000    1.2378277   -3.2221982   -1.6350724   0.14839681   -3.2221982    1.5871257  1028124 
 3672000    1.2385666     -3.22272   -1.6348893   0.14644309     -3.22272    1.5878307  1028281 
 3673000     1.238055   -3.2220698   -1.6351019   0.14974114   -3.2220698     1.586968  1028415 
 3674000    1.2394293   -3.2237692   -1.6352528   0.14593051   -3.2237692    1.5885164  1028553 
 3675000    1.2385829   -3.2227772   -1.6355632   0.15288406   -3.2227772     1.587214  1028694 
 3676000    1.2395872   -3.2234472   -1.6351824   0.14943025   -3.2234472    1.5882648  1028847 
 3677000    1.2391047   -3.2221819   -1.6347883   0.15144156   -3.2221819    1.5873936  1029011 
 3678000    1.2399039   -3.2232233    -1.635042   0.14969404   -3.2232233    1.5881813  1029164 
 3679000    1.2413501   -3.2244779   -1.6347238   0.15308105   -3.2244779    1.5897541  1029345 
 3680000    1.2413874   -3.2245075   -1.6349188   0.15228754   -3.2245075    1.5895887  1029483 
 3681000     1.240963   -3.2240612   -1.6352596   0.15241282   -3.2240612    1.5888015  1029641 
 3682000    1.2420653   -3.2253981   -1.6354524   0.15030412   -3.2253981    1.5899456  1029814 
 3683000    1.2433288    -3.226319   -1.6349507    0.1540706    -3.226319    1.5913683  1029940 
 3684000     1.242702   -3.2263036    -1.635966   0.14944014   -3.2263036    1.5903375  1030088 
 3685000    1.2433144   -3.2260292   -1.6351473   0.15406321   -3.2260292    1.5908819  1030243 
 3686000    1.2424539   -3.2241564   -1.6346132   0.15823265   -3.2241564    1.5895432  1030397 
 3687000    1.2454021   -3.2279411   -1.6348241   0.15172159   -3.2279411     1.593117  1030525 
 3688000    1.2444534   -3.2266759   -1.6349979   0.15202991   -3.2266759     1.591678  1030671 
 3689000    1.2441393   -3.2261714   -1.6351097   0.15382726   -3.2261714    1.5910617  1030810 
 3690000    1.2438325   -3.2249176   -1.6344674   0.15318949   -3.2249176    1.5904503  1030952 
 3691000    1.2452838   -3.2265366    -1.634453   0.14945045   -3.2265366    1.5920836  1031096 
 3692000    1.2452994   -3.2266141    -1.634716   0.15008359   -3.2266141    1.5918981  1031229 
 3693000     1.244924   -3.2268712   -1.6356504    0.1505906   -3.2268712    1.5912208  1031357 
 3694000     1.244026   -3.2252846   -1.6354367   0.15397967   -3.2252846     1.589848  1031503 
 3695000    1.2449514   -3.2264495   -1.6356488   0.15162207   -3.2264495    1.5908007  1031652 
 3696000    1.2446586   -3.2258169   -1.6355614   0.15129163   -3.2258169    1.5902555  1031763 
 3697000    1.2459536   -3.2279209   -1.6362129   0.14729455   -3.2279209     1.591708  1031894 
 3698000     1.243591   -3.2253505   -1.6368654   0.15258447   -3.2253505    1.5884851  1032027 
 3699000    1.2452266   -3.2275251   -1.6371497   0.14702409   -3.2275251    1.5903755  1032156 
 3700000    1.2444452   -3.2260284   -1.6368572   0.14707618   -3.2260284    1.5891712  1032290 
 3701000    1.2453277   -3.2263689   -1.6362402   0.14892641   -3.2263689    1.5901287  1032400 
 3702000    1.2446373   -3.2250612   -1.6360112    0.1528816   -3.2250612    1.5890501  1032528 
 3703000     1.244986   -3.2254695   -1.6361711    0.1483413   -3.2254695    1.5892984  1032656 
 3704000    1.2461689   -3.2262973   -1.6356784   0.14887313   -3.2262973    1.5906189  1032779 
 3705000      1.24752   -3.2278713   -1.6357205   0.15376094   -3.2278713    1.5921508  1032904 
 3706000    1.2456825   -3.2245029   -1.6349065   0.15380814   -3.2245029    1.5895964  1033040 
 3707000    1.2469358   -3.2255341   -1.6345433   0.15164703   -3.2255341    1.5909908  1033173 
 3708000    1.2465514   -3.2254494   -1.6351476   0.15559483   -3.2254494    1.5903018  1033302 
 3709000    1.2480632   -3.2268555   -1.6348115   0.15198638   -3.2268555     1.592044  1033423 
 3710000    1.2474942   -3.2264385   -1.6353142   0.15039603   -3.2264385    1.5911243  1033549 
 3711000     1.248536   -3.2263093   -1.6340519   0.15385018   -3.2263093    1.5922574  1033676 
 3712000     1.249903   -3.2274733   -1.6336931   0.15122009   -3.2274733    1.5937802  1033819 
 3713000    1.2492547   -3.2267811   -1.6340479   0.14958656   -3.2267811    1.5927332  1033962 
 3714000    1.2494378   -3.2265911   -1.6337985   0.15188962   -3.2265911    1.5927926  1034075 
 3715000    1.2484467   -3.2254314   -1.6340777   0.15589196   -3.2254314    1.5913537  1034189 
 3716000    1.2488352   -3.2262397   -1.6346077   0.14944669   -3.2262397     1.591632  1034330 
 3717000    1.2491611   -3.2262422   -1.6344258   0.15336156   -3.2262422    1.5918164  1034480 
 3718000    1.2496032   -3.2267641   -1.6345921   0.15594335   -3.2267641     1.592172  1034615 
 3719000    1.2497926   -3.2274062   -1.6351699   0.15038939   -3.2274062    1.5922363  1034730 
 3720000    1.2505682   -3.2281429   -1.6351124   0.15326543   -3.2281429    1.5930305  1034856 
 3721000    1.2508621    -3.228058   -1.6348502   0.15474504    -3.228058    1.5932078  1034984 
 3722000    1.2503741   -3.2271571   -1.6347663   0.15271788   -3.2271571    1.5923908  1035111 
 3723000    1.2499014   -3.2261423   -1.6345795   0.15774745   -3.2261423    1.5915628  1035258 
 3724000    1.2530132   -3.2293431   -1.6340121   0.15444042   -3.2293431     1.595331  1035384 
 3725000     1.251911   -3.2278549   -1.6341334    0.1537764   -3.2278549    1.5937215  1035518 
 3726000    1.2514291   -3.2272503   -1.6343268   0.15474482   -3.2272503    1.5929235  1035638 
 3727000    1.2523233   -3.2277547   -1.6339163   0.15267699   -3.2277547    1.5938384  1035783 
 3728000    1.2526587   -3.2283035   -1.6342352   0.15466596   -3.2283035    1.5940683  1035911 
 3729000    1.2533972   -3.2283169   -1.6334827   0.15687524   -3.2283169    1.5948342  1036024 
 3730000    1.2536098   -3.2284343   -1.6335513   0.15403586   -3.2284343     1.594883  1036168 
 3731000    1.2528286   -3.2270964   -1.6334164   0.15485816   -3.2270964      1.59368  1036304 
 3732000    1.2540201   -3.2291002   -1.6341169   0.15394719   -3.2291002    1.5949832  1036442 
 3733000    1.2530288   -3.2285866   -1.6350733   0.14981209   -3.2285866    1.5935133  1036578 
 3734000    1.2535438   -3.2285358   -1.6345506   0.15583412   -3.2285358    1.5939852  1036697 
 3735000     1.253761   -3.2282705    -1.634212   0.15538672   -3.2282705    1.5940585  1036829 
 3736000    1.2543395    -3.228747   -1.6341283   0.15502204    -3.228747    1.5946187  1036943 
 3737000    1.2539357   -3.2286573   -1.6347318   0.15437549   -3.2286573    1.5939255  1037060 
 3738000    1.2538254   -3.2288402   -1.6352224    0.1584319   -3.2288402    1.5936178  1037169 
 3739000    1.2547144   -3.2293673   -1.6348226    0.1512792   -3.2293673    1.5945447  1037301 
 3740000    1.2537882   -3.2279236   -1.6347233   0.15261682   -3.2279236    1.5932003  1037410 
 3741000    1.2551889   -3.2292014   -1.6343858   0.15738369   -3.2292014    1.5948157  1037517 
 3742000     1.255608   -3.2295493   -1.6343978   0.14835268   -3.2295493    1.5951514  1037645 
 3743000     1.255092    -3.228783   -1.6344808   0.15791706    -3.228783    1.5943022  1037771 
 3744000    1.2565272   -3.2303679   -1.6344425   0.15813566   -3.2303679    1.5959254  1037901 
 3745000    1.2561479   -3.2292512    -1.633992   0.15620553   -3.2292512    1.5952592  1038021 
 3746000    1.2559513   -3.2297511   -1.6349413   0.15614092   -3.2297511    1.5948098  1038151 
 3747000    1.2559461   -3.2290471   -1.6344866   0.15657862   -3.2290471    1.5945605  1038309 
 3748000    1.2568563   -3.2300856   -1.6345862   0.15383901   -3.2300856    1.5954994  1038450 
 3749000    1.2570988   -3.2304538   -1.6348093   0.15741931   -3.2304538    1.5956445  1038556 
 3750000    1.2561838   -3.2290421   -1.6347618   0.15955353   -3.2290421    1.5942803  1038688 
 3751000    1.2574152   -3.2302006   -1.6345509   0.15382909   -3.2302006    1.5956496  1038814 
 3752000    1.2578527   -3.2306729   -1.6346617   0.15885273   -3.2306729    1.5960112  1038940 
 3753000     1.257657   -3.2301355   -1.6345723   0.15947912   -3.2301355    1.5955633  1039070 
 3754000    1.2589565   -3.2311974   -1.6341423   0.15930346   -3.2311974    1.5970551  1039172 
 3755000    1.2579224   -3.2296812   -1.6341129   0.16189897   -3.2296812    1.5955683  1039286 
 3756000    1.2585871   -3.2312076   -1.6349989   0.15712329   -3.2312076    1.5962087  1039418 
 3757000    1.2583715   -3.2305901   -1.6348361   0.15592551   -3.2305901     1.595754  1039536 
 3758000    1.2590269   -3.2309165   -1.6345616     0.157471   -3.2309165    1.5963549  1039686 
 3759000    1.2597931   -3.2317864   -1.6346475   0.15846669   -3.2317864    1.5971389  1039808 
 3760000     1.258798   -3.2308465   -1.6351609   0.15340786   -3.2308465    1.5956856  1039933 
 3761000    1.2591025   -3.2309369   -1.6350418    0.1552266   -3.2309369    1.5958951  1040048 
 3762000    1.2596972   -3.2310416   -1.6345678   0.15720258   -3.2310416    1.5964738  1040162 
 3763000    1.2604041    -3.231407   -1.6342293   0.15691965    -3.231407    1.5971778  1040287 
 3764000     1.259725   -3.2301312   -1.6339935   0.15833471   -3.2301312    1.5961377  1040404 
 3765000    1.2598384   -3.2303342   -1.6342431   0.16149875   -3.2303342    1.5960912  1040528 
 3766000    1.2605478   -3.2302674   -1.6334556   0.15865979   -3.2302674    1.5968119  1040644 
 3767000    1.2616125   -3.2319687   -1.6340139   0.15747072   -3.2319687    1.5979548  1040778 
 3768000    1.2611448   -3.2310645   -1.6338863   0.16110399   -3.2310645    1.5971783  1040898 
 3769000    1.2616231   -3.2316497   -1.6340698   0.15830201   -3.2316497    1.5975799  1041031 
 3770000     1.262551   -3.2313287   -1.6327304   0.15780642   -3.2313287    1.5985983  1041133 
 3771000    1.2613676   -3.2307122   -1.6337795   0.16055192   -3.2307122    1.5969327  1041242 
 3772000    1.2625922   -3.2319503   -1.6336713    0.1574903   -3.2319503     1.598279  1041375 
 3773000    1.2621962   -3.2307209   -1.6331412    0.1589136   -3.2307209    1.5975797  1041504 
 3774000     1.262844   -3.2313468   -1.6331296    0.1570026   -3.2313468    1.5982171  1041623 
 3775000    1.2627645   -3.2317103    -1.633804   0.15457746   -3.2317103    1.5979063  1041760 
 3776000    1.2616011   -3.2303283   -1.6340596   0.15945905   -3.2303283    1.5962687  1041868 
 3777000    1.2626753   -3.2323366   -1.6349004   0.15657234   -3.2323366    1.5974362  1041993 
 3778000    1.2611578   -3.2307088   -1.6353715   0.15598007   -3.2307088    1.5953372  1042110 
 3779000    1.2619042   -3.2318382   -1.6357498   0.15759375   -3.2318382    1.5960884  1042236 
 3780000    1.2614669   -3.2304613   -1.6351081    0.1581589   -3.2304613    1.5953531  1042355 
 3781000    1.2630305   -3.2320925   -1.6349259   0.15976189   -3.2320925    1.5971666  1042462 
 3782000    1.2623724   -3.2306823   -1.6345193   0.15988035   -3.2306823    1.5961629  1042574 
 3783000    1.2644375   -3.2329335   -1.6343588   0.15475278   -3.2329335    1.5985747  1042704 
 3784000    1.2629046   -3.2317194   -1.6352725   0.15851381   -3.2317194     1.596447  1042828 
 3785000    1.2644938   -3.2330415   -1.6347573   0.15521217   -3.2330415    1.5982842  1042940 
 3786000    1.2638247   -3.2319949   -1.6347187   0.16031191   -3.2319949    1.5972762  1043046 
 3787000    1.2644873   -3.2327118   -1.6347759   0.15756447   -3.2327118    1.5979359  1043162 
 3788000    1.2648238   -3.2327369   -1.6345412   0.15802118   -3.2327369    1.5981956  1043270 
 3789000    1.2666417   -3.2343331   -1.6339999   0.16004405   -3.2343331    1.6003331  1043374 
 3790000    1.2656451   -3.2323867   -1.6334768   0.16361536   -3.2323867      1.59891  1043481 
 3791000    1.2670904   -3.2347229   -1.6341419   0.15803316   -3.2347229    1.6005809  1043582 
 3792000    1.2660502   -3.2334353   -1.6343338   0.16323782   -3.2334353    1.5991015  1043690 
 3793000    1.2661711    -3.234252   -1.6351863   0.16057559    -3.234252    1.5990657  1043813 
 3794000    1.2656716   -3.2344305   -1.6361702   0.16113134   -3.2344305    1.5982603  1043927 
 3795000    1.2668771   -3.2359175   -1.6362866   0.15773202   -3.2359175     1.599631  1044026 
 3796000    1.2669115   -3.2353038   -1.6358286    0.1602737   -3.2353038    1.5994752  1044156 
 3797000    1.2658056    -3.233943   -1.6360354   0.16179735    -3.233943    1.5979077  1044268 
 3798000     1.265262   -3.2334548   -1.6363986   0.16194873   -3.2334548    1.5970562  1044376 
 3799000    1.2655973   -3.2342818   -1.6369614   0.16041686   -3.2342818    1.5973204  1044480 
 3800000    1.2654617   -3.2341522   -1.6372016   0.15943169   -3.2341522    1.5969505  1044610 
 3801000    1.2652975   -3.2338044   -1.6372185   0.16038885   -3.2338044    1.5965859  1044713 
 3802000    1.2666519    -3.235153   -1.6370324   0.16133276    -3.235153    1.5981205  1044827 
 3803000    1.2676222   -3.2368385   -1.6376637   0.15759616   -3.2368385    1.5991748  1044938 
 3804000    1.2688362   -3.2375781   -1.6370495   0.15912896   -3.2375781    1.6005287  1045054 
 3805000    1.2663129   -3.2345041   -1.6373494   0.15982897   -3.2345041    1.5971547  1045179 
 3806000    1.2675314   -3.2355845   -1.6370902   0.16037375   -3.2355845    1.5984943  1045308 
 3807000    1.2686661   -3.2368324   -1.6371107   0.16009381   -3.2368324    1.5997216  1045441 
 3808000    1.2683184     -3.23564   -1.6365449   0.15730536     -3.23564    1.5990951  1045564 
 3809000     1.267557   -3.2348176   -1.6368583   0.16203307   -3.2348176    1.5979593  1045679 
 3810000    1.2690228   -3.2364667   -1.6368368   0.15411354   -3.2364667    1.5996298  1045795 
 3811000    1.2676846    -3.234571   -1.6368114   0.15917325    -3.234571    1.5977596  1045915 
 3812000    1.2691283   -3.2354546   -1.6360436   0.16023427   -3.2354546     1.599411  1046025 
 3813000    1.2694096   -3.2353068   -1.6357278   0.16504873   -3.2353068     1.599579  1046147 
 3814000    1.2700872   -3.2355362   -1.6353038   0.16793611   -3.2355362    1.6002324  1046278 
 3815000    1.2706581   -3.2354168   -1.6346395   0.16163841   -3.2354168    1.6007773  1046392 
 3816000    1.2687278   -3.2336232   -1.6354716   0.16142161   -3.2336232    1.5981516  1046519 
 3817000    1.2700828    -3.235539   -1.6358625   0.16716517    -3.235539    1.5996765  1046638 
 3818000    1.2704871   -3.2357817   -1.6357611   0.16408524   -3.2357817    1.6000206  1046746 
 3819000    1.2712596   -3.2363347   -1.6355048   0.16260148   -3.2363347    1.6008299  1046853 
 3820000    1.2699349   -3.2342523    -1.635254   0.16878857   -3.2342523    1.5989983  1046960 
 3821000    1.2705052   -3.2345515   -1.6349971   0.16433915   -3.2345515    1.5995544  1047066 
 3822000    1.2704544   -3.2359199   -1.6366004   0.16517204   -3.2359199    1.5993194  1047178 
 3823000    1.2724468   -3.2377042    -1.636022   0.15935909   -3.2377042    1.6016822  1047273 
 3824000      1.27167   -3.2362641    -1.635714   0.16459196   -3.2362641    1.6005501  1047374 
 3825000    1.2721355   -3.2366562   -1.6357068   0.16259247   -3.2366562    1.6009494  1047496 
 3826000    1.2721086   -3.2368298   -1.6360838   0.16380429   -3.2368298     1.600746  1047607 
 3827000    1.2715071   -3.2364646   -1.6366649   0.16227339   -3.2364646    1.5997997  1047731 
 3828000    1.2724682    -3.237398   -1.6365326   0.15954607    -3.237398    1.6008654  1047825 
 3829000    1.2726808   -3.2370522   -1.6361149    0.1622858   -3.2370522    1.6009373  1047953 
 3830000    1.2719436   -3.2364169    -1.636546   0.16032097   -3.2364169     1.599871  1048044 
 3831000    1.2728677   -3.2379532   -1.6371139    0.1636595   -3.2379532    1.6008393  1048171 
 3832000    1.2716897   -3.2367911   -1.6375966   0.16198872   -3.2367911    1.5991945  1048278 
 3833000    1.2730053   -3.2385239   -1.6378215   0.16162763   -3.2385239    1.6007025  1048374 
 3834000    1.2712898   -3.2353782   -1.6370036   0.16429279   -3.2353782    1.5983746  1048486 
 3835000    1.2724782   -3.2364845   -1.6367851   0.16294916   -3.2364845    1.5996994  1048597 
 3836000    1.2728828   -3.2367498    -1.636734   0.16803094   -3.2367498    1.6000158  1048723 
 3837000    1.2741204   -3.2388218   -1.6374291   0.16095224   -3.2388218    1.6013927  1048840 
 3838000     1.274733    -3.239114   -1.6370872   0.16051517    -3.239114    1.6020268  1048929 
 3839000    1.2756291   -3.2395406    -1.636565   0.16203155   -3.2395406    1.6029756  1049045 
 3840000    1.2744376   -3.2377565   -1.6364415   0.16570851   -3.2377565     1.601315  1049152 
 3841000    1.2750733   -3.2385294   -1.6365774   0.16853528   -3.2385294     1.601952  1049258 
 3842000    1.2756649   -3.2386136   -1.6360909   0.16695216   -3.2386136    1.6025227  1049371 
 3843000    1.2764786   -3.2399645   -1.6366076   0.16754941   -3.2399645     1.603357  1049494 
 3844000    1.2764025   -3.2403006   -1.6372027   0.16380953   -3.2403006    1.6030979  1049601 
 3845000    1.2756202   -3.2406551   -1.6386999   0.16301631   -3.2406551    1.6019551  1049706 
 3846000    1.2759476   -3.2401598   -1.6379706   0.16477837   -3.2401598    1.6021892  1049822 
 3847000     1.275339   -3.2392516   -1.6379989   0.16375922   -3.2392516    1.6012526  1049935 
 3848000     1.276379   -3.2402074   -1.6378017   0.16258746   -3.2402074    1.6024057  1050035 
 3849000    1.2765823   -3.2397585    -1.637273   0.16794749   -3.2397585    1.6024855  1050150 
 3850000    1.2764417   -3.2399229   -1.6377817   0.16775021   -3.2399229    1.6021412  1050260 
 3851000    1.2764115   -3.2401636   -1.6382312   0.16689866   -3.2401636    1.6019324  1050372 
 3852000    1.2757771   -3.2395677   -1.6386128   0.16119146   -3.2395677    1.6009549  1050491 
 3853000     1.276029   -3.2391019   -1.6380214   0.16664684   -3.2391019    1.6010805  1050616 
 3854000     1.276091   -3.2388722   -1.6378694   0.16379081   -3.2388722    1.6010028  1050718 
 3855000     1.277253   -3.2402525   -1.6379595   0.16360104   -3.2402525     1.602293  1050828 
 3856000    1.2766321    -3.240403   -1.6390491   0.16261456    -3.240403     1.601354  1050933 
 3857000    1.2775059   -3.2402158   -1.6379289   0.16558433   -3.2402158    1.6022869  1051040 
 3858000    1.2773721   -3.2402482   -1.6382875   0.16413514   -3.2402482    1.6019607  1051144 
 3859000    1.2774388   -3.2403677   -1.6384879   0.16459346   -3.2403677    1.6018797  1051252 
 3860000    1.2786458   -3.2407578   -1.6375186   0.16305046   -3.2407578    1.6032392  1051353 
 3861000     1.279855    -3.241142   -1.6365179   0.16694226    -3.241142    1.6046241  1051439 
 3862000    1.2797142   -3.2404024   -1.6361151   0.16604655   -3.2404024    1.6042873  1051544 
 3863000    1.2798353   -3.2404415   -1.6361839   0.16669036   -3.2404415    1.6042576  1051663 
 3864000    1.2797546   -3.2405875   -1.6366018   0.16840661   -3.2405875    1.6039856  1051775 
 3865000    1.2792764   -3.2398549   -1.6366316   0.16275681   -3.2398549    1.6032232  1051882 
 3866000    1.2800618   -3.2406318   -1.6365799   0.16530877   -3.2406318    1.6040519  1051984 
 3867000     1.279694   -3.2402922   -1.6368765   0.16684819   -3.2402922    1.6034157  1052099 
 3868000    1.2799352   -3.2409286   -1.6373768   0.16845276   -3.2409286    1.6035518  1052208 
 3869000    1.2794397   -3.2403735   -1.6375933   0.16692197   -3.2403735    1.6027802  1052307 
 3870000    1.2796471   -3.2412249   -1.6383173   0.16669111   -3.2412249    1.6029076  1052394 
 3871000    1.2802982   -3.2423756   -1.6387987   0.16358908   -3.2423756    1.6035769  1052490 
 3872000    1.2791647   -3.2409626   -1.6389439   0.16697792   -3.2409626    1.6020187  1052581 
 3873000    1.2806736   -3.2425517   -1.6388307   0.16527543   -3.2425517     1.603721  1052704 
 3874000    1.2807217   -3.2422123   -1.6385758   0.16711744   -3.2422123    1.6036365  1052799 
 3875000    1.2822091     -3.24244   -1.6370951   0.16927427     -3.24244    1.6053449  1052900 
 3876000    1.2823378   -3.2432876   -1.6379676   0.16424158   -3.2432876    1.6053201  1053022 
 3877000    1.2816324   -3.2426811   -1.6384027   0.16897814   -3.2426811    1.6042785  1053126 
 3878000    1.2810869   -3.2420641   -1.6386404   0.16905137   -3.2420641    1.6034237  1053239 
 3879000     1.282536   -3.2433518   -1.6383033   0.17277134   -3.2433518    1.6050485  1053363 
 3880000    1.2833102   -3.2445786   -1.6387076   0.16896433   -3.2445786     1.605871  1053459 
 3881000    1.2821765   -3.2434953   -1.6391939   0.17006295   -3.2434953    1.6043014  1053558 
 3882000    1.2816147   -3.2425472   -1.6391008   0.16996817   -3.2425472    1.6034464  1053658 
 3883000    1.2827593   -3.2435047   -1.6388031   0.17024535   -3.2435047    1.6047017  1053774 
 3884000    1.2827373   -3.2442012    -1.639699   0.16613779   -3.2442012    1.6045022  1053887 
 3885000    1.2828669   -3.2438456   -1.6393427   0.16793134   -3.2438456    1.6045029  1053993 
 3886000    1.2821299   -3.2435898   -1.6401715   0.16736487   -3.2435898    1.6034183  1054100 
 3887000    1.2851701   -3.2465512   -1.6394925   0.16721938   -3.2465512    1.6070588  1054206 
 3888000    1.2833076   -3.2437967   -1.6392192   0.17239101   -3.2437967    1.6045775  1054306 
 3889000    1.2850277   -3.2453527    -1.638792   0.17078427   -3.2453527    1.6065607  1054416 
 3890000      1.28366   -3.2439074   -1.6392317   0.17187895   -3.2439074    1.6046757  1054531 
 3891000    1.2842105   -3.2447669   -1.6395415   0.16886886   -3.2447669    1.6052254  1054622 
 3892000    1.2838649   -3.2446066   -1.6399639   0.16693081   -3.2446066    1.6046427  1054721 
 3893000    1.2839008   -3.2442305    -1.639695   0.17046276   -3.2442305    1.6045355  1054821 
 3894000    1.2850239   -3.2458544   -1.6400797   0.16454204   -3.2458544    1.6057747  1054929 
 3895000    1.2836692   -3.2445589   -1.6406458   0.17154492   -3.2445589    1.6039131  1055040 
 3896000    1.2842044   -3.2449802   -1.6405262   0.17194345   -3.2449802     1.604454  1055124 
 3897000    1.2844747   -3.2458511   -1.6412099   0.16339281   -3.2458511    1.6046412  1055223 
 3898000    1.2846226   -3.2459176   -1.6412741   0.16892328   -3.2459176    1.6046435  1055343 
 3899000    1.2837707   -3.2446936   -1.6412571    0.1692473   -3.2446936    1.6034365  1055437 
 3900000    1.2850584   -3.2457113   -1.6408139   0.16438204   -3.2457113    1.6048973  1055534 
 3901000    1.2848905   -3.2451582   -1.6406287   0.16914399   -3.2451582    1.6045296  1055638 
 3902000     1.285238   -3.2450502   -1.6402387   0.16530975   -3.2450502    1.6048115  1055738 
 3903000    1.2852952   -3.2446019   -1.6398937   0.16773534   -3.2446019    1.6047082  1055853 
 3904000    1.2869272   -3.2461371   -1.6395344   0.16720445   -3.2461371    1.6066027  1055947 
 3905000    1.2872042   -3.2462833   -1.6394855   0.16873645   -3.2462833    1.6067978  1056046 
 3906000    1.2869295   -3.2452613   -1.6389645    0.1693919   -3.2452613    1.6062968  1056150 
 3907000    1.2870295   -3.2457693    -1.639518   0.16420926   -3.2457693    1.6062513  1056262 
 3908000     1.286409   -3.2454358    -1.640111   0.16823739   -3.2454358    1.6053248  1056362 
 3909000    1.2874296   -3.2456779   -1.6392406   0.16722236   -3.2456779    1.6064373  1056468 
 3910000    1.2878697   -3.2461825   -1.6393786   0.17051248   -3.2461825    1.6068039  1056588 
 3911000    1.2865115   -3.2454426   -1.6404882   0.16969086   -3.2454426    1.6049544  1056690 
 3912000    1.2879421   -3.2471205   -1.6405609     0.168461   -3.2471205    1.6065597  1056808 
 3913000    1.2890579   -3.2472944   -1.6394842   0.16975392   -3.2472944    1.6078101  1056901 
 3914000    1.2878725   -3.2461379   -1.6399811   0.16970395   -3.2461379    1.6061568  1057016 
 3915000    1.2885564   -3.2468761   -1.6400093   0.16736066   -3.2468761    1.6068668  1057110 
 3916000     1.288541    -3.247944   -1.6412317   0.16549062    -3.247944    1.6067123  1057199 
 3917000    1.2876867   -3.2465163   -1.6410255   0.17354116   -3.2465163    1.6054907  1057302 
 3918000    1.2882681   -3.2471928   -1.6411489   0.17068303   -3.2471928    1.6060439  1057415 
 3919000    1.2885152   -3.2478602   -1.6416404   0.16876508   -3.2478602    1.6062198  1057502 
 3920000    1.2877895    -3.247162   -1.6419727   0.17108644    -3.247162    1.6051892  1057585 
 3921000    1.2877785   -3.2466319   -1.6415975   0.16980696   -3.2466319    1.6050344  1057678 
 3922000    1.2877261   -3.2470512   -1.6422233   0.17453633   -3.2470512     1.604828  1057771 
 3923000    1.2897352   -3.2484691   -1.6413181   0.17335208   -3.2484691     1.607151  1057890 
 3924000     1.289207   -3.2485199   -1.6421653   0.16783133   -3.2485199    1.6063546  1057981 
 3925000    1.2908317    -3.249859   -1.6416458   0.16892268    -3.249859    1.6082132  1058090 
 3926000    1.2905081   -3.2491286   -1.6414614   0.17139004   -3.2491286    1.6076672  1058184 
 3927000    1.2904481    -3.248487   -1.6410479   0.17420871    -3.248487    1.6074392  1058285 
 3928000    1.2909465   -3.2493997   -1.6415146   0.16832259   -3.2493997    1.6078852  1058400 
 3929000     1.289588   -3.2486766   -1.6426367   0.16758957   -3.2486766    1.6060399  1058501 
 3930000    1.2893667   -3.2481014   -1.6424994   0.17260577   -3.2481014     1.605602  1058608 
 3931000    1.2907996   -3.2490713   -1.6418276    0.1758998   -3.2490713    1.6072437  1058702 
 3932000    1.2898629   -3.2481184   -1.6422064   0.17469767   -3.2481184    1.6059119  1058811 
 3933000    1.2908774   -3.2498949   -1.6428641   0.17272067   -3.2498949    1.6070308  1058906 
 3934000    1.2905979   -3.2499804   -1.6434279   0.16781865   -3.2499804    1.6065525  1058992 
 3935000    1.2901755   -3.2494553   -1.6435925    0.1764485   -3.2494553    1.6058629  1059100 
 3936000    1.2909018   -3.2500963   -1.6434887   0.17199908   -3.2500963    1.6066075  1059205 
 3937000    1.2902458   -3.2488721   -1.6432022   0.17299331   -3.2488721    1.6056699  1059285 
 3938000    1.2915838    -3.250388    -1.643182   0.17423353    -3.250388     1.607206  1059370 
 3939000     1.290378   -3.2485303   -1.6429673   0.17427471   -3.2485303    1.6055631  1059464 
 3940000    1.2905192   -3.2481745   -1.6425949   0.17073783   -3.2481745    1.6055796  1059569 
 3941000    1.2913146   -3.2495981   -1.6431956   0.16933939   -3.2495981    1.6064025  1059679 
 3942000    1.2925329   -3.2506723   -1.6428924   0.17033096   -3.2506723      1.60778  1059770 
 3943000    1.2925823   -3.2504789   -1.6427558   0.16991363   -3.2504789     1.607723  1059848 
 3944000    1.2918715   -3.2499131   -1.6431999   0.17054286   -3.2499131    1.6067132  1059931 
 3945000    1.2913123   -3.2496043   -1.6437063   0.17192749   -3.2496043     1.605898  1060010 
 3946000    1.2909435   -3.2486123   -1.6433426    0.1730746   -3.2486123    1.6052697  1060122 
 3947000    1.2925106   -3.2503435   -1.6432737   0.17204196   -3.2503435    1.6070698  1060220 
 3948000    1.2930757   -3.2502206   -1.6425998   0.17401935   -3.2502206    1.6076209  1060320 
 3949000    1.2922399    -3.250044   -1.6436063    0.1716789    -3.250044    1.6064378  1060415 
 3950000    1.2940183    -3.251582   -1.6430897   0.17020502    -3.251582    1.6084923  1060518 
 3951000    1.2940771   -3.2519445   -1.6435232   0.17522473   -3.2519445    1.6084213  1060613 
 3952000    1.2946432    -3.252825   -1.6438412   0.16892411    -3.252825    1.6089839  1060706 
 3953000    1.2936468   -3.2512678   -1.6436738   0.17413103   -3.2512678     1.607594  1060806 
 3954000    1.2956621   -3.2524961   -1.6425571   0.17726572   -3.2524961     1.609939  1060911 
 3955000    1.2943945   -3.2510106   -1.6428058   0.17261735   -3.2510106    1.6082048  1061016 
 3956000    1.2961739   -3.2531724   -1.6428934   0.17036169   -3.2531724     1.610279  1061106 
 3957000    1.2952357   -3.2519064   -1.6429264   0.17370853   -3.2519064      1.60898  1061194 
 3958000    1.2962569   -3.2532949   -1.6431843    0.1730677   -3.2532949    1.6101106  1061285 
 3959000    1.2953895   -3.2526713   -1.6437671   0.17190026   -3.2526713    1.6089042  1061370 
 3960000     1.295082   -3.2526799   -1.6442941     0.176594   -3.2526799    1.6083859  1061460 
 3961000    1.2954638   -3.2527351   -1.6440417   0.17435336   -3.2527351    1.6086934  1061570 
 3962000    1.2956654   -3.2534467   -1.6446637    0.1738128   -3.2534467    1.6087831  1061676 
 3963000    1.2957929   -3.2531409   -1.6443329   0.17423828   -3.2531409     1.608808  1061764 
 3964000    1.2966643   -3.2536785   -1.6439159   0.17283773   -3.2536785    1.6097626  1061848 
 3965000     1.295226   -3.2524563   -1.6446246   0.17345246   -3.2524563    1.6078317  1061944 
 3966000    1.2952888   -3.2525297    -1.644773   0.17027125   -3.2525297    1.6077566  1062045 
 3967000    1.2953408    -3.252305   -1.6446201   0.17600681    -3.252305    1.6076849  1062135 
 3968000      1.29698   -3.2532881   -1.6436944   0.17373886   -3.2532881    1.6095937  1062218 
 3969000    1.2960202   -3.2530893   -1.6448321   0.17372266   -3.2530893    1.6082572  1062314 
 3970000    1.2959123    -3.253202   -1.6452119   0.17124994    -3.253202    1.6079901  1062402 
 3971000    1.2949583   -3.2524401   -1.6457653   0.17499088   -3.2524401    1.6066748  1062489 
 3972000    1.2955144   -3.2530217   -1.6457962   0.17365691   -3.2530217    1.6072255  1062581 
 3973000    1.2969706   -3.2546175   -1.6457156   0.16590808   -3.2546175    1.6089019  1062667 
 3974000    1.2960797   -3.2539364   -1.6462683   0.16665976   -3.2539364    1.6076681  1062752 
 3975000    1.2953907   -3.2524219   -1.6457459   0.17437558   -3.2524219     1.606676  1062843 
 3976000    1.2967929   -3.2527315   -1.6444344   0.17471292   -3.2527315    1.6082971  1062921 
 3977000    1.2967572   -3.2527206   -1.6446161   0.17595802   -3.2527206    1.6081045  1063019 
 3978000    1.2970427   -3.2525336   -1.6442293   0.17635052   -3.2525336    1.6083042  1063121 
 3979000    1.2982309   -3.2535442   -1.6438984   0.17413784   -3.2535442    1.6096458  1063208 
 3980000    1.2994115   -3.2540886   -1.6431077   0.17616434   -3.2540886    1.6109809  1063293 
 3981000    1.2989925   -3.2546151    -1.644281   0.17364991   -3.2546151    1.6103341  1063377 
 3982000    1.2976094   -3.2531658   -1.6446688   0.17376558   -3.2531658     1.608497  1063458 
 3983000    1.2991208   -3.2553661   -1.6451545   0.17540595   -3.2553661    1.6102115  1063563 
 3984000    1.2985551   -3.2549457   -1.6455625   0.17873723   -3.2549457    1.6093833  1063647 
 3985000    1.2976226   -3.2541571   -1.6460807   0.17505153   -3.2541571    1.6080764  1063747 
 3986000    1.2978043   -3.2550047   -1.6468482     0.169339   -3.2550047    1.6081565  1063843 
 3987000    1.2973395   -3.2538446   -1.6463744   0.17562555   -3.2538446    1.6074701  1063916 
 3988000    1.2990509   -3.2555291   -1.6460912    0.1733641   -3.2555291    1.6094379  1064017 
 3989000    1.2995036     -3.25646   -1.6465898   0.17525051     -3.25646    1.6098702  1064102 
 3990000    1.3001202   -3.2568523   -1.6463666   0.17158793   -3.2568523    1.6104857  1064200 
 3991000    1.2989559   -3.2548471   -1.6459503   0.17375934   -3.2548471    1.6088968  1064297 
 3992000    1.2997985   -3.2551219   -1.6453023   0.17595361   -3.2551219    1.6098195  1064377 
 3993000    1.2999837   -3.2556585   -1.6457353   0.17850586   -3.2556585    1.6099232  1064460 
 3994000    1.3002547   -3.2560831   -1.6459618    0.1743855   -3.2560831    1.6101213  1064551 
 3995000    1.3009394   -3.2568662   -1.6460136   0.17175987   -3.2568662    1.6108527  1064628 
 3996000    1.3002489   -3.2560019   -1.6461388   0.17769421   -3.2560019     1.609863  1064717 
 3997000    1.3003535   -3.2558447   -1.6459868   0.17888664   -3.2558447     1.609858  1064806 
 3998000    1.3005713    -3.255444   -1.6454842   0.17449778    -3.255444    1.6099598  1064917 
 3999000     1.300739   -3.2559628   -1.6459314   0.17565268   -3.2559628    1.6100313  1065007 
 4000000    1.3019615   -3.2573386   -1.6459469   0.17418491   -3.2573386    1.6113917  1065108 
 4001000    1.3006963   -3.2562031   -1.6465209   0.17472818   -3.2562031    1.6096822  1065203 
 4002000    1.3017369   -3.2571892   -1.6463342   0.17661757   -3.2571892    1.6108551  1065279 
 4003000     1.302169   -3.2585446    -1.647312   0.16990075   -3.2585446    1.6112325  1065383 
 4004000    1.3013313   -3.2570893   -1.6470445   0.18242144   -3.2570893    1.6100448  1065483 
 4005000    1.3015167    -3.257698   -1.6475718   0.17059577    -3.257698    1.6101262  1065581 
 4006000    1.3015036   -3.2571347   -1.6471895   0.17544579   -3.2571347    1.6099453  1065690 
 4007000    1.3022919   -3.2578063   -1.6470129   0.17359492   -3.2578063    1.6107934  1065774 
 4008000    1.3019792   -3.2570978   -1.6467924   0.17452664   -3.2570978    1.6103054  1065841 
 4009000    1.3021462   -3.2570514   -1.6466724   0.17494334   -3.2570514     1.610379  1065929 
 4010000    1.3023657   -3.2582878   -1.6477703   0.17281414   -3.2582878    1.6105175  1066017 
 4011000    1.3027985   -3.2583635    -1.647471   0.18081792   -3.2583635    1.6108925  1066123 
 4012000    1.3020856   -3.2577061   -1.6478159   0.17303917   -3.2577061    1.6098902  1066203 
 4013000    1.3016963   -3.2577003   -1.6484303   0.17354319   -3.2577003    1.6092701  1066295 
 4014000      1.30221    -3.257794   -1.6480172   0.17577692    -3.257794    1.6097768  1066380 
 4015000    1.3018624   -3.2569589   -1.6477296   0.17897779   -3.2569589    1.6092293  1066458 
 4016000    1.3020235   -3.2576343   -1.6483537   0.17508944   -3.2576343    1.6092806  1066556 
 4017000    1.3036404   -3.2598235   -1.6486623   0.17437193   -3.2598235    1.6111612  1066634 
 4018000    1.3035936   -3.2594635   -1.6484946   0.17601521   -3.2594635     1.610969  1066723 
 4019000    1.3034207   -3.2585811   -1.6479481   0.17449962   -3.2585811     1.610633  1066804 
 4020000    1.3035623   -3.2585567   -1.6478724   0.17860234   -3.2585567    1.6106842  1066886 
 4021000     1.304646    -3.259692   -1.6478062   0.17662747    -3.259692    1.6118858  1066977 
 4022000     1.303814   -3.2587488   -1.6480239   0.18092242   -3.2587488    1.6107249  1067065 
 4023000    1.3025686   -3.2575543   -1.6485217   0.17892927   -3.2575543    1.6090326  1067167 
 4024000     1.304493   -3.2591025    -1.647809   0.17546383   -3.2591025    1.6112935  1067244 
 4025000    1.3044768   -3.2586069   -1.6474647   0.17822882   -3.2586069    1.6111422  1067331 
 4026000    1.3046308   -3.2596293   -1.6484268   0.17810744   -3.2596293    1.6112025  1067417 
 4027000    1.3048049   -3.2598952   -1.6486044    0.1761854   -3.2598952    1.6112908  1067501 
 4028000    1.3042234   -3.2591805   -1.6487481   0.17730724   -3.2591805    1.6104323  1067594 
 4029000    1.3055477   -3.2606788   -1.6486972   0.17494095   -3.2606788    1.6119816  1067651 
 4030000    1.3037838   -3.2587666   -1.6490806   0.17918099   -3.2587666     1.609686  1067729 
 4031000    1.3047085      -3.2593   -1.6485855   0.17663386      -3.2593    1.6107145  1067804 
 4032000    1.3057713   -3.2606382   -1.6487566   0.17570485   -3.2606382    1.6118817  1067900 
 4033000     1.305034   -3.2604928   -1.6496449   0.17184658   -3.2604928    1.6108479  1067982 
 4034000    1.3049338   -3.2601323   -1.6495423   0.17539451   -3.2601323      1.61059  1068071 
 4035000    1.3056242    -3.260536   -1.6492176   0.17583502    -3.260536    1.6113184  1068153 
 4036000    1.3048359   -3.2601183    -1.649892   0.18075675   -3.2601183    1.6102264  1068232 
 4037000    1.3063732   -3.2610821   -1.6491019   0.17718499   -3.2610821    1.6119802  1068327 
 4038000    1.3050211   -3.2598177   -1.6496266   0.17912795   -3.2598177    1.6101912  1068407 
 4039000    1.3041656   -3.2588893   -1.6498787   0.17652225   -3.2588893    1.6090105  1068490 
 4040000    1.3063325   -3.2614467   -1.6498835   0.17678043   -3.2614467    1.6115633  1068570 
 4041000    1.3050705   -3.2597474    -1.649872   0.17937037   -3.2597474    1.6098755  1068657 
 4042000    1.3066908    -3.261454   -1.6496961   0.17868631    -3.261454     1.611758  1068734 
 4043000    1.3065965   -3.2605702   -1.6490673   0.17801317   -3.2605702     1.611503  1068826 
 4044000    1.3059658   -3.2606454   -1.6500485   0.17415378   -3.2606454     1.610597  1068911 
 4045000    1.3059309   -3.2603802   -1.6499393   0.17670306   -3.2603802     1.610441  1068986 
 4046000    1.3055092   -3.2605271   -1.6507176    0.1782042   -3.2605271    1.6098095  1069060 
 4047000    1.3067525   -3.2618076   -1.6506097   0.17277603   -3.2618076    1.6111979  1069156 
 4048000    1.3068174   -3.2616405   -1.6505088    0.1759239   -3.2616405    1.6111318  1069253 
 4049000    1.3064651   -3.2608487   -1.6502478   0.17654401   -3.2608487     1.610601  1069317 
 4050000    1.3071425   -3.2622111   -1.6509001   0.17467655   -3.2622111     1.611311  1069400 
 4051000    1.3074382   -3.2622562   -1.6507118    0.1750964   -3.2622562    1.6115444  1069487 
 4052000    1.3078348   -3.2625609   -1.6506677   0.17688674   -3.2625609    1.6118932  1069580 
 4053000    1.3077036    -3.262231   -1.6506202   0.17939019    -3.262231    1.6116108  1069660 
 4054000    1.3066146   -3.2618059   -1.6516681   0.17742967   -3.2618059    1.6101379  1069747 
 4055000    1.3075085    -3.262295   -1.6511806   0.18164306    -3.262295    1.6111144  1069830 
 4056000    1.3077894   -3.2622602   -1.6509277   0.17802732   -3.2622602    1.6113325  1069915 
 4057000    1.3071008   -3.2618684   -1.6514956   0.17944417   -3.2618684    1.6103727  1069989 
 4058000    1.3072581   -3.2623777   -1.6519286   0.17659897   -3.2623777    1.6104491  1070067 
 4059000    1.3083726    -3.263652   -1.6519686   0.17894181    -3.263652    1.6116834  1070159 
 4060000    1.3076454   -3.2624418   -1.6518016   0.18084226   -3.2624418    1.6106402  1070257 
 4061000    1.3090217   -3.2642779   -1.6520706   0.17732442   -3.2642779    1.6122073  1070342 
 4062000    1.3087467    -3.263995   -1.6522785   0.17956891    -3.263995    1.6117166  1070443 
 4063000    1.3082997   -3.2639458   -1.6529107   0.17837464   -3.2639458    1.6110351  1070530 
 4064000     1.309134   -3.2651507    -1.653183   0.17818938   -3.2651507    1.6119677  1070593 
 4065000    1.3096561    -3.265682   -1.6531889   0.17609696    -3.265682    1.6124931  1070671 
 4066000    1.3087084   -3.2646045   -1.6533971    0.1791181   -3.2646045    1.6112073  1070750 
 4067000    1.3087739   -3.2643975   -1.6532238   0.18404668   -3.2643975    1.6111737  1070826 
 4068000     1.308799   -3.2646598   -1.6535891   0.18190083   -3.2646598    1.6110707  1070915 
 4069000    1.3086779   -3.2648409   -1.6540443   0.18166964   -3.2648409    1.6107967  1070998 
 4070000     1.309642   -3.2660072   -1.6541487   0.17758708   -3.2660072    1.6118585  1071081 
 4071000    1.3086939   -3.2655349   -1.6549651   0.18092474   -3.2655349    1.6105698  1071162 
 4072000     1.308862   -3.2655422   -1.6548784   0.18059091   -3.2655422    1.6106638  1071237 
 4073000    1.3095712   -3.2662932   -1.6548755   0.17857542   -3.2662932    1.6114177  1071316 
 4074000    1.3096447     -3.26613   -1.6547541    0.1782666     -3.26613    1.6113759  1071404 
 4075000    1.3094135   -3.2655061   -1.6545199   0.17853557   -3.2655061    1.6109862  1071474 
 4076000    1.3107884   -3.2672878   -1.6547545   0.17670927   -3.2672878    1.6125333  1071570 
 4077000    1.3106496    -3.266398   -1.6541498   0.17735364    -3.266398    1.6122481  1071646 
 4078000    1.3108478   -3.2659754   -1.6536144   0.17608171   -3.2659754     1.612361  1071733 
 4079000     1.311502   -3.2667351   -1.6536989   0.17822946   -3.2667351    1.6130362  1071819 
 4080000    1.3103728   -3.2661824   -1.6546582    0.1787316   -3.2661824    1.6115242  1071901 
 4081000    1.3112705   -3.2669878   -1.6544845    0.1765822   -3.2669878    1.6125033  1071984 
 4082000    1.3109039   -3.2662064   -1.6542637   0.17903557   -3.2662064    1.6119427  1072057 
 4083000    1.3106127   -3.2658495     -1.65437   0.18078883   -3.2658495    1.6114794  1072127 
 4084000    1.3106775   -3.2658464   -1.6544121   0.17718356   -3.2658464    1.6114343  1072210 
 4085000    1.3118438   -3.2663454   -1.6536005   0.17819522   -3.2663454    1.6127449  1072292 
 4086000    1.3119898   -3.2664709   -1.6536533   0.17870768   -3.2664709    1.6128176  1072363 
 4087000    1.3118325   -3.2665685    -1.654045   0.18016887   -3.2665685    1.6125235  1072430 
 4088000     1.313015   -3.2679266   -1.6540609   0.17851058   -3.2679266    1.6138657  1072504 
 4089000    1.3110473   -3.2661377   -1.6547988   0.17963472   -3.2661377    1.6113389  1072576 
 4090000    1.3123205   -3.2669016   -1.6541136   0.17898696   -3.2669016     1.612788  1072653 
 4091000    1.3118373   -3.2665761   -1.6545186   0.17726056   -3.2665761    1.6120575  1072744 
 4092000    1.3117789   -3.2669396   -1.6550966   0.18267314   -3.2669396     1.611843  1072839 
 4093000    1.3117962   -3.2663185   -1.6545895   0.18165414   -3.2663185     1.611729  1072929 
 4094000     1.313053    -3.267581   -1.6544357   0.18376824    -3.267581    1.6131453  1073014 
 4095000    1.3133621   -3.2667199   -1.6533257   0.18363075   -3.2667199    1.6133943  1073101 
 4096000    1.3144527   -3.2684356   -1.6538279   0.17967195   -3.2684356    1.6146077  1073185 
 4097000    1.3136366   -3.2679424   -1.6544861   0.18038002   -3.2679424    1.6134564  1073284 
 4098000    1.3137244   -3.2676492   -1.6542309   0.18462578   -3.2676492    1.6134183  1073381 
 4099000     1.314139   -3.2681663    -1.654356   0.17873128   -3.2681663    1.6138103  1073459 
 4100000    1.3139019   -3.2675225   -1.6541431   0.18471925   -3.2675225    1.6133793  1073552 
 4101000    1.3155665   -3.2698832   -1.6546014   0.18057538   -3.2698832    1.6152819  1073646 
 4102000     1.314251   -3.2681991   -1.6546377   0.18509472   -3.2681991    1.6135614  1073716 
 4103000    1.3145089    -3.268375   -1.6546245   0.17979004    -3.268375    1.6137504  1073801 
 4104000    1.3149103   -3.2694359   -1.6553205   0.18079133   -3.2694359    1.6141154  1073886 
 4105000    1.3150496   -3.2693936   -1.6552214   0.17962787   -3.2693936    1.6141721  1073962 
 4106000    1.3139602   -3.2686745   -1.6559658   0.18230407   -3.2686745    1.6127088  1074046 
 4107000    1.3143383   -3.2689351   -1.6558689   0.17776858   -3.2689351    1.6130662  1074117 
 4108000    1.3142246   -3.2682114   -1.6554124   0.18002049   -3.2682114    1.6127991  1074202 
 4109000     1.313895   -3.2682749     -1.65602   0.18243473   -3.2682749    1.6122549  1074295 
 4110000    1.3133871    -3.268475   -1.6569603   0.17733269    -3.268475    1.6115147  1074373 
 4111000    1.3139859   -3.2690229   -1.6569085   0.18255309   -3.2690229    1.6121145  1074463 
 4112000    1.3126998    -3.268337    -1.657895   0.17878743    -3.268337     1.610442  1074526 
 4113000    1.3134535   -3.2695686   -1.6583308   0.17852877   -3.2695686    1.6112378  1074612 
 4114000    1.3149836    -3.271126   -1.6581223   0.17760705    -3.271126    1.6130037  1074686 
 4115000    1.3148381   -3.2704698   -1.6577405   0.18249041   -3.2704698    1.6127292  1074750 
 4116000     1.314487   -3.2702238   -1.6580527   0.18015761   -3.2702238    1.6121711  1074835 
 4117000    1.3161658    -3.271705    -1.657577   0.18028857    -3.271705    1.6141279  1074903 
 4118000     1.315203   -3.2704735   -1.6576463   0.17920018   -3.2704735    1.6128272  1074983 
 4119000    1.3163355   -3.2714827   -1.6573914   0.18194322   -3.2714827    1.6140913  1075066 
 4120000    1.3154403   -3.2712219   -1.6583468   0.18328314   -3.2712219    1.6128751  1075145 
 4121000    1.3150573   -3.2708639   -1.6585664   0.18411829   -3.2708639    1.6122975  1075217 
 4122000    1.3163748   -3.2718387   -1.6580384   0.18563196   -3.2718387    1.6138003  1075292 
 4123000    1.3164158    -3.271929   -1.6581746   0.18338337    -3.271929    1.6137544  1075356 
 4124000    1.3160615   -3.2712332   -1.6580511   0.18631085   -3.2712332    1.6131821  1075448 
 4125000    1.3156426   -3.2711666   -1.6586149   0.18452422   -3.2711666    1.6125517  1075526 
 4126000    1.3164261   -3.2726852   -1.6593052   0.18387818   -3.2726852      1.61338  1075614 
 4127000    1.3163831   -3.2729252   -1.6597359   0.18234444   -3.2729252    1.6131894  1075706 
 4128000    1.3167324   -3.2733026   -1.6597888   0.18171834   -3.2733026    1.6135138  1075775 
 4129000     1.316271   -3.2726959   -1.6598809   0.18340177   -3.2726959    1.6128151  1075864 
 4130000    1.3158339   -3.2726831   -1.6605309    0.1801132   -3.2726831    1.6121521  1075949 
 4131000    1.3165017   -3.2731657   -1.6603109    0.1807437   -3.2731657    1.6128548  1076026 
 4132000    1.3172342   -3.2735962   -1.6599729   0.17873863   -3.2735962    1.6136233  1076112 
 4133000    1.3161001   -3.2718486   -1.6597269   0.18455567   -3.2718486    1.6121216  1076187 
 4134000    1.3178289   -3.2729921   -1.6588728   0.18015005   -3.2729921    1.6141193  1076267 
 4135000     1.317375   -3.2725802   -1.6591519    0.1827825   -3.2725802    1.6134284  1076357 
 4136000    1.3175798   -3.2732254   -1.6596616   0.17940992   -3.2732254    1.6135638  1076434 
 4137000    1.3181721   -3.2731619   -1.6589882   0.18054192   -3.2731619    1.6141737  1076511 
 4138000    1.3178683   -3.2722839   -1.6585962   0.17810438   -3.2722839    1.6136878  1076587 
 4139000    1.3178574   -3.2714549   -1.6578884   0.18173219   -3.2714549    1.6135665  1076659 
 4140000     1.317695   -3.2731663   -1.6599229   0.18057135   -3.2731663    1.6132433  1076742 
 4141000    1.3168506   -3.2725329   -1.6604566    0.1821843   -3.2725329    1.6120763  1076831 
 4142000    1.3183546   -3.2742252   -1.6604411   0.17977189   -3.2742252    1.6137841  1076920 
 4143000    1.3166108   -3.2718393   -1.6603066   0.18469104   -3.2718393    1.6115327  1076998 
 4144000    1.3183535   -3.2740105    -1.660463   0.17928345   -3.2740105    1.6135475  1077077 
 4145000    1.3194106   -3.2744875   -1.6597557   0.17988771   -3.2744875    1.6147318  1077150 
 4146000    1.3180765   -3.2731736   -1.6601793   0.18240784   -3.2731736    1.6129943  1077220 
 4147000    1.3188468   -3.2741514   -1.6603404   0.17852597   -3.2741514    1.6138111  1077304 
 4148000    1.3193149   -3.2745078   -1.6602152   0.18072146   -3.2745078    1.6142926  1077365 
 4149000    1.3199669     -3.27512   -1.6601362    0.1836828     -3.27512    1.6149838  1077436 
 4150000    1.3190852    -3.274051   -1.6602373   0.18385069    -3.274051    1.6138137  1077497 
 4151000    1.3194779   -3.2748672   -1.6607198   0.17960343   -3.2748672    1.6141474  1077595 
 4152000    1.3191943   -3.2744896      -1.6608   0.17970286   -3.2744896    1.6136896  1077669 
 4153000     1.319777   -3.2753747   -1.6610847   0.17973865   -3.2753747    1.6142901  1077744 
 4154000    1.3190103   -3.2751999   -1.6619719   0.18171088   -3.2751999     1.613228  1077827 
 4155000    1.3192574   -3.2755798   -1.6621723   0.18933658   -3.2755798    1.6134075  1077909 
 4156000    1.3193442   -3.2753315   -1.6619271   0.18242822   -3.2753315    1.6134044  1077982 
 4157000    1.3201667   -3.2760115   -1.6617121   0.18108122   -3.2760115    1.6142994  1078056 
 4158000    1.3202834   -3.2759342    -1.661588   0.18323041   -3.2759342    1.6143462  1078120 
 4159000    1.3203562   -3.2762368   -1.6619049   0.18417319   -3.2762368     1.614332  1078189 
 4160000    1.3209211   -3.2764411   -1.6615293   0.18453445   -3.2764411    1.6149117  1078263 
 4161000    1.3207168   -3.2769097   -1.6623555   0.18089987   -3.2769097    1.6145542  1078335 
 4162000    1.3194456    -3.275392    -1.662498   0.18391454    -3.275392     1.612894  1078406 
 4163000    1.3216531   -3.2780746   -1.6625915   0.18263341   -3.2780746    1.6154831  1078479 
 4164000    1.3200022   -3.2762063   -1.6628428   0.18361311   -3.2762063    1.6133635  1078547 
 4165000    1.3196356   -3.2758777   -1.6630835   0.18401728   -3.2758777    1.6127942  1078628 
 4166000     1.320452   -3.2774067   -1.6637059   0.18037312   -3.2774067    1.6137008  1078689 
 4167000    1.3204356   -3.2766857   -1.6631157   0.18394656   -3.2766857      1.61357  1078763 
 4168000    1.3202335   -3.2769053   -1.6636929    0.1789457   -3.2769053    1.6132124  1078837 
 4169000    1.3213731   -3.2775327   -1.6630311   0.18374951   -3.2775327    1.6145016  1078906 
 4170000    1.3212907   -3.2772664   -1.6629612   0.17992334   -3.2772664    1.6143052  1078970 
 4171000    1.3200412    -3.275744   -1.6630999   0.18590547    -3.275744    1.6126441  1079060 
 4172000    1.3210176   -3.2768107    -1.663077   0.18221689   -3.2768107    1.6137337  1079129 
 4173000     1.320459    -3.275444   -1.6625048   0.18401397    -3.275444    1.6129392  1079204 
 4174000    1.3229331   -3.2773132    -1.661497   0.18370597   -3.2773132    1.6158161  1079301 
 4175000    1.3234828   -3.2775716    -1.661204   0.18607834   -3.2775716    1.6163676  1079381 
 4176000    1.3217194   -3.2758736   -1.6617717   0.18619283   -3.2758736    1.6141019  1079456 
 4177000    1.3222291   -3.2762774   -1.6616788    0.1840621   -3.2762774    1.6145986  1079540 
 4178000    1.3224938   -3.2765089   -1.6617066   0.18406845   -3.2765089    1.6148023  1079620 
 4179000    1.3225141   -3.2765185   -1.6617841   0.18439443   -3.2765185    1.6147344  1079682 
 4180000    1.3227131   -3.2767315   -1.6618514   0.18108793   -3.2767315    1.6148801  1079747 
 4181000    1.3231879   -3.2779048   -1.6625453    0.1813089   -3.2779048    1.6153595  1079814 
 4182000    1.3215378    -3.276367   -1.6631444    0.1866591    -3.276367    1.6132226  1079896 
 4183000     1.322142   -3.2772523   -1.6633744   0.18537443   -3.2772523    1.6138779  1079951 
 4184000    1.3222976   -3.2765065   -1.6625478   0.18550644   -3.2765065    1.6139587  1080024 
 4185000    1.3230005   -3.2777732   -1.6630506   0.18049582   -3.2777732    1.6147225  1080087 
 4186000    1.3230341   -3.2781777   -1.6635039   0.18587137   -3.2781777    1.6146738  1080147 
 4187000    1.3218344   -3.2769342   -1.6638396    0.1833054   -3.2769342    1.6130946  1080224 
 4188000     1.323593   -3.2783005    -1.663148   0.18418828   -3.2783005    1.6151525  1080283 
 4189000     1.323107   -3.2771752   -1.6627053   0.18373389   -3.2771752    1.6144699  1080343 
 4190000    1.3244214   -3.2787255     -1.66277    0.1817695   -3.2787255    1.6159555  1080422 
 4191000    1.3235868   -3.2777422    -1.662935   0.18402644   -3.2777422    1.6148072  1080509 
 4192000    1.3240581   -3.2779553   -1.6626957   0.18957503   -3.2779553    1.6152596  1080591 
 4193000    1.3242753   -3.2780873   -1.6626793   0.18772883   -3.2780873     1.615408  1080669 
 4194000    1.3244329   -3.2782733   -1.6627598   0.18601731   -3.2782733    1.6155135  1080727 
 4195000    1.3249047   -3.2786851   -1.6626828    0.1861959   -3.2786851    1.6160023  1080785 
 4196000     1.324802   -3.2782029   -1.6624321   0.18621079   -3.2782029    1.6157708  1080856 
 4197000    1.3265515   -3.2801109   -1.6623215   0.18444308   -3.2801109    1.6177894  1080933 
 4198000    1.3249623   -3.2788248   -1.6630976   0.18492611   -3.2788248    1.6157272  1081016 
 4199000    1.3245343   -3.2783965   -1.6632853   0.18489739   -3.2783965    1.6151111  1081079 
 4200000    1.3247773   -3.2786744   -1.6633582   0.18774425   -3.2786744    1.6153162  1081140 
 4201000    1.3242466   -3.2786154   -1.6640298   0.18672867   -3.2786154    1.6145856  1081196 
 4202000    1.3247421   -3.2797008   -1.6646216   0.18271671   -3.2797008    1.6150792  1081270 
 4203000    1.3247603   -3.2790977   -1.6640949   0.18821293   -3.2790977    1.6150028  1081336 
 4204000    1.3246026   -3.2797863   -1.6650728   0.18325205   -3.2797863    1.6147134  1081401 
 4205000    1.3240816   -3.2789853   -1.6649951   0.18767462   -3.2789853    1.6139902  1081460 
 4206000    1.3243811   -3.2796685   -1.6654221   0.18720208   -3.2796685    1.6142464  1081533 
 4207000    1.3260248   -3.2819483   -1.6657852   0.17900477   -3.2819483    1.6161631  1081591 
 4208000    1.3248928   -3.2806493   -1.6659778   0.18036357   -3.2806493    1.6146715  1081666 
 4209000    1.3253881   -3.2814687    -1.666289   0.18127607   -3.2814687    1.6151796  1081730 
 4210000    1.3257438   -3.2813956    -1.665902   0.18217315   -3.2813956    1.6154936  1081810 
 4211000    1.3247043   -3.2799697   -1.6658234   0.18767643   -3.2799697    1.6141463  1081864 
 4212000    1.3248147   -3.2802135   -1.6660117    0.1867647   -3.2802135    1.6142017  1081917 
 4213000     1.323974   -3.2791338   -1.6660548   0.18894645   -3.2791338     1.613079  1081983 
 4214000     1.325561   -3.2809669   -1.6660425   0.18348834   -3.2809669    1.6149245  1082042 
 4215000    1.3263533      -3.2816   -1.6658312   0.18193744      -3.2816    1.6157688  1082123 
 4216000    1.3264474   -3.2823308   -1.6665355   0.17968178   -3.2823308    1.6157953  1082182 
 4217000    1.3254903   -3.2817131   -1.6671836   0.18604769   -3.2817131    1.6145295  1082249 
 4218000     1.326983   -3.2835194   -1.6672867    0.1855383   -3.2835194    1.6162327  1082326 
 4219000    1.3268071   -3.2826702   -1.6667622   0.18582551   -3.2826702     1.615908  1082400 
 4220000     1.327013   -3.2831699   -1.6671127   0.18391792   -3.2831699    1.6160572  1082468 
 4221000    1.3256156   -3.2816808   -1.6674208   0.18487624   -3.2816808      1.61426  1082532 
 4222000    1.3257398   -3.2818161   -1.6674987   0.18354087   -3.2818161    1.6143174  1082595 
 4223000    1.3255874   -3.2818597   -1.6678443   0.18504463   -3.2818597    1.6140155  1082673 
 4224000    1.3256879   -3.2823081   -1.6682762   0.18644336   -3.2823081    1.6140319  1082744 
 4225000     1.325715   -3.2825529   -1.6685685   0.18878738   -3.2825529    1.6139844  1082798 
 4226000    1.3250147   -3.2818986   -1.6688784   0.19112463   -3.2818986    1.6130202  1082873 
 4227000    1.3261784   -3.2826213   -1.6682754   0.18690879   -3.2826213    1.6143459  1082934 
 4228000    1.3268954   -3.2834948   -1.6683746   0.18520879   -3.2834948    1.6151202  1083000 
 4229000    1.3275215   -3.2838415   -1.6680472    0.1832422   -3.2838415    1.6157943  1083059 
 4230000    1.3281555   -3.2839815   -1.6675155   0.18885273   -3.2839815     1.616466  1083126 
 4231000    1.3272691   -3.2831413   -1.6678361   0.18413529   -3.2831413    1.6153051  1083181 
 4232000    1.3278085   -3.2837598   -1.6678893   0.18629384   -3.2837598    1.6158706  1083242 
 4233000    1.3267523   -3.2822985    -1.667843   0.18916737   -3.2822985    1.6144556  1083329 
 4234000    1.3268409   -3.2825973   -1.6681233   0.19059736   -3.2825973     1.614474  1083389 
 4235000    1.3275308     -3.28328    -1.668053   0.18761526     -3.28328     1.615227  1083447 
 4236000    1.3272386   -3.2836181   -1.6688614   0.18604214   -3.2836181    1.6147567  1083524 
 4237000    1.3286161   -3.2853605   -1.6690473   0.18494209   -3.2853605    1.6163132  1083604 
 4238000    1.3277866    -3.284716   -1.6695221   0.18604732    -3.284716    1.6151938  1083678 
 4239000    1.3275284   -3.2844446    -1.669684    0.1853163   -3.2844446    1.6147605  1083758 
 4240000    1.3266956   -3.2844271   -1.6707897   0.18268594   -3.2844271    1.6136374  1083832 
 4241000    1.3259525   -3.2838234   -1.6711732    0.1855714   -3.2838234    1.6126502  1083888 
 4242000    1.3275434   -3.2852531   -1.6707768   0.18591698   -3.2852531    1.6144763  1083961 
 4243000    1.3280802   -3.2851786   -1.6701388   0.18753274   -3.2851786    1.6150399  1084021 
 4244000    1.3274479   -3.2846809   -1.6705083   0.18581261   -3.2846809    1.6141726  1084087 
 4245000    1.3282102    -3.284974   -1.6699862   0.18775151    -3.284974    1.6149878  1084162 
 4246000    1.3287475   -3.2861421   -1.6706022   0.18543498   -3.2861421    1.6155399  1084230 
 4247000    1.3286354   -3.2859897   -1.6706786    0.1862535   -3.2859897    1.6153111  1084292 
 4248000    1.3288042   -3.2860677   -1.6706377   0.18877375   -3.2860677      1.61543  1084350 
 4249000    1.3281266   -3.2862512   -1.6717522   0.18728124   -3.2862512     1.614499  1084422 
 4250000    1.3288733   -3.2873124   -1.6720264   0.18374078   -3.2873124     1.615286  1084503 
 4251000    1.3293352   -3.2870892   -1.6713325   0.18869079   -3.2870892    1.6157567  1084564 
 4252000    1.3291273   -3.2864543   -1.6710472   0.19185987   -3.2864543    1.6154071  1084629 
 4253000    1.3293241   -3.2859438   -1.6703839   0.19205161   -3.2859438      1.61556  1084687 
 4254000    1.3304735   -3.2869459    -1.670089   0.18611673   -3.2869459    1.6168569  1084754 
 4255000    1.3308201   -3.2875726   -1.6704093   0.19027233   -3.2875726    1.6171633  1084831 
 4256000    1.3304704   -3.2877771   -1.6711653    0.1862036   -3.2877771    1.6166118  1084916 
 4257000    1.3296542   -3.2872089   -1.6717021   0.18988132   -3.2872089    1.6155068  1084992 
 4258000    1.3306301   -3.2884707     -1.67189   0.18812949   -3.2884707    1.6165808  1085067 
 4259000    1.3303771   -3.2887057    -1.672535    0.1860243   -3.2887057    1.6161707  1085136 
 4260000    1.3295475   -3.2874524   -1.6723833   0.18669341   -3.2874524     1.615069  1085199 
 4261000    1.3299141   -3.2876926   -1.6722705   0.19004508   -3.2876926     1.615422  1085261 
 4262000    1.3301684   -3.2879576   -1.6723174   0.18941899   -3.2879576    1.6156402  1085322 
 4263000    1.3313981   -3.2886028   -1.6715822   0.18669078   -3.2886028    1.6170206  1085398 
 4264000    1.3301629   -3.2883608   -1.6729401   0.18588763   -3.2883608    1.6154207  1085465 
 4265000    1.3299228   -3.2881128   -1.6730819   0.18567258   -3.2881128    1.6150308  1085531 
 4266000     1.329293   -3.2874643   -1.6732934    0.1882816   -3.2874643    1.6141709  1085595 
 4267000    1.3305772   -3.2887664   -1.6731536   0.18288618   -3.2887664    1.6156128  1085674 
 4268000    1.3307033   -3.2883535   -1.6726903   0.18250305   -3.2883535    1.6156632  1085743 
 4269000    1.3315155   -3.2886855   -1.6721285   0.18776461   -3.2886855     1.616557  1085805 
 4270000    1.3306688   -3.2884562   -1.6730016   0.18714387   -3.2884562    1.6154546  1085855 
 4271000    1.3304576   -3.2882697   -1.6731934   0.18514112   -3.2882697    1.6150763  1085937 
 4272000    1.3299892    -3.288042   -1.6736384   0.18637862    -3.288042    1.6144036  1086007 
 4273000    1.3315576   -3.2893331   -1.6731031   0.18567397   -3.2893331      1.61623  1086059 
 4274000     1.331166   -3.2889489   -1.6732775   0.18456271   -3.2889489    1.6156714  1086115 
 4275000    1.3319891   -3.2890453   -1.6724836   0.18995171   -3.2890453    1.6165617  1086188 
 4276000    1.3309623   -3.2886746   -1.6734586   0.18923209   -3.2886746     1.615216  1086255 
 4277000    1.3309538    -3.289655   -1.6745788   0.18770274    -3.289655    1.6150762  1086342 
 4278000    1.3296216   -3.2877819   -1.6744113    0.1885379   -3.2877819    1.6133706  1086402 
 4279000    1.3303485   -3.2884699   -1.6743109   0.18961569   -3.2884699     1.614159  1086465 
 4280000    1.3310018   -3.2895402   -1.6747015   0.18698563   -3.2895402    1.6148387  1086541 
 4281000    1.3311955   -3.2893374   -1.6743856   0.18639903   -3.2893374    1.6149518  1086623 
 4282000    1.3320101   -3.2906378   -1.6748003   0.19003564   -3.2906378    1.6158375  1086692 
 4283000    1.3315987   -3.2907275     -1.67545   0.18926661   -3.2907275    1.6152775  1086733 
 4284000    1.3320264   -3.2911507   -1.6754555   0.18617721   -3.2911507    1.6156952  1086801 
 4285000    1.3316817   -3.2905391   -1.6753409   0.19171353   -3.2905391    1.6151983  1086854 
 4286000    1.3332247   -3.2924119   -1.6754299   0.18461204   -3.2924119     1.616982  1086913 
 4287000    1.3335519   -3.2923395   -1.6750648   0.18378193   -3.2923395    1.6172747  1086983 
 4288000     1.333263   -3.2926626   -1.6758438   0.18773015   -3.2926626    1.6168187  1087054 
 4289000    1.3326247    -3.291498   -1.6755485   0.18709492    -3.291498    1.6159495  1087118 
 4290000     1.331701   -3.2903276   -1.6755857   0.19259972   -3.2903276    1.6147419  1087177 
 4291000    1.3326556   -3.2915749   -1.6757677   0.18589855   -3.2915749    1.6158071  1087239 
 4292000    1.3327086   -3.2917967   -1.6760338   0.19258354   -3.2917967    1.6157629  1087312 
 4293000     1.332391   -3.2922096   -1.6769134   0.18686322   -3.2922096    1.6152962  1087367 
 4294000    1.3318056   -3.2919702   -1.6774653   0.18741802   -3.2919702    1.6145049  1087422 
 4295000    1.3322947   -3.2926354   -1.6776654   0.18486102   -3.2926354      1.61497  1087508 
 4296000    1.3329844   -3.2932654   -1.6775722   0.18682379   -3.2932654    1.6156932  1087584 
 4297000    1.3333393   -3.2938563   -1.6778133   0.18489655   -3.2938563     1.616043  1087638 
 4298000    1.3323307   -3.2918201   -1.6770989   0.18858626   -3.2918201    1.6147212  1087705 
 4299000    1.3320567   -3.2923658   -1.6780836   0.18932242   -3.2923658    1.6142823  1087777 
 4300000    1.3327382   -3.2930307   -1.6780161   0.18377036   -3.2930307    1.6150146  1087840 
 4301000    1.3335517   -3.2935746   -1.6776484   0.18966379   -3.2935746    1.6159261  1087890 
 4302000    1.3322808   -3.2920338   -1.6777709   0.19132608   -3.2920338    1.6142629  1087973 
 4303000    1.3339404   -3.2933852   -1.6771842   0.18332039   -3.2933852     1.616201  1088022 
 4304000    1.3329822   -3.2931485   -1.6782005   0.18727938   -3.2931485     1.614948  1088084 
 4305000    1.3328322   -3.2928404   -1.6781662   0.19380674   -3.2928404    1.6146743  1088146 
 4306000    1.3328344   -3.2925427   -1.6779577   0.18890431   -3.2925427     1.614585  1088208 
 4307000    1.3326244   -3.2921813   -1.6779531   0.18899156   -3.2921813    1.6142282  1088277 
 4308000    1.3337521     -3.29363   -1.6781486   0.19194361     -3.29363    1.6154815  1088353 
 4309000    1.3334586   -3.2931573   -1.6781368   0.18998107   -3.2931573    1.6150205  1088424 
 4310000    1.3339361   -3.2934592   -1.6779612   0.19111902   -3.2934592     1.615498  1088492 
 4311000    1.3342978   -3.2940919   -1.6782643   0.18857071   -3.2940919    1.6158277  1088565 
 4312000    1.3340847   -3.2933532   -1.6778579   0.18906779   -3.2933532    1.6154953  1088615 
 4313000    1.3345374   -3.2939588   -1.6780058   0.18766835   -3.2939588     1.615953  1088676 
 4314000    1.3346327   -3.2935338   -1.6775588   0.19023174   -3.2935338    1.6159749  1088739 
 4315000    1.3348518   -3.2942483   -1.6781075    0.1875284   -3.2942483    1.6161407  1088806 
 4316000     1.334408   -3.2943942   -1.6788828    0.1901695   -3.2943942    1.6155114  1088868 
 4317000    1.3338277    -3.294313   -1.6796094   0.19044869    -3.294313    1.6147036  1088939 
 4318000    1.3346858   -3.2949278   -1.6792671   0.18794481   -3.2949278    1.6156608  1088994 
 4319000    1.3346993   -3.2944306    -1.678853   0.18957367   -3.2944306    1.6155777  1089061 
 4320000    1.3345142   -3.2945524   -1.6792817   0.18638744   -3.2945524    1.6152706  1089117 
 4321000    1.3340977   -3.2946511   -1.6799854   0.19127456   -3.2946511    1.6146657  1089185 
 4322000    1.3333033   -3.2934318   -1.6798313   0.19229981   -3.2934318    1.6136005  1089255 
 4323000    1.3346336   -3.2951261   -1.6800002   0.19201246   -3.2951261    1.6151259  1089312 
 4324000    1.3350048   -3.2963397   -1.6808699   0.18529291   -3.2963397    1.6154698  1089383 
 4325000    1.3339815   -3.2953484    -1.681219   0.18443015   -3.2953484    1.6141294  1089452 
 4326000      1.33511   -3.2954244   -1.6800303   0.18886172   -3.2954244    1.6153941  1089520 
 4327000    1.3360479   -3.2964562   -1.6800046   0.18767046   -3.2964562    1.6164516  1089572 
 4328000    1.3350512   -3.2953875   -1.6802292   0.18824137   -3.2953875    1.6151583  1089631 
 4329000    1.3347092   -3.2946769   -1.6800553    0.1904701   -3.2946769    1.6146216  1089714 
 4330000    1.3353093   -3.2948678   -1.6796077   0.18762092   -3.2948678    1.6152601  1089773 
 4331000    1.3344388   -3.2948426   -1.6807259   0.18637369   -3.2948426    1.6141167  1089834 
 4332000    1.3360704   -3.2963017   -1.6803181   0.18859644   -3.2963017    1.6159835  1089906 
 4333000    1.3359105   -3.2961295   -1.6804386   0.18997036   -3.2961295    1.6156908  1089973 
 4334000    1.3357318    -3.296483   -1.6811224   0.18931716    -3.296483    1.6153605  1090050 
 4335000    1.3359143   -3.2967457   -1.6812741   0.18950912   -3.2967457    1.6154716  1090124 
 4336000    1.3356122   -3.2964076    -1.681405   0.19089903   -3.2964076    1.6150026  1090194 
 4337000    1.3353793   -3.2968556   -1.6822427   0.18550653   -3.2968556    1.6146129  1090267 
 4338000    1.3360951   -3.2973505   -1.6819581   0.18896599   -3.2973505    1.6153924  1090325 
 4339000    1.3356142   -3.2967963   -1.6820919   0.19042172   -3.2967963    1.6147044  1090397 
 4340000    1.3364814   -3.2977486   -1.6820744   0.18924662   -3.2977486    1.6156741  1090450 
 4341000    1.3360381   -3.2979036   -1.6828571    0.1885208   -3.2979036    1.6150465  1090512 
 4342000     1.335286   -3.2962099   -1.6821629   0.19025182   -3.2962099     1.614047  1090573 
 4343000    1.3367425   -3.2971629   -1.6814442   0.19007927   -3.2971629    1.6157187  1090633 
 4344000    1.3369832   -3.2975169   -1.6816036   0.19010068   -3.2975169    1.6159133  1090698 
 4345000    1.3369811   -3.2967693   -1.6809607   0.19437812   -3.2967693    1.6158086  1090767 
 4346000    1.3384169   -3.2981635   -1.6807087   0.18834184   -3.2981635    1.6174548  1090827 
 4347000    1.3373402   -3.2975188   -1.6814466   0.19415624   -3.2975188    1.6160722  1090882 
 4348000    1.3374844   -3.2983756   -1.6822315    0.1916561   -3.2983756    1.6161442  1090951 
 4349000    1.3373896   -3.2980036   -1.6820598   0.18768669   -3.2980036    1.6159438  1091009 
 4350000    1.3378368    -3.298418    -1.682011   0.18990609    -3.298418     1.616407  1091061 
 4351000    1.3370226   -3.2976342   -1.6822998   0.19123901   -3.2976342    1.6153344  1091121 
 4352000    1.3370082   -3.2977099   -1.6824728   0.19054228   -3.2977099    1.6152372  1091175 
 4353000    1.3370364   -3.2981905   -1.6830066   0.18788785   -3.2981905    1.6151839  1091234 
 4354000    1.3374759    -3.298546   -1.6829511   0.18991228    -3.298546    1.6155949  1091315 
 4355000    1.3377575   -3.2988056   -1.6829594   0.18952534   -3.2988056    1.6158462  1091375 
 4356000      1.33743   -3.2983621   -1.6829885    0.1901676   -3.2983621    1.6153737  1091427 
 4357000    1.3373461   -3.2972922   -1.6820999   0.19185325   -3.2972922    1.6151924  1091481 
 4358000    1.3372942   -3.2971056   -1.6820616   0.18917141   -3.2971056    1.6150439  1091539 
 4359000    1.3386565   -3.2979654   -1.6813622   0.18920202   -3.2979654    1.6166032  1091597 
 4360000    1.3387238   -3.2979835   -1.6813908   0.19253604   -3.2979835    1.6165927  1091659 
 4361000    1.3381392   -3.2979235   -1.6821404     0.192273   -3.2979235    1.6157831  1091729 
 4362000    1.3388445   -3.2986764    -1.682129    0.1887429   -3.2986764    1.6165474  1091788 
 4363000    1.3389924   -3.2984611   -1.6818136   0.18839351   -3.2984611    1.6166475  1091841 
 4364000    1.3396254   -3.2986824   -1.6813595   0.19014669   -3.2986824    1.6173229  1091901 
 4365000    1.3391044   -3.2992623   -1.6826483   0.18864397   -3.2992623     1.616614  1091955 
 4366000     1.339068   -3.2988728   -1.6823813   0.19237962   -3.2988728    1.6164916  1092008 
 4367000     1.339161   -3.2987912   -1.6822673   0.18757122   -3.2987912    1.6165239  1092062 
 4368000     1.338368   -3.2984052   -1.6829199   0.18930351   -3.2984052    1.6154852  1092117 
 4369000    1.3380247   -3.2986306   -1.6836648   0.18513215   -3.2986306    1.6149659  1092188 
 4370000    1.3385209   -3.2989497   -1.6834662   0.19103212   -3.2989497    1.6154835  1092243 
 4371000    1.3384654   -3.2989773   -1.6836511   0.18877735   -3.2989773    1.6153262  1092304 
 4372000    1.3392624   -3.2991151   -1.6829128   0.18850025   -3.2991151    1.6162023  1092362 
 4373000     1.339678    -3.299093   -1.6824794    0.1867876    -3.299093    1.6166136  1092423 
 4374000     1.339152   -3.2984905   -1.6826122   0.18992864   -3.2984905    1.6158783  1092491 
 4375000    1.3394646   -3.2988112   -1.6826594   0.18994514   -3.2988112    1.6161519  1092561 
 4376000    1.3402273   -3.3000832   -1.6831072   0.19002846   -3.3000832     1.616976  1092626 
 4377000    1.3397152   -3.2997849   -1.6835067   0.19272422   -3.2997849    1.6162782  1092680 
 4378000     1.340091   -3.3006468   -1.6840203   0.18627269   -3.3006468    1.6166265  1092751 
 4379000    1.3385162   -3.2997211   -1.6850933   0.19163631   -3.2997211    1.6146278  1092818 
 4380000    1.3403738   -3.3009078   -1.6841531   0.18965762   -3.3009078    1.6167547  1092895 
 4381000     1.339769   -3.3005916   -1.6846359   0.18667596   -3.3005916    1.6159557  1092942 
 4382000     1.339725   -3.3010861   -1.6852603   0.18896803   -3.3010861    1.6158257  1092994 
 4383000    1.3396138   -3.3003868   -1.6847899    0.1918695   -3.3003868     1.615597  1093058 
 4384000    1.3403575   -3.3020932    -1.685697   0.19392755   -3.3020932    1.6163963  1093124 
 4385000    1.3396386   -3.3019135   -1.6864759   0.19190914   -3.3019135    1.6154377  1093186 
 4386000    1.3407098    -3.303207   -1.6865766    0.1925137    -3.303207    1.6166303  1093253 
 4387000    1.3414034   -3.3031948   -1.6857947    0.1874617   -3.3031948    1.6174001  1093298 
 4388000    1.3399842   -3.3019855   -1.6863675   0.19249032   -3.3019855     1.615618  1093346 
 4389000    1.3407066   -3.3031871   -1.6867794   0.18584699   -3.3031871    1.6164077  1093401 
 4390000    1.3402982   -3.3028981   -1.6871099   0.18765694   -3.3028981    1.6157882  1093487 
 4391000    1.3402994   -3.3027435   -1.6870573    0.1928706   -3.3027435    1.6156862  1093557 
 4392000    1.3395476     -3.30244   -1.6877472   0.19225885     -3.30244    1.6146928  1093616 
 4393000     1.340484     -3.30377    -1.688037    0.1916858     -3.30377    1.6157329  1093676 
 4394000    1.3409218   -3.3041986    -1.688028   0.19051832   -3.3041986    1.6161705  1093737 
 4395000    1.3400663   -3.3029132   -1.6878639    0.1921971   -3.3029132    1.6150493  1093798 
 4396000    1.3409063    -3.304082    -1.688106   0.19078896    -3.304082     1.615976  1093856 
 4397000    1.3400802   -3.3034903    -1.688591    0.1888914   -3.3034903    1.6148993  1093911 
 4398000    1.3397692   -3.3034368    -1.689001   0.18992413   -3.3034368    1.6144358  1093971 
 4399000    1.3409299   -3.3047639   -1.6890165   0.18926633   -3.3047639    1.6157474  1094030 
 4400000    1.3412715   -3.3046965   -1.6886335   0.19373417   -3.3046965     1.616063  1094095 
 4401000    1.3409497   -3.3040378   -1.6884305   0.19257189   -3.3040378    1.6156073  1094141 
 4402000    1.3410938   -3.3038814   -1.6881994   0.19231339   -3.3038814     1.615682  1094208 
 4403000    1.3407127   -3.3037854   -1.6886599   0.19025272   -3.3037854    1.6151255  1094274 
 4404000    1.3410283   -3.3037755   -1.6883732   0.19484161   -3.3037755    1.6154023  1094344 
 4405000    1.3409956   -3.3042499   -1.6889725   0.19329169   -3.3042499    1.6152774  1094402 
 4406000    1.3404901   -3.3041677   -1.6896026   0.19188271   -3.3041677    1.6145652  1094472 
 4407000    1.3410402   -3.3043489   -1.6892067   0.19076595   -3.3043489    1.6151421  1094530 
 4408000    1.3402167   -3.3034805   -1.6894245    0.1962967   -3.3034805     1.614056  1094594 
 4409000    1.3408104   -3.3038068   -1.6891111   0.19353348   -3.3038068    1.6146957  1094645 
 4410000    1.3414725   -3.3048165   -1.6894429   0.19153579   -3.3048165    1.6153736  1094726 
 4411000    1.3418957   -3.3055989   -1.6897954   0.19033725   -3.3055989    1.6158035  1094780 
 4412000    1.3408915   -3.3039543   -1.6894308   0.19343871   -3.3039543    1.6145235  1094828 
 4413000    1.3410491   -3.3046274   -1.6900218   0.19242011   -3.3046274    1.6146056  1094901 
 4414000     1.342018   -3.3058267   -1.6901432   0.19072636   -3.3058267    1.6156836  1094961 
 4415000    1.3406339   -3.3052027   -1.6912651   0.18813719   -3.3052027    1.6139376  1095015 
 4416000    1.3409799    -3.305208   -1.6909364   0.19398029    -3.305208    1.6142717  1095071 
 4417000    1.3418082   -3.3053373   -1.6901527   0.19091002   -3.3053373    1.6151847  1095128 
 4418000    1.3413366   -3.3049615   -1.6904462   0.19474699   -3.3049615    1.6145153  1095197 
 4419000    1.3414672   -3.3050494   -1.6904551   0.19382436   -3.3050494    1.6145944  1095250 
 4420000     1.342337   -3.3061895   -1.6906515   0.19613087   -3.3061895     1.615538  1095320 
 4421000    1.3422351   -3.3064184   -1.6910842   0.19467154   -3.3064184    1.6153342  1095375 
 4422000    1.3422024   -3.3062153   -1.6910044   0.19219413   -3.3062153    1.6152109  1095432 
 4423000    1.3417993   -3.3063226   -1.6916912   0.19177568   -3.3063226    1.6146314  1095496 
 4424000     1.342399   -3.3073131   -1.6920486   0.18939469   -3.3073131    1.6152646  1095556 
 4425000    1.3416842   -3.3060137   -1.6916932   0.19680265   -3.3060137    1.6143205  1095613 
 4426000    1.3426096   -3.3072062   -1.6918622   0.19233676   -3.3072062     1.615344  1095674 
 4427000    1.3432589   -3.3082548   -1.6922254   0.19405275   -3.3082548    1.6160293  1095739 
 4428000    1.3428325   -3.3067791   -1.6913453   0.19474775   -3.3067791    1.6154338  1095795 
 4429000    1.3435726   -3.3082343   -1.6919958   0.19623052   -3.3082343    1.6162385  1095853 
 4430000    1.3424273   -3.3069716   -1.6922183   0.19278365   -3.3069716    1.6147533  1095926 
 4431000    1.3437236   -3.3091909   -1.6929757   0.19064796   -3.3091909    1.6162152  1095992 
 4432000    1.3417994   -3.3072164   -1.6934098   0.19220989   -3.3072164    1.6138066  1096056 
 4433000    1.3442983   -3.3094345   -1.6927184    0.1913508   -3.3094345    1.6167161  1096121 
 4434000    1.3436724   -3.3089003   -1.6930431   0.19460087   -3.3089003    1.6158572  1096193 
 4435000    1.3428484   -3.3088839   -1.6940824   0.19538182   -3.3088839    1.6148015  1096237 
 4436000    1.3429722   -3.3080708   -1.6932072   0.19174551   -3.3080708    1.6148636  1096296 
 4437000    1.3442468   -3.3093813   -1.6930722   0.19145766   -3.3093813    1.6163091  1096355 
 4438000    1.3430757   -3.3087668   -1.6939468    0.1929084   -3.3087668      1.61482  1096410 
 4439000    1.3441955    -3.309984   -1.6939045   0.18850975    -3.309984    1.6160795  1096469 
 4440000    1.3442836   -3.3101621   -1.6940725    0.1878597   -3.3101621    1.6160896  1096534 
 4441000    1.3436176   -3.3092706   -1.6940701   0.19389283   -3.3092706    1.6152005  1096594 
 4442000    1.3433095   -3.3086773   -1.6939385   0.19729288   -3.3086773    1.6147388  1096656 
 4443000    1.3424886   -3.3090837   -1.6954199   0.19202374   -3.3090837    1.6136638  1096716 
 4444000    1.3430763   -3.3092681   -1.6949686    0.1911867   -3.3092681    1.6142996  1096764 
 4445000    1.3436302   -3.3102709   -1.6953851   0.19109807   -3.3102709    1.6148858  1096818 
 4446000     1.343868   -3.3107822   -1.6956975   0.19010722   -3.3107822    1.6150847  1096877 
 4447000    1.3434377   -3.3098294   -1.6953427   0.19133634   -3.3098294    1.6144867  1096932 
 4448000    1.3434845   -3.3107381   -1.6962967   0.18771072   -3.3107381    1.6144413  1097001 
 4449000    1.3440117    -3.311253   -1.6962695   0.18391345    -3.311253    1.6149836  1097063 
 4450000      1.34361   -3.3110304    -1.696606   0.18940153   -3.3110304    1.6144243  1097115 
 4451000    1.3442622   -3.3117735   -1.6966465    0.1888264   -3.3117735    1.6151271  1097170 
 4452000    1.3448656   -3.3121648   -1.6963894   0.19395759   -3.3121648    1.6157754  1097222 
 4453000    1.3444427   -3.3116838   -1.6965019   0.19092142   -3.3116838    1.6151819  1097280 
 4454000    1.3432941   -3.3101453   -1.6964124   0.19507164   -3.3101453    1.6137329  1097327 
 4455000    1.3443373   -3.3115134   -1.6966111   0.19052346   -3.3115134    1.6149023  1097384 
 4456000    1.3438578    -3.310986   -1.6967259   0.19328325    -3.310986    1.6142601  1097429 
 4457000    1.3453291   -3.3119405   -1.6959897   0.19321218   -3.3119405    1.6159509  1097481 
 4458000    1.3454679   -3.3125821    -1.696544   0.19045855   -3.3125821    1.6160381  1097535 
 4459000    1.3442683   -3.3117339   -1.6972337   0.19333826   -3.3117339    1.6145002  1097601 
 4460000    1.3445476   -3.3116404   -1.6969049   0.19141792   -3.3116404    1.6147355  1097669 
 4461000    1.3445602   -3.3114902   -1.6968145   0.19558653   -3.3114902    1.6146757  1097720 
 4462000    1.3455924   -3.3129768   -1.6971439   0.19565725   -3.3129768    1.6158328  1097776 
 4463000    1.3456071   -3.3123247   -1.6965713   0.19556421   -3.3123247    1.6157533  1097842 
 4464000    1.3462196   -3.3131463   -1.6967592   0.18694596   -3.3131463    1.6163872  1097911 
 4465000    1.3453171   -3.3122044   -1.6969965   0.19393473   -3.3122044    1.6152079  1097976 
 4466000    1.3445712    -3.311585   -1.6973446   0.19273952    -3.311585    1.6142404  1098025 
 4467000    1.3451235   -3.3121019   -1.6972837   0.19485923   -3.3121019    1.6148182  1098083 
 4468000    1.3451542   -3.3122132    -1.697439   0.19498509   -3.3122132    1.6147741  1098138 
 4469000    1.3431873   -3.3100932   -1.6977698    0.1936836   -3.3100932    1.6123234  1098199 
 4470000    1.3447029   -3.3116867   -1.6976395   0.19359327   -3.3116867    1.6140472  1098264 
 4471000    1.3453672    -3.312414   -1.6976724   0.19207369    -3.312414    1.6147416  1098334 
 4472000    1.3448681   -3.3118791   -1.6978292   0.19223782   -3.3118791    1.6140499  1098397 
 4473000    1.3454496   -3.3122403   -1.6975688   0.19563091   -3.3122403    1.6146715  1098449 
 4474000    1.3456235   -3.3127252   -1.6979391   0.19280805   -3.3127252    1.6147861  1098513 
 4475000    1.3462185   -3.3131237   -1.6977265   0.18899285   -3.3131237    1.6153971  1098583 
 4476000    1.3454023   -3.3112916    -1.696965    0.1914129   -3.3112916    1.6143266  1098645 
 4477000    1.3460093   -3.3119218   -1.6969507   0.19709654   -3.3119218    1.6149711  1098702 
 4478000    1.3462513   -3.3130039   -1.6978173   0.19245949   -3.3130039    1.6151866  1098753 
 4479000    1.3456215   -3.3117589   -1.6974058   0.19389387   -3.3117589    1.6143531  1098806 
 4480000    1.3464134    -3.313218   -1.6979957   0.18973939    -3.313218    1.6152222  1098861 
 4481000    1.3450623   -3.3120501   -1.6985265   0.19100369   -3.3120501    1.6135236  1098914 
 4482000     1.346099   -3.3136484   -1.6989797   0.19667513   -3.3136484    1.6146687  1098981 
 4483000    1.3460613   -3.3138428   -1.6992956   0.19389441   -3.3138428    1.6145472  1099033 
 4484000     1.346978   -3.3146908   -1.6991263   0.19440721   -3.3146908    1.6155644  1099089 
 4485000    1.3472275   -3.3147668    -1.698987   0.19208323   -3.3147668    1.6157798  1099146 
 4486000    1.3459515   -3.3140381   -1.6998693   0.19349567   -3.3140381    1.6141688  1099201 
 4487000    1.3466718   -3.3152718   -1.7003259   0.19230959   -3.3152718    1.6149459  1099260 
 4488000    1.3465624   -3.3157381    -1.701016   0.19203058   -3.3157381    1.6147222  1099323 
 4489000    1.3471791   -3.3161859   -1.7008022   0.19208978   -3.3161859    1.6153837  1099376 
 4490000    1.3467293   -3.3157887   -1.7010265   0.19063157   -3.3157887    1.6147622  1099432 
 4491000    1.3471509   -3.3157715   -1.7005964    0.1960725   -3.3157715    1.6151751  1099495 
 4492000    1.3480501   -3.3176006   -1.7014224   0.19392163   -3.3176006    1.6161782  1099546 
 4493000    1.3476236   -3.3179954   -1.7024254   0.19387424   -3.3179954      1.61557  1099612 
 4494000    1.3474653   -3.3183977    -1.703135   0.19257561   -3.3183977    1.6152626  1099692 
 4495000    1.3461996   -3.3172865    -1.703613    0.1923893   -3.3172865    1.6136735  1099741 
 4496000    1.3464341   -3.3179002   -1.7040262   0.19483054   -3.3179002    1.6138739  1099796 
 4497000    1.3457526   -3.3178025   -1.7048319   0.19381352   -3.3178025    1.6129705  1099855 
 4498000    1.3459654   -3.3176685   -1.7045192    0.1954034   -3.3176685    1.6131493  1099907 
 4499000    1.3468831   -3.3179508   -1.7037604   0.19375814   -3.3179508    1.6141904  1099947 
 4500000    1.3469929   -3.3177916   -1.7035575   0.19751185   -3.3177916     1.614234  1100007 
 4501000    1.3472368   -3.3182676   -1.7038294    0.1921623   -3.3182676    1.6144382  1100067 
 4502000    1.3478605   -3.3184073   -1.7033024   0.19505057   -3.3184073    1.6151049  1100122 
 4503000    1.3471476   -3.3179478   -1.7037749   0.19363714   -3.3179478    1.6141729  1100175 
 4504000    1.3485599   -3.3187474   -1.7029763   0.19478588   -3.3187474    1.6157711  1100239 
 4505000    1.3476067   -3.3177701   -1.7032174   0.19453499   -3.3177701    1.6145527  1100291 
 4506000    1.3485022   -3.3182871    -1.702732   0.19300653   -3.3182871    1.6155551  1100339 
 4507000    1.3474228   -3.3165488    -1.702372   0.19732718   -3.3165488    1.6141769  1100397 
 4508000    1.3476595   -3.3168974   -1.7025059   0.19099418   -3.3168974    1.6143915  1100444 
 4509000    1.3473231   -3.3167341   -1.7028072   0.19484672   -3.3167341    1.6139269  1100486 
 4510000    1.3477782   -3.3169529    -1.702541    0.1929566   -3.3169529    1.6144119  1100527 
 4511000    1.3481796   -3.3175209   -1.7027455   0.19832591   -3.3175209    1.6147754  1100607 
 4512000    1.3480277   -3.3178995   -1.7034103   0.19461388   -3.3178995    1.6144892  1100678 
 4513000     1.346981   -3.3167703   -1.7036328   0.19389167   -3.3167703    1.6131375  1100745 
 4514000    1.3469213    -3.316971   -1.7039944   0.19425219    -3.316971    1.6129765  1100806 
 4515000     1.347585   -3.3179118   -1.7042255   0.19160938   -3.3179118    1.6136863  1100864 
 4516000    1.3476717   -3.3176061    -1.703876   0.18986455   -3.3176061    1.6137301  1100905 
 4517000    1.3476386   -3.3178671   -1.7042618   0.19112098   -3.3178671    1.6136054  1100963 
 4518000    1.3476464   -3.3174127   -1.7038741   0.19819492   -3.3174127    1.6135385  1101015 
 4519000    1.3480597   -3.3173722   -1.7034179   0.19137471   -3.3173722    1.6139542  1101069 
 4520000    1.3491881   -3.3184832   -1.7032704   0.19336942   -3.3184832    1.6152128  1101132 
 4521000    1.3493755   -3.3188866   -1.7035345   0.19280654   -3.3188866     1.615352  1101190 
 4522000    1.3483633   -3.3181475    -1.704098   0.19244761   -3.3181475    1.6140495  1101252 
 4523000     1.348156   -3.3183159   -1.7046099    0.1946214   -3.3183159     1.613706  1101317 
 4524000    1.3478196   -3.3181711   -1.7049453   0.19133617   -3.3181711    1.6132257  1101370 
 4525000     1.348672   -3.3192233   -1.7050565   0.19365816   -3.3192233    1.6141669  1101424 
 4526000    1.3489036   -3.3191775   -1.7048228   0.19269146   -3.3191775    1.6143547  1101485 
 4527000    1.3497423   -3.3192297    -1.703971   0.19728624   -3.3192297    1.6152587  1101553 
 4528000    1.3499538   -3.3200135   -1.7045824   0.19522877   -3.3200135    1.6154311  1101608 
 4529000    1.3503288   -3.3203141   -1.7045178   0.19708867   -3.3203141    1.6157963  1101665 
 4530000    1.3497683   -3.3198877   -1.7048544   0.19425981   -3.3198877    1.6150333  1101728 
 4531000    1.3509362   -3.3211123   -1.7047623   0.19374089   -3.3211123      1.61635  1101783 
 4532000     1.349858   -3.3207626   -1.7057701   0.19732976   -3.3207626    1.6149925  1101829 
 4533000    1.3501992   -3.3212409   -1.7059208   0.19467438   -3.3212409      1.61532  1101884 
 4534000    1.3505156   -3.3215782   -1.7059588   0.19498456   -3.3215782    1.6156194  1101938 
 4535000    1.3517733   -3.3228326   -1.7057995   0.19487088   -3.3228326    1.6170331  1102000 
 4536000    1.3487076   -3.3200544   -1.7067852   0.19709556   -3.3200544    1.6132692  1102066 
 4537000    1.3495547   -3.3209759   -1.7067638   0.19151514   -3.3209759    1.6142121  1102114 
 4538000    1.3493388   -3.3213614   -1.7074925   0.19481075   -3.3213614    1.6138689  1102172 
 4539000    1.3495907   -3.3218544   -1.7077633   0.19838612   -3.3218544    1.6140911  1102226 
 4540000     1.350279   -3.3221407    -1.707304   0.19379158   -3.3221407    1.6148367  1102279 
 4541000    1.3506034   -3.3229328   -1.7077873   0.19083462   -3.3229328    1.6151456  1102333 
 4542000    1.3498942   -3.3218919   -1.7076897   0.19629288   -3.3218919    1.6142022  1102398 
 4543000    1.3496912   -3.3216837   -1.7077974   0.19045476   -3.3216837    1.6138863  1102448 
 4544000    1.3490006   -3.3212424   -1.7082653   0.19564837   -3.3212424    1.6129771  1102505 
 4545000    1.3498807   -3.3220799   -1.7081413   0.19445158   -3.3220799    1.6139386  1102567 
 4546000    1.3500134   -3.3227247   -1.7087109   0.19502248   -3.3227247    1.6140139  1102624 
 4547000    1.3498172   -3.3221288   -1.7084256   0.19508412   -3.3221288    1.6137032  1102676 
 4548000    1.3494525   -3.3220777   -1.7088924   0.19469882   -3.3220777    1.6131853  1102732 
 4549000    1.3505337   -3.3229145   -1.7085113   0.19323354   -3.3229145    1.6144031  1102783 
 4550000    1.3511757   -3.3231655   -1.7080696    0.1962055   -3.3231655    1.6150959  1102834 
 4551000    1.3513667   -3.3239812   -1.7087434   0.19477205   -3.3239812    1.6152378  1102893 
 4552000    1.3502937    -3.322848   -1.7089644   0.19859431    -3.322848    1.6138836  1102942 
 4553000    1.3500548     -3.32193   -1.7084286   0.19407903     -3.32193    1.6135015  1103008 
 4554000    1.3518235   -3.3242562   -1.7087478   0.19554956   -3.3242562    1.6155084  1103081 
 4555000    1.3507639   -3.3232471   -1.7090972     0.196235   -3.3232471    1.6141499  1103144 
 4556000    1.3521626   -3.3244625    -1.708729   0.19565604   -3.3244625    1.6157335  1103204 
 4557000    1.3520389   -3.3244261   -1.7089269   0.19163465   -3.3244261    1.6154993  1103263 
 4558000    1.3515074   -3.3238884   -1.7091149   0.19775461   -3.3238884    1.6147735  1103325 
 4559000    1.3514666   -3.3240155   -1.7093845   0.18764584   -3.3240155     1.614631  1103389 
 4560000    1.3520897   -3.3253943   -1.7101066   0.19128902   -3.3253943    1.6152876  1103449 
 4561000    1.3521784   -3.3248649   -1.7095636   0.19444809   -3.3248649    1.6153013  1103512 
 4562000     1.352771   -3.3247156   -1.7087971   0.19390647   -3.3247156    1.6159185  1103574 
 4563000    1.3524325   -3.3247684   -1.7093538   0.19814181   -3.3247684    1.6154146  1103642 
 4564000    1.3514998   -3.3247585   -1.7105487   0.20053415   -3.3247585    1.6142098  1103704 
 4565000    1.3526561   -3.3254027   -1.7098966   0.19743091   -3.3254027    1.6155061  1103762 
 4566000    1.3531894   -3.3261435   -1.7100694   0.19670171   -3.3261435    1.6160742  1103809 
 4567000    1.3526478   -3.3250131   -1.7096662    0.1930957   -3.3250131    1.6153469  1103864 
 4568000    1.3508602   -3.3239011   -1.7107767   0.19894854   -3.3239011    1.6131244  1103924 
 4569000    1.3528352   -3.3256456   -1.7102433   0.19594673   -3.3256456    1.6154024  1103979 
 4570000    1.3518943   -3.3250916   -1.7108903    0.1929351   -3.3250916    1.6142013  1104032 
 4571000    1.3513437   -3.3246017   -1.7111499   0.19742747   -3.3246017    1.6134519  1104095 
 4572000     1.351724   -3.3254008    -1.711587   0.19072245   -3.3254008    1.6138138  1104158 
 4573000    1.3525171   -3.3265273   -1.7118572   0.19142115   -3.3265273    1.6146701  1104220 
 4574000    1.3523915   -3.3253988   -1.7109591   0.19387806   -3.3253988    1.6144397  1104275 
 4575000    1.3518757   -3.3250547   -1.7113243   0.19315533   -3.3250547    1.6137304  1104339 
 4576000    1.3522952   -3.3251559   -1.7110022   0.20019702   -3.3251559    1.6141537  1104392 
 4577000    1.3526622   -3.3254714   -1.7109689   0.20246851   -3.3254714    1.6145025  1104453 
 4578000     1.353019   -3.3258881   -1.7110298   0.19429148   -3.3258881    1.6148583  1104501 
 4579000    1.3530577   -3.3263773   -1.7115445   0.19418297   -3.3263773    1.6148328  1104550 
 4580000     1.354005   -3.3274421   -1.7115592   0.19314609   -3.3274421    1.6158829  1104605 
 4581000    1.3525723   -3.3255681   -1.7114549   0.19568032   -3.3255681    1.6141132  1104646 
 4582000    1.3526086   -3.3253166   -1.7112361   0.19342873   -3.3253166    1.6140805  1104698 
 4583000     1.353204   -3.3256828   -1.7109794   0.19520531   -3.3256828    1.6147034  1104758 
 4584000    1.3532626   -3.3262719   -1.7115863   0.19451897   -3.3262719    1.6146856  1104818 
 4585000    1.3528267   -3.3256724   -1.7115931   0.19492971   -3.3256724    1.6140793  1104877 
 4586000    1.3548258   -3.3278371    -1.711459   0.19688297   -3.3278371    1.6163781  1104936 
 4587000     1.353152   -3.3268638   -1.7125689   0.19407118   -3.3268638    1.6142949  1104995 
 4588000    1.3523671   -3.3265306   -1.7132684    0.1967568   -3.3265306    1.6132622  1105061 
 4589000    1.3541764   -3.3278582   -1.7125195   0.19343496   -3.3278582    1.6153387  1105117 
 4590000    1.3535538   -3.3273422   -1.7128192   0.19840945   -3.3273422     1.614523  1105167 
 4591000    1.3537774   -3.3269144   -1.7121715   0.19962888   -3.3269144    1.6147429  1105199 
 4592000     1.354539   -3.3276071   -1.7120185   0.19379894   -3.3276071    1.6155885  1105242 
 4593000    1.3539361   -3.3268893   -1.7120973   0.19595353   -3.3268893     1.614792  1105295 
 4594000    1.3536301   -3.3268601   -1.7124987   0.19412215   -3.3268601    1.6143614  1105340 
 4595000    1.3542914   -3.3278102    -1.712726   0.19497988   -3.3278102    1.6150842  1105385 
 4596000    1.3541721   -3.3274753   -1.7126034   0.20000463   -3.3274753    1.6148719  1105433 
 4597000    1.3552167   -3.3285356   -1.7124985   0.19591183   -3.3285356    1.6160371  1105488 
 4598000    1.3553502   -3.3290208   -1.7128947   0.19823938   -3.3290208    1.6161261  1105536 
 4599000    1.3544243    -3.327696   -1.7127484   0.19684438    -3.327696    1.6149476  1105587 
 4600000    1.3540917   -3.3287111   -1.7142462    0.1915322   -3.3287111    1.6144648  1105646 
 4601000    1.3537507   -3.3285419   -1.7145668    0.1931282   -3.3285419    1.6139751  1105703 
 4602000    1.3529951   -3.3277877   -1.7147893    0.1943647   -3.3277877    1.6129985  1105755 
 4603000     1.355315   -3.3304309   -1.7147384   0.19155336   -3.3304309    1.6156925  1105804 
 4604000    1.3544174   -3.3288254   -1.7142716   0.19730157   -3.3288254    1.6145538  1105851 
 4605000    1.3537975   -3.3281589   -1.7144257   0.19713866   -3.3281589    1.6137332  1105907 
 4606000     1.354635   -3.3285071   -1.7138632   0.19910597   -3.3285071    1.6146439  1105967 
 4607000    1.3551359   -3.3300071   -1.7148524   0.20011562   -3.3300071    1.6151547  1106026 
 4608000    1.3550254   -3.3297604   -1.7148162   0.19693997   -3.3297604    1.6149442  1106080 
 4609000    1.3542281   -3.3293638   -1.7154384   0.19494295   -3.3293638    1.6139254  1106127 
 4610000    1.3559425   -3.3311298   -1.7152694    0.1928937   -3.3311298    1.6158604  1106201 
 4611000    1.3548922   -3.3298454   -1.7153241   0.19989712   -3.3298454    1.6145213  1106261 
 4612000     1.355726   -3.3314031   -1.7159729   0.19470951   -3.3314031    1.6154302  1106319 
 4613000    1.3556439   -3.3314495   -1.7161785   0.19200617   -3.3314495     1.615271  1106361 
 4614000    1.3553763   -3.3309163     -1.71604   0.19444444   -3.3309163    1.6148763  1106413 
 4615000    1.3548692   -3.3306914   -1.7164908   0.19495782   -3.3306914    1.6142006  1106462 
 4616000    1.3547031   -3.3302045   -1.7162703   0.19685666   -3.3302045    1.6139341  1106509 
 4617000    1.3543517     -3.33013   -1.7166816   0.19794042     -3.33013    1.6134484  1106555 
 4618000    1.3548053   -3.3303931    -1.716499   0.19647657   -3.3303931     1.613894  1106620 
 4619000    1.3548074   -3.3305985   -1.7167648   0.19474173   -3.3305985    1.6138337  1106663 
 4620000    1.3546112   -3.3306821   -1.7171738   0.19910399   -3.3306821    1.6135082  1106726 
 4621000    1.3540707   -3.3304943   -1.7176852   0.19786682   -3.3304943    1.6128091  1106764 
 4622000    1.3552675    -3.332742   -1.7185819   0.19373066    -3.332742    1.6141601  1106815 
 4623000    1.3536432     -3.33061   -1.7184704    0.1964397     -3.33061    1.6121396  1106874 
 4624000    1.3548374   -3.3322659   -1.7187842    0.1936827   -3.3322659    1.6134816  1106929 
 4625000    1.3535442   -3.3310918   -1.7192128   0.19596216   -3.3310918     1.611879  1106972 
 4626000    1.3549058   -3.3316297    -1.718205   0.19651014   -3.3316297    1.6134247  1107024 
 4627000    1.3557662   -3.3328411   -1.7184735   0.19484346   -3.3328411    1.6143676  1107080 
 4628000    1.3539286   -3.3314863   -1.7193782   0.19830073   -3.3314863    1.6121081  1107129 
 4629000     1.356099   -3.3331709   -1.7185573   0.19168157   -3.3331709    1.6146136  1107183 
 4630000    1.3555702   -3.3319368   -1.7180374   0.19728495   -3.3319368    1.6138994  1107241 
 4631000    1.3564615   -3.3325472   -1.7176682   0.19477364   -3.3325472     1.614879  1107297 
 4632000    1.3547691   -3.3313648    -1.718588   0.19768149   -3.3313648    1.6127768  1107357 
 4633000    1.3553561   -3.3328634   -1.7194795    0.1976371   -3.3328634    1.6133838  1107420 
 4634000    1.3564634   -3.3334601   -1.7188181   0.19718359   -3.3334601     1.614642  1107461 
 4635000      1.35594   -3.3318105   -1.7178657   0.19911871   -3.3318105    1.6139448  1107512 
 4636000    1.3558956   -3.3318092   -1.7180063   0.19983301   -3.3318092     1.613803  1107573 
 4637000    1.3560373   -3.3325496   -1.7186494   0.19678266   -3.3325496    1.6139002  1107622 
 4638000    1.3562106   -3.3325792     -1.71855   0.19599758   -3.3325792    1.6140293  1107675 
 4639000    1.3566962   -3.3335446   -1.7190219    0.1973514   -3.3335446    1.6145226  1107733 
 4640000    1.3558925   -3.3329732   -1.7194871   0.19361805   -3.3329732    1.6134861  1107788 
 4641000    1.3555107    -3.332903    -1.719947   0.19522707    -3.332903     1.612956  1107840 
 4642000    1.3563241   -3.3336849   -1.7198323   0.19458746   -3.3336849    1.6138526  1107889 
 4643000    1.3563588   -3.3330786   -1.7192634   0.19555489   -3.3330786    1.6138152  1107943 
 4644000    1.3574713   -3.3344387    -1.719396    0.1943746   -3.3344387    1.6150427  1108009 
 4645000    1.3568326    -3.334048   -1.7198294   0.19361905    -3.334048    1.6142186  1108053 
 4646000    1.3560132   -3.3333812   -1.7202058   0.19406522   -3.3333812    1.6131754  1108100 
 4647000    1.3563326   -3.3339771   -1.7205048   0.19730985   -3.3339771    1.6134724  1108157 
 4648000    1.3568943   -3.3343926   -1.7203248   0.20091539   -3.3343926    1.6140678  1108207 
 4649000     1.355288   -3.3324073   -1.7203274   0.20630222   -3.3324073    1.6120799  1108260 
 4650000    1.3563454   -3.3340622   -1.7208002   0.19705487   -3.3340622    1.6132619  1108312 
 4651000    1.3553943   -3.3332495   -1.7212017   0.20009345   -3.3332495    1.6120478  1108369 
 4652000    1.3578919   -3.3353517   -1.7204062   0.19712465   -3.3353517    1.6149455  1108419 
 4653000    1.3580364   -3.3350522   -1.7200077   0.19942601   -3.3350522    1.6150444  1108469 
 4654000    1.3572465   -3.3338566    -1.719852   0.19784444   -3.3338566    1.6140046  1108538 
 4655000    1.3578472   -3.3353121   -1.7206645     0.194357   -3.3353121    1.6146476  1108587 
 4656000    1.3576365   -3.3357847   -1.7214779   0.19511337   -3.3357847    1.6143068  1108649 
 4657000    1.3564635   -3.3346162   -1.7217798   0.19783828   -3.3346162    1.6128363  1108701 
 4658000    1.3579062   -3.3357705    -1.721296   0.19858934   -3.3357705    1.6144745  1108754 
 4659000    1.3567314    -3.334341   -1.7213142   0.19966421    -3.334341    1.6130268  1108789 
 4660000    1.3591226   -3.3367582   -1.7209642   0.19757636   -3.3367582     1.615794  1108841 
 4661000    1.3582416   -3.3360725   -1.7214119   0.19446314   -3.3360725    1.6146606  1108900 
 4662000     1.358864   -3.3364366   -1.7211365     0.198383   -3.3364366    1.6153001  1108969 
 4663000    1.3581324   -3.3364143   -1.7220741   0.19911752   -3.3364143    1.6143401  1109031 
 4664000    1.3581188   -3.3365795   -1.7223414   0.19806662   -3.3365795    1.6142381  1109090 
 4665000    1.3571215   -3.3363191   -1.7233478   0.19671894   -3.3363191    1.6129713  1109146 
 4666000    1.3564211   -3.3357052   -1.7236449   0.19822455   -3.3357052    1.6120603  1109200 
 4667000    1.3575311    -3.336078   -1.7227755   0.19561232    -3.336078    1.6133025  1109253 
 4668000    1.3578453   -3.3369168   -1.7233107   0.19634218   -3.3369168    1.6136061  1109301 
 4669000     1.358417   -3.3375581   -1.7233352   0.19399544   -3.3375581    1.6142229  1109344 
 4670000    1.3574281   -3.3369942   -1.7240322   0.19991055   -3.3369942     1.612962  1109403 
 4671000    1.3571989   -3.3368258   -1.7241856   0.19846433   -3.3368258    1.6126402  1109437 
 4672000    1.3574391   -3.3370979    -1.724261   0.19914521   -3.3370979    1.6128369  1109498 
 4673000    1.3572056   -3.3372314    -1.724762   0.19843972   -3.3372314    1.6124694  1109560 
 4674000    1.3585476   -3.3375681   -1.7235989   0.20239147   -3.3375681    1.6139692  1109625 
 4675000    1.3590866   -3.3388193   -1.7242607   0.19653858   -3.3388193    1.6145586  1109660 
 4676000    1.3575274   -3.3382742   -1.7256347   0.19673486   -3.3382742    1.6126395  1109706 
 4677000    1.3567579   -3.3372491   -1.7255789   0.19905203   -3.3372491    1.6116702  1109744 
 4678000    1.3577447    -3.338076    -1.725312   0.19796004    -3.338076     1.612764  1109798 
 4679000    1.3579898    -3.338017   -1.7250331   0.19680643    -3.338017    1.6129839  1109847 
 4680000    1.3574972   -3.3373419   -1.7250217   0.20093522   -3.3373419    1.6123203  1109901 
 4681000    1.3576324   -3.3383306   -1.7259383    0.1978909   -3.3383306    1.6123923  1109962 
 4682000    1.3582412   -3.3390103   -1.7259604   0.19761218   -3.3390103    1.6130499  1110007 
 4683000    1.3590277   -3.3388659   -1.7249473   0.19976268   -3.3388659    1.6139186  1110052 
 4684000    1.3590645   -3.3394758   -1.7256095   0.19701616   -3.3394758    1.6138663  1110118 
 4685000    1.3584826   -3.3387585   -1.7256834   0.19921605   -3.3387585    1.6130751  1110187 
 4686000    1.3584776   -3.3391682   -1.7261688   0.20115872   -3.3391682    1.6129994  1110235 
 4687000    1.3580915   -3.3389971   -1.7265259   0.19674583   -3.3389971    1.6124712  1110283 
 4688000    1.3585662   -3.3388842   -1.7259221   0.20113422   -3.3388842    1.6129621  1110333 
 4689000    1.3587001   -3.3396929   -1.7266531   0.19709181   -3.3396929    1.6130398  1110389 
 4690000    1.3586909   -3.3397845   -1.7268384   0.19459541   -3.3397845    1.6129461  1110446 
 4691000    1.3585954     -3.33965   -1.7268914   0.19887665     -3.33965    1.6127586  1110497 
 4692000    1.3583784   -3.3391303   -1.7266902   0.19983539   -3.3391303    1.6124401  1110539 
 4693000    1.3588277   -3.3402035   -1.7272954   0.19793876   -3.3402035     1.612908  1110584 
 4694000    1.3597493   -3.3405747   -1.7266701   0.19488067   -3.3405747    1.6139046  1110651 
 4695000    1.3596983   -3.3407283   -1.7269496   0.19610698   -3.3407283    1.6137787  1110696 
 4696000    1.3593773   -3.3406727   -1.7273534   0.20004568   -3.3406727    1.6133193  1110750 
 4697000    1.3578603   -3.3393431   -1.7278953   0.19973138   -3.3393431    1.6114478  1110799 
 4698000    1.3582114   -3.3399754   -1.7281936    0.1986287   -3.3399754    1.6117818  1110856 
 4699000     1.358538   -3.3403908   -1.7283129   0.20020454   -3.3403908    1.6120779  1110919 
 4700000    1.3595547   -3.3413415   -1.7281254   0.19935532   -3.3413415     1.613216  1110966 
 4701000    1.3586937   -3.3405125   -1.7284094   0.19993699   -3.3405125    1.6121031  1111029 
 4702000    1.3581855   -3.3401445   -1.7287301   0.19969246   -3.3401445    1.6114144  1111088 
 4703000    1.3594927   -3.3416203   -1.7287144   0.19561153   -3.3416203    1.6129058  1111129 
 4704000    1.3587729   -3.3399188   -1.7279351   0.20360664   -3.3399188    1.6119837  1111176 
 4705000     1.359987   -3.3412358   -1.7278886   0.19775795   -3.3412358    1.6133472  1111229 
 4706000    1.3599476   -3.3405926   -1.7273648   0.20022799   -3.3405926    1.6132278  1111279 
 4707000    1.3603834   -3.3411588   -1.7274866   0.19987797   -3.3411588    1.6136722  1111329 
 4708000    1.3611035   -3.3422394   -1.7277856   0.19766651   -3.3422394    1.6144537  1111379 
 4709000    1.3608746    -3.342265   -1.7281292   0.19544408    -3.342265    1.6141358  1111411 
 4710000    1.3604854   -3.3419897   -1.7283998   0.20125665   -3.3419897    1.6135899  1111469 
 4711000    1.3604277   -3.3426748   -1.7292186   0.19854646   -3.3426748    1.6134561  1111514 
 4712000    1.3585392   -3.3414782   -1.7303517   0.19966197   -3.3414782    1.6111265  1111576 
 4713000    1.3604479   -3.3431418    -1.729817    0.1944813   -3.3431418    1.6133248  1111621 
 4714000     1.360435   -3.3428341   -1.7296131    0.1957478   -3.3428341     1.613221  1111682 
 4715000    1.3595117   -3.3422258   -1.7301708   0.19848347   -3.3422258     1.612055  1111731 
 4716000    1.3606397   -3.3434368     -1.73014   0.19502799   -3.3434368    1.6132968  1111797 
 4717000    1.3598687   -3.3426275   -1.7303435   0.20282379   -3.3426275     1.612284  1111865 
 4718000    1.3606841   -3.3428468   -1.7296947   0.19438259   -3.3428468    1.6131521  1111933 
 4719000    1.3602313    -3.342969   -1.7304305   0.20112085    -3.342969    1.6125385  1111986 
 4720000    1.3611412   -3.3443216   -1.7307858   0.19509806   -3.3443216    1.6135358  1112042 
 4721000    1.3600256   -3.3431923   -1.7310659   0.19794547   -3.3431923    1.6121264  1112102 
 4722000    1.3606492   -3.3438835   -1.7311108   0.20189155   -3.3438835    1.6127727  1112166 
 4723000    1.3611783   -3.3445052   -1.7311893   0.19790687   -3.3445052    1.6133158  1112224 
 4724000    1.3599573    -3.343799   -1.7320043    0.1991619    -3.343799    1.6117947  1112275 
 4725000    1.3596762   -3.3431591    -1.731757   0.19985418   -3.3431591    1.6114021  1112316 
 4726000    1.3607179   -3.3434216   -1.7308617   0.20043901   -3.3434216    1.6125599  1112369 
 4727000     1.360334   -3.3427416   -1.7307135   0.20237534   -3.3427416    1.6120281  1112422 
 4728000    1.3608101   -3.3433569   -1.7308342   0.19906878   -3.3433569    1.6125227  1112470 
 4729000    1.3605906   -3.3434394    -1.731258   0.20050031   -3.3434394    1.6121814  1112526 
 4730000     1.361592    -3.344369   -1.7310865   0.20183114    -3.344369    1.6132825  1112585 
 4731000    1.3608178   -3.3431094   -1.7308181   0.20146669   -3.3431094    1.6122913  1112636 
 4732000    1.3608889   -3.3426225   -1.7303267   0.20192101   -3.3426225    1.6122958  1112691 
 4733000    1.3617989   -3.3439194   -1.7306122   0.20338191   -3.3439194    1.6133072  1112737 
 4734000    1.3616343   -3.3439634   -1.7309019     0.201027   -3.3439634    1.6130615  1112772 
 4735000    1.3627168   -3.3455207   -1.7312552    0.1962089   -3.3455207    1.6142655  1112826 
 4736000    1.3632741   -3.3454792    -1.730629   0.19910602   -3.3454792    1.6148502  1112878 
 4737000    1.3619109   -3.3447779   -1.7316032   0.19544018   -3.3447779    1.6131746  1112920 
 4738000    1.3618881   -3.3451408     -1.73207   0.20113023   -3.3451408    1.6130708  1112973 
 4739000     1.362295   -3.3452309   -1.7317666   0.19997835   -3.3452309    1.6134643  1113034 
 4740000    1.3618288   -3.3441974   -1.7313751   0.20021361   -3.3441974    1.6128222  1113096 
 4741000      1.36338   -3.3462578   -1.7316738   0.19941389   -3.3462578     1.614584  1113148 
 4742000    1.3619057   -3.3443489   -1.7315833   0.20167118   -3.3443489    1.6127656  1113198 
 4743000    1.3616821   -3.3442823   -1.7318728   0.19734178   -3.3442823    1.6124095  1113261 
 4744000    1.3630822   -3.3464347   -1.7324282   0.19904772   -3.3464347    1.6140065  1113303 
 4745000    1.3630676   -3.3460027    -1.732083   0.19717682   -3.3460027    1.6139197  1113351 
 4746000    1.3622465   -3.3445787   -1.7316978      0.20132   -3.3445787    1.6128809  1113397 
 4747000    1.3626146   -3.3455056   -1.7322614   0.20173157   -3.3455056    1.6132442  1113447 
 4748000    1.3610166   -3.3444433   -1.7331835   0.20510614   -3.3444433    1.6112597  1113511 
 4749000    1.3623632   -3.3458768   -1.7330852   0.20257438   -3.3458768    1.6127916  1113554 
 4750000    1.3630829   -3.3460809   -1.7325068   0.19804666   -3.3460809    1.6135741  1113602 
 4751000     1.364028   -3.3470077   -1.7323772    0.1982682   -3.3470077    1.6146305  1113645 
 4752000    1.3628947   -3.3465419   -1.7333254   0.19934288   -3.3465419    1.6132166  1113695 
 4753000    1.3625572   -3.3467723   -1.7340175   0.20284262   -3.3467723    1.6127548  1113738 
 4754000    1.3631052    -3.346528   -1.7331738   0.19700316    -3.346528    1.6133542  1113772 
 4755000    1.3631981    -3.346933     -1.73355   0.20004383    -3.346933     1.613383  1113828 
 4756000    1.3632812   -3.3469053   -1.7334964   0.20147668   -3.3469053    1.6134089  1113878 
 4757000    1.3622103    -3.346103   -1.7340237    0.2029598    -3.346103    1.6120793  1113921 
 4758000    1.3632661    -3.346823   -1.7335667   0.20459542    -3.346823    1.6132563  1113971 
 4759000    1.3631686   -3.3470245    -1.733953   0.20118152   -3.3470245    1.6130714  1114019 
 4760000    1.3632519   -3.3474575   -1.7343614   0.20160711   -3.3474575    1.6130961  1114070 
 4761000    1.3632401   -3.3472436   -1.7342425   0.20059975   -3.3472436    1.6130011  1114126 
 4762000    1.3630497   -3.3465684   -1.7338692   0.20456988   -3.3465684    1.6126992  1114179 
 4763000    1.3623371   -3.3459485   -1.7341721   0.20376714   -3.3459485    1.6117764  1114234 
 4764000    1.3637507   -3.3470811   -1.7337032   0.20209093   -3.3470811     1.613378  1114283 
 4765000    1.3633636   -3.3475247    -1.734664   0.20366581   -3.3475247    1.6128606  1114324 
 4766000    1.3639847   -3.3483133   -1.7347962   0.20164676   -3.3483133    1.6135171  1114378 
 4767000     1.363469   -3.3478192   -1.7349988   0.20255108   -3.3478192    1.6128204  1114438 
 4768000    1.3639082    -3.348625   -1.7353735   0.20242834    -3.348625    1.6132515  1114499 
 4769000     1.363751   -3.3491772   -1.7361753   0.19978742   -3.3491772    1.6130019  1114543 
 4770000    1.3628946   -3.3483557   -1.7364303   0.19797019   -3.3483557    1.6119254  1114587 
 4771000    1.3625399   -3.3482878   -1.7368384   0.20087728   -3.3482878    1.6114494  1114626 
 4772000    1.3621667   -3.3483471   -1.7374069   0.20228535   -3.3483471    1.6109402  1114673 
 4773000    1.3636962   -3.3498256   -1.7371548   0.19613815   -3.3498256    1.6126708  1114727 
 4774000    1.3637046   -3.3491766   -1.7365797   0.20210016   -3.3491766    1.6125969  1114785 
 4775000     1.364322   -3.3499858   -1.7367254   0.19851503   -3.3499858    1.6132604  1114831 
 4776000    1.3650005   -3.3505253   -1.7365306   0.19922486   -3.3505253    1.6139947  1114878 
 4777000    1.3638358    -3.348828   -1.7363016    0.1999151    -3.348828    1.6125264  1114941 
 4778000       1.3647   -3.3494736   -1.7360065   0.19899343   -3.3494736    1.6134671  1114997 
 4779000    1.3652716   -3.3501431   -1.7360755   0.19865809   -3.3501431    1.6140676  1115049 
 4780000    1.3638951   -3.3496827   -1.7373176   0.19950751   -3.3496827    1.6123651  1115101 
 4781000    1.3642294   -3.3500021   -1.7373127   0.19815959   -3.3500021    1.6126894  1115150 
 4782000    1.3636696   -3.3493503    -1.737405   0.19870073   -3.3493503    1.6119453  1115207 
 4783000    1.3644572   -3.3503629   -1.7375329    0.1959204   -3.3503629      1.61283  1115239 
 4784000    1.3642576   -3.3498692   -1.7373432   0.20004559   -3.3498692    1.6125261  1115286 
 4785000    1.3637388   -3.3494749   -1.7376458   0.20124781   -3.3494749    1.6118291  1115344 
 4786000    1.3642645    -3.350064   -1.7376888   0.20124108    -3.350064    1.6123752  1115396 
 4787000    1.3652239   -3.3510398   -1.7376045   0.19891739   -3.3510398    1.6134353  1115447 
 4788000    1.3647877   -3.3511296   -1.7382921   0.20053831   -3.3511296    1.6128375  1115504 
 4789000    1.3650513   -3.3514535   -1.7383754   0.19721784   -3.3514535    1.6130781  1115553 
 4790000    1.3653385   -3.3510849   -1.7377485   0.19708581   -3.3510849    1.6133364  1115609 
 4791000    1.3648924   -3.3501269    -1.737426   0.20052735   -3.3501269    1.6127009  1115684 
 4792000    1.3649734   -3.3513626    -1.738618   0.19824272   -3.3513626    1.6127446  1115720 
 4793000    1.3635767   -3.3507463   -1.7397241   0.19696471   -3.3507463    1.6110222  1115770 
 4794000    1.3639915    -3.351357   -1.7399328   0.20365335    -3.351357    1.6114242  1115831 
 4795000    1.3644882   -3.3520571   -1.7401212   0.19919979   -3.3520571    1.6119359  1115883 
 4796000    1.3630759   -3.3509979   -1.7408055   0.19814877   -3.3509979    1.6101924  1115935 
 4797000     1.364848   -3.3528124   -1.7406133   0.19917751   -3.3528124    1.6121991  1115995 
 4798000    1.3656675   -3.3538634   -1.7407512   0.19864997   -3.3538634    1.6131121  1116033 
 4799000    1.3650017   -3.3535721     -1.74132   0.19739944   -3.3535721    1.6122521  1116084 
 4800000      1.36356    -3.351394   -1.7409199   0.20383132    -3.351394    1.6104742  1116136 
 4801000    1.3655346   -3.3534763   -1.7407335   0.20268201   -3.3534763    1.6127428  1116180 
 4802000    1.3651176   -3.3528214   -1.7406404   0.20387932   -3.3528214     1.612181  1116228 
 4803000    1.3657581   -3.3540219   -1.7411683   0.19863754   -3.3540219    1.6128536  1116286 
 4804000      1.36572   -3.3531154   -1.7403792   0.20372296   -3.3531154    1.6127363  1116336 
 4805000    1.3661067   -3.3536196   -1.7404859   0.20175463   -3.3536196    1.6131337  1116377 
 4806000    1.3653689   -3.3536072   -1.7414328   0.20278184   -3.3536072    1.6121744  1116438 
 4807000    1.3653514   -3.3538801   -1.7418216   0.19837396   -3.3538801    1.6120584  1116504 
 4808000    1.3649853   -3.3532148   -1.7416247   0.20382365   -3.3532148    1.6115902  1116529 
 4809000    1.3666312   -3.3542942    -1.740823   0.19790006   -3.3542942    1.6134712  1116572 
 4810000    1.3683715   -3.3557398   -1.7402921   0.19846008   -3.3557398    1.6154477  1116626 
 4811000    1.3647622   -3.3524516   -1.7413298   0.20118707   -3.3524516    1.6111218  1116671 
 4812000    1.3654703    -3.353275   -1.7413894   0.20349913    -3.353275    1.6118856  1116721 
 4813000    1.3654601   -3.3536904   -1.7418833   0.19972331   -3.3536904    1.6118071  1116767 
 4814000    1.3662397   -3.3547924   -1.7421416   0.20197302   -3.3547924    1.6126508  1116820 
 4815000    1.3652746   -3.3535376   -1.7420693   0.19743961   -3.3535376    1.6114684  1116850 
 4816000    1.3659639   -3.3542365   -1.7420354   0.19660338   -3.3542365    1.6122012  1116906 
 4817000    1.3650544   -3.3534078    -1.742332   0.20270332   -3.3534078    1.6110758  1116942 
 4818000    1.3664876   -3.3550176   -1.7423239   0.19963991   -3.3550176    1.6126937  1116993 
 4819000    1.3653951   -3.3547669   -1.7434131   0.20222075   -3.3547669    1.6113538  1117028 
 4820000    1.3650731   -3.3542856   -1.7433781   0.19834093   -3.3542856    1.6109075  1117074 
 4821000    1.3652865   -3.3547865   -1.7437094    0.1988149   -3.3547865    1.6110771  1117131 
 4822000    1.3664837   -3.3557429   -1.7433297   0.19508599   -3.3557429    1.6124133  1117184 
 4823000      1.36565   -3.3553023   -1.7439362   0.19740134   -3.3553023    1.6113661  1117228 
 4824000    1.3658396   -3.3554514   -1.7439308   0.19854976   -3.3554514    1.6115206  1117276 
 4825000    1.3650672   -3.3549628   -1.7444126   0.20167062   -3.3549628    1.6105502  1117317 
 4826000    1.3650182   -3.3552067   -1.7447735   0.19843405   -3.3552067    1.6104333  1117358 
 4827000    1.3655484   -3.3562955   -1.7453045   0.20009739   -3.3562955    1.6109909  1117405 
 4828000    1.3654151   -3.3562505   -1.7454917   0.19747467   -3.3562505    1.6107588  1117457 
 4829000    1.3652504     -3.35587   -1.7453804   0.20271055     -3.35587    1.6104896  1117509 
 4830000    1.3657014   -3.3572793   -1.7463385   0.20316817   -3.3572793    1.6109409  1117565 
 4831000    1.3651486   -3.3564135   -1.7461853   0.20318691   -3.3564135    1.6102282  1117607 
 4832000    1.3651304   -3.3569192   -1.7467787   0.19998207   -3.3569192    1.6101405  1117653 
 4833000    1.3658038   -3.3573311   -1.7464496   0.20226051   -3.3573311    1.6108815  1117690 
 4834000    1.3657355   -3.3578952   -1.7471663   0.19862515   -3.3578952    1.6107289  1117740 
 4835000    1.3661098   -3.3582131   -1.7471207   0.19809943   -3.3582131    1.6110924  1117794 
 4836000    1.3657292   -3.3581237   -1.7475407   0.19814573   -3.3581237    1.6105831  1117836 
 4837000    1.3659631   -3.3577664   -1.7469622   0.20208126   -3.3577664    1.6108042  1117874 
 4838000     1.365328   -3.3571813   -1.7471778   0.20245621   -3.3571813    1.6100034  1117910 
 4839000    1.3672141   -3.3589454   -1.7467857    0.1987283   -3.3589454    1.6121597  1117957 
 4840000    1.3669103   -3.3586162   -1.7468724   0.20257328   -3.3586162    1.6117438  1117997 
 4841000     1.367411   -3.3590227   -1.7467635   0.19952911   -3.3590227    1.6122592  1118049 
 4842000    1.3655325   -3.3569639     -1.74698   0.20136434   -3.3569639    1.6099838  1118091 
 4843000    1.3655942   -3.3570729   -1.7470696   0.20154674   -3.3570729    1.6100033  1118128 
 4844000    1.3665079   -3.3585138    -1.747501   0.19861007   -3.3585138    1.6110129  1118175 
 4845000    1.3656673   -3.3572382   -1.7472726   0.20119831   -3.3572382    1.6099656  1118214 
 4846000    1.3674711   -3.3586335   -1.7466077   0.19860808   -3.3586335    1.6120258  1118260 
 4847000    1.3670771   -3.3581339   -1.7466345   0.20034218   -3.3581339    1.6114994  1118303 
 4848000    1.3673518   -3.3581205   -1.7463637    0.1981032   -3.3581205    1.6117569  1118349 
 4849000    1.3670577   -3.3574035   -1.7460537   0.20488051   -3.3574035    1.6113497  1118391 
 4850000    1.3672757   -3.3575756   -1.7460395    0.2016002   -3.3575756    1.6115361  1118440 
 4851000    1.3669713   -3.3573115   -1.7461904   0.20482693   -3.3573115    1.6111211  1118479 
 4852000    1.3678596   -3.3582993   -1.7461816   0.19848087   -3.3582993    1.6121177  1118514 
 4853000    1.3677998   -3.3572895   -1.7452899   0.19866256   -3.3572895    1.6119996  1118547 
 4854000    1.3677556   -3.3574145   -1.7455248    0.2040527   -3.3574145    1.6118898  1118587 
 4855000    1.3670819   -3.3573842   -1.7463618   0.20092826   -3.3573842    1.6110224  1118638 
 4856000    1.3672813   -3.3577531   -1.7465533   0.20078099   -3.3577531    1.6111998  1118678 
 4857000    1.3685446    -3.359283   -1.7466506   0.20199592    -3.359283    1.6126323  1118717 
 4858000    1.3672104    -3.358123   -1.7471478   0.19595612    -3.358123    1.6109752  1118776 
 4859000    1.3687994   -3.3591623   -1.7463697   0.20085482   -3.3591623    1.6127926  1118814 
 4860000    1.3674918   -3.3580929   -1.7468942   0.19845581   -3.3580929    1.6111987  1118851 
 4861000    1.3692214   -3.3595749   -1.7464162   0.20406534   -3.3595749    1.6131587  1118905 
 4862000    1.3688123   -3.3598332   -1.7472184   0.20057509   -3.3598332    1.6126147  1118948 
 4863000    1.3679237   -3.3584504   -1.7469574   0.20070142   -3.3584504    1.6114929  1119000 
 4864000    1.3681931   -3.3590163   -1.7472938   0.20135452   -3.3590163    1.6117225  1119061 
 4865000    1.3685232   -3.3596958   -1.7476565   0.19699197   -3.3596958    1.6120393  1119111 
 4866000    1.3687989   -3.3597207   -1.7474114   0.20224913   -3.3597207    1.6123093  1119149 
 4867000    1.3692373   -3.3605985    -1.747852   0.19989007   -3.3605985    1.6127465  1119204 
 4868000    1.3682257   -3.3591579   -1.7476533   0.20228159   -3.3591579    1.6115046  1119239 
 4869000    1.3682283   -3.3591527   -1.7477085   0.20527813   -3.3591527    1.6114442  1119283 
 4870000     1.368878   -3.3592927   -1.7471466   0.20183221   -3.3592927    1.6121461  1119327 
 4871000     1.370077   -3.3605477   -1.7470515   0.20506057   -3.3605477    1.6134961  1119370 
 4872000    1.3694229    -3.360857   -1.7482219   0.20203814    -3.360857     1.612635  1119433 
 4873000    1.3682978   -3.3599856   -1.7487459   0.20534333   -3.3599856    1.6112397  1119482 
 4874000    1.3682209   -3.3606409   -1.7495594   0.20086439   -3.3606409    1.6110815  1119529 
 4875000    1.3685616   -3.3603884   -1.7489692   0.20253551   -3.3603884    1.6114193  1119573 
 4876000    1.3688012   -3.3604731   -1.7488336   0.20084784   -3.3604731    1.6116395  1119616 
 4877000    1.3682543   -3.3601674    -1.749248   0.20162882   -3.3601674    1.6109193  1119669 
 4878000     1.369332    -3.361514   -1.7493964   0.20575629    -3.361514    1.6121176  1119718 
 4879000    1.3685493   -3.3608518    -1.749719   0.20230933   -3.3608518    1.6111328  1119762 
 4880000    1.3692122   -3.3621544   -1.7503045   0.20343915   -3.3621544    1.6118499  1119806 
 4881000    1.3693214   -3.3624002   -1.7504866   0.19972521   -3.3624002    1.6119137  1119851 
 4882000    1.3688629   -3.3619542   -1.7506681   0.19983928   -3.3619542    1.6112861  1119912 
 4883000    1.3679034   -3.3609675   -1.7508884   0.19975644   -3.3609675    1.6100791  1119966 
 4884000    1.3692513   -3.3625001   -1.7509179   0.19972334   -3.3625001    1.6115822  1120024 
 4885000    1.3695455   -3.3627261   -1.7508437   0.19559768   -3.3627261    1.6118824  1120056 
 4886000    1.3685448   -3.3623241   -1.7516813   0.19676894   -3.3623241    1.6106428  1120099 
 4887000    1.3690949   -3.3625616   -1.7513361   0.19817651   -3.3625616    1.6112254  1120144 
 4888000    1.3680378   -3.3611475   -1.7512452   0.20307904   -3.3611475    1.6099024  1120199 
 4889000    1.3690602   -3.3615936   -1.7505456   0.20541224   -3.3615936     1.611048  1120239 
 4890000    1.3687257   -3.3621456   -1.7515602   0.19952258   -3.3621456    1.6105854  1120287 
 4891000    1.3690437   -3.3623259   -1.7514425   0.20240619   -3.3623259    1.6108833  1120340 
 4892000    1.3692344   -3.3631281   -1.7520837   0.20103692   -3.3631281    1.6110445  1120384 
 4893000     1.369048   -3.3626863   -1.7519229   0.19942249   -3.3626863    1.6107634  1120427 
 4894000    1.3676244   -3.3617383   -1.7527102    0.1996681   -3.3617383    1.6090281  1120469 
 4895000    1.3689567   -3.3628043    -1.752272   0.20416209   -3.3628043    1.6105323  1120513 
 4896000    1.3694906   -3.3632374    -1.752146   0.20014023   -3.3632374    1.6110914  1120561 
 4897000    1.3693312   -3.3639617   -1.7531254   0.20363363   -3.3639617    1.6108364  1120608 
 4898000    1.3690473   -3.3635626    -1.753135    0.2014613   -3.3635626    1.6104276  1120660 
 4899000    1.3694811   -3.3648215   -1.7539325    0.1978185   -3.3648215     1.610889  1120694 
 4900000    1.3697336   -3.3648017   -1.7536803   0.20616962   -3.3648017    1.6111214  1120739 
 4901000    1.3705102   -3.3650083   -1.7530367   0.20124259   -3.3650083    1.6119716  1120783 
 4902000    1.3692793   -3.3642727   -1.7538137   0.20381341   -3.3642727    1.6104591  1120828 
 4903000    1.3692816   -3.3641786   -1.7537815   0.20372416   -3.3641786    1.6103972  1120873 
 4904000    1.3705147    -3.365449   -1.7536692   0.20356955    -3.365449    1.6117798  1120920 
 4905000    1.3693576    -3.365311   -1.7549652   0.20618473    -3.365311    1.6103458  1120971 
 4906000    1.3696205   -3.3653858   -1.7547985   0.20313384   -3.3653858    1.6105873  1121018 
 4907000    1.3703101    -3.365184   -1.7538618   0.20240099    -3.365184    1.6113222  1121071 
 4908000    1.3698218   -3.3646121   -1.7539288   0.20264687   -3.3646121    1.6106833  1121116 
 4909000    1.3702667   -3.3647815   -1.7536298   0.20305222   -3.3647815    1.6111518  1121154 
 4910000    1.3695667   -3.3636031   -1.7533476   0.20471963   -3.3636031    1.6102555  1121205 
 4911000    1.3700017   -3.3645864   -1.7538941   0.20620572   -3.3645864    1.6106923  1121257 
 4912000    1.3702723   -3.3648216   -1.7538686   0.20749681   -3.3648216    1.6109529  1121297 
 4913000     1.369869    -3.365357   -1.7549386   0.20133162    -3.365357    1.6104184  1121339 
 4914000    1.3704168   -3.3656212   -1.7546033   0.19990346   -3.3656212    1.6110179  1121370 
 4915000    1.3707891   -3.3661256    -1.754752   0.20163747   -3.3661256    1.6113736  1121427 
 4916000    1.3697393   -3.3654242    -1.755342   0.20143917   -3.3654242    1.6100821  1121467 
 4917000    1.3691543   -3.3645164   -1.7551908   0.20349315   -3.3645164    1.6093257  1121515 
 4918000    1.3695418   -3.3648863   -1.7551869   0.20004795   -3.3648863    1.6096994  1121572 
 4919000    1.3692401   -3.3646374   -1.7553616    0.2024179   -3.3646374    1.6092758  1121620 
 4920000    1.3694365   -3.3641818   -1.7547425   0.20506592   -3.3641818    1.6094393  1121667 
 4921000    1.3709121   -3.3664505   -1.7553503   0.19865937   -3.3664505    1.6111002  1121718 
 4922000    1.3703694   -3.3661796   -1.7557775   0.20194238   -3.3661796    1.6104021  1121760 
 4923000    1.3711685   -3.3670744   -1.7558122   0.19654466   -3.3670744    1.6112622  1121815 
 4924000    1.3704908   -3.3665243   -1.7561332   0.19732862   -3.3665243    1.6103911  1121867 
 4925000     1.370668   -3.3664662   -1.7559199   0.19878083   -3.3664662    1.6105463  1121904 
 4926000    1.3707004   -3.3665571    -1.756046   0.20101259   -3.3665571    1.6105111  1121955 
 4927000    1.3704272   -3.3665292   -1.7563993   0.20172245   -3.3665292    1.6101299  1121997 
 4928000     1.369968   -3.3662631   -1.7567489   0.19830358   -3.3662631    1.6095143  1122050 
 4929000    1.3714117   -3.3677676   -1.7566289   0.20232795   -3.3677676    1.6111387  1122100 
 4930000    1.3713684   -3.3678248   -1.7568131   0.20284853   -3.3678248    1.6110117  1122153 
 4931000    1.3713142   -3.3674331   -1.7565568   0.20068452   -3.3674331    1.6108762  1122203 
 4932000    1.3700286   -3.3660865   -1.7567821   0.20496888   -3.3660865    1.6093044  1122246 
 4933000    1.3705275   -3.3672183   -1.7573881   0.20481284   -3.3672183    1.6098302  1122288 
 4934000    1.3703574   -3.3666593   -1.7570763   0.20363173   -3.3666593     1.609583  1122321 
 4935000    1.3702352   -3.3668934   -1.7575285   0.19941818   -3.3668934    1.6093649  1122373 
 4936000    1.3725039   -3.3695977   -1.7576442   0.20007767   -3.3695977    1.6119534  1122426 
 4937000    1.3710761   -3.3686503    -1.758444   0.19824033   -3.3686503    1.6102062  1122475 
 4938000    1.3714616   -3.3686714   -1.7580568   0.19965014   -3.3686714    1.6106145  1122506 
 4939000    1.3716883   -3.3691037    -1.758312   0.20426905   -3.3691037    1.6107918  1122568 
 4940000    1.3711857   -3.3684524   -1.7583154   0.20448935   -3.3684524     1.610137  1122613 
 4941000    1.3692438   -3.3673831   -1.7596008   0.20745401   -3.3673831    1.6077823  1122665 
 4942000    1.3696313   -3.3676839   -1.7595225   0.20314894   -3.3676839    1.6081614  1122718 
 4943000    1.3709453    -3.368684   -1.7590559   0.20507646    -3.368684    1.6096282  1122771 
 4944000    1.3708253   -3.3680973   -1.7586746   0.20382808   -3.3680973    1.6094228  1122816 
 4945000    1.3714596   -3.3680067   -1.7579095   0.20611914   -3.3680067    1.6100972  1122865 
 4946000    1.3714084   -3.3683962   -1.7584337    0.2026565   -3.3683962    1.6099625  1122917 
 4947000    1.3716034   -3.3686365   -1.7585153   0.20494758   -3.3686365    1.6101212  1122966 
 4948000    1.3714571   -3.3684069   -1.7585248   0.20421385   -3.3684069    1.6098821  1123013 
 4949000    1.3723752   -3.3698386   -1.7589649   0.19920877   -3.3698386    1.6108737  1123073 
 4950000    1.3708292   -3.3685115   -1.7595283   0.20153394   -3.3685115    1.6089832  1123126 
 4951000    1.3722097   -3.3695403   -1.7589913    0.2015813   -3.3695403     1.610549  1123164 
 4952000    1.3713911   -3.3689981   -1.7594643   0.20176547   -3.3689981    1.6095338  1123202 
 4953000    1.3710654   -3.3690649   -1.7599765   0.20319134   -3.3690649    1.6090884  1123246 
 4954000    1.3710275   -3.3690642   -1.7600746   0.20471783   -3.3690642    1.6089895  1123284 
 4955000    1.3718536   -3.3698694   -1.7599734   0.20300304   -3.3698694     1.609896  1123328 
 4956000    1.3716364   -3.3701716   -1.7605922   0.20196548   -3.3701716    1.6095794  1123371 
 4957000    1.3714141   -3.3707442    -1.761493   0.19828057   -3.3707442    1.6092513  1123418 
 4958000    1.3717906   -3.3702421   -1.7606164   0.19995426   -3.3702421    1.6096257  1123465 
 4959000    1.3716374   -3.3710479   -1.7616706   0.20374158   -3.3710479    1.6093772  1123513 
 4960000    1.3716324   -3.3713122   -1.7620025     0.203413   -3.3713122    1.6093098  1123556 
 4961000    1.3712524   -3.3701479   -1.7613513    0.2023383   -3.3701479    1.6087966  1123603 
 4962000    1.3724255   -3.3711285   -1.7610216   0.20474177   -3.3711285    1.6101069  1123649 
 4963000    1.3729322    -3.370695   -1.7600581   0.20472329    -3.370695    1.6106369  1123694 
 4964000    1.3732122   -3.3707835   -1.7598869   0.20436438   -3.3707835    1.6108966  1123742 
 4965000    1.3723556   -3.3706243   -1.7607985   0.20656661   -3.3706243    1.6098258  1123788 
 4966000    1.3730319   -3.3708724   -1.7603406   0.20431796   -3.3708724    1.6105318  1123849 
 4967000    1.3729471   -3.3708074   -1.7604497    0.2083276   -3.3708074    1.6103577  1123901 
 4968000    1.3720725   -3.3708168   -1.7615521   0.20497242   -3.3708168    1.6092647  1123948 
 4969000    1.3726665   -3.3716356   -1.7617358   0.20447811   -3.3716356    1.6098997  1123991 
 4970000    1.3727606   -3.3714523   -1.7614981   0.20377241   -3.3714523    1.6099542  1124030 
 4971000    1.3725609   -3.3717869   -1.7621327   0.20598267   -3.3717869    1.6096541  1124076 
 4972000    1.3725443   -3.3722753   -1.7627193   0.20509647   -3.3722753     1.609556  1124131 
 4973000    1.3725439   -3.3724002   -1.7629135   0.20441947   -3.3724002    1.6094867  1124179 
 4974000    1.3729293   -3.3728346   -1.7629604   0.19887061   -3.3728346    1.6098742  1124224 
 4975000    1.3721845   -3.3724052   -1.7634673   0.20108106   -3.3724052    1.6089379  1124268 
 4976000    1.3726133   -3.3724749   -1.7631029   0.20121687   -3.3724749     1.609372  1124316 
 4977000    1.3724037   -3.3722964   -1.7632346   0.20629968   -3.3722964    1.6090618  1124361 
 4978000    1.3722033   -3.3723387   -1.7635705   0.20263914   -3.3723387    1.6087682  1124402 
 4979000    1.3731915   -3.3733665   -1.7635198   0.20240231   -3.3733665    1.6098466  1124458 
 4980000     1.372277   -3.3728872    -1.764177   0.20115389   -3.3728872    1.6087102  1124503 
 4981000    1.3720967   -3.3727206   -1.7642762   0.20349911   -3.3727206    1.6084444  1124541 
 4982000     1.372733   -3.3731876   -1.7640704   0.20629677   -3.3731876    1.6091173  1124592 
 4983000    1.3726053   -3.3732893   -1.7643789   0.20152802   -3.3732893    1.6089104  1124632 
 4984000    1.3725739   -3.3727888   -1.7639667   0.19890252   -3.3727888    1.6088221  1124668 
 4985000    1.3730937   -3.3731359   -1.7637589   0.20560798   -3.3731359     1.609377  1124706 
 4986000    1.3743963   -3.3738307       -1.763   0.20367246   -3.3738307    1.6108307  1124757 
 4987000    1.3754569   -3.3751535   -1.7631628   0.19770966   -3.3751535    1.6119907  1124815 
 4988000    1.3738237   -3.3727436   -1.7627314   0.20541107   -3.3727436    1.6100122  1124860 
 4989000    1.3736231   -3.3729034   -1.7631751   0.20660067   -3.3729034    1.6097284  1124894 
 4990000     1.374055   -3.3741024   -1.7639422   0.20004287   -3.3741024    1.6101601  1124946 
 4991000    1.3730667    -3.373392   -1.7644314   0.20396071    -3.373392    1.6089605  1124975 
 4992000     1.373981   -3.3743684   -1.7643952   0.20358953   -3.3743684    1.6099732  1125016 
 4993000    1.3736387   -3.3740916   -1.7645896   0.20084739   -3.3740916     1.609502  1125065 
 4994000    1.3739522    -3.374478   -1.7646731   0.20372914    -3.374478     1.609805  1125110 
 4995000    1.3743223    -3.374299   -1.7641205   0.20432475    -3.374299    1.6101785  1125152 
 4996000    1.3734706   -3.3735718   -1.7644427   0.20813359   -3.3735718    1.6091291  1125188 
 4997000    1.3736011   -3.3735561   -1.7643427    0.2042588   -3.3735561    1.6092134  1125236 
 4998000    1.3756542   -3.3756959   -1.7641345   0.20350885   -3.3756959    1.6115614  1125276 
 4999000    1.3733167   -3.3732563   -1.7645119   0.20372164   -3.3732563    1.6087444  1125331 
 5000000    1.3728817   -3.3731694    -1.764976   0.20612675   -3.3731694    1.6081934  1125360 
 5001000    1.3727038   -3.3740854   -1.7661533   0.20403277   -3.3740854    1.6079321  1125397 
 5002000    1.3738032   -3.3745263   -1.7653779   0.20689566   -3.3745263    1.6091484  1125447 
 5003000    1.3746606   -3.3749456   -1.7648516   0.20425625   -3.3749456     1.610094  1125488 
 5004000    1.3753171   -3.3757794   -1.7649822   0.20397324   -3.3757794    1.6107972  1125534 
 5005000    1.3745774   -3.3754673   -1.7656052   0.20645734   -3.3754673    1.6098621  1125582 
 5006000    1.3735745   -3.3741228   -1.7655038   0.20341658   -3.3741228     1.608619  1125630 
 5007000    1.3746719   -3.3758936   -1.7660452   0.20404185   -3.3758936    1.6098484  1125669 
 5008000    1.3753822   -3.3766128   -1.7659956   0.20159605   -3.3766128    1.6106172  1125713 
 5009000    1.3754952   -3.3760484   -1.7653832   0.20411229   -3.3760484    1.6106651  1125772 
 5010000    1.3743296   -3.3754259   -1.7661828   0.20296655   -3.3754259    1.6092431  1125812 
 5011000    1.3743711   -3.3750656   -1.7658597   0.20598772   -3.3750656    1.6092059  1125872 
 5012000    1.3751243    -3.376192   -1.7661485   0.20444572    -3.376192    1.6100435  1125903 
 5013000    1.3749077   -3.3759791   -1.7662678   0.20524965   -3.3759791    1.6097113  1125958 
 5014000     1.374863   -3.3758487   -1.7662554   0.20499292   -3.3758487    1.6095932  1126004 
 5015000    1.3755995   -3.3765004   -1.7661108   0.20450938   -3.3765004    1.6103896  1126050 
 5016000    1.3744834   -3.3758841   -1.7668625    0.2041146   -3.3758841    1.6090216  1126093 
 5017000    1.3746828   -3.3766993   -1.7674901   0.20425417   -3.3766993    1.6092092  1126125 
 5018000    1.3745727   -3.3769798   -1.7679623   0.20103072   -3.3769798    1.6090175  1126169 
 5019000    1.3742948   -3.3768585   -1.7682177   0.20653953   -3.3768585    1.6086408  1126205 
 5020000    1.3743961   -3.3771369    -1.768459   0.19966484   -3.3771369    1.6086779  1126262 
 5021000    1.3740595   -3.3771652   -1.7689169   0.20450102   -3.3771652    1.6082483  1126287 
 5022000    1.3735654    -3.375806   -1.7681917   0.20480725    -3.375806    1.6076144  1126326 
 5023000    1.3741294    -3.376152   -1.7679461   0.20290093    -3.376152    1.6082058  1126374 
 5024000    1.3754773   -3.3772765   -1.7675445    0.2028654   -3.3772765     1.609732  1126410 
 5025000    1.3748558   -3.3768067   -1.7678763   0.20690924   -3.3768067    1.6089304  1126462 
 5026000    1.3751835   -3.3763913   -1.7671461   0.20494152   -3.3763913    1.6092453  1126510 
 5027000    1.3754702   -3.3773174   -1.7678138   0.20428995   -3.3773174    1.6095036  1126564 
 5028000    1.3740959   -3.3757017   -1.7678762   0.20643264   -3.3757017    1.6078255  1126613 
 5029000    1.3759709   -3.3780648   -1.7681154   0.19890244   -3.3780648    1.6099494  1126662 
 5030000    1.3757663   -3.3783364   -1.7686793   0.20240293   -3.3783364    1.6096571  1126699 
 5031000    1.3754724   -3.3772379   -1.7679903   0.20490773   -3.3772379    1.6092476  1126745 
 5032000     1.374551   -3.3762759   -1.7681777    0.2058125   -3.3762759    1.6080982  1126795 
 5033000    1.3748324   -3.3774227   -1.7690695    0.2035486   -3.3774227    1.6083532  1126847 
 5034000    1.3751108   -3.3780246   -1.7694256   0.20535526   -3.3780246    1.6085989  1126903 
 5035000    1.3754525   -3.3787314   -1.7697757   0.20368285   -3.3787314    1.6089558  1126933 
 5036000    1.3750291    -3.378494   -1.7700891   0.20404557    -3.378494    1.6084049  1126972 
 5037000    1.3760159    -3.379666   -1.7701539   0.20130548    -3.379666     1.609512  1127005 
 5038000    1.3762993   -3.3799305   -1.7701498    0.2013838   -3.3799305    1.6097807  1127049 
 5039000    1.3748896    -3.378598   -1.7705375   0.20502196    -3.378598    1.6080606  1127099 
 5040000    1.3757338    -3.379145   -1.7701656    0.2006514    -3.379145    1.6089794  1127147 
 5041000    1.3760419   -3.3796208   -1.7703468   0.20762058   -3.3796208     1.609274  1127193 
 5042000    1.3766992    -3.380498   -1.7705109   0.19903821    -3.380498    1.6099871  1127232 
 5043000    1.3757776   -3.3793547   -1.7705325    0.2071967   -3.3793547    1.6088222  1127293 
 5044000    1.3753029   -3.3794648   -1.7712648   0.20640183   -3.3794648       1.6082  1127340 
 5045000    1.3753125   -3.3786883   -1.7705469   0.20349913   -3.3786883    1.6081413  1127389 
 5046000    1.3753474    -3.378802   -1.7706841   0.20407535    -3.378802    1.6081179  1127434 
 5047000    1.3755458   -3.3796491   -1.7713705   0.20687223   -3.3796491    1.6082786  1127484 
 5048000    1.3757667    -3.380102   -1.7716492   0.20746662    -3.380102    1.6084528  1127543 
 5049000    1.3758883   -3.3799788   -1.7714267   0.20910809   -3.3799788    1.6085521  1127573 
 5050000    1.3759345   -3.3801638   -1.7716418   0.20558728   -3.3801638     1.608522  1127632 
 5051000    1.3763664   -3.3806783   -1.7717057   0.20210968   -3.3806783    1.6089726  1127670 
 5052000    1.3752032   -3.3796832   -1.7721402   0.20327259   -3.3796832     1.607543  1127719 
 5053000    1.3758214    -3.380682   -1.7724905   0.20116513    -3.380682    1.6081916  1127771 
 5054000    1.3752456    -3.380309   -1.7728433   0.20283677    -3.380309    1.6074657  1127808 
 5055000    1.3751936   -3.3801341   -1.7727832   0.20371429   -3.3801341    1.6073508  1127846 
 5056000    1.3765481   -3.3812634   -1.7723893   0.19984043   -3.3812634    1.6088741  1127888 
 5057000    1.3759474   -3.3803169   -1.7721963   0.20055303   -3.3803169    1.6081206  1127924 
 5058000    1.3756088   -3.3804165   -1.7727386   0.20391819   -3.3804165    1.6076779  1127957 
 5059000      1.37591   -3.3812014   -1.7732328   0.19915448   -3.3812014    1.6079686  1128000 
 5060000    1.3766242   -3.3817139   -1.7729678   0.19785011   -3.3817139    1.6087462  1128040 
 5061000    1.3757374   -3.3806139   -1.7729596   0.20563635   -3.3806139    1.6076543  1128079 
 5062000    1.3777876   -3.3827498   -1.7727654   0.20284146   -3.3827498    1.6099844  1128125 
 5063000    1.3769692   -3.3819682       -1.773   0.20628334   -3.3819682    1.6089683  1128167 
 5064000    1.3762145   -3.3810445   -1.7730109   0.20802243   -3.3810445    1.6080337  1128204 
 5065000     1.376262   -3.3807697    -1.772729   0.20571347   -3.3807697    1.6080407  1128238 
 5066000    1.3770561    -3.382203   -1.7733129   0.20494778    -3.382203    1.6088901  1128293 
 5067000    1.3763404   -3.3807473   -1.7727533   0.21063451   -3.3807473     1.607994  1128335 
 5068000    1.3768784   -3.3824559   -1.7738776   0.20407131   -3.3824559    1.6085784  1128366 
 5069000    1.3764063   -3.3821959   -1.7742247   0.20684866   -3.3821959    1.6079713  1128405 
 5070000    1.3763939   -3.3823641   -1.7744644   0.20344131   -3.3823641    1.6078997  1128445 
 5071000    1.3758637   -3.3819891   -1.7747743   0.20749127   -3.3819891    1.6072148  1128491 
 5072000    1.3769016   -3.3826359   -1.7742713   0.20341124   -3.3826359    1.6083646  1128535 
 5073000    1.3762668    -3.382377   -1.7748195   0.20502717    -3.382377    1.6075575  1128581 
 5074000    1.3767339   -3.3837715   -1.7757396   0.20089135   -3.3837715    1.6080319  1128631 
 5075000    1.3762749   -3.3835273   -1.7760799   0.20594697   -3.3835273    1.6074474  1128665 
 5076000    1.3763217   -3.3848824   -1.7774531   0.20050794   -3.3848824    1.6074293  1128716 
 5077000    1.3754884   -3.3833803   -1.7769839   0.20258333   -3.3833803    1.6063964  1128758 
 5078000    1.3754387   -3.3835349   -1.7772619   0.20612984   -3.3835349    1.6062729  1128804 
 5079000    1.3758538   -3.3833529   -1.7766522   0.20086171   -3.3833529    1.6067007  1128844 
 5080000    1.3777077   -3.3849328   -1.7761227   0.20092372   -3.3849328    1.6088101  1128883 
 5081000    1.3766269   -3.3832287   -1.7757476   0.20565678   -3.3832287    1.6074811  1128930 
 5082000    1.3771367   -3.3835794   -1.7755529   0.20502228   -3.3835794    1.6080265  1128965 
 5083000    1.3772422   -3.3838065   -1.7757009   0.20574032   -3.3838065    1.6081056  1128996 
 5084000    1.3779371    -3.385315   -1.7764579    0.2028861    -3.385315    1.6088571  1129038 
 5085000    1.3770624   -3.3837874   -1.7760228   0.20687703   -3.3837874    1.6077646  1129088 
 5086000    1.3765949   -3.3831883   -1.7760364   0.20965902   -3.3831883    1.6071519  1129135 
 5087000    1.3768063   -3.3834354   -1.7761008   0.20586744   -3.3834354    1.6073346  1129180 
 5088000    1.3782636   -3.3847792    -1.775796   0.20248191   -3.3847792    1.6089832  1129217 
 5089000    1.3769329   -3.3826323   -1.7752581   0.20816965   -3.3826323    1.6073742  1129256 
 5090000     1.378718   -3.3850002   -1.7755977   0.20637408   -3.3850002    1.6094025  1129295 
 5091000    1.3786048   -3.3853798   -1.7761694   0.20570925   -3.3853798    1.6092105  1129337 
 5092000    1.3779474   -3.3843538   -1.7759705    0.2070352   -3.3843538    1.6083834  1129379 
 5093000     1.377745   -3.3839758   -1.7758615   0.20386288   -3.3839758    1.6081143  1129402 
 5094000    1.3781712   -3.3831775   -1.7746299   0.20857944   -3.3831775    1.6085477  1129447 
 5095000    1.3773585   -3.3830738   -1.7755459   0.20777234   -3.3830738    1.6075279  1129497 
 5096000    1.3779697   -3.3841404   -1.7759503   0.20159257   -3.3841404    1.6081901  1129533 
 5097000    1.3788296   -3.3853931   -1.7762564   0.19802146   -3.3853931    1.6091366  1129573 
 5098000    1.3775024   -3.3838489   -1.7763337   0.20698693   -3.3838489    1.6075152  1129624 
 5099000    1.3785828   -3.3847787   -1.7760668   0.20577491   -3.3847787    1.6087118  1129669 
 5100000    1.3770804   -3.3836162   -1.7767088   0.20521043   -3.3836162    1.6069075  1129705 
 5101000    1.3771335   -3.3842131   -1.7772963   0.20337232   -3.3842131    1.6069169  1129742 
 5102000    1.3777533   -3.3845364   -1.7769675    0.2051756   -3.3845364    1.6075689  1129792 
 5103000    1.3777635   -3.3850586   -1.7775462   0.20568388   -3.3850586    1.6075125  1129840 
 5104000    1.3777434   -3.3851188   -1.7776881   0.20890033   -3.3851188    1.6074307  1129881 
 5105000    1.3787385   -3.3857778   -1.7772629   0.20270737   -3.3857778    1.6085149  1129935 
 5106000    1.3773748   -3.3847564   -1.7778895   0.20714382   -3.3847564    1.6068669  1129975 
 5107000    1.3783394   -3.3861499    -1.778223   0.20018593   -3.3861499    1.6079268  1130021 
 5108000    1.3783068   -3.3861454   -1.7783305   0.20379191   -3.3861454    1.6078149  1130073 
 5109000    1.3782773    -3.386017    -1.778295    0.2043798    -3.386017    1.6077221  1130114 
 5110000    1.3775857   -3.3856466   -1.7787896    0.2056546   -3.3856466     1.606857  1130155 
 5111000    1.3788507   -3.3865557   -1.7782914    0.2052925   -3.3865557    1.6082643  1130203 
 5112000     1.377946   -3.3860663   -1.7789028   0.20634801   -3.3860663    1.6071635  1130235 
 5113000    1.3791174     -3.38798   -1.7794886   0.20145524     -3.38798    1.6084914  1130262 
 5114000    1.3793578   -3.3878453   -1.7791248   0.20339449   -3.3878453    1.6087205  1130298 
 5115000     1.379772   -3.3880553   -1.7789115   0.20257886   -3.3880553    1.6091438  1130340 
 5116000    1.3795272   -3.3880406   -1.7792606   0.20399417   -3.3880406      1.60878  1130395 
 5117000    1.3785275    -3.387854   -1.7803052   0.20366531    -3.387854    1.6075488  1130441 
 5118000    1.3781119   -3.3873877   -1.7803776   0.20290965   -3.3873877    1.6070101  1130479 
 5119000    1.3778954   -3.3873602   -1.7806495   0.20542184   -3.3873602    1.6067108  1130512 
 5120000    1.3784304   -3.3879714    -1.780705   0.20263837   -3.3879714    1.6072664  1130560 
 5121000    1.3779489   -3.3875303   -1.7808993   0.20609668   -3.3875303    1.6066311  1130612 
 5122000    1.3782332   -3.3878174   -1.7809274   0.20294939   -3.3878174      1.60689  1130663 
 5123000    1.3777343   -3.3876701   -1.7814413   0.20273733   -3.3876701    1.6062288  1130719 
 5124000    1.3784915   -3.3880482    -1.781002   0.20605991   -3.3880482    1.6070462  1130765 
 5125000     1.380402    -3.389635    -1.780444   0.20261602    -3.389635    1.6091909  1130823 
 5126000    1.3786634   -3.3885817   -1.7814701   0.20112811   -3.3885817    1.6071116  1130860 
 5127000    1.3793533   -3.3893145   -1.7814542    0.1997247   -3.3893145    1.6078603  1130899 
 5128000    1.3777562   -3.3879957   -1.7820638   0.20454735   -3.3879957    1.6059319  1130946 
 5129000    1.3791074   -3.3887922   -1.7813436   0.20322322   -3.3887922    1.6074486  1130987 
 5130000    1.3787134   -3.3881218   -1.7811935   0.20498998   -3.3881218    1.6069283  1131030 
 5131000     1.378734   -3.3885972   -1.7816903   0.20358477   -3.3885972    1.6069068  1131062 
 5132000    1.3779374   -3.3871348   -1.7812032   0.20495079   -3.3871348    1.6059316  1131095 
 5133000    1.3784573   -3.3873224   -1.7808461   0.20800377   -3.3873224    1.6064764  1131138 
 5134000    1.3790281   -3.3882247   -1.7811626   0.20115405   -3.3882247     1.607062  1131194 
 5135000    1.3795903   -3.3882101   -1.7805553   0.20430206   -3.3882101    1.6076547  1131238 
 5136000    1.3797557   -3.3892029   -1.7814152   0.20149095   -3.3892029    1.6077878  1131280 
 5137000    1.3796892   -3.3897918   -1.7821326   0.20489991   -3.3897918    1.6076591  1131316 
 5138000    1.3808822   -3.3904203   -1.7814322   0.20196958   -3.3904203     1.608988  1131359 
 5139000    1.3794415   -3.3890428   -1.7818058   0.20732292   -3.3890428    1.6072369  1131410 
 5140000    1.3798794   -3.3893897   -1.7817293   0.20757746   -3.3893897    1.6076605  1131471 
 5141000    1.3796755   -3.3892956   -1.7819479   0.20959768   -3.3892956    1.6073476  1131524 
 5142000    1.3797455   -3.3897473   -1.7823863   0.20469556   -3.3897473     1.607361  1131572 
 5143000    1.3793686   -3.3891923   -1.7823328   0.20691328   -3.3891923    1.6068595  1131616 
 5144000    1.3804772   -3.3897157   -1.7816131   0.20759557   -3.3897157    1.6081026  1131650 
 5145000    1.3799855   -3.3899795   -1.7824994   0.20705554   -3.3899795    1.6074801  1131685 
 5146000    1.3807413   -3.3907121   -1.7824042    0.2075958   -3.3907121    1.6083079  1131722 
 5147000    1.3788578   -3.3885761   -1.7825203   0.20796686   -3.3885761    1.6060558  1131763 
 5148000    1.3793277   -3.3892239   -1.7826705   0.20963345   -3.3892239    1.6065534  1131798 
 5149000    1.3798156    -3.390591   -1.7835275   0.20678964    -3.390591    1.6070635  1131839 
 5150000    1.3804218   -3.3912037    -1.783501   0.20392545   -3.3912037    1.6077027  1131886 
 5151000     1.380639   -3.3914986   -1.7835955   0.20695061   -3.3914986    1.6079031  1131923 
 5152000    1.3795998    -3.390638   -1.7840048    0.2096773    -3.390638    1.6066332  1131965 
 5153000    1.3805133    -3.391351   -1.7837107   0.20562757    -3.391351    1.6076403  1132005 
 5154000    1.3803238   -3.3913777   -1.7840006   0.20822714   -3.3913777     1.607377  1132035 
 5155000    1.3800092   -3.3908602   -1.7838936   0.20517247   -3.3908602    1.6069667  1132066 
 5156000    1.3811269   -3.3919348   -1.7837206   0.20520163   -3.3919348    1.6082142  1132104 
 5157000    1.3802526   -3.3909999   -1.7838904   0.20110492   -3.3909999    1.6071095  1132165 
 5158000    1.3786497   -3.3899322   -1.7847514   0.20912388   -3.3899322    1.6051808  1132209 
 5159000    1.3801268   -3.3916094   -1.7847456   0.20613532   -3.3916094    1.6068637  1132235 
 5160000    1.3795809   -3.3906317   -1.7844788   0.20481857   -3.3906317    1.6061529  1132288 
 5161000    1.3804581   -3.3923392   -1.7852218   0.20464126   -3.3923392    1.6071174  1132328 
 5162000    1.3804142   -3.3926419   -1.7856281   0.20272724   -3.3926419    1.6070138  1132365 
 5163000    1.3807756   -3.3924376   -1.7850626   0.20756135   -3.3924376    1.6073749  1132407 
 5164000    1.3794634   -3.3908812   -1.7851076   0.20628248   -3.3908812    1.6057736  1132459 
 5165000    1.3795498   -3.3917453   -1.7859348   0.20711458   -3.3917453    1.6058104  1132504 
 5166000    1.3809962   -3.3926965    -1.785255   0.20396115   -3.3926965    1.6074415  1132541 
 5167000    1.3812917   -3.3931941   -1.7854711   0.20432168   -3.3931941     1.607723  1132585 
 5168000    1.3808422   -3.3931263   -1.7859818   0.20617597   -3.3931263    1.6071445  1132624 
 5169000    1.3810132   -3.3930653   -1.7857899   0.20433593   -3.3930653    1.6072754  1132672 
 5170000    1.3811622   -3.3938133   -1.7864057   0.20490952   -3.3938133    1.6074076  1132701 
 5171000    1.3807067    -3.393794   -1.7869789   0.20540192    -3.393794    1.6068151  1132745 
 5172000    1.3795511     -3.39313   -1.7877135   0.20275085     -3.39313    1.6054165  1132783 
 5173000    1.3809365   -3.3937705   -1.7867944   0.20208579   -3.3937705    1.6069761  1132820 
 5174000    1.3801067   -3.3933374    -1.787402    0.2053303   -3.3933374    1.6059354  1132873 
 5175000    1.3804994   -3.3928197   -1.7864798    0.2076602   -3.3928197    1.6063399  1132910 
 5176000    1.3812138   -3.3939764   -1.7868733    0.2037701   -3.3939764    1.6071031  1132958 
 5177000    1.3793373   -3.3928635   -1.7879891   0.20587989   -3.3928635    1.6048744  1132990 
 5178000    1.3810602   -3.3953398   -1.7885261   0.20525012   -3.3953398    1.6068137  1133036 
 5179000    1.3809229   -3.3947052   -1.7881079   0.20394101   -3.3947052    1.6065973  1133076 
 5180000    1.3816624    -3.394877   -1.7874677   0.20254212    -3.394877    1.6074093  1133110 
 5181000    1.3816392   -3.3944234   -1.7870948   0.21083699   -3.3944234    1.6073285  1133148 
 5182000    1.3820216   -3.3950779   -1.7873599   0.20795845   -3.3950779    1.6077179  1133187 
 5183000    1.3807748   -3.3936958   -1.7874878   0.20708291   -3.3936958     1.606208  1133229 
 5184000    1.3817972   -3.3954957   -1.7881579   0.20741008   -3.3954957    1.6073378  1133271 
 5185000    1.3812707   -3.3947008   -1.7880464   0.20695176   -3.3947008    1.6066544  1133321 
 5186000    1.3815766   -3.3953166   -1.7883602   0.20920407   -3.3953166    1.6069564  1133359 
 5187000    1.3801572   -3.3934611   -1.7882095   0.20875794   -3.3934611    1.6052516  1133397 
 5188000    1.3812255   -3.3943157   -1.7878669   0.20658828   -3.3943157    1.6064488  1133429 
 5189000    1.3805457   -3.3943304   -1.7887374   0.20734705   -3.3943304     1.605593  1133475 
 5190000    1.3813128   -3.3952586   -1.7888359   0.20194333   -3.3952586    1.6064228  1133519 
 5191000    1.3808352   -3.3947658    -1.788965   0.20790288   -3.3947658    1.6058008  1133566 
 5192000     1.381248   -3.3952326   -1.7890099   0.20695629   -3.3952326    1.6062228  1133607 
 5193000    1.3806928   -3.3951178   -1.7896143   0.20457167   -3.3951178    1.6055034  1133659 
 5194000    1.3803665   -3.3939912   -1.7889224   0.20844239   -3.3939912    1.6050688  1133698 
 5195000    1.3820506   -3.3956167    -1.788659   0.20804601   -3.3956167    1.6069576  1133747 
 5196000    1.3811728   -3.3951807   -1.7892976   0.20481093   -3.3951807    1.6058831  1133785 
 5197000    1.3826426   -3.3959406   -1.7884067   0.20495342   -3.3959406    1.6075339  1133826 
 5198000    1.3812389   -3.3945139   -1.7886714   0.20900698   -3.3945139    1.6058424  1133868 
 5199000    1.3809385   -3.3943769   -1.7889503   0.20688468   -3.3943769    1.6054266  1133915 
 5200000    1.3810973   -3.3946178   -1.7890476   0.20540949   -3.3946178    1.6055702  1133944 
 5201000    1.3814933   -3.3953449   -1.7893781   0.20569978   -3.3953449    1.6059668  1133989 
 5202000    1.3821142   -3.3956842   -1.7890565   0.20433655   -3.3956842    1.6066277  1134032 
 5203000    1.3821342   -3.3960131   -1.7894075   0.20670129   -3.3960131    1.6066056  1134064 
 5204000    1.3828557   -3.3966521   -1.7892645   0.20495212   -3.3966521    1.6073876  1134104 
 5205000    1.3827341   -3.3964821   -1.7892897   0.20712837   -3.3964821    1.6071924  1134142 
 5206000    1.3832274   -3.3964526   -1.7887535   0.20981705   -3.3964526    1.6076991  1134189 
 5207000    1.3825295   -3.3959133   -1.7890735   0.20650368   -3.3959133    1.6068398  1134223 
 5208000    1.3821166   -3.3959104   -1.7896015    0.2068651   -3.3959104    1.6063089  1134259 
 5209000    1.3837196   -3.3974813   -1.7893702   0.20442683   -3.3974813     1.608111  1134302 
 5210000    1.3833161   -3.3977552    -1.790184   0.20773671   -3.3977552    1.6075712  1134352 
 5211000    1.3818159   -3.3966894   -1.7909125    0.2055538   -3.3966894    1.6057769  1134388 
 5212000    1.3812558   -3.3961414    -1.791075   0.21030603   -3.3961414    1.6050665  1134430 
 5213000    1.3815715   -3.3970782   -1.7917042   0.20655792   -3.3970782     1.605374  1134472 
 5214000    1.3818742   -3.3972887   -1.7916281   0.20783359   -3.3972887    1.6056605  1134518 
 5215000    1.3818689   -3.3976126   -1.7920347   0.20426811   -3.3976126     1.605578  1134572 
 5216000    1.3834581   -3.3993092   -1.7919272   0.20370707   -3.3993092     1.607382  1134602 
 5217000    1.3828179   -3.3978995   -1.7913223   0.20417983   -3.3978995    1.6065773  1134645 
 5218000    1.3831115   -3.3980697    -1.791215   0.20707774   -3.3980697    1.6068547  1134690 
 5219000    1.3831413   -3.3983105   -1.7914736   0.20294599   -3.3983105    1.6068369  1134727 
 5220000    1.3820034   -3.3968894   -1.7914367   0.20951187   -3.3968894    1.6054527  1134771 
 5221000    1.3822566   -3.3973277   -1.7916431   0.20720811   -3.3973277    1.6056846  1134815 
 5222000    1.3830407   -3.3980795   -1.7915492   0.20447725   -3.3980795    1.6065303  1134861 
 5223000    1.3822105   -3.3974954   -1.7919874   0.20560668   -3.3974954    1.6055079  1134902 
 5224000    1.3824899   -3.3979605   -1.7922002   0.20777693   -3.3979605    1.6057603  1134953 
 5225000    1.3829584   -3.3983954    -1.792149   0.20799868   -3.3983954    1.6062464  1134994 
 5226000    1.3828789   -3.3984849   -1.7923846   0.20774978   -3.3984849    1.6061003  1135032 
 5227000    1.3830532   -3.3983689   -1.7921397   0.20532918   -3.3983689    1.6062292  1135084 
 5228000    1.3839855   -3.3995618   -1.7923079   0.20608641   -3.3995618    1.6072539  1135125 
 5229000    1.3830957   -3.3986861   -1.7925476   0.20704102   -3.3986861    1.6061384  1135183 
 5230000      1.38265   -3.3979393   -1.7923863   0.20753351   -3.3979393    1.6055529  1135231 
 5231000    1.3837813   -3.3990715   -1.7922827   0.20649854   -3.3990715    1.6067888  1135286 
 5232000     1.383681   -3.3992689   -1.7926447   0.20821402   -3.3992689    1.6066242  1135320 
 5233000    1.3832378    -3.399072   -1.7930217   0.20447045    -3.399072    1.6060503  1135362 
 5234000    1.3837966   -3.3994431   -1.7927908   0.20677485   -3.3994431    1.6066523  1135395 
 5235000    1.3832568   -3.3991198   -1.7931438    0.2078684   -3.3991198    1.6059761  1135430 
 5236000    1.3830332   -3.3990506   -1.7933836   0.20816683   -3.3990506     1.605667  1135465 
 5237000    1.3840905   -3.3995167   -1.7926887   0.20841202   -3.3995167     1.606828  1135512 
 5238000    1.3835294   -3.3996432   -1.7935289   0.20651222   -3.3996432    1.6061143  1135556 
 5239000     1.383552   -3.3996217   -1.7935249   0.20485934   -3.3996217    1.6060967  1135587 
 5240000    1.3823923   -3.3986787   -1.7939707   0.20553437   -3.3986787    1.6047081  1135617 
 5241000    1.3842862   -3.4007512   -1.7939111   0.20721738   -3.4007512      1.60684  1135664 
 5242000    1.3828497   -3.3992814   -1.7941766   0.20695241   -3.3992814    1.6051048  1135712 
 5243000    1.3837203   -3.4007503   -1.7947029   0.20827705   -3.4007503    1.6060475  1135760 
 5244000    1.3840228   -3.4007406   -1.7944071   0.20539813   -3.4007406    1.6063335  1135806 
 5245000     1.383692   -3.4011648   -1.7952832   0.20521015   -3.4011648    1.6058816  1135854 
 5246000    1.3843289   -3.4018613   -1.7952871   0.20775071   -3.4018613    1.6065742  1135887 
 5247000    1.3837541   -3.4010297   -1.7951877   0.20628451   -3.4010297     1.605842  1135933 
 5248000    1.3827009   -3.3996607    -1.795096   0.21118381   -3.3996607    1.6045647  1135972 
 5249000    1.3842255   -3.4011184   -1.7948396   0.20781541   -3.4011184    1.6062788  1136011 
 5250000    1.3846468   -3.4024233   -1.7957079   0.20461895   -3.4024233    1.6067154  1136048 
 5251000    1.3838185   -3.4014966   -1.7958088   0.20847845   -3.4014966    1.6056878  1136095 
 5252000    1.3820554   -3.4003377   -1.7967676   0.20744436   -3.4003377    1.6035701  1136146 
 5253000    1.3839419   -3.4017299   -1.7960105   0.20600767   -3.4017299    1.6057194  1136174 
 5254000    1.3833962   -3.4024016   -1.7973761   0.21072637   -3.4024016    1.6050254  1136217 
 5255000    1.3834479   -3.4022367   -1.7971951   0.20795161   -3.4022367    1.6050417  1136248 
 5256000     1.384705   -3.4038116   -1.7973695   0.20981791   -3.4038116    1.6064422  1136289 
 5257000    1.3829725   -3.4022842   -1.7979057   0.20883379   -3.4022842    1.6043785  1136327 
 5258000    1.3842814   -3.4034895    -1.797649   0.20308787   -3.4034895    1.6058404  1136367 
 5259000     1.383094   -3.4023984   -1.7979933   0.20953477   -3.4023984    1.6044051  1136408 
 5260000    1.3832716   -3.4031886   -1.7986354   0.20581302   -3.4031886    1.6045533  1136449 
 5261000    1.3836433    -3.403457    -1.798522   0.20683503    -3.403457     1.604935  1136484 
 5262000    1.3831911   -3.4027092   -1.7983623   0.20981307   -3.4027092     1.604347  1136529 
 5263000    1.3838006   -3.4042953   -1.7993078   0.20553725   -3.4042953    1.6049875  1136576 
 5264000    1.3829653   -3.4039066   -1.7999683   0.21079154   -3.4039066    1.6039383  1136633 
 5265000    1.3837363   -3.4047092   -1.7999404   0.20538868   -3.4047092    1.6047689  1136678 
 5266000    1.3844392    -3.404862   -1.7993443   0.20567318    -3.404862    1.6055178  1136725 
 5267000    1.3835296   -3.4038731   -1.7994582   0.20957488   -3.4038731    1.6044149  1136759 
 5268000    1.3834157   -3.4033371   -1.7991135   0.20678645   -3.4033371    1.6042236  1136801 
 5269000    1.3842843   -3.4045673   -1.7993902   0.20428487   -3.4045673    1.6051771  1136839 
 5270000      1.38379   -3.4039503   -1.7994071    0.2081375   -3.4039503    1.6045432  1136882 
 5271000     1.384398   -3.4042798   -1.7991022   0.20932695   -3.4042798    1.6051776  1136932 
 5272000    1.3848754   -3.4046964   -1.7990105   0.20840733   -3.4046964     1.605686  1136964 
 5273000    1.3845945    -3.403755   -1.7984512   0.20510381    -3.403755    1.6053038  1137004 
 5274000      1.38463   -3.4045009   -1.7992265   0.20845404   -3.4045009    1.6052744  1137054 
 5275000    1.3843798   -3.4044123   -1.7994901   0.20858108   -3.4044123    1.6049222  1137098 
 5276000    1.3842624   -3.4046805   -1.7999494   0.20540469   -3.4046805    1.6047311  1137137 
 5277000    1.3848603   -3.4048141   -1.7994351   0.20740842   -3.4048141     1.605379  1137169 
 5278000    1.3837483   -3.4039994   -1.7999432   0.20759454   -3.4039994    1.6040561  1137193 
 5279000      1.38468   -3.4046169   -1.7995358   0.21008197   -3.4046169    1.6050811  1137232 
 5280000     1.384584   -3.4050464   -1.8001218   0.20455253   -3.4050464    1.6049246  1137264 
 5281000     1.384769   -3.4055226     -1.80044   0.20830313   -3.4055226    1.6050826  1137304 
 5282000     1.384549   -3.4057308   -1.8009554   0.20455136   -3.4057308    1.6047754  1137341 
 5283000    1.3845285   -3.4050969    -1.800413   0.20678533   -3.4050969    1.6046839  1137389 
 5284000    1.3849152    -3.404633   -1.7995658   0.20854277    -3.404633    1.6050672  1137435 
 5285000    1.3853227    -3.405679   -1.8001691   0.20878759    -3.405679    1.6055099  1137456 
 5286000     1.384782   -3.4049012    -1.800073   0.20876348   -3.4049012    1.6048282  1137495 
 5287000    1.3841185   -3.4040163   -1.8000121    0.2095461   -3.4040163    1.6040042  1137534 
 5288000    1.3846886   -3.4046819   -1.8000705   0.21158854   -3.4046819    1.6046114  1137572 
 5289000    1.3862875   -3.4067781   -1.8003775   0.20580188   -3.4067781    1.6064006  1137617 
 5290000    1.3854685   -3.4058079   -1.8004114   0.20871896   -3.4058079    1.6053965  1137656 
 5291000    1.3859302   -3.4059122   -1.8000371   0.21301783   -3.4059122     1.605875  1137696 
 5292000    1.3858812   -3.4056964   -1.7999247    0.2084704   -3.4056964    1.6057717  1137729 
 5293000    1.3854344   -3.4049415   -1.7997482   0.21487888   -3.4049415    1.6051934  1137772 
 5294000    1.3865686   -3.4065393   -1.8000855   0.21218279   -3.4065393    1.6064538  1137810 
 5295000    1.3861867   -3.4062912   -1.8003504   0.21122816   -3.4062912    1.6059408  1137860 
 5296000    1.3859357   -3.4061316    -1.800538   0.20871434   -3.4061316    1.6055936  1137900 
 5297000    1.3860618   -3.4068118   -1.8011258   0.21057815   -3.4068118     1.605686  1137938 
 5298000    1.3865123   -3.4069356   -1.8008181   0.20951741   -3.4069356    1.6061175  1138002 
 5299000    1.3846718   -3.4051625   -1.8012502   0.20751394   -3.4051625    1.6039123  1138054 
 5300000    1.3856338   -3.4064142   -1.8014483   0.20594418   -3.4064142    1.6049659  1138097 
 5301000    1.3857702   -3.4065929   -1.8015198   0.20905637   -3.4065929    1.6050732  1138133 
 5302000    1.3865075    -3.407264    -1.801399    0.2073499    -3.407264     1.605865  1138177 
 5303000    1.3861666   -3.4081271   -1.8027245   0.20740574   -3.4081271    1.6054025  1138225 
 5304000     1.385703   -3.4077065    -1.802886   0.20727393   -3.4077065    1.6048205  1138257 
 5305000    1.3845374    -3.406943   -1.8035288     0.209541    -3.406943    1.6034143  1138297 
 5306000    1.3855092   -3.4075405   -1.8030572   0.20476177   -3.4075405    1.6044833  1138337 
 5307000    1.3857238   -3.4076156   -1.8029429   0.21087612   -3.4076156    1.6046726  1138379 
 5308000    1.3851177   -3.4071999    -1.803277   0.21142159   -3.4071999    1.6039228  1138413 
 5309000    1.3861224   -3.4087505   -1.8037249    0.2071223   -3.4087505    1.6050256  1138456 
 5310000    1.3863805   -3.4088281   -1.8035629   0.20562618   -3.4088281    1.6052652  1138498 
 5311000    1.3852631   -3.4075049   -1.8035659   0.20731942   -3.4075049     1.603939  1138521 
 5312000    1.3858233   -3.4085336   -1.8040009   0.20842961   -3.4085336    1.6045327  1138560 
 5313000     1.385582    -3.408411   -1.8042141   0.20726249    -3.408411    1.6041969  1138600 
 5314000    1.3853114   -3.4084949   -1.8046564   0.21095052   -3.4084949    1.6038385  1138632 
 5315000    1.3862405   -3.4089409   -1.8040887   0.20787071   -3.4089409    1.6048522  1138676 
 5316000    1.3862684   -3.4093605   -1.8045337   0.21029239   -3.4093605    1.6048267  1138717 
 5317000    1.3856729   -3.4087644    -1.804682   0.20736564   -3.4087644    1.6040824  1138756 
 5318000    1.3867081   -3.4098321   -1.8046049   0.20840543   -3.4098321    1.6052271  1138794 
 5319000    1.3859402   -3.4099631   -1.8056826   0.20519988   -3.4099631    1.6042805  1138835 
 5320000    1.3852855   -3.4093112   -1.8058547   0.20291445   -3.4093112    1.6034565  1138882 
 5321000    1.3850394   -3.4084681   -1.8053641   0.21319902   -3.4084681    1.6031041  1138930 
 5322000      1.38734   -3.4115023   -1.8057932   0.20451539   -3.4115023     1.605709  1138971 
 5323000    1.3859722   -3.4097965   -1.8057394   0.21019246   -3.4097965     1.604057  1139020 
 5324000     1.386373   -3.4102144   -1.8057316   0.20675603   -3.4102144    1.6044828  1139047 
 5325000    1.3869061   -3.4103983   -1.8053689   0.20775729   -3.4103983    1.6050294  1139097 
 5326000    1.3875883   -3.4104217   -1.8046564    0.2119801   -3.4104217    1.6057653  1139135 
 5327000    1.3867349   -3.4097084   -1.8049787   0.21120101   -3.4097084    1.6047297  1139169 
 5328000    1.3870585   -3.4100848   -1.8050524   0.21009747   -3.4100848    1.6050324  1139220 
 5329000     1.387665   -3.4111253   -1.8054461   0.20551362   -3.4111253    1.6056792  1139259 
 5330000     1.387499   -3.4106204   -1.8051853   0.20754898   -3.4106204     1.605435  1139296 
 5331000    1.3869383   -3.4105393    -1.805815   0.20589167   -3.4105393    1.6047243  1139340 
 5332000    1.3864446   -3.4097145   -1.8056261   0.21063565   -3.4097145    1.6040883  1139386 
 5333000    1.3872569   -3.4108106   -1.8058375   0.20660364   -3.4108106    1.6049731  1139425 
 5334000    1.3875517   -3.4102561   -1.8050067   0.20990582   -3.4102561    1.6052494  1139471 
 5335000    1.3873064    -3.410042   -1.8051398    0.2106565    -3.410042    1.6049022  1139516 
 5336000    1.3876315   -3.4110656   -1.8058409   0.20673744   -3.4110656    1.6052248  1139554 
 5337000     1.388517   -3.4117518    -1.805566   0.20968572   -3.4117518    1.6061858  1139599 
 5338000     1.388113   -3.4108011   -1.8051347    0.2107466   -3.4108011    1.6056663  1139636 
 5339000    1.3880051   -3.4111257   -1.8056434   0.20992262   -3.4111257    1.6054823  1139678 
 5340000     1.387196   -3.4100586   -1.8055657    0.2138221   -3.4100586    1.6044929  1139716 
 5341000    1.3886323   -3.4119731   -1.8058851   0.21203077   -3.4119731     1.606088  1139763 
 5342000    1.3889143   -3.4117434   -1.8053856   0.20639079   -3.4117434    1.6063578  1139803 
 5343000    1.3878354   -3.4109354   -1.8058917   0.21104151   -3.4109354    1.6050438  1139850 
 5344000    1.3874199   -3.4110111   -1.8065295   0.21193591   -3.4110111    1.6044816  1139908 
 5345000    1.3882175   -3.4112326   -1.8058892   0.21262012   -3.4112326    1.6053434  1139951 
 5346000     1.387985   -3.4110122   -1.8059713   0.20839268   -3.4110122    1.6050408  1139975 
 5347000     1.387428   -3.4111144   -1.8067656   0.20798695   -3.4111144    1.6043488  1140009 
 5348000    1.3876724   -3.4111637   -1.8065829   0.21090503   -3.4111637    1.6045807  1140045 
 5349000     1.387659   -3.4108081   -1.8063033   0.21334389   -3.4108081    1.6045048  1140088 
 5350000    1.3873319   -3.4105692   -1.8065017    0.2129096   -3.4105692    1.6040674  1140130 
 5351000    1.3886874   -3.4119161    -1.806332   0.21019454   -3.4119161    1.6055841  1140166 
 5352000    1.3883296   -3.4119413   -1.8068456   0.21061414   -3.4119413    1.6050957  1140219 
 5353000    1.3879485   -3.4109223   -1.8063221   0.21542133   -3.4109223    1.6046003  1140258 
 5354000    1.3893537   -3.4131161   -1.8069518   0.20995531   -3.4131161    1.6061642  1140301 
 5355000    1.3884182   -3.4121862   -1.8071626   0.21092529   -3.4121862    1.6050236  1140343 
 5356000    1.3878816   -3.4118392   -1.8074879   0.21173309   -3.4118392    1.6043513  1140380 
 5357000    1.3878646   -3.4123295   -1.8080569   0.21009845   -3.4123295    1.6042726  1140422 
 5358000    1.3886835   -3.4129317   -1.8077802   0.20928877   -3.4129317    1.6051515  1140470 
 5359000    1.3880297     -3.41227    -1.807946    0.2087148     -3.41227     1.604324  1140521 
 5360000     1.388298   -3.4133727    -1.808792   0.21126557   -3.4133727    1.6045807  1140559 
 5361000    1.3880495   -3.4129687   -1.8087314   0.20863672   -3.4129687    1.6042373  1140599 
 5362000    1.3871552   -3.4113655   -1.8082069   0.21324309   -3.4113655    1.6031587  1140631 
 5363000    1.3876165   -3.4122098   -1.8085742   0.21225119   -3.4122098    1.6036356  1140671 
 5364000    1.3876299   -3.4134259   -1.8098297    0.2106738   -3.4134259    1.6035962  1140710 
 5365000    1.3884262   -3.4141128   -1.8096442   0.20859957   -3.4141128    1.6044686  1140744 
 5366000    1.3901364   -3.4153185   -1.8089115   0.20522855   -3.4153185    1.6064069  1140771 
 5367000    1.3883406   -3.4130074   -1.8087389   0.21614623   -3.4130074    1.6042684  1140816 
 5368000    1.3907069   -3.4152048   -1.8082513   0.20634895   -3.4152048    1.6069535  1140851 
 5369000    1.3905268   -3.4147124   -1.8080289   0.20727749   -3.4147124    1.6066835  1140895 
 5370000    1.3901643   -3.4145381   -1.8083298   0.20941924   -3.4145381    1.6062082  1140935 
 5371000    1.3900336   -3.4142734   -1.8082738   0.21456169   -3.4142734    1.6059996  1140976 
 5372000    1.3898622    -3.413855   -1.8081196   0.21261961    -3.413855    1.6057354  1141023 
 5373000    1.3893805   -3.4138071   -1.8086973   0.21084155   -3.4138071    1.6051099  1141072 
 5374000    1.3891172   -3.4135971    -1.808842   0.21068246   -3.4135971    1.6047551  1141108 
 5375000     1.390072   -3.4145244   -1.8087211   0.21061958   -3.4145244    1.6058033  1141147 
 5376000    1.3885865   -3.4129171   -1.8088763   0.21420612   -3.4129171    1.6040408  1141180 
 5377000    1.3900132   -3.4147101   -1.8090718   0.21166897   -3.4147101    1.6056382  1141216 
 5378000     1.389558   -3.4150401   -1.8099967   0.20924016   -3.4150401    1.6050435  1141265 
 5379000     1.389488   -3.4150109   -1.8101087   0.20902051   -3.4150109    1.6049022  1141308 
 5380000    1.3899463   -3.4148996   -1.8095243   0.21259771   -3.4148996    1.6053753  1141348 
 5381000    1.3895178   -3.4145452   -1.8097296   0.21321661   -3.4145452    1.6048156  1141394 
 5382000    1.3892493   -3.4146675   -1.8102182   0.21103334   -3.4146675    1.6044494  1141434 
 5383000    1.3902671   -3.4162837   -1.8107095    0.2093539   -3.4162837    1.6055742  1141470 
 5384000    1.3894874    -3.415077   -1.8104511   0.20905442    -3.415077    1.6046259  1141504 
 5385000    1.3892384   -3.4154593   -1.8111687   0.20796895   -3.4154593    1.6042906  1141538 
 5386000    1.3892111   -3.4146945   -1.8104776   0.20855459   -3.4146945    1.6042169  1141568 
 5387000    1.3900936   -3.4166912   -1.8114987    0.2051003   -3.4166912    1.6051924  1141599 
 5388000     1.390074   -3.4160915   -1.8109822   0.20873987   -3.4160915    1.6051093  1141642 
 5389000    1.3905192   -3.4163748   -1.8108147   0.20935654   -3.4163748    1.6055601  1141687 
 5390000    1.3905334   -3.4165559   -1.8110259    0.2121451   -3.4165559    1.6055301  1141720 
 5391000    1.3899576   -3.4157497   -1.8109322   0.21208725   -3.4157497    1.6048175  1141754 
 5392000    1.3899781    -3.416859   -1.8120586   0.20961949    -3.416859    1.6048004  1141783 
 5393000     1.389768   -3.4165961   -1.8121043   0.21102602   -3.4165961    1.6044918  1141830 
 5394000    1.3893079   -3.4166019   -1.8126891   0.20845018   -3.4166019    1.6039128  1141864 
 5395000    1.3891328   -3.4167888   -1.8131188   0.20832481   -3.4167888      1.60367  1141893 
 5396000    1.3897209   -3.4177055   -1.8133973   0.20452001   -3.4177055    1.6043082  1141922 
 5397000    1.3893909   -3.4167595     -1.81289   0.20998625   -3.4167595    1.6038696  1141963 
 5398000    1.3904982   -3.4163902   -1.8112831   0.21155515   -3.4163902     1.605107  1141992 
 5399000    1.3902399   -3.4168033   -1.8120535   0.20704048   -3.4168033    1.6047498  1142034 
 5400000    1.3904454   -3.4170182   -1.8120845   0.21335122   -3.4170182    1.6049337  1142072 
 5401000    1.3890695   -3.4162409   -1.8129502   0.21073257   -3.4162409    1.6032907  1142111 
 5402000    1.3896924   -3.4167834   -1.8128284    0.2151325   -3.4167834     1.603955  1142150 
 5403000     1.390346   -3.4178292   -1.8131789   0.21498138   -3.4178292    1.6046503  1142192 
 5404000    1.3898334   -3.4173877   -1.8133865   0.21115398   -3.4173877    1.6040012  1142233 
 5405000    1.3898578   -3.4176261   -1.8136432   0.21326489   -3.4176261    1.6039829  1142266 
 5406000    1.3915055   -3.4190427   -1.8132172   0.20960422   -3.4190427    1.6058255  1142308 
 5407000    1.3914937   -3.4184132    -1.812666   0.21225654   -3.4184132    1.6057472  1142354 
 5408000    1.3918408   -3.4190474   -1.8129447   0.20864058   -3.4190474    1.6061027  1142386 
 5409000    1.3907067   -3.4180765   -1.8133457   0.21212739   -3.4180765    1.6047309  1142431 
 5410000     1.390538   -3.4172642   -1.8127744   0.21309197   -3.4172642    1.6044898  1142464 
 5411000    1.3912146   -3.4184842   -1.8132797   0.20932806   -3.4184842    1.6052045  1142511 
 5412000    1.3907788   -3.4175421   -1.8129065   0.21192454   -3.4175421    1.6046356  1142558 
 5413000    1.3907669   -3.4177376   -1.8131733   0.21116633   -3.4177376    1.6045643  1142599 
 5414000    1.3909471   -3.4186208   -1.8139061   0.20603764   -3.4186208    1.6047146  1142640 
 5415000    1.3902426   -3.4179932   -1.8141587   0.21237568   -3.4179932    1.6038345  1142688 
 5416000    1.3906132   -3.4186268   -1.8144209   0.21029654   -3.4186268    1.6042059  1142728 
 5417000    1.3901199   -3.4182934   -1.8147029   0.20859625   -3.4182934    1.6035905  1142761 
 5418000    1.3904211   -3.4184412   -1.8145663   0.21076177   -3.4184412    1.6038748  1142806 
 5419000    1.3895826   -3.4179897   -1.8151551   0.21212149   -3.4179897    1.6028346  1142858 
 5420000    1.3909501   -3.4193542   -1.8149899   0.20912234   -3.4193542    1.6043643  1142892 
 5421000    1.3907096   -3.4186917   -1.8146609   0.20908875   -3.4186917    1.6040308  1142932 
 5422000    1.3906047   -3.4180459   -1.8141782   0.21167595   -3.4180459    1.6038677  1142962 
 5423000    1.3919263   -3.4190413   -1.8136943   0.21005846   -3.4190413     1.605347  1142994 
 5424000    1.3913113   -3.4192825   -1.8146925   0.21257946   -3.4192825      1.60459  1143028 
 5425000    1.3919395   -3.4203401   -1.8150888   0.20396195   -3.4203401    1.6052512  1143073 
 5426000      1.39127   -3.4194045   -1.8149688   0.21132619   -3.4194045    1.6044357  1143104 
 5427000    1.3917683   -3.4198677   -1.8148968   0.20771131   -3.4198677     1.604971  1143132 
 5428000    1.3922116   -3.4203425   -1.8149109   0.21034038   -3.4203425    1.6054316  1143168 
 5429000    1.3912078    -3.419874   -1.8156742   0.21055312    -3.419874    1.6041998  1143221 
 5430000    1.3922813   -3.4206281   -1.8152467   0.21391628   -3.4206281    1.6053814  1143261 
 5431000    1.3920262   -3.4205658   -1.8155277   0.21171201   -3.4205658    1.6050381  1143296 
 5432000     1.391479   -3.4205542   -1.8162074   0.20991678   -3.4205542    1.6043468  1143339 
 5433000    1.3910535   -3.4201095   -1.8163121   0.21127338   -3.4201095    1.6037974  1143381 
 5434000     1.391989   -3.4206279   -1.8158152   0.21178494   -3.4206279    1.6048127  1143426 
 5435000    1.3922895   -3.4210384   -1.8159368   0.21238984   -3.4210384    1.6051016  1143467 
 5436000     1.391219     -3.42067   -1.8168768   0.21083221     -3.42067    1.6037932  1143520 
 5437000    1.3916665   -3.4210665    -1.816829   0.21109404   -3.4210665    1.6042375  1143571 
 5438000    1.3919282   -3.4213622   -1.8168917   0.21062014   -3.4213622    1.6044705  1143620 
 5439000    1.3904014   -3.4201565   -1.8174992   0.21186821   -3.4201565    1.6026572  1143658 
 5440000    1.3920847   -3.4219396   -1.8173814   0.21070529   -3.4219396    1.6045583  1143686 
 5441000    1.3901003   -3.4193602   -1.8171355   0.21443445   -3.4193602    1.6022247  1143719 
 5442000    1.3921615   -3.4215764   -1.8170125   0.21205938   -3.4215764    1.6045639  1143745 
 5443000    1.3927118   -3.4220101   -1.8168708    0.2119698   -3.4220101    1.6051393  1143787 
 5444000    1.3921269   -3.4212841    -1.816875   0.21560017   -3.4212841    1.6044091  1143827 
 5445000    1.3915088   -3.4204055   -1.8167536   0.21438791   -3.4204055    1.6036518  1143859 
 5446000     1.390576   -3.4200987   -1.8175821     0.214373   -3.4200987    1.6025166  1143902 
 5447000    1.3913587   -3.4210043   -1.8176404   0.21552805   -3.4210043    1.6033639  1143941 
 5448000    1.3921162    -3.421262   -1.8170757   0.21174535    -3.421262    1.6041863  1143977 
 5449000    1.3918943   -3.4210277    -1.817156   0.21407441   -3.4210277    1.6038718  1144019 
 5450000    1.3919006   -3.4213329   -1.8175057   0.21074741   -3.4213329    1.6038271  1144056 
 5451000    1.3919368   -3.4216311   -1.8178085   0.20903233   -3.4216311    1.6038227  1144089 
 5452000    1.3911545   -3.4210516   -1.8181752   0.21343489   -3.4210516    1.6028764  1144121 
 5453000    1.3917627   -3.4216806    -1.818151   0.20943089   -3.4216806    1.6035295  1144155 
 5454000    1.3923361   -3.4218119   -1.8176835   0.21343681   -3.4218119    1.6041284  1144199 
 5455000     1.391276   -3.4212278   -1.8183669   0.21236733   -3.4212278    1.6028609  1144232 
 5456000    1.3920251   -3.4227027   -1.8190293   0.21336294   -3.4227027    1.6036734  1144268 
 5457000    1.3922922   -3.4224433   -1.8185126   0.20725976   -3.4224433    1.6039307  1144304 
 5458000    1.3929965   -3.4225796   -1.8178936   0.21102938   -3.4225796     1.604686  1144344 
 5459000    1.3920227   -3.4222193    -1.818714   0.21197595   -3.4222193    1.6035053  1144386 
 5460000     1.393697   -3.4238066   -1.8184288   0.20877041   -3.4238066    1.6053779  1144426 
 5461000    1.3921076   -3.4218864   -1.8183996   0.21725907   -3.4218864    1.6034868  1144469 
 5462000    1.3924123   -3.4226794   -1.8188963   0.21581149   -3.4226794    1.6037832  1144508 
 5463000    1.3940312   -3.4244853   -1.8188908   0.20990489   -3.4244853    1.6055945  1144546 
 5464000    1.3932816   -3.4237663   -1.8190913   0.21370227   -3.4237663     1.604675  1144586 
 5465000    1.3929343   -3.4227528   -1.8185296   0.21103032   -3.4227528    1.6042232  1144623 
 5466000     1.392733   -3.4228232   -1.8188907   0.21240516   -3.4228232    1.6039325  1144665 
 5467000    1.3929547   -3.4236176    -1.819476   0.21146515   -3.4236176    1.6041416  1144698 
 5468000    1.3921402   -3.4233799   -1.8202393   0.21049848   -3.4233799    1.6031406  1144743 
 5469000    1.3933028    -3.424754   -1.8203181   0.21235192    -3.424754     1.604436  1144774 
 5470000    1.3924562    -3.423552   -1.8201372   0.21583658    -3.423552    1.6034148  1144807 
 5471000    1.3924494   -3.4241457   -1.8207919    0.2130375   -3.4241457    1.6033538  1144845 
 5472000     1.392934   -3.4254179   -1.8215622   0.20972104   -3.4254179    1.6038557  1144885 
 5473000     1.392393   -3.4249195   -1.8217343   0.20921566   -3.4249195    1.6031852  1144919 
 5474000    1.3931623   -3.4255059   -1.8214896    0.2082314   -3.4255059    1.6040164  1144958 
 5475000    1.3935825   -3.4261079   -1.8216625   0.20740412   -3.4261079    1.6044454  1144997 
 5476000    1.3924806   -3.4247943   -1.8216692   0.21262595   -3.4247943    1.6031251  1145034 
 5477000    1.3923563   -3.4245774   -1.8216627   0.21209586   -3.4245774    1.6029147  1145082 
 5478000    1.3932825   -3.4255561    -1.821641   0.21005333   -3.4255561    1.6039152  1145129 
 5479000    1.3922302   -3.4245354    -1.821882   0.21244595   -3.4245354    1.6026534  1145165 
 5480000    1.3936731   -3.4258854   -1.8216242   0.20911484   -3.4258854    1.6042612  1145203 
 5481000    1.3924581   -3.4254553   -1.8226431   0.21475608   -3.4254553    1.6028122  1145239 
 5482000    1.3937114   -3.4263724   -1.8221652   0.21009772   -3.4263724    1.6042072  1145273 
 5483000    1.3930815   -3.4250042   -1.8215725   0.21262857   -3.4250042    1.6034318  1145309 
 5484000    1.3936197   -3.4254119   -1.8213999   0.21444695   -3.4254119     1.604012  1145337 
 5485000    1.3937718    -3.426313    -1.822175   0.21296236    -3.426313     1.604138  1145372 
 5486000    1.3922089   -3.4249997   -1.8227136   0.21446801   -3.4249997    1.6022861  1145410 
 5487000    1.3925575   -3.4254285    -1.822793   0.21499614   -3.4254285    1.6026355  1145447 
 5488000     1.394132   -3.4269528   -1.8225627    0.2159536   -3.4269528    1.6043901  1145488 
 5489000     1.392418   -3.4247418   -1.8223913   0.21488704   -3.4247418    1.6023504  1145536 
 5490000    1.3925504    -3.425351   -1.8229139   0.21285749    -3.425351    1.6024371  1145583 
 5491000    1.3926945    -3.425357   -1.8228072    0.2131972    -3.425357    1.6025498  1145621 
 5492000    1.3932769   -3.4260997   -1.8229302   0.21452846   -3.4260997    1.6031695  1145657 
 5493000     1.392799   -3.4261213   -1.8235618   0.21282993   -3.4261213    1.6025595  1145700 
 5494000    1.3939067   -3.4273895   -1.8235974   0.21441003   -3.4273895     1.603792  1145730 
 5495000    1.3942169   -3.4266612   -1.8225612   0.21364405   -3.4266612    1.6040999  1145765 
 5496000    1.3934997   -3.4263627   -1.8231467   0.21406528   -3.4263627     1.603216  1145807 
 5497000    1.3937363   -3.4269959   -1.8235511   0.21472795   -3.4269959    1.6034448  1145838 
 5498000    1.3932669   -3.4260014   -1.8231624   0.21408468   -3.4260014     1.602839  1145885 
 5499000    1.3939079   -3.4267934   -1.8232716   0.21316435   -3.4267934    1.6035218  1145924 
 5500000    1.3936839   -3.4261114   -1.8228807   0.21627613   -3.4261114    1.6032307  1145948 
 5501000    1.3941967   -3.4266346   -1.8228631   0.21410218   -3.4266346    1.6037715  1145983 
 5502000    1.3948033   -3.4278036   -1.8233861   0.21261998   -3.4278036    1.6044176  1146020 
 5503000    1.3944574   -3.4278829   -1.8239136   0.20761222   -3.4278829    1.6039693  1146056 
 5504000    1.3948189   -3.4285466   -1.8242161   0.21040649   -3.4285466    1.6043305  1146095 
 5505000    1.3938943   -3.4286485   -1.8254249   0.21239787   -3.4286485    1.6032236  1146126 
 5506000    1.3929126   -3.4270646   -1.8250176   0.21231858   -3.4270646     1.602047  1146160 
 5507000    1.3946022   -3.4282925   -1.8243736   0.21157231   -3.4282925    1.6039189  1146211 
 5508000    1.3935339   -3.4270275   -1.8243988   0.21454377   -3.4270275    1.6026287  1146255 
 5509000    1.3930148    -3.426326   -1.8243334   0.21802295    -3.426326    1.6019926  1146283 
 5510000    1.3939757   -3.4270832   -1.8240499   0.21031264   -3.4270832    1.6030333  1146329 
 5511000    1.3943881   -3.4272576    -1.823792   0.21429447   -3.4272576    1.6034656  1146359 
 5512000    1.3954998   -3.4287113   -1.8240163   0.21116951   -3.4287113     1.604695  1146394 
 5513000    1.3933838   -3.4259841   -1.8237866   0.21586812   -3.4259841    1.6021975  1146440 
 5514000    1.3939981   -3.4273012   -1.8244673   0.21508044   -3.4273012    1.6028339  1146490 
 5515000    1.3948132   -3.4285834   -1.8248667   0.21157758   -3.4285834    1.6037167  1146529 
 5516000    1.3940014   -3.4280272    -1.825311   0.21374277   -3.4280272    1.6027162  1146577 
 5517000    1.3947264   -3.4287223   -1.8252229    0.2094684   -3.4287223    1.6034994  1146613 
 5518000      1.39429   -3.4279632   -1.8250173    0.2115178   -3.4279632    1.6029459  1146650 
 5519000    1.3941704   -3.4280701   -1.8253148    0.2137798   -3.4280701    1.6027553  1146688 
 5520000    1.3948188   -3.4288861   -1.8254301   0.21313048   -3.4288861     1.603456  1146720 
 5521000    1.3940288   -3.4282157    -1.825721   0.21399432   -3.4282157    1.6024947  1146758 
 5522000    1.3941366   -3.4292891   -1.8267321    0.2162335   -3.4292891    1.6025571  1146802 
 5523000    1.3942653   -3.4289918   -1.8263384   0.20961485   -3.4289918    1.6026534  1146839 
 5524000    1.3931172   -3.4275231   -1.8262286   0.21593432   -3.4275231    1.6012945  1146867 
 5525000    1.3949913    -3.430096   -1.8266948   0.21152605    -3.430096    1.6034012  1146901 
 5526000    1.3947563   -3.4293639   -1.8262678   0.21652454   -3.4293639    1.6030961  1146926 
 5527000    1.3946522   -3.4291566   -1.8262193   0.21454546   -3.4291566    1.6029373  1146954 
 5528000    1.3945125   -3.4299178   -1.8271899   0.20931301   -3.4299178    1.6027279  1146989 
 5529000    1.3952048   -3.4306798   -1.8272233   0.20864463   -3.4306798    1.6034564  1147037 
 5530000    1.3952871   -3.4306431   -1.8271578   0.20845272   -3.4306431    1.6034853  1147084 
 5531000    1.3944636   -3.4304817   -1.8279888   0.20980644   -3.4304817    1.6024929  1147117 
 5532000    1.3946341   -3.4298075   -1.8271732   0.21283698   -3.4298075    1.6026342  1147156 
 5533000    1.3948132   -3.4303127   -1.8275369   0.21261035   -3.4303127    1.6027758  1147202 
 5534000    1.3944845   -3.4304643   -1.8281096   0.21259225   -3.4304643    1.6023547  1147233 
 5535000    1.3955014   -3.4310312    -1.827561   0.21341254   -3.4310312    1.6034701  1147271 
 5536000    1.3959083   -3.4312843   -1.8273899   0.20921348   -3.4312843    1.6038944  1147302 
 5537000    1.3942403   -3.4301165   -1.8282001   0.21588735   -3.4301165    1.6019164  1147346 
 5538000    1.3951624   -3.4320878   -1.8291678   0.21037404   -3.4320878      1.60292  1147386 
 5539000    1.3952022   -3.4324658   -1.8295505   0.20899103   -3.4324658    1.6029154  1147422 
 5540000     1.394933   -3.4314937   -1.8289393    0.2123094   -3.4314937    1.6025545  1147459 
 5541000    1.3941257   -3.4305499   -1.8289718   0.21487369   -3.4305499    1.6015781  1147494 
 5542000    1.3947267   -3.4313487   -1.8291276     0.211525   -3.4313487    1.6022211  1147528 
 5543000    1.3953434   -3.4315598   -1.8286876   0.21275895   -3.4315598    1.6028723  1147569 
 5544000    1.3938888   -3.4307339    -1.829594    0.2157575   -3.4307339    1.6011399  1147613 
 5545000     1.394703   -3.4316392   -1.8296058    0.2088858   -3.4316392    1.6020334  1147643 
 5546000     1.394474   -3.4307783   -1.8290541   0.21345857   -3.4307783    1.6017242  1147676 
 5547000    1.3954904   -3.4309202   -1.8280871   0.21452801   -3.4309202    1.6028331  1147718 
 5548000    1.3953011   -3.4309467     -1.82838   0.21408039   -3.4309467    1.6025667  1147753 
 5549000    1.3952964   -3.4310862   -1.8285806   0.21390563   -3.4310862    1.6025056  1147793 
 5550000    1.3951398   -3.4309397   -1.8286672   0.21388305   -3.4309397    1.6022726  1147831 
 5551000    1.3959534   -3.4320744   -1.8289065   0.21666915   -3.4320744    1.6031679  1147859 
 5552000    1.3942965   -3.4309123   -1.8296974   0.21447197   -3.4309123    1.6012149  1147895 
 5553000    1.3950248   -3.4315583   -1.8295894   0.20852886   -3.4315583    1.6019689  1147954 
 5554000    1.3948384   -3.4320963   -1.8303945   0.21073382   -3.4320963    1.6017018  1147992 
 5555000    1.3954472   -3.4325466   -1.8302016   0.21683842   -3.4325466     1.602345  1148032 
 5556000    1.3943517   -3.4321927   -1.8311433   0.21008703   -3.4321927    1.6010495  1148059 
 5557000    1.3930543   -3.4313995   -1.8318872   0.21407218   -3.4313995    1.5995124  1148093 
 5558000    1.3949635    -3.433986     -1.83234   0.21047638    -3.433986     1.601646  1148135 
 5559000     1.394303   -3.4326689   -1.8318204   0.21178335   -3.4326689    1.6008485  1148163 
 5560000    1.3944412   -3.4328217   -1.8318591   0.21292378   -3.4328217    1.6009626  1148195 
 5561000    1.3956216   -3.4343528   -1.8320964   0.21128453   -3.4343528    1.6022564  1148239 
 5562000    1.3953944    -3.433938   -1.8320024   0.21356416    -3.433938    1.6019356  1148282 
 5563000    1.3947157   -3.4339177   -1.8327974    0.2104787   -3.4339177    1.6011202  1148308 
 5564000    1.3935005   -3.4331194   -1.8334626    0.2137259   -3.4331194    1.5996568  1148357 
 5565000    1.3952554   -3.4344277   -1.8328052   0.21344341   -3.4344277    1.6016225  1148392 
 5566000    1.3951913    -3.433822   -1.8323399   0.21726652    -3.433822    1.6014821  1148440 
 5567000    1.3954903   -3.4343358   -1.8325608   0.21484215   -3.4343358     1.601775  1148476 
 5568000    1.3960034   -3.4352714   -1.8329771    0.2107488   -3.4352714    1.6022942  1148526 
 5569000    1.3954309   -3.4340895   -1.8324956   0.21486733   -3.4340895    1.6015939  1148557 
 5570000    1.3952465    -3.433611   -1.8322929   0.21486857    -3.433611    1.6013182  1148603 
 5571000    1.3950234   -3.4337531   -1.8327482   0.21545655   -3.4337531    1.6010049  1148644 
 5572000    1.3937733   -3.4329067   -1.8333991    0.2144859   -3.4329067    1.5995076  1148689 
 5573000    1.3953724   -3.4347832    -1.833485   0.21079209   -3.4347832    1.6012982  1148721 
 5574000    1.3948039   -3.4343722   -1.8337753   0.21224933   -3.4343722    1.6005969  1148756 
 5575000    1.3960667   -3.4351533   -1.8331504   0.21566627   -3.4351533    1.6020029  1148787 
 5576000    1.3950126   -3.4341529   -1.8334015   0.21546274   -3.4341529    1.6007514  1148817 
 5577000    1.3946679   -3.4336463   -1.8333489   0.21651291   -3.4336463    1.6002974  1148859 
 5578000     1.395012   -3.4342771   -1.8336364   0.21329754   -3.4342771    1.6006406  1148896 
 5579000    1.3955006   -3.4352779   -1.8341087   0.21175585   -3.4352779    1.6011692  1148919 
 5580000    1.3960679   -3.4354734   -1.8337103   0.20875415   -3.4354734     1.601763  1148960 
 5581000    1.3955645   -3.4350862    -1.833951   0.21017639   -3.4350862    1.6011353  1148996 
 5582000    1.3958705   -3.4349262   -1.8334831   0.21225916   -3.4349262    1.6014431  1149027 
 5583000    1.3946439   -3.4341743   -1.8341801   0.21275457   -3.4341743    1.5999942  1149057 
 5584000    1.3965026   -3.4349119   -1.8328342   0.21049565   -3.4349119    1.6020777  1149092 
 5585000    1.3953563   -3.4339495   -1.8332272   0.21404369   -3.4339495    1.6007222  1149121 
 5586000    1.3963266   -3.4353789   -1.8336021   0.21163055   -3.4353789    1.6017768  1149163 
 5587000    1.3960269   -3.4355329   -1.8341542   0.21058938   -3.4355329    1.6013787  1149202 
 5588000    1.3961502   -3.4361077   -1.8346335   0.21256915   -3.4361077    1.6014742  1149235 
 5589000    1.3958973   -3.4356882   -1.8345585   0.21025555   -3.4356882    1.6011297  1149274 
 5590000    1.3949195    -3.434764   -1.8347976   0.21227294    -3.434764    1.5999663  1149304 
 5591000    1.3953618   -3.4350227   -1.8345951   0.21295748   -3.4350227    1.6004277  1149337 
 5592000    1.3965197   -3.4361233   -1.8344163   0.21065301   -3.4361233    1.6017071  1149372 
 5593000    1.3954007   -3.4353626    -1.835003   0.21721677   -3.4353626    1.6003595  1149418 
 5594000    1.3960648   -3.4361559    -1.835089   0.21473947   -3.4361559    1.6010669  1149457 
 5595000    1.3960261   -3.4364517   -1.8355003   0.21412381   -3.4364517    1.6009514  1149508 
 5596000    1.3972558   -3.4377359   -1.8354411   0.21115725   -3.4377359    1.6022948  1149556 
 5597000    1.3960511   -3.4369556   -1.8361049   0.21171322   -3.4369556    1.6008507  1149601 
 5598000    1.3964583   -3.4370948    -1.835819   0.21545731   -3.4370948    1.6012758  1149631 
 5599000    1.3979594   -3.4385924   -1.8356469   0.21221617   -3.4385924    1.6029454  1149668 
 5600000    1.3968211   -3.4369898   -1.8354012   0.21651321   -3.4369898    1.6015886  1149705 
 5601000    1.3977792   -3.4386352     -1.83598   0.21400294   -3.4386352    1.6026552  1149728 
 5602000    1.3974367   -3.4385415   -1.8363362   0.21372833   -3.4385415    1.6022053  1149769 
 5603000    1.3966132   -3.4376453   -1.8364454   0.21582624   -3.4376453    1.6011999  1149813 
 5604000    1.3969459   -3.4377773   -1.8362489   0.20998513   -3.4377773    1.6015285  1149851 
 5605000     1.395246   -3.4362368   -1.8367198   0.21377736   -3.4362368     1.599517  1149896 
 5606000    1.3963021   -3.4375104   -1.8368301   0.21069866   -3.4375104    1.6006803  1149930 
 5607000     1.396664   -3.4380001   -1.8369703   0.21104483   -3.4380001    1.6010298  1149977 
 5608000    1.3958292   -3.4375097   -1.8374898   0.21337439   -3.4375097    1.6000199  1150015 
 5609000     1.396675   -3.4376222   -1.8366981   0.21522095   -3.4376222     1.600924  1150062 
 5610000    1.3965165   -3.4383945    -1.837705   0.21212951   -3.4383945    1.6006895  1150100 
 5611000    1.3970962   -3.4386226    -1.837316   0.20923554   -3.4386226    1.6013066  1150134 
 5612000    1.3945305   -3.4361985   -1.8378896   0.21398689   -3.4361985    1.5983089  1150175 
 5613000     1.397246   -3.4391636   -1.8377994   0.20832538   -3.4391636    1.6013642  1150216 
 5614000    1.3974596    -3.438503   -1.8369469   0.21360533    -3.438503    1.6015561  1150254 
 5615000    1.3982703   -3.4393173   -1.8368865   0.20599258   -3.4393173    1.6024308  1150293 
 5616000      1.39692    -3.437652   -1.8368048   0.21252915    -3.437652    1.6008472  1150319 
 5617000    1.3976831   -3.4379626   -1.8363022   0.21588794   -3.4379626    1.6016604  1150363 
 5618000    1.3973347   -3.4376017   -1.8363921    0.2147293   -3.4376017    1.6012096  1150400 
 5619000     1.396357   -3.4375956   -1.8375633   0.21698967   -3.4375956    1.6000323  1150441 
 5620000    1.3970135   -3.4374305   -1.8367142   0.21581817   -3.4374305    1.6007164  1150490 
 5621000    1.3974617   -3.4383896   -1.8372098   0.21622812   -3.4383896    1.6011798  1150526 
 5622000    1.3988558   -3.4395487    -1.836812   0.21223994   -3.4395487    1.6027367  1150555 
 5623000    1.3974252    -3.438436   -1.8373885   0.21892473    -3.438436    1.6010475  1150591 
 5624000    1.3974363    -3.439444   -1.8384283   0.21662005    -3.439444    1.6010158  1150623 
 5625000     1.398555   -3.4406169   -1.8383654   0.21114628   -3.4406169    1.6022514  1150656 
 5626000    1.3971598   -3.4401937   -1.8396075   0.21213039   -3.4401937    1.6005862  1150704 
 5627000    1.3969114   -3.4396786   -1.8394311   0.21126003   -3.4396786    1.6002475  1150743 
 5628000     1.396636   -3.4399449   -1.8400506   0.21290429   -3.4399449    1.5998944  1150770 
 5629000    1.3960449   -3.4395542   -1.8403966   0.21339588   -3.4395542    1.5991576  1150813 
 5630000    1.3974096    -3.440523   -1.8398606   0.21337691    -3.440523    1.6006624  1150855 
 5631000    1.3980824   -3.4406707   -1.8392906   0.21447064   -3.4406707    1.6013801  1150893 
 5632000    1.3983273   -3.4404287   -1.8388153   0.21716099   -3.4404287    1.6016134  1150927 
 5633000    1.3986241   -3.4412022   -1.8392963   0.21361181   -3.4412022     1.601906  1150961 
 5634000    1.3975606   -3.4401176   -1.8394769   0.22071033   -3.4401176    1.6006407  1150995 
 5635000    1.3973532   -3.4395254   -1.8391738   0.21552559   -3.4395254    1.6003517  1151032 
 5636000     1.398991   -3.4409403   -1.8387922   0.21869124   -3.4409403     1.602148  1151089 
 5637000    1.3989255   -3.4405062   -1.8384917   0.21805529   -3.4405062    1.6020146  1151131 
 5638000    1.3979657   -3.4394527   -1.8385776   0.21651393   -3.4394527    1.6008751  1151160 
 5639000     1.397686   -3.4395781   -1.8390678   0.21550011   -3.4395781    1.6005103  1151192 
 5640000    1.3985149   -3.4408505    -1.839455   0.21480736   -3.4408505    1.6013955  1151238 
 5641000    1.3986371   -3.4417983   -1.8403129    0.2137096   -3.4417983    1.6014854  1151274 
 5642000    1.3974722   -3.4400173   -1.8399075   0.21741338   -3.4400173    1.6001098  1151304 
 5643000    1.3988128   -3.4417613    -1.840161   0.21500489   -3.4417613    1.6016003  1151336 
 5644000    1.3977735   -3.4402624   -1.8398937   0.21474234   -3.4402624    1.6003686  1151366 
 5645000     1.397757   -3.4407615   -1.8404673   0.21246394   -3.4407615    1.6002942  1151406 
 5646000    1.3990759   -3.4423693   -1.8406237    0.2085597   -3.4423693    1.6017457  1151448 
 5647000    1.3984805   -3.4418315   -1.8408133   0.21471333   -3.4418315    1.6010182  1151481 
 5648000     1.398801   -3.4419829   -1.8406437   0.21297667   -3.4419829    1.6013392  1151514 
 5649000    1.3995539   -3.4421389   -1.8399906   0.21027243   -3.4421389    1.6021483  1151552 
 5650000    1.3986455   -3.4408345   -1.8397734   0.21296911   -3.4408345     1.601061  1151586 
 5651000    1.3981096   -3.4408945    -1.840483   0.21184922   -3.4408945    1.6004115  1151612 
 5652000    1.3982044   -3.4404398   -1.8399838   0.21385627   -3.4404398    1.6004561  1151658 
 5653000    1.3991254   -3.4419297   -1.8404625   0.21267161   -3.4419297    1.6014672  1151689 
 5654000    1.3997063   -3.4417811   -1.8397019   0.21413119   -3.4417811    1.6020792  1151727 
 5655000    1.3992995   -3.4410991   -1.8395439   0.21848776   -3.4410991    1.6015552  1151769 
 5656000    1.3984704   -3.4403428   -1.8397837   0.21604463   -3.4403428    1.6005591  1151803 
 5657000    1.3995764   -3.4418586   -1.8400936   0.21472624   -3.4418586    1.6017651  1151846 
 5658000    1.3978901   -3.4402798   -1.8404933    0.2121456   -3.4402798    1.5997865  1151881 
 5659000    1.4006295   -3.4433392   -1.8404691   0.21626433   -3.4433392    1.6028701  1151918 
 5660000    1.3993835   -3.4424994   -1.8411136   0.20941438   -3.4424994    1.6013858  1151960 
 5661000    1.3989499   -3.4421025   -1.8412588   0.21747872   -3.4421025    1.6008437  1151993 
 5662000    1.3986151   -3.4423471    -1.841942   0.21568415   -3.4423471     1.600405  1152033 
 5663000    1.3988913   -3.4427194   -1.8420552   0.21804459   -3.4427194    1.6006642  1152074 
 5664000    1.3985859   -3.4431507    -1.842886    0.2138902   -3.4431507    1.6002647  1152110 
 5665000     1.399053   -3.4432043   -1.8424579   0.21713592   -3.4432043    1.6007464  1152148 
 5666000     1.399685   -3.4440139   -1.8425945    0.2110379   -3.4440139    1.6014194  1152184 
 5667000    1.3979921   -3.4420806   -1.8426592   0.21509859   -3.4420806    1.5994215  1152228 
 5668000    1.3997137   -3.4444479   -1.8431082   0.21476649   -3.4444479    1.6013397  1152265 
 5669000    1.3985964   -3.4426672   -1.8426586   0.21480387   -3.4426672    1.6000087  1152303 
 5670000    1.3990125   -3.4430967    -1.842669   0.21571731   -3.4430967    1.6004277  1152344 
 5671000    1.3999521   -3.4436612   -1.8422031   0.21227952   -3.4436612    1.6014581  1152376 
 5672000    1.4008426   -3.4445413   -1.8421215   0.21569189   -3.4445413    1.6024199  1152417 
 5673000    1.3989612   -3.4429213   -1.8426869   0.21739072   -3.4429213    1.6002344  1152441 
 5674000    1.3982651   -3.4425133   -1.8431196   0.21563605   -3.4425133    1.5993937  1152473 
 5675000    1.3991391   -3.4436339   -1.8432932   0.21427849   -3.4436339    1.6003406  1152511 
 5676000    1.3997133   -3.4445811   -1.8436337   0.21521539   -3.4445811    1.6009474  1152547 
 5677000    1.3995116   -3.4447162    -1.844055   0.21089101   -3.4447162    1.6006612  1152587 
 5678000    1.3993545   -3.4441226   -1.8437008   0.21135639   -3.4441226    1.6004217  1152630 
 5679000    1.3989714   -3.4444451   -1.8445017   0.21643578   -3.4444451    1.5999434  1152659 
 5680000    1.3980414   -3.4430739   -1.8442386   0.21355432   -3.4430739    1.5988354  1152691 
 5681000    1.3986512   -3.4447715   -1.8452844   0.20931871   -3.4447715     1.599487  1152724 
 5682000    1.3985795   -3.4441356   -1.8447971   0.21358626   -3.4441356    1.5993385  1152772 
 5683000     1.399784   -3.4454725   -1.8448109   0.21280336   -3.4454725    1.6006616  1152811 
 5684000    1.3997204   -3.4452228   -1.8446866   0.21447219   -3.4452228    1.6005362  1152849 
 5685000    1.3997146    -3.445118   -1.8446412   0.21693857    -3.445118    1.6004768  1152887 
 5686000    1.3991144   -3.4450248   -1.8452856   0.21662322   -3.4450248    1.5997392  1152924 
 5687000    1.4001472   -3.4455806   -1.8447091    0.2139873   -3.4455806    1.6008715  1152959 
 5688000    1.3986429   -3.4438786   -1.8447702   0.21439984   -3.4438786    1.5991085  1152990 
 5689000    1.4001655   -3.4461288    -1.845342   0.21308865   -3.4461288    1.6007868  1153035 
 5690000     1.400401   -3.4459656   -1.8449594   0.21452056   -3.4459656    1.6010061  1153071 
 5691000    1.3995743   -3.4453806   -1.8453613   0.21731116   -3.4453806    1.6000193  1153101 
 5692000    1.4002022   -3.4464566   -1.8457527   0.21359469   -3.4464566    1.6007039  1153125 
 5693000    1.3989228   -3.4461394   -1.8469578   0.21645061   -3.4461394    1.5991816  1153168 
 5694000    1.3988778   -3.4457951   -1.8466968   0.21689871   -3.4457951    1.5990983  1153191 
 5695000    1.3990199   -3.4470178   -1.8477973   0.21590393   -3.4470178    1.5992205  1153220 
 5696000    1.3994498   -3.4467822   -1.8471286    0.2150498   -3.4467822    1.5996536  1153262 
 5697000    1.3987806   -3.4455632    -1.846723   0.21479387   -3.4455632    1.5988402  1153297 
 5698000    1.3981416   -3.4453127   -1.8472555   0.21553327   -3.4453127    1.5980572  1153335 
 5699000    1.3996032   -3.4474471    -1.847772   0.21082696   -3.4474471    1.5996751  1153373 
 5700000    1.3980798   -3.4461313   -1.8482389   0.22022241   -3.4461313    1.5978923  1153403 
 5701000    1.3983349   -3.4465691   -1.8484184   0.21302967   -3.4465691    1.5981507  1153427 
 5702000    1.3991188   -3.4473732   -1.8483697   0.21577524   -3.4473732    1.5990035  1153458 
 5703000    1.3992255   -3.4474953   -1.8484225   0.20945325   -3.4474953    1.5990728  1153496 
 5704000    1.3994365   -3.4469328   -1.8476701   0.21556129   -3.4469328    1.5992627  1153533 
 5705000     1.399256   -3.4470623   -1.8480641    0.2126941   -3.4470623    1.5989981  1153575 
 5706000    1.4001411   -3.4482457   -1.8482749   0.21202818   -3.4482457    1.5999708  1153603 
 5707000    1.3992521   -3.4475688   -1.8486569   0.21145367   -3.4475688    1.5989119  1153634 
 5708000    1.3992599   -3.4475023   -1.8486451   0.21583141   -3.4475023    1.5988571  1153680 
 5709000    1.4011462   -3.4494721   -1.8485123   0.21207166   -3.4494721    1.6009598  1153718 
 5710000    1.3989208   -3.4463731   -1.8480142   0.21616428   -3.4463731    1.5983588  1153760 
 5711000    1.3990096    -3.446538   -1.8481332   0.21594833    -3.446538    1.5984049  1153800 
 5712000    1.3992796   -3.4470714   -1.8484066   0.21672956   -3.4470714    1.5986648  1153835 
 5713000    1.4010292    -3.448419   -1.8478163     0.213388    -3.448419    1.6006027  1153879 
 5714000    1.4012783   -3.4487126    -1.847878   0.21922709   -3.4487126    1.6008346  1153917 
 5715000    1.4011543    -3.448933    -1.848272   0.21420895    -3.448933     1.600661  1153940 
 5716000    1.4008839   -3.4486135   -1.8483168   0.21562795   -3.4486135    1.6002966  1153980 
 5717000    1.3988583   -3.4456571    -1.847727   0.22083815   -3.4456571    1.5979301  1154018 
 5718000    1.4006245   -3.4479367   -1.8480432   0.21560443   -3.4479367    1.5998935  1154057 
 5719000    1.4009187   -3.4483364   -1.8481663   0.21639671   -3.4483364      1.60017  1154100 
 5720000    1.4016024   -3.4490568   -1.8481531   0.21441573   -3.4490568    1.6009037  1154134 
 5721000    1.4013012   -3.4483918   -1.8478695   0.21719833   -3.4483918    1.6005223  1154161 
 5722000    1.4015096   -3.4487538   -1.8480407   0.21371279   -3.4487538    1.6007131  1154195 
 5723000    1.4015108   -3.4484228   -1.8477734   0.21546331   -3.4484228    1.6006493  1154242 
 5724000    1.4002888   -3.4479555   -1.8487405   0.21837244   -3.4479555     1.599215  1154270 
 5725000    1.4007955   -3.4488355   -1.8490779    0.2135515   -3.4488355    1.5997576  1154296 
 5726000    1.3992187   -3.4477886   -1.8498872   0.21953526   -3.4477886    1.5979014  1154336 
 5727000    1.3990933   -3.4480227   -1.8503157   0.21786241   -3.4480227     1.597707  1154373 
 5728000    1.3998093   -3.4483521   -1.8498787   0.21681599   -3.4483521    1.5984734  1154410 
 5729000    1.4014041   -3.4500252    -1.849775    0.2113035   -3.4500252    1.6002502  1154442 
 5730000    1.4009668   -3.4495697   -1.8498576   0.21766112   -3.4495697    1.5997121  1154470 
 5731000    1.4012236   -3.4498196   -1.8498711   0.21676982   -3.4498196    1.5999485  1154511 
 5732000    1.4013457   -3.4502196   -1.8501719   0.21004709   -3.4502196    1.6000477  1154540 
 5733000    1.4012068   -3.4498242   -1.8499821   0.21409858   -3.4498242     1.599842  1154574 
 5734000    1.4002752    -3.449245   -1.8505138   0.21540304    -3.449245    1.5987312  1154608 
 5735000    1.4012771   -3.4504017   -1.8505792   0.21883574   -3.4504017    1.5998225  1154646 
 5736000     1.400793   -3.4502489   -1.8510276   0.21459946   -3.4502489    1.5992214  1154681 
 5737000    1.4008862   -3.4505376   -1.8512542   0.21274617   -3.4505376    1.5992834  1154713 
 5738000    1.4009786   -3.4504627   -1.8511376    0.2176996   -3.4504627    1.5993252  1154759 
 5739000     1.401615   -3.4510005   -1.8509946   0.21548016   -3.4510005     1.600006  1154792 
 5740000     1.402775   -3.4519499   -1.8506572   0.21301218   -3.4519499    1.6012926  1154819 
 5741000    1.4014532   -3.4508026   -1.8510617   0.21596962   -3.4508026    1.5997408  1154850 
 5742000     1.400932   -3.4505567   -1.8514593   0.21675381   -3.4505567    1.5990975  1154885 
 5743000     1.400452   -3.4500035   -1.8515023   0.21532833   -3.4500035    1.5985012  1154920 
 5744000    1.4007229   -3.4514959   -1.8527298   0.21491842   -3.4514959    1.5987661  1154952 
 5745000    1.4005516   -3.4505738   -1.8520392   0.21609618   -3.4505738    1.5985346  1154978 
 5746000    1.4018436   -3.4525746   -1.8526153   0.21541219   -3.4525746    1.5999593  1155014 
 5747000    1.4002264   -3.4510557   -1.8529823    0.2126669   -3.4510557    1.5980734  1155043 
 5748000    1.4002657    -3.451832   -1.8537538   0.21066659    -3.451832    1.5980782  1155072 
 5749000    1.4003074   -3.4520322   -1.8539701   0.21004702   -3.4520322    1.5980621  1155118 
 5750000    1.3994157   -3.4509397   -1.8539561   0.21364492   -3.4509397    1.5969836  1155162 
 5751000    1.4012852   -3.4530551   -1.8540031   0.21243563   -3.4530551     1.599052  1155209 
 5752000    1.4012311    -3.453131   -1.8542113   0.21074877    -3.453131    1.5989197  1155260 
 5753000     1.400262   -3.4522952   -1.8545269     0.214803   -3.4522952    1.5977683  1155293 
 5754000    1.3996202   -3.4521197   -1.8551446   0.21325039   -3.4521197    1.5969751  1155337 
 5755000    1.3998411   -3.4521465   -1.8549663   0.21537448   -3.4521465    1.5971802  1155371 
 5756000    1.3999374   -3.4519835   -1.8547363   0.21370875   -3.4519835    1.5972472  1155402 
 5757000    1.4004425   -3.4526683   -1.8548961   0.21565015   -3.4526683    1.5977722  1155439 
 5758000    1.4003719   -3.4524075   -1.8547461   0.21251687   -3.4524075    1.5976614  1155461 
 5759000    1.4011033   -3.4534062   -1.8549533   0.21470179   -3.4534062    1.5984529  1155492 
 5760000    1.4002851   -3.4531127   -1.8556362   0.21778072   -3.4531127    1.5974765  1155523 
 5761000     1.400739   -3.4536596   -1.8557275   0.21547114   -3.4536596    1.5979321  1155568 
 5762000    1.3991466    -3.452413   -1.8563416   0.22021411    -3.452413    1.5960714  1155600 
 5763000     1.400396   -3.4540262   -1.8565806   0.21566095   -3.4540262    1.5974455  1155637 
 5764000    1.3999282   -3.4539163   -1.8570625    0.2193056   -3.4539163    1.5968538  1155679 
 5765000    1.3999145   -3.4542055   -1.8574157   0.21380942   -3.4542055    1.5967898  1155714 
 5766000    1.4013255   -3.4545726   -1.8562273   0.21563336   -3.4545726    1.5983453  1155753 
 5767000    1.3999832   -3.4537302    -1.856985   0.21578968   -3.4537302    1.5967452  1155803 
 5768000    1.4016269   -3.4550908   -1.8565068   0.21595296   -3.4550908     1.598584  1155829 
 5769000    1.4013979   -3.4554248   -1.8571338   0.21369857   -3.4554248     1.598291  1155852 
 5770000    1.4006492   -3.4547645   -1.8573827   0.21037769   -3.4547645    1.5973818  1155892 
 5771000    1.4022617   -3.4562594   -1.8570968   0.21342069   -3.4562594    1.5991627  1155934 
 5772000    1.4007381   -3.4538825   -1.8564918   0.21862883   -3.4538825    1.5973907  1155959 
 5773000    1.4012281    -3.454552   -1.8566538   0.21774294    -3.454552    1.5978983  1155996 
 5774000    1.4024239   -3.4561793   -1.8569727   0.21620285   -3.4561793    1.5992066  1156036 
 5775000     1.401991   -3.4551692   -1.8565102   0.21706219   -3.4551692     1.598659  1156075 
 5776000     1.401661     -3.45533   -1.8570928   0.21406518     -3.45533    1.5982372  1156108 
 5777000    1.4009382   -3.4547364   -1.8573815    0.2153321   -3.4547364    1.5973549  1156150 
 5778000    1.4011563   -3.4547943   -1.8572308   0.21437106   -3.4547943    1.5975635  1156179 
 5779000      1.40075   -3.4540371   -1.8569908   0.21505812   -3.4540371    1.5970463  1156218 
 5780000    1.4017154   -3.4553256   -1.8572269     0.217516   -3.4553256    1.5980986  1156253 
 5781000    1.4008178   -3.4543571   -1.8573218   0.21534173   -3.4543571    1.5970353  1156282 
 5782000    1.4010533   -3.4551741   -1.8579132   0.21529616   -3.4551741    1.5972609  1156313 
 5783000    1.4006244   -3.4544122   -1.8576954   0.21406012   -3.4544122    1.5967168  1156353 
 5784000    1.4005834    -3.454368   -1.8577352   0.21524598    -3.454368    1.5966328  1156380 
 5785000    1.4015049   -3.4550984   -1.8574745   0.21320205   -3.4550984    1.5976238  1156423 
 5786000     1.401556    -3.456181   -1.8585487   0.20897437    -3.456181    1.5976324  1156459 
 5787000    1.4000514   -3.4548499   -1.8589865    0.2118294   -3.4548499    1.5958634  1156498 
 5788000    1.4010712   -3.4553001   -1.8583308   0.21618474   -3.4553001    1.5969693  1156539 
 5789000    1.4018575   -3.4567465   -1.8589155    0.2113099   -3.4567465     1.597831  1156564 
 5790000    1.4021026    -3.457271   -1.8592257   0.21224093    -3.457271    1.5980453  1156611 
 5791000    1.4011192   -3.4562409   -1.8593648   0.21475545   -3.4562409    1.5968762  1156646 
 5792000    1.4016496   -3.4567368   -1.8592962   0.21203998   -3.4567368    1.5974406  1156675 
 5793000    1.4015158   -3.4560987   -1.8588617   0.21699369   -3.4560987     1.597237  1156712 
 5794000     1.400344   -3.4556401   -1.8597881   0.21988925   -3.4556401     1.595852  1156748 
 5795000    1.4005168   -3.4555344   -1.8595421   0.22110084   -3.4555344    1.5959923  1156789 
 5796000    1.4024603   -3.4572672    -1.859096   0.21660435   -3.4572672    1.5981711  1156815 
 5797000    1.4015705   -3.4562404   -1.8591246   0.22040146   -3.4562404    1.5971158  1156845 
 5798000    1.4025966   -3.4578553   -1.8596132   0.21541002   -3.4578553    1.5982422  1156876 
 5799000     1.402441   -3.4579566   -1.8599469   0.21319367   -3.4579566    1.5980097  1156916 
 5800000    1.4029834   -3.4583083   -1.8597455   0.21234579   -3.4583083    1.5985627  1156963 
 5801000    1.4019996   -3.4568928   -1.8594869   0.21948509   -3.4568928    1.5974059  1156989 
 5802000    1.4014811     -3.45679     -1.86003   0.21260078     -3.45679      1.59676  1157029 
 5803000    1.4015942   -3.4574113   -1.8605737   0.21524721   -3.4574113    1.5968377  1157066 
 5804000    1.4023915   -3.4583435   -1.8606444   0.21529915   -3.4583435    1.5976992  1157100 
 5805000    1.4022213   -3.4577331   -1.8602845   0.21890816   -3.4577331    1.5974486  1157141 
 5806000    1.4016884   -3.4572883   -1.8605033   0.21822347   -3.4572883     1.596785  1157182 
 5807000    1.4024786    -3.457899    -1.860269   0.21924674    -3.457899      1.59763  1157222 
 5808000    1.4022515   -3.4573717   -1.8600627    0.2137728   -3.4573717    1.5973091  1157267 
 5809000    1.4023531   -3.4577358   -1.8603496   0.21292276   -3.4577358    1.5973862  1157295 
 5810000    1.4027892   -3.4587949     -1.86097   0.21655972   -3.4587949    1.5978249  1157337 
 5811000     1.401947   -3.4577688   -1.8609334   0.21584831   -3.4577688    1.5968353  1157359 
 5812000    1.4009069    -3.456831   -1.8612258   0.21618652    -3.456831    1.5956052  1157392 
 5813000    1.4023299   -3.4588288   -1.8616651   0.21291829   -3.4588288    1.5971638  1157437 
 5814000    1.4022276   -3.4582901   -1.8613131   0.21236032   -3.4582901     1.596977  1157488 
 5815000    1.4013008   -3.4576171   -1.8617426   0.21160817   -3.4576171    1.5958745  1157522 
 5816000    1.4032423   -3.4592429   -1.8611946   0.21235711   -3.4592429    1.5980483  1157549 
 5817000    1.4017906   -3.4585655   -1.8622296   0.21236493   -3.4585655    1.5963358  1157592 
 5818000    1.4022515   -3.4593276   -1.8625249   0.21635325   -3.4593276    1.5968027  1157634 
 5819000    1.4016775   -3.4586053   -1.8625017   0.21527449   -3.4586053    1.5961036  1157667 
 5820000    1.4015348   -3.4592461   -1.8633422   0.21181221   -3.4592461    1.5959039  1157694 
 5821000    1.4024526   -3.4596908   -1.8627956   0.21098447   -3.4596908    1.5968952  1157733 
 5822000    1.4027759   -3.4603105   -1.8630873   0.21183121   -3.4603105    1.5972232  1157762 
 5823000    1.4022252    -3.460499    -1.863944   0.21197023    -3.460499    1.5965549  1157792 
 5824000    1.4020882   -3.4600523   -1.8637264     0.214783   -3.4600523    1.5963258  1157845 
 5825000    1.4014791    -3.459653    -1.864062   0.21639292    -3.459653     1.595591  1157875 
 5826000    1.4019625   -3.4605358   -1.8644276     0.215388   -3.4605358    1.5961082  1157899 
 5827000    1.4017609   -3.4597399   -1.8639204   0.21379851   -3.4597399    1.5958195  1157942 
 5828000    1.4018205   -3.4597617   -1.8639212   0.22068136   -3.4597617    1.5958405  1157976 
 5829000    1.4025511   -3.4602567   -1.8636493   0.21951597   -3.4602567    1.5966074  1158023 
 5830000    1.4030202    -3.461142   -1.8640421   0.21472901    -3.461142       1.5971  1158053 
 5831000    1.4032249   -3.4614824   -1.8642004   0.21266243   -3.4614824     1.597282  1158090 
 5832000    1.4022506    -3.460335   -1.8642117   0.21838738    -3.460335    1.5961233  1158126 
 5833000    1.4019472   -3.4598078   -1.8640711   0.22187208   -3.4598078    1.5957367  1158156 
 5834000    1.4014623   -3.4596921   -1.8645763   0.21464589   -3.4596921    1.5951158  1158206 
 5835000     1.401739   -3.4600741   -1.8646874   0.21896128   -3.4600741    1.5953868  1158238 
 5836000    1.4033049   -3.4612638   -1.8641375   0.21311619   -3.4612638    1.5971263  1158269 
 5837000     1.403128   -3.4611144   -1.8642419   0.21434086   -3.4611144    1.5968725  1158307 
 5838000    1.4015879   -3.4601528   -1.8650759   0.21759598   -3.4601528     1.595077  1158338 
 5839000    1.4023963   -3.4612499   -1.8652928   0.21520792   -3.4612499    1.5959571  1158367 
 5840000    1.4027918     -3.46184   -1.8654908   0.21254892     -3.46184    1.5963493  1158409 
 5841000    1.4002111   -3.4601578   -1.8667811   0.21499588   -3.4601578    1.5933768  1158435 
 5842000    1.4007383   -3.4605015   -1.8665661   0.21474081   -3.4605015    1.5939354  1158465 
 5843000    1.4023525   -3.4632831   -1.8675563   0.20877412   -3.4632831    1.5957268  1158498 
 5844000    1.4014578   -3.4615588   -1.8668872   0.21099756   -3.4615588    1.5946716  1158525 
 5845000    1.4014467   -3.4615021   -1.8668858   0.21268155   -3.4615021    1.5946163  1158556 
 5846000    1.4014312   -3.4610443   -1.8664897    0.2118244   -3.4610443    1.5945546  1158588 
 5847000    1.4031962   -3.4625444   -1.8660354   0.21322481   -3.4625444    1.5965091  1158627 
 5848000    1.4016489   -3.4606548   -1.8659709   0.22182714   -3.4606548    1.5946839  1158674 
 5849000     1.401821   -3.4608883   -1.8660528   0.21422409   -3.4608883    1.5948356  1158706 
 5850000    1.4026809   -3.4620074   -1.8662334   0.21460342   -3.4620074    1.5957741  1158735 
 5851000    1.4024727   -3.4626686   -1.8671783   0.21493244   -3.4626686    1.5954903  1158769 
 5852000    1.4016575   -3.4617786   -1.8672542   0.21974237   -3.4617786    1.5945244  1158797 
 5853000    1.4022101   -3.4628947   -1.8677926   0.21642308   -3.4628947    1.5951021  1158834 
 5854000    1.4023769   -3.4628472   -1.8676077   0.21734416   -3.4628472    1.5952395  1158872 
 5855000    1.4030666   -3.4636748   -1.8676975    0.2154851   -3.4636748    1.5959773  1158906 
 5856000    1.4037211     -3.46435    -1.867664   0.21007911     -3.46435     1.596686  1158932 
 5857000    1.4023333    -3.463396   -1.8683327   0.21463955    -3.463396    1.5950633  1158964 
 5858000    1.4013754   -3.4625649   -1.8686173   0.22128212   -3.4625649    1.5939477  1158983 
 5859000    1.4016542    -3.463889    -1.869682   0.21537514    -3.463889     1.594207  1159025 
 5860000    1.4007592   -3.4633824    -1.870247   0.21420266   -3.4633824    1.5931354  1159064 
 5861000    1.4025029    -3.464425    -1.869338   0.21454012    -3.464425     1.595087  1159087 
 5862000    1.4026009   -3.4639091   -1.8687561   0.21327709   -3.4639091     1.595153  1159120 
 5863000    1.4023119   -3.4634488   -1.8686753   0.21560131   -3.4634488    1.5947734  1159157 
 5864000      1.40183   -3.4640266   -1.8698535    0.2182849   -3.4640266    1.5941732  1159195 
 5865000    1.4021028   -3.4643216   -1.8698782    0.2176551   -3.4643216    1.5944434  1159224 
 5866000    1.4022622   -3.4639424   -1.8693673   0.21597911   -3.4639424    1.5945751  1159260 
 5867000    1.4016762   -3.4632091   -1.8693388   0.21526757   -3.4632091    1.5938703  1159288 
 5868000    1.4020107   -3.4627803   -1.8685818   0.21701569   -3.4627803    1.5941985  1159326 
 5869000    1.4031337   -3.4644777   -1.8690574   0.21332094   -3.4644777    1.5954203  1159366 
 5870000     1.402598   -3.4637934    -1.869029    0.2163728   -3.4637934    1.5947644  1159400 
 5871000    1.4025282   -3.4639296   -1.8692858   0.21487376   -3.4639296    1.5946438  1159430 
 5872000    1.4019764   -3.4633169   -1.8693403   0.21066223   -3.4633169    1.5939766  1159459 
 5873000    1.4021588   -3.4644486   -1.8702921   0.21332735   -3.4644486    1.5941565  1159479 
 5874000    1.4024251   -3.4645008   -1.8700815    0.2095772   -3.4645008    1.5944193  1159508 
 5875000    1.4015129   -3.4631147    -1.869775   0.21357851   -3.4631147    1.5933397  1159539 
 5876000    1.4022296   -3.4638721   -1.8697712   0.21566451   -3.4638721    1.5941009  1159578 
 5877000    1.4030936   -3.4652858   -1.8702508   0.20844527   -3.4652858    1.5950349  1159613 
 5878000    1.4023235   -3.4645825   -1.8704711   0.21479158   -3.4645825    1.5941114  1159648 
 5879000    1.4023506   -3.4645553   -1.8704433   0.21442652   -3.4645553    1.5941119  1159670 
 5880000    1.4023777   -3.4647148   -1.8706229   0.21243742   -3.4647148    1.5940919  1159707 
 5881000    1.4018949   -3.4646382   -1.8711377   0.21566155   -3.4646382    1.5935005  1159738 
 5882000    1.4025304    -3.465163   -1.8709718    0.2116029    -3.465163    1.5941912  1159761 
 5883000    1.4016024   -3.4643514   -1.8712589   0.21563029   -3.4643514    1.5930925  1159793 
 5884000    1.4022289   -3.4650817   -1.8713389   0.21067136   -3.4650817    1.5937427  1159838 
 5885000    1.4022688   -3.4659503   -1.8722077   0.21034134   -3.4659503    1.5937427  1159871 
 5886000    1.4020896   -3.4660111   -1.8725105   0.21063025   -3.4660111    1.5935006  1159899 
 5887000    1.4019799   -3.4659486    -1.872629   0.21466276   -3.4659486    1.5933196  1159940 
 5888000    1.4032889   -3.4674445   -1.8726868   0.21139721   -3.4674445    1.5947577  1159976 
 5889000    1.4023753   -3.4663776   -1.8726979   0.21720248   -3.4663776    1.5936797  1160005 
 5890000    1.4025203   -3.4668408   -1.8730404   0.21368333   -3.4668408    1.5938005  1160037 
 5891000    1.4027541   -3.4665322   -1.8725182   0.21486379   -3.4665322     1.594014  1160075 
 5892000    1.4016039   -3.4651322   -1.8724651   0.21765874   -3.4651322    1.5926671  1160104 
 5893000    1.4027089   -3.4669851   -1.8731188   0.21738175   -3.4669851    1.5938663  1160145 
 5894000    1.4027322   -3.4673059   -1.8734529   0.21299337   -3.4673059     1.593853  1160174 
 5895000    1.4027575   -3.4669203    -1.873088   0.21460057   -3.4669203    1.5938323  1160210 
 5896000     1.403015   -3.4669198   -1.8728389   0.21425318   -3.4669198    1.5940809  1160242 
 5897000    1.4029172    -3.467194   -1.8732654    0.2096628    -3.467194    1.5939286  1160272 
 5898000     1.401434   -3.4652915   -1.8730852   0.22008482   -3.4652915    1.5922064  1160299 
 5899000    1.4028704   -3.4669803     -1.87319   0.21064419   -3.4669803    1.5937903  1160334 
 5900000    1.4033118   -3.4672264   -1.8729827   0.21418964   -3.4672264    1.5942437  1160369 
 5901000    1.4028806   -3.4665504   -1.8728366   0.21551191   -3.4665504    1.5937139  1160398 
 5902000    1.4021087   -3.4652718   -1.8724787    0.2158396   -3.4652718     1.592793  1160430 
 5903000    1.4039904   -3.4671872   -1.8723143   0.21490346   -3.4671872     1.594873  1160472 
 5904000    1.4035871   -3.4669644   -1.8726005   0.21262543   -3.4669644     1.594364  1160509 
 5905000    1.4032777   -3.4665505   -1.8725914   0.21382263   -3.4665505     1.593959  1160548 
 5906000    1.4017129   -3.4647318   -1.8726024   0.22083566   -3.4647318    1.5921294  1160586 
 5907000    1.4032484    -3.466826   -1.8730019   0.21856631    -3.466826    1.5938241  1160622 
 5908000    1.4026672   -3.4659948   -1.8728611   0.21651106   -3.4659948    1.5931337  1160644 
 5909000    1.4028941   -3.4671578   -1.8738062   0.21659772   -3.4671578    1.5933516  1160673 
 5910000    1.4038003   -3.4677432   -1.8734159   0.21074567   -3.4677432    1.5943273  1160712 
 5911000    1.4036013   -3.4676609   -1.8736105   0.21307215   -3.4676609    1.5940505  1160749 
 5912000    1.4048611   -3.4689838   -1.8735521   0.21102525   -3.4689838    1.5954317  1160785 
 5913000    1.4030173    -3.467149   -1.8738633   0.21881887    -3.467149    1.5932857  1160823 
 5914000    1.4021688   -3.4668934   -1.8746138   0.21641196   -3.4668934    1.5922796  1160854 
 5915000    1.4024403    -3.467473   -1.8749194   0.21239217    -3.467473    1.5925536  1160879 
 5916000    1.4038471   -3.4689877   -1.8748778   0.20975927   -3.4689877    1.5941099  1160909 
 5917000    1.4036792   -3.4691841   -1.8753129   0.21453531   -3.4691841    1.5938712  1160944 
 5918000      1.40393   -3.4691938   -1.8750804   0.21826289   -3.4691938    1.5941134  1160975 
 5919000    1.4034858   -3.4682968   -1.8747523   0.21847618   -3.4682968    1.5935445  1161022 
 5920000    1.4038342   -3.4690305   -1.8751384   0.21517168   -3.4690305    1.5938921  1161057 
 5921000    1.4036925   -3.4687759     -1.87509   0.21572837   -3.4687759    1.5936859  1161090 
 5922000    1.4035123   -3.4689972   -1.8755625   0.21690554   -3.4689972    1.5934347  1161124 
 5923000     1.403967   -3.4690187   -1.8751131   0.21499495   -3.4690187    1.5939055  1161157 
 5924000    1.4035547   -3.4691141    -1.875715   0.21337831   -3.4691141    1.5933991  1161185 
 5925000    1.4040876   -3.4699547   -1.8759946   0.21530309   -3.4699547    1.5939601  1161217 
 5926000    1.4042553   -3.4696718   -1.8755638   0.21693651   -3.4696718    1.5941079  1161248 
 5927000     1.404317    -3.469481   -1.8753483   0.21432252    -3.469481    1.5941327  1161281 
 5928000    1.4037648   -3.4693828   -1.8759264   0.21598898   -3.4693828    1.5934564  1161317 
 5929000    1.4041563   -3.4702993   -1.8764438   0.21538569   -3.4702993    1.5938555  1161350 
 5930000    1.4039348   -3.4697835   -1.8762315   0.21258363   -3.4697835     1.593552  1161388 
 5931000    1.4046351   -3.4707245   -1.8764339   0.21348204   -3.4707245    1.5942906  1161429 
 5932000    1.4040857   -3.4695185    -1.875905   0.21381728   -3.4695185    1.5936135  1161468 
 5933000    1.4031632    -3.468751   -1.8762422   0.21217612    -3.468751    1.5925088  1161510 
 5934000    1.4041069   -3.4697366   -1.8761964   0.21499656   -3.4697366    1.5935401  1161539 
 5935000    1.4036128   -3.4692429   -1.8763128   0.21797439   -3.4692429      1.59293  1161575 
 5936000    1.4042888   -3.4697908   -1.8761444   0.21530776   -3.4697908    1.5936464  1161612 
 5937000    1.4044003   -3.4700446   -1.8763032   0.20920643   -3.4700446    1.5937414  1161635 
 5938000    1.4049331   -3.4705688    -1.876257   0.21558318   -3.4705688    1.5943117  1161660 
 5939000    1.4037491   -3.4697193   -1.8767978   0.21449839   -3.4697193    1.5929215  1161694 
 5940000    1.4049759   -3.4712471   -1.8769871   0.21626064   -3.4712471    1.5942601  1161733 
 5941000    1.4035752   -3.4701203   -1.8774921   0.21635304   -3.4701203    1.5926282  1161764 
 5942000    1.4050154   -3.4713972   -1.8771843   0.21172434   -3.4713972     1.594213  1161800 
 5943000    1.4054354   -3.4715173   -1.8768909   0.21441594   -3.4715173    1.5946264  1161846 
 5944000    1.4066422   -3.4725236   -1.8765774   0.21323846   -3.4725236    1.5959462  1161882 
 5945000    1.4049929   -3.4708778    -1.876844   0.21604274   -3.4708778    1.5940338  1161912 
 5946000    1.4044198   -3.4704747   -1.8771432   0.21640357   -3.4704747    1.5933315  1161950 
 5947000    1.4050368   -3.4703789   -1.8763941   0.21757437   -3.4703789    1.5939848  1161984 
 5948000    1.4060806    -3.471746   -1.8766237   0.21445061    -3.471746    1.5951223  1162018 
 5949000    1.4038411    -3.470167   -1.8776196   0.21746423    -3.470167    1.5925474  1162043 
 5950000    1.4052523   -3.4720297   -1.8779363   0.21864847   -3.4720297    1.5940934  1162083 
 5951000    1.4046411   -3.4710683   -1.8777257   0.21462733   -3.4710683    1.5933426  1162125 
 5952000    1.4051005   -3.4718813   -1.8780616   0.21337615   -3.4718813    1.5938198  1162157 
 5953000    1.4036931    -3.470894   -1.8787159   0.21690354    -3.470894    1.5921781  1162190 
 5954000    1.4047589   -3.4720858   -1.8787467   0.21606098   -3.4720858    1.5933391  1162225 
 5955000    1.4058497   -3.4731022   -1.8785684   0.21432607   -3.4731022    1.5945338  1162256 
 5956000    1.4062192   -3.4732891   -1.8783885   0.21160597   -3.4732891    1.5949007  1162294 
 5957000     1.405291   -3.4721116   -1.8783157   0.21001151   -3.4721116    1.5937959  1162332 
 5958000    1.4047829   -3.4720813   -1.8789042   0.21694381   -3.4720813    1.5931771  1162363 
 5959000    1.4041855   -3.4711371   -1.8786732   0.21912623   -3.4711371     1.592464  1162389 
 5960000     1.404349   -3.4714872   -1.8788735    0.2195424   -3.4714872    1.5926138  1162415 
 5961000    1.4044115   -3.4714257   -1.8787945   0.21880945   -3.4714257    1.5926312  1162454 
 5962000    1.4053791    -3.472843   -1.8791624   0.21081627    -3.472843    1.5936805  1162489 
 5963000    1.4046018    -3.471622   -1.8788545   0.22070243    -3.471622    1.5927676  1162512 
 5964000    1.4057081   -3.4728511   -1.8788757   0.21552218   -3.4728511    1.5939754  1162546 
 5965000    1.4055591   -3.4731805   -1.8794274   0.21520023   -3.4731805     1.593753  1162585 
 5966000    1.4048822   -3.4718098   -1.8788695   0.22280805   -3.4718098    1.5929403  1162618 
 5967000    1.4055135    -3.472388   -1.8787813   0.21589694    -3.472388    1.5936067  1162654 
 5968000    1.4056227   -3.4724452   -1.8787598   0.21682115   -3.4724452    1.5936854  1162687 
 5969000    1.4050438   -3.4720028    -1.879019   0.21697913   -3.4720028    1.5929838  1162720 
 5970000    1.4054206   -3.4730814   -1.8797115   0.21527652   -3.4730814    1.5933699  1162750 
 5971000     1.404528   -3.4728475   -1.8805348   0.21684158   -3.4728475    1.5923127  1162783 
 5972000    1.4052356   -3.4732286   -1.8801726   0.21638627   -3.4732286     1.593056  1162826 
 5973000    1.4054017   -3.4731152   -1.8799148   0.21538377   -3.4731152    1.5932004  1162858 
 5974000    1.4058509   -3.4736775   -1.8799939   0.21848413   -3.4736775    1.5936836  1162877 
 5975000    1.4058264   -3.4737007    -1.880086    0.2175148   -3.4737007    1.5936148  1162907 
 5976000     1.405173   -3.4731018   -1.8802744   0.21411365   -3.4731018    1.5928274  1162941 
 5977000    1.4049215   -3.4731402    -1.880647   0.21762908   -3.4731402    1.5924931  1162977 
 5978000    1.4050027   -3.4730921   -1.8805521   0.21667942   -3.4730921      1.59254  1163010 
 5979000    1.4064495   -3.4752872   -1.8811567   0.21250883   -3.4752872    1.5941305  1163046 
 5980000    1.4056152   -3.4747264    -1.881569   0.21248193   -3.4747264    1.5931574  1163066 
 5981000    1.4051946   -3.4742756   -1.8816482   0.21544288   -3.4742756    1.5926274  1163105 
 5982000    1.4064205   -3.4753936   -1.8814385   0.21296277   -3.4753936    1.5939551  1163150 
 5983000     1.407023   -3.4760398   -1.8814401   0.20997311   -3.4760398    1.5945996  1163178 
 5984000     1.405602   -3.4748138   -1.8818726   0.21464312   -3.4748138    1.5929412  1163213 
 5985000    1.4062812   -3.4751086    -1.881436    0.2179473   -3.4751086    1.5936726  1163241 
 5986000    1.4048623   -3.4733424   -1.8813216   0.22272534   -3.4733424    1.5920208  1163273 
 5987000    1.4070728   -3.4748694   -1.8803957    0.2159958   -3.4748694    1.5944737  1163311 
 5988000    1.4060323   -3.4742961   -1.8810453   0.22093636   -3.4742961    1.5932508  1163343 
 5989000    1.4046661   -3.4732426   -1.8816014   0.22189668   -3.4732426    1.5916412  1163388 
 5990000    1.4043509   -3.4730553   -1.8818192   0.21608878   -3.4730553    1.5912361  1163423 
 5991000    1.4072133   -3.4762898   -1.8818708   0.21667973   -3.4762898    1.5944191  1163467 
 5992000    1.4060187   -3.4745037   -1.8814832   0.22137547   -3.4745037    1.5930204  1163500 
 5993000    1.4071029    -3.475988   -1.8817858   0.21219781    -3.475988    1.5942022  1163534 
 5994000    1.4063158   -3.4751946   -1.8819403   0.21619836   -3.4751946    1.5932543  1163575 
 5995000    1.4054242   -3.4744894   -1.8822822   0.22157031   -3.4744894    1.5922072  1163602 
 5996000    1.4045498   -3.4739032   -1.8827277   0.21963758   -3.4739032    1.5911756  1163632 
 5997000    1.4060696   -3.4761515   -1.8832979   0.21331636   -3.4761515    1.5928536  1163664 
 5998000    1.4056038    -3.475105   -1.8828325   0.21753496    -3.475105    1.5922725  1163703 
 5999000    1.4063034   -3.4756017   -1.8825819   0.21484233   -3.4756017    1.5930198  1163736 
 6000000    1.4063517   -3.4755907   -1.8825695   0.21876946   -3.4755907    1.5930212  1163775 
 6001000     1.405257   -3.4750618   -1.8833299   0.21387674   -3.4750618    1.5917319  1163811 
 6002000    1.4063315   -3.4765071   -1.8836101   0.21769259   -3.4765071     1.592897  1163849 
 6003000    1.4062084   -3.4771257   -1.8843982   0.21244088   -3.4771257    1.5927275  1163871 
 6004000    1.4063902    -3.477058   -1.8841793   0.21660897    -3.477058    1.5928787  1163911 
 6005000    1.4052266   -3.4759394   -1.8844306   0.21167209   -3.4759394    1.5915088  1163949 
 6006000    1.4039335   -3.4749767   -1.8849584   0.21694478   -3.4749767    1.5900183  1163968 
 6007000     1.404895   -3.4765685   -1.8855037   0.21415845   -3.4765685    1.5910649  1163999 
 6008000     1.405587   -3.4767561   -1.8849636   0.21455482   -3.4767561    1.5917925  1164040 
 6009000    1.4052566   -3.4759896   -1.8846151   0.21785859   -3.4759896    1.5913745  1164072 
 6010000    1.4067438   -3.4768942   -1.8838738   0.21668978   -3.4768942    1.5930204  1164100 
 6011000    1.4057435   -3.4762865   -1.8844439   0.21603179   -3.4762865    1.5918426  1164133 
 6012000    1.4071552   -3.4784201   -1.8850296   0.21106822   -3.4784201    1.5933905  1164170 
 6013000    1.4061924    -3.476921   -1.8846591   0.21640887    -3.476921     1.592262  1164198 
 6014000    1.4069739   -3.4776713   -1.8845832   0.21562844   -3.4776713     1.593088  1164241 
 6015000    1.4066729   -3.4775832   -1.8848633   0.21668596   -3.4775832    1.5927199  1164261 
 6016000    1.4061982   -3.4767361   -1.8845948   0.21587363   -3.4767361    1.5921413  1164291 
 6017000    1.4066673    -3.477061   -1.8844295   0.21565412    -3.477061    1.5926315  1164321 
 6018000    1.4062027   -3.4767714   -1.8847057   0.21804413   -3.4767714    1.5920657  1164350 
 6019000    1.4075895   -3.4780961   -1.8844985   0.21757056   -3.4780961    1.5935976  1164378 
 6020000    1.4076508    -3.478281   -1.8846593    0.2181454    -3.478281    1.5936218  1164411 
 6021000    1.4066248   -3.4772487   -1.8848308    0.2137598   -3.4772487    1.5924178  1164442 
 6022000    1.4067812   -3.4780906   -1.8855395   0.21664943   -3.4780906    1.5925511  1164474 
 6023000    1.4078919   -3.4786408   -1.8848802   0.21610666   -3.4786408    1.5937606  1164509 
 6024000    1.4049613   -3.4757689   -1.8853859   0.21709301   -3.4757689    1.5903831  1164553 
 6025000    1.4059307   -3.4769495   -1.8855169   0.22110888   -3.4769495    1.5914326  1164588 
 6026000    1.4061911   -3.4773914   -1.8857311   0.21666014   -3.4773914    1.5916603  1164637 
 6027000    1.4071791   -3.4779197   -1.8851917   0.21945134   -3.4779197     1.592728  1164674 
 6028000    1.4070884   -3.4772833   -1.8846908   0.21978182   -3.4772833    1.5925925  1164698 
 6029000    1.4066568   -3.4777246   -1.8856738   0.21689168   -3.4777246    1.5920508  1164737 
 6030000    1.4076207   -3.4787532   -1.8856717   0.21556801   -3.4787532    1.5930814  1164781 
 6031000    1.4064897   -3.4773824   -1.8856164   0.21955555   -3.4773824    1.5917659  1164807 
 6032000     1.407486    -3.479097   -1.8862391   0.21689348    -3.479097    1.5928579  1164833 
 6033000    1.4082091   -3.4799178   -1.8862812   0.21362021   -3.4799178    1.5936366  1164862 
 6034000    1.4077597   -3.4792092   -1.8861195   0.21626288   -3.4792092    1.5930897  1164890 
 6035000    1.4082955   -3.4790367   -1.8853858   0.21556682   -3.4790367    1.5936509  1164923 
 6036000    1.4072451   -3.4782242   -1.8858167   0.21687933   -3.4782242    1.5924075  1164963 
 6037000    1.4074479   -3.4785077   -1.8859076   0.21704398   -3.4785077    1.5926001  1164990 
 6038000    1.4068785    -3.477887    -1.885979   0.22146781    -3.477887    1.5919081  1165025 
 6039000    1.4070003   -3.4785098   -1.8864981   0.22026747   -3.4785098    1.5920117  1165050 
 6040000    1.4067709   -3.4788899   -1.8871965    0.2188175   -3.4788899    1.5916934  1165093 
 6041000    1.4070058   -3.4786469   -1.8867218   0.21507839   -3.4786469     1.591925  1165118 
 6042000    1.4059353    -3.477943   -1.8872728   0.22127913    -3.477943    1.5906702  1165150 
 6043000    1.4073905   -3.4792627   -1.8869913   0.21535394   -3.4792627    1.5922715  1165183 
 6044000    1.4080055   -3.4799521   -1.8870396    0.2173315   -3.4799521    1.5929125  1165223 
 6045000    1.4074994   -3.4789173   -1.8866333   0.21842013   -3.4789173    1.5922839  1165264 
 6046000    1.4072585    -3.479823   -1.8878703    0.2192961    -3.479823    1.5919527  1165307 
 6047000    1.4079041   -3.4810365   -1.8883986   0.21726429   -3.4810365    1.5926379  1165340 
 6048000    1.4076394    -3.480474   -1.8881957   0.21917693    -3.480474    1.5922783  1165384 
 6049000    1.4067816   -3.4802298   -1.8889559   0.21760271   -3.4802298    1.5912739  1165409 
 6050000    1.4080792   -3.4816986   -1.8889897   0.21425041   -3.4816986    1.5927089  1165433 
 6051000    1.4077701   -3.4817031   -1.8893862   0.21454329   -3.4817031    1.5923169  1165464 
 6052000    1.4064691   -3.4799424   -1.8891461   0.21550541   -3.4799424    1.5907962  1165500 
 6053000     1.407413   -3.4808733   -1.8890628    0.2200017   -3.4808733    1.5918105  1165539 
 6054000    1.4089103   -3.4819808    -1.888526   0.21666737   -3.4819808    1.5934548  1165575 
 6055000    1.4078725   -3.4812787   -1.8890428   0.21847347   -3.4812787    1.5922359  1165608 
 6056000    1.4080371   -3.4809904   -1.8886188   0.21734903   -3.4809904    1.5923716  1165645 
 6057000     1.408718   -3.4822189   -1.8891197   0.21693257   -3.4822189    1.5930993  1165676 
 6058000    1.4088334   -3.4825349    -1.889338   0.21745042   -3.4825349    1.5931969  1165700 
 6059000    1.4080595   -3.4817958   -1.8895383   0.21725412   -3.4817958    1.5922575  1165747 
 6060000    1.4070515   -3.4808323   -1.8897692   0.22106792   -3.4808323    1.5910631  1165787 
 6061000    1.4075122   -3.4814169   -1.8898765   0.21535638   -3.4814169    1.5915404  1165819 
 6062000     1.407889   -3.4813046   -1.8893873   0.22162123   -3.4813046    1.5919173  1165855 
 6063000    1.4081325   -3.4818457   -1.8896871   0.21463608   -3.4818457    1.5921585  1165880 
 6064000    1.4073567   -3.4813424   -1.8900953   0.21452691   -3.4813424    1.5912472  1165905 
 6065000    1.4080951   -3.4821296    -1.890109   0.21542365   -3.4821296    1.5920206  1165950 
 6066000    1.4070174   -3.4806442   -1.8898761   0.22106848   -3.4806442    1.5907681  1165975 
 6067000    1.4084762   -3.4817823   -1.8894018   0.21832958   -3.4817823    1.5923805  1166002 
 6068000    1.4072995   -3.4806823    -1.889669   0.21685398   -3.4806823    1.5910133  1166029 
 6069000    1.4079636   -3.4812878   -1.8895729   0.21845009   -3.4812878     1.591715  1166065 
 6070000    1.4079483   -3.4809151   -1.8892597   0.22038543   -3.4809151    1.5916553  1166096 
 6071000    1.4088335   -3.4821696   -1.8895573   0.22003501   -3.4821696    1.5926123  1166128 
 6072000    1.4084933   -3.4822642    -1.890076   0.21533262   -3.4822642    1.5921881  1166157 
 6073000    1.4072121   -3.4812531   -1.8905501   0.22058915   -3.4812531     1.590703  1166184 
 6074000    1.4083401   -3.4827934   -1.8908658   0.21754803   -3.4827934    1.5919276  1166221 
 6075000     1.408201   -3.4821497   -1.8904339   0.21759836   -3.4821497    1.5917158  1166261 
 6076000    1.4081863   -3.4829722   -1.8913236   0.21494557   -3.4829722    1.5916486  1166298 
 6077000    1.4072352   -3.4823917    -1.891878   0.21425785   -3.4823917    1.5905137  1166342 
 6078000    1.4066935   -3.4818091   -1.8919499   0.21400971   -3.4818091    1.5898591  1166373 
 6079000    1.4091976   -3.4844339   -1.8917951   0.21254802   -3.4844339    1.5926388  1166410 
 6080000    1.4078421    -3.482849   -1.8917804   0.21921949    -3.482849    1.5910686  1166438 
 6081000    1.4070862   -3.4824427   -1.8922665   0.21656983   -3.4824427    1.5901762  1166466 
 6082000    1.4085211   -3.4841102   -1.8923493   0.21796423   -3.4841102    1.5917609  1166493 
 6083000    1.4078767   -3.4835472    -1.892554   0.21640435   -3.4835472    1.5909932  1166522 
 6084000    1.4069657   -3.4830968   -1.8931686   0.21741299   -3.4830968    1.5899282  1166548 
 6085000    1.4076349   -3.4838773   -1.8932365   0.21153389   -3.4838773    1.5906408  1166580 
 6086000    1.4076483   -3.4839384   -1.8933179   0.21682997   -3.4839384    1.5906205  1166606 
 6087000    1.4081747   -3.4838222   -1.8926492   0.21675811   -3.4838222    1.5911731  1166637 
 6088000    1.4088599   -3.4852708   -1.8933699   0.21610899   -3.4852708    1.5919009  1166671 
 6089000    1.4082881   -3.4849351   -1.8937088   0.21534743   -3.4849351    1.5912262  1166692 
 6090000    1.4080583   -3.4841239   -1.8931861   0.21991375   -3.4841239    1.5909379  1166713 
 6091000    1.4088153   -3.4847424   -1.8929778   0.21755212   -3.4847424    1.5917646  1166734 
 6092000    1.4088879   -3.4843106   -1.8925076    0.2208704   -3.4843106     1.591803  1166766 
 6093000    1.4082342   -3.4832701   -1.8922384   0.22208927   -3.4832701    1.5910317  1166790 
 6094000    1.4075829   -3.4837076   -1.8934555   0.21766407   -3.4837076    1.5902522  1166822 
 6095000    1.4079403   -3.4848007   -1.8941911   0.21647859   -3.4848007    1.5906096  1166856 
 6096000    1.4079111    -3.485151   -1.8946343   0.21710643    -3.485151    1.5905167  1166900 
 6097000    1.4074868   -3.4840864   -1.8940995   0.21695393   -3.4840864    1.5899869  1166937 
 6098000    1.4075273   -3.4838289   -1.8938453   0.21833458   -3.4838289    1.5899836  1166973 
 6099000    1.4079704   -3.4849465    -1.894491   0.21503627   -3.4849465    1.5904555  1166994 
 6100000    1.4074235   -3.4837875   -1.8939933    0.2150369   -3.4837875    1.5897941  1167026 
 6101000    1.4071411    -3.483146   -1.8937253   0.22030662    -3.483146    1.5894207  1167066 
 6102000    1.4083962   -3.4852269   -1.8944376   0.21577154   -3.4852269    1.5907892  1167102 
 6103000    1.4082981   -3.4848977   -1.8942534   0.21835835   -3.4848977    1.5906444  1167127 
 6104000    1.4077357   -3.4841143   -1.8941323   0.21532102   -3.4841143     1.589982  1167147 
 6105000    1.4089443   -3.4847247   -1.8934103   0.21404657   -3.4847247    1.5913143  1167171 
 6106000    1.4097671   -3.4854952   -1.8932954   0.21783361   -3.4854952    1.5921999  1167203 
 6107000    1.4083228   -3.4837341   -1.8932103   0.22364211   -3.4837341    1.5905238  1167236 
 6108000    1.4093383   -3.4846057     -1.89298   0.21820909   -3.4846057    1.5916257  1167269 
 6109000    1.4089201   -3.4841802   -1.8930827   0.21915099   -3.4841802    1.5910975  1167310 
 6110000    1.4099315   -3.4854058   -1.8931988   0.21347707   -3.4854058    1.5922069  1167334 
 6111000    1.4080685   -3.4837863   -1.8937187   0.21826854   -3.4837863    1.5900677  1167360 
 6112000    1.4097881   -3.4855186   -1.8935745   0.21670062   -3.4855186    1.5919441  1167408 
 6113000    1.4104175   -3.4862958   -1.8936752    0.2206137   -3.4862958    1.5926206  1167433 
 6114000    1.4089643   -3.4855024   -1.8945608   0.21816795   -3.4855024    1.5909416  1167461 
 6115000    1.4084036   -3.4852713   -1.8950091   0.21768885   -3.4852713    1.5902622  1167495 
 6116000    1.4084571   -3.4861073   -1.8958297   0.21741286   -3.4861073    1.5902776  1167528 
 6117000    1.4081258    -3.485118   -1.8952662   0.22180542    -3.485118    1.5898517  1167566 
 6118000    1.4084246   -3.4863385   -1.8961862   0.21491375   -3.4863385    1.5901523  1167593 
 6119000    1.4085332    -3.486617   -1.8963896   0.21541362    -3.486617    1.5902273  1167628 
 6120000    1.4082116   -3.4864744   -1.8966483   0.21885283   -3.4864744    1.5898261  1167656 
 6121000    1.4089865   -3.4872914   -1.8966244   0.21527976   -3.4872914    1.5906669  1167681 
 6122000    1.4087839   -3.4868448   -1.8964461   0.21781941   -3.4868448    1.5903987  1167710 
 6123000    1.4082667   -3.4866392   -1.8968597   0.21555685   -3.4866392    1.5897794  1167736 
 6124000    1.4079628   -3.4859793   -1.8965946   0.22229743   -3.4859793    1.5893846  1167774 
 6125000    1.4083588   -3.4868424   -1.8970625   0.21620555   -3.4868424    1.5897799  1167812 
 6126000    1.4082299   -3.4865775   -1.8969962   0.22035085   -3.4865775    1.5895814  1167851 
 6127000    1.4099192   -3.4879961   -1.8965475   0.21766377   -3.4879961    1.5914486  1167880 
 6128000    1.4102819   -3.4883951    -1.896582   0.22133147   -3.4883951    1.5918131  1167913 
 6129000    1.4098482    -3.488062   -1.8967889   0.21822449    -3.488062    1.5912731  1167950 
 6130000     1.409052   -3.4866052   -1.8962757   0.22322581   -3.4866052    1.5903295  1167983 
 6131000    1.4093389   -3.4872063   -1.8965857   0.21919385   -3.4872063    1.5906206  1168007 
 6132000    1.4089054   -3.4866827   -1.8965922   0.21990659   -3.4866827    1.5900906  1168037 
 6133000    1.4095805   -3.4881495   -1.8973351   0.21428602   -3.4881495    1.5908144  1168065 
 6134000    1.4084208   -3.4866662   -1.8971987   0.21879275   -3.4866662    1.5894675  1168093 
 6135000    1.4100138   -3.4880218   -1.8968071   0.21595075   -3.4880218    1.5912148  1168130 
 6136000    1.4112015   -3.4890875   -1.8965787   0.22138114   -3.4890875    1.5925088  1168164 
 6137000    1.4100068   -3.4871229   -1.8960044   0.21729847   -3.4871229    1.5911184  1168195 
 6138000    1.4116624   -3.4891338   -1.8962017   0.21485577   -3.4891338    1.5929321  1168235 
 6139000    1.4100622   -3.4874819   -1.8964112   0.21976088   -3.4874819    1.5910706  1168276 
 6140000    1.4100706   -3.4878225    -1.896801   0.21502073   -3.4878225    1.5910215  1168319 
 6141000    1.4102937   -3.4886692   -1.8974463    0.2205735   -3.4886692    1.5912228  1168356 
 6142000    1.4096172   -3.4874675   -1.8970502   0.22076913   -3.4874675    1.5904173  1168387 
 6143000     1.409015   -3.4866127   -1.8969197    0.2228471   -3.4866127     1.589693  1168420 
 6144000    1.4109475   -3.4886555   -1.8968245   0.21646838   -3.4886555    1.5918311  1168451 
 6145000    1.4097537   -3.4871028   -1.8966608   0.21915155   -3.4871028     1.590442  1168482 
 6146000     1.410259   -3.4881621   -1.8971936   0.22024539   -3.4881621    1.5909685  1168514 
 6147000    1.4080153   -3.4864394   -1.8980415   0.21827626   -3.4864394    1.5883979  1168543 
 6148000    1.4093398   -3.4892633   -1.8994216   0.21581629   -3.4892633    1.5898417  1168580 
 6149000    1.4085498   -3.4880076   -1.8991046   0.21530069   -3.4880076     1.588903  1168615 
 6150000    1.4107461   -3.4900157   -1.8986746   0.21239187   -3.4900157     1.591341  1168644 
 6151000    1.4091797   -3.4879485   -1.8984138   0.22248112   -3.4879485    1.5895347  1168673 
 6152000    1.4098443    -3.489195   -1.8989692   0.22000707    -3.489195    1.5902258  1168716 
 6153000    1.4102612   -3.4903881   -1.8997478   0.22188179   -3.4903881    1.5906403  1168757 
 6154000    1.4107571   -3.4906626    -1.899508   0.21502493   -3.4906626    1.5911546  1168790 
 6155000    1.4102428   -3.4902583   -1.8997368   0.21658883   -3.4902583    1.5905215  1168829 
 6156000     1.409881   -3.4894147   -1.8993447   0.21991142   -3.4894147      1.59007  1168861 
 6157000    1.4098571   -3.4897259   -1.8997252    0.2186678   -3.4897259    1.5900008  1168892 
 6158000    1.4097169   -3.4898127   -1.9000286   0.21791794   -3.4898127    1.5897841  1168935 
 6159000    1.4094829    -3.489864   -1.9003818   0.22175431    -3.489864    1.5894822  1168963 
 6160000    1.4097151   -3.4904249   -1.9007325   0.21853083   -3.4904249    1.5896924  1169001 
 6161000    1.4102679   -3.4908938   -1.9006351   0.21706733   -3.4908938    1.5902587  1169043 
 6162000    1.4097238   -3.4900665   -1.9004677   0.21835007   -3.4900665    1.5895988  1169077 
 6163000    1.4105149   -3.4908142   -1.9003655   0.21644542   -3.4908142    1.5904487  1169108 
 6164000    1.4093618   -3.4895307   -1.9004216   0.22199393   -3.4895307    1.5891091  1169137 
 6165000    1.4100218   -3.4908694   -1.9010555   0.21598943   -3.4908694    1.5898139  1169166 
 6166000    1.4104438   -3.4911221   -1.9008705    0.2188486   -3.4911221    1.5902516  1169194 
 6167000    1.4108757   -3.4917043   -1.9010025   0.21481579   -3.4917043    1.5907019  1169221 
 6168000    1.4103178   -3.4909659   -1.9009244   0.21920145   -3.4909659    1.5900415  1169244 
 6169000     1.410132   -3.4904849    -1.900695     0.218718   -3.4904849    1.5897899  1169275 
 6170000    1.4102535    -3.491022   -1.9011453   0.21718633    -3.491022    1.5898766  1169312 
 6171000    1.4098098     -3.49032   -1.9009777   0.22174435     -3.49032    1.5893423  1169337 
 6172000    1.4102478   -3.4913369   -1.9015443   0.21825271   -3.4913369    1.5897926  1169369 
 6173000    1.4097733   -3.4904374   -1.9012136   0.22055111   -3.4904374    1.5892237  1169394 
 6174000    1.4089575   -3.4896493   -1.9013804   0.22380849   -3.4896493    1.5882688  1169420 
 6175000    1.4105745   -3.4916044   -1.9015536   0.21965472   -3.4916044    1.5900508  1169450 
 6176000    1.4093805   -3.4904882   -1.9018255   0.21724956   -3.4904882    1.5886627  1169481 
 6177000    1.4110287   -3.4922656   -1.9017776    0.2149275   -3.4922656     1.590488  1169505 
 6178000    1.4115467   -3.4918486   -1.9008217   0.22172139   -3.4918486    1.5910269  1169538 
 6179000     1.409943   -3.4906655   -1.9014951   0.21775838   -3.4906655    1.5891704  1169574 
 6180000    1.4108148   -3.4916965   -1.9015842   0.21751158   -3.4916965    1.5901123  1169604 
 6181000    1.4093084   -3.4901791   -1.9017946   0.22195119   -3.4901791    1.5883846  1169626 
 6182000    1.4113447   -3.4913754   -1.9007406   0.22190919   -3.4913754    1.5906348  1169659 
 6183000    1.4119653   -3.4932279    -1.901936   0.21478317   -3.4932279     1.591292  1169690 
 6184000    1.4103601    -3.492477   -1.9030253   0.21846544    -3.492477    1.5894516  1169713 
 6185000    1.4103605   -3.4924472   -1.9030304   0.21699285   -3.4924472    1.5894168  1169739 
 6186000    1.4100268   -3.4920213   -1.9030064   0.22093023   -3.4920213    1.5890149  1169758 
 6187000    1.4094792   -3.4916401   -1.9032979   0.21576478   -3.4916401    1.5883422  1169799 
 6188000    1.4116693   -3.4937395   -1.9029756   0.21446041   -3.4937395    1.5907639  1169833 
 6189000    1.4110248    -3.493675   -1.9036781   0.21532408    -3.493675    1.5899969  1169863 
 6190000    1.4099989   -3.4933778   -1.9045737   0.21610902   -3.4933778    1.5888042  1169890 
 6191000     1.410223   -3.4935615   -1.9045564   0.21687333   -3.4935615    1.5890051  1169928 
 6192000     1.409536   -3.4922617   -1.9040715   0.21782224   -3.4922617    1.5881902  1169958 
 6193000    1.4107592   -3.4931651   -1.9036361   0.21585194   -3.4931651    1.5895291  1169987 
 6194000    1.4101257   -3.4929497   -1.9041738   0.21670758   -3.4929497    1.5887759  1170016 
 6195000    1.4102486   -3.4929709      -1.9041   0.21898645   -3.4929709    1.5888709  1170048 
 6196000    1.4099468   -3.4917592   -1.9032609   0.22462655   -3.4917592    1.5884983  1170072 
 6197000    1.4108065   -3.4927384   -1.9033285    0.2207702   -3.4927384    1.5894099  1170114 
 6198000    1.4117526   -3.4940401   -1.9036024   0.21646416   -3.4940401    1.5904376  1170142 
 6199000    1.4111541   -3.4943858   -1.9046645    0.2175329   -3.4943858    1.5897213  1170173 
 6200000    1.4102016   -3.4929304   -1.9043269   0.22224715   -3.4929304    1.5886035  1170206 
 6201000    1.4106236   -3.4935904   -1.9045699   0.21641595   -3.4935904    1.5890205  1170249 
 6202000    1.4098037   -3.4928392   -1.9047953   0.22078012   -3.4928392    1.5880439  1170288 
 6203000    1.4106113   -3.4934558   -1.9045333   0.21594178   -3.4934558    1.5889225  1170311 
 6204000    1.4108427   -3.4935065   -1.9043655   0.21786051   -3.4935065     1.589141  1170342 
 6205000    1.4111991   -3.4943771   -1.9048795   0.21695429   -3.4943771    1.5894977  1170375 
 6206000    1.4116332   -3.4951126   -1.9051545   0.21130539   -3.4951126     1.589958  1170396 
 6207000     1.411486   -3.4947983   -1.9050617   0.21631786   -3.4947983    1.5897366  1170437 
 6208000    1.4104864    -3.494543   -1.9059716    0.2171509    -3.494543    1.5885714  1170466 
 6209000    1.4112173   -3.4954579   -1.9061068   0.21601238   -3.4954579    1.5893511  1170498 
 6210000    1.4118989   -3.4951883   -1.9051131   0.21833161   -3.4951883    1.5900752  1170530 
 6211000    1.4108716   -3.4946726   -1.9058099   0.21538558   -3.4946726    1.5888626  1170571 
 6212000    1.4103945    -3.494838    -1.906552   0.21830786    -3.494838     1.588286  1170600 
 6213000    1.4098019   -3.4942965   -1.9067076   0.21881512   -3.4942965    1.5875889  1170622 
 6214000    1.4119233   -3.4953811   -1.9054455   0.21793067   -3.4953811    1.5899356  1170653 
 6215000    1.4120139   -3.4953102   -1.9053078   0.21759903   -3.4953102    1.5900024  1170679 
 6216000    1.4105184   -3.4943372   -1.9060663   0.22142534   -3.4943372    1.5882709  1170714 
 6217000    1.4113351   -3.4950304   -1.9058888     0.221405   -3.4950304    1.5891416  1170750 
 6218000    1.4109676   -3.4955957   -1.9069194    0.2193102   -3.4955957    1.5886763  1170788 
 6219000    1.4118852   -3.4962947   -1.9066301   0.21843623   -3.4962947    1.5896646  1170821 
 6220000    1.4102895   -3.4946107   -1.9067739    0.2246476   -3.4946107    1.5878368  1170844 
 6221000    1.4102962   -3.4952411   -1.9074429   0.21864754   -3.4952411    1.5877982  1170878 
 6222000    1.4104766   -3.4960024   -1.9080377   0.21726992   -3.4960024    1.5879648  1170905 
 6223000     1.409908     -3.49573   -1.9084501   0.21684854     -3.49573    1.5872799  1170938 
 6224000    1.4102693   -3.4964008   -1.9087494   0.21842266   -3.4964008    1.5876514  1170964 
 6225000    1.4099191   -3.4963706   -1.9091501   0.21654705   -3.4963706    1.5872205  1170991 
 6226000    1.4094184   -3.4957485   -1.9091255    0.2183269   -3.4957485    1.5866229  1171016 
 6227000    1.4105958   -3.4966983    -1.908773    0.2192616   -3.4966983    1.5879253  1171033 
 6228000    1.4096525   -3.4954004   -1.9085816   0.21861198   -3.4954004    1.5868188  1171066 
 6229000    1.4102697   -3.4964722   -1.9089871   0.21955069   -3.4964722    1.5874851  1171087 
 6230000    1.4103288   -3.4960551   -1.9085455   0.21925729   -3.4960551    1.5875095  1171118 
 6231000    1.4105388   -3.4968315   -1.9091222   0.22060728   -3.4968315    1.5877094  1171145 
 6232000    1.4111341    -3.497487   -1.9091565   0.21793962    -3.497487    1.5883305  1171181 
 6233000    1.4118368   -3.4971375   -1.9080526    0.2162325   -3.4971375    1.5890849  1171208 
 6234000    1.4109302   -3.4960769   -1.9080503   0.22349046   -3.4960769    1.5880265  1171236 
 6235000    1.4119584   -3.4969752   -1.9078309   0.22182589   -3.4969752    1.5891444  1171265 
 6236000    1.4122762    -3.497534   -1.9080659   0.21969754    -3.497534    1.5894681  1171290 
 6237000    1.4123033   -3.4974846   -1.9080308   0.21598419   -3.4974846    1.5894538  1171323 
 6238000    1.4117568   -3.4964626    -1.907659   0.21967986   -3.4964626    1.5888036  1171349 
 6239000    1.4118863    -3.496504   -1.9075981   0.22107343    -3.496504    1.5889059  1171381 
 6240000    1.4119002   -3.4975317   -1.9086576   0.21934067   -3.4975317    1.5888741  1171416 
 6241000    1.4108703   -3.4960356    -1.908353   0.21834856   -3.4960356    1.5876826  1171440 
 6242000    1.4114077   -3.4968484   -1.9086086   0.21809801   -3.4968484    1.5882398  1171475 
 6243000    1.4103045   -3.4960646   -1.9091162   0.21837641   -3.4960646    1.5869483  1171512 
 6244000    1.4114905   -3.4965461   -1.9083026   0.22035023   -3.4965461    1.5882435  1171541 
 6245000    1.4114127   -3.4963126   -1.9081973   0.21896677   -3.4963126    1.5881154  1171571 
 6246000    1.4121347   -3.4970974   -1.9082117   0.21928082   -3.4970974    1.5888856  1171602 
 6247000    1.4125978   -3.4972944   -1.9079216   0.21509199   -3.4972944    1.5893728  1171627 
 6248000    1.4118776   -3.4963148   -1.9078065    0.2219065   -3.4963148    1.5885083  1171667 
 6249000    1.4112346   -3.4962937   -1.9085603    0.2183046   -3.4962937    1.5877334  1171705 
 6250000    1.4116968   -3.4967939   -1.9086016   0.21889683   -3.4967939    1.5881923  1171750 
 6251000    1.4122252   -3.4970798   -1.9083392    0.2186528   -3.4970798    1.5887406  1171784 
 6252000    1.4122111   -3.4971008   -1.9084112   0.21964943   -3.4971008    1.5886896  1171810 
 6253000    1.4125584   -3.4983036   -1.9092721   0.21967029   -3.4983036    1.5890315  1171846 
 6254000    1.4121893   -3.4974353   -1.9088678   0.21988551   -3.4974353    1.5885675  1171882 
 6255000    1.4118068    -3.497042   -1.9089496   0.21702832    -3.497042    1.5880924  1171915 
 6256000    1.4116377   -3.4972388   -1.9093759   0.21893061   -3.4972388     1.587863  1171944 
 6257000    1.4120771   -3.4987638     -1.91045   0.21824916   -3.4987638    1.5883139  1171976 
 6258000    1.4111994   -3.4976151   -1.9103143   0.21842773   -3.4976151    1.5873008  1171995 
 6259000    1.4109059   -3.4973928   -1.9104681    0.2196078   -3.4973928    1.5869247  1172029 
 6260000    1.4126866   -3.4993304   -1.9104381    0.2125837   -3.4993304    1.5888923  1172055 
 6261000    1.4126082   -3.4989759    -1.910203    0.2182617   -3.4989759    1.5887729  1172078 
 6262000    1.4132194     -3.49932   -1.9099016   0.22173324     -3.49932    1.5894183  1172109 
 6263000    1.4122332   -3.4986876   -1.9104285   0.21957193   -3.4986876    1.5882591  1172146 
 6264000    1.4129025   -3.4996119   -1.9106287    0.2191113   -3.4996119    1.5889832  1172167 
 6265000    1.4116492   -3.4981562    -1.910619   0.22237445   -3.4981562    1.5875372  1172194 
 6266000    1.4116377   -3.4983332   -1.9108414   0.22447655   -3.4983332    1.5874918  1172218 
 6267000     1.412401   -3.4987933   -1.9104648   0.21713842   -3.4987933    1.5883285  1172234 
 6268000    1.4122308   -3.4991753   -1.9110748   0.21919889   -3.4991753    1.5881006  1172261 
 6269000    1.4120756   -3.4993843   -1.9114975   0.21992194   -3.4993843    1.5878868  1172290 
 6270000    1.4123538   -3.4996201   -1.9114666   0.21934953   -3.4996201    1.5881535  1172324 
 6271000     1.412734   -3.4998122   -1.9112665   0.22409891   -3.4998122    1.5885458  1172350 
 6272000    1.4141984   -3.5015719   -1.9114107   0.21494147   -3.5015719    1.5901612  1172373 
 6273000    1.4135812   -3.5005883   -1.9111685   0.22126756   -3.5005883    1.5894198  1172408 
 6274000      1.41298   -3.5001867   -1.9114863   0.22053332   -3.5001867    1.5887005  1172440 
 6275000    1.4133148   -3.5002752   -1.9112418   0.22015045   -3.5002752    1.5890335  1172472 
 6276000    1.4129003   -3.4994567   -1.9109217   0.22239658   -3.4994567     1.588535  1172496 
 6277000    1.4136695   -3.5005639   -1.9112251   0.21523377   -3.5005639    1.5893388  1172541 
 6278000    1.4128431   -3.5000578   -1.9116834   0.21949987   -3.5000578    1.5883744  1172567 
 6279000    1.4126631   -3.4998917   -1.9117698   0.22016284   -3.4998917    1.5881219  1172604 
 6280000    1.4125871   -3.4996931   -1.9117026   0.21864928   -3.4996931    1.5879905  1172638 
 6281000    1.4128712   -3.5004795   -1.9122076   0.22069546   -3.5004795    1.5882719  1172666 
 6282000    1.4131375   -3.5012031   -1.9126832   0.21487041   -3.5012031    1.5885199  1172704 
 6283000    1.4123107   -3.5001412   -1.9125887   0.21625585   -3.5001412    1.5875525  1172732 
 6284000    1.4131161   -3.5004396   -1.9120156   0.21566804   -3.5004396    1.5884239  1172757 
 6285000    1.4121365   -3.4997744    -1.912499   0.21785885   -3.4997744    1.5872754  1172792 
 6286000    1.4121391   -3.5000373   -1.9128009   0.21775934   -3.5000373    1.5872364  1172823 
 6287000     1.412577   -3.5001142   -1.9124289   0.22057557   -3.5001142    1.5876853  1172855 
 6288000    1.4120798   -3.4996465   -1.9125592   0.21968356   -3.4996465    1.5870872  1172884 
 6289000    1.4126274   -3.5008135   -1.9131527   0.21810187   -3.5008135    1.5876608  1172915 
 6290000    1.4125245   -3.5004348   -1.9129357   0.22128919   -3.5004348    1.5874991  1172949 
 6291000    1.4135496   -3.5017206   -1.9131101   0.21890139   -3.5017206    1.5886105  1172979 
 6292000    1.4130745   -3.5010865   -1.9130492   0.22017021   -3.5010865    1.5880373  1173008 
 6293000    1.4136948   -3.5017725   -1.9130813   0.21709581   -3.5017725    1.5886911  1173040 
 6294000     1.414833   -3.5030423   -1.9131358   0.21787898   -3.5030423    1.5899064  1173087 
 6295000    1.4140431   -3.5021659   -1.9131959   0.21963831   -3.5021659    1.5889701  1173123 
 6296000    1.4135473   -3.5020237   -1.9136541   0.21875439   -3.5020237    1.5883697  1173155 
 6297000    1.4133147   -3.5016904   -1.9136228   0.22179908   -3.5016904    1.5880677  1173185 
 6298000     1.414186   -3.5030735   -1.9140864   0.21670535   -3.5030735    1.5889871  1173229 
 6299000    1.4129513   -3.5011878   -1.9136327   0.21951177   -3.5011878    1.5875551  1173262 
 6300000    1.4144488   -3.5029339   -1.9137518   0.21985972   -3.5029339    1.5891821  1173303 
 6301000    1.4138346   -3.5021047   -1.9136654   0.22164766   -3.5021047    1.5884393  1173342 
 6302000    1.4141238   -3.5033985   -1.9146722   0.21712651   -3.5033985    1.5887263  1173370 
 6303000    1.4150904   -3.5043088   -1.9145359   0.21774715   -3.5043088    1.5897729  1173399 
 6304000    1.4121593   -3.5014081   -1.9149619   0.22496307   -3.5014081    1.5864462  1173424 
 6305000    1.4126267   -3.5021146   -1.9151744   0.21906036   -3.5021146    1.5869402  1173447 
 6306000    1.4137603   -3.5028498   -1.9146795   0.21592101   -3.5028498    1.5881703  1173479 
 6307000    1.4140189   -3.5028788    -1.914445   0.21547559   -3.5028788    1.5884338  1173499 
 6308000    1.4138208   -3.5027899   -1.9146288   0.21938925   -3.5027899    1.5881612  1173536 
 6309000    1.4148016    -3.503713   -1.9144853   0.21534544    -3.503713    1.5892277  1173562 
 6310000    1.4143371   -3.5029127   -1.9142501   0.22080299   -3.5029127    1.5886626  1173594 
 6311000    1.4125308   -3.5018518   -1.9152682   0.22164188   -3.5018518    1.5865836  1173631 
 6312000    1.4127776   -3.5021997   -1.9153768   0.21843921   -3.5021997     1.586823  1173659 
 6313000    1.4135686   -3.5027016   -1.9150348   0.21917965   -3.5027016    1.5876668  1173692 
 6314000    1.4133948    -3.503313   -1.9158792   0.22608771    -3.503313    1.5874338  1173720 
 6315000    1.4122006   -3.5029962   -1.9169456   0.21933363   -3.5029962    1.5860506  1173751 
 6316000    1.4116536   -3.5023732   -1.9169761   0.22262027   -3.5023732    1.5853971  1173780 
 6317000    1.4131411   -3.5042272   -1.9171866   0.21691869   -3.5042272    1.5870406  1173800 
 6318000    1.4130779   -3.5038409   -1.9169064   0.21601601   -3.5038409    1.5869345  1173826 
 6319000    1.4126775   -3.5038616   -1.9174119   0.22186857   -3.5038616    1.5864497  1173852 
 6320000    1.4127177   -3.5037292    -1.917275   0.21775369   -3.5037292    1.5864543  1173882 
 6321000    1.4126598   -3.5043198   -1.9179778   0.21883538   -3.5043198     1.586342  1173917 
 6322000    1.4129736   -3.5042774   -1.9176196   0.21605024   -3.5042774    1.5866579  1173944 
 6323000    1.4131671    -3.504894   -1.9180526   0.21784468    -3.504894    1.5868414  1173969 
 6324000    1.4120578   -3.5034017   -1.9178317   0.21940151   -3.5034017    1.5855701  1173988 
 6325000    1.4144195   -3.5055614   -1.9173923    0.2176709   -3.5055614    1.5881692  1174027 
 6326000    1.4124838   -3.5039272   -1.9179707    0.2211277   -3.5039272    1.5859566  1174056 
 6327000    1.4134328    -3.504722   -1.9177485   0.22231151    -3.504722    1.5869735  1174092 
 6328000    1.4130765   -3.5052171   -1.9186801   0.21652113   -3.5052171    1.5865369  1174119 
 6329000    1.4133281   -3.5054964   -1.9187094   0.21870294   -3.5054964     1.586787  1174143 
 6330000     1.412895    -3.504971   -1.9187216   0.21807847    -3.504971    1.5862494  1174181 
 6331000    1.4127816   -3.5051386   -1.9190489   0.21684411   -3.5051386    1.5860897  1174205 
 6332000     1.413534   -3.5056903   -1.9187978   0.22095455   -3.5056903    1.5868925  1174236 
 6333000    1.4137349   -3.5055167   -1.9184528   0.21669041   -3.5055167    1.5870639  1174276 
 6334000    1.4131261   -3.5045628   -1.9182174   0.21824035   -3.5045628    1.5863454  1174302 
 6335000    1.4131739   -3.5050266   -1.9186559   0.22140429   -3.5050266    1.5863706  1174323 
 6336000    1.4130833   -3.5050683   -1.9188507   0.22081119   -3.5050683    1.5862176  1174361 
 6337000    1.4136217   -3.5057709   -1.9189975   0.21515725   -3.5057709    1.5867734  1174397 
 6338000    1.4139067   -3.5062705   -1.9192097   0.21946404   -3.5062705    1.5870608  1174421 
 6339000    1.4127371   -3.5044252   -1.9187164   0.21687852   -3.5044252    1.5857088  1174450 
 6340000    1.4137459   -3.5057287   -1.9189253   0.21822867   -3.5057287    1.5868034  1174478 
 6341000     1.412432   -3.5038103   -1.9185141   0.22207657   -3.5038103    1.5852962  1174502 
 6342000    1.4133266   -3.5051242   -1.9188725   0.21932865   -3.5051242    1.5862516  1174538 
 6343000    1.4134457   -3.5052609   -1.9189107   0.22137335   -3.5052609    1.5863502  1174564 
 6344000     1.413219   -3.5048139    -1.918764    0.2208622   -3.5048139    1.5860499  1174598 
 6345000    1.4141214   -3.5055937   -1.9185675   0.22218934   -3.5055937    1.5870262  1174625 
 6346000    1.4136025   -3.5058719   -1.9194565   0.21827371   -3.5058719    1.5864154  1174646 
 6347000    1.4127915   -3.5049434   -1.9194718    0.2200909   -3.5049434    1.5854715  1174671 
 6348000    1.4139238    -3.506213   -1.9195112   0.21847774    -3.506213    1.5867018  1174701 
 6349000    1.4133477   -3.5054945   -1.9194892   0.21809796   -3.5054945    1.5860053  1174738 
 6350000    1.4140743   -3.5059932    -1.919209   0.22089019   -3.5059932    1.5867842  1174765 
 6351000    1.4141472   -3.5065144   -1.9196944   0.21869532   -3.5065144      1.58682  1174799 
 6352000    1.4142709   -3.5061486   -1.9192316   0.22485404   -3.5061486     1.586917  1174830 
 6353000    1.4147679   -3.5065202   -1.9190794   0.22225544   -3.5065202    1.5874408  1174855 
 6354000    1.4153839   -3.5077717   -1.9196815   0.21959614   -3.5077717    1.5880902  1174886 
 6355000    1.4149387   -3.5074467   -1.9199034   0.22186885   -3.5074467    1.5875433  1174921 
 6356000    1.4141082   -3.5062871   -1.9197216    0.2288194   -3.5062871    1.5865656  1174955 
 6357000     1.413826    -3.506556   -1.9203299   0.22132907    -3.506556    1.5862261  1174972 
 6358000    1.4137309   -3.5064441   -1.9203626   0.22679849   -3.5064441    1.5860815  1175000 
 6359000    1.4148509   -3.5081404   -1.9208549   0.22032844   -3.5081404    1.5872854  1175039 
 6360000    1.4142553   -3.5077617   -1.9211796   0.22201391   -3.5077617    1.5865821  1175065 
 6361000    1.4132216   -3.5070407   -1.9216546   0.22501628   -3.5070407    1.5853861  1175092 
 6362000     1.413645   -3.5076042   -1.9217904   0.22207531   -3.5076042    1.5858138  1175127 
 6363000    1.4138618    -3.508215    -1.922208   0.21784834    -3.508215     1.586007  1175164 
 6364000    1.4130044    -3.507048   -1.9220486   0.22141548    -3.507048    1.5849994  1175198 
 6365000    1.4141939   -3.5084041   -1.9221029   0.22118394   -3.5084041    1.5863012  1175222 
 6366000    1.4136305   -3.5078731   -1.9222376   0.21772758   -3.5078731    1.5856355  1175247 
 6367000      1.41421   -3.5082686    -1.922014   0.21768014   -3.5082686    1.5862546  1175270 
 6368000    1.4142994   -3.5091108   -1.9228018   0.21439284   -3.5091108     1.586309  1175304 
 6369000    1.4147939   -3.5091348    -1.922305    0.2162416   -3.5091348    1.5868298  1175329 
 6370000    1.4131529   -3.5076834   -1.9227359   0.21942765   -3.5076834    1.5849475  1175360 
 6371000    1.4141296   -3.5081254   -1.9221122   0.22055796   -3.5081254    1.5860133  1175382 
 6372000    1.4129839   -3.5067023   -1.9220077   0.22117637   -3.5067023    1.5846946  1175407 
 6373000    1.4140823   -3.5080607   -1.9221774   0.21937321   -3.5080607    1.5858832  1175439 
 6374000    1.4146258   -3.5088833   -1.9224364   0.22229473   -3.5088833    1.5864469  1175473 
 6375000    1.4150878   -3.5091048   -1.9221789    0.2198544   -3.5091048    1.5869259  1175502 
 6376000    1.4149736   -3.5092982   -1.9225464   0.21929593   -3.5092982    1.5867519  1175536 
 6377000    1.4150877    -3.509178   -1.9223414   0.22260691    -3.509178    1.5868367  1175568 
 6378000    1.4146254   -3.5085396   -1.9222834   0.21921385   -3.5085396    1.5862562  1175614 
 6379000    1.4127522   -3.5063745   -1.9222713   0.22446793   -3.5063745    1.5841032  1175653 
 6380000     1.413688   -3.5076944   -1.9225985   0.22065591   -3.5076944    1.5850959  1175695 
 6381000    1.4140525   -3.5071927   -1.9217327   0.22308291   -3.5071927    1.5854601  1175728 
 6382000    1.4156291   -3.5096429   -1.9224597   0.22505618   -3.5096429    1.5871832  1175761 
 6383000    1.4152704   -3.5095577   -1.9228185   0.22517019   -3.5095577    1.5867392  1175792 
 6384000     1.415732   -3.5104025   -1.9231781   0.22109994   -3.5104025    1.5872244  1175816 
 6385000    1.4147475   -3.5097485   -1.9236657    0.2236241   -3.5097485    1.5860828  1175844 
 6386000    1.4150777   -3.5098207   -1.9234284   0.22002854   -3.5098207    1.5863923  1175889 
 6387000    1.4146862   -3.5094951   -1.9235876   0.22260057   -3.5094951    1.5859075  1175923 
 6388000    1.4154297   -3.5105883   -1.9238932   0.21871321   -3.5105883    1.5866951  1175957 
 6389000    1.4149714   -3.5105827   -1.9244486   0.21963772   -3.5105827    1.5861342  1175992 
 6390000    1.4157515    -3.511243   -1.9242789   0.21730625    -3.511243    1.5869641  1176025 
 6391000    1.4142863   -3.5097301   -1.9244555   0.22182607   -3.5097301    1.5852746  1176060 
 6392000    1.4153522   -3.5108983   -1.9244843   0.21663663   -3.5108983     1.586414  1176101 
 6393000    1.4153753   -3.5105355   -1.9241253   0.22368341   -3.5105355    1.5864103  1176123 
 6394000    1.4156594   -3.5114998   -1.9247995    0.2199899   -3.5114998    1.5867003  1176144 
 6395000    1.4144296   -3.5104516   -1.9251661   0.22068727   -3.5104516    1.5852855  1176171 
 6396000     1.414453   -3.5110858   -1.9258212   0.22046483   -3.5110858    1.5852645  1176206 
 6397000    1.4147894    -3.511057   -1.9254545   0.21932591    -3.511057    1.5856025  1176235 
 6398000    1.4160858   -3.5115988   -1.9245878    0.2212287   -3.5115988    1.5870109  1176268 
 6399000    1.4157408   -3.5114928   -1.9249265   0.21690312   -3.5114928    1.5865662  1176311 
 6400000    1.4154492   -3.5108847   -1.9246817   0.21933365   -3.5108847    1.5862031  1176338 
 6401000    1.4151788   -3.5102726    -1.924413   0.22264158   -3.5102726    1.5858596  1176368 
 6402000     1.415074    -3.510766   -1.9250656   0.22063693    -3.510766    1.5857004  1176399 
 6403000    1.4161728   -3.5116357   -1.9247377   0.21761984   -3.5116357    1.5868979  1176424 
 6404000    1.4150864    -3.510131   -1.9244882   0.22291747    -3.510131    1.5856428  1176452 
 6405000    1.4145052   -3.5100849   -1.9251472   0.22258437   -3.5100849    1.5849377  1176492 
 6406000    1.4146905   -3.5113999   -1.9262949   0.21830368   -3.5113999    1.5851049  1176522 
 6407000    1.4152462   -3.5114471     -1.92576      0.21734   -3.5114471    1.5856872  1176552 
 6408000    1.4168184   -3.5126267   -1.9252131   0.21629317   -3.5126267    1.5874136  1176578 
 6409000    1.4159886   -3.5115839   -1.9251459   0.22019774   -3.5115839     1.586438  1176612 
 6410000    1.4153887   -3.5110858   -1.9253643   0.22219379   -3.5110858    1.5857215  1176645 
 6411000    1.4149989   -3.5108205   -1.9255789   0.21943265   -3.5108205    1.5852416  1176677 
 6412000    1.4149737   -3.5107159   -1.9255416   0.21937473   -3.5107159    1.5851743  1176706 
 6413000    1.4149471    -3.510456   -1.9253506   0.22341866    -3.510456    1.5851054  1176735 
 6414000    1.4147522   -3.5104688   -1.9256248    0.2254682   -3.5104688     1.584844  1176767 
 6415000    1.4157894   -3.5114149   -1.9254548   0.22043649   -3.5114149    1.5859601  1176801 
 6416000     1.417305   -3.5124853   -1.9248692   0.22204729   -3.5124853    1.5876161  1176832 
 6417000    1.4161359   -3.5117633   -1.9254959   0.22344996   -3.5117633    1.5862674  1176861 
 6418000    1.4171723   -3.5129265   -1.9255333   0.21849944   -3.5129265    1.5873932  1176887 
 6419000    1.4160249   -3.5114471   -1.9253701   0.22347141   -3.5114471     1.586077  1176910 
 6420000    1.4168446   -3.5120522   -1.9250989   0.22099725   -3.5120522    1.5869533  1176941 
 6421000    1.4169811   -3.5122565   -1.9251813   0.22336936   -3.5122565    1.5870752  1176964 
 6422000    1.4171239   -3.5129591   -1.9257644   0.22196855   -3.5129591    1.5871947  1176994 
 6423000    1.4171324   -3.5127234   -1.9255677   0.21925281   -3.5127234    1.5871557  1177030 
 6424000    1.4164622   -3.5124597   -1.9261005   0.21898383   -3.5124597    1.5863592  1177064 
 6425000    1.4153497    -3.510923   -1.9258528   0.22605602    -3.510923    1.5850702  1177096 
 6426000    1.4167681   -3.5124593   -1.9258625    0.2187513   -3.5124593    1.5865967  1177142 
 6427000    1.4164866   -3.5122941   -1.9260584     0.218284   -3.5122941    1.5862356  1177176 
 6428000    1.4171522   -3.5129416   -1.9260065   0.21910968   -3.5129416    1.5869351  1177210 
 6429000    1.4171504   -3.5130349   -1.9261395   0.22091945   -3.5130349    1.5868954  1177238 
 6430000    1.4173888   -3.5130185   -1.9259033   0.22105306   -3.5130185    1.5871151  1177273 
 6431000    1.4168731   -3.5127949   -1.9262881   0.22061787   -3.5127949    1.5865067  1177296 
 6432000    1.4167881   -3.5124236   -1.9260525   0.22207111   -3.5124236    1.5863711  1177326 
 6433000     1.416894   -3.5124403   -1.9259816   0.22241447   -3.5124403    1.5864587  1177349 
 6434000     1.416812   -3.5129778    -1.926654   0.22432594   -3.5129778    1.5863238  1177381 
 6435000    1.4169571   -3.5126318   -1.9261887   0.22357697   -3.5126318    1.5864431  1177413 
 6436000    1.4164252   -3.5113974    -1.925597   0.22873458   -3.5113974    1.5858004  1177448 
 6437000     1.417576   -3.5131516    -1.926114   0.22125844   -3.5131516    1.5870376  1177486 
 6438000    1.4171764   -3.5129373   -1.9263794   0.22778011   -3.5129373     1.586558  1177510 
 6439000    1.4174932   -3.5126716   -1.9258021   0.22002367   -3.5126716    1.5868695  1177542 
 6440000    1.4169449    -3.512839    -1.926621   0.22279851    -3.512839     1.586218  1177570 
 6441000     1.417395   -3.5131276   -1.9264382   0.22382682   -3.5131276    1.5866895  1177594 
 6442000    1.4166397    -3.512422   -1.9266279    0.2217559    -3.512422    1.5857941  1177631 
 6443000    1.4169735   -3.5124553   -1.9263373   0.22473681   -3.5124553     1.586118  1177668 
 6444000    1.4168348   -3.5126701   -1.9267465   0.22635027   -3.5126701    1.5859236  1177697 
 6445000    1.4175588   -3.5135171   -1.9268167   0.22199648   -3.5135171    1.5867003  1177722 
 6446000    1.4177363   -3.5139706   -1.9271012   0.22335843   -3.5139706    1.5868694  1177744 
 6447000    1.4178977   -3.5147125   -1.9276894   0.21811977   -3.5147125    1.5870231  1177764 
 6448000    1.4175803   -3.5136161   -1.9269792   0.22563549   -3.5136161    1.5866369  1177787 
 6449000    1.4175015   -3.5132556   -1.9267352   0.22299409   -3.5132556    1.5865204  1177808 
 6450000    1.4172896   -3.5132849   -1.9270394   0.22114067   -3.5132849    1.5862455  1177836 
 6451000    1.4177981   -3.5144034   -1.9276238   0.22288052   -3.5144034    1.5867796  1177862 
 6452000    1.4177345   -3.5143522   -1.9276842   0.22547594   -3.5143522     1.586668  1177892 
 6453000    1.4180189   -3.5147016   -1.9277463   0.22668566   -3.5147016    1.5869553  1177915 
 6454000    1.4175727   -3.5141091   -1.9276855   0.21981439   -3.5141091    1.5864236  1177939 
 6455000    1.4172333   -3.5139125   -1.9279118   0.22340493   -3.5139125    1.5860007  1177971 
 6456000    1.4188679   -3.5157035    -1.927918   0.21555846   -3.5157035    1.5877855  1178004 
 6457000    1.4165695   -3.5134828   -1.9283218   0.22246951   -3.5134828     1.585161  1178043 
 6458000     1.418337   -3.5148665   -1.9277614   0.22589256   -3.5148665    1.5871051  1178068 
 6459000    1.4175587   -3.5143155   -1.9281257   0.22242205   -3.5143155    1.5861898  1178101 
 6460000    1.4181155   -3.5151499   -1.9283735   0.21964229   -3.5151499    1.5867764  1178128 
 6461000    1.4175685    -3.514766   -1.9286501   0.22611132    -3.514766    1.5861159  1178164 
 6462000    1.4171035    -3.514477    -1.928919   0.22494249    -3.514477     1.585558  1178192 
 6463000    1.4175882   -3.5151863   -1.9291196   0.22092264   -3.5151863    1.5860667  1178217 
 6464000    1.4178704   -3.5153954   -1.9290548   0.22269855   -3.5153954    1.5863406  1178248 
 6465000    1.4174315    -3.515017   -1.9291998   0.22255659    -3.515017    1.5858173  1178272 
 6466000    1.4177376   -3.5148706   -1.9287687   0.22068669   -3.5148706    1.5861019  1178315 
 6467000    1.4182859   -3.5153465    -1.928677   0.22483755   -3.5153465    1.5866695  1178349 
 6468000    1.4189373   -3.5155491   -1.9282048   0.22170186   -3.5155491    1.5873443  1178389 
 6469000    1.4173638   -3.5145012    -1.928948   0.22027426   -3.5145012    1.5855532  1178412 
 6470000    1.4178209   -3.5141818   -1.9281509   0.22128521   -3.5141818    1.5860309  1178437 
 6471000    1.4189439   -3.5147913   -1.9275312   0.22555825   -3.5147913    1.5872601  1178457 
 6472000    1.4191271   -3.5157074   -1.9282935   0.22024419   -3.5157074    1.5874138  1178495 
 6473000     1.418852   -3.5163029   -1.9292344   0.22114533   -3.5163029    1.5870685  1178523 
 6474000     1.417403   -3.5156842   -1.9302822   0.22450914   -3.5156842    1.5854019  1178557 
 6475000    1.4176502   -3.5158559   -1.9302205   0.22223791   -3.5158559    1.5856354  1178589 
 6476000    1.4168125   -3.5149554   -1.9302905   0.22546233   -3.5149554    1.5846648  1178614 
 6477000    1.4171501   -3.5148106   -1.9298005    0.2259127   -3.5148106    1.5850101  1178638 
 6478000    1.4173866   -3.5156879   -1.9304429   0.22074182   -3.5156879     1.585245  1178660 
 6479000    1.4166312   -3.5147155   -1.9303597   0.22555339   -3.5147155    1.5843558  1178693 
 6480000    1.4185986   -3.5169356   -1.9304185   0.21793773   -3.5169356    1.5865171  1178722 
 6481000    1.4178463   -3.5162417   -1.9305982   0.22165012   -3.5162417    1.5856435  1178746 
 6482000    1.4176292   -3.5158056    -1.930417   0.22480735   -3.5158056    1.5853886  1178755 
 6483000    1.4181056   -3.5168654   -1.9309776   0.21939819   -3.5168654    1.5858877  1178780 
 6484000    1.4183534   -3.5172857   -1.9311571   0.22396783   -3.5172857    1.5861286  1178807 
 6485000    1.4184219   -3.5175496   -1.9313701   0.22327416   -3.5175496    1.5861795  1178826 
 6486000    1.4183169   -3.5177521   -1.9317276   0.22319959   -3.5177521    1.5860245  1178854 
 6487000     1.417615   -3.5171444   -1.9319505   0.22158737   -3.5171444    1.5851939  1178888 
 6488000    1.4184909   -3.5179968   -1.9318464   0.22363492   -3.5179968    1.5861504  1178905 
 6489000     1.418166   -3.5177003   -1.9319482   0.21941526   -3.5177003    1.5857522  1178931 
 6490000    1.4168351   -3.5163735   -1.9321404   0.22107822   -3.5163735    1.5842331  1178954 
 6491000    1.4186022   -3.5186652   -1.9325101   0.21988228   -3.5186652    1.5861551  1178994 
 6492000    1.4177838   -3.5180754   -1.9328851   0.22043416   -3.5180754    1.5851903  1179031 
 6493000    1.4170071    -3.516798   -1.9325137   0.22272792    -3.516798    1.5842843  1179059 
 6494000    1.4185054   -3.5186645   -1.9327507   0.21979431   -3.5186645    1.5859138  1179093 
 6495000    1.4183326   -3.5184219   -1.9327323    0.2211046   -3.5184219    1.5856896  1179116 
 6496000    1.4181703   -3.5187384   -1.9332732   0.22032399   -3.5187384    1.5854652  1179148 
 6497000     1.417817   -3.5179547   -1.9329316   0.22556646   -3.5179547    1.5850231  1179183 
 6498000    1.4183545   -3.5186744   -1.9331002   0.21572303   -3.5186744    1.5855742  1179220 
 6499000    1.4191447   -3.5189637   -1.9325276   0.22235223   -3.5189637    1.5864361  1179236 
 6500000     1.418476   -3.5185631   -1.9329149   0.22119486   -3.5185631    1.5856482  1179266 
 6501000    1.4190704   -3.5187577   -1.9324908   0.22106381   -3.5187577    1.5862669  1179300 
 6502000    1.4176376   -3.5168292   -1.9322149   0.22692407   -3.5168292    1.5846143  1179338 
 6503000    1.4197285   -3.5188928   -1.9319709   0.22278957   -3.5188928    1.5869219  1179360 
 6504000    1.4184408   -3.5178188   -1.9323632   0.22235846   -3.5178188    1.5854556  1179380 
 6505000    1.4183313   -3.5172529   -1.9319573    0.2234464   -3.5172529    1.5852956  1179408 
 6506000    1.4185691   -3.5176205   -1.9321076   0.22571362   -3.5176205    1.5855129  1179444 
 6507000    1.4196378   -3.5195659   -1.9328894   0.22227003   -3.5195659    1.5866765  1179467 
 6508000     1.418648   -3.5179127   -1.9323841   0.22678694   -3.5179127    1.5855285  1179498 
 6509000    1.4192275   -3.5184538   -1.9323153    0.2253807   -3.5184538    1.5861385  1179526 
 6510000    1.4191856   -3.5189519   -1.9328937   0.22265016   -3.5189519    1.5860582  1179551 
 6511000    1.4188562   -3.5188597   -1.9331994   0.22228201   -3.5188597    1.5856604  1179573 
 6512000    1.4190356   -3.5183487   -1.9325388   0.22339188   -3.5183487    1.5858098  1179611 
 6513000    1.4194084   -3.5193205   -1.9331425   0.22588325   -3.5193205     1.586178  1179647 
 6514000      1.41877   -3.5183076    -1.932894   0.22528976   -3.5183076    1.5854136  1179685 
 6515000    1.4196571   -3.5193786     -1.93301   0.22314127   -3.5193786    1.5863686  1179712 
 6516000    1.4197502   -3.5192551   -1.9328161   0.22429186   -3.5192551     1.586439  1179737 
 6517000    1.4197939   -3.5192139   -1.9327678   0.22216443   -3.5192139    1.5864461  1179768 
 6518000    1.4191061   -3.5184821   -1.9328327   0.22541218   -3.5184821    1.5856493  1179789 
 6519000    1.4189912   -3.5186209   -1.9331416   0.22266631   -3.5186209    1.5854793  1179820 
 6520000    1.4190064   -3.5186879   -1.9332239   0.22702501   -3.5186879     1.585464  1179844 
 6521000    1.4184622   -3.5189574   -1.9341403   0.22174989   -3.5189574    1.5848171  1179873 
 6522000    1.4187191   -3.5187076    -1.933629   0.23002222   -3.5187076    1.5850786  1179892 
 6523000    1.4192562   -3.5206043    -1.934962   0.22241593   -3.5206043    1.5856423  1179919 
 6524000    1.4189973   -3.5199674   -1.9346358   0.21836176   -3.5199674    1.5853316  1179935 
 6525000    1.4184512   -3.5198131   -1.9351158   0.22261934   -3.5198131    1.5846973  1179953 
 6526000     1.419534   -3.5213703   -1.9355224   0.21982108   -3.5213703    1.5858479  1179997 
 6527000    1.4181308   -3.5198769   -1.9356302   0.22637161   -3.5198769    1.5842466  1180022 
 6528000    1.4188264   -3.5210459    -1.936053   0.22247742   -3.5210459    1.5849928  1180045 
 6529000    1.4196079   -3.5217092   -1.9358675   0.21956463   -3.5217092    1.5858417  1180063 
 6530000    1.4188346   -3.5209172   -1.9359877   0.21929853   -3.5209172    1.5849295  1180099 
 6531000    1.4180463   -3.5201587   -1.9361528   0.22363693   -3.5201587    1.5840059  1180131 
 6532000    1.4181121   -3.5204267   -1.9363714    0.2240431   -3.5204267    1.5840554  1180149 
 6533000    1.4170721   -3.5192213   -1.9363652   0.22540143   -3.5192213    1.5828561  1180177 
 6534000    1.4184436   -3.5204486   -1.9361209   0.22150657   -3.5204486    1.5843276  1180222 
 6535000    1.4178206   -3.5200764   -1.9364835   0.22385704   -3.5200764    1.5835928  1180251 
 6536000    1.4190201   -3.5213736   -1.9364732   0.22599345   -3.5213736    1.5849004  1180275 
 6537000    1.4184054   -3.5204921   -1.9363307   0.22480361   -3.5204921    1.5841615  1180314 
 6538000    1.4182013   -3.5199204   -1.9360151     0.225919   -3.5199204    1.5839054  1180335 
 6539000    1.4194118   -3.5210868   -1.9358618   0.22655012   -3.5210868     1.585225  1180359 
 6540000    1.4193333   -3.5208139   -1.9357154   0.22488876   -3.5208139    1.5850985  1180388 
 6541000    1.4198908   -3.5216702   -1.9359922   0.22520224   -3.5216702    1.5856781  1180420 
 6542000    1.4188646   -3.5206689   -1.9361651   0.22411228   -3.5206689    1.5845039  1180441 
 6543000    1.4189302   -3.5206642   -1.9361166    0.2244565   -3.5206642    1.5845476  1180463 
 6544000    1.4178028   -3.5197019   -1.9364402   0.22580476   -3.5197019    1.5832617  1180483 
 6545000    1.4192384   -3.5216172   -1.9367886   0.22376643   -3.5216172    1.5848286  1180510 
 6546000    1.4183701   -3.5211926   -1.9373792   0.22685063   -3.5211926    1.5838134  1180544 
 6547000    1.4198082    -3.522789    -1.937406   0.22267539    -3.522789     1.585383  1180571 
 6548000    1.4198244   -3.5225253   -1.9371658   0.21993984   -3.5225253    1.5853595  1180602 
 6549000     1.419378   -3.5222175   -1.9373994   0.22435735   -3.5222175    1.5848181  1180634 
 6550000    1.4192184   -3.5223349   -1.9377259   0.22288767   -3.5223349     1.584609  1180657 
 6551000    1.4199616   -3.5225644   -1.9371619   0.22438199   -3.5225644    1.5854025  1180684 
 6552000    1.4193501   -3.5214083   -1.9367273   0.22393164   -3.5214083    1.5846809  1180713 
 6553000    1.4208179   -3.5238594    -1.937576     0.219245   -3.5238594    1.5862834  1180740 
 6554000    1.4200601   -3.5220382   -1.9366519   0.22069324   -3.5220382    1.5853863  1180778 
 6555000    1.4188888   -3.5210744   -1.9370373   0.22703148   -3.5210744    1.5840371  1180809 
 6556000    1.4196073   -3.5223197   -1.9375328   0.22157678   -3.5223197    1.5847869  1180848 
 6557000    1.4199592   -3.5229543   -1.9378297   0.22098702   -3.5229543    1.5851246  1180889 
 6558000    1.4189652   -3.5215032   -1.9375096   0.22877306   -3.5215032    1.5839936  1180905 
 6559000    1.4195277   -3.5210771   -1.9364877   0.22722374   -3.5210771    1.5845893  1180929 
 6560000    1.4203928   -3.5222645   -1.9367444   0.22506048   -3.5222645    1.5855201  1180955 
 6561000    1.4202906   -3.5218875   -1.9365111   0.22624156   -3.5218875    1.5853764  1180977 
 6562000    1.4208402   -3.5220686   -1.9361163   0.22637007   -3.5220686    1.5859524  1181005 
 6563000    1.4211543   -3.5228688   -1.9366034   0.22762575   -3.5228688    1.5862654  1181033 
 6564000    1.4209087   -3.5230345   -1.9370756    0.2250863   -3.5230345    1.5859589  1181057 
 6565000    1.4192687   -3.5210781   -1.9369845   0.22998709   -3.5210781    1.5840936  1181083 
 6566000    1.4198545   -3.5222209   -1.9374963   0.22943719   -3.5222209    1.5847246  1181100 
 6567000    1.4210331   -3.5235931   -1.9376013    0.2238571   -3.5235931    1.5859918  1181136 
 6568000    1.4202011   -3.5223548   -1.9373292   0.22380632   -3.5223548    1.5850256  1181164 
 6569000    1.4213188   -3.5237637   -1.9375283   0.22485416   -3.5237637    1.5862354  1181192 
 6570000    1.4185402   -3.5208626   -1.9377698    0.2249659   -3.5208626    1.5830928  1181223 
 6571000    1.4209679   -3.5238266   -1.9380687   0.22474936   -3.5238266    1.5857579  1181256 
 6572000    1.4200552   -3.5230146   -1.9383088   0.22627305   -3.5230146    1.5847058  1181281 
 6573000    1.4197357   -3.5231142   -1.9387985    0.2271905   -3.5231142    1.5843157  1181306 
 6574000    1.4197223   -3.5234039   -1.9391367    0.2219089   -3.5234039    1.5842672  1181331 
 6575000    1.4192256   -3.5230536   -1.9393702   0.22193018   -3.5230536    1.5836834  1181353 
 6576000     1.421004   -3.5248997   -1.9392787   0.22024738   -3.5248997     1.585621  1181388 
 6577000    1.4189135   -3.5227654   -1.9395039    0.2229939   -3.5227654    1.5832615  1181408 
 6578000    1.4196526   -3.5241927   -1.9401334   0.21868739   -3.5241927    1.5840593  1181428 
 6579000    1.4196418   -3.5241356   -1.9401273   0.22234402   -3.5241356    1.5840084  1181457 
 6580000    1.4192548   -3.5242399   -1.9407021   0.22434535   -3.5242399    1.5835377  1181486 
 6581000    1.4190455   -3.5236831   -1.9404164   0.22823305   -3.5236831    1.5832667  1181514 
 6582000    1.4193297   -3.5240344   -1.9404854   0.22331053   -3.5240344     1.583549  1181540 
 6583000    1.4204941   -3.5250459     -1.94023   0.22622854   -3.5250459    1.5848159  1181564 
 6584000    1.4191593      -3.5232   -1.9399135   0.22939806      -3.5232    1.5832865  1181594 
 6585000    1.4204943   -3.5247082     -1.93997   0.22403979   -3.5247082    1.5847383  1181622 
 6586000    1.4198504   -3.5237317   -1.9397412   0.22837821   -3.5237317    1.5839905  1181644 
 6587000    1.4197916   -3.5239169   -1.9400295   0.22592446   -3.5239169    1.5838874  1181672 
 6588000    1.4211086    -3.525375   -1.9400479   0.22572769    -3.525375    1.5853271  1181694 
 6589000    1.4198847   -3.5241633   -1.9402272   0.22821162   -3.5241633    1.5839362  1181713 
 6590000    1.4203214   -3.5252273   -1.9408482    0.2265135   -3.5252273    1.5843791  1181746 
 6591000    1.4206829   -3.5249028   -1.9401606   0.22459935   -3.5249028    1.5847422  1181776 
 6592000    1.4214169   -3.5252974   -1.9397861   0.22309269   -3.5252974    1.5855113  1181813 
 6593000    1.4213371   -3.5256557   -1.9402723   0.22417696   -3.5256557    1.5853833  1181842 
 6594000    1.4214889   -3.5261081   -1.9405997   0.22413761   -3.5261081    1.5855084  1181875 
 6595000    1.4208964   -3.5257186   -1.9409139   0.22362366   -3.5257186    1.5848047  1181907 
 6596000    1.4189634   -3.5237225   -1.9411047   0.22215046   -3.5237225    1.5826179  1181930 
 6597000    1.4204086   -3.5254294   -1.9412425   0.22158268   -3.5254294    1.5841868  1181962 
 6598000    1.4191938   -3.5243837   -1.9415852   0.22176145   -3.5243837    1.5827985  1181987 
 6599000    1.4192755   -3.5241971   -1.9413477   0.22845863   -3.5241971    1.5828494  1182017 
 6600000    1.4206265   -3.5265138   -1.9421844   0.21731136   -3.5265138    1.5843294  1182037 
 6601000    1.4204753   -3.5260011   -1.9418806   0.22661437   -3.5260011    1.5841205  1182067 
 6602000    1.4197769   -3.5250724   -1.9417656   0.22494163   -3.5250724    1.5833068  1182093 
 6603000    1.4198081   -3.5249888   -1.9416887   0.22092525   -3.5249888    1.5833001  1182124 
 6604000    1.4210375   -3.5264356   -1.9418061   0.22460259   -3.5264356    1.5846295  1182155 
 6605000    1.4203109     -3.52534    -1.941557   0.22335345     -3.52534    1.5837831  1182182 
 6606000    1.4209042   -3.5254626   -1.9410554    0.2251158   -3.5254626    1.5844072  1182210 
 6607000    1.4220647   -3.5265647   -1.9409037   0.22504856   -3.5265647     1.585661  1182240 
 6608000     1.421611   -3.5267926   -1.9416589   0.22506873   -3.5267926    1.5851336  1182256 
 6609000    1.4206315   -3.5258398   -1.9418413   0.22576259   -3.5258398    1.5839985  1182288 
 6610000    1.4212816   -3.5270234   -1.9423375   0.22629588   -3.5270234     1.584686  1182316 
 6611000    1.4216229   -3.5277477   -1.9427174   0.22646197   -3.5277477    1.5850302  1182343 
 6612000    1.4207563   -3.5265511    -1.942538   0.22712508   -3.5265511    1.5840131  1182381 
 6613000    1.4211208   -3.5272917   -1.9429056   0.22578027   -3.5272917     1.584386  1182406 
 6614000    1.4221294   -3.5281897   -1.9427114   0.22333333   -3.5281897    1.5854783  1182430 
 6615000    1.4209057   -3.5275065    -1.943438   0.22504794   -3.5275065    1.5840685  1182464 
 6616000     1.420874   -3.5279606   -1.9439556   0.22315271   -3.5279606     1.584005  1182485 
 6617000    1.4215301   -3.5289857   -1.9442868   0.22039689   -3.5289857    1.5846989  1182513 
 6618000    1.4210268   -3.5279975   -1.9438986   0.22604032   -3.5279975     1.584099  1182542 
 6619000    1.4201571   -3.5276241   -1.9445241   0.22459743   -3.5276241       1.5831  1182564 
 6620000    1.4207487   -3.5277829   -1.9440636   0.22178402   -3.5277829    1.5837193  1182594 
 6621000    1.4204205   -3.5278879   -1.9445745   0.22452662   -3.5278879    1.5833134  1182624 
 6622000    1.4203649    -3.526671   -1.9434705   0.22631183    -3.526671    1.5832005  1182662 
 6623000    1.4208804   -3.5277633   -1.9440244   0.22229012   -3.5277633     1.583739  1182689 
 6624000    1.4217725   -3.5285944   -1.9439094   0.22118939   -3.5285944     1.584685  1182725 
 6625000    1.4199524    -3.526704   -1.9440797   0.22316432    -3.526704    1.5826242  1182749 
 6626000    1.4208669   -3.5282532   -1.9446565   0.22334957   -3.5282532    1.5835967  1182784 
 6627000    1.4209911    -3.528344   -1.9446505   0.22049103    -3.528344    1.5836936  1182815 
 6628000    1.4203152   -3.5275323   -1.9446214    0.2284284   -3.5275323    1.5829109  1182837 
 6629000    1.4205995    -3.528159   -1.9449661   0.22426302    -3.528159    1.5831929  1182863 
 6630000    1.4204151   -3.5272494   -1.9442967   0.22589055   -3.5272494    1.5829527  1182889 
 6631000    1.4215456   -3.5286882   -1.9445253    0.2243354   -3.5286882    1.5841629  1182926 
 6632000    1.4209019   -3.5278042   -1.9444041   0.22136041   -3.5278042    1.5834001  1182960 
 6633000    1.4207584   -3.5275568   -1.9443675   0.22382681   -3.5275568    1.5831893  1182998 
 6634000    1.4210982   -3.5284396   -1.9449011    0.2244542   -3.5284396    1.5835385  1183020 
 6635000    1.4208241    -3.527728    -1.944531   0.22644976    -3.527728     1.583197  1183047 
 6636000    1.4216773   -3.5285712   -1.9444651   0.22434719   -3.5285712    1.5841061  1183078 
 6637000    1.4215228    -3.528924   -1.9450235   0.22383369    -3.528924    1.5839005  1183103 
 6638000    1.4207578   -3.5280697   -1.9450617   0.22616478   -3.5280697    1.5830079  1183133 
 6639000    1.4225826   -3.5297855   -1.9447724   0.22613841   -3.5297855    1.5850131  1183154 
 6640000    1.4215979   -3.5283601   -1.9444763   0.22519101   -3.5283601    1.5838838  1183178 
 6641000    1.4211983   -3.5284209   -1.9450291   0.22428171   -3.5284209    1.5833918  1183213 
 6642000    1.4205963   -3.5282813   -1.9456071   0.22625061   -3.5282813    1.5826742  1183248 
 6643000    1.4210756    -3.528549   -1.9453836   0.22234816    -3.528549    1.5831654  1183280 
 6644000    1.4225774   -3.5292665   -1.9444683   0.22614283   -3.5292665    1.5847983  1183310 
 6645000    1.4215167   -3.5281935    -1.944617   0.22857695   -3.5281935    1.5835765  1183340 
 6646000    1.4209682   -3.5283149   -1.9453815   0.22597973   -3.5283149    1.5829334  1183364 
 6647000    1.4221379   -3.5299968   -1.9457872   0.22483092   -3.5299968    1.5842096  1183384 
 6648000     1.421529   -3.5298196   -1.9463271    0.2235635   -3.5298196    1.5834925  1183413 
 6649000    1.4215104   -3.5290971   -1.9456681   0.22676374   -3.5290971     1.583429  1183445 
 6650000    1.4215926   -3.5295706   -1.9460995   0.22442208   -3.5295706    1.5834711  1183482 
 6651000     1.420738   -3.5279766   -1.9454975   0.23002371   -3.5279766    1.5824791  1183512 
 6652000    1.4214168   -3.5293238   -1.9461355   0.22786646   -3.5293238    1.5831883  1183547 
 6653000    1.4220493   -3.5298341   -1.9459881   0.22005328   -3.5298341    1.5838459  1183582 
 6654000    1.4211838   -3.5290163   -1.9461691   0.22881156   -3.5290163    1.5828472  1183608 
 6655000    1.4215724   -3.5295272   -1.9462914   0.22627281   -3.5295272    1.5832358  1183641 
 6656000     1.421374   -3.5292642   -1.9462788   0.22992523   -3.5292642    1.5829855  1183663 
 6657000    1.4228056   -3.5311321   -1.9465938   0.22190641   -3.5311321    1.5845384  1183694 
 6658000    1.4212943   -3.5295106    -1.946682    0.2272019   -3.5295106    1.5828285  1183714 
 6659000    1.4223727   -3.5302936    -1.946307   0.22314496   -3.5302936    1.5839866  1183746 
 6660000    1.4228253   -3.5308908   -1.9464471   0.22421988   -3.5308908    1.5844438  1183781 
 6661000     1.422616   -3.5304269   -1.9462483   0.22559637   -3.5304269    1.5841786  1183805 
 6662000    1.4232249   -3.5310682   -1.9462383   0.22510902   -3.5310682    1.5848299  1183825 
 6663000    1.4218553   -3.5294569   -1.9461949   0.22446601   -3.5294569     1.583262  1183857 
 6664000     1.422621   -3.5302657   -1.9461846    0.2211987   -3.5302657    1.5840812  1183882 
 6665000    1.4225712   -3.5303619   -1.9463709   0.22504273   -3.5303619     1.583991  1183908 
 6666000    1.4234719   -3.5308777   -1.9459133   0.22545968   -3.5308777    1.5849644  1183930 
 6667000    1.4226525   -3.5308199   -1.9468094   0.22310479   -3.5308199    1.5840105  1183961 
 6668000    1.4218735   -3.5304815   -1.9473771   0.22539442   -3.5304815    1.5831044  1183990 
 6669000     1.422042   -3.5304898   -1.9472259   0.22515953   -3.5304898    1.5832639  1184011 
 6670000    1.4216895   -3.5298122   -1.9469795    0.2290416   -3.5298122    1.5828327  1184040 
 6671000    1.4225607   -3.5318584   -1.9480825   0.22047443   -3.5318584    1.5837759  1184060 
 6672000    1.4225798   -3.5314479   -1.9476801   0.22584654   -3.5314479    1.5837677  1184082 
 6673000    1.4217509   -3.5311414   -1.9483313   0.22433217   -3.5311414    1.5828101  1184108 
 6674000    1.4227446   -3.5315049   -1.9476327   0.22639016   -3.5315049    1.5838722  1184141 
 6675000    1.4228585   -3.5310865   -1.9471169   0.22857955   -3.5310865    1.5839696  1184163 
 6676000     1.423777   -3.5321016   -1.9471522    0.2247635   -3.5321016    1.5849493  1184195 
 6677000     1.421202   -3.5300554   -1.9480113   0.22745486   -3.5300554    1.5820441  1184224 
 6678000    1.4229962   -3.5317829   -1.9477723   0.22187465   -3.5317829    1.5840106  1184247 
 6679000    1.4226415   -3.5313057   -1.9477208   0.22636531   -3.5313057    1.5835849  1184270 
 6680000    1.4231595   -3.5325163   -1.9483962   0.22284429   -3.5325163    1.5841202  1184301 
 6681000    1.4222042   -3.5312154   -1.9482027   0.22538214   -3.5312154    1.5830127  1184334 
 6682000    1.4234253   -3.5321982   -1.9478638   0.22662243   -3.5321982    1.5843344  1184362 
 6683000    1.4227947   -3.5313804   -1.9477787   0.23026126   -3.5313804    1.5836017  1184385 
 6684000    1.4229799   -3.5317794    -1.948005   0.22481368   -3.5317794    1.5837744  1184410 
 6685000    1.4225782    -3.531769   -1.9484805   0.23129551    -3.531769    1.5832885  1184439 
 6686000    1.4234308   -3.5316709   -1.9474896   0.22584978   -3.5316709    1.5841813  1184481 
 6687000    1.4240036   -3.5323602   -1.9475641   0.22771047   -3.5323602    1.5847961  1184498 
 6688000    1.4241518   -3.5326116   -1.9476814    0.2261033   -3.5326116    1.5849302  1184521 
 6689000     1.423884   -3.5321791   -1.9475871   0.22612793   -3.5321791     1.584592  1184551 
 6690000     1.424012   -3.5320927   -1.9473957   0.22774102   -3.5320927     1.584697  1184579 
 6691000    1.4236391   -3.5312462   -1.9470002   0.22873353   -3.5312462     1.584246  1184606 
 6692000    1.4246557   -3.5324145   -1.9470841   0.22478222   -3.5324145    1.5853304  1184641 
 6693000     1.423587   -3.5318216   -1.9477233   0.22908085   -3.5318216    1.5840983  1184673 
 6694000    1.4230841   -3.5321322   -1.9486254   0.22579253   -3.5321322    1.5835067  1184697 
 6695000    1.4228445      -3.5314    -1.948192   0.23010449      -3.5314     1.583208  1184721 
 6696000    1.4231284   -3.5321321   -1.9486497   0.22780544   -3.5321321    1.5834824  1184752 
 6697000    1.4242513   -3.5324638   -1.9477667   0.22668475   -3.5324638    1.5846971  1184778 
 6698000    1.4238873   -3.5319848   -1.9477274   0.22605175   -3.5319848    1.5842574  1184804 
 6699000    1.4229557   -3.5309004   -1.9477144   0.22985842   -3.5309004    1.5831861  1184830 
 6700000    1.4237167   -3.5322749   -1.9482783   0.23213276   -3.5322749    1.5839966  1184857 
 6701000    1.4243082   -3.5334044   -1.9487791   0.21968669   -3.5334044    1.5846253  1184879 
 6702000    1.4232799   -3.5322034   -1.9487702   0.23016319   -3.5322034    1.5834332  1184915 
 6703000     1.423123    -3.532746   -1.9495114   0.22635772    -3.532746    1.5832346  1184933 
 6704000    1.4235057   -3.5318564   -1.9482321   0.22567846   -3.5318564    1.5836243  1184960 
 6705000     1.423958   -3.5334413   -1.9493446   0.22942007   -3.5334413    1.5840966  1184983 
 6706000    1.4231441   -3.5329259   -1.9497761   0.22612572   -3.5329259    1.5831498  1185014 
 6707000     1.423502   -3.5333935    -1.949887   0.23043759   -3.5333935    1.5835066  1185045 
 6708000    1.4235854   -3.5337399   -1.9501579   0.22825155   -3.5337399     1.583582  1185058 
 6709000    1.4246402   -3.5347625   -1.9500568   0.22558048   -3.5347625    1.5847058  1185095 
 6710000    1.4226225   -3.5326818   -1.9502471   0.23261613   -3.5326818    1.5824347  1185115 
 6711000    1.4225783   -3.5334261   -1.9510592   0.22145182   -3.5334261    1.5823669  1185129 
 6712000     1.424338   -3.5354413   -1.9511357   0.22392847   -3.5354413    1.5843055  1185143 
 6713000    1.4233066   -3.5335167   -1.9504012    0.2291702   -3.5335167    1.5831155  1185175 
 6714000    1.4230859   -3.5340191   -1.9511864    0.2276285   -3.5340191    1.5828326  1185203 
 6715000    1.4235965   -3.5340818   -1.9507293   0.22715823   -3.5340818    1.5833525  1185239 
 6716000     1.423913   -3.5343268    -1.950657   0.22599069   -3.5343268    1.5836698  1185265 
 6717000    1.4243377   -3.5346306   -1.9505366    0.2277039   -3.5346306     1.584094  1185301 
 6718000    1.4241546   -3.5358015   -1.9519419   0.22269093   -3.5358015    1.5838597  1185324 
 6719000    1.4235261   -3.5353744   -1.9522511   0.22456445   -3.5353744    1.5831233  1185352 
 6720000    1.4219917   -3.5339543   -1.9525694   0.22633567   -3.5339543    1.5813848  1185376 
 6721000    1.4219342    -3.534137   -1.9528428   0.23126693    -3.534137    1.5812942  1185396 
 6722000    1.4220757   -3.5349943   -1.9535721   0.22607057   -3.5349943    1.5814222  1185418 
 6723000     1.422978   -3.5353814   -1.9530025   0.22613072   -3.5353814    1.5823788  1185453 
 6724000    1.4233939    -3.535948   -1.9531268   0.22072074    -3.535948    1.5828213  1185468 
 6725000    1.4223973   -3.5353175    -1.953643   0.22546726   -3.5353175    1.5816744  1185497 
 6726000    1.4229316   -3.5357462   -1.9535163   0.22488486   -3.5357462    1.5822299  1185526 
 6727000    1.4236718   -3.5354448   -1.9524173   0.22968499   -3.5354448    1.5830275  1185545 
 6728000    1.4235281   -3.5354427   -1.9526017   0.22555217   -3.5354427     1.582841  1185565 
 6729000    1.4240909   -3.5362005   -1.9527564   0.22538764   -3.5362005    1.5834441  1185582 
 6730000    1.4243919   -3.5363805   -1.9526378   0.22698071   -3.5363805    1.5837428  1185609 
 6731000    1.4232933   -3.5359764   -1.9534925   0.22363024   -3.5359764    1.5824839  1185637 
 6732000    1.4239484   -3.5371556   -1.9539794   0.22738954   -3.5371556    1.5831762  1185664 
 6733000    1.4236572   -3.5366764   -1.9538655   0.22156837   -3.5366764     1.582811  1185695 
 6734000    1.4229331   -3.5356798   -1.9537126   0.22452353   -3.5356798    1.5819672  1185724 
 6735000    1.4236141   -3.5362784   -1.9535861   0.22528224   -3.5362784    1.5826923  1185748 
 6736000      1.42247   -3.5353958   -1.9540194   0.22929147   -3.5353958    1.5813764  1185781 
 6737000    1.4232315   -3.5369575   -1.9547879   0.22403977   -3.5369575    1.5821696  1185821 
 6738000    1.4214982   -3.5358371   -1.9556317    0.2266753   -3.5358371    1.5802054  1185849 
 6739000    1.4219841    -3.536711       -1.956   0.22267486    -3.536711    1.5807109  1185875 
 6740000    1.4216834   -3.5371537   -1.9568156   0.22238879   -3.5371537    1.5803381  1185904 
 6741000    1.4212291   -3.5360577   -1.9562619   0.22912879   -3.5360577    1.5797958  1185932 
 6742000    1.4214692   -3.5358818   -1.9558432   0.22423242   -3.5358818    1.5800387  1185950 
 6743000    1.4219235   -3.5364663     -1.95596   0.22230117   -3.5364663    1.5805063  1185978 
 6744000    1.4221347   -3.5364864    -1.955796   0.22631791   -3.5364864    1.5806904  1186016 
 6745000    1.4231247   -3.5370971   -1.9553584    0.2236957   -3.5370971    1.5817387  1186055 
 6746000     1.422748   -3.5376695   -1.9563801   0.22465176   -3.5376695    1.5812894  1186078 
 6747000    1.4230573   -3.5380454    -1.956451   0.22210135   -3.5380454    1.5815945  1186107 
 6748000    1.4236015   -3.5382266    -1.956078   0.22400599   -3.5382266    1.5821486  1186145 
 6749000    1.4236843   -3.5387726   -1.9565719   0.22004632   -3.5387726    1.5822007  1186175 
 6750000    1.4221571   -3.5373523   -1.9568929   0.22580034   -3.5373523    1.5804594  1186208 
 6751000    1.4217902   -3.5369549   -1.9569432   0.22553373   -3.5369549    1.5800117  1186238 
 6752000    1.4233165   -3.5388013   -1.9571308   0.22623855   -3.5388013    1.5816705  1186266 
 6753000    1.4222391   -3.5376002   -1.9571708   0.22829947   -3.5376002    1.5804293  1186299 
 6754000    1.4234242   -3.5390053   -1.9572924   0.22461365   -3.5390053    1.5817129  1186324 
 6755000    1.4231063   -3.5380027   -1.9566725   0.22712421   -3.5380027    1.5813303  1186346 
 6756000    1.4218607   -3.5375861   -1.9576704   0.22686866   -3.5375861    1.5799156  1186369 
 6757000    1.4226084   -3.5389185   -1.9582013    0.2251598   -3.5389185    1.5807172  1186391 
 6758000    1.4217768   -3.5381254   -1.9583683   0.22490852   -3.5381254    1.5797571  1186418 
 6759000    1.4234782   -3.5389816   -1.9573567   0.22408368   -3.5389816    1.5816249  1186435 
 6760000    1.4232053   -3.5388391   -1.9575467   0.22574025   -3.5388391    1.5812924  1186457 
 6761000    1.4227619   -3.5386221   -1.9578571   0.22675992   -3.5386221    1.5807651  1186483 
 6762000     1.422364   -3.5385379   -1.9582455   0.22265601   -3.5385379    1.5802924  1186506 
 6763000    1.4225127   -3.5390585   -1.9586395   0.22677935   -3.5390585    1.5804189  1186535 
 6764000    1.4214934   -3.5382852   -1.9590413   0.22644113   -3.5382852    1.5792439  1186567 
 6765000    1.4226574   -3.5388447   -1.9583355   0.22272509   -3.5388447    1.5805092  1186588 
 6766000    1.4221858   -3.5376184   -1.9576731   0.22880304   -3.5376184    1.5799452  1186618 
 6767000    1.4235048   -3.5396286   -1.9582527   0.22366263   -3.5396286    1.5813759  1186644 
 6768000    1.4224106    -3.538451    -1.958324   0.22635651    -3.538451    1.5801271  1186669 
 6769000    1.4231117    -3.538723   -1.9578518   0.22753035    -3.538723    1.5808712  1186695 
 6770000    1.4235827   -3.5393134   -1.9579575   0.22365101   -3.5393134    1.5813558  1186724 
 6771000    1.4234947   -3.5393261   -1.9581172   0.22658888   -3.5393261    1.5812088  1186761 
 6772000    1.4237078   -3.5398337   -1.9584241   0.22330693   -3.5398337    1.5814095  1186788 
 6773000    1.4229978   -3.5389365   -1.9583609    0.2231097   -3.5389365    1.5805756  1186822 
 6774000    1.4230527   -3.5394184   -1.9588245   0.22577952   -3.5394184    1.5805939  1186854 
 6775000    1.4233516   -3.5393996   -1.9585043   0.22565193   -3.5393996    1.5808953  1186877 
 6776000    1.4225153   -3.5393153   -1.9593942   0.22542668   -3.5393153    1.5799212  1186911 
 6777000    1.4232097   -3.5399415   -1.9592758   0.22566073   -3.5399415    1.5806657  1186931 
 6778000    1.4236279   -3.5405095   -1.9593979   0.22213475   -3.5405095    1.5811116  1186945 
 6779000    1.4228994   -3.5400414   -1.9597735   0.22470781   -3.5400414    1.5802679  1186971 
 6780000    1.4222156   -3.5389681   -1.9594928   0.22500401   -3.5389681    1.5794752  1186996 
 6781000    1.4219519   -3.5390183   -1.9598625   0.22623535   -3.5390183    1.5791558  1187016 
 6782000    1.4227287   -3.5397372   -1.9597627   0.22503068   -3.5397372    1.5799745  1187049 
 6783000    1.4218393   -3.5389432   -1.9599963   0.22643782   -3.5389432    1.5789469  1187079 
 6784000    1.4248602    -3.542005   -1.9597461   0.22066757    -3.542005    1.5822589  1187111 
 6785000    1.4219016   -3.5388215    -1.959872   0.22753966   -3.5388215    1.5789496  1187129 
 6786000    1.4221047   -3.5400276   -1.9608778    0.2248834   -3.5400276    1.5791498  1187148 
 6787000    1.4218508   -3.5401787   -1.9613494   0.22652059   -3.5401787    1.5788293  1187177 
 6788000    1.4217376   -3.5397608   -1.9610917    0.2263605   -3.5397608    1.5786691  1187203 
 6789000    1.4226525   -3.5399308   -1.9602845   0.22327543   -3.5399308    1.5796463  1187232 
 6790000    1.4236986   -3.5413074   -1.9605288   0.22198393   -3.5413074    1.5807786  1187254 
 6791000    1.4235671   -3.5412583   -1.9606657   0.22312631   -3.5412583    1.5805926  1187284 
 6792000    1.4217711   -3.5394644   -1.9608965   0.22729349   -3.5394644    1.5785679  1187307 
 6793000    1.4227326   -3.5409773   -1.9613737   0.22680467   -3.5409773    1.5796036  1187331 
 6794000    1.4248825   -3.5424726   -1.9605088   0.22514333   -3.5424726    1.5819638  1187351 
 6795000    1.4233065   -3.5408594   -1.9606812   0.22673217   -3.5408594    1.5801782  1187378 
 6796000    1.4232461   -3.5419508   -1.9618623    0.2237017   -3.5419508    1.5800885  1187395 
 6797000     1.422859   -3.5414516   -1.9618287   0.22523006   -3.5414516    1.5796229  1187422 
 6798000    1.4237917   -3.5418348   -1.9611992   0.22229199   -3.5418348    1.5806357  1187439 
 6799000    1.4224417   -3.5406507   -1.9615497   0.22820515   -3.5406507     1.579101  1187466 
 6800000    1.4227421   -3.5409929   -1.9615876   0.22787911   -3.5409929    1.5794053  1187488 
 6801000    1.4232672   -3.5413317    -1.961382   0.22507298   -3.5413317    1.5799496  1187517 
 6802000     1.422327    -3.540388   -1.9614981   0.23030277    -3.540388    1.5788899  1187529 
 6803000    1.4235058   -3.5428208   -1.9626543   0.22071354   -3.5428208    1.5801665  1187553 
 6804000    1.4215716   -3.5400064   -1.9620188   0.22538999   -3.5400064    1.5779876  1187577 
 6805000    1.4226022   -3.5407913   -1.9616877    0.2256338   -3.5407913    1.5791036  1187598 
 6806000    1.4230654   -3.5409552   -1.9613839   0.22692924   -3.5409552    1.5795713  1187633 
 6807000    1.4229205   -3.5411979   -1.9618287   0.22177716   -3.5411979    1.5793692  1187664 
 6808000    1.4244432   -3.5421882   -1.9611714   0.22330406   -3.5421882    1.5810167  1187696 
 6809000    1.4240195    -3.541493   -1.9609678   0.22479095    -3.541493    1.5805252  1187712 
 6810000    1.4241874   -3.5419552   -1.9612836   0.22646638   -3.5419552    1.5806716  1187742 
 6811000    1.4236996   -3.5411396   -1.9610307   0.22271396   -3.5411396     1.580109  1187758 
 6812000    1.4241906   -3.5421165   -1.9614986   0.22498838   -3.5421165    1.5806179  1187785 
 6813000    1.4237482   -3.5427261   -1.9626324   0.22344787   -3.5427261    1.5800937  1187810 
 6814000    1.4234707   -3.5422155    -1.962471   0.22384652   -3.5422155    1.5797445  1187841 
 6815000    1.4235157   -3.5422509   -1.9624871   0.22452097   -3.5422509    1.5797638  1187864 
 6816000    1.4240579   -3.5432024   -1.9628727    0.2195891   -3.5432024    1.5803296  1187891 
 6817000    1.4231793     -3.54228   -1.9629573    0.2244178     -3.54228    1.5793228  1187915 
 6818000    1.4237152   -3.5431967   -1.9633006   0.22232673   -3.5431967    1.5798962  1187931 
 6819000    1.4234889   -3.5430782   -1.9634558   0.22245323   -3.5430782    1.5796224  1187948 
 6820000    1.4226044    -3.542011     -1.96341   0.22615428    -3.542011    1.5786011  1187978 
 6821000     1.424413   -3.5434475   -1.9628555    0.2266479   -3.5434475     1.580592  1187990 
 6822000    1.4241551    -3.542893   -1.9626271   0.22942215    -3.542893    1.5802659  1188020 
 6823000    1.4244189   -3.5435253   -1.9630146   0.22639415   -3.5435253    1.5805107  1188056 
 6824000    1.4245284   -3.5436005   -1.9630003      0.22453   -3.5436005    1.5806003  1188080 
 6825000    1.4237901   -3.5432547   -1.9635069   0.23013173   -3.5432547    1.5797479  1188105 
 6826000    1.4235363   -3.5431858   -1.9637488   0.22619273   -3.5431858     1.579437  1188127 
 6827000     1.422898   -3.5432903   -1.9645948   0.22846697   -3.5432903    1.5786955  1188152 
 6828000    1.4233262   -3.5439164   -1.9647908   0.22288575   -3.5439164    1.5791255  1188186 
 6829000    1.4235996   -3.5440244   -1.9646168     0.222415   -3.5440244    1.5794076  1188202 
 6830000    1.4237964    -3.544028   -1.9644407   0.22518056    -3.544028    1.5795873  1188231 
 6831000     1.422575   -3.5429365   -1.9647494   0.22652117   -3.5429365    1.5781871  1188265 
 6832000    1.4224844   -3.5433544   -1.9653089   0.22637814   -3.5433544    1.5780455  1188296 
 6833000    1.4229172   -3.5432236   -1.9647313   0.22369633   -3.5432236    1.5784924  1188321 
 6834000    1.4237993    -3.543982   -1.9645417   0.22689885    -3.543982    1.5794404  1188344 
 6835000    1.4228301   -3.5437584    -1.965429   0.22574439   -3.5437584    1.5783294  1188371 
 6836000    1.4230483   -3.5439616   -1.9654275   0.22376339   -3.5439616    1.5785342  1188399 
 6837000    1.4244207   -3.5457526    -1.965724   0.22000838   -3.5457526    1.5800286  1188420 
 6838000    1.4233218   -3.5441067    -1.965325   0.22086662   -3.5441067    1.5787817  1188441 
 6839000    1.4239178   -3.5449795   -1.9655778   0.22337416   -3.5449795    1.5794017  1188472 
 6840000    1.4229715   -3.5435364   -1.9652029   0.22597904   -3.5435364    1.5783335  1188486 
 6841000    1.4222952   -3.5434154   -1.9658613   0.23029206   -3.5434154    1.5775541  1188508 
 6842000    1.4242585   -3.5449744   -1.9652838    0.2236179   -3.5449744    1.5796906  1188539 
 6843000    1.4228012   -3.5431578   -1.9651102   0.22835114   -3.5431578    1.5780476  1188559 
 6844000    1.4240347    -3.544792   -1.9654121   0.22521679    -3.544792    1.5793799  1188586 
 6845000    1.4236336   -3.5446299   -1.9657281   0.22445505   -3.5446299    1.5789018  1188611 
 6846000    1.4243597   -3.5453808   -1.9657243   0.22234829   -3.5453808    1.5796565  1188649 
 6847000    1.4229916   -3.5438608   -1.9657706   0.22819445   -3.5438608    1.5780902  1188686 
 6848000    1.4236271    -3.544652    -1.965897   0.22413409    -3.544652    1.5787551  1188716 
 6849000    1.4248883   -3.5456285   -1.9655239   0.22927984   -3.5456285    1.5801046  1188753 
 6850000    1.4238539   -3.5441169   -1.9651807   0.22587996   -3.5441169    1.5789362  1188769 
 6851000    1.4237732   -3.5444484   -1.9656481   0.22311816   -3.5444484    1.5788002  1188804 
 6852000    1.4236885   -3.5447545     -1.96608   0.22636559   -3.5447545    1.5786744  1188828 
 6853000    1.4231419    -3.543908   -1.9658622   0.22871541    -3.543908    1.5780458  1188845 
 6854000    1.4243173   -3.5456304   -1.9663224   0.22259174   -3.5456304    1.5793079  1188876 
 6855000    1.4234965   -3.5447915   -1.9664176   0.22669705   -3.5447915    1.5783739  1188894 
 6856000    1.4236198   -3.5444612   -1.9659903    0.2291173   -3.5444612    1.5784708  1188924 
 6857000      1.42509   -3.5460405   -1.9659862   0.22362888   -3.5460405    1.5800544  1188959 
 6858000    1.4243769    -3.545483   -1.9662577   0.22942373    -3.545483    1.5792253  1188988 
 6859000    1.4251511   -3.5465268   -1.9664764   0.22389868   -3.5465268    1.5800504  1189013 
 6860000    1.4237151    -3.544974   -1.9665568   0.22715206    -3.544974    1.5784172  1189044 
 6861000    1.4239821   -3.5456908   -1.9670214   0.22424305   -3.5456908    1.5786694  1189077 
 6862000     1.423414   -3.5456034   -1.9676116   0.22657503   -3.5456034    1.5779918  1189113 
 6863000    1.4242448   -3.5466474   -1.9677626   0.22456976   -3.5466474    1.5788849  1189134 
 6864000    1.4237813   -3.5456201   -1.9672862   0.22881306   -3.5456201    1.5783339  1189162 
 6865000    1.4237059    -3.545229   -1.9670211   0.22966185    -3.545229    1.5782079  1189194 
 6866000      1.42427   -3.5460449   -1.9672409   0.22517903   -3.5460449     1.578804  1189216 
 6867000    1.4251635   -3.5463228   -1.9665536   0.22575144   -3.5463228    1.5797692  1189235 
 6868000    1.4242647   -3.5460347   -1.9672884   0.22604611   -3.5460347    1.5787463  1189255 
 6869000    1.4251332   -3.5465036   -1.9668291   0.22615828   -3.5465036    1.5796745  1189281 
 6870000    1.4257964   -3.5470064   -1.9666381   0.22655535   -3.5470064    1.5803684  1189312 
 6871000    1.4248209   -3.5458962   -1.9666343   0.22423461   -3.5458962    1.5792619  1189331 
 6872000    1.4251428   -3.5465511   -1.9669709   0.22614934   -3.5465511    1.5795802  1189360 
 6873000    1.4252258   -3.5467463     -1.96711   0.22464773   -3.5467463    1.5796363  1189387 
 6874000     1.425227   -3.5471112    -1.967512   0.22179997   -3.5471112    1.5795992  1189416 
 6875000    1.4265064   -3.5484005    -1.967422   0.22648867   -3.5484005    1.5809785  1189445 
 6876000    1.4240736   -3.5458741   -1.9676262   0.22875761   -3.5458741    1.5782479  1189471 
 6877000    1.4256618   -3.5470842   -1.9671082   0.22436129   -3.5470842    1.5799761  1189495 
 6878000    1.4248978   -3.5465044   -1.9674214   0.22467625   -3.5465044    1.5790829  1189530 
 6879000    1.4244237   -3.5464113   -1.9678789    0.2266176   -3.5464113    1.5785324  1189549 
 6880000    1.4252582   -3.5473508   -1.9679308   0.22377796   -3.5473508    1.5794199  1189577 
 6881000    1.4253428   -3.5470427   -1.9675595   0.22648222   -3.5470427    1.5794832  1189600 
 6882000    1.4255665   -3.5468669    -1.967177   0.22774042   -3.5468669    1.5796899  1189631 
 6883000    1.4253443   -3.5467988   -1.9673791   0.23239442   -3.5467988    1.5794197  1189649 
 6884000    1.4259637   -3.5476299    -1.967561   0.22445295   -3.5476299    1.5800689  1189677 
 6885000    1.4243376   -3.5462205   -1.9679931   0.22711011   -3.5462205    1.5782273  1189707 
 6886000    1.4264797   -3.5484184   -1.9678455   0.22490497   -3.5484184    1.5805729  1189728 
 6887000    1.4257288   -3.5473369   -1.9676384    0.2255341   -3.5473369    1.5796985  1189760 
 6888000    1.4259746   -3.5482481   -1.9683144     0.222769   -3.5482481    1.5799336  1189788 
 6889000    1.4259691   -3.5486038   -1.9687082   0.22552038   -3.5486038    1.5798956  1189812 
 6890000    1.4246407   -3.5474566   -1.9690726   0.22584944   -3.5474566     1.578384  1189842 
 6891000    1.4254075   -3.5484038   -1.9692086   0.22626443   -3.5484038    1.5791951  1189871 
 6892000     1.424995   -3.5478383   -1.9691426   0.22812348   -3.5478383    1.5786956  1189903 
 6893000    1.4252748   -3.5486236   -1.9696446   0.22137282   -3.5486236     1.578979  1189923 
 6894000    1.4251498    -3.548059   -1.9692436   0.22931212    -3.548059    1.5788154  1189942 
 6895000    1.4256224    -3.548108   -1.9688075   0.22633963    -3.548108    1.5793005  1189971 
 6896000    1.4250223   -3.5473819   -1.9687821   0.22977653   -3.5473819    1.5785998  1189998 
 6897000    1.4253793    -3.547443   -1.9684822   0.22313411    -3.547443    1.5789608  1190024 
 6898000    1.4263787   -3.5477486   -1.9677112   0.22724395   -3.5477486    1.5800374  1190047 
 6899000    1.4272234   -3.5487743   -1.9678344   0.22440801   -3.5487743    1.5809399  1190072 
 6900000    1.4268234    -3.548995   -1.9685314   0.22990224    -3.548995    1.5804636  1190097 
 6901000     1.425586   -3.5475541    -1.968493   0.22746586   -3.5475541    1.5790611  1190121 
 6902000     1.426808   -3.5495248   -1.9691513   0.22322859   -3.5495248    1.5803735  1190152 
 6903000    1.4258126   -3.5489036   -1.9696724   0.22613602   -3.5489036    1.5792312  1190182 
 6904000    1.4261881   -3.5494539   -1.9698493   0.22914359   -3.5494539    1.5796046  1190214 
 6905000    1.4257217   -3.5490312    -1.969979   0.22582375   -3.5490312    1.5790522  1190241 
 6906000    1.4255067    -3.548729     -1.96996   0.22462753    -3.548729     1.578769  1190275 
 6907000    1.4263433   -3.5497116   -1.9700505   0.22437644   -3.5497116     1.579661  1190301 
 6908000    1.4255416   -3.5484475   -1.9697035   0.22839904   -3.5484475     1.578744  1190323 
 6909000    1.4261056   -3.5495482   -1.9702009   0.22988819   -3.5495482    1.5793473  1190339 
 6910000    1.4246427   -3.5484041   -1.9707167   0.22505499   -3.5484041    1.5776875  1190369 
 6911000    1.4249021   -3.5489672   -1.9710203   0.22736648   -3.5489672    1.5779469  1190390 
 6912000    1.4253576   -3.5487176   -1.9703047   0.22853718   -3.5487176    1.5784128  1190419 
 6913000    1.4256056   -3.5494093   -1.9707496   0.22956446   -3.5494093    1.5786597  1190440 
 6914000    1.4256669   -3.5494119   -1.9707188   0.22675745   -3.5494119    1.5786931  1190466 
 6915000    1.4264369   -3.5500707   -1.9705608   0.22510335   -3.5500707    1.5795099  1190493 
 6916000    1.4263512   -3.5496399   -1.9702581   0.22177138   -3.5496399    1.5793818  1190518 
 6917000    1.4263468   -3.5495922   -1.9702484   0.22856218   -3.5495922    1.5793438  1190543 
 6918000    1.4271801   -3.5507686   -1.9705313   0.22438029   -3.5507686    1.5802373  1190565 
 6919000    1.4260912   -3.5503559   -1.9713548   0.22313644   -3.5503559    1.5790011  1190588 
 6920000    1.4253679   -3.5503448   -1.9721645   0.22474787   -3.5503448    1.5781803  1190603 
 6921000    1.4261792   -3.5516088   -1.9725621     0.225131   -3.5516088    1.5790467  1190627 
 6922000    1.4262027   -3.5507481    -1.971719   0.23025333   -3.5507481    1.5790291  1190660 
 6923000    1.4247673   -3.5491433   -1.9717405   0.22836023   -3.5491433    1.5774027  1190688 
 6924000    1.4252809   -3.5504946   -1.9725604    0.2280082   -3.5504946    1.5779343  1190716 
 6925000    1.4253244   -3.5507826   -1.9728386   0.22579212   -3.5507826     1.577944  1190745 
 6926000    1.4254939   -3.5509029   -1.9728058   0.22591764   -3.5509029    1.5780971  1190771 
 6927000     1.425272   -3.5512444   -1.9734366    0.2250311   -3.5512444    1.5778078  1190804 
 6928000    1.4257232     -3.55181   -1.9735358   0.22435805     -3.55181    1.5782742  1190829 
 6929000    1.4257249   -3.5520775   -1.9738493   0.22991264   -3.5520775    1.5782283  1190865 
 6930000    1.4257751   -3.5513626   -1.9731317   0.22927048   -3.5513626    1.5782309  1190905 
 6931000    1.4262278   -3.5523321   -1.9736253    0.2273996   -3.5523321    1.5787067  1190924 
 6932000    1.4262619    -3.551806   -1.9730986   0.22804188    -3.551806    1.5787074  1190952 
 6933000    1.4257296   -3.5515332   -1.9734481   0.22584146   -3.5515332    1.5780851  1190977 
 6934000    1.4252615   -3.5513773     -1.97385   0.23071624   -3.5513773    1.5775272  1191007 
 6935000    1.4259739   -3.5522071   -1.9739232   0.22557565   -3.5522071     1.578284  1191031 
 6936000    1.4258045   -3.5523162   -1.9742502   0.22533911   -3.5523162     1.578066  1191054 
 6937000    1.4251026   -3.5511371   -1.9738771   0.23077763   -3.5511371      1.57726  1191076 
 6938000    1.4256139   -3.5510715   -1.9732854   0.22571685   -3.5510715    1.5777862  1191106 
 6939000    1.4261723   -3.5516489   -1.9732646   0.22669189   -3.5516489    1.5783843  1191121 
 6940000      1.42624    -3.551954   -1.9735213   0.22480197    -3.551954    1.5784327  1191141 
 6941000    1.4263324   -3.5523492   -1.9738567   0.22919671   -3.5523492    1.5784925  1191173 
 6942000     1.426816   -3.5528059   -1.9737994   0.22726418   -3.5528059    1.5790066  1191189 
 6943000     1.425999   -3.5520844   -1.9740112   0.22782037   -3.5520844    1.5780732  1191211 
 6944000    1.4256641   -3.5523201   -1.9746652   0.22282155   -3.5523201    1.5776549  1191247 
 6945000    1.4252747   -3.5526136   -1.9754333   0.22488966   -3.5526136    1.5771803  1191280 
 6946000    1.4258856   -3.5531583   -1.9753497    0.2235639   -3.5531583    1.5778086  1191316 
 6947000    1.4275665   -3.5544255    -1.974794   0.22339893   -3.5544255    1.5796315  1191344 
 6948000    1.4273088   -3.5540162   -1.9746977   0.22226283   -3.5540162    1.5793185  1191365 
 6949000    1.4249885   -3.5512132   -1.9745097   0.22604993   -3.5512132    1.5767035  1191401 
 6950000    1.4257708   -3.5517774   -1.9742481   0.22707441   -3.5517774    1.5775294  1191431 
 6951000    1.4264633   -3.5525818   -1.9743194   0.22728311   -3.5525818    1.5782624  1191456 
 6952000    1.4269435   -3.5526755   -1.9739109     0.226139   -3.5526755    1.5787646  1191478 
 6953000    1.4259996   -3.5522567   -1.9745735    0.2258446   -3.5522567    1.5776832  1191506 
 6954000    1.4259751   -3.5519812   -1.9743568   0.22933035   -3.5519812    1.5776243  1191530 
 6955000    1.4265011   -3.5521435   -1.9739716   0.22775651   -3.5521435    1.5781719  1191556 
 6956000    1.4260717   -3.5514838   -1.9738109   0.23047347   -3.5514838    1.5776729  1191574 
 6957000    1.4274167   -3.5527316   -1.9735972   0.22887078   -3.5527316    1.5791344  1191594 
 6958000    1.4274217   -3.5527645    -1.973663   0.22671734   -3.5527645    1.5791015  1191623 
 6959000    1.4270058   -3.5528973   -1.9742969   0.22381794   -3.5528973    1.5786003  1191654 
 6960000    1.4258514   -3.5512765   -1.9739796   0.23056051   -3.5512765    1.5772968  1191674 
 6961000    1.4282316   -3.5537753     -1.97388   0.22845275   -3.5537753    1.5798953  1191700 
 6962000    1.4277621    -3.553264   -1.9739224    0.2278337    -3.553264    1.5793416  1191726 
 6963000    1.4271729   -3.5529175   -1.9742595   0.22733784   -3.5529175     1.578658  1191750 
 6964000    1.4274312   -3.5534539   -1.9745499   0.22838893   -3.5534539     1.578904  1191780 
 6965000    1.4272313   -3.5543484   -1.9756893   0.22665023   -3.5543484     1.578659  1191798 
 6966000    1.4260119   -3.5530273   -1.9757594   0.22878246   -3.5530273    1.5772679  1191830 
 6967000    1.4271801   -3.5539959    -1.975473   0.22707848   -3.5539959    1.5785229  1191858 
 6968000    1.4279562   -3.5542401   -1.9748906   0.22486482   -3.5542401    1.5793495  1191882 
 6969000    1.4276452   -3.5538813   -1.9749103   0.22904531   -3.5538813     1.578971  1191908 
 6970000    1.4283458   -3.5547771   -1.9750643   0.23037701   -3.5547771    1.5797128  1191933 
 6971000    1.4282431   -3.5541633    -1.974621   0.22880538   -3.5541633    1.5795423  1191976 
 6972000    1.4274986   -3.5536157   -1.9749207   0.23242853   -3.5536157     1.578695  1191994 
 6973000    1.4271097   -3.5540834   -1.9758542   0.23251676   -3.5540834    1.5782292  1192021 
 6974000    1.4282703   -3.5550462   -1.9755693    0.2288442   -3.5550462    1.5794769  1192048 
 6975000    1.4274238   -3.5540972   -1.9755934   0.22952398   -3.5540972    1.5785038  1192076 
 6976000    1.4277441   -3.5541315    -1.975316   0.22875503   -3.5541315    1.5788155  1192108 
 6977000    1.4281849   -3.5549568   -1.9757002   0.22979898   -3.5549568    1.5792566  1192143 
 6978000    1.4273294   -3.5533321   -1.9750625   0.22824566   -3.5533321    1.5782696  1192174 
 6979000    1.4278124    -3.554204   -1.9754295   0.22542393    -3.554204    1.5787746  1192196 
 6980000    1.4280168   -3.5549584   -1.9759975    0.2252407   -3.5549584    1.5789609  1192226 
 6981000    1.4274202   -3.5543808   -1.9761233   0.23144778   -3.5543808    1.5782575  1192259 
 6982000    1.4282134   -3.5549287   -1.9758207   0.22759404   -3.5549287    1.5791081  1192279 
 6983000    1.4275034   -3.5542815   -1.9759823   0.22865076   -3.5542815    1.5782991  1192297 
 6984000    1.4275057   -3.5544728   -1.9762015   0.22941801   -3.5544728    1.5782713  1192320 
 6985000    1.4264536     -3.55403   -1.9769471   0.23357703     -3.55403    1.5770829  1192339 
 6986000    1.4287131   -3.5563789   -1.9768403   0.22877398   -3.5563789    1.5795386  1192371 
 6987000    1.4277306   -3.5549667   -1.9765501   0.22903307   -3.5549667    1.5784166  1192398 
 6988000    1.4280137   -3.5557683   -1.9770665   0.23126031   -3.5557683    1.5787018  1192419 
 6989000    1.4278018   -3.5555283   -1.9770831   0.23072605   -3.5555283    1.5784451  1192436 
 6990000    1.4271449   -3.5547464   -1.9770553   0.23082606   -3.5547464    1.5776911  1192457 
 6991000    1.4272788   -3.5560917    -1.978299   0.22915811   -3.5560917    1.5777928  1192492 
 6992000    1.4272475   -3.5560609   -1.9783424   0.23215308   -3.5560609    1.5777185  1192522 
 6993000    1.4259833   -3.5546821   -1.9783994   0.23169363   -3.5546821    1.5762826  1192551 
 6994000    1.4262707   -3.5553842   -1.9788274   0.22910938   -3.5553842    1.5765568  1192584 
 6995000      1.42673   -3.5554485   -1.9784211   0.22990714   -3.5554485    1.5770274  1192612 
 6996000    1.4275539    -3.556395    -1.978498   0.22765073    -3.556395    1.5778971  1192643 
 6997000    1.4267141   -3.5561679   -1.9792294   0.22636155   -3.5561679    1.5769384  1192666 
 6998000    1.4273623   -3.5564397   -1.9788166   0.22756037   -3.5564397    1.5776231  1192690 
 6999000    1.4280722    -3.556752   -1.9783746   0.22444176    -3.556752    1.5783773  1192713 
 7000000    1.4280084   -3.5564939   -1.9782175   0.22682698   -3.5564939    1.5782764  1192736 
 7001000    1.4282614   -3.5552303   -1.9767192    0.2306909   -3.5552303     1.578511  1192770 
 7002000    1.4302034   -3.5570275    -1.976406   0.22927542   -3.5570275    1.5806215  1192797 
 7003000     1.429283   -3.5562856   -1.9767184   0.22627505   -3.5562856    1.5795673  1192825 
 7004000     1.427665   -3.5548856   -1.9771422   0.23461132   -3.5548856    1.5777434  1192852 
 7005000    1.4283491   -3.5560148   -1.9775551   0.23023952   -3.5560148    1.5784598  1192882 
 7006000     1.427487   -3.5552808   -1.9777909   0.22800169   -3.5552808    1.5774899  1192895 
 7007000    1.4288018   -3.5563383   -1.9774286     0.229857   -3.5563383    1.5789097  1192920 
 7008000    1.4277337   -3.5556724   -1.9779906   0.23113233   -3.5556724    1.5776818  1192956 
 7009000    1.4281296   -3.5562095   -1.9781141   0.23010346   -3.5562095    1.5780954  1192974 
 7010000    1.4272484   -3.5558875   -1.9787975   0.23071162   -3.5558875      1.57709  1192998 
 7011000    1.4278414   -3.5562529   -1.9785341   0.23102223   -3.5562529    1.5777187  1193018 
 7012000    1.4276298   -3.5559374   -1.9784868   0.22795375   -3.5559374    1.5774506  1193044 
 7013000    1.4276413    -3.555754   -1.9783264    0.2273962    -3.555754    1.5774276  1193071 
 7014000    1.4280258   -3.5557869   -1.9779716   0.22999529   -3.5557869    1.5778154  1193099 
 7015000    1.4287176   -3.5563965   -1.9778616   0.22738552   -3.5563965    1.5785348  1193133 
 7016000    1.4287232    -3.556181    -1.977689   0.23265051    -3.556181     1.578492  1193170 
 7017000    1.4293596   -3.5567127    -1.977548    0.2291599   -3.5567127    1.5791647  1193193 
 7018000    1.4295066   -3.5576355   -1.9783533   0.22724065   -3.5576355    1.5792822  1193227 
 7019000    1.4285993   -3.5566552   -1.9784072   0.22932731   -3.5566552     1.578248  1193251 
 7020000    1.4291813   -3.5572339   -1.9783681    0.2295415   -3.5572339    1.5788658  1193270 
 7021000    1.4287531   -3.5566149   -1.9782618    0.2292407   -3.5566149    1.5783531  1193300 
 7022000    1.4290963   -3.5572766   -1.9785734   0.22733111   -3.5572766    1.5787032  1193322 
 7023000    1.4288024   -3.5574732   -1.9791225   0.23425741   -3.5574732    1.5783507  1193343 
 7024000    1.4295843   -3.5585165   -1.9793259   0.22603363   -3.5585165    1.5791906  1193361 
 7025000    1.4274807   -3.5565822   -1.9797457   0.23238626   -3.5565822    1.5768365  1193384 
 7026000     1.428533   -3.5577337   -1.9797706   0.23011401   -3.5577337    1.5779631  1193411 
 7027000     1.426922    -3.556022    -1.979862   0.23043571    -3.556022      1.57616  1193429 
 7028000    1.4280063   -3.5567448    -1.979411   0.23188022   -3.5567448    1.5773339  1193447 
 7029000    1.4280255    -3.556701    -1.979375   0.23218034    -3.556701     1.577326  1193469 
 7030000     1.429552   -3.5578157   -1.9788553   0.23166869   -3.5578157    1.5789604  1193508 
 7031000    1.4295558   -3.5582824   -1.9793547   0.22861003   -3.5582824    1.5789276  1193536 
 7032000     1.430901   -3.5596251   -1.9792515   0.22454456   -3.5596251    1.5803736  1193566 
 7033000    1.4302586    -3.558896   -1.9792689   0.22697286    -3.558896    1.5796271  1193594 
 7034000     1.429589    -3.557881   -1.9790292   0.23235733    -3.557881    1.5788518  1193621 
 7035000    1.4293892   -3.5574531   -1.9788471    0.2323682   -3.5574531     1.578606  1193640 
 7036000    1.4285947   -3.5572871   -1.9795942   0.23347688   -3.5572871    1.5776929  1193667 
 7037000    1.4315236   -3.5602719   -1.9793815   0.22705851   -3.5602719    1.5808904  1193695 
 7038000    1.4296075   -3.5588452   -1.9801078   0.23217573   -3.5588452    1.5787374  1193723 
 7039000    1.4298867     -3.55894   -1.9799301   0.23217265     -3.55894    1.5790099  1193750 
 7040000    1.4294718   -3.5589067   -1.9803854   0.22759443   -3.5589067    1.5785213  1193773 
 7041000    1.4282636   -3.5572481   -1.9800966   0.23297896   -3.5572481    1.5771516  1193800 
 7042000    1.4308787   -3.5605199   -1.9805191   0.22654245   -3.5605199    1.5800008  1193829 
 7043000    1.4288984   -3.5581315   -1.9803557   0.23060902   -3.5581315    1.5777758  1193858 
 7044000    1.4290912   -3.5587137   -1.9807593   0.22863742   -3.5587137    1.5779544  1193884 
 7045000    1.4285171    -3.558088   -1.9807899   0.22962623    -3.558088    1.5772981  1193901 
 7046000    1.4292138    -3.558141   -1.9801161   0.23109194    -3.558141    1.5780249  1193933 
 7047000    1.4297485   -3.5593202   -1.9807379   0.23078248   -3.5593202    1.5785823  1193958 
 7048000    1.4297073   -3.5587631   -1.9802541   0.22900459   -3.5587631     1.578509  1193979 
 7049000    1.4283344   -3.5574788   -1.9805093   0.23348305   -3.5574788    1.5769695  1193997 
 7050000    1.4290605   -3.5585504   -1.9808136   0.23265531   -3.5585504    1.5777368  1194023 
 7051000    1.4298158   -3.5596424   -1.9811021   0.22847398   -3.5596424    1.5785403  1194046 
 7052000    1.4288468   -3.5585123   -1.9810657   0.22883451   -3.5585123    1.5774466  1194064 
 7053000    1.4299214   -3.5600909   -1.9814975   0.23036997   -3.5600909    1.5785934  1194094 
 7054000    1.4301944   -3.5597748   -1.9809251   0.22559805   -3.5597748    1.5788498  1194128 
 7055000    1.4292656    -3.559067   -1.9812637   0.23263411    -3.559067    1.5778033  1194144 
 7056000    1.4302061   -3.5595384   -1.9807298   0.23204951   -3.5595384    1.5788086  1194169 
 7057000    1.4292831   -3.5593661   -1.9816016   0.23085767   -3.5593661    1.5777645  1194188 
 7058000    1.4289764   -3.5591397   -1.9817389   0.23227353   -3.5591397    1.5774008  1194207 
 7059000    1.4301025    -3.560617   -1.9819982   0.23114672    -3.560617    1.5786189  1194226 
 7060000    1.4293246   -3.5598731   -1.9821473   0.22862537   -3.5598731    1.5777258  1194252 
 7061000    1.4294992   -3.5604193   -1.9825324   0.22943288   -3.5604193    1.5778868  1194276 
 7062000    1.4295831   -3.5606427   -1.9826937   0.23033021   -3.5606427     1.577949  1194299 
 7063000     1.429331   -3.5595346   -1.9819061   0.23219871   -3.5595346    1.5776285  1194331 
 7064000    1.4303527   -3.5614965   -1.9827707   0.22829917   -3.5614965    1.5787258  1194354 
 7065000    1.4283535   -3.5596075   -1.9831213   0.23330156   -3.5596075    1.5764861  1194379 
 7066000    1.4279138   -3.5588128   -1.9828383   0.23269876   -3.5588128    1.5759745  1194399 
 7067000    1.4286948   -3.5596293   -1.9828232   0.23242158   -3.5596293    1.5768061  1194422 
 7068000     1.428493   -3.5590959   -1.9825455   0.23201585   -3.5590959    1.5765504  1194447 
 7069000    1.4297648    -3.560407   -1.9824887   0.22974538    -3.560407    1.5779184  1194474 
 7070000    1.4286348   -3.5593126   -1.9826849   0.23336195   -3.5593126    1.5766277  1194507 
 7071000    1.4299493   -3.5604196   -1.9823663   0.23262249   -3.5604196    1.5780532  1194526 
 7072000    1.4295504   -3.5610896   -1.9835214   0.22875955   -3.5610896    1.5775682  1194560 
 7073000    1.4290246    -3.560574    -1.983627   0.23318147    -3.560574     1.576947  1194591 
 7074000    1.4293457   -3.5603605   -1.9831107   0.23034165   -3.5603605    1.5772498  1194630 
 7075000    1.4286342     -3.55937   -1.9829462   0.23140449     -3.55937    1.5764238  1194661 
 7076000    1.4305683   -3.5615345   -1.9830148   0.23088776   -3.5615345    1.5785197  1194690 
 7077000    1.4308331   -3.5616093    -1.982845   0.23191783   -3.5616093    1.5787643  1194726 
 7078000     1.430156   -3.5606682   -1.9826747   0.23299857   -3.5606682    1.5779934  1194744 
 7079000    1.4292485   -3.5595769   -1.9826139   0.23367945   -3.5595769     1.576963  1194766 
 7080000    1.4295197   -3.5603422   -1.9831157   0.23524063   -3.5603422    1.5772266  1194793 
 7081000    1.4304993   -3.5614383   -1.9831652   0.22867454   -3.5614383    1.5782731  1194819 
 7082000    1.4293226   -3.5603697   -1.9834318   0.23334417   -3.5603697    1.5769379  1194847 
 7083000    1.4300579   -3.5601197   -1.9824049   0.23053832   -3.5601197    1.5777148  1194873 
 7084000    1.4306299   -3.5610391   -1.9827197   0.23420157   -3.5610391    1.5783194  1194893 
 7085000    1.4309576   -3.5612318    -1.982593   0.23068904   -3.5612318    1.5786387  1194925 
 7086000     1.430716   -3.5617288   -1.9833897   0.23118731   -3.5617288    1.5783391  1194950 
 7087000    1.4309658   -3.5624871   -1.9839121   0.22873678   -3.5624871    1.5785751  1194980 
 7088000    1.4305777   -3.5618799   -1.9837594   0.22788291   -3.5618799    1.5781205  1195000 
 7089000    1.4287138   -3.5602455   -1.9842113   0.23146867   -3.5602455    1.5760341  1195023 
 7090000    1.4302836   -3.5624371   -1.9847189   0.23148314   -3.5624371    1.5777182  1195059 
 7091000    1.4300608   -3.5614017   -1.9839596   0.23339705   -3.5614017    1.5774421  1195082 
 7092000    1.4302361   -3.5614049   -1.9838089   0.23444099   -3.5614049    1.5775959  1195112 
 7093000    1.4298146    -3.560856   -1.9837567   0.23379373    -3.560856    1.5770993  1195136 
 7094000    1.4295026    -3.560875   -1.9841502   0.23460006    -3.560875    1.5767248  1195159 
 7095000    1.4295439   -3.5613095   -1.9845774    0.2333243   -3.5613095    1.5767321  1195188 
 7096000    1.4305871   -3.5628816   -1.9850425   0.22839712   -3.5628816    1.5778391  1195221 
 7097000    1.4297723   -3.5625562   -1.9856514   0.22994015   -3.5625562    1.5769048  1195248 
 7098000    1.4303492   -3.5623105    -1.984813   0.23153935   -3.5623105    1.5774975  1195281 
 7099000    1.4283096   -3.5606459   -1.9854268   0.23764144   -3.5606459    1.5752191  1195303 
 7100000    1.4299308   -3.5623393   -1.9853653   0.23537913   -3.5623393     1.576974  1195328 
 7101000    1.4307246   -3.5634436   -1.9856443   0.22978587   -3.5634436    1.5777994  1195366 
 7102000    1.4296776   -3.5626528   -1.9860331   0.23125331   -3.5626528    1.5766196  1195385 
 7103000     1.429742   -3.5625393   -1.9858738   0.23467852   -3.5625393    1.5766656  1195404 
 7104000     1.430324   -3.5632063   -1.9859253   0.23287434   -3.5632063     1.577281  1195424 
 7105000    1.4301791   -3.5627874   -1.9856965   0.23417042   -3.5627874    1.5770909  1195447 
 7106000    1.4301208   -3.5631796   -1.9861939   0.23171203   -3.5631796    1.5769857  1195478 
 7107000    1.4298997   -3.5625165   -1.9858089   0.23483306   -3.5625165    1.5767076  1195504 
 7108000    1.4311657    -3.563734   -1.9856594   0.23139512    -3.563734    1.5780746  1195526 
 7109000    1.4321644   -3.5645519   -1.9854012   0.22667822   -3.5645519    1.5791507  1195545 
 7110000    1.4310921    -3.563899   -1.9859662   0.23592708    -3.563899    1.5779327  1195572 
 7111000     1.430726   -3.5636631   -1.9861617   0.23486648   -3.5636631    1.5775014  1195593 
 7112000    1.4314125     -3.56467   -1.9864461   0.22858866     -3.56467    1.5782239  1195619 
 7113000    1.4297948   -3.5625203   -1.9861024    0.2357468   -3.5625203    1.5764179  1195636 
 7114000      1.43195   -3.5645591   -1.9857954   0.23154126   -3.5645591    1.5787638  1195659 
 7115000    1.4298015   -3.5629872   -1.9866239   0.23137129   -3.5629872    1.5763633  1195683 
 7116000     1.430777   -3.5636748   -1.9862571   0.22903458   -3.5636748    1.5774177  1195699 
 7117000    1.4309027   -3.5647247   -1.9872001   0.22764148   -3.5647247    1.5775246  1195723 
 7118000    1.4298594   -3.5632416   -1.9869054    0.2297518   -3.5632416    1.5763362  1195752 
 7119000    1.4303606   -3.5634974    -1.986631   0.22979774   -3.5634974    1.5768663  1195769 
 7120000    1.4302002   -3.5635584   -1.9868966   0.22910041   -3.5635584    1.5766618  1195790 
 7121000    1.4307537   -3.5637762   -1.9865398   0.22880348   -3.5637762    1.5772364  1195817 
 7122000    1.4315886   -3.5645173   -1.9863816     0.233519   -3.5645173    1.5781357  1195833 
 7123000     1.431028   -3.5639582   -1.9864657   0.23474665   -3.5639582    1.5774926  1195852 
 7124000    1.4306084   -3.5639789   -1.9869792   0.23156559   -3.5639789    1.5769997  1195875 
 7125000     1.432636   -3.5656551   -1.9864468   0.22649654   -3.5656551    1.5792083  1195895 
 7126000    1.4306135   -3.5638019    -1.986856   0.23137386   -3.5638019    1.5769459  1195920 
 7127000     1.431713    -3.565378    -1.987253    0.2285925    -3.565378     1.578125  1195945 
 7128000    1.4315613   -3.5648891   -1.9869657   0.22950358   -3.5648891    1.5779234  1195971 
 7129000    1.4304229   -3.5644491   -1.9878345   0.23300234   -3.5644491    1.5766146  1196012 
 7130000    1.4313668   -3.5649752   -1.9873519   0.22957634   -3.5649752    1.5776233  1196036 
 7131000    1.4304741     -3.56433   -1.9877183   0.23054911     -3.56433    1.5766117  1196057 
 7132000    1.4315985   -3.5657811   -1.9879512   0.22979574   -3.5657811    1.5778299  1196073 
 7133000    1.4305834   -3.5643861    -1.987708   0.23027323   -3.5643861    1.5766781  1196098 
 7134000    1.4309557   -3.5654734   -1.9884074   0.22830101   -3.5654734     1.577066  1196115 
 7135000    1.4314821   -3.5663775   -1.9887709   0.22884835   -3.5663775    1.5776066  1196145 
 7136000    1.4298415   -3.5651049   -1.9893498   0.23483355   -3.5651049    1.5757551  1196178 
 7137000    1.4307489   -3.5661774   -1.9894619   0.22938398   -3.5661774    1.5767155  1196208 
 7138000    1.4309659   -3.5667981   -1.9898765   0.22519903   -3.5667981    1.5769217  1196233 
 7139000    1.4302367    -3.566569   -1.9904719   0.22989596    -3.566569    1.5760971  1196249 
 7140000    1.4304582   -3.5669145   -1.9906037   0.22938084   -3.5669145    1.5763108  1196272 
 7141000    1.4314513   -3.5673742   -1.9900073   0.23276599   -3.5673742    1.5773669  1196301 
 7142000    1.4299414   -3.5661358   -1.9904629   0.23309145   -3.5661358    1.5756729  1196324 
 7143000    1.4302889   -3.5660803   -1.9900719   0.23058727   -3.5660803    1.5760083  1196360 
 7144000    1.4302614    -3.566462   -1.9905155   0.23291639    -3.566462    1.5759465  1196384 
 7145000    1.4301229   -3.5664354   -1.9906745    0.2339087   -3.5664354    1.5757609  1196409 
 7146000    1.4312887   -3.5673127   -1.9902963   0.22883174   -3.5673127    1.5770164  1196431 
 7147000    1.4302336   -3.5665552   -1.9907448   0.22897719   -3.5665552    1.5758104  1196464 
 7148000    1.4298224   -3.5663486   -1.9910294   0.23222004   -3.5663486    1.5753192  1196493 
 7149000    1.4298361   -3.5665732   -1.9912666   0.23334655   -3.5665732    1.5753067  1196514 
 7150000    1.4305106   -3.5671094   -1.9910794   0.23127935   -3.5671094      1.57603  1196529 
 7151000    1.4317972   -3.5679813   -1.9905681   0.23317893   -3.5679813    1.5774132  1196555 
 7152000    1.4320724   -3.5684282   -1.9907448    0.2285468   -3.5684282    1.5776834  1196580 
 7153000    1.4320007   -3.5686737   -1.9911088    0.2268997   -3.5686737    1.5775649  1196610 
 7154000    1.4292326   -3.5656352   -1.9911461   0.23448604   -3.5656352    1.5744891  1196630 
 7155000    1.4309655   -3.5668971   -1.9905281   0.22891434   -3.5668971    1.5763691  1196652 
 7156000    1.4308503   -3.5669255   -1.9907254   0.23177972   -3.5669255    1.5762001  1196684 
 7157000    1.4312722   -3.5668445    -1.990206     0.228553   -3.5668445    1.5766385  1196704 
 7158000    1.4314818   -3.5671764   -1.9903465    0.2319364   -3.5671764    1.5768298  1196734 
 7159000     1.430769   -3.5667372   -1.9907202   0.23124937   -3.5667372     1.576017  1196755 
 7160000    1.4306975   -3.5670609   -1.9911622   0.23054431   -3.5670609    1.5758987  1196785 
 7161000    1.4304577   -3.5666433   -1.9910455   0.23509785   -3.5666433    1.5755978  1196813 
 7162000    1.4319009    -3.568459   -1.9913085   0.23206867    -3.568459    1.5771505  1196841 
 7163000    1.4303672   -3.5669105   -1.9914729   0.23339667   -3.5669105    1.5754375  1196859 
 7164000    1.4303424   -3.5660065   -1.9906253   0.23406891   -3.5660065    1.5753812  1196881 
 7165000    1.4318656   -3.5685969   -1.9915828   0.23032093   -3.5685969    1.5770141  1196915 
 7166000    1.4317461   -3.5682521   -1.9913986   0.22939492   -3.5682521    1.5768535  1196937 
 7167000    1.4314729    -3.568026   -1.9915104   0.22767801    -3.568026    1.5765157  1196965 
 7168000    1.4316191    -3.568086   -1.9914501   0.22825634    -3.568086    1.5766359  1196996 
 7169000    1.4308371   -3.5674457   -1.9917093   0.23577229   -3.5674457    1.5757365  1197025 
 7170000    1.4316667   -3.5683676   -1.9917478   0.22925292   -3.5683676    1.5766198  1197048 
 7171000      1.43164   -3.5688795   -1.9923339   0.23084086   -3.5688795    1.5765456  1197082 
 7172000    1.4312732   -3.5680642   -1.9919581   0.23545391   -3.5680642    1.5761062  1197109 
 7173000    1.4324462   -3.5695996    -1.992207   0.22799723   -3.5695996    1.5773926  1197113 
 7174000    1.4306516   -3.5680155   -1.9926346   0.23453922   -3.5680155    1.5753809  1197140 
 7175000    1.4314765   -3.5693396   -1.9930846   0.22548363   -3.5693396     1.576255  1197166 
 7176000     1.430209   -3.5685473   -1.9937103   0.23323659   -3.5685473     1.574837  1197183 
 7177000    1.4300484   -3.5680769   -1.9934536   0.23369558   -3.5680769    1.5746233  1197211 
 7178000    1.4314856   -3.5699288   -1.9937467   0.22797811   -3.5699288    1.5761821  1197229 
 7179000    1.4311381   -3.5698374   -1.9940669    0.2262528   -3.5698374    1.5757705  1197251 
 7180000    1.4294966   -3.5684253   -1.9944951   0.23535575   -3.5684253    1.5739302  1197276 
 7181000    1.4305662   -3.5687631   -1.9936829   0.23022849   -3.5687631    1.5750803  1197297 
 7182000    1.4307825   -3.5687251   -1.9934357   0.22831476   -3.5687251    1.5752894  1197319 
 7183000    1.4325756   -3.5702291   -1.9929813    0.2277817   -3.5702291    1.5772478  1197331 
 7184000    1.4313362   -3.5686638   -1.9928147   0.23077635   -3.5686638    1.5758491  1197357 
 7185000    1.4322432   -3.5692628   -1.9924494    0.2297042   -3.5692628    1.5768134  1197383 
 7186000    1.4314164   -3.5686499   -1.9927783   0.23504483   -3.5686499    1.5758715  1197407 
 7187000    1.4325273   -3.5699347   -1.9928796   0.23190976   -3.5699347    1.5770551  1197437 
 7188000    1.4318476   -3.5689117   -1.9926272   0.23161301   -3.5689117    1.5762845  1197454 
 7189000    1.4308669   -3.5679045   -1.9927207   0.23283454   -3.5679045    1.5751837  1197470 
 7190000    1.4313544   -3.5687537   -1.9930595   0.23361696   -3.5687537    1.5756941  1197490 
 7191000    1.4306341   -3.5682264   -1.9933778   0.23136538   -3.5682264    1.5748486  1197530 
 7192000    1.4310058   -3.5684476   -1.9932201   0.23186205   -3.5684476    1.5752274  1197553 
 7193000    1.4315545    -3.569732   -1.9939414   0.22833638    -3.569732    1.5757907  1197584 
 7194000    1.4308455   -3.5683788    -1.993404   0.23479797   -3.5683788    1.5749748  1197611 
 7195000    1.4320311    -3.569413   -1.9931504   0.23183752    -3.569413    1.5762626  1197624 
 7196000    1.4314561   -3.5688175   -1.9932141    0.2309736   -3.5688175    1.5756034  1197644 
 7197000     1.431753   -3.5690003   -1.9930898   0.23385439   -3.5690003    1.5759105  1197659 
 7198000    1.4319255   -3.5692981   -1.9932306   0.23313267   -3.5692981    1.5760675  1197684 
 7199000    1.4321976   -3.5698228   -1.9935059   0.23158454   -3.5698228    1.5763169  1197722 
 7200000    1.4320233   -3.5698103   -1.9937194   0.23071995   -3.5698103    1.5760909  1197748 
 7201000    1.4317781   -3.5695847   -1.9937847   0.23140888   -3.5695847       1.5758  1197764 
 7202000    1.4314506   -3.5698888   -1.9944887   0.23361981   -3.5698888       1.5754  1197794 
 7203000    1.4325018   -3.5714549   -1.9949322   0.23164148   -3.5714549    1.5765228  1197820 
 7204000    1.4323114   -3.5712915   -1.9950178   0.23024118   -3.5712915    1.5762737  1197850 
 7205000    1.4325903   -3.5712358   -1.9946854   0.23225589   -3.5712358    1.5765504  1197873 
 7206000    1.4316815   -3.5704385   -1.9949212   0.23555274   -3.5704385    1.5755174  1197898 
 7207000    1.4319257   -3.5710013    -1.995244   0.22739003   -3.5710013    1.5757572  1197920 
 7208000    1.4315236    -3.570402   -1.9951123   0.23143161    -3.570402    1.5752898  1197939 
 7209000    1.4327408   -3.5725847   -1.9959937   0.23198615   -3.5725847     1.576591  1197968 
 7210000    1.4312736   -3.5716819   -1.9967423   0.23364289   -3.5716819    1.5749396  1197996 
 7211000    1.4306768    -3.570514   -1.9962666   0.23680971    -3.570514    1.5742475  1198023 
 7212000    1.4308191   -3.5710116   -1.9966286    0.2303269   -3.5710116     1.574383  1198039 
 7213000    1.4315778   -3.5718395   -1.9966624    0.2315024   -3.5718395    1.5751771  1198070 
 7214000    1.4321808   -3.5725168   -1.9967183   0.22944693   -3.5725168    1.5757985  1198102 
 7215000    1.4310048   -3.5712578   -1.9967756   0.23436642   -3.5712578    1.5744822  1198119 
 7216000    1.4310755    -3.571189   -1.9966697   0.23472654    -3.571189    1.5745193  1198150 
 7217000    1.4315991   -3.5719978    -1.996934   0.23251855   -3.5719978    1.5750638  1198174 
 7218000    1.4318986   -3.5721042   -1.9967332   0.22718797   -3.5721042     1.575371  1198191 
 7219000    1.4323513   -3.5720973   -1.9962625   0.22925213   -3.5720973    1.5758348  1198217 
 7220000    1.4322507   -3.5720334   -1.9963422   0.23231703   -3.5720334    1.5756913  1198242 
 7221000    1.4323361   -3.5720193   -1.9962604   0.23281212   -3.5720193    1.5757589  1198262 
 7222000    1.4332328    -3.571983     -1.99526   0.22955123    -3.571983     1.576723  1198279 
 7223000    1.4333303   -3.5715303   -1.9947355   0.23246603   -3.5715303    1.5767948  1198306 
 7224000    1.4336907    -3.572273    -1.995116    0.2291959    -3.572273     1.577157  1198332 
 7225000    1.4326979   -3.5713024   -1.9952743   0.23183819   -3.5713024    1.5760281  1198360 
 7226000    1.4313186   -3.5703613   -1.9958846   0.23668866   -3.5703613    1.5744766  1198386 
 7227000    1.4309947   -3.5700896   -1.9959942   0.23516945   -3.5700896    1.5740954  1198405 
 7228000    1.4321473   -3.5718012   -1.9964748   0.23267352   -3.5718012    1.5753265  1198433 
 7229000    1.4314129   -3.5709223     -1.99643    0.2344119   -3.5709223    1.5744923  1198453 
 7230000     1.432904   -3.5727067    -1.996615   0.23121371   -3.5727067    1.5760917  1198484 
 7231000    1.4326006   -3.5717539   -1.9960327   0.23380708   -3.5717539    1.5757212  1198512 
 7232000    1.4314863    -3.570954   -1.9965045   0.23246227    -3.570954    1.5744495  1198547 
 7233000    1.4323035   -3.5721034   -1.9967931   0.23594762   -3.5721034    1.5753103  1198576 
 7234000    1.4326151   -3.5726041   -1.9969827   0.23177729   -3.5726041    1.5756214  1198600 
 7235000    1.4318717   -3.5717778   -1.9970213   0.23061636   -3.5717778    1.5747565  1198636 
 7236000    1.4332197   -3.5736571   -1.9974495    0.2299235   -3.5736571    1.5762075  1198660 
 7237000    1.4326697   -3.5729626   -1.9973994   0.23363345   -3.5729626    1.5755631  1198690 
 7238000    1.4315695   -3.5720045   -1.9976789   0.23639468   -3.5720045    1.5743256  1198711 
 7239000    1.4332625   -3.5734182   -1.9972702   0.23232902   -3.5734182     1.576148  1198741 
 7240000    1.4336915   -3.5744519   -1.9978558   0.22939102   -3.5744519    1.5765961  1198759 
 7241000    1.4314006   -3.5721614   -1.9981317   0.23872227   -3.5721614    1.5740297  1198795 
 7242000    1.4319551   -3.5731314   -1.9985302   0.23531484   -3.5731314    1.5746012  1198824 
 7243000    1.4321142   -3.5733425   -1.9985886   0.23211378   -3.5733425    1.5747539  1198841 
 7244000    1.4332728   -3.5743219   -1.9983242    0.2287649   -3.5743219    1.5759976  1198864 
 7245000    1.4317063   -3.5725455   -1.9983031    0.2312666   -3.5725455    1.5742424  1198889 
 7246000    1.4327376   -3.5736371    -1.998295   0.23258535   -3.5736371    1.5753421  1198915 
 7247000    1.4330327   -3.5746888   -1.9990472   0.23197009   -3.5746888    1.5756416  1198934 
 7248000    1.4314827   -3.5734786    -1.999574   0.23459558   -3.5734786    1.5739045  1198959 
 7249000    1.4319987   -3.5733326   -1.9988974    0.2329014   -3.5733326    1.5744352  1198987 
 7250000    1.4322736   -3.5741028   -1.9993995   0.23272764   -3.5741028    1.5747033  1199013 
 7251000    1.4323541   -3.5734419   -1.9986921    0.2330631   -3.5734419    1.5747498  1199045 
 7252000    1.4323411   -3.5730758   -1.9983745   0.23182709   -3.5730758    1.5747013  1199071 
 7253000    1.4335319   -3.5744234   -1.9984405   0.23408222   -3.5744234    1.5759829  1199092 
 7254000     1.432508   -3.5731788   -1.9983584   0.23319404   -3.5731788    1.5748205  1199120 
 7255000    1.4342474   -3.5753827   -1.9986698   0.23183687   -3.5753827    1.5767129  1199135 
 7256000    1.4323875    -3.573063   -1.9984197   0.23033943    -3.573063    1.5746433  1199154 
 7257000    1.4321295   -3.5731988   -1.9988693   0.23071064   -3.5731988    1.5743295  1199177 
 7258000    1.4313377   -3.5729271   -1.9995074   0.23190916   -3.5729271    1.5734197  1199207 
 7259000    1.4328899    -3.573848   -1.9987417   0.22986421    -3.573848    1.5751063  1199222 
 7260000    1.4334063   -3.5745279   -1.9988802   0.22926285   -3.5745279    1.5756476  1199242 
 7261000     1.432651   -3.5740721   -1.9992757   0.23485919   -3.5740721    1.5747964  1199258 
 7262000    1.4331095   -3.5741529   -1.9988853   0.22833826   -3.5741529    1.5752675  1199283 
 7263000    1.4330946   -3.5740151   -1.9987942   0.23044923   -3.5740151    1.5752209  1199306 
 7264000    1.4327782   -3.5736188   -1.9987771   0.23386617   -3.5736188    1.5748417  1199330 
 7265000    1.4327352   -3.5746866    -1.999929   0.23330017   -3.5746866    1.5747576  1199358 
 7266000    1.4331081   -3.5751284   -1.9999845   0.22824837   -3.5751284    1.5751439  1199376 
 7267000    1.4335784    -3.575035   -1.9993926   0.23035207    -3.575035    1.5756424  1199390 
 7268000    1.4341308   -3.5750798   -1.9988539   0.23299172   -3.5750798    1.5762259  1199408 
 7269000    1.4317121   -3.5727662    -1.999234   0.23812774   -3.5727662    1.5735321  1199435 
 7270000     1.433363   -3.5749608   -1.9996406   0.23386325   -3.5749608    1.5753202  1199455 
 7271000    1.4335305   -3.5752618   -1.9997943    0.2337288   -3.5752618    1.5754675  1199483 
 7272000    1.4325983   -3.5743988   -1.9999937   0.23227909   -3.5743988     1.574405  1199512 
 7273000    1.4335179   -3.5747784   -1.9993824   0.23249264   -3.5747784     1.575396  1199527 
 7274000    1.4333501   -3.5746867   -1.9995066   0.23460527   -3.5746867      1.57518  1199551 
 7275000    1.4339808   -3.5756632   -1.9998202   0.23248658   -3.5756632    1.5758429  1199574 
 7276000    1.4328051    -3.574761   -2.0002468   0.23310454    -3.574761    1.5745142  1199602 
 7277000    1.4339792   -3.5759989   -2.0002235   0.23018237   -3.5759989    1.5757754  1199624 
 7278000    1.4330697   -3.5758527   -2.0011121   0.23124108   -3.5758527    1.5747406  1199651 
 7279000    1.4332384   -3.5759633   -2.0010793   0.23032707   -3.5759633     1.574884  1199683 
 7280000    1.4340918   -3.5769604   -2.0011794   0.23031266   -3.5769604     1.575781  1199714 
 7281000    1.4330327   -3.5764625   -2.0018846   0.22922925   -3.5764625    1.5745779  1199744 
 7282000    1.4329012   -3.5755317   -2.0011299   0.23013596   -3.5755317    1.5744018  1199768 
 7283000    1.4334687   -3.5761952   -2.0012013   0.22859102   -3.5761952    1.5749939  1199792 
 7284000    1.4328348    -3.575422   -2.0011469   0.23618548    -3.575422    1.5742751  1199809 
 7285000    1.4330712   -3.5763557   -2.0018417   0.22999152   -3.5763557    1.5745139  1199825 
 7286000    1.4333551    -3.576528   -2.0017376   0.23046471    -3.576528    1.5747904  1199852 
 7287000    1.4316884   -3.5751386   -2.0022148    0.2357194   -3.5751386    1.5729238  1199879 
 7288000    1.4318999   -3.5749592   -2.0018241   0.23753672   -3.5749592    1.5731351  1199895 
 7289000    1.4332135   -3.5761041   -2.0015533   0.23303154   -3.5761041    1.5745508  1199916 
 7290000    1.4342683   -3.5769119   -2.0012285   0.22884599   -3.5769119    1.5756834  1199936 
 7291000     1.434162   -3.5772242   -2.0016904   0.22910952   -3.5772242    1.5755338  1199961 
 7292000    1.4331659   -3.5763419   -2.0019313   0.23445847   -3.5763419    1.5744106  1199983 
 7293000    1.4342694   -3.5769495   -2.0013674   0.22942818   -3.5769495    1.5755821  1200014 
 7294000    1.4333061   -3.5756311   -2.0011373   0.23425035   -3.5756311    1.5744938  1200037 
 7295000    1.4347535   -3.5774418   -2.0013975   0.23300086   -3.5774418    1.5760443  1200067 
 7296000    1.4327162   -3.5764388   -2.0026573   0.23567887   -3.5764388    1.5737814  1200086 
 7297000    1.4343363    -3.577519   -2.0019855   0.23367112    -3.577519    1.5755335  1200107 
 7298000    1.4339871   -3.5771887   -2.0020702   0.23385844   -3.5771887    1.5751185  1200131 
 7299000    1.4335228   -3.5764474   -2.0018823   0.23530347   -3.5764474    1.5745651  1200164 
 7300000    1.4332605   -3.5762049    -2.001958   0.23568677   -3.5762049    1.5742469  1200187 
 7301000    1.4337829   -3.5764163    -2.001635   0.23549023   -3.5764163    1.5747813  1200217 
 7302000    1.4338748   -3.5766835   -2.0018327   0.23365681   -3.5766835    1.5748508  1200241 
 7303000     1.433719   -3.5765354   -2.0018807   0.23606223   -3.5765354    1.5746547  1200260 
 7304000    1.4338915   -3.5767324   -2.0019263   0.23311121   -3.5767324    1.5748061  1200289 
 7305000    1.4332329   -3.5757915    -2.001752   0.23999694   -3.5757915    1.5740395  1200322 
 7306000     1.433943   -3.5764768   -2.0016863   0.23764202   -3.5764768    1.5747906  1200344 
 7307000    1.4351011   -3.5776557   -2.0016288   0.23446408   -3.5776557    1.5760269  1200371 
 7308000    1.4348836   -3.5767603   -2.0009919   0.23629498   -3.5767603    1.5757684  1200386 
 7309000    1.4354268   -3.5768843   -2.0005456   0.23380657   -3.5768843    1.5763387  1200406 
 7310000    1.4345013   -3.5758045   -2.0005085   0.23816171   -3.5758045     1.575296  1200426 
 7311000    1.4354407   -3.5770799   -2.0007995   0.23711614   -3.5770799    1.5762804  1200462 
 7312000    1.4346264   -3.5768099   -2.0014631   0.23118403   -3.5768099    1.5753468  1200492 
 7313000    1.4343268   -3.5762231   -2.0012381   0.23683589   -3.5762231    1.5749851  1200517 
 7314000    1.4360516   -3.5778187   -2.0009739   0.23299792   -3.5778187    1.5768449  1200543 
 7315000    1.4352908   -3.5774351   -2.0014507   0.23421769   -3.5774351    1.5759845  1200562 
 7316000    1.4349571    -3.576914   -2.0013301   0.23774111    -3.576914    1.5755839  1200588 
 7317000    1.4341966   -3.5765502   -2.0018368   0.23735784   -3.5765502    1.5747134  1200615 
 7318000    1.4332851   -3.5759646   -2.0022716   0.23560054   -3.5759646     1.573693  1200630 
 7319000    1.4343259      -3.5774   -2.0025918   0.23663105      -3.5774    1.5748082  1200651 
 7320000    1.4348264   -3.5781418   -2.0028037   0.23319663   -3.5781418    1.5753381  1200666 
 7321000    1.4343489   -3.5771411     -2.00236   0.23252859   -3.5771411    1.5747811  1200691 
 7322000    1.4346974   -3.5777141   -2.0025819   0.23298973   -3.5777141    1.5751322  1200715 
 7323000    1.4346707   -3.5786196   -2.0035548   0.23122475   -3.5786196    1.5750649  1200744 
 7324000    1.4337147   -3.5772231   -2.0032353   0.23571714   -3.5772231    1.5739878  1200765 
 7325000    1.4355468    -3.578601   -2.0026426    0.2370973    -3.578601    1.5759584  1200796 
 7326000    1.4353008   -3.5777432   -2.0020825   0.23325511   -3.5777432    1.5756608  1200817 
 7327000    1.4369709   -3.5797121    -2.002256   0.23233048   -3.5797121    1.5774561  1200846 
 7328000    1.4359433   -3.5789165   -2.0026081    0.2351721   -3.5789165    1.5763083  1200861 
 7329000    1.4364255   -3.5791345   -2.0023348   0.23298594   -3.5791345    1.5767997  1200890 
 7330000    1.4348446   -3.5783246   -2.0032919   0.23397982   -3.5783246    1.5750327  1200914 
 7331000    1.4343327   -3.5779226   -2.0034897   0.23259788   -3.5779226    1.5744328  1200943 
 7332000    1.4343584   -3.5783734   -2.0039477   0.23776456   -3.5783734    1.5744257  1200970 
 7333000    1.4343603   -3.5787194   -2.0043258   0.23341356   -3.5787194    1.5743936  1200996 
 7334000    1.4343536   -3.5783122   -2.0039535   0.23525798   -3.5783122    1.5743587  1201017 
 7335000    1.4352523   -3.5794187   -2.0040972   0.23244275   -3.5794187    1.5753215  1201035 
 7336000    1.4339657   -3.5783098   -2.0044384   0.23447004   -3.5783098    1.5738714  1201064 
 7337000    1.4355501   -3.5802708   -2.0046841   0.23212821   -3.5802708    1.5755867  1201082 
 7338000    1.4350887   -3.5796575   -2.0046048    0.2316216   -3.5796575    1.5750528  1201103 
 7339000    1.4348982   -3.5789837    -2.004165    0.2354617   -3.5789837    1.5748188  1201122 
 7340000    1.4338428    -3.577809   -2.0041852   0.24026958    -3.577809    1.5736238  1201150 
 7341000    1.4351693    -3.579447   -2.0044053   0.23266117    -3.579447    1.5750416  1201179 
 7342000    1.4354817   -3.5793247   -2.0039639   0.23566831   -3.5793247    1.5753608  1201197 
 7343000    1.4345986   -3.5786684   -2.0043017   0.23983024   -3.5786684    1.5743668  1201216 
 7344000      1.43642   -3.5800755    -2.003744   0.23571229   -3.5800755    1.5763315  1201242 
 7345000    1.4363578   -3.5790974   -2.0028722   0.24035606   -3.5790974    1.5762252  1201271 
 7346000    1.4363634   -3.5796642   -2.0034735    0.2352778   -3.5796642    1.5761907  1201302 
 7347000    1.4350755    -3.578452   -2.0037048   0.23889118    -3.578452    1.5747472  1201325 
 7348000    1.4358997   -3.5787952   -2.0031776   0.23517816   -3.5787952    1.5756176  1201351 
 7349000     1.435719   -3.5790853   -2.0036936   0.23595912   -3.5790853    1.5753917  1201372 
 7350000    1.4364949   -3.5798454   -2.0036481   0.23119413   -3.5798454    1.5761972  1201407 
 7351000    1.4361307   -3.5793755   -2.0036121   0.23183931   -3.5793755    1.5757635  1201433 
 7352000     1.435768   -3.5792311   -2.0038918   0.23505446   -3.5792311    1.5753393  1201453 
 7353000    1.4354081   -3.5793627   -2.0044471   0.23234957   -3.5793627    1.5749156  1201475 
 7354000    1.4360273   -3.5799995   -2.0044307   0.23124476   -3.5799995    1.5755688  1201495 
 7355000    1.4352322   -3.5795127   -2.0048439   0.23749621   -3.5795127    1.5746689  1201516 
 7356000    1.4352428   -3.5794678    -2.004824    0.2376066   -3.5794678    1.5746438  1201544 
 7357000    1.4358287   -3.5799231   -2.0046719   0.23461825   -3.5799231    1.5752512  1201571 
 7358000    1.4344975   -3.5792495   -2.0054954   0.24156155   -3.5792495    1.5737541  1201599 
 7359000    1.4350365   -3.5793147   -2.0049955   0.23495484   -3.5793147    1.5743192  1201619 
 7360000    1.4343822   -3.5791176   -2.0055411   0.23998812   -3.5791176    1.5735764  1201638 
 7361000    1.4354284   -3.5806339   -2.0059556   0.23579003   -3.5806339    1.5746783  1201673 
 7362000    1.4355174   -3.5801176   -2.0053731   0.23984887   -3.5801176    1.5747446  1201697 
 7363000    1.4352462   -3.5799393    -2.005525   0.23670995   -3.5799393    1.5744143  1201722 
 7364000    1.4356489   -3.5810514   -2.0062399   0.23638238   -3.5810514    1.5748115  1201756 
 7365000    1.4348083   -3.5800192   -2.0061678    0.2365314   -3.5800192    1.5738514  1201785 
 7366000    1.4359421    -3.580775   -2.0057048   0.23668865    -3.580775    1.5750702  1201804 
 7367000    1.4351996   -3.5804975   -2.0062693   0.23828368   -3.5804975    1.5742282  1201825 
 7368000    1.4343093   -3.5800845    -2.006855   0.23523305   -3.5800845    1.5732295  1201842 
 7369000    1.4358361    -3.581946   -2.0070799   0.23454636    -3.581946    1.5748662  1201871 
 7370000    1.4353401   -3.5810779   -2.0067898   0.23474354   -3.5810779    1.5742881  1201897 
 7371000    1.4357096   -3.5817196   -2.0070604    0.2359717   -3.5817196    1.5746592  1201923 
 7372000    1.4362457   -3.5825765   -2.0073568   0.23218357   -3.5825765    1.5752197  1201944 
 7373000    1.4349442    -3.580981   -2.0072215   0.23802272    -3.580981    1.5737595  1201969 
 7374000    1.4352308   -3.5815012   -2.0074549   0.23608069   -3.5815012    1.5740464  1201990 
 7375000     1.435141   -3.5812041   -2.0072902   0.24016542   -3.5812041    1.5739139  1202016 
 7376000    1.4357753   -3.5821701   -2.0075895   0.23018368   -3.5821701    1.5745806  1202038 
 7377000    1.4366651   -3.5830316   -2.0075052   0.23568054   -3.5830316    1.5755263  1202061 
 7378000    1.4342756   -3.5809836   -2.0080974   0.23257135   -3.5809836    1.5728862  1202076 
 7379000    1.4360635   -3.5823383   -2.0075176     0.236848   -3.5823383    1.5748207  1202096 
 7380000    1.4351991   -3.5812636   -2.0074222   0.23549372   -3.5812636    1.5738414  1202120 
 7381000    1.4357247   -3.5826608   -2.0082823   0.23462382   -3.5826608    1.5743785  1202150 
 7382000     1.435995   -3.5828386   -2.0081899   0.23325832   -3.5828386    1.5746487  1202170 
 7383000    1.4359936   -3.5817809   -2.0071587   0.23776582   -3.5817809    1.5746222  1202189 
 7384000    1.4354611     -3.58114   -2.0071305   0.23585918     -3.58114    1.5740095  1202211 
 7385000    1.4361248   -3.5821706   -2.0074687   0.23621447   -3.5821706    1.5747019  1202238 
 7386000    1.4374314    -3.583441   -2.0073445   0.23180608    -3.583441    1.5760965  1202267 
 7387000    1.4365977   -3.5823758   -2.0072208   0.23445178   -3.5823758    1.5751549  1202288 
 7388000    1.4367334   -3.5829571   -2.0076926   0.23233023   -3.5829571    1.5752644  1202318 
 7389000    1.4363772   -3.5826816   -2.0078365   0.23308282   -3.5826816    1.5748451  1202340 
 7390000    1.4373336   -3.5835721   -2.0077139   0.23655851   -3.5835721    1.5758582  1202367 
 7391000    1.4364561   -3.5830754   -2.0082093   0.23604095   -3.5830754    1.5748661  1202390 
 7392000    1.4347656   -3.5817779   -2.0087901   0.23001066   -3.5817779    1.5729878  1202409 
 7393000    1.4355439   -3.5827665   -2.0089516   0.23429937   -3.5827665    1.5738149  1202429 
 7394000    1.4354654   -3.5831203   -2.0094347   0.23700175   -3.5831203    1.5736856  1202462 
 7395000    1.4356944   -3.5833208   -2.0094233    0.2382658   -3.5833208    1.5738975  1202492 
 7396000    1.4359772   -3.5845464   -2.0103611   0.23163967   -3.5845464    1.5741852  1202509 
 7397000    1.4350049    -3.583496   -2.0104094   0.23651607    -3.583496    1.5730866  1202534 
 7398000    1.4347712   -3.5833395   -2.0105469    0.2338318   -3.5833395    1.5727926  1202563 
 7399000    1.4356621    -3.584217   -2.0104936   0.23447767    -3.584217    1.5737233  1202598 
 7400000     1.435578   -3.5838846   -2.0102796   0.23697859   -3.5838846     1.573605  1202618 
 7401000    1.4359863   -3.5848365   -2.0108193   0.23150558   -3.5848365    1.5740172  1202645 
 7402000    1.4349655    -3.582918    -2.010051   0.23776623    -3.582918    1.5728669  1202669 
 7403000    1.4365309   -3.5843166   -2.0097757   0.23282092   -3.5843166    1.5745408  1202701 
 7404000    1.4370267   -3.5847557   -2.0096924   0.22901202   -3.5847557    1.5750633  1202717 
 7405000    1.4361708   -3.5845896   -2.0104985   0.23467241   -3.5845896    1.5740911  1202743 
 7406000       1.4357   -3.5841674   -2.0106145   0.23486364   -3.5841674    1.5735529  1202760 
 7407000    1.4350624   -3.5847656   -2.0119194   0.23288972   -3.5847656    1.5728462  1202766 
 7408000     1.434655   -3.5840514    -2.011687   0.23351099   -3.5840514    1.5723644  1202793 
 7409000    1.4354558   -3.5844844   -2.0112645   0.23476403   -3.5844844    1.5732199  1202810 
 7410000    1.4350554   -3.5842362   -2.0114891   0.23510825   -3.5842362    1.5727471  1202836 
 7411000    1.4353884   -3.5845979   -2.0115159   0.23259557   -3.5845979    1.5730819  1202859 
 7412000    1.4358792   -3.5847176   -2.0111331   0.23375156   -3.5847176    1.5735845  1202886 
 7413000    1.4356306   -3.5846906   -2.0114061    0.2366834   -3.5846906    1.5732845  1202907 
 7414000    1.4345249   -3.5829623   -2.0109195   0.23998495   -3.5829623    1.5720428  1202930 
 7415000    1.4371632   -3.5855337   -2.0106272   0.23242416   -3.5855337    1.5749065  1202951 
 7416000    1.4362072   -3.5844603   -2.0106381    0.2341837   -3.5844603    1.5738222  1202979 
 7417000    1.4365309    -3.584672   -2.0105435   0.23607836    -3.584672    1.5741285  1203016 
 7418000    1.4363521   -3.5844284   -2.0105272   0.23495445   -3.5844284    1.5739012  1203040 
 7419000    1.4375354   -3.5860558   -2.0108894   0.23232725   -3.5860558    1.5751664  1203064 
 7420000    1.4363796   -3.5842612   -2.0103952   0.24011916   -3.5842612     1.573866  1203090 
 7421000    1.4364925    -3.584953    -2.010996   0.23379482    -3.584953    1.5739569  1203115 
 7422000    1.4357733   -3.5835157   -2.0103938   0.23320434   -3.5835157    1.5731218  1203151 
 7423000    1.4368669   -3.5841581   -2.0098708    0.2386655   -3.5841581    1.5742874  1203176 
 7424000    1.4379728   -3.5847309   -2.0092554   0.23506017   -3.5847309    1.5754755  1203194 
 7425000    1.4356563    -3.583255   -2.0103412   0.23795354    -3.583255    1.5729139  1203212 
 7426000    1.4374279   -3.5849549   -2.0101419   0.23416504   -3.5849549     1.574813  1203244 
 7427000    1.4360773   -3.5831748   -2.0098768   0.23577171   -3.5831748    1.5732981  1203271 
 7428000    1.4383887   -3.5861457   -2.0103416   0.23066424   -3.5861457    1.5758041  1203291 
 7429000    1.4368249   -3.5845637    -2.010503   0.23464648   -3.5845637    1.5740608  1203314 
 7430000    1.4378548   -3.5850715   -2.0099152   0.23931176   -3.5850715    1.5751564  1203339 
 7431000    1.4377684   -3.5859861   -2.0109624   0.23668145   -3.5859861    1.5750237  1203368 
 7432000    1.4365245   -3.5855122   -2.0118694   0.23460095   -3.5855122    1.5736428  1203382 
 7433000    1.4376814   -3.5867147   -2.0118399    0.2328743   -3.5867147    1.5748748  1203409 
 7434000     1.436309   -3.5851635   -2.0118208   0.23840407   -3.5851635    1.5733426  1203431 
 7435000    1.4358631   -3.5847599   -2.0119396   0.23642952   -3.5847599    1.5728202  1203457 
 7436000    1.4356616   -3.5852184   -2.0126411   0.23407714   -3.5852184    1.5725773  1203474 
 7437000    1.4367192   -3.5865431   -2.0128401    0.2354729   -3.5865431     1.573703  1203499 
 7438000    1.4361942   -3.5863403   -2.0132489   0.22983756   -3.5863403    1.5730914  1203527 
 7439000    1.4355607   -3.5857394   -2.0133653   0.23529781   -3.5857394    1.5723741  1203545 
 7440000    1.4365626   -3.5865852   -2.0131543   0.23559787   -3.5865852    1.5734309  1203576 
 7441000    1.4357448   -3.5858211   -2.0133121   0.23271985   -3.5858211     1.572509  1203596 
 7442000    1.4364988    -3.587103     -2.01381   0.23442736    -3.587103     1.573293  1203628 
 7443000    1.4354476   -3.5858833   -2.0137716   0.23570974   -3.5858833    1.5721117  1203651 
 7444000    1.4367403   -3.5867254   -2.0132372   0.23650563   -3.5867254    1.5734882  1203681 
 7445000    1.4375569   -3.5880239   -2.0136648   0.23604031   -3.5880239    1.5743591  1203699 
 7446000    1.4363507   -3.5870376   -2.0140467   0.23417077   -3.5870376    1.5729909  1203735 
 7447000    1.4370708   -3.5877924   -2.0140377   0.23391611   -3.5877924    1.5737547  1203754 
 7448000     1.435403   -3.5868072   -2.0149049   0.23687981   -3.5868072    1.5719022  1203774 
 7449000    1.4359091   -3.5880261   -2.0156089   0.23314213   -3.5880261    1.5724172  1203804 
 7450000    1.4348898   -3.5863059   -2.0150467   0.23578423   -3.5863059    1.5712593  1203836 
 7451000    1.4349234   -3.5870008   -2.0157491   0.23484323   -3.5870008    1.5712517  1203870 
 7452000    1.4365328    -3.588273   -2.0152722   0.23188023    -3.588273    1.5730009  1203880 
 7453000    1.4355954   -3.5872864   -2.0153524   0.23441342   -3.5872864    1.5719339  1203911 
 7454000    1.4366491   -3.5882874   -2.0152323   0.23497477   -3.5882874    1.5730551  1203936 
 7455000    1.4366846   -3.5886232   -2.0155488   0.23090622   -3.5886232    1.5730743  1203951 
 7456000    1.4359972   -3.5881466   -2.0158432   0.23507632   -3.5881466    1.5723034  1203965 
 7457000    1.4356291   -3.5872466   -2.0153724   0.23542693   -3.5872466    1.5718742  1203985 
 7458000    1.4352941   -3.5870504   -2.0155703   0.23980051   -3.5870504    1.5714801  1204006 
 7459000     1.435288   -3.5876706   -2.0162233   0.23127562   -3.5876706    1.5714473  1204026 
 7460000    1.4356597   -3.5881418   -2.0163112   0.23294232   -3.5881418    1.5718307  1204044 
 7461000    1.4356363    -3.588463   -2.0166879   0.23477655    -3.588463    1.5717751  1204067 
 7462000    1.4365561   -3.5889389   -2.0161881   0.23505274   -3.5889389    1.5727508  1204091 
 7463000    1.4361303   -3.5882054   -2.0159495   0.23597905   -3.5882054    1.5722559  1204113 
 7464000    1.4349876   -3.5867063   -2.0157288   0.23708045   -3.5867063    1.5709775  1204134 
 7465000    1.4369271   -3.5886852    -2.015608   0.23463979   -3.5886852    1.5730773  1204152 
 7466000    1.4356502   -3.5875765   -2.0159272   0.23601743   -3.5875765    1.5716494  1204175 
 7467000    1.4365441   -3.5892841   -2.0166966   0.23259728   -3.5892841    1.5725875  1204206 
 7468000    1.4355832   -3.5878151   -2.0163031   0.23538069   -3.5878151     1.571512  1204224 
 7469000    1.4357418   -3.5874904    -2.015836   0.23570989   -3.5874904    1.5716543  1204248 
 7470000    1.4366916   -3.5885983   -2.0159342   0.23696856   -3.5885983    1.5726641  1204271 
 7471000    1.4362283   -3.5890094   -2.0168956   0.23575643   -3.5890094    1.5721137  1204304 
 7472000    1.4361903   -3.5881123   -2.0160831   0.23477374   -3.5881123    1.5720292  1204337 
 7473000    1.4367599   -3.5893593   -2.0167341   0.23412685   -3.5893593    1.5726252  1204358 
 7474000    1.4351871   -3.5875404   -2.0166746   0.23334079   -3.5875404    1.5708658  1204387 
 7475000     1.436023   -3.5884385   -2.0166878   0.23699968   -3.5884385    1.5717507  1204410 
 7476000    1.4367865   -3.5891864   -2.0166445   0.23420236   -3.5891864    1.5725419  1204444 
 7477000    1.4355721   -3.5879833   -2.0168096   0.23688622   -3.5879833    1.5711737  1204474 
 7478000    1.4369264   -3.5895657   -2.0169346   0.23389592   -3.5895657    1.5726311  1204493 
 7479000    1.4372528   -3.5897937   -2.0168249   0.23210042   -3.5897937    1.5729688  1204508 
 7480000    1.4379086   -3.5906485   -2.0169907    0.2327649   -3.5906485    1.5736578  1204530 
 7481000    1.4366251   -3.5889623   -2.0167379   0.23416057   -3.5889623    1.5722244  1204552 
 7482000    1.4362818    -3.588847   -2.0170232   0.23622586    -3.588847    1.5718239  1204571 
 7483000    1.4360859   -3.5891258   -2.0175503   0.23693446   -3.5891258    1.5715755  1204597 
 7484000     1.436241   -3.5892898   -2.0175784   0.23494151   -3.5892898    1.5717114  1204623 
 7485000    1.4364487   -3.5890189   -2.0171024   0.23284281   -3.5890189    1.5719165  1204640 
 7486000    1.4357277   -3.5885289   -2.0174393   0.23964407   -3.5885289    1.5710896  1204669 
 7487000    1.4363634   -3.5889632    -2.017204   0.23690295   -3.5889632    1.5717592  1204689 
 7488000    1.4369259   -3.5893171   -2.0169829   0.23591827   -3.5893171    1.5723342  1204720 
 7489000    1.4360983    -3.589164   -2.0177562   0.23199372    -3.589164    1.5714078  1204736 
 7490000    1.4373434   -3.5902013   -2.0174676   0.23363518   -3.5902013    1.5727337  1204764 
 7491000    1.4363443   -3.5895175    -2.017907   0.23673688   -3.5895175    1.5716105  1204787 
 7492000    1.4370485   -3.5898106   -2.0174557    0.2386088   -3.5898106    1.5723549  1204807 
 7493000    1.4376492   -3.5906072   -2.0176265   0.24030268   -3.5906072    1.5729808  1204831 
 7494000    1.4371635   -3.5899196    -2.017495   0.23275615   -3.5899196    1.5724246  1204850 
 7495000    1.4377337   -3.5915069   -2.0184898   0.23354444   -3.5915069    1.5730171  1204874 
 7496000    1.4366102   -3.5903002    -2.018541   0.23760561   -3.5903002    1.5717591  1204896 
 7497000    1.4365941   -3.5905083    -2.018789   0.23641988   -3.5905083    1.5717194  1204913 
 7498000    1.4368456    -3.590147   -2.0181772   0.23819147    -3.590147    1.5719698  1204932 
 7499000    1.4365448   -3.5901297   -2.0185151   0.23481118   -3.5901297    1.5716146  1204952 
 7500000    1.4366605   -3.5905226   -2.0188206   0.23335826   -3.5905226     1.571702  1204982 
 7501000    1.4372586   -3.5910054   -2.0186843   0.23492199   -3.5910054    1.5723212  1205009 
 7502000    1.4364928   -3.5904545   -2.0190089   0.23489399   -3.5904545    1.5714455  1205038 
 7503000    1.4365512   -3.5906966   -2.0192067   0.23785252   -3.5906966    1.5714899  1205053 
 7504000     1.436886   -3.5909513   -2.0191161   0.23610756   -3.5909513    1.5718352  1205069 
 7505000    1.4372661   -3.5918063     -2.01958   0.23186183   -3.5918063    1.5722263  1205088 
 7506000    1.4370427    -3.591811   -2.0198525   0.23373333    -3.591811    1.5719585  1205106 
 7507000    1.4363714    -3.591469   -2.0202788    0.2350349    -3.591469    1.5711902  1205132 
 7508000    1.4361262   -3.5899111   -2.0190295   0.23344084   -3.5899111    1.5708816  1205163 
 7509000    1.4371748   -3.5915036    -2.019496    0.2312688   -3.5915036    1.5720076  1205179 
 7510000    1.4375055   -3.5920526   -2.0197145   0.23158297   -3.5920526    1.5723381  1205203 
 7511000    1.4385757   -3.5922794   -2.0188073   0.23297708   -3.5922794    1.5734721  1205231 
 7512000    1.4371482   -3.5911554   -2.0192719   0.23686539   -3.5911554    1.5718834  1205252 
 7513000    1.4388342   -3.5929206   -2.0192272   0.23569179   -3.5929206    1.5736935  1205278 
 7514000     1.435965   -3.5907539   -2.0202272   0.23953061   -3.5907539    1.5705267  1205300 
 7515000    1.4374176   -3.5925207   -2.0204261   0.23395299   -3.5925207    1.5720946  1205316 
 7516000    1.4373731   -3.5924375   -2.0204216   0.23269805   -3.5924375    1.5720159  1205339 
 7517000    1.4365533   -3.5913439   -2.0202584   0.23506592   -3.5913439    1.5710854  1205365 
 7518000    1.4363366    -3.591635   -2.0208126   0.23459901    -3.591635    1.5708224  1205385 
 7519000    1.4363478   -3.5914533   -2.0206435   0.23657327   -3.5914533    1.5708098  1205404 
 7520000    1.4370024   -3.5925603   -2.0210672   0.23346552   -3.5925603    1.5714931  1205429 
 7521000    1.4365643   -3.5924227   -2.0214282   0.23354985   -3.5924227    1.5709945  1205444 
 7522000     1.435916   -3.5913295   -2.0210752   0.23501241   -3.5913295    1.5702543  1205468 
 7523000    1.4370478   -3.5935469   -2.0220863   0.23328705   -3.5935469    1.5714606  1205492 
 7524000    1.4367517   -3.5927305   -2.0216158   0.23599502   -3.5927305    1.5711147  1205509 
 7525000    1.4363758   -3.5922977   -2.0216071   0.23156013   -3.5922977    1.5706906  1205519 
 7526000    1.4371076   -3.5924379   -2.0209783   0.23717908   -3.5924379    1.5714596  1205543 
 7527000    1.4370104   -3.5921427   -2.0208103   0.23567627   -3.5921427    1.5713324  1205559 
 7528000    1.4375857   -3.5925452   -2.0206045   0.23210784   -3.5925452    1.5719406  1205575 
 7529000    1.4369611   -3.5921979   -2.0209702   0.23837169   -3.5921979    1.5712277  1205598 
 7530000    1.4373171   -3.5924875   -2.0208966   0.23432514   -3.5924875    1.5715909  1205618 
 7531000    1.4370099   -3.5925855   -2.0213566   0.23412098   -3.5925855    1.5712289  1205638 
 7532000    1.4364344    -3.592021   -2.0214448    0.2378195    -3.592021    1.5705762  1205656 
 7533000    1.4378711   -3.5932751    -2.021158   0.23434508   -3.5932751    1.5721171  1205679 
 7534000    1.4366275   -3.5926501   -2.0219201   0.23521773   -3.5926501      1.57073  1205700 
 7535000     1.437635   -3.5932857   -2.0214814   0.23614298   -3.5932857    1.5718042  1205721 
 7536000     1.437715   -3.5931085   -2.0212443   0.23185319   -3.5931085    1.5718642  1205742 
 7537000    1.4370887   -3.5924672   -2.0213111   0.23214029   -3.5924672    1.5711561  1205760 
 7538000    1.4377332   -3.5935936   -2.0217758   0.23351134   -3.5935936    1.5718177  1205793 
 7539000    1.4364719   -3.5923314   -2.0219291   0.23515359   -3.5923314    1.5704023  1205821 
 7540000    1.4373972   -3.5932336   -2.0218341   0.23214025   -3.5932336    1.5713996  1205832 
 7541000    1.4379529   -3.5936584   -2.0216761   0.23358263   -3.5936584    1.5719823  1205851 
 7542000     1.436388    -3.592007   -2.0217642   0.24078562    -3.592007    1.5702428  1205873 
 7543000    1.4366576   -3.5928643   -2.0223567   0.23429919   -3.5928643    1.5705076  1205896 
 7544000    1.4381932   -3.5938154   -2.0216643   0.23389184   -3.5938154    1.5721511  1205923 
 7545000    1.4382285    -3.593839   -2.0216844   0.23291151    -3.593839    1.5721545  1205950 
 7546000    1.4381999   -3.5944175   -2.0223295   0.23177267   -3.5944175     1.572088  1205977 
 7547000    1.4377945   -3.5937344   -2.0221274    0.2345729   -3.5937344    1.5716071  1206006 
 7548000    1.4363976   -3.5921883   -2.0221433   0.23791482   -3.5921883     1.570045  1206033 
 7549000    1.4382664   -3.5948012   -2.0227395   0.23208774   -3.5948012    1.5720616  1206053 
 7550000    1.4371932    -3.593954   -2.0230876   0.23276949    -3.593954    1.5708665  1206070 
 7551000     1.437211   -3.5938477   -2.0229943   0.23701462   -3.5938477    1.5708534  1206095 
 7552000    1.4373911   -3.5945642   -2.0235517   0.23353612   -3.5945642    1.5710124  1206124 
 7553000    1.4364718   -3.5940169   -2.0240353   0.23411873   -3.5940169    1.5699816  1206144 
 7554000    1.4367145   -3.5944607   -2.0242477    0.2367863   -3.5944607     1.570213  1206170 
 7555000    1.4358316   -3.5939536   -2.0247328   0.23807926   -3.5939536    1.5692208  1206191 
 7556000    1.4360432    -3.594369   -2.0249456    0.2330858    -3.594369    1.5694234  1206213 
 7557000    1.4375269   -3.5951938   -2.0241788   0.23168626   -3.5951938    1.5710149  1206236 
 7558000    1.4374533   -3.5950928   -2.0241869   0.23566963   -3.5950928    1.5709059  1206258 
 7559000    1.4379617   -3.5958284   -2.0244033   0.23227547   -3.5958284     1.571425  1206286 
 7560000    1.4372115   -3.5952142   -2.0246416   0.23585212   -3.5952142    1.5705726  1206311 
 7561000     1.437517   -3.5946677   -2.0237886   0.23382427   -3.5946677    1.5708791  1206332 
 7562000    1.4389302     -3.59581   -2.0234114   0.23665714     -3.59581    1.5723987  1206351 
 7563000    1.4376807   -3.5942653   -2.0232659   0.24076371   -3.5942653    1.5709994  1206377 
 7564000    1.4379716    -3.594483   -2.0231996    0.2355271    -3.594483    1.5712834  1206403 
 7565000    1.4390273   -3.5964811   -2.0240675   0.23157545   -3.5964811    1.5724135  1206421 
 7566000    1.4377491   -3.5949135   -2.0239188   0.23505431   -3.5949135    1.5709947  1206438 
 7567000    1.4376632   -3.5947115   -2.0238511   0.23400774   -3.5947115    1.5708605  1206469 
 7568000    1.4379697   -3.5949325   -2.0237593   0.23584528   -3.5949325    1.5711733  1206486 
 7569000    1.4377374   -3.5946499    -2.023767   0.23729524   -3.5946499    1.5708829  1206514 
 7570000    1.4387777   -3.5958629   -2.0238823   0.22968184   -3.5958629    1.5719806  1206544 
 7571000    1.4374022   -3.5939523   -2.0234837    0.2357049   -3.5939523    1.5704686  1206551 
 7572000     1.438084   -3.5948802   -2.0237071   0.23732039   -3.5948802    1.5711731  1206582 
 7573000    1.4364187   -3.5941891   -2.0248615   0.23632059   -3.5941891    1.5693276  1206602 
 7574000    1.4371199   -3.5951477   -2.0250825   0.23260971   -3.5951477    1.5700652  1206624 
 7575000    1.4374551   -3.5953626    -2.024952   0.22997341   -3.5953626    1.5704105  1206640 
 7576000    1.4373482   -3.5949708   -2.0247122   0.23478944   -3.5949708    1.5702586  1206667 
 7577000    1.4372075   -3.5953193   -2.0252405   0.23561777   -3.5953193    1.5700788  1206687 
 7578000    1.4381369   -3.5959946   -2.0249237   0.23488004   -3.5959946    1.5710708  1206705 
 7579000    1.4370435   -3.5946704   -2.0248293   0.23944083   -3.5946704    1.5698411  1206732 
 7580000    1.4379443    -3.595668    -2.024865    0.2356987    -3.595668     1.570803  1206749 
 7581000    1.4375866   -3.5956352   -2.0252502   0.23731632   -3.5956352     1.570385  1206770 
 7582000    1.4372309   -3.5958242   -2.0258537   0.23280896   -3.5958242    1.5699705  1206790 
 7583000    1.4384384   -3.5970486   -2.0257943   0.23080822   -3.5970486    1.5712542  1206817 
 7584000    1.4372663   -3.5964848   -2.0265459    0.2371194   -3.5964848    1.5699389  1206844 
 7585000    1.4381796   -3.5974828   -2.0265776   0.22908221   -3.5974828    1.5709053  1206868 
 7586000    1.4372869   -3.5966152   -2.0267241   0.23353015   -3.5966152    1.5698911  1206898 
 7587000    1.4374233   -3.5964673   -2.0264518   0.23756058   -3.5964673    1.5700154  1206917 
 7588000    1.4374315    -3.596285   -2.0262944   0.23533987    -3.596285    1.5699905  1206943 
 7589000    1.4378387    -3.596774   -2.0263726   0.23750592    -3.596774    1.5704014  1206969 
 7590000    1.4376743   -3.5969986   -2.0268066   0.23399451   -3.5969986     1.570192  1206992 
 7591000    1.4369706   -3.5959486   -2.0265447   0.23734128   -3.5959486    1.5694039  1207007 
 7592000    1.4382441   -3.5973286   -2.0265625   0.23380856   -3.5973286    1.5707661  1207029 
 7593000    1.4387524   -3.5972857   -2.0259879   0.23813415   -3.5972857    1.5712978  1207047 
 7594000    1.4388101   -3.5976734    -2.026336   0.23710345   -3.5976734    1.5713374  1207065 
 7595000    1.4377228   -3.5965626   -2.0264386   0.23740956   -3.5965626    1.5701239  1207085 
 7596000     1.437645   -3.5967085   -2.0266877     0.232637   -3.5967085    1.5700208  1207099 
 7597000    1.4373282   -3.5963537   -2.0267062   0.23474291   -3.5963537    1.5696475  1207120 
 7598000    1.4377568   -3.5967024   -2.0266259   0.24192202   -3.5967024    1.5700765  1207150 
 7599000    1.4376197   -3.5962207   -2.0263172   0.23478642   -3.5962207    1.5699034  1207168 
 7600000    1.4377183   -3.5965967   -2.0266052   0.23430228   -3.5965967    1.5699916  1207183 
 7601000    1.4375922   -3.5965616   -2.0267324   0.23502654   -3.5965616    1.5698292  1207202 
 7602000    1.4371993   -3.5966092   -2.0272338   0.23547498   -3.5966092    1.5693754  1207221 
 7603000    1.4362786   -3.5955317    -2.027185   0.23721333   -3.5955317    1.5683467  1207239 
 7604000    1.4367178   -3.5960296   -2.0272267   0.23593312   -3.5960296    1.5688029  1207257 
 7605000    1.4375556    -3.597469   -2.0277747   0.23038105    -3.597469    1.5696943  1207275 
 7606000    1.4380384   -3.5979281   -2.0277469   0.23532772   -3.5979281    1.5701811  1207306 
 7607000    1.4379249   -3.5979007    -2.027867   0.23324803   -3.5979007    1.5700338  1207324 
 7608000    1.4382996   -3.5982221   -2.0278039   0.23327749   -3.5982221    1.5704182  1207343 
 7609000    1.4382164   -3.5977963   -2.0274911   0.23033313   -3.5977963    1.5703052  1207360 
 7610000    1.4378715   -3.5973713   -2.0274829   0.23725444   -3.5973713    1.5698883  1207391 
 7611000      1.43769   -3.5972075   -2.0275368   0.23403642   -3.5972075    1.5696707  1207406 
 7612000    1.4369205   -3.5971822    -2.028388   0.23780193   -3.5971822    1.5687942  1207434 
 7613000    1.4365374   -3.5968734   -2.0285325   0.24068849   -3.5968734    1.5683409  1207461 
 7614000    1.4370473   -3.5975719   -2.0287068   0.23611481   -3.5975719     1.568865  1207486 
 7615000    1.4374563   -3.5976974   -2.0284145   0.23629704   -3.5976974     1.569283  1207508 
 7616000    1.4372146     -3.59686   -2.0278695   0.24325563     -3.59686    1.5689905  1207530 
 7617000    1.4391538   -3.5992523   -2.0281785   0.23376724   -3.5992523    1.5710737  1207556 
 7618000    1.4384039    -3.597893   -2.0276549   0.23557675    -3.597893    1.5702381  1207569 
 7619000    1.4373127   -3.5966182   -2.0276024   0.24170023   -3.5966182    1.5690158  1207593 
 7620000    1.4387178   -3.5981002   -2.0275728    0.2370669   -3.5981002    1.5705274  1207610 
 7621000    1.4378841   -3.5973972   -2.0278122    0.2438182   -3.5973972    1.5695849  1207635 
 7622000    1.4394181   -3.5994957   -2.0282663   0.23348308   -3.5994957    1.5712295  1207658 
 7623000    1.4394336   -3.5990546   -2.0278486   0.23283582   -3.5990546     1.571206  1207689 
 7624000    1.4384367   -3.5980825   -2.0279958     0.239239   -3.5980825    1.5700867  1207713 
 7625000    1.4387184   -3.5985609    -2.028203   0.23762655   -3.5985609    1.5703578  1207741 
 7626000    1.4384729   -3.5983048   -2.0282566   0.23927131   -3.5983048    1.5700482  1207773 
 7627000    1.4375895    -3.597595   -2.0285473   0.23931042    -3.597595    1.5690477  1207801 
 7628000    1.4390974   -3.5996475   -2.0289852   0.23353172   -3.5996475    1.5706622  1207825 
 7629000    1.4391234   -3.5988567   -2.0281921   0.23455211   -3.5988567    1.5706646  1207845 
 7630000    1.4380669    -3.597944   -2.0284598   0.23526138    -3.597944    1.5694843  1207866 
 7631000    1.4385848   -3.5981504   -2.0281204   0.23529297   -3.5981504    1.5700299  1207881 
 7632000    1.4385078   -3.5984653   -2.0285571   0.23624146   -3.5984653    1.5699082  1207910 
 7633000    1.4396291   -3.5998345   -2.0287194   0.23223122   -3.5998345    1.5711151  1207923 
 7634000    1.4384616   -3.5983317    -2.028518   0.23766672   -3.5983317    1.5698136  1207944 
 7635000    1.4393207    -3.598759   -2.0280442   0.23879622    -3.598759    1.5707148  1207972 
 7636000    1.4402511   -3.6001938   -2.0284911   0.23429454   -3.6001938    1.5717028  1207993 
 7637000    1.4391706   -3.5990295   -2.0285279   0.23713072   -3.5990295    1.5705016  1208010 
 7638000    1.4384298    -3.599055    -2.029393   0.23724614    -3.599055     1.569662  1208034 
 7639000    1.4390092   -3.5998627   -2.0296062    0.2366981   -3.5998627    1.5702566  1208063 
 7640000    1.4392397   -3.6003391   -2.0298584   0.23743963   -3.6003391    1.5704808  1208084 
 7641000     1.438271   -3.6003928   -2.0310067   0.23545167   -3.6003928     1.569386  1208113 
 7642000    1.4390166   -3.6016839   -2.0315076   0.23641914   -3.6016839    1.5701762  1208131 
 7643000    1.4383893   -3.6006246   -2.0311705   0.23362447   -3.6006246    1.5694541  1208160 
 7644000    1.4390767   -3.6016094   -2.0314404   0.23251614   -3.6016094     1.570169  1208187 
 7645000    1.4378129   -3.6007369   -2.0319753   0.23657939   -3.6007369    1.5687615  1208209 
 7646000    1.4386137    -3.601147   -2.0315389   0.23846066    -3.601147    1.5696081  1208230 
 7647000     1.439326   -3.6016353   -2.0312827   0.23562238   -3.6016353    1.5703526  1208255 
 7648000    1.4374839   -3.6003159   -2.0320107   0.23844093   -3.6003159    1.5683052  1208284 
 7649000    1.4380519   -3.6014964   -2.0325987   0.23381607   -3.6014964    1.5688976  1208305 
 7650000    1.4390722   -3.6021533   -2.0321502    0.2309741   -3.6021533     1.570003  1208311 
 7651000    1.4380594   -3.6009785   -2.0321038   0.23637146   -3.6009785    1.5688746  1208329 
 7652000    1.4380359   -3.6003369   -2.0315268   0.23619278   -3.6003369    1.5688101  1208359 
 7653000    1.4376979   -3.6008755   -2.0324614    0.2351792   -3.6008755    1.5684141  1208380 
 7654000    1.4378851   -3.6010178   -2.0324423   0.23754259   -3.6010178    1.5685755  1208413 
 7655000    1.4398674   -3.6014194   -2.0307139   0.23125823   -3.6014194    1.5707055  1208438 
 7656000    1.4387608   -3.6001045   -2.0306386   0.23896662   -3.6001045    1.5694659  1208463 
 7657000    1.4383224   -3.5992105    -2.030258   0.23992188   -3.5992105    1.5689526  1208490 
 7658000    1.4393654   -3.6005331   -2.0304662   0.23503885   -3.6005331    1.5700669  1208508 
 7659000    1.4391134   -3.6006838   -2.0309308   0.23550914   -3.6006838    1.5697531  1208538 
 7660000    1.4387456    -3.600321   -2.0310081   0.23958187    -3.600321    1.5693129  1208568 
 7661000    1.4392629   -3.6005291   -2.0306792   0.23779067   -3.6005291    1.5698499  1208589 
 7662000    1.4399122   -3.6012605   -2.0307284   0.23628793   -3.6012605    1.5705321  1208609 
 7663000    1.4391602   -3.6005793   -2.0308947   0.23611808   -3.6005793    1.5696846  1208630 
 7664000    1.4393711    -3.600363   -2.0304912   0.23885846    -3.600363    1.5698718  1208663 
 7665000    1.4397956   -3.6005045   -2.0301931   0.23473133   -3.6005045    1.5703114  1208681 
 7666000    1.4408414   -3.6015579   -2.0301371   0.23645324   -3.6015579    1.5714207  1208705 
 7667000    1.4397163   -3.6007098   -2.0305434   0.23954495   -3.6007098    1.5701664  1208726 
 7668000    1.4391386   -3.5994933   -2.0299843   0.23669885   -3.5994933    1.5695091  1208747 
 7669000    1.4393122   -3.5999687   -2.0303041    0.2360556   -3.5999687    1.5696646  1208773 
 7670000    1.4396219   -3.6008153   -2.0308415    0.2390053   -3.6008153    1.5699739  1208795 
 7671000    1.4400211   -3.6019314   -2.0315391    0.2385522   -3.6019314    1.5703923  1208808 
 7672000    1.4394957   -3.6018516    -2.032079   0.23815626   -3.6018516    1.5697725  1208844 
 7673000    1.4387599   -3.6010292   -2.0320915   0.24003522   -3.6010292    1.5689377  1208869 
 7674000    1.4390472   -3.6016805   -2.0324489   0.23840125   -3.6016805    1.5692316  1208884 
 7675000    1.4402465   -3.6028044   -2.0322935    0.2382375   -3.6028044    1.5705108  1208906 
 7676000    1.4399688   -3.6029444   -2.0327585    0.2366946   -3.6029444    1.5701859  1208923 
 7677000    1.4394075    -3.602593   -2.0330491   0.23789077    -3.602593    1.5695439  1208946 
 7678000    1.4405368   -3.6030988   -2.0323572   0.23701386   -3.6030988    1.5707416  1208972 
 7679000    1.4404269   -3.6025774   -2.0319713   0.23924719   -3.6025774    1.5706061  1208984 
 7680000    1.4403448   -3.6024881   -2.0320104   0.23640522   -3.6024881    1.5704777  1209014 
 7681000    1.4405755   -3.6027118   -2.0320164   0.23331593   -3.6027118    1.5706954  1209040 
 7682000     1.440411   -3.6030527   -2.0325535   0.23820763   -3.6030527    1.5704992  1209053 
 7683000    1.4394806   -3.6025914   -2.0331352   0.23922748   -3.6025914    1.5694562  1209075 
 7684000    1.4399816   -3.6034737   -2.0334985    0.2363805   -3.6034737    1.5699752  1209096 
 7685000    1.4394117   -3.6028708   -2.0335573   0.23630311   -3.6028708    1.5693135  1209127 
 7686000    1.4383305   -3.6018926    -2.033776   0.24007127   -3.6018926    1.5681166  1209141 
 7687000     1.439742   -3.6031334   -2.0335065   0.23385984   -3.6031334     1.569627  1209163 
 7688000    1.4391087   -3.6026315   -2.0337248    0.2359108   -3.6026315    1.5689067  1209186 
 7689000    1.4385323   -3.6023492   -2.0340994   0.23602731   -3.6023492    1.5682498  1209208 
 7690000    1.4403844   -3.6039961   -2.0337492   0.23093817   -3.6039961    1.5702468  1209225 
 7691000    1.4407019   -3.6038598   -2.0332955   0.23288952   -3.6038598    1.5705643  1209247 
 7692000     1.440104   -3.6038346   -2.0339519    0.2359525   -3.6038346    1.5698827  1209270 
 7693000    1.4400713   -3.6034113   -2.0335979   0.23703067   -3.6034113    1.5698133  1209296 
 7694000    1.4388386   -3.6020244    -2.033573   0.24049221   -3.6020244    1.5684514  1209310 
 7695000    1.4395937   -3.6031913   -2.0339414   0.23665025   -3.6031913    1.5692499  1209329 
 7696000    1.4386586    -3.603192   -2.0349797   0.23369395    -3.603192    1.5682124  1209343 
 7697000    1.4391278   -3.6031898    -2.034488   0.23746432   -3.6031898    1.5687018  1209360 
 7698000    1.4390674   -3.6032622   -2.0346431     0.238435   -3.6032622    1.5686191  1209373 
 7699000    1.4399284   -3.6034712   -2.0339474    0.2391651   -3.6034712    1.5695238  1209399 
 7700000    1.4396904     -3.60358   -2.0343454   0.23729931     -3.60358    1.5692346  1209422 
 7701000    1.4393245   -3.6037621   -2.0349652   0.23851186   -3.6037621    1.5687969  1209452 
 7702000    1.4395336   -3.6036043   -2.0345977   0.24066877   -3.6036043    1.5690066  1209466 
 7703000    1.4392822   -3.6039131   -2.0351883    0.2382508   -3.6039131    1.5687248  1209472 
 7704000    1.4379518   -3.6025653    -2.035319   0.23827317   -3.6025653    1.5672463  1209494 
 7705000    1.4388179   -3.6038052   -2.0356421   0.23460693   -3.6038052     1.568163  1209515 
 7706000    1.4391877   -3.6046429   -2.0361106   0.23706749   -3.6046429    1.5685323  1209541 
 7707000    1.4405435   -3.6055015   -2.0355187   0.23624734   -3.6055015    1.5699827  1209562 
 7708000    1.4394927   -3.6040156   -2.0352169   0.24279216   -3.6040156    1.5687986  1209592 
 7709000    1.4388354   -3.6041813   -2.0361275   0.23486329   -3.6041813    1.5680538  1209614 
 7710000    1.4393435   -3.6051672   -2.0365947   0.23330017   -3.6051672    1.5685725  1209641 
 7711000    1.4382275   -3.6036837   -2.0363535   0.23391511   -3.6036837    1.5673303  1209661 
 7712000    1.4394559   -3.6046292   -2.0359952   0.23423718   -3.6046292     1.568634  1209688 
 7713000    1.4386023   -3.6037911   -2.0361196   0.23839641   -3.6037911    1.5676714  1209713 
 7714000    1.4409375   -3.6055593   -2.0353795   0.23342321   -3.6055593    1.5701798  1209741 
 7715000    1.4399434   -3.6045124   -2.0354458   0.23757423   -3.6045124    1.5690666  1209764 
 7716000    1.4414819   -3.6054971   -2.0347865   0.23901766   -3.6054971    1.5707106  1209789 
 7717000    1.4403829   -3.6044618   -2.0349681   0.23963646   -3.6044618    1.5694937  1209804 
 7718000    1.4410175   -3.6047654   -2.0346127   0.23683395   -3.6047654    1.5701527  1209829 
 7719000    1.4402004    -3.603724   -2.0344889    0.2446137    -3.603724    1.5692351  1209850 
 7720000    1.4416025   -3.6046349   -2.0338903    0.2405307   -3.6046349    1.5707446  1209864 
 7721000    1.4414754   -3.6043968   -2.0338243   0.23965209   -3.6043968    1.5705725  1209890 
 7722000    1.4401528   -3.6035176   -2.0344108   0.24085945   -3.6035176    1.5691068  1209909 
 7723000    1.4418146   -3.6056095   -2.0347168   0.23754093   -3.6056095    1.5708927  1209928 
 7724000    1.4402587   -3.6042547   -2.0350857   0.23593264   -3.6042547     1.569169  1209950 
 7725000    1.4402404   -3.6037386   -2.0346116   0.23770479   -3.6037386     1.569127  1209967 
 7726000    1.4391124   -3.6029789   -2.0351081    0.2397162   -3.6029789    1.5678709  1209988 
 7727000    1.4395484   -3.6041655   -2.0358494   0.24033515   -3.6041655    1.5683161  1210011 
 7728000    1.4405594   -3.6047066   -2.0353202   0.23691721   -3.6047066    1.5693864  1210035 
 7729000     1.441583   -3.6054442   -2.0349725   0.23856432   -3.6054442    1.5704717  1210058 
 7730000    1.4410384   -3.6047552   -2.0348951   0.23481642   -3.6047552    1.5698601  1210072 
 7731000    1.4418089   -3.6057142   -2.0350457   0.23873373   -3.6057142    1.5706684  1210096 
 7732000    1.4412607   -3.6045978   -2.0345604   0.23733945   -3.6045978    1.5700374  1210122 
 7733000    1.4411028   -3.6050944   -2.0352484   0.24328123   -3.6050944     1.569846  1210137 
 7734000    1.4411559   -3.6052345   -2.0353541   0.23860023   -3.6052345    1.5698805  1210155 
 7735000    1.4416913   -3.6059017   -2.0354627   0.23563276   -3.6059017     1.570439  1210174 
 7736000    1.4420955   -3.6065584   -2.0357141   0.24292864   -3.6065584    1.5708443  1210201 
 7737000    1.4412588   -3.6053936   -2.0354931   0.24154817   -3.6053936    1.5699005  1210226 
 7738000    1.4406236   -3.6052811   -2.0361115   0.24018201   -3.6052811    1.5691696  1210256 
 7739000    1.4411141   -3.6066258   -2.0369504   0.23829335   -3.6066258    1.5696754  1210278 
 7740000    1.4398654   -3.6049715   -2.0366808   0.24333754   -3.6049715    1.5682907  1210297 
 7741000    1.4410134   -3.6063005    -2.036788   0.23638793   -3.6063005    1.5695125  1210319 
 7742000    1.4416268   -3.6066955   -2.0365538   0.23862752   -3.6066955    1.5701418  1210349 
 7743000    1.4397736   -3.6050617   -2.0369734   0.24102864   -3.6050617    1.5680884  1210376 
 7744000    1.4406703   -3.6058394   -2.0367939   0.23819883   -3.6058394    1.5690455  1210391 
 7745000    1.4407094   -3.6057811   -2.0367086   0.24016068   -3.6057811    1.5690726  1210403 
 7746000    1.4411977   -3.6057976   -2.0362256   0.24096194   -3.6057976    1.5695719  1210428 
 7747000    1.4417919   -3.6067435   -2.0365504   0.23767385   -3.6067435    1.5701931  1210448 
 7748000    1.4402593   -3.6048831   -2.0363824    0.2418051   -3.6048831    1.5685007  1210466 
 7749000    1.4413638    -3.605948   -2.0362626   0.24174156    -3.605948    1.5696854  1210480 
 7750000    1.4421104   -3.6064659   -2.0359792    0.2414456   -3.6064659    1.5704868  1210489 
 7751000    1.4409605   -3.6057447    -2.036536   0.23948686   -3.6057447    1.5692087  1210509 
 7752000       1.4402   -3.6047811   -2.0364292   0.24476689   -3.6047811    1.5683519  1210531 
 7753000    1.4414491   -3.6063765   -2.0366942   0.23739581   -3.6063765    1.5696824  1210554 
 7754000    1.4411506    -3.606337   -2.0370122   0.23405667    -3.606337    1.5693248  1210579 
 7755000    1.4419136   -3.6071717    -2.037038   0.23762351   -3.6071717    1.5701337  1210596 
 7756000    1.4407131    -3.606176   -2.0373807   0.23945464    -3.606176    1.5687953  1210620 
 7757000    1.4409432   -3.6061747   -2.0371665   0.23503592   -3.6061747    1.5690083  1210649 
 7758000    1.4401995   -3.6057182   -2.0375365   0.24197558   -3.6057182    1.5681817  1210662 
 7759000    1.4406229   -3.6064031   -2.0377954   0.23998505   -3.6064031    1.5686077  1210689 
 7760000    1.4402158   -3.6060599   -2.0379253   0.24256615   -3.6060599    1.5681346  1210712 
 7761000    1.4413878   -3.6071194   -2.0377424    0.2413981   -3.6071194     1.569377  1210738 
 7762000    1.4408758   -3.6066654    -2.037873   0.23786609   -3.6066654    1.5687924  1210759 
 7763000    1.4408018   -3.6060572   -2.0373714   0.24065097   -3.6060572    1.5686858  1210779 
 7764000    1.4411838   -3.6067996   -2.0377263   0.24078344   -3.6067996    1.5690733  1210801 
 7765000    1.4417638   -3.6069753   -2.0372887   0.24129852   -3.6069753    1.5696866  1210815 
 7766000    1.4415984   -3.6071156   -2.0376428   0.23964989   -3.6071156    1.5694728  1210841 
 7767000    1.4416592   -3.6077139   -2.0381983   0.23754674   -3.6077139    1.5695157  1210859 
 7768000    1.4416409   -3.6077548   -2.0382927   0.23733435   -3.6077548    1.5694621  1210885 
 7769000    1.4414437   -3.6083533   -2.0391267   0.23843811   -3.6083533    1.5692267  1210901 
 7770000    1.4416795   -3.6083429   -2.0388881    0.2394225   -3.6083429    1.5694548  1210923 
 7771000    1.4401985    -3.607158   -2.0393335   0.24611637    -3.607158    1.5678244  1210937 
 7772000    1.4408376   -3.6078758   -2.0393725   0.23767456   -3.6078758    1.5685033  1210950 
 7773000    1.4410567   -3.6078507   -2.0391425   0.24055834   -3.6078507    1.5687082  1210976 
 7774000    1.4416388   -3.6079815   -2.0386643   0.23996627   -3.6079815    1.5693173  1210995 
 7775000    1.4424534     -3.60858   -2.0383929   0.23670571     -3.60858    1.5701871  1211008 
 7776000     1.441729   -3.6078048   -2.0384386    0.2397408   -3.6078048    1.5693662  1211033 
 7777000    1.4416467   -3.6071354   -2.0378834   0.24213183   -3.6071354    1.5692519  1211052 
 7778000    1.4416216    -3.607695   -2.0385053   0.23849022    -3.607695    1.5691897  1211079 
 7779000    1.4425845   -3.6093374   -2.0391359   0.23467764   -3.6093374    1.5702015  1211107 
 7780000    1.4415075   -3.6089383   -2.0399441   0.23717458   -3.6089383    1.5689942  1211134 
 7781000    1.4426539   -3.6098632   -2.0396445   0.23969697   -3.6098632    1.5702187  1211152 
 7782000    1.4420359   -3.6085573    -2.039045   0.24007503   -3.6085573    1.5695123  1211178 
 7783000    1.4410773   -3.6080191   -2.0395761   0.23849957   -3.6080191     1.568443  1211198 
 7784000     1.442084   -3.6088723   -2.0393608   0.23927083   -3.6088723    1.5695115  1211219 
 7785000    1.4417934   -3.6077151   -2.0385432   0.24234872   -3.6077151    1.5691719  1211237 
 7786000    1.4419431   -3.6082486   -2.0389409   0.23977435   -3.6082486    1.5693076  1211258 
 7787000    1.4415862   -3.6071057   -2.0382111   0.24000934   -3.6071057    1.5688947  1211277 
 7788000    1.4425484   -3.6082263   -2.0383183   0.23729093   -3.6082263    1.5699081  1211303 
 7789000    1.4419201   -3.6077888   -2.0385878    0.2401814   -3.6077888     1.569201  1211321 
 7790000    1.4423453   -3.6080462    -2.038398   0.24167291   -3.6080462    1.5696482  1211333 
 7791000    1.4418184   -3.6072278   -2.0381789   0.24137875   -3.6072278    1.5690489  1211353 
 7792000    1.4441725   -3.6093926   -2.0378195   0.24118152   -3.6093926    1.5715731  1211382 
 7793000    1.4428172   -3.6087659   -2.0387052   0.23968246   -3.6087659    1.5700607  1211411 
 7794000    1.4423864   -3.6077507   -2.0381913     0.239082   -3.6077507    1.5695594  1211436 
 7795000    1.4427837   -3.6085925   -2.0386447   0.23639701   -3.6085925    1.5699477  1211470 
 7796000    1.4425534   -3.6089654   -2.0392838   0.23938146   -3.6089654    1.5696816  1211482 
 7797000    1.4417216   -3.6076998   -2.0389557   0.23701438   -3.6076998    1.5687441  1211507 
 7798000    1.4429661   -3.6088105   -2.0387356   0.24075471   -3.6088105     1.570075  1211525 
 7799000    1.4427042   -3.6087343   -2.0389715   0.23918472   -3.6087343    1.5697627  1211546 
 7800000    1.4424893   -3.6093604   -2.0398587   0.23954722   -3.6093604    1.5695017  1211567 
 7801000    1.4430378   -3.6094774   -2.0394009   0.23849592   -3.6094774    1.5700765  1211584 
 7802000    1.4418726   -3.6085017   -2.0397267    0.2428175   -3.6085017     1.568775  1211610 
 7803000    1.4427754    -3.609232   -2.0395072   0.23857443    -3.609232    1.5697249  1211635 
 7804000     1.442213      -3.6089   -2.0398116   0.24213429      -3.6089    1.5690884  1211654 
 7805000    1.4424042   -3.6093844   -2.0401152   0.23992628   -3.6093844    1.5692692  1211675 
 7806000    1.4417173   -3.6085826   -2.0400866   0.24332561   -3.6085826     1.568496  1211695 
 7807000    1.4418253    -3.608705   -2.0401135    0.2383813    -3.608705    1.5685915  1211712 
 7808000    1.4425622   -3.6089328   -2.0395642   0.24377451   -3.6089328    1.5693686  1211731 
 7809000    1.4416915   -3.6081751   -2.0397952   0.24242112   -3.6081751    1.5683799  1211763 
 7810000    1.4430758   -3.6097328   -2.0398742   0.24109853   -3.6097328    1.5698587  1211784 
 7811000    1.4430171   -3.6103241   -2.0405551   0.23968597   -3.6103241    1.5697689  1211804 
 7812000    1.4421603   -3.6100332   -2.0412235    0.2381905   -3.6100332    1.5688097  1211825 
 7813000    1.4430389   -3.6100696   -2.0403262   0.24148658   -3.6100696    1.5697434  1211842 
 7814000    1.4428029   -3.6102955   -2.0408335   0.23842313   -3.6102955    1.5694621  1211861 
 7815000    1.4424503   -3.6096603   -2.0406103   0.24025948   -3.6096603    1.5690501  1211883 
 7816000    1.4428917   -3.6102533    -2.040749   0.23758764   -3.6102533    1.5695043  1211903 
 7817000    1.4433483   -3.6105976   -2.0406239   0.23520283   -3.6105976    1.5699737  1211924 
 7818000    1.4426114   -3.6098443   -2.0407005    0.2422265   -3.6098443    1.5691437  1211946 
 7819000    1.4437571    -3.610349   -2.0399837   0.24122583    -3.610349    1.5703653  1211965 
 7820000    1.4439608   -3.6102281   -2.0396788   0.24344287   -3.6102281    1.5705493  1211994 
 7821000    1.4430285   -3.6086711   -2.0391709     0.244497   -3.6086711    1.5695002  1212021 
 7822000    1.4436349   -3.6089488   -2.0388189   0.24177006   -3.6089488      1.57013  1212044 
 7823000    1.4445394   -3.6103973   -2.0393082   0.24173359   -3.6103973    1.5710891  1212063 
 7824000    1.4430373   -3.6091415   -2.0397171   0.24200562   -3.6091415    1.5694244  1212087 
 7825000    1.4439205   -3.6100342   -2.0396829   0.23622739   -3.6100342    1.5703513  1212113 
 7826000    1.4430409   -3.6093258   -2.0399571   0.24440835   -3.6093258    1.5693687  1212133 
 7827000    1.4424581   -3.6091918   -2.0404776   0.24062505   -3.6091918    1.5687142  1212149 
 7828000    1.4432814   -3.6096426   -2.0400537   0.24189435   -3.6096426    1.5695888  1212165 
 7829000     1.443818   -3.6106579   -2.0405088   0.23665376   -3.6106579    1.5701491  1212183 
 7830000    1.4435784   -3.6105086   -2.0406498   0.23838937   -3.6105086    1.5698588  1212206 
 7831000    1.4444356   -3.6113785   -2.0406213   0.23900513   -3.6113785    1.5707572  1212232 
 7832000    1.4440581   -3.6101734    -2.039863   0.24187503   -3.6101734    1.5703104  1212260 
 7833000    1.4441341   -3.6099181   -2.0395548   0.24215634   -3.6099181    1.5703633  1212283 
 7834000    1.4441553   -3.6097757   -2.0394191   0.24394052   -3.6097757    1.5703566  1212306 
 7835000    1.4457704   -3.6119866    -2.039901   0.23396294   -3.6119866    1.5720856  1212327 
 7836000    1.4443864   -3.6107801    -2.040215   0.23859833   -3.6107801    1.5705651  1212339 
 7837000      1.44376   -3.6099484    -2.040089    0.2443279   -3.6099484    1.5698594  1212358 
 7838000    1.4440097   -3.6112164   -2.0411153   0.24189511   -3.6112164    1.5701011  1212381 
 7839000    1.4429641   -3.6107741   -2.0418385   0.24400056   -3.6107741    1.5689357  1212403 
 7840000    1.4433827   -3.6112132   -2.0418586   0.24541441   -3.6112132    1.5693546  1212431 
 7841000    1.4414406   -3.6096875   -2.0424574   0.24491879   -3.6096875    1.5672301  1212441 
 7842000    1.4431579   -3.6117125   -2.0426463   0.24079674   -3.6117125    1.5690662  1212465 
 7843000    1.4431247    -3.611649   -2.0426422   0.24139932    -3.611649    1.5690068  1212483 
 7844000    1.4431631    -3.611775    -2.042751   0.24251823    -3.611775     1.569024  1212502 
 7845000    1.4431503   -3.6118111   -2.0428359    0.2413015   -3.6118111    1.5689751  1212529 
 7846000    1.4434186   -3.6110287   -2.0417917   0.24219547   -3.6110287     1.569237  1212552 
 7847000    1.4433097   -3.6109853   -2.0418861   0.24317625   -3.6109853    1.5690992  1212567 
 7848000    1.4446419   -3.6119565   -2.0414439    0.2423583   -3.6119565    1.5705126  1212594 
 7849000    1.4438503   -3.6115167   -2.0418984   0.24618827   -3.6115167    1.5696183  1212620 
 7850000    1.4433437   -3.6119906   -2.0429592   0.24345359   -3.6119906    1.5690314  1212648 
 7851000    1.4439724   -3.6117211   -2.0420476   0.24379187   -3.6117211    1.5696735  1212680 
 7852000     1.443049   -3.6108122   -2.0421685   0.24719883   -3.6108122    1.5686438  1212700 
 7853000     1.444455   -3.6133979   -2.0432542   0.23957082   -3.6133979    1.5701437  1212722 
 7854000     1.442682   -3.6119086   -2.0437181   0.24266896   -3.6119086    1.5681905  1212742 
 7855000    1.4424301   -3.6112178   -2.0433269   0.24572998   -3.6112178    1.5678909  1212762 
 7856000    1.4432341    -3.612546     -2.04382   0.23935155    -3.612546     1.568726  1212792 
 7857000    1.4421575   -3.6122801    -2.044754   0.23842424   -3.6122801     1.567526  1212815 
 7858000    1.4409691   -3.6112581   -2.0450406   0.24015669   -3.6112581    1.5662175  1212828 
 7859000    1.4422441   -3.6122718    -2.044702   0.24058824   -3.6122718    1.5675698  1212854 
 7860000    1.4429785   -3.6124759   -2.0441377   0.23565089   -3.6124759    1.5683382  1212877 
 7861000    1.4428468   -3.6120969   -2.0439329   0.24194608   -3.6120969     1.568164  1212901 
 7862000    1.4437883   -3.6128176   -2.0436535   0.24048268   -3.6128176    1.5691641  1212919 
 7863000    1.4445998   -3.6138095    -2.043792   0.23984897   -3.6138095    1.5700175  1212941 
 7864000     1.444265   -3.6132336   -2.0436006   0.24077049   -3.6132336    1.5696329  1212957 
 7865000    1.4437707   -3.6135073   -2.0444465   0.24046133   -3.6135073    1.5690608  1212984 
 7866000    1.4438204   -3.6129657   -2.0438781   0.24570081   -3.6129657    1.5690876  1213005 
 7867000    1.4435959   -3.6130397   -2.0442257   0.23741681   -3.6130397    1.5688139  1213028 
 7868000    1.4444318   -3.6131487   -2.0434484   0.24170627   -3.6131487    1.5697003  1213045 
 7869000    1.4447216   -3.6130465   -2.0430545   0.24397625   -3.6130465     1.569992  1213063 
 7870000    1.4450906   -3.6136801   -2.0433143    0.2447455   -3.6136801    1.5703658  1213084 
 7871000    1.4441756   -3.6128155   -2.0434777   0.24540897   -3.6128155    1.5693378  1213110 
 7872000    1.4457779   -3.6141146   -2.0430692    0.2392626   -3.6141146    1.5710454  1213136 
 7873000    1.4445768   -3.6128972   -2.0431829   0.24144122   -3.6128972    1.5697142  1213156 
 7874000    1.4444834   -3.6126966   -2.0431149     0.241503   -3.6126966    1.5695818  1213180 
 7875000     1.443062   -3.6120518   -2.0440326   0.24484555   -3.6120518    1.5680191  1213194 
 7876000    1.4441503   -3.6135885   -2.0444217   0.24114469   -3.6135885    1.5691668  1213221 
 7877000    1.4437782   -3.6140626   -2.0453324    0.2371914   -3.6140626    1.5687302  1213246 
 7878000    1.4440633    -3.614112   -2.0450966    0.2426319    -3.614112    1.5690154  1213265 
 7879000    1.4432604    -3.613594   -2.0454808    0.2384322    -3.613594    1.5681133  1213288 
 7880000    1.4429602   -3.6138739   -2.0461308   0.24382174   -3.6138739    1.5677431  1213322 
 7881000    1.4426983   -3.6133773   -2.0459497   0.24112803   -3.6133773    1.5674276  1213346 
 7882000    1.4438355   -3.6136735   -2.0450298   0.24332136   -3.6136735    1.5686438  1213361 
 7883000    1.4434442   -3.6129532   -2.0447669   0.24319306   -3.6129532    1.5681863  1213386 
 7884000    1.4443374   -3.6149632   -2.0458401   0.23916293   -3.6149632    1.5691231  1213412 
 7885000     1.444872   -3.6147829   -2.0451153    0.2434108   -3.6147829    1.5696676  1213440 
 7886000    1.4435019   -3.6139847   -2.0458352   0.24158476   -3.6139847    1.5681494  1213463 
 7887000    1.4432523      -3.6147   -2.0468501   0.23768196      -3.6147    1.5678499  1213485 
 7888000    1.4429114   -3.6142555   -2.0467993   0.24635504   -3.6142555    1.5674562  1213503 
 7889000     1.443601    -3.614928   -2.0467549   0.24176695    -3.614928    1.5681731  1213528 
 7890000    1.4441906   -3.6154751     -2.04669   0.23835164   -3.6154751    1.5687852  1213550 
 7891000    1.4431627   -3.6145958   -2.0469453   0.23798054   -3.6145958    1.5676505  1213564 
 7892000    1.4433653   -3.6151069   -2.0472699   0.24321723   -3.6151069     1.567837  1213590 
 7893000    1.4425657     -3.61434   -2.0473987   0.24037226     -3.61434    1.5669413  1213611 
 7894000      1.44399   -3.6158008   -2.0473447   0.24135067   -3.6158008    1.5684561  1213636 
 7895000    1.4447919   -3.6164551   -2.0471591   0.23839003   -3.6164551    1.5692961  1213660 
 7896000    1.4438403   -3.6156005   -2.0473639   0.23900871   -3.6156005    1.5682366  1213680 
 7897000    1.4424401   -3.6149089   -2.0482151   0.24572155   -3.6149089    1.5666938  1213697 
 7898000     1.443328   -3.6160732   -2.0484472   0.23899213   -3.6160732     1.567626  1213722 
 7899000    1.4433231   -3.6155556   -2.0479647   0.24470591   -3.6155556    1.5675909  1213745 
 7900000    1.4429705   -3.6153697   -2.0482005   0.23961617   -3.6153697    1.5671692  1213775 
 7901000    1.4440835   -3.6161233   -2.0477659   0.24323475   -3.6161233    1.5683574  1213791 
 7902000     1.443878   -3.6160597   -2.0479604   0.23906086   -3.6160597    1.5680993  1213818 
 7903000     1.443572   -3.6156293   -2.0478907   0.24368395   -3.6156293    1.5677386  1213840 
 7904000    1.4434138   -3.6154044   -2.0478648   0.24623971   -3.6154044    1.5675397  1213861 
 7905000    1.4431473   -3.6150952    -2.047867   0.24607329   -3.6150952    1.5672282  1213878 
 7906000    1.4438025   -3.6162933   -2.0483794   0.24235485   -3.6162933     1.567914  1213898 
 7907000    1.4435319   -3.6153619   -2.0477702     0.243805   -3.6153619    1.5675917  1213920 
 7908000    1.4441661    -3.615821   -2.0475703   0.24247084    -3.615821    1.5682507  1213943 
 7909000    1.4438668   -3.6154791   -2.0475781   0.24219395   -3.6154791    1.5679011  1213962 
 7910000    1.4449922   -3.6163636    -2.047278   0.24238655   -3.6163636    1.5690857  1213991 
 7911000    1.4447348   -3.6156649   -2.0468859   0.24416755   -3.6156649     1.568779  1214012 
 7912000    1.4441689   -3.6157381   -2.0476045   0.24523851   -3.6157381    1.5681335  1214036 
 7913000    1.4439892   -3.6157894   -2.0478884   0.24530554   -3.6157894     1.567901  1214065 
 7914000    1.4451999   -3.6168002   -2.0476105   0.23754156   -3.6168002    1.5691897  1214085 
 7915000    1.4446546   -3.6166835   -2.0481079   0.23829142   -3.6166835    1.5685757  1214102 
 7916000    1.4447031   -3.6160463   -2.0474477   0.24069169   -3.6160463    1.5685986  1214125 
 7917000    1.4443993   -3.6157421   -2.0475018   0.24334153   -3.6157421    1.5682403  1214147 
 7918000    1.4448643   -3.6158958    -2.047179   0.24464212   -3.6158958    1.5687168  1214169 
 7919000    1.4448096   -3.6160954   -2.0474728   0.24337998   -3.6160954    1.5686226  1214196 
 7920000    1.4450721   -3.6168518   -2.0479623   0.24375945   -3.6168518    1.5688895  1214210 
 7921000    1.4455181   -3.6168049   -2.0474494   0.24003128   -3.6168049    1.5693555  1214224 
 7922000    1.4453339   -3.6169419   -2.0478238   0.24412502   -3.6169419    1.5691181  1214253 
 7923000    1.4454039   -3.6167568   -2.0475964   0.23733377   -3.6167568    1.5691605  1214279 
 7924000     1.445429   -3.6167678   -2.0476071   0.24471604   -3.6167678    1.5691607  1214300 
 7925000     1.445527   -3.6169222   -2.0476772   0.24249057   -3.6169222     1.569245  1214317 
 7926000    1.4446865   -3.6163855   -2.0480801   0.24399123   -3.6163855    1.5683054  1214338 
 7927000     1.445854   -3.6181227    -2.048586    0.2402663   -3.6181227    1.5695367  1214366 
 7928000    1.4449582   -3.6170184   -2.0484839   0.24346306   -3.6170184    1.5685345  1214389 
 7929000    1.4444208   -3.6161429   -2.0482214   0.24088197   -3.6161429    1.5679214  1214412 
 7930000    1.4438636   -3.6162343   -2.0489358   0.24404267   -3.6162343    1.5672985  1214426 
 7931000    1.4441433   -3.6167833   -2.0492121   0.24311286   -3.6167833    1.5675712  1214450 
 7932000    1.4448803   -3.6172259   -2.0488702    0.2444331   -3.6172259    1.5683557  1214462 
 7933000    1.4455006   -3.6184639   -2.0494659   0.24055288   -3.6184639     1.568998  1214486 
 7934000    1.4440734   -3.6169179   -2.0494871   0.24448149   -3.6169179    1.5674308  1214500 
 7935000    1.4437059   -3.6167807   -2.0497759   0.24037123   -3.6167807    1.5670048  1214521 
 7936000    1.4439999   -3.6176616   -2.0503739   0.23902448   -3.6176616    1.5672878  1214549 
 7937000    1.4436772   -3.6176773   -2.0507655   0.24277409   -3.6176773    1.5669117  1214569 
 7938000    1.4436242   -3.6173175   -2.0504878   0.24460362   -3.6173175    1.5668297  1214588 
 7939000    1.4449322   -3.6183345   -2.0501149   0.24086892   -3.6183345    1.5682196  1214611 
 7940000    1.4439914   -3.6172155   -2.0500389   0.23949012   -3.6172155    1.5671766  1214628 
 7941000    1.4443072   -3.6175987   -2.0501038   0.24113037   -3.6175987    1.5674949  1214647 
 7942000    1.4457441   -3.6196496   -2.0506134    0.2376634   -3.6196496    1.5690362  1214661 
 7943000    1.4430424   -3.6167226   -2.0506391   0.24416642   -3.6167226    1.5660835  1214677 
 7944000    1.4427881     -3.61736   -2.0515706   0.24225168     -3.61736    1.5657894  1214691 
 7945000    1.4440096   -3.6188436   -2.0517685   0.24194588   -3.6188436    1.5670752  1214722 
 7946000    1.4437217   -3.6182417   -2.0515035   0.23876427   -3.6182417    1.5667381  1214741 
 7947000    1.4440254   -3.6188122   -2.0517831   0.24436738   -3.6188122     1.567029  1214771 
 7948000    1.4445847   -3.6191761   -2.0515685   0.23719199   -3.6191761    1.5676075  1214793 
 7949000    1.4452401   -3.6193494   -2.0510513   0.23757633   -3.6193494    1.5682981  1214809 
 7950000    1.4436335   -3.6182906   -2.0517604   0.24306312   -3.6182906    1.5665302  1214828 
 7951000    1.4444541   -3.6187664   -2.0513779   0.24224009   -3.6187664    1.5673884  1214853 
 7952000    1.4438996   -3.6188431   -2.0520783   0.24289859   -3.6188431    1.5667649  1214870 
 7953000    1.4429589   -3.6178128   -2.0521035   0.24254841   -3.6178128    1.5657093  1214897 
 7954000    1.4432349    -3.618293   -2.0523152   0.24401922    -3.618293    1.5659778  1214921 
 7955000    1.4445943   -3.6194291    -2.052006   0.23983443   -3.6194291    1.5674231  1214944 
 7956000    1.4437582   -3.6190023   -2.0525121   0.24354288   -3.6190023    1.5664902  1214964 
 7957000    1.4439541   -3.6190118   -2.0523297   0.24027992   -3.6190118    1.5666821  1214980 
 7958000    1.4449686   -3.6195026   -2.0517443    0.2437542   -3.6195026    1.5677583  1214999 
 7959000    1.4435981   -3.6182623   -2.0520193   0.24370741   -3.6182623     1.566243  1215021 
 7960000    1.4453187   -3.6198875    -2.051801   0.24316004   -3.6198875    1.5680865  1215039 
 7961000    1.4434514    -3.618052   -2.0520056   0.24314612    -3.618052    1.5660464  1215050 
 7962000    1.4444362   -3.6193776   -2.0522821   0.24156296   -3.6193776    1.5670956  1215065 
 7963000    1.4434796    -3.618468   -2.0524374   0.24186334    -3.618468    1.5660306  1215086 
 7964000    1.4441229   -3.6192582   -2.0525515   0.24285159   -3.6192582    1.5667067  1215103 
 7965000    1.4426873   -3.6183613   -2.0532328   0.23635697   -3.6183613    1.5651286  1215119 
 7966000    1.4427886   -3.6184387   -2.0532389   0.24236974   -3.6184387    1.5651999  1215149 
 7967000    1.4444623   -3.6204082   -2.0534236   0.23591555   -3.6204082    1.5669846  1215173 
 7968000    1.4438316    -3.619289   -2.0530183   0.24107846    -3.619289    1.5662708  1215196 
 7969000    1.4453228   -3.6201866   -2.0523163   0.24046852   -3.6201866    1.5678703  1215210 
 7970000     1.444695   -3.6192321   -2.0520763   0.24232087   -3.6192321    1.5671558  1215236 
 7971000    1.4447124   -3.6195544   -2.0524081   0.24168999   -3.6195544    1.5671463  1215258 
 7972000     1.445126   -3.6195491   -2.0519903   0.24133996   -3.6195491    1.5675588  1215286 
 7973000    1.4462429   -3.6198363   -2.0510957   0.24274284   -3.6198363    1.5687406  1215309 
 7974000      1.44405    -3.617853   -2.0515219   0.24494443    -3.617853    1.5663311  1215333 
 7975000    1.4449647   -3.6196081    -2.052312   0.24658988   -3.6196081    1.5672962  1215354 
 7976000    1.4474421   -3.6217463   -2.0517952   0.24074339   -3.6217463     1.569951  1215379 
 7977000    1.4464465   -3.6209448   -2.0520982    0.2456246   -3.6209448    1.5688466  1215398 
 7978000    1.4456988   -3.6197962   -2.0517774   0.24615657   -3.6197962    1.5680189  1215411 
 7979000    1.4464051   -3.6207183   -2.0519643    0.2414304   -3.6207183     1.568754  1215435 
 7980000    1.4465004   -3.6212261   -2.0523959   0.24325447   -3.6212261    1.5688302  1215456 
 7981000    1.4455191   -3.6204552   -2.0527126   0.24269579   -3.6204552    1.5677427  1215474 
 7982000    1.4454491   -3.6198081   -2.0521619   0.24437346   -3.6198081    1.5676461  1215490 
 7983000    1.4450905   -3.6203822   -2.0531572   0.24525177   -3.6203822     1.567225  1215515 
 7984000    1.4454937   -3.6212344   -2.0535953   0.24255687   -3.6212344    1.5676391  1215533 
 7985000    1.4449332   -3.6205855   -2.0535891   0.24221297   -3.6205855    1.5669964  1215560 
 7986000    1.4439978   -3.6187736   -2.0528226   0.24515896   -3.6187736    1.5659511  1215584 
 7987000    1.4441513   -3.6192241   -2.0531285   0.24434971   -3.6192241    1.5660956  1215601 
 7988000    1.4451333   -3.6195439   -2.0524156   0.24723925   -3.6195439    1.5671283  1215626 
 7989000    1.4462051   -3.6206202   -2.0523451    0.2467511   -3.6206202    1.5682752  1215638 
 7990000    1.4464829   -3.6205831     -2.05203    0.2459079   -3.6205831    1.5685531  1215656 
 7991000    1.4453664   -3.6198671   -2.0525505   0.24659127   -3.6198671    1.5673166  1215676 
 7992000    1.4459439   -3.6207047   -2.0527877   0.24195594   -3.6207047     1.567917  1215696 
 7993000    1.4460027   -3.6201527   -2.0521978   0.24418531   -3.6201527     1.567955  1215716 
 7994000    1.4454831   -3.6203958   -2.0530338   0.24326402   -3.6203958     1.567362  1215739 
 7995000    1.4456716   -3.6206957   -2.0531578   0.24797189   -3.6206957     1.567538  1215761 
 7996000    1.4466285   -3.6217514   -2.0531965   0.23999772   -3.6217514    1.5685548  1215777 
 7997000    1.4450642   -3.6207602   -2.0539247   0.24032251   -3.6207602    1.5668356  1215795 
 7998000    1.4448471   -3.6216236   -2.0550582   0.24331485   -3.6216236    1.5665654  1215822 
 7999000    1.4441107   -3.6207421   -2.0550073   0.24333887   -3.6207421    1.5657348  1215847 
 8000000    1.4452528   -3.6211756   -2.0542297   0.24534529   -3.6211756    1.5669459  1215868 
Loop time of 19087.5 on 192 procs for 5000000 steps with 1215868 atoms

Performance: 113163.128 tau/day, 261.952 timesteps/s
99.4% CPU use with 192 MPI tasks x 1 OpenMP threads

MPI task timing breakdown:
Section |  min time  |  avg time  |  max time  |%varavg|  %CPU | %total
-----------------------------------------------------------------------
Pair    | 7056.8     | 8849.6     | 9820.1     | 719.2 |  99.3 | 46.36
Bond    | 3.5982     | 3.7861     | 4.1513     |   5.7 | 100.0 |  0.02
Neigh   | 3669       | 4240.4     | 4525.5     | 288.4 |  99.6 | 22.22
Comm    | 1807.7     | 3750.2     | 5726.4     |1250.9 |  99.2 | 19.65
Output  | 281.08     | 282.23     | 282.25     |   0.5 |  99.3 |  1.48
Modify  | 1272.9     | 1452.3     | 2531.8     | 848.3 |  99.4 |  7.61
Other   |            | 509        |            |       |       |  2.67

Nlocal:        6332.65 ave        6470 max        6196 min
Histogram: 2 10 19 31 38 34 24 16 13 5
Nghost:        6377.15 ave        6880 max        4863 min
Histogram: 29 3 0 0 0 0 0 0 92 68
Neighs:        194419.0 ave      208604 max      169775 min
Histogram: 8 6 2 3 22 33 33 40 34 11

Total # of neighbors = 37328408
Ave neighs/atom = 30.701037
Ave special neighs/atom = 0.0000000
Neighbor list builds = 505000
Dangerous builds = 450000

write_restart   restart_write.dat
System init for write_restart ...
write_data	data.write
System init for write_data ...
WARNING: Not all mixed pair coeffs generated from mixing. Use write_data with 'pair ij' option to store all pair coeffs. (src/write_data.cpp:312)

Total wall time: 5:18:12
