LAMMPS (29 Oct 2020)
  using 1 OpenMP thread(s) per MPI task
# Simple rigid body system
# needed variables:

#variable	startTemp equal 0.5
#variable 	temp 	  equal 0.8

units		lj
atom_style	full
dimension 	3
boundary	p p f
pair_style	lj/cut/opt 2.5


variable 	sigma		equal 1.0
variable 	epsilon 	equal 1.0

region		box block 0 100 0 100 0 200
create_box 	3 box
Created orthogonal box = (0.0000000 0.0000000 0.0000000) to (100.00000 100.00000 200.00000)
  4 by 5 by 12 MPI processor grid
lattice 	sc 1.0
Lattice spacing in x,y,z = 1.0000000 1.0000000 1.0000000

region		create block EDGE EDGE EDGE EDGE 2 102
create_atoms 	1 region create
Created 1010000 atoms
  create_atoms CPU = 0.062 seconds

mass		1 1.0
mass		2 1.0
mass		3 1.0

group		solvent type 1
1010000 atoms in group solvent

velocity 	solvent create ${startTemp} 563435 loop geom
velocity 	solvent create 0.8 563435 loop geom


neighbor 	0.4 bin

pair_coeff	1 1 1.0 1.0
pair_coeff	2 2 0.0 0.0
pair_coeff	3 3 0.0 0.0
pair_coeff	2 3 0.0 0.0
pair_coeff	1 2*3 0.0 0.0

pair_modify 	shift yes


balance 	1.05 shift z 10 1.05
Balancing ...
Neighbor list info ...
  update every 1 steps, delay 10 steps, check yes
  max neighbors/atom: 2000, page size: 100000
  master list distance cutoff = 2.9
  ghost atom cutoff = 2.9
  binsize = 1.45, bins = 69 69 138
  1 neighbor lists, perpetual/occasional/extra = 1 0 0
  (1) pair lj/cut/opt, perpetual
      attributes: half, newton on
      pair build: half/bin/newton
      stencil: half/bin/3d/newton
      bin: standard
 rebalancing time: 0.253 seconds
  iteration count = 5
  initial/final maximal load/proc = 8925.0000 5775.0000
  initial/final imbalance factor  = 2.1207921 1.3722772
  x cuts: 0.0000000 0.25 0.5 0.75 1.0000000
  y cuts: 0.0000000 0.2 0.4 0.6 0.8 1.0000000
  z cuts: 0.0000000 0.049479167 0.091145833 0.13020833 0.171875 0.22135417 0.2578125 0.30208333 0.34375 0.37239583 0.4296875 0.46354167 1.0000000


####################### WALLS ###########################


variable       epsilonWall equal 2*${epsilon}
variable       epsilonWall equal 2*1

variable       cutoffTop   equal   0.7147*${sigma}
variable       cutoffTop   equal   0.7147*1

variable       cutoffLow   equal   3*${sigma}
variable       cutoffLow   equal   3*1


fix            topWall all wall/lj93 zhi EDGE                ${epsilonWall} ${sigma} ${cutoffTop} units box
fix            topWall all wall/lj93 zhi EDGE                2 ${sigma} ${cutoffTop} units box
fix            topWall all wall/lj93 zhi EDGE                2 1 ${cutoffTop} units box
fix            topWall all wall/lj93 zhi EDGE                2 1 0.7147 units box

fix            lowWall all wall/lj93 zlo EDGE                ${epsilonWall} ${sigma} ${cutoffLow} units box
fix            lowWall all wall/lj93 zlo EDGE                2 ${sigma} ${cutoffLow} units box
fix            lowWall all wall/lj93 zlo EDGE                2 1 ${cutoffLow} units box
fix            lowWall all wall/lj93 zlo EDGE                2 1 3 units box


###################### COMPUTES ##########################

compute        bin1 solvent chunk/atom bin/1d z upper 1.0


######################	FIXES ############################


fix 		peclet solvent ave/chunk 1000 1 1000 bin1 density/number norm 		 none ave one file density.profile

fix 		 temp solvent ave/chunk 1000 1 1000 bin1 temp norm 		 none ave one file temp.profile

fix 		2 solvent nve


## Thermostat


region		regthermo block EDGE EDGE EDGE EDGE 0 20

group 		thermo dynamic solvent region regthermo every 1000
dynamic group thermo defined

fix 		3 thermo langevin ${startTemp} ${temp} 10 156453
fix 		3 thermo langevin 0.8 ${temp} 10 156453
fix 		3 thermo langevin 0.8 1.0 10 156453



#### Load balancing


fix 		bal all balance 1000 1.05 shift z 10 1.05


############### Diagnostics and computes ###################
#compute 	com cube	  rigid/local	1 mol x y z
#compute 	quat cube	  rigid/local	1 mol quatw quati quatj quatk

thermo 		1000
thermo_style 	custom step temp epair evdwl etotal press pe ke atoms

dump		1 all custom 100000 dump.lammpstrj id mol type x y z
dump 		2 all image 10000 image.*.png type type
dump 		3 all movie 1000 movie.avi type type

#dump 		com cube local 1000 dump.*.xyz c_com[*]
#dump		quat cube      local 1000 dump.*.quat c_quat[*]


restart 	1000000 restart.dat
timestep 	0.005
timer 		full
New timer settings: style=full  mode=nosync  timeout=off

run		3000000
Per MPI rank memory allocation (min/avg/max) = 9.581 | 9.852 | 10.35 Mbytes
Step Temp E_pair E_vdwl TotEng Press PotEng KinEng Atoms 
       0          0.8   -3.3050748   -3.3050748    -2.105076    8.8982699   -3.3050748    1.1999988  1010000 
    1000    1.5956229   -4.6767849   -4.6767849   -2.2833529    3.9600061   -4.6767849     2.393432  1010000 
    2000    1.5384404   -4.7425179   -4.7425179   -2.4348597    2.0519537   -4.7425179    2.3076583  1010000 
    3000    1.4753859   -4.6975062   -4.6975062   -2.4844295    0.5157511   -4.6975062    2.2130767  1010000 
    4000    1.3545172   -4.4919516   -4.4919516   -2.4601778 -0.081080636   -4.4919516    2.0317738  1010000 
    5000    1.3066489   -4.3832738   -4.3832738   -2.4233023 -0.036761464   -4.3832738    1.9599714  1010000 
    6000    1.3173317   -4.3738612   -4.3738612   -2.3978655   0.10085802   -4.3738612    1.9759956  1010000 
    7000    1.3211593   -4.3657457   -4.3657457   -2.3840088   0.14951435   -4.3657457    1.9817369  1010000 
    8000    1.3250494   -4.3639695   -4.3639695   -2.3763975   0.18416909   -4.3639695    1.9875721  1010000 
    9000    1.3320287   -4.3701758   -4.3701758   -2.3721347    0.2452237   -4.3701758    1.9980411  1010000 
   10000    1.3354011   -4.3717135   -4.3717135   -2.3686138   0.28150554   -4.3717135    2.0030997  1010000 
   11000    1.3342165   -4.3681693   -4.3681693   -2.3668466   0.29946291   -4.3681693    2.0013227  1010000 
   12000    1.3232833   -4.3522243   -4.3522243   -2.3673013    1.0714812   -4.3522243    1.9849231  1010000 
   13000    1.3152519    -4.339435    -4.339435   -2.3665592    2.3337318    -4.339435    1.9728759  1010000 
   14000    1.3272902   -4.3565836   -4.3565836   -2.3656503    2.2569679   -4.3565836    1.9909333  1010000 
   15000    1.3181937   -4.3408757   -4.3408757    -2.363587    1.3726158   -4.3408757    1.9772887  1010000 
   16000    1.2537862   -4.2435058   -4.2435058   -2.3628284   0.79673948   -4.2435058    1.8806775  1010000 
   17000    1.1686099    -4.116793    -4.116793   -2.3638798   0.38667909    -4.116793    1.7529131  1010000 
   18000    1.0855517   -3.9932531   -3.9932531   -2.3649271   0.12708367   -3.9932531    1.6283259  1010000 
   19000    1.0295049   -3.9106876   -3.9106876   -2.3664318  0.031313052   -3.9106876    1.5442558  1010000 
   20000   0.99957458    -3.867724    -3.867724   -2.3683636 -0.0025895271    -3.867724    1.4993604  1010000 
   21000   0.99120298   -3.8568871   -3.8568871   -2.3700841  0.011677538   -3.8568871     1.486803  1010000 
   22000   0.99309335   -3.8629599   -3.8629599   -2.3733214  0.042063636   -3.8629599    1.4896386  1010000 
   23000    1.0012785   -3.8810857   -3.8810857   -2.3791694   0.10418867   -3.8810857    1.5019163  1010000 
   24000     1.009445   -3.9018542   -3.9018542   -2.3876882    0.1605482   -3.9018542     1.514166  1010000 
   25000    1.0158571   -3.9207885   -3.9207885   -2.3970045   0.22775243   -3.9207885    1.5237841  1010000 
   26000    1.0203246   -3.9379858   -3.9379858   -2.4075004   0.25348199   -3.9379858    1.5304854  1010000 
   27000    1.0133315    -3.941209    -3.941209   -2.4212133   0.21524387    -3.941209    1.5199958  1010000 
   28000    0.9955422   -3.9313824   -3.9313824   -2.4380706    0.1515657   -3.9313824    1.4933118  1010000 
   29000   0.97620485   -3.9199877   -3.9199877   -2.4556818  0.092552356   -3.9199877    1.4643058  1010000 
   30000   0.96264992   -3.9214326   -3.9214326   -2.4774591  0.066056665   -3.9214326    1.4439735  1010000 
   31000   0.95481987   -3.9310786   -3.9310786   -2.4988502  0.060928509   -3.9310786    1.4322284  1010000 
   32000   0.95598683   -3.9509959   -3.9509959   -2.5170171  0.081481616   -3.9509959    1.4339788  1010000 
   33000   0.96523723   -3.9793454   -3.9793454    -2.531491   0.12030117   -3.9793454    1.4478544  1010000 
   34000    0.9796716   -4.0138443   -4.0138443   -2.5443384   0.17278362   -4.0138443    1.4695059  1010000 
   35000   0.99423601   -4.0478103   -4.0478103   -2.5564578   0.24078746   -4.0478103    1.4913525  1010000 
   36000    1.0130187   -4.0858642   -4.0858642   -2.5663377   0.33100468   -4.0858642    1.5195265  1010000 
   37000    1.0319323   -4.1214635   -4.1214635   -2.5735666   0.42350925   -4.1214635    1.5478969  1010000 
   38000    1.0437838    -4.148599    -4.148599   -2.5829249   0.50512399    -4.148599    1.5656741  1010000 
   39000    1.0450193   -4.1678622   -4.1678622   -2.6003347   0.53014711   -4.1678622    1.5675275  1010000 
   40000    1.0309193   -4.1736819   -4.1736819   -2.6273044   0.52938311   -4.1736819    1.5463775  1010000 
   41000    1.0172507    -4.181305    -4.181305   -2.6554306   0.50646899    -4.181305    1.5258745  1010000 
   42000    1.0102547   -4.1922438   -4.1922438   -2.6768632   0.48721785   -4.1922438    1.5153806  1010000 
   43000    1.0035155   -4.1976908   -4.1976908    -2.692419   0.48223725   -4.1976908    1.5052717  1010000 
   44000   0.99844917   -4.1991303   -4.1991303   -2.7014581   0.45628246   -4.1991303    1.4976723  1010000 
   45000   0.98655833   -4.1846991   -4.1846991   -2.7048631   0.40282291   -4.1846991     1.479836  1010000 
   46000   0.96663169   -4.1541892   -4.1541892   -2.7042431   0.29364904   -4.1541892    1.4499461  1010000 
   47000   0.94238622   -4.1159067   -4.1159067   -2.7023288   0.19183131   -4.1159067    1.4135779  1010000 
   48000   0.92078832   -4.0805278   -4.0805278   -2.6993467   0.11109914   -4.0805278    1.3811811  1010000 
   49000   0.90141726    -4.049492    -4.049492   -2.6973675  0.052901129    -4.049492    1.3521245  1010000 
   50000   0.88650933   -4.0256625   -4.0256625   -2.6958998 0.0020091519   -4.0256625    1.3297627  1010000 
   51000   0.87422696   -4.0049544   -4.0049544   -2.6936152 -0.025265918   -4.0049544    1.3113391  1010000 
   52000   0.86695694   -3.9892506   -3.9892506   -2.6888165 -0.037868104   -3.9892506    1.3004341  1010000 
   53000   0.86654773   -3.9824038   -3.9824038   -2.6825835 -0.038428512   -3.9824038    1.2998203  1010000 
   54000    0.8667893   -3.9779628   -3.9779628   -2.6777802 -0.027960443   -3.9779628    1.3001827  1010000 
   55000   0.87169465      -3.9793      -3.9793   -2.6717593 -0.014999286      -3.9793    1.3075407  1010000 
   56000   0.87674924   -3.9822393   -3.9822393   -2.6671167 0.00093788012   -3.9822393    1.3151226  1010000 
   57000   0.88174558   -3.9875612   -3.9875612   -2.6649441 0.0070317343   -3.9875612    1.3226171  1010000 
   58000   0.88306456   -3.9895375   -3.9895375    -2.664942  0.019101943   -3.9895375    1.3245955  1010000 
   59000   0.88306468   -3.9908022   -3.9908022   -2.6662064   0.02140046   -3.9908022    1.3245957  1010000 
   60000   0.88187645   -3.9924598   -3.9924598   -2.6696464  0.016339669   -3.9924598    1.3228134  1010000 
   61000   0.87985877    -3.992513    -3.992513   -2.6727262  0.016960046    -3.992513    1.3197868  1010000 
   62000    0.8797091   -3.9954756   -3.9954756   -2.6759133  0.014941942   -3.9954756    1.3195623  1010000 
   63000   0.88109661   -3.9987318   -3.9987318   -2.6770882  0.022817719   -3.9987318    1.3216436  1010000 
   64000   0.88187813   -4.0017444   -4.0017444   -2.6789285   0.02891847   -4.0017444    1.3228159  1010000 
   65000   0.88302861    -4.005356    -4.005356   -2.6808144  0.030107231    -4.005356    1.3245416  1010000 
   66000    0.8842631   -4.0084568   -4.0084568   -2.6820635  0.035684847   -4.0084568    1.3263933  1010000 
   67000   0.88238792   -4.0067942   -4.0067942   -2.6832136  0.032398268   -4.0067942    1.3235806  1010000 
   68000   0.88041394   -4.0051142   -4.0051142   -2.6844946  0.030387253   -4.0051142    1.3206196  1010000 
   69000   0.87968888    -4.005034    -4.005034    -2.685502  0.027931762    -4.005034     1.319532  1010000 
   70000   0.87839746   -4.0048122   -4.0048122   -2.6872173  0.022143066   -4.0048122    1.3175949  1010000 
   71000   0.87815725   -4.0058381   -4.0058381   -2.6886035  0.030288758   -4.0058381    1.3172346  1010000 
   72000   0.87801794    -4.006759    -4.006759   -2.6897334  0.031524838    -4.006759    1.3170256  1010000 
   73000   0.87965248   -4.0104505   -4.0104505   -2.6909731  0.031405373   -4.0104505    1.3194774  1010000 
   74000    0.8802054    -4.012595    -4.012595   -2.6922882  0.040305326    -4.012595    1.3203068  1010000 
   75000   0.88079847   -4.0144884   -4.0144884    -2.693292  0.040252407   -4.0144884    1.3211964  1010000 
   76000   0.88006545   -4.0153084   -4.0153084   -2.6952115  0.036250014   -4.0153084    1.3200969  1010000 
   77000   0.87860364   -4.0144005   -4.0144005   -2.6964964  0.031109702   -4.0144005    1.3179042  1010000 
   78000   0.87823695   -4.0148283   -4.0148283   -2.6974741  0.031452193   -4.0148283    1.3173541  1010000 
   79000   0.87811297   -4.0156294   -4.0156294   -2.6984613   0.03018737   -4.0156294    1.3171681  1010000 
   80000   0.87855271   -4.0173658   -4.0173658    -2.699538  0.032592558   -4.0173658    1.3178278  1010000 
   81000   0.88114881   -4.0217905   -4.0217905   -2.7000686  0.046630001   -4.0217905    1.3217219  1010000 
   82000   0.88765885   -4.0324996   -4.0324996   -2.7010126   0.08259037   -4.0324996     1.331487  1010000 
   83000    0.8999659   -4.0514639   -4.0514639   -2.7015164    0.1359125   -4.0514639    1.3499475  1010000 
   84000   0.91154537   -4.0695071   -4.0695071   -2.7021904   0.20787623   -4.0695071    1.3673167  1010000 
   85000   0.92171934   -4.0861474   -4.0861474   -2.7035697    0.2495461   -4.0861474    1.3825776  1010000 
   86000   0.92359426   -4.0901155   -4.0901155   -2.7047255   0.25378786   -4.0901155      1.38539  1010000 
   87000   0.91669751   -4.0798825   -4.0798825   -2.7048376   0.21646414   -4.0798825    1.3750449  1010000 
   88000   0.90377752   -4.0607015   -4.0607015   -2.7050365   0.15177606   -4.0607015    1.3556649  1010000 
   89000   0.88980555   -4.0406975   -4.0406975   -2.7059905  0.094713036   -4.0406975     1.334707  1010000 
   90000   0.87988606   -4.0259582   -4.0259582   -2.7061304  0.047231684   -4.0259582    1.3198278  1010000 
   91000   0.87188901    -4.015412    -4.015412   -2.7075798  0.018860257    -4.015412    1.3078322  1010000 
   92000   0.86756375   -4.0092597   -4.0092597   -2.7079154 0.0077551821   -4.0092597    1.3013443  1010000 
   93000   0.86738884   -4.0098534   -4.0098534   -2.7087714 0.0084903362   -4.0098534     1.301082  1010000 
   94000   0.86939358   -4.0141856   -4.0141856   -2.7100965   0.02071828   -4.0141856    1.3040891  1010000 
   95000   0.87232696   -4.0203493   -4.0203493   -2.7118601  0.033237443   -4.0203493    1.3084891  1010000 
   96000   0.87504582   -4.0251427   -4.0251427   -2.7125753  0.045501072   -4.0251427    1.3125674  1010000 
   97000   0.87686477   -4.0292308   -4.0292308   -2.7139349  0.051868648   -4.0292308    1.3152959  1010000 
   98000   0.87674272   -4.0300338   -4.0300338   -2.7149211  0.052615477   -4.0300338    1.3151128  1010000 
   99000   0.87506029   -4.0286519   -4.0286519   -2.7160628  0.045294765   -4.0286519    1.3125891  1010000 
  100000   0.87217777   -4.0245575   -4.0245575   -2.7162922  0.035127698   -4.0245575    1.3082654  1010000 
  101000   0.86803722   -4.0198883   -4.0198883   -2.7178338  0.023757644   -4.0198883    1.3020545  1010000 
  102000   0.86729608   -4.0199362   -4.0199362   -2.7189934   0.01074479   -4.0199362    1.3009428  1010000 
  103000   0.86631005    -4.019825    -4.019825   -2.7203612  0.013009876    -4.019825    1.2994638  1010000 
  104000     0.866573   -4.0202628   -4.0202628   -2.7204046   0.02031574   -4.0202628    1.2998582  1010000 
  105000   0.86882632   -4.0245395   -4.0245395   -2.7213014  0.032262154   -4.0245395    1.3032382  1010000 
  106000   0.87116418   -4.0288254   -4.0288254   -2.7220805  0.036842506   -4.0288254     1.306745  1010000 
  107000   0.87256412   -4.0315286   -4.0315286   -2.7226837  0.043021329   -4.0315286    1.3088449  1010000 
  108000   0.87343371    -4.033666    -4.033666   -2.7235167   0.04469032    -4.033666    1.3101493  1010000 
  109000   0.87321127   -4.0332469   -4.0332469   -2.7234313  0.045978426   -4.0332469    1.3098156  1010000 
  110000   0.87119678   -4.0313529   -4.0313529    -2.724559  0.038535216   -4.0313529    1.3067939  1010000 
  111000   0.86868182   -4.0281734   -4.0281734    -2.725152  0.030105632   -4.0281734    1.3030214  1010000 
  112000   0.86720788   -4.0265826   -4.0265826    -2.725772  0.025056298   -4.0265826    1.3008105  1010000 
  113000   0.86597903   -4.0256867   -4.0256867   -2.7267195  0.021018654   -4.0256867    1.2989673  1010000 
  114000   0.86633347   -4.0269598   -4.0269598   -2.7274609  0.018726383   -4.0269598    1.2994989  1010000 
  115000   0.86644524   -4.0281546   -4.0281546    -2.728488  0.026640078   -4.0281546    1.2996666  1010000 
  116000   0.86929418   -4.0324685   -4.0324685   -2.7285285  0.026567059   -4.0324685      1.30394  1010000 
  117000    0.8695923   -4.0338519   -4.0338519   -2.7294648  0.034449973   -4.0338519    1.3043872  1010000 
  118000   0.87143228   -4.0378875   -4.0378875   -2.7307404  0.039757121   -4.0378875    1.3071471  1010000 
  119000   0.87173619   -4.0386275   -4.0386275   -2.7310245   0.04350703   -4.0386275     1.307603  1010000 
  120000   0.87157008    -4.038668    -4.038668   -2.7313142  0.043429786    -4.038668    1.3073538  1010000 
  121000   0.87060421   -4.0380569   -4.0380569   -2.7321519  0.035540784   -4.0380569     1.305905  1010000 
  122000   0.86887254   -4.0373015   -4.0373015    -2.733994  0.031294759   -4.0373015    1.3033075  1010000 
  123000   0.86594409   -4.0337591   -4.0337591   -2.7348442  0.024271496   -4.0337591    1.2989149  1010000 
  124000   0.86474787   -4.0324554   -4.0324554   -2.7353349  0.022628535   -4.0324554    1.2971205  1010000 
  125000   0.86626151   -4.0350689   -4.0350689   -2.7356779  0.023197388   -4.0350689     1.299391  1010000 
  126000   0.86649148    -4.035681    -4.035681   -2.7359451  0.026817433    -4.035681    1.2997359  1010000 
  127000   0.86821735   -4.0389352   -4.0389352   -2.7366104  0.030267667   -4.0389352    1.3023247  1010000 
  128000    0.8686548   -4.0409331   -4.0409331   -2.7379522  0.035230765   -4.0409331    1.3029809  1010000 
  129000   0.87017625   -4.0446464   -4.0446464   -2.7393833  0.035634818   -4.0446464    1.3052631  1010000 
  130000   0.86943833   -4.0442866   -4.0442866   -2.7401304  0.037221161   -4.0442866    1.3041562  1010000 
  131000   0.86860571   -4.0435679   -4.0435679   -2.7406606  0.037339763   -4.0435679    1.3029073  1010000 
  132000    0.8674631   -4.0430387   -4.0430387   -2.7418453   0.03715871   -4.0430387    1.3011934  1010000 
  133000   0.86661294   -4.0426457   -4.0426457   -2.7427276  0.028808628   -4.0426457    1.2999181  1010000 
  134000   0.86573438   -4.0420115   -4.0420115   -2.7434113  0.023410996   -4.0420115    1.2986003  1010000 
  135000   0.86574654   -4.0435806   -4.0435806   -2.7449621  0.020025384   -4.0435806    1.2986185  1010000 
  136000   0.86737689   -4.0461138   -4.0461138   -2.7450498   0.02602781   -4.0461138    1.3010641  1010000 
  137000   0.86660661   -4.0459259   -4.0459259   -2.7460172  0.028288625   -4.0459259    1.2999086  1010000 
  138000   0.86738744   -4.0481557   -4.0481557   -2.7470758  0.032257257   -4.0481557    1.3010799  1010000 
  139000   0.86820472    -4.050401    -4.050401   -2.7480952  0.028783623    -4.050401    1.3023058  1010000 
  140000   0.86820435   -4.0510591   -4.0510591   -2.7487539  0.032014823   -4.0510591    1.3023052  1010000 
  141000   0.86798125   -4.0511559   -4.0511559   -2.7491853  0.035801359   -4.0511559    1.3019706  1010000 
  142000    0.8670256   -4.0499417   -4.0499417   -2.7494046   0.03418539   -4.0499417    1.3005371  1010000 
  143000   0.86682164   -4.0502967   -4.0502967   -2.7500655  0.029467087   -4.0502967    1.3002312  1010000 
  144000   0.86595936   -4.0496349   -4.0496349   -2.7506971  0.024630938   -4.0496349    1.2989377  1010000 
  145000   0.86549588   -4.0499893   -4.0499893   -2.7517468  0.027051699   -4.0499893    1.2982425  1010000 
  146000   0.86495489   -4.0494285   -4.0494285   -2.7519974  0.029886445   -4.0494285    1.2974311  1010000 
  147000   0.86580791   -4.0514441   -4.0514441   -2.7527336  0.026210096   -4.0514441    1.2987106  1010000 
  148000   0.86647951   -4.0528422   -4.0528422   -2.7531242  0.029109449   -4.0528422     1.299718  1010000 
  149000   0.86638343    -4.053579    -4.053579   -2.7540051  0.027681727    -4.053579    1.2995739  1010000 
  150000   0.86701823   -4.0554738   -4.0554738   -2.7549478  0.032304947   -4.0554738    1.3005261  1010000 
  151000    0.8662734   -4.0551243   -4.0551243   -2.7557155  0.033451155   -4.0551243    1.2994088  1010000 
  152000   0.86658117   -4.0562782   -4.0562782   -2.7564077  0.030365558   -4.0562782    1.2998705  1010000 
  153000   0.86730559   -4.0576595   -4.0576595   -2.7567024  0.028789627   -4.0576595    1.3009571  1010000 
  154000   0.86673975   -4.0576579   -4.0576579   -2.7575495   0.03061059   -4.0576579    1.3001083  1010000 
  155000   0.86601803    -4.056958    -4.056958   -2.7579323  0.029197121    -4.056958    1.2990258  1010000 
  156000   0.86589964   -4.0573171   -4.0573171   -2.7584689  0.025581187   -4.0573171    1.2988482  1010000 
  157000   0.86479289   -4.0568943   -4.0568943   -2.7597063  0.021354888   -4.0568943     1.297188  1010000 
  158000   0.86455689   -4.0571989   -4.0571989   -2.7603648  0.022375637   -4.0571989    1.2968341  1010000 
  159000    0.8653489   -4.0589008   -4.0589008   -2.7608788  0.023493862   -4.0589008    1.2980221  1010000 
  160000   0.86553363   -4.0602849   -4.0602849   -2.7619858  0.027522816   -4.0602849    1.2982992  1010000 
  161000   0.86514136    -4.060718    -4.060718   -2.7630072  0.028535828    -4.060718    1.2977107  1010000 
  162000   0.86607369   -4.0630717   -4.0630717   -2.7639624  0.028010324   -4.0630717    1.2991092  1010000 
  163000   0.86562899   -4.0630884   -4.0630884   -2.7646462  0.027287377   -4.0630884    1.2984422  1010000 
  164000   0.86415612   -4.0620666   -4.0620666   -2.7658337  0.029824791   -4.0620666    1.2962329  1010000 
  165000   0.86482143   -4.0631341   -4.0631341   -2.7659033  0.028407298   -4.0631341    1.2972309  1010000 
  166000   0.86457138    -4.063359    -4.063359   -2.7665032  0.027387996    -4.063359    1.2968558  1010000 
  167000   0.86363603   -4.0629027   -4.0629027   -2.7674499  0.021609783   -4.0629027    1.2954528  1010000 
  168000   0.86279502   -4.0620841   -4.0620841   -2.7678929   0.02386774   -4.0620841    1.2941912  1010000 
  169000   0.86327289    -4.063916    -4.063916   -2.7690079  0.024082471    -4.063916    1.2949081  1010000 
  170000   0.86450117   -4.0659559   -4.0659559   -2.7692054  0.020051464   -4.0659559    1.2967505  1010000 
  171000   0.86429896   -4.0663038   -4.0663038   -2.7698566  0.022913716   -4.0663038    1.2964472  1010000 
  172000   0.86361995   -4.0663419   -4.0663419   -2.7709132  0.025263813   -4.0663419    1.2954286  1010000 
  173000   0.86337414   -4.0672075   -4.0672075   -2.7721476  0.025695721   -4.0672075    1.2950599  1010000 
  174000   0.86316632   -4.0665013   -4.0665013   -2.7717531  0.028520401   -4.0665013    1.2947482  1010000 
  175000   0.86385582    -4.067972    -4.067972   -2.7721895  0.028680069    -4.067972    1.2957825  1010000 
  176000   0.86356803   -4.0680305   -4.0680305   -2.7726798  0.024073063   -4.0680305    1.2953508  1010000 
  177000   0.86311791   -4.0678563   -4.0678563   -2.7731807  0.024265535   -4.0678563    1.2946756  1010000 
  178000    0.8633853   -4.0684155   -4.0684155   -2.7733388  0.023245317   -4.0684155    1.2950767  1010000 
  179000   0.86284423   -4.0679593   -4.0679593   -2.7736943  0.020347435   -4.0679593    1.2942651  1010000 
  180000   0.86208901   -4.0672079   -4.0672079   -2.7740756  0.019997138   -4.0672079    1.2931322  1010000 
  181000   0.86212558   -4.0675901   -4.0675901   -2.7744031  0.021390907   -4.0675901    1.2931871  1010000 
  182000    0.8623708   -4.0692613   -4.0692613   -2.7757064  0.020853081   -4.0692613    1.2935549  1010000 
  183000   0.86306498   -4.0702912   -4.0702912    -2.775695   0.02270426   -4.0702912    1.2945962  1010000 
  184000   0.86347832   -4.0715269   -4.0715269   -2.7763107  0.024034677   -4.0715269    1.2952162  1010000 
  185000   0.86360291   -4.0728474   -4.0728474   -2.7774443  0.028912498   -4.0728474    1.2954031  1010000 
  186000   0.86292801   -4.0724422   -4.0724422   -2.7780515  0.025448214   -4.0724422    1.2943907  1010000 
  187000   0.86237596   -4.0723837   -4.0723837   -2.7788211  0.024193506   -4.0723837    1.2935627  1010000 
  188000   0.86225403   -4.0725314   -4.0725314   -2.7791517  0.021713598   -4.0725314    1.2933798  1010000 
  189000   0.86172376   -4.0721063   -4.0721063    -2.779522  0.024848093   -4.0721063    1.2925844  1010000 
  190000   0.86235488   -4.0733597   -4.0733597   -2.7798286  0.020778215   -4.0733597     1.293531  1010000 
  191000   0.86083202    -4.072237    -4.072237   -2.7809903  0.016919742    -4.072237    1.2912468  1010000 
  192000   0.86066329   -4.0728215   -4.0728215   -2.7818278  0.016488951   -4.0728215    1.2909937  1010000 
  193000   0.86205281   -4.0751095   -4.0751095   -2.7820316  0.016442809   -4.0751095    1.2930779  1010000 
  194000   0.86185315   -4.0747122   -4.0747122   -2.7819337  0.021961721   -4.0747122    1.2927784  1010000 
  195000   0.86241981   -4.0756464   -4.0756464    -2.782018  0.022706329   -4.0756464    1.2936284  1010000 
  196000   0.86183411   -4.0759869   -4.0759869    -2.783237  0.025025612   -4.0759869    1.2927499  1010000 
  197000   0.86167471   -4.0765891   -4.0765891   -2.7840783  0.019771346   -4.0765891    1.2925108  1010000 
  198000   0.86175185   -4.0770632   -4.0770632   -2.7844367  0.023074203   -4.0770632    1.2926265  1010000 
  199000   0.86206041   -4.0775973   -4.0775973   -2.7845079  0.021096989   -4.0775973    1.2930893  1010000 
  200000   0.86124735   -4.0777136   -4.0777136   -2.7858439  0.014994638   -4.0777136    1.2918697  1010000 
  201000   0.86055544   -4.0774551   -4.0774551   -2.7866233  0.015780379   -4.0774551    1.2908319  1010000 
  202000   0.85969811   -4.0767918   -4.0767918   -2.7872459  0.016378992   -4.0767918    1.2895459  1010000 
  203000   0.86063068   -4.0783309   -4.0783309   -2.7873862  0.015132694   -4.0783309    1.2909447  1010000 
  204000    0.8600019   -4.0789956   -4.0789956    -2.788994  0.018635118   -4.0789956    1.2900016  1010000 
  205000   0.86111436   -4.0809785   -4.0809785   -2.7893082  0.018526582   -4.0809785    1.2916703  1010000 
  206000   0.86087991   -4.0812852   -4.0812852   -2.7899666   0.02045754   -4.0812852    1.2913186  1010000 
  207000    0.8610354   -4.0817678   -4.0817678   -2.7902159  0.022761726   -4.0817678    1.2915518  1010000 
  208000   0.86135609   -4.0826752   -4.0826752   -2.7906423  0.019610968   -4.0826752    1.2920329  1010000 
  209000   0.86081089    -4.082464    -4.082464    -2.791249    0.0169217    -4.082464    1.2912151  1010000 
  210000   0.85942526   -4.0815173   -4.0815173   -2.7923807  0.016579524   -4.0815173    1.2891366  1010000 
  211000    0.8587072   -4.0808996   -4.0808996   -2.7928401  0.016455884   -4.0808996    1.2880595  1010000 
  212000   0.85803288   -4.0797231   -4.0797231    -2.792675  0.017099731   -4.0797231    1.2870481  1010000 
  213000   0.85899041   -4.0819081   -4.0819081   -2.7934238  0.014901112   -4.0819081    1.2884843  1010000 
  214000   0.85913206   -4.0825738   -4.0825738    -2.793877  0.019567079   -4.0825738    1.2886968  1010000 
  215000    0.8591214   -4.0827146   -4.0827146   -2.7940338  0.019670052   -4.0827146    1.2886808  1010000 
  216000   0.85942809   -4.0843427   -4.0843427   -2.7952019  0.019150783   -4.0843427    1.2891409  1010000 
  217000   0.85897377   -4.0839709   -4.0839709   -2.7955115  0.020362626   -4.0839709    1.2884594  1010000 
  218000   0.85914625   -4.0843314   -4.0843314   -2.7956133  0.021268128   -4.0843314    1.2887181  1010000 
  219000   0.85812335   -4.0833484   -4.0833484   -2.7961647  0.021612506   -4.0833484    1.2871838  1010000 
  220000   0.85802043   -4.0834133   -4.0834133   -2.7963839  0.017702373   -4.0834133    1.2870294  1010000 
  221000   0.85760116   -4.0835801   -4.0835801   -2.7971796   0.01661214   -4.0835801    1.2864005  1010000 
  222000   0.85782797   -4.0838625   -4.0838625   -2.7971218   0.01380293   -4.0838625    1.2867407  1010000 
  223000    0.8578257   -4.0844945   -4.0844945   -2.7977572  0.014441092   -4.0844945    1.2867373  1010000 
  224000    0.8582048   -4.0855355   -4.0855355   -2.7982295  0.017270881   -4.0855355    1.2873059  1010000 
  225000   0.85765069   -4.0853232   -4.0853232   -2.7988485  0.013158686   -4.0853232    1.2864748  1010000 
  226000   0.85825339    -4.087162    -4.087162   -2.7997832  0.013926969    -4.087162    1.2873788  1010000 
  227000   0.85807254   -4.0869657   -4.0869657   -2.7998581  0.016255207   -4.0869657    1.2871075  1010000 
  228000   0.85848566   -4.0887975   -4.0887975   -2.8010702   0.01666834   -4.0887975    1.2877272  1010000 
  229000   0.85880582   -4.0899308   -4.0899308   -2.8017233  0.013561595   -4.0899308    1.2882075  1010000 
  230000   0.85802414   -4.0885899   -4.0885899    -2.801555  0.019863937   -4.0885899    1.2870349  1010000 
  231000   0.85760357   -4.0889544   -4.0889544   -2.8025503  0.015008429   -4.0889544    1.2864041  1010000 
  232000   0.85640334   -4.0879058   -4.0879058   -2.8033021  0.014500898   -4.0879058    1.2846037  1010000 
  233000    0.8570718   -4.0888571   -4.0888571   -2.8032506   0.01664189   -4.0888571    1.2856064  1010000 
  234000   0.85710475   -4.0897775   -4.0897775   -2.8041216  0.014968406   -4.0897775    1.2856559  1010000 
  235000   0.85702595   -4.0901505   -4.0901505   -2.8046129  0.014705481   -4.0901505    1.2855377  1010000 
  236000   0.85656114   -4.0899576   -4.0899576   -2.8051172  0.018774479   -4.0899576    1.2848404  1010000 
  237000   0.85680448   -4.0903559   -4.0903559   -2.8051504  0.017179616   -4.0903559    1.2852054  1010000 
  238000   0.85646476   -4.0904169   -4.0904169   -2.8057211  0.019257997   -4.0904169    1.2846959  1010000 
  239000   0.85775961   -4.0925227   -4.0925227   -2.8058846  0.020151173   -4.0925227    1.2866381  1010000 
  240000   0.85751206   -4.0925982   -4.0925982   -2.8063313  0.016483781   -4.0925982    1.2862668  1010000 
  241000   0.85709987   -4.0924364   -4.0924364   -2.8067878  0.017801827   -4.0924364    1.2856485  1010000 
  242000   0.85769267   -4.0933856   -4.0933856   -2.8068479  0.016720941   -4.0933856    1.2865377  1010000 
  243000   0.85701742   -4.0933661   -4.0933661   -2.8078412  0.016253081   -4.0933661    1.2855249  1010000 
  244000   0.85655185   -4.0934465   -4.0934465     -2.80862  0.013737906   -4.0934465    1.2848265  1010000 
  245000   0.85642166   -4.0937046   -4.0937046   -2.8090734  0.016275146   -4.0937046    1.2846312  1010000 
  246000   0.85618529   -4.0942544   -4.0942544   -2.8099777  0.015287163   -4.0942544    1.2842767  1010000 
  247000   0.85643539   -4.0949509   -4.0949509   -2.8102991  0.014930354   -4.0949509    1.2846518  1010000 
  248000   0.85748394   -4.0966155   -4.0966155   -2.8103909  0.017824994   -4.0966155    1.2862246  1010000 
  249000     0.856725   -4.0968915   -4.0968915   -2.8118053  0.015698617   -4.0968915    1.2850862  1010000 
  250000   0.85708821   -4.0976867   -4.0976867   -2.8120557  0.016955269   -4.0976867     1.285631  1010000 
  251000   0.85693754   -4.0972783   -4.0972783   -2.8118732  0.015093347   -4.0972783     1.285405  1010000 
  252000    0.8564814   -4.0968735   -4.0968735   -2.8121526  0.016192031   -4.0968735    1.2847208  1010000 
  253000   0.85614937   -4.0970187   -4.0970187   -2.8127959  0.016286604   -4.0970187    1.2842228  1010000 
  254000   0.85702228   -4.0980705   -4.0980705   -2.8125383  0.014475541   -4.0980705    1.2855321  1010000 
  255000   0.85495729   -4.0965238   -4.0965238   -2.8140892  0.014778545   -4.0965238    1.2824347  1010000 
  256000   0.85577829   -4.0977827   -4.0977827   -2.8141166  0.011124699   -4.0977827    1.2836662  1010000 
  257000   0.85528237   -4.0968222   -4.0968222   -2.8138999   0.01729585   -4.0968222    1.2829223  1010000 
  258000   0.85684186   -4.0994977   -4.0994977   -2.8142362  0.018403778   -4.0994977    1.2852615  1010000 
  259000   0.85758373   -4.1006128   -4.1006128   -2.8142385  0.016600677   -4.1006128    1.2863743  1010000 
  260000   0.85597942   -4.0992859   -4.0992859   -2.8153181  0.016004885   -4.0992859    1.2839679  1010000 
  261000   0.85609403   -4.0993656   -4.0993656   -2.8152258   0.01864954   -4.0993656    1.2841398  1010000 
  262000   0.85541572   -4.0990054   -4.0990054    -2.815883  0.020318464   -4.0990054    1.2831223  1010000 
  263000   0.85531776   -4.0990882   -4.0990882   -2.8161129  0.016444217   -4.0990882    1.2829754  1010000 
  264000    0.8554875   -4.0997179   -4.0997179   -2.8164879  0.012831533   -4.0997179      1.28323  1010000 
  265000    0.8551175   -4.0996357   -4.0996357   -2.8169607  0.014885952   -4.0996357     1.282675  1010000 
  266000   0.85529259   -4.1004243   -4.1004243   -2.8174866  0.011461649   -4.1004243    1.2829376  1010000 
  267000   0.85520187   -4.1007223   -4.1007223   -2.8179208  0.017498353   -4.1007223    1.2828015  1010000 
  268000   0.85586894   -4.1014775   -4.1014775   -2.8176753  0.017330576   -4.1014775    1.2838021  1010000 
  269000   0.85584739   -4.1025076   -4.1025076   -2.8187377   0.01769524   -4.1025076    1.2837698  1010000 
  270000   0.85529533   -4.1017558   -4.1017558   -2.8188141  0.017635272   -4.1017558    1.2829417  1010000 
  271000      0.85603   -4.1037207   -4.1037207    -2.819677  0.013372135   -4.1037207    1.2840437  1010000 
  272000   0.85568585   -4.1034641   -4.1034641   -2.8199366  0.016612711   -4.1034641    1.2835275  1010000 
  273000   0.85627331    -4.103357    -4.103357   -2.8189483  0.016942546    -4.103357    1.2844087  1010000 
  274000   0.85589421   -4.1033358   -4.1033358   -2.8194957  0.014732798   -4.1033358      1.28384  1010000 
  275000     0.854374   -4.1023972   -4.1023972   -2.8208375  0.015018279   -4.1023972    1.2815597  1010000 
  276000   0.85572535   -4.1044232   -4.1044232   -2.8208365  0.014993084   -4.1044232    1.2835868  1010000 
  277000   0.85477849   -4.1030847   -4.1030847   -2.8209182  0.013292463   -4.1030847    1.2821665  1010000 
  278000   0.85463788   -4.1027797   -4.1027797   -2.8208241  0.012235581   -4.1027797    1.2819556  1010000 
  279000   0.85426413   -4.1025544   -4.1025544   -2.8211595  0.017221724   -4.1025544    1.2813949  1010000 
  280000     0.854795   -4.1036252   -4.1036252    -2.821434  0.018044943   -4.1036252    1.2821912  1010000 
  281000   0.85478928   -4.1049948   -4.1049948   -2.8228122  0.014405158   -4.1049948    1.2821827  1010000 
  282000   0.85599788   -4.1070471   -4.1070471   -2.8230515  0.015655445   -4.1070471    1.2839955  1010000 
  283000   0.85598428   -4.1070063   -4.1070063   -2.8230311  0.021291606   -4.1070063    1.2839751  1010000 
  284000   0.85569173   -4.1071138   -4.1071138   -2.8235775  0.019563173   -4.1071138    1.2835363  1010000 
  285000    0.8559745   -4.1070979   -4.1070979   -2.8231374  0.024052993   -4.1070979    1.2839605  1010000 
  286000    0.8564207   -4.1086222   -4.1086222   -2.8239925  0.016785406   -4.1086222    1.2846298  1010000 
  287000   0.85509307   -4.1075149   -4.1075149   -2.8248766  0.017594635   -4.1075149    1.2826383  1010000 
  288000   0.85547546   -4.1087814   -4.1087814   -2.8255695  0.015951921   -4.1087814    1.2832119  1010000 
  289000   0.85519632   -4.1084573   -4.1084573   -2.8256641  0.021080735   -4.1084573    1.2827932  1010000 
  290000   0.85617307   -4.1094121   -4.1094121   -2.8251538  0.016546415   -4.1094121    1.2842583  1010000 
  291000   0.85603463   -4.1098563   -4.1098563   -2.8258056  0.014336018   -4.1098563    1.2840507  1010000 
  292000   0.85553831   -4.1096645   -4.1096645   -2.8263583  0.018966385   -4.1096645    1.2833062  1010000 
  293000   0.85594031   -4.1105052   -4.1105052   -2.8265961  0.016263128   -4.1105052    1.2839092  1010000 
  294000   0.85631965   -4.1111783   -4.1111783   -2.8267001  0.016153464   -4.1111783    1.2844782  1010000 
  295000   0.85601404   -4.1114761   -4.1114761   -2.8274564  0.017696722   -4.1114761    1.2840198  1010000 
  296000   0.85616085   -4.1122302   -4.1122302   -2.8279902  0.014651967   -4.1122302      1.28424  1010000 
  297000   0.85417552   -4.1099011   -4.1099011   -2.8286391  0.015074945   -4.1099011     1.281262  1010000 
  298000   0.85601357    -4.113233    -4.113233   -2.8292139 0.0068308574    -4.113233    1.2840191  1010000 
  299000   0.85530172   -4.1116469   -4.1116469   -2.8286956   0.01707519   -4.1116469    1.2829513  1010000 
  300000   0.85561887   -4.1127779   -4.1127779   -2.8293508  0.019028352   -4.1127779     1.283427  1010000 
  301000   0.85726334   -4.1153529   -4.1153529   -2.8294592  0.014592488   -4.1153529    1.2858937  1010000 
  302000   0.85552184   -4.1136344   -4.1136344   -2.8303529  0.022933481   -4.1136344    1.2832815  1010000 
  303000   0.85676983   -4.1161579   -4.1161579   -2.8310045  0.018008365   -4.1161579    1.2851535  1010000 
  304000   0.85672788   -4.1165433   -4.1165433   -2.8314527  0.018541515   -4.1165433    1.2850905  1010000 
  305000   0.85705367   -4.1172899   -4.1172899   -2.8317107  0.019776448   -4.1172899    1.2855792  1010000 
  306000    0.8557467   -4.1160662   -4.1160662   -2.8324474   0.02005513   -4.1160662    1.2836188  1010000 
  307000      0.85644   -4.1166965   -4.1166965   -2.8320378  0.019817077   -4.1166965    1.2846587  1010000 
  308000   0.85485747   -4.1149557   -4.1149557   -2.8326707  0.018606696   -4.1149557    1.2822849  1010000 
  309000   0.85548951   -4.1163678   -4.1163678   -2.8331348  0.015204255   -4.1163678     1.283233  1010000 
  310000   0.85504114   -4.1154095   -4.1154095    -2.832849  0.017007695   -4.1154095    1.2825604  1010000 
  311000   0.85533156   -4.1159981   -4.1159981   -2.8330021  0.015741482   -4.1159981    1.2829961  1010000 
  312000   0.85590055   -4.1161632   -4.1161632   -2.8323136  0.018386014   -4.1161632    1.2838496  1010000 
  313000   0.85645807   -4.1166338   -4.1166338    -2.831948   0.02606619   -4.1166338    1.2846858  1010000 
  314000   0.85721062   -4.1183677   -4.1183677   -2.8325531  0.021295549   -4.1183677    1.2858147  1010000 
  315000   0.85700001   -4.1189372   -4.1189372   -2.8334385  0.019420312   -4.1189372    1.2854987  1010000 
  316000    0.8572873   -4.1196932   -4.1196932   -2.8337635  0.019578202   -4.1196932    1.2859297  1010000 
  317000   0.85670305    -4.119667    -4.119667   -2.8346137  0.022983657    -4.119667    1.2850533  1010000 
  318000   0.85736678   -4.1211109   -4.1211109    -2.835062  0.021898355   -4.1211109    1.2860489  1010000 
  319000   0.85715769    -4.121535    -4.121535   -2.8357998  0.019060677    -4.121535    1.2857353  1010000 
  320000   0.85739877   -4.1221738   -4.1221738   -2.8360769  0.023993626   -4.1221738    1.2860969  1010000 
  321000   0.85706711   -4.1226301   -4.1226301   -2.8370307   0.02507252   -4.1226301    1.2855994  1010000 
  322000   0.85753985   -4.1243821   -4.1243821   -2.8380736  0.023337772   -4.1243821    1.2863085  1010000 
  323000   0.85768549    -4.124609    -4.124609    -2.838082  0.019477004    -4.124609     1.286527  1010000 
  324000   0.85739231   -4.1252272   -4.1252272   -2.8391401  0.022343059   -4.1252272    1.2860872  1010000 
  325000   0.85765895   -4.1261377   -4.1261377   -2.8396506  0.022241469   -4.1261377    1.2864871  1010000 
  326000   0.85693966   -4.1254197   -4.1254197   -2.8400115   0.02640092   -4.1254197    1.2854082  1010000 
  327000   0.85765817   -4.1271527   -4.1271527   -2.8406667  0.025097029   -4.1271527     1.286486  1010000 
  328000   0.85723773   -4.1272539   -4.1272539   -2.8413986  0.027254116   -4.1272539    1.2858553  1010000 
  329000   0.85800652   -4.1286108   -4.1286108   -2.8416023  0.026734141   -4.1286108    1.2870085  1010000 
  330000   0.85767273   -4.1281751   -4.1281751   -2.8416673  0.022944121   -4.1281751    1.2865078  1010000 
  331000    0.8568114   -4.1276639   -4.1276639   -2.8424481  0.027221207   -4.1276639    1.2852158  1010000 
  332000   0.85701506   -4.1280668   -4.1280668   -2.8425455  0.027925185   -4.1280668    1.2855213  1010000 
  333000   0.85646441   -4.1277155   -4.1277155   -2.8430202  0.024625583   -4.1277155    1.2846953  1010000 
  334000   0.85655394   -4.1277772   -4.1277772   -2.8429476    0.0271988   -4.1277772    1.2848296  1010000 
  335000   0.85701925   -4.1292765   -4.1292765   -2.8437489  0.026245023   -4.1292765    1.2855276  1010000 
  336000   0.85713685    -4.129464    -4.129464     -2.84376  0.025035761    -4.129464     1.285704  1010000 
  337000   0.85685289   -4.1285959   -4.1285959   -2.8433179  0.024417609   -4.1285959    1.2852781  1010000 
  338000   0.85758014   -4.1300497   -4.1300497   -2.8436807  0.026093284   -4.1300497    1.2863689  1010000 
  339000   0.85750388   -4.1300473   -4.1300473   -2.8437928  0.026532562   -4.1300473    1.2862545  1010000 
  340000   0.85683721   -4.1298373   -4.1298373   -2.8445828  0.029508382   -4.1298373    1.2852545  1010000 
  341000   0.85719378    -4.131247    -4.131247   -2.8454576  0.028086261    -4.131247    1.2857894  1010000 
  342000   0.85731233   -4.1320196   -4.1320196   -2.8460524  0.027497214   -4.1320196    1.2859672  1010000 
  343000   0.85647581   -4.1313927   -4.1313927   -2.8466803  0.025045237   -4.1313927    1.2847124  1010000 
  344000   0.85682319   -4.1312541   -4.1312541   -2.8460206  0.025434983   -4.1312541    1.2852335  1010000 
  345000   0.85641488   -4.1308694   -4.1308694   -2.8462483  0.021302885   -4.1308694    1.2846211  1010000 
  346000   0.85633595   -4.1309392   -4.1309392   -2.8464366  0.022137424   -4.1309392    1.2845027  1010000 
  347000   0.85668951   -4.1319533   -4.1319533   -2.8469203  0.024171235   -4.1319533     1.285033  1010000 
  348000   0.85584473   -4.1310168   -4.1310168    -2.847251  0.025203752   -4.1310168    1.2837658  1010000 
  349000   0.85553489    -4.131262    -4.131262    -2.847961  0.022031876    -4.131262    1.2833011  1010000 
  350000   0.85609335   -4.1321307   -4.1321307   -2.8479919  0.023939739   -4.1321307    1.2841388  1010000 
  351000   0.85643957   -4.1320752   -4.1320752   -2.8474171  0.023418397   -4.1320752    1.2846581  1010000 
  352000   0.85531726   -4.1303533   -4.1303533   -2.8473786   0.02102937   -4.1303533    1.2829746  1010000 
  353000   0.85642028   -4.1324371   -4.1324371    -2.847808  0.021280048   -4.1324371    1.2846291  1010000 
  354000   0.85487736   -4.1312491   -4.1312491   -2.8489344  0.022329548   -4.1312491    1.2823148  1010000 
  355000   0.85499077   -4.1312172   -4.1312172   -2.8487323  0.019339182   -4.1312172    1.2824849  1010000 
  356000   0.85440061   -4.1311038   -4.1311038   -2.8495042  0.015237161   -4.1311038    1.2815996  1010000 
  357000   0.85399539   -4.1307029   -4.1307029   -2.8497111  0.016811643   -4.1307029    1.2809918  1010000 
  358000   0.85476586   -4.1320634   -4.1320634   -2.8499158  0.017248234   -4.1320634    1.2821475  1010000 
  359000   0.85508452   -4.1321502   -4.1321502   -2.8495247  0.015344098   -4.1321502    1.2826255  1010000 
  360000   0.85463165   -4.1322633   -4.1322633   -2.8503171  0.017647167   -4.1322633    1.2819462  1010000 
  361000   0.85397906   -4.1312082   -4.1312082   -2.8502409  0.020053303   -4.1312082    1.2809673  1010000 
  362000    0.8543099   -4.1326972   -4.1326972   -2.8512336  0.016056419   -4.1326972    1.2814636  1010000 
  363000   0.85435179   -4.1323486   -4.1323486   -2.8508222  0.017055192   -4.1323486    1.2815264  1010000 
  364000   0.85364999   -4.1322844   -4.1322844   -2.8518107  0.017986957   -4.1322844    1.2804737  1010000 
  365000   0.85409395   -4.1330988   -4.1330988   -2.8519591   0.01837942   -4.1330988    1.2811397  1010000 
  366000   0.85521481   -4.1351117   -4.1351117   -2.8522908  0.015087783   -4.1351117    1.2828209  1010000 
  367000   0.85379911   -4.1326442   -4.1326442   -2.8519468  0.023097511   -4.1326442    1.2806974  1010000 
  368000   0.85432602   -4.1339945   -4.1339945   -2.8525067  0.015629275   -4.1339945    1.2814878  1010000 
  369000   0.85495455   -4.1350914   -4.1350914   -2.8526609  0.020742479   -4.1350914    1.2824306  1010000 
  370000   0.85363535   -4.1338102   -4.1338102   -2.8533584  0.023499175   -4.1338102    1.2804518  1010000 
  371000   0.85464955   -4.1351902   -4.1351902   -2.8532171  0.023396607   -4.1351902     1.281973  1010000 
  372000   0.85476128   -4.1355066   -4.1355066   -2.8533659  0.022123725   -4.1355066    1.2821406  1010000 
  373000   0.85504021   -4.1359678   -4.1359678   -2.8534087   0.02412865   -4.1359678     1.282559  1010000 
  374000   0.85557911   -4.1373384   -4.1373384    -2.853971  0.021135969   -4.1373384    1.2833674  1010000 
  375000   0.85516945   -4.1374558   -4.1374558   -2.8547028  0.017040861   -4.1374558    1.2827529  1010000 
  376000   0.85437644   -4.1369827   -4.1369827   -2.8554193   0.02204937   -4.1369827    1.2815634  1010000 
  377000   0.85557847    -4.138396    -4.138396   -2.8550295  0.022478626    -4.138396    1.2833664  1010000 
  378000   0.85507303   -4.1374008   -4.1374008   -2.8547925  0.022264039   -4.1374008    1.2826083  1010000 
  379000   0.85507932   -4.1377133   -4.1377133   -2.8550956  0.022470497   -4.1377133    1.2826177  1010000 
  380000    0.8555601   -4.1386679   -4.1386679    -2.855329  0.018302569   -4.1386679    1.2833389  1010000 
  381000   0.85518079   -4.1380624   -4.1380624   -2.8552925  0.019141208   -4.1380624    1.2827699  1010000 
  382000    0.8545615   -4.1376432   -4.1376432   -2.8558023  0.023412013   -4.1376432     1.281841  1010000 
  383000   0.85501659    -4.138418    -4.138418   -2.8558944  0.024228066    -4.138418    1.2825236  1010000 
  384000   0.85484695   -4.1385926   -4.1385926   -2.8563234  0.020498829   -4.1385926    1.2822692  1010000 
  385000   0.85334219   -4.1369112   -4.1369112   -2.8568992  0.019873578   -4.1369112     1.280012  1010000 
  386000   0.85303571   -4.1368914   -4.1368914   -2.8573391  0.020022335   -4.1368914    1.2795523  1010000 
  387000   0.85332843   -4.1371142   -4.1371142   -2.8571229  0.019805568   -4.1371142    1.2799914  1010000 
  388000    0.8533024   -4.1378372   -4.1378372   -2.8578848   0.01709875   -4.1378372    1.2799523  1010000 
  389000   0.85316808   -4.1373959   -4.1373959    -2.857645  0.014954898   -4.1373959    1.2797509  1010000 
  390000   0.85291823   -4.1369707   -4.1369707   -2.8575946  0.023566765   -4.1369707    1.2793761  1010000 
  391000   0.85351066   -4.1379405   -4.1379405   -2.8576758  0.018802912   -4.1379405    1.2802647  1010000 
  392000   0.85407176   -4.1387114   -4.1387114   -2.8576051  0.019239115   -4.1387114    1.2811064  1010000 
  393000    0.8545898   -4.1388972   -4.1388972   -2.8570138  0.022438496   -4.1388972    1.2818834  1010000 
  394000   0.85394482   -4.1389358   -4.1389358   -2.8580198  0.022140573   -4.1389358     1.280916  1010000 
  395000   0.85406608   -4.1393006   -4.1393006   -2.8582028   0.02263083   -4.1393006    1.2810979  1010000 
  396000   0.85358458   -4.1388759   -4.1388759   -2.8585003  0.022236329   -4.1388759    1.2803756  1010000 
  397000   0.85336597   -4.1385521   -4.1385521   -2.8585044  0.021051347   -4.1385521    1.2800477  1010000 
  398000   0.85348749   -4.1384648   -4.1384648   -2.8582348  0.020555868   -4.1384648      1.28023  1010000 
  399000    0.8534433    -4.138331    -4.138331   -2.8581674  0.021053467    -4.138331    1.2801637  1010000 
  400000   0.85388714   -4.1396763   -4.1396763   -2.8588469  0.017911302   -4.1396763    1.2808294  1010000 
  401000   0.85369003   -4.1393484   -4.1393484   -2.8588146   0.02341983   -4.1393484    1.2805338  1010000 
  402000   0.85417107   -4.1399896   -4.1399896   -2.8587343  0.021422145   -4.1399896    1.2812553  1010000 
  403000   0.85462665   -4.1409904   -4.1409904   -2.8590517  0.021409304   -4.1409904    1.2819387  1010000 
  404000   0.85439026   -4.1417426   -4.1417426   -2.8601585    0.0170668   -4.1417426    1.2815841  1010000 
  405000   0.85322935   -4.1404017   -4.1404017   -2.8605589  0.022145384   -4.1404017    1.2798428  1010000 
  406000    0.8535383   -4.1414137   -4.1414137   -2.8611075   0.01932751   -4.1414137    1.2803062  1010000 
  407000    0.8534595   -4.1408174   -4.1408174   -2.8606294  0.025136827   -4.1408174     1.280188  1010000 
  408000   0.85281481   -4.1401947   -4.1401947   -2.8609737  0.021487228   -4.1401947     1.279221  1010000 
  409000   0.85265302   -4.1404906   -4.1404906   -2.8615123  0.018151299   -4.1404906    1.2789783  1010000 
  410000   0.85320523   -4.1416096   -4.1416096    -2.861803  0.015837088   -4.1416096    1.2798066  1010000 
  411000   0.85203359   -4.1401143   -4.1401143   -2.8620652  0.019815835   -4.1401143    1.2780491  1010000 
  412000   0.85206202   -4.1407358   -4.1407358   -2.8626441  0.021581118   -4.1407358    1.2780918  1010000 
  413000   0.85278909   -4.1416827   -4.1416827   -2.8625004  0.024545698   -4.1416827    1.2791824  1010000 
  414000   0.85370874   -4.1430263   -4.1430263   -2.8624644  0.022589596   -4.1430263    1.2805618  1010000 
  415000   0.85426962   -4.1442259   -4.1442259   -2.8628227  0.022705954   -4.1442259    1.2814032  1010000 
  416000   0.85313931   -4.1420802   -4.1420802   -2.8623725  0.022256825   -4.1420802    1.2797077  1010000 
  417000   0.85287486   -4.1419816   -4.1419816   -2.8626706  0.019710978   -4.1419816     1.279311  1010000 
  418000   0.85222221   -4.1413789   -4.1413789   -2.8630468  0.022214038   -4.1413789    1.2783321  1010000 
  419000   0.85362763   -4.1433044   -4.1433044   -2.8628642  0.019661017   -4.1433044    1.2804402  1010000 
  420000   0.85290665    -4.142625    -4.142625   -2.8632663  0.023983221    -4.142625    1.2793587  1010000 
  421000   0.85270693   -4.1424706   -4.1424706   -2.8634114  0.021019672   -4.1424706    1.2790591  1010000 
  422000   0.85281002   -4.1432269   -4.1432269   -2.8640132  0.017466076   -4.1432269    1.2792138  1010000 
  423000   0.85313902    -4.143316    -4.143316   -2.8636088  0.018406305    -4.143316    1.2797073  1010000 
  424000   0.85310298   -4.1427103   -4.1427103   -2.8630571  0.024830247   -4.1427103    1.2796532  1010000 
  425000   0.85340409   -4.1433118   -4.1433118   -2.8632069  0.021572927   -4.1433118    1.2801049  1010000 
  426000   0.85363237   -4.1437444   -4.1437444   -2.8632971   0.02640208   -4.1437444    1.2804473  1010000 
  427000   0.85301659   -4.1432818   -4.1432818   -2.8637582  0.022442885   -4.1432818    1.2795236  1010000 
  428000    0.8527645   -4.1428726   -4.1428726   -2.8637271  0.019109623   -4.1428726    1.2791455  1010000 
  429000   0.85268834   -4.1428895   -4.1428895   -2.8638583  0.022111101   -4.1428895    1.2790312  1010000 
  430000   0.85254029   -4.1432216   -4.1432216   -2.8644124  0.020210189   -4.1432216    1.2788092  1010000 
  431000   0.85218421   -4.1431644   -4.1431644   -2.8648893  0.019945926   -4.1431644    1.2782751  1010000 
  432000   0.85201832   -4.1434749   -4.1434749   -2.8654487  0.018892253   -4.1434749    1.2780262  1010000 
  433000    0.8515335   -4.1429302   -4.1429302   -2.8656312  0.017478546   -4.1429302     1.277299  1010000 
  434000   0.85273755   -4.1452034   -4.1452034   -2.8660984     0.016487   -4.1452034    1.2791051  1010000 
  435000   0.85222987   -4.1444861   -4.1444861   -2.8661425  0.018686943   -4.1444861    1.2783435  1010000 
  436000     0.852096   -4.1444428   -4.1444428   -2.8663001  0.020039885   -4.1444428    1.2781427  1010000 
  437000   0.85188313   -4.1442836   -4.1442836   -2.8664602  0.023222346   -4.1442836    1.2778234  1010000 
  438000   0.85297519   -4.1460542   -4.1460542   -2.8665927  0.017771673   -4.1460542    1.2794615  1010000 
  439000    0.8517117   -4.1444135   -4.1444135   -2.8668473  0.020734907   -4.1444135    1.2775663  1010000 
  440000   0.85255419   -4.1454384   -4.1454384   -2.8666084  0.018704999   -4.1454384      1.27883  1010000 
  441000   0.85269173   -4.1455701   -4.1455701   -2.8665338  0.018660796   -4.1455701    1.2790363  1010000 
  442000   0.85274475    -4.145853    -4.145853   -2.8667372  0.020543481    -4.145853    1.2791159  1010000 
  443000   0.85243024   -4.1454623   -4.1454623   -2.8668182  0.022372252   -4.1454623    1.2786441  1010000 
  444000   0.85376614   -4.1473893   -4.1473893   -2.8667413  0.022650489   -4.1473893    1.2806479  1010000 
  445000   0.85281384    -4.146828    -4.146828   -2.8676085  0.028811569    -4.146828    1.2792195  1010000 
  446000   0.85283967   -4.1462969   -4.1462969   -2.8670387   0.02384867   -4.1462969    1.2792582  1010000 
  447000   0.85281541   -4.1459531   -4.1459531   -2.8667312  0.026040801   -4.1459531    1.2792218  1010000 
  448000   0.85333054   -4.1467721   -4.1467721   -2.8667776  0.024578698   -4.1467721    1.2799945  1010000 
  449000    0.8525739   -4.1460935   -4.1460935   -2.8672339  0.021062732   -4.1460935    1.2788596  1010000 
  450000   0.85279022   -4.1462025   -4.1462025   -2.8670185  0.023212711   -4.1462025    1.2791841  1010000 
  451000   0.85220339   -4.1465351   -4.1465351   -2.8682313  0.022675441   -4.1465351    1.2783038  1010000 
  452000   0.85257893   -4.1480936   -4.1480936   -2.8692265  0.021973012   -4.1480936    1.2788671  1010000 
  453000   0.85228329   -4.1474537   -4.1474537     -2.86903  0.021178538   -4.1474537    1.2784237  1010000 
  454000   0.85167413   -4.1471204   -4.1471204   -2.8696105  0.021648157   -4.1471204    1.2775099  1010000 
  455000   0.85130312   -4.1465021   -4.1465021   -2.8695487  0.023511919   -4.1465021    1.2769534  1010000 
  456000   0.85184744     -4.14693     -4.14693   -2.8691601  0.021637979     -4.14693    1.2777699  1010000 
  457000   0.85083115   -4.1459183   -4.1459183   -2.8696728  0.020403978   -4.1459183    1.2762455  1010000 
  458000   0.85079144   -4.1454641   -4.1454641   -2.8692782  0.020613212   -4.1454641    1.2761859  1010000 
  459000   0.85096984   -4.1456733   -4.1456733   -2.8692198  0.021118972   -4.1456733    1.2764535  1010000 
  460000    0.8513892   -4.1463017   -4.1463017   -2.8692192  0.023886459   -4.1463017    1.2770825  1010000 
  461000   0.85178227   -4.1469882   -4.1469882   -2.8693161   0.02103702   -4.1469882    1.2776721  1010000 
  462000   0.85163344   -4.1465378   -4.1465378   -2.8690889  0.023449467   -4.1465378    1.2774489  1010000 
  463000   0.85231246   -4.1477003   -4.1477003   -2.8692329   0.02217036   -4.1477003    1.2784674  1010000 
  464000   0.85260863   -4.1480185   -4.1480185   -2.8691068   0.02153219   -4.1480185    1.2789117  1010000 
  465000   0.85295527   -4.1479455   -4.1479455   -2.8685138  0.021799548   -4.1479455    1.2794316  1010000 
  466000   0.85214223   -4.1465545   -4.1465545   -2.8683425  0.023503607   -4.1465545    1.2782121  1010000 
  467000   0.85258715   -4.1480565   -4.1480565    -2.869177  0.020106605   -4.1480565    1.2788795  1010000 
  468000   0.85180448   -4.1468245   -4.1468245   -2.8691191  0.024380003   -4.1468245    1.2777055  1010000 
  469000   0.85200415   -4.1471427   -4.1471427   -2.8691377  0.018865291   -4.1471427     1.278005  1010000 
  470000   0.85132806   -4.1469516   -4.1469516   -2.8699607  0.019586855   -4.1469516    1.2769908  1010000 
  471000   0.85038936   -4.1459065   -4.1459065   -2.8703237   0.01868153   -4.1459065    1.2755828  1010000 
  472000   0.85254732   -4.1483569   -4.1483569   -2.8695372  0.019461643   -4.1483569    1.2788197  1010000 
  473000   0.85266162   -4.1480844   -4.1480844   -2.8690933  0.019259532   -4.1480844    1.2789912  1010000 
  474000   0.85273674   -4.1486938   -4.1486938     -2.86959  0.020915525   -4.1486938    1.2791038  1010000 
  475000   0.85164839   -4.1467492   -4.1467492   -2.8692779  0.022665488   -4.1467492    1.2774713  1010000 
  476000   0.85183187   -4.1470891   -4.1470891   -2.8693426  0.023760396   -4.1470891    1.2777465  1010000 
  477000   0.85232497   -4.1482758   -4.1482758   -2.8697896  0.017435959   -4.1482758    1.2784862  1010000 
  478000   0.85144276   -4.1470877   -4.1470877   -2.8699248  0.019234372   -4.1470877    1.2771629  1010000 
  479000   0.85159045   -4.1471182   -4.1471182   -2.8697338  0.022003714   -4.1471182    1.2773844  1010000 
  480000   0.85142081   -4.1468041   -4.1468041   -2.8696741  0.021022246   -4.1468041      1.27713  1010000 
  481000   0.85143341   -4.1469633   -4.1469633   -2.8698145  0.018838041   -4.1469633    1.2771489  1010000 
  482000   0.85171304   -4.1475547   -4.1475547   -2.8699864   0.01923654   -4.1475547    1.2775683  1010000 
  483000   0.85167828   -4.1475172   -4.1475172   -2.8700011   0.01956712   -4.1475172    1.2775162  1010000 
  484000   0.85290719    -4.149088    -4.149088   -2.8697285  0.017359182    -4.149088    1.2793595  1010000 
  485000   0.85196046   -4.1474114   -4.1474114    -2.869472  0.024544609   -4.1474114    1.2779394  1010000 
  486000   0.85214395   -4.1476331   -4.1476331   -2.8694185   0.02236292   -4.1476331    1.2782147  1010000 
  487000    0.8523579   -4.1480541   -4.1480541   -2.8695185  0.022192685   -4.1480541    1.2785356  1010000 
  488000   0.85171169   -4.1473427   -4.1473427   -2.8697764  0.022754294   -4.1473427    1.2775663  1010000 
  489000   0.85148505   -4.1475757   -4.1475757   -2.8703494  0.016888539   -4.1475757    1.2772263  1010000 
  490000   0.85178042   -4.1484003   -4.1484003   -2.8707309  0.021520983   -4.1484003    1.2776694  1010000 
  491000   0.85121881   -4.1475578   -4.1475578   -2.8707309  0.024652647   -4.1475578     1.276827  1010000 
  492000   0.85081578   -4.1473594   -4.1473594    -2.871137  0.019784974   -4.1473594    1.2762224  1010000 
  493000   0.85137098   -4.1485837   -4.1485837   -2.8715285  0.020667398   -4.1485837    1.2770552  1010000 
  494000   0.85051785    -4.147974    -4.147974   -2.8721984  0.021932877    -4.147974    1.2757755  1010000 
  495000   0.85078321   -4.1480085   -4.1480085    -2.871835  0.022953784   -4.1480085    1.2761736  1010000 
  496000   0.85187216   -4.1496149   -4.1496149   -2.8718079  0.018607334   -4.1496149     1.277807  1010000 
  497000   0.85236432   -4.1503225   -4.1503225   -2.8717773  0.019055177   -4.1503225    1.2785452  1010000 
  498000   0.85144655   -4.1488019   -4.1488019   -2.8716333  0.025666008   -4.1488019    1.2771686  1010000 
  499000   0.85215985   -4.1498953   -4.1498953   -2.8716567  0.022298433   -4.1498953    1.2782385  1010000 
  500000   0.85191193   -4.1500872   -4.1500872   -2.8722206  0.019349384   -4.1500872    1.2778666  1010000 
  501000   0.85172449   -4.1498598   -4.1498598   -2.8722744  0.024906296   -4.1498598    1.2775855  1010000 
  502000   0.85083144   -4.1484092   -4.1484092   -2.8721633  0.025964079   -4.1484092    1.2762459  1010000 
  503000    0.8521485   -4.1501885   -4.1501885   -2.8719671  0.023413055   -4.1501885    1.2782215  1010000 
  504000   0.85175874    -4.149579    -4.149579   -2.8719421   0.02411243    -4.149579    1.2776368  1010000 
  505000   0.85109014   -4.1489607   -4.1489607   -2.8723267   0.02420505   -4.1489607    1.2766339  1010000 
  506000   0.85150109   -4.1504329   -4.1504329   -2.8731826  0.019325527   -4.1504329    1.2772504  1010000 
  507000   0.85114225   -4.1497537   -4.1497537   -2.8730416     0.025217   -4.1497537    1.2767121  1010000 
  508000   0.85097535   -4.1497479   -4.1497479   -2.8732861  0.022221055   -4.1497479    1.2764618  1010000 
  509000   0.85121067   -4.1510478   -4.1510478   -2.8742331  0.024405221   -4.1510478    1.2768147  1010000 
  510000   0.85107917   -4.1501849   -4.1501849   -2.8735674  0.023900465   -4.1501849    1.2766175  1010000 
  511000   0.85086239   -4.1495253   -4.1495253   -2.8732329  0.019871661   -4.1495253    1.2762923  1010000 
  512000   0.85102239   -4.1496723   -4.1496723     -2.87314  0.019031498   -4.1496723    1.2765323  1010000 
  513000   0.85141463   -4.1505083   -4.1505083   -2.8733876  0.023800107   -4.1505083    1.2771207  1010000 
  514000   0.85189994    -4.150855    -4.150855   -2.8730063  0.021593183    -4.150855    1.2778486  1010000 
  515000   0.85097886   -4.1501006   -4.1501006   -2.8736336  0.021643686   -4.1501006     1.276467  1010000 
  516000     0.850889   -4.1498337   -4.1498337   -2.8735015  0.021097713   -4.1498337    1.2763322  1010000 
  517000   0.85054592   -4.1495482   -4.1495482   -2.8737306  0.023617842   -4.1495482    1.2758176  1010000 
  518000   0.85058128   -4.1501478   -4.1501478   -2.8742771  0.021084347   -4.1501478    1.2758707  1010000 
  519000    0.8500834   -4.1487057   -4.1487057   -2.8735819   0.02416995   -4.1487057    1.2751238  1010000 
  520000   0.85027516   -4.1492834   -4.1492834    -2.873872  0.022862078   -4.1492834    1.2754115  1010000 
  521000   0.84994335   -4.1487282   -4.1487282   -2.8738144   0.02489724   -4.1487282    1.2749138  1010000 
  522000    0.8515156   -4.1511971   -4.1511971    -2.873925  0.018368658   -4.1511971    1.2772721  1010000 
  523000   0.85078308   -4.1494393   -4.1494393    -2.873266  0.024635588   -4.1494393    1.2761734  1010000 
  524000   0.85066245   -4.1489969   -4.1489969   -2.8730045  0.022830802   -4.1489969    1.2759924  1010000 
  525000    0.8514188   -4.1506924   -4.1506924   -2.8735654  0.021636584   -4.1506924    1.2771269  1010000 
  526000   0.85127911   -4.1499414   -4.1499414    -2.873024  0.019913147   -4.1499414    1.2769174  1010000 
  527000   0.85046686   -4.1493176   -4.1493176   -2.8736185  0.024695596   -4.1493176     1.275699  1010000 
  528000   0.85073404   -4.1501925   -4.1501925   -2.8740927  0.021468147   -4.1501925    1.2760998  1010000 
  529000   0.85165456   -4.1516911   -4.1516911   -2.8742105  0.020758683   -4.1516911    1.2774806  1010000 
  530000   0.85048296   -4.1504717   -4.1504717   -2.8747485  0.023043358   -4.1504717    1.2757232  1010000 
  531000   0.85030573   -4.1503165   -4.1503165   -2.8748591  0.018890273   -4.1503165    1.2754573  1010000 
  532000   0.85049904   -4.1511188   -4.1511188   -2.8753715  0.021958698   -4.1511188    1.2757473  1010000 
  533000   0.85033038   -4.1508321   -4.1508321   -2.8753378  0.023662649   -4.1508321    1.2754943  1010000 
  534000   0.85139225   -4.1513405   -4.1513405   -2.8742534  0.023981514   -4.1513405    1.2770871  1010000 
  535000   0.85084087   -4.1505054   -4.1505054   -2.8742454  0.026665343   -4.1505054      1.27626  1010000 
  536000   0.85216667    -4.152036    -4.152036   -2.8737873  0.022155268    -4.152036    1.2782487  1010000 
  537000   0.85102099   -4.1500274   -4.1500274   -2.8734972  0.027275167   -4.1500274    1.2765302  1010000 
  538000   0.85145554   -4.1512166   -4.1512166   -2.8740346  0.024285992   -4.1512166     1.277182  1010000 
  539000   0.85243561   -4.1521097   -4.1521097   -2.8734575  0.022376895   -4.1521097    1.2786522  1010000 
  540000   0.85138791   -4.1506366   -4.1506366    -2.873556   0.02463161   -4.1506366    1.2770806  1010000 
  541000   0.85163526   -4.1518644   -4.1518644   -2.8744128  0.024455536   -4.1518644    1.2774516  1010000 
  542000   0.85113804   -4.1514375   -4.1514375   -2.8747317  0.024157402   -4.1514375    1.2767058  1010000 
  543000   0.85062083   -4.1507711   -4.1507711   -2.8748411  0.024108655   -4.1507711      1.27593  1010000 
  544000   0.84996059   -4.1503014   -4.1503014   -2.8753618  0.022985344   -4.1503014    1.2749396  1010000 
  545000   0.84990705   -4.1505527   -4.1505527   -2.8756934  0.018593202   -4.1505527    1.2748593  1010000 
  546000   0.85000676   -4.1507181   -4.1507181   -2.8757092  0.022237314   -4.1507181    1.2750089  1010000 
  547000   0.85010325   -4.1506186   -4.1506186    -2.875465  0.021170368   -4.1506186    1.2751536  1010000 
  548000   0.85062002   -4.1521277   -4.1521277   -2.8761989   0.01571246   -4.1521277    1.2759288  1010000 
  549000   0.84975411   -4.1503735   -4.1503735   -2.8757436  0.021948955   -4.1503735    1.2746299  1010000 
  550000   0.85060725   -4.1513229   -4.1513229   -2.8754133  0.018490861   -4.1513229    1.2759096  1010000 
  551000   0.85067157   -4.1511238   -4.1511238   -2.8751177  0.024040026   -4.1511238    1.2760061  1010000 
  552000   0.85072399   -4.1510723   -4.1510723   -2.8749875  0.020378104   -4.1510723    1.2760847  1010000 
  553000   0.85115985   -4.1509357   -4.1509357   -2.8741972   0.02177471   -4.1509357    1.2767385  1010000 
  554000   0.85082399   -4.1509027   -4.1509027    -2.874668  0.024498825   -4.1509027    1.2762347  1010000 
  555000   0.85056683   -4.1511043   -4.1511043   -2.8752553  0.024126343   -4.1511043     1.275849  1010000 
  556000   0.85092112    -4.151769    -4.151769   -2.8753886  0.021502156    -4.151769    1.2763804  1010000 
  557000   0.85064194   -4.1517938   -4.1517938   -2.8758322  0.021871568   -4.1517938    1.2759617  1010000 
  558000   0.85039572   -4.1514234   -4.1514234   -2.8758311  0.022544048   -4.1514234    1.2755923  1010000 
  559000   0.85093631   -4.1519889   -4.1519889   -2.8755857  0.020674923   -4.1519889    1.2764032  1010000 
  560000   0.85076641   -4.1512901   -4.1512901   -2.8751418  0.022964223   -4.1512901    1.2761484  1010000 
  561000   0.85061476   -4.1510436   -4.1510436   -2.8751227  0.022637408   -4.1510436    1.2759209  1010000 
  562000   0.85025842   -4.1507434   -4.1507434    -2.875357  0.023618193   -4.1507434    1.2753864  1010000 
  563000   0.85008193   -4.1509245   -4.1509245   -2.8758029  0.027374258   -4.1509245    1.2751216  1010000 
  564000   0.85018089   -4.1503794   -4.1503794   -2.8751093  0.027961916   -4.1503794    1.2752701  1010000 
  565000   0.85057638   -4.1513976   -4.1513976   -2.8755343  0.024895854   -4.1513976    1.2758633  1010000 
  566000   0.85125326   -4.1518931   -4.1518931   -2.8750144  0.022229334   -4.1518931    1.2768786  1010000 
  567000   0.85175581   -4.1523377   -4.1523377   -2.8747053   0.02233093   -4.1523377    1.2776325  1010000 
  568000   0.85105919   -4.1508988   -4.1508988   -2.8743113  0.026748905   -4.1508988    1.2765875  1010000 
  569000   0.85061381   -4.1506219   -4.1506219   -2.8747024  0.021845089   -4.1506219    1.2759195  1010000 
  570000   0.85098581   -4.1514532   -4.1514532   -2.8749757  0.020423862   -4.1514532    1.2764775  1010000 
  571000   0.85016115   -4.1500616   -4.1500616   -2.8748211  0.022413938   -4.1500616    1.2752405  1010000 
  572000   0.85122605   -4.1520315   -4.1520315   -2.8751937  0.021444985   -4.1520315    1.2768378  1010000 
  573000   0.85033779    -4.151223    -4.151223   -2.8757176   0.02394018    -4.151223    1.2755054  1010000 
  574000   0.85062662   -4.1512211   -4.1512211   -2.8752824  0.021834964   -4.1512211    1.2759387  1010000 
  575000   0.85085593   -4.1511934   -4.1511934   -2.8749108  0.022375808   -4.1511934    1.2762826  1010000 
  576000   0.85100128   -4.1511402   -4.1511402   -2.8746395  0.023730058   -4.1511402    1.2765007  1010000 
  577000   0.85058173   -4.1503555   -4.1503555   -2.8744842  0.024797565   -4.1503555    1.2758713  1010000 
  578000   0.85046851   -4.1500146   -4.1500146   -2.8743131  0.023834982   -4.1500146    1.2757015  1010000 
  579000   0.85039971   -4.1497236   -4.1497236   -2.8741253  0.023263833   -4.1497236    1.2755983  1010000 
  580000   0.85128312   -4.1508174   -4.1508174    -2.873894  0.021675861   -4.1508174    1.2769234  1010000 
  581000   0.85051975   -4.1495059   -4.1495059   -2.8737276   0.02445078   -4.1495059    1.2757784  1010000 
  582000   0.85074436   -4.1498779   -4.1498779   -2.8737626  0.023429916   -4.1498779    1.2761153  1010000 
  583000   0.85109605   -4.1505924   -4.1505924   -2.8739496  0.022236117   -4.1505924    1.2766428  1010000 
  584000   0.85064241   -4.1502106   -4.1502106   -2.8742483  0.024879828   -4.1502106    1.2759623  1010000 
  585000   0.85104551    -4.151187    -4.151187     -2.87462  0.021397009    -4.151187     1.276567  1010000 
  586000   0.85101245   -4.1506212   -4.1506212   -2.8741038  0.019262671   -4.1506212    1.2765174  1010000 
  587000     0.849768   -4.1495293   -4.1495293   -2.8748786  0.024565273   -4.1495293    1.2746507  1010000 
  588000   0.85024897   -4.1498728   -4.1498728   -2.8745006  0.022715625   -4.1498728    1.2753722  1010000 
  589000   0.85024189   -4.1503948   -4.1503948   -2.8750332  0.022941003   -4.1503948    1.2753616  1010000 
  590000   0.85034251   -4.1507505   -4.1507505    -2.875238  0.020617343   -4.1507505    1.2755125  1010000 
  591000   0.85060543   -4.1508693   -4.1508693   -2.8749624  0.022085606   -4.1508693    1.2759069  1010000 
  592000   0.85059041   -4.1512396   -4.1512396   -2.8753553  0.023897593   -4.1512396    1.2758844  1010000 
  593000   0.85121209    -4.151954    -4.151954   -2.8751371  0.022911451    -4.151954    1.2768169  1010000 
  594000   0.85103214   -4.1518067   -4.1518067   -2.8752598  0.023712286   -4.1518067     1.276547  1010000 
  595000   0.85137657    -4.152378    -4.152378   -2.8753144  0.023241063    -4.152378    1.2770636  1010000 
  596000    0.8510722    -4.151656    -4.151656    -2.875049  0.021696662    -4.151656     1.276607  1010000 
  597000   0.85083257   -4.1512771   -4.1512771   -2.8750295  0.024079829   -4.1512771    1.2762476  1010000 
  598000   0.85082017   -4.1520793   -4.1520793   -2.8758503  0.022394106   -4.1520793     1.276229  1010000 
  599000   0.85070738   -4.1514701   -4.1514701   -2.8754103  0.025368074   -4.1514701    1.2760598  1010000 
  600000   0.85066145   -4.1517977   -4.1517977   -2.8758068  0.021688972   -4.1517977    1.2759909  1010000 
  601000   0.85061134   -4.1516867   -4.1516867    -2.875771  0.024488066   -4.1516867    1.2759157  1010000 
  602000   0.85142742   -4.1525142   -4.1525142   -2.8753743  0.022712826   -4.1525142    1.2771399  1010000 
  603000   0.85113576   -4.1514283   -4.1514283   -2.8747259  0.021072186   -4.1514283    1.2767024  1010000 
  604000   0.85129163   -4.1516919   -4.1516919   -2.8747557  0.025936599   -4.1516919    1.2769362  1010000 
  605000   0.85163987   -4.1516982   -4.1516982   -2.8742397  0.027333635   -4.1516982    1.2774585  1010000 
  606000   0.85152088   -4.1516425   -4.1516425   -2.8743624   0.02294578   -4.1516425    1.2772801  1010000 
  607000   0.85146281   -4.1516986   -4.1516986   -2.8745057  0.024039831   -4.1516986     1.277193  1010000 
  608000   0.85174789   -4.1516639   -4.1516639   -2.8740434  0.022833776   -4.1516639    1.2776206  1010000 
  609000   0.85092095   -4.1504671   -4.1504671    -2.874087  0.025780084   -4.1504671    1.2763802  1010000 
  610000   0.85232074   -4.1528846   -4.1528846   -2.8744047  0.020625239   -4.1528846    1.2784798  1010000 
  611000   0.85088037   -4.1508408   -4.1508408   -2.8745215  0.024882161   -4.1508408    1.2763193  1010000 
  612000   0.85088757   -4.1510006   -4.1510006   -2.8746705  0.023091855   -4.1510006    1.2763301  1010000 
  613000   0.85023717   -4.1507368   -4.1507368   -2.8753823  0.018347278   -4.1507368    1.2753545  1010000 
  614000   0.84886922   -4.1478834   -4.1478834   -2.8745808  0.025475055   -4.1478834    1.2733026  1010000 
  615000    0.8503839   -4.1502116   -4.1502116    -2.874637  0.023391852   -4.1502116    1.2755746  1010000 
  616000   0.85039738   -4.1502506   -4.1502506   -2.8746558  0.021668752   -4.1502506    1.2755948  1010000 
  617000   0.85047669   -4.1502601   -4.1502601   -2.8745463  0.019422746   -4.1502601    1.2757138  1010000 
  618000   0.84997875    -4.149685    -4.149685   -2.8747182  0.018446871    -4.149685    1.2749669  1010000 
  619000   0.85017965   -4.1504238   -4.1504238   -2.8751556  0.019840069   -4.1504238    1.2752682  1010000 
  620000   0.85035882   -4.1500508   -4.1500508   -2.8745138  0.024340293   -4.1500508     1.275537  1010000 
  621000   0.85137621   -4.1507569   -4.1507569   -2.8736939  0.024091901   -4.1507569     1.277063  1010000 
  622000   0.85128787   -4.1507911   -4.1507911   -2.8738605  0.020457657   -4.1507911    1.2769305  1010000 
  623000   0.85098422   -4.1512082   -4.1512082   -2.8747331  0.023053916   -4.1512082    1.2764751  1010000 
  624000   0.85016593   -4.1495221   -4.1495221   -2.8742745  0.028401549   -4.1495221    1.2752476  1010000 
  625000   0.85145754   -4.1510528   -4.1510528   -2.8738677  0.021936291   -4.1510528     1.277185  1010000 
  626000   0.85038008   -4.1498064   -4.1498064   -2.8742376  0.023158116   -4.1498064    1.2755689  1010000 
  627000   0.85104241   -4.1504119   -4.1504119   -2.8738496   0.02144305   -4.1504119    1.2765623  1010000 
  628000   0.85062108   -4.1494341   -4.1494341   -2.8735037  0.022281539   -4.1494341    1.2759304  1010000 
  629000   0.85163582   -4.1510637   -4.1510637   -2.8736113  0.021918135   -4.1510637    1.2774525  1010000 
  630000   0.85076327   -4.1498671   -4.1498671   -2.8737235  0.025282275   -4.1498671    1.2761436  1010000 
  631000   0.85149388   -4.1506696   -4.1506696     -2.87343  0.022761771   -4.1506696    1.2772396  1010000 
  632000   0.85132203   -4.1504538   -4.1504538    -2.873472  0.023925497   -4.1504538    1.2769818  1010000 
  633000   0.85074048   -4.1493138   -4.1493138   -2.8732043  0.027980916   -4.1493138    1.2761095  1010000 
  634000   0.85101664   -4.1490077   -4.1490077    -2.872484  0.031012175   -4.1490077    1.2765237  1010000 
  635000   0.85199513   -4.1499738   -4.1499738   -2.8719824  0.027580642   -4.1499738    1.2779914  1010000 
  636000   0.85185372   -4.1511312   -4.1511312   -2.8733519  0.024824322   -4.1511312    1.2777793  1010000 
  637000   0.85119308   -4.1500554   -4.1500554   -2.8732671  0.022771548   -4.1500554    1.2767884  1010000 
  638000   0.85101989   -4.1493313   -4.1493313   -2.8728028  0.022027042   -4.1493313    1.2765286  1010000 
  639000   0.85095874   -4.1497659   -4.1497659   -2.8733291  0.021930678   -4.1497659    1.2764368  1010000 
  640000   0.85021342   -4.1486887   -4.1486887   -2.8733698  0.021290623   -4.1486887    1.2753189  1010000 
  641000   0.85158161   -4.1501509   -4.1501509   -2.8727797  0.022445698   -4.1501509    1.2773712  1010000 
  642000   0.85072137    -4.149284    -4.149284   -2.8732032  0.018763664    -4.149284    1.2760808  1010000 
  643000   0.85063529   -4.1491891   -4.1491891   -2.8732374  0.019554956   -4.1491891    1.2759517  1010000 
  644000   0.84981818   -4.1478427   -4.1478427   -2.8731167  0.025779253   -4.1478427     1.274726  1010000 
  645000    0.8503217   -4.1491616   -4.1491616   -2.8736803  0.020937689   -4.1491616    1.2754813  1010000 
  646000   0.85026486    -4.148606    -4.148606     -2.87321  0.019495058    -4.148606     1.275396  1010000 
  647000   0.85014009   -4.1489212   -4.1489212   -2.8737124  0.021087935   -4.1489212    1.2752089  1010000 
  648000   0.85059998   -4.1487919   -4.1487919   -2.8728932  0.022670089   -4.1487919    1.2758987  1010000 
  649000   0.84919822   -4.1468528   -4.1468528   -2.8730567  0.026915654   -4.1468528    1.2737961  1010000 
  650000   0.85147596   -4.1508312   -4.1508312   -2.8736185  0.018279303   -4.1508312    1.2772127  1010000 
  651000   0.85018039   -4.1486074   -4.1486074   -2.8733381  0.022842346   -4.1486074    1.2752693  1010000 
  652000   0.85133414   -4.1502867   -4.1502867   -2.8732867  0.026318572   -4.1502867    1.2769999  1010000 
  653000   0.85055006   -4.1484872   -4.1484872   -2.8726634  0.022089213   -4.1484872    1.2758238  1010000 
  654000   0.85157428   -4.1506437   -4.1506437   -2.8732835  0.021628679   -4.1506437    1.2773602  1010000 
  655000   0.85123522   -4.1505484   -4.1505484   -2.8736968  0.026299599   -4.1505484    1.2768516  1010000 
  656000   0.85096624   -4.1499027   -4.1499027   -2.8734546  0.030380556   -4.1499027    1.2764481  1010000 
  657000   0.85119793    -4.150349    -4.150349   -2.8735534  0.026506572    -4.150349    1.2767956  1010000 
  658000   0.85227882   -4.1512531   -4.1512531   -2.8728362   0.02220379   -4.1512531     1.278417  1010000 
  659000   0.85207515   -4.1509669   -4.1509669   -2.8728554  0.024227565   -4.1509669    1.2781115  1010000 
  660000   0.85193215   -4.1505783   -4.1505783   -2.8726813  0.027141299   -4.1505783     1.277897  1010000 
  661000   0.85230597     -4.15116     -4.15116   -2.8727023  0.023545043     -4.15116    1.2784577  1010000 
  662000   0.85192299   -4.1504648   -4.1504648   -2.8725816  0.025469074   -4.1504648    1.2778832  1010000 
  663000   0.85139158   -4.1502853   -4.1502853   -2.8731992  0.024790385   -4.1502853    1.2770861  1010000 
  664000   0.85228631   -4.1516337   -4.1516337   -2.8732055  0.026899577   -4.1516337    1.2784282  1010000 
  665000   0.85081006   -4.1492773   -4.1492773   -2.8730634  0.024363772   -4.1492773    1.2762138  1010000 
  666000   0.85061319   -4.1490604   -4.1490604   -2.8731419  0.024044881   -4.1490604    1.2759185  1010000 
  667000   0.85089328   -4.1503372   -4.1503372   -2.8739986  0.024887711   -4.1503372    1.2763387  1010000 
  668000   0.85072756   -4.1496329   -4.1496329   -2.8735428  0.024517243   -4.1496329    1.2760901  1010000 
  669000   0.85084825   -4.1494781   -4.1494781    -2.873207  0.020575813   -4.1494781    1.2762711  1010000 
  670000   0.85087178   -4.1492571   -4.1492571   -2.8729506  0.020605351   -4.1492571    1.2763064  1010000 
  671000   0.85125479    -4.149494    -4.149494   -2.8726131  0.019921227    -4.149494    1.2768809  1010000 
  672000   0.85125761   -4.1490776   -4.1490776   -2.8721925  0.021405302   -4.1490776    1.2768852  1010000 
  673000   0.85065422   -4.1483732   -4.1483732   -2.8723931  0.021161403   -4.1483732    1.2759801  1010000 
  674000   0.85015874   -4.1476016   -4.1476016   -2.8723647  0.023624497   -4.1476016    1.2752368  1010000 
  675000   0.85062292   -4.1484138   -4.1484138   -2.8724807   0.02372767   -4.1484138    1.2759331  1010000 
  676000   0.84988451   -4.1477197   -4.1477197   -2.8728942   0.02470912   -4.1477197    1.2748255  1010000 
  677000   0.85024868   -4.1478625   -4.1478625   -2.8724907  0.023419098   -4.1478625    1.2753718  1010000 
  678000   0.84996643   -4.1482777   -4.1482777   -2.8733293  0.020796719   -4.1482777    1.2749484  1010000 
  679000   0.85039537   -4.1484621   -4.1484621   -2.8728703  0.021608162   -4.1484621    1.2755918  1010000 
  680000   0.85167139   -4.1499361   -4.1499361   -2.8724303  0.020341586   -4.1499361    1.2775058  1010000 
  681000   0.85128094   -4.1496832   -4.1496832    -2.872763  0.017919632   -4.1496832    1.2769201  1010000 
  682000   0.85165814   -4.1495209   -4.1495209   -2.8720349  0.025063823   -4.1495209    1.2774859  1010000 
  683000   0.85137528   -4.1487577   -4.1487577   -2.8716961  0.024669265   -4.1487577    1.2770616  1010000 
  684000   0.85159073   -4.1486972   -4.1486972   -2.8713123  0.023577511   -4.1486972    1.2773848  1010000 
  685000   0.85265838   -4.1502835   -4.1502835   -2.8712972  0.022717001   -4.1502835    1.2789863  1010000 
  686000   0.85220278   -4.1498683   -4.1498683   -2.8715654  0.023736555   -4.1498683    1.2783029  1010000 
  687000    0.8520644   -4.1503599   -4.1503599   -2.8722645  0.026355718   -4.1503599    1.2780953  1010000 
  688000   0.85142423   -4.1493602   -4.1493602   -2.8722251  0.024777185   -4.1493602    1.2771351  1010000 
  689000   0.85171808   -4.1493916   -4.1493916   -2.8718158  0.024379156   -4.1493916    1.2775759  1010000 
  690000   0.85220004   -4.1502186   -4.1502186   -2.8719198    0.0219887   -4.1502186    1.2782988  1010000 
  691000   0.85121262   -4.1484961   -4.1484961   -2.8716784  0.024416687   -4.1484961    1.2768177  1010000 
  692000   0.85196738   -4.1500842   -4.1500842   -2.8721344  0.021336669   -4.1500842    1.2779498  1010000 
  693000   0.85121595   -4.1483205   -4.1483205   -2.8714978  0.022262087   -4.1483205    1.2768227  1010000 
  694000   0.85129996   -4.1488367   -4.1488367    -2.871888  0.024273141   -4.1488367    1.2769487  1010000 
  695000   0.85181516   -4.1494693   -4.1494693   -2.8717478  0.027043571   -4.1494693    1.2777215  1010000 
  696000   0.85160113   -4.1491775   -4.1491775   -2.8717771   0.02609434   -4.1491775    1.2774004  1010000 
  697000   0.85210491   -4.1495338   -4.1495338   -2.8713777  0.027204009   -4.1495338    1.2781561  1010000 
  698000   0.85214813   -4.1491479   -4.1491479    -2.870927  0.025268786   -4.1491479    1.2782209  1010000 
  699000   0.85189921   -4.1483349   -4.1483349   -2.8704874  0.026622446   -4.1483349    1.2778475  1010000 
  700000   0.85225995   -4.1487409   -4.1487409   -2.8703522  0.021710629   -4.1487409    1.2783887  1010000 
  701000    0.8511015   -4.1465769   -4.1465769   -2.8699259  0.025558359   -4.1465769     1.276651  1010000 
  702000   0.85153862   -4.1477796   -4.1477796   -2.8704729  0.026391646   -4.1477796    1.2773067  1010000 
  703000   0.85117615   -4.1476565   -4.1476565   -2.8708935   0.02330594   -4.1476565     1.276763  1010000 
  704000   0.85060446   -4.1468417   -4.1468417   -2.8709362  0.023374797   -4.1468417    1.2759054  1010000 
  705000   0.85185376   -4.1480629   -4.1480629   -2.8702835  0.020408114   -4.1480629    1.2777794  1010000 
  706000   0.85127615    -4.147118    -4.147118    -2.870205  0.022001635    -4.147118     1.276913  1010000 
  707000    0.8508538   -4.1462336   -4.1462336   -2.8699541  0.022995394   -4.1462336    1.2762794  1010000 
  708000   0.85163671   -4.1475953   -4.1475953   -2.8701415  0.018985824   -4.1475953    1.2774538  1010000 
  709000   0.85147049   -4.1466403   -4.1466403   -2.8694359  0.021429907   -4.1466403    1.2772045  1010000 
  710000   0.85160914   -4.1464135   -4.1464135   -2.8690011  0.022519981   -4.1464135    1.2774124  1010000 
  711000   0.85142389   -4.1454271   -4.1454271   -2.8682925  0.023200755   -4.1454271    1.2771346  1010000 
  712000   0.85131994   -4.1458355   -4.1458355   -2.8688569  0.025330677   -4.1458355    1.2769786  1010000 
  713000   0.85195656    -4.146537    -4.146537   -2.8686035  0.021760648    -4.146537    1.2779336  1010000 
  714000   0.85083636   -4.1462766   -4.1462766   -2.8700233  0.025172014   -4.1462766    1.2762533  1010000 
  715000   0.85105783   -4.1461142   -4.1461142   -2.8695287  0.025087128   -4.1461142    1.2765855  1010000 
  716000   0.85206294   -4.1475081   -4.1475081   -2.8694149   0.01859221   -4.1475081    1.2780931  1010000 
  717000   0.85082111   -4.1450719   -4.1450719   -2.8688415  0.020171089   -4.1450719    1.2762304  1010000 
  718000   0.85101972   -4.1455612   -4.1455612   -2.8690329  0.022107495   -4.1455612    1.2765283  1010000 
  719000    0.8507896   -4.1452422   -4.1452422   -2.8690591  0.023882068   -4.1452422    1.2761831  1010000 
  720000   0.85073141   -4.1454715   -4.1454715   -2.8693757   0.02174482   -4.1454715    1.2760958  1010000 
  721000   0.85173679    -4.147226    -4.147226   -2.8696221  0.020597989    -4.147226    1.2776039  1010000 
  722000   0.85116893   -4.1462959   -4.1462959   -2.8695438  0.024894358   -4.1462959    1.2767521  1010000 
  723000   0.85081202   -4.1456059   -4.1456059   -2.8693891  0.024820836   -4.1456059    1.2762168  1010000 
  724000   0.85113804   -4.1462782   -4.1462782   -2.8695724  0.026011779   -4.1462782    1.2767058  1010000 
  725000   0.85182106   -4.1471824   -4.1471824   -2.8694521  0.023607808   -4.1471824    1.2777303  1010000 
  726000    0.8517998   -4.1482396   -4.1482396   -2.8705412  0.022144877   -4.1482396    1.2776984  1010000 
  727000   0.85113029   -4.1467641   -4.1467641     -2.87007  0.025500091   -4.1467641    1.2766942  1010000 
  728000   0.85126662   -4.1464492   -4.1464492   -2.8695505  0.026200878   -4.1464492    1.2768987  1010000 
  729000   0.85230622   -4.1481522   -4.1481522   -2.8696941  0.024635639   -4.1481522    1.2784581  1010000 
  730000   0.85209145   -4.1474252   -4.1474252   -2.8692893  0.025660418   -4.1474252    1.2781359  1010000 
  731000    0.8523865     -4.14806     -4.14806   -2.8694815   0.02708685     -4.14806    1.2785785  1010000 
  732000   0.85385413   -4.1489964   -4.1489964   -2.8682164  0.024339743   -4.1489964    1.2807799  1010000 
  733000   0.85339284   -4.1483898   -4.1483898   -2.8683018   0.02596864   -4.1483898     1.280088  1010000 
  734000   0.85230166   -4.1466598   -4.1466598   -2.8682086  0.026736554   -4.1466598    1.2784512  1010000 
  735000    0.8530191   -4.1481829   -4.1481829   -2.8686556  0.026059164   -4.1481829    1.2795274  1010000 
  736000   0.85230604   -4.1468145   -4.1468145   -2.8683567   0.02758214   -4.1468145    1.2784578  1010000 
  737000   0.85247816   -4.1469222   -4.1469222   -2.8682062  0.025534386   -4.1469222     1.278716  1010000 
  738000    0.8514056   -4.1457103   -4.1457103   -2.8686032  0.029207613   -4.1457103    1.2771071  1010000 
  739000   0.85225819   -4.1464768   -4.1464768   -2.8680908  0.022899933   -4.1464768     1.278386  1010000 
  740000   0.85284497    -4.147245    -4.147245   -2.8679789  0.021690013    -4.147245    1.2792662  1010000 
  741000   0.85254314   -4.1463391   -4.1463391   -2.8675256  0.022030916   -4.1463391    1.2788134  1010000 
  742000    0.8514121   -4.1451185   -4.1451185   -2.8680016  0.023293274   -4.1451185    1.2771169  1010000 
  743000   0.85168545    -4.145403    -4.145403   -2.8678761  0.020556471    -4.145403    1.2775269  1010000 
  744000   0.85131187   -4.1439549   -4.1439549   -2.8669884  0.022674367   -4.1439549    1.2769665  1010000 
  745000   0.85213136   -4.1447169   -4.1447169   -2.8665211  0.024329101   -4.1447169    1.2781958  1010000 
  746000   0.85270204   -4.1449298   -4.1449298    -2.865878  0.020082382   -4.1449298    1.2790518  1010000 
  747000   0.85190706   -4.1436964   -4.1436964   -2.8658371  0.022808339   -4.1436964    1.2778593  1010000 
  748000    0.8518896   -4.1428006   -4.1428006   -2.8649674  0.025323362   -4.1428006    1.2778331  1010000 
  749000   0.85211107   -4.1430579   -4.1430579   -2.8648926  0.021651221   -4.1430579    1.2781653  1010000 
  750000   0.85282951   -4.1443931   -4.1443931   -2.8651501  0.016464658   -4.1443931     1.279243  1010000 
  751000   0.85188755   -4.1430734   -4.1430734   -2.8652433  0.020314495   -4.1430734    1.2778301  1010000 
  752000   0.85182454   -4.1423243   -4.1423243   -2.8645887  0.021101207   -4.1423243    1.2777355  1010000 
  753000   0.85198946   -4.1428615   -4.1428615   -2.8648785  0.022389396   -4.1428615    1.2779829  1010000 
  754000   0.85183523   -4.1426118   -4.1426118   -2.8648602  0.018554073   -4.1426118    1.2777516  1010000 
  755000   0.85104606   -4.1419495   -4.1419495   -2.8653817  0.021605187   -4.1419495    1.2765678  1010000 
  756000   0.85210727   -4.1429163   -4.1429163   -2.8647566  0.018699301   -4.1429163    1.2781596  1010000 
  757000   0.85183448   -4.1431175   -4.1431175    -2.865367  0.020247443   -4.1431175    1.2777504  1010000 
  758000   0.85179615    -4.143356    -4.143356   -2.8656631  0.019142121    -4.143356     1.277693  1010000 
  759000   0.85124572   -4.1422932   -4.1422932   -2.8654259  0.021973484   -4.1422932    1.2768673  1010000 
  760000   0.85129797   -4.1414026   -4.1414026   -2.8644569  0.024553723   -4.1414026    1.2769457  1010000 
  761000   0.85207901   -4.1427014   -4.1427014   -2.8645842  0.024992739   -4.1427014    1.2781172  1010000 
  762000   0.85287421   -4.1444422   -4.1444422   -2.8651321   0.02181327   -4.1444422      1.27931  1010000 
  763000   0.85179479    -4.144002    -4.144002   -2.8663111  0.028197879    -4.144002    1.2776909  1010000 
  764000   0.85237595   -4.1452878   -4.1452878   -2.8667252   0.02348855   -4.1452878    1.2785627  1010000 
  765000   0.85214582   -4.1448738   -4.1448738   -2.8666563  0.024032746   -4.1448738    1.2782175  1010000 
  766000   0.85226044   -4.1456114   -4.1456114   -2.8672221  0.026412472   -4.1456114    1.2783894  1010000 
  767000   0.85265052    -4.145773    -4.145773   -2.8667985  0.023328821    -4.145773    1.2789745  1010000 
  768000   0.85192617   -4.1444825   -4.1444825   -2.8665945  0.024453515   -4.1444825     1.277888  1010000 
  769000   0.85282439   -4.1456904   -4.1456904    -2.866455  0.021178429   -4.1456904    1.2792353  1010000 
  770000   0.85209827    -4.145322    -4.145322   -2.8671759  0.026771257    -4.145322    1.2781461  1010000 
  771000   0.85332062   -4.1471914   -4.1471914   -2.8672117  0.025520627   -4.1471914    1.2799797  1010000 
  772000   0.85293592   -4.1475739   -4.1475739   -2.8681713  0.022574823   -4.1475739    1.2794026  1010000 
  773000   0.85285821   -4.1468925   -4.1468925   -2.8676065  0.029538712   -4.1468925     1.279286  1010000 
  774000   0.85345393   -4.1480032   -4.1480032   -2.8678236  0.026607768   -4.1480032    1.2801796  1010000 
  775000   0.85205416   -4.1460144   -4.1460144   -2.8679344  0.026615582   -4.1460144      1.27808  1010000 
  776000   0.85189727   -4.1465497   -4.1465497    -2.868705   0.02348262   -4.1465497    1.2778446  1010000 
  777000   0.85191732   -4.1466748   -4.1466748      -2.8688  0.025264474   -4.1466748    1.2778747  1010000 
  778000   0.85104382   -4.1454721   -4.1454721   -2.8689076  0.023077711   -4.1454721    1.2765645  1010000 
  779000   0.85107958   -4.1455125   -4.1455125   -2.8688944  0.024078984   -4.1455125    1.2766181  1010000 
  780000   0.85169755   -4.1460539   -4.1460539   -2.8685089  0.025461025   -4.1460539    1.2775451  1010000 
  781000   0.85129227   -4.1454307   -4.1454307   -2.8684935  0.025496066   -4.1454307    1.2769371  1010000 
  782000   0.85216337   -4.1459759   -4.1459759   -2.8677321  0.027112891   -4.1459759    1.2782438  1010000 
  783000    0.8523493   -4.1460997   -4.1460997    -2.867577  0.024591002   -4.1460997    1.2785227  1010000 
  784000   0.85274736   -4.1468842   -4.1468842   -2.8677644  0.019435022   -4.1468842    1.2791198  1010000 
  785000   0.85177878   -4.1450285   -4.1450285   -2.8673616  0.023591462   -4.1450285    1.2776669  1010000 
  786000   0.85265667   -4.1451478   -4.1451478   -2.8661641  0.022257819   -4.1451478    1.2789837  1010000 
  787000   0.85143448   -4.1431074   -4.1431074    -2.865957   0.02719504   -4.1431074    1.2771504  1010000 
  788000   0.85207248   -4.1445252   -4.1445252   -2.8664177  0.021278669   -4.1445252    1.2781075  1010000 
  789000   0.85231911   -4.1442365   -4.1442365   -2.8657591  0.023487206   -4.1442365    1.2784774  1010000 
  790000   0.85214407   -4.1440765   -4.1440765   -2.8658617  0.021657973   -4.1440765    1.2782148  1010000 
  791000   0.85282668   -4.1448521   -4.1448521   -2.8656134   0.02115218   -4.1448521    1.2792388  1010000 
  792000   0.85190734   -4.1433623   -4.1433623   -2.8655026   0.02244345   -4.1433623    1.2778597  1010000 
  793000   0.85299414   -4.1448836   -4.1448836   -2.8653936  0.018885587   -4.1448836    1.2794899  1010000 
  794000   0.85192683   -4.1428428   -4.1428428   -2.8649538  0.023822693   -4.1428428     1.277889  1010000 
  795000   0.85176466   -4.1429733   -4.1429733   -2.8653276  0.021303209   -4.1429733    1.2776457  1010000 
  796000   0.85310858   -4.1439915   -4.1439915   -2.8643299  0.021384941   -4.1439915    1.2796616  1010000 
  797000   0.85259096   -4.1430387   -4.1430387   -2.8641536   0.02060844   -4.1430387    1.2788852  1010000 
  798000   0.85249779   -4.1426091   -4.1426091   -2.8638637   0.02002217   -4.1426091    1.2787454  1010000 
  799000   0.85255774   -4.1426523   -4.1426523    -2.863817  0.016626358   -4.1426523    1.2788353  1010000 
  800000   0.85252852   -4.1419102   -4.1419102   -2.8631187  0.020902973   -4.1419102    1.2787915  1010000 
  801000   0.85288194   -4.1424009   -4.1424009   -2.8630792  0.021704243   -4.1424009    1.2793216  1010000 
  802000   0.85318976   -4.1428684   -4.1428684    -2.863085  0.024547789   -4.1428684    1.2797834  1010000 
  803000    0.8534435   -4.1429822   -4.1429822   -2.8628182  0.023789705   -4.1429822     1.280164  1010000 
  804000   0.85340412   -4.1423568   -4.1423568   -2.8622519  0.022893199   -4.1423568    1.2801049  1010000 
  805000   0.85350325    -4.142987    -4.142987   -2.8627334  0.023282951    -4.142987    1.2802536  1010000 
  806000   0.85325363   -4.1426929   -4.1426929   -2.8628137  0.026337347   -4.1426929    1.2798792  1010000 
  807000   0.85314285   -4.1420928   -4.1420928   -2.8623798  0.021835128   -4.1420928     1.279713  1010000 
  808000   0.85229597   -4.1415184   -4.1415184   -2.8630757  0.023048978   -4.1415184    1.2784427  1010000 
  809000   0.85241216   -4.1425542   -4.1425542   -2.8639372  0.020571412   -4.1425542     1.278617  1010000 
  810000   0.85131918   -4.1407598   -4.1407598   -2.8637823  0.022534467   -4.1407598    1.2769775  1010000 
  811000   0.85139803   -4.1412325   -4.1412325   -2.8641368  0.020330841   -4.1412325    1.2770958  1010000 
  812000    0.8521169   -4.1419222   -4.1419222   -2.8637481   0.02201668   -4.1419222    1.2781741  1010000 
  813000   0.85169723   -4.1420239   -4.1420239   -2.8644793  0.022880502   -4.1420239    1.2775446  1010000 
  814000   0.85198581   -4.1423451   -4.1423451   -2.8643677   0.02178076   -4.1423451    1.2779774  1010000 
  815000   0.85206578   -4.1421112   -4.1421112   -2.8640138  0.021771732   -4.1421112    1.2780974  1010000 
  816000   0.85248617   -4.1423387   -4.1423387   -2.8636108  0.023293835   -4.1423387     1.278728  1010000 
  817000    0.8528456   -4.1428703   -4.1428703   -2.8636031  0.022492018   -4.1428703    1.2792671  1010000 
  818000   0.85240648   -4.1420175   -4.1420175    -2.863409  0.022846264   -4.1420175    1.2786085  1010000 
  819000   0.85304323   -4.1426281   -4.1426281   -2.8630645  0.020972309   -4.1426281    1.2795636  1010000 
  820000   0.85331649   -4.1426355   -4.1426355   -2.8626621  0.023504343   -4.1426355    1.2799735  1010000 
  821000   0.85224321   -4.1409733   -4.1409733   -2.8626097  0.026895354   -4.1409733    1.2783636  1010000 
  822000   0.85328902   -4.1421813   -4.1421813    -2.862249  0.025444236   -4.1421813    1.2799323  1010000 
  823000   0.85251574   -4.1413563   -4.1413563    -2.862584  0.024856882   -4.1413563    1.2787724  1010000 
  824000    0.8523846   -4.1409704   -4.1409704   -2.8623948  0.026288773   -4.1409704    1.2785756  1010000 
  825000   0.85344148   -4.1430484   -4.1430484   -2.8628874  0.024141001   -4.1430484    1.2801609  1010000 
  826000    0.8526098   -4.1420937   -4.1420937   -2.8631803  0.024075842   -4.1420937    1.2789134  1010000 
  827000   0.85366282   -4.1429113   -4.1429113   -2.8624183  0.024729711   -4.1429113     1.280493  1010000 
  828000   0.85175895   -4.1402988   -4.1402988   -2.8626617  0.026303086   -4.1402988    1.2776372  1010000 
  829000   0.85301101   -4.1414766   -4.1414766   -2.8619614  0.020840498   -4.1414766    1.2795152  1010000 
  830000   0.85229033   -4.1406648   -4.1406648   -2.8622306  0.023981562   -4.1406648    1.2784342  1010000 
  831000    0.8526604   -4.1403555   -4.1403555   -2.8613662  0.025049129   -4.1403555    1.2789893  1010000 
  832000   0.85237806   -4.1401596   -4.1401596   -2.8615938  0.024090502   -4.1401596    1.2785658  1010000 
  833000   0.85307489   -4.1404308   -4.1404308   -2.8608197  0.020654306   -4.1404308    1.2796111  1010000 
  834000   0.85244716   -4.1401682   -4.1401682   -2.8614988  0.022364271   -4.1401682    1.2786695  1010000 
  835000    0.8528671    -4.140226    -4.140226   -2.8609267  0.020982938    -4.140226    1.2792994  1010000 
  836000   0.85241283   -4.1392073   -4.1392073   -2.8605893  0.021149125   -4.1392073     1.278618  1010000 
  837000   0.85315021   -4.1393477   -4.1393477   -2.8596236  0.021288373   -4.1393477    1.2797241  1010000 
  838000   0.85294304   -4.1393472   -4.1393472   -2.8599339  0.021014081   -4.1393472    1.2794133  1010000 
  839000   0.85273686     -4.13856     -4.13856    -2.859456  0.022312292     -4.13856     1.279104  1010000 
  840000   0.85258559   -4.1388646   -4.1388646   -2.8599875  0.021846355   -4.1388646    1.2788771  1010000 
  841000   0.85244778   -4.1384067   -4.1384067   -2.8597363  0.021492146   -4.1384067    1.2786704  1010000 
  842000   0.85326076   -4.1394005   -4.1394005   -2.8595107  0.022433694   -4.1394005    1.2798899  1010000 
  843000   0.85331022   -4.1388055   -4.1388055   -2.8588414  0.021859865   -4.1388055    1.2799641  1010000 
  844000   0.85250029   -4.1379954   -4.1379954   -2.8592463  0.024674806   -4.1379954    1.2787492  1010000 
  845000   0.85343968   -4.1399583   -4.1399583   -2.8598001  0.018381388   -4.1399583    1.2801582  1010000 
  846000   0.85363105   -4.1394642   -4.1394642   -2.8590189  0.020466271   -4.1394642    1.2804453  1010000 
  847000    0.8540407   -4.1393259   -4.1393259   -2.8582661  0.022934789   -4.1393259    1.2810598  1010000 
  848000   0.85374622   -4.1390542   -4.1390542   -2.8584361  0.027309461   -4.1390542    1.2806181  1010000 
  849000   0.85419439   -4.1394435   -4.1394435   -2.8581531  0.021740794   -4.1394435    1.2812903  1010000 
  850000   0.85360471   -4.1389022   -4.1389022   -2.8584964  0.024081496   -4.1389022    1.2804058  1010000 
  851000   0.85329329   -4.1381011   -4.1381011   -2.8581624  0.027188038   -4.1381011    1.2799387  1010000 
  852000   0.85333404   -4.1388033   -4.1388033   -2.8588035   0.02613359   -4.1388033    1.2799998  1010000 
  853000   0.85394949   -4.1391907   -4.1391907   -2.8582677  0.025647724   -4.1391907     1.280923  1010000 
  854000   0.85276248   -4.1373565   -4.1373565   -2.8582141  0.026382316   -4.1373565    1.2791425  1010000 
  855000   0.85306745   -4.1374926   -4.1374926   -2.8578927  0.024496011   -4.1374926    1.2795999  1010000 
  856000   0.85284526   -4.1378019   -4.1378019   -2.8585353  0.019111446   -4.1378019    1.2792666  1010000 
  857000   0.85380011   -4.1387286   -4.1387286   -2.8580297  0.023930374   -4.1387286    1.2806989  1010000 
  858000    0.8532725   -4.1379551   -4.1379551   -2.8580476   0.02533568   -4.1379551    1.2799075  1010000 
  859000    0.8534773   -4.1387376   -4.1387376   -2.8585229   0.02541518   -4.1387376    1.2802147  1010000 
  860000   0.85239244   -4.1371851   -4.1371851   -2.8585977  0.027807985   -4.1371851    1.2785874  1010000 
  861000   0.85315982   -4.1379244   -4.1379244   -2.8581859  0.023849664   -4.1379244    1.2797385  1010000 
  862000   0.85201096   -4.1361793   -4.1361793   -2.8581641  0.027080729   -4.1361793    1.2780152  1010000 
  863000   0.85322809   -4.1376269   -4.1376269    -2.857786  0.025614604   -4.1376269    1.2798409  1010000 
  864000   0.85359998   -4.1385139   -4.1385139   -2.8581152  0.020932775   -4.1385139    1.2803987  1010000 
  865000   0.85319089   -4.1382986   -4.1382986   -2.8585135  0.022977857   -4.1382986    1.2797851  1010000 
  866000   0.85363485   -4.1381354   -4.1381354   -2.8576844  0.020924564   -4.1381354     1.280451  1010000 
  867000   0.85371581   -4.1376894   -4.1376894   -2.8571169  0.023966322   -4.1376894    1.2805724  1010000 
  868000   0.85394203   -4.1373842   -4.1373842   -2.8564725  0.020395698   -4.1373842    1.2809118  1010000 
  869000   0.85327124   -4.1375636   -4.1375636    -2.857658  0.025683168   -4.1375636    1.2799056  1010000 
  870000   0.85415012   -4.1380856   -4.1380856   -2.8568617  0.025987173   -4.1380856    1.2812239  1010000 
  871000   0.85392613   -4.1379475   -4.1379475   -2.8570595  0.022411047   -4.1379475    1.2808879  1010000 
  872000   0.85382607   -4.1372802   -4.1372802   -2.8565424  0.023166017   -4.1372802    1.2807378  1010000 
  873000   0.85383804   -4.1374134   -4.1374134   -2.8566576  0.027147587   -4.1374134    1.2807558  1010000 
  874000    0.8537566   -4.1368771   -4.1368771   -2.8562434  0.026529894   -4.1368771    1.2806336  1010000 
  875000   0.85329969   -4.1362491   -4.1362491   -2.8563008  0.024181707   -4.1362491    1.2799483  1010000 
  876000   0.85321788   -4.1362651   -4.1362651   -2.8564396  0.021400611   -4.1362651    1.2798255  1010000 
  877000   0.85438593   -4.1371222   -4.1371222   -2.8555446    0.0216603   -4.1371222    1.2815776  1010000 
  878000   0.85457484   -4.1369719   -4.1369719   -2.8551109  0.024023171   -4.1369719     1.281861  1010000 
  879000   0.85423267   -4.1366611   -4.1366611   -2.8553134  0.024210209   -4.1366611    1.2813477  1010000 
  880000   0.85461324   -4.1368557   -4.1368557   -2.8549371  0.022805984   -4.1368557    1.2819186  1010000 
  881000   0.85463529   -4.1374599   -4.1374599   -2.8555082  0.020730296   -4.1374599    1.2819517  1010000 
  882000   0.85375626   -4.1360408   -4.1360408   -2.8554077  0.022608139   -4.1360408    1.2806331  1010000 
  883000   0.85368456   -4.1349347   -4.1349347   -2.8544091  0.023902076   -4.1349347    1.2805256  1010000 
  884000   0.85391502   -4.1357907   -4.1357907   -2.8549195  0.025834176   -4.1357907    1.2808713  1010000 
  885000   0.85396818   -4.1362076   -4.1362076   -2.8552566  0.023453614   -4.1362076     1.280951  1010000 
  886000   0.85317664   -4.1351794   -4.1351794   -2.8554157  0.025229616   -4.1351794    1.2797637  1010000 
  887000   0.85330301   -4.1351913   -4.1351913    -2.855238  0.020922268   -4.1351913    1.2799532  1010000 
  888000    0.8530986    -4.134215    -4.134215   -2.8545683  0.019400764    -4.134215    1.2796466  1010000 
  889000   0.85371077   -4.1350247   -4.1350247   -2.8544598  0.022766074   -4.1350247    1.2805649  1010000 
  890000   0.85323856    -4.134159    -4.134159   -2.8543025  0.026674692    -4.134159    1.2798566  1010000 
  891000   0.85431658   -4.1346625   -4.1346625   -2.8531889  0.025242339   -4.1346625    1.2814736  1010000 
  892000   0.85478442   -4.1350717   -4.1350717   -2.8528963  0.023017549   -4.1350717    1.2821754  1010000 
  893000    0.8541496   -4.1344351   -4.1344351    -2.853212  0.023046358   -4.1344351    1.2812231  1010000 
  894000   0.85460737   -4.1352874   -4.1352874   -2.8533776  0.021207416   -4.1352874    1.2819098  1010000 
  895000   0.85376344   -4.1346844   -4.1346844   -2.8540405  0.022932135   -4.1346844    1.2806439  1010000 
  896000   0.85412162   -4.1344084   -4.1344084   -2.8532272  0.022028357   -4.1344084    1.2811812  1010000 
  897000   0.85344652   -4.1329437   -4.1329437   -2.8527752  0.024154974   -4.1329437    1.2801685  1010000 
  898000   0.85363251   -4.1322336   -4.1322336   -2.8517861  0.025469565   -4.1322336    1.2804475  1010000 
  899000   0.85429003   -4.1337627   -4.1337627   -2.8523289  0.022184341   -4.1337627    1.2814338  1010000 
  900000   0.85444157   -4.1345504   -4.1345504   -2.8528893  0.021050853   -4.1345504    1.2816611  1010000 
  901000    0.8541322   -4.1339024   -4.1339024   -2.8527053  0.023115382   -4.1339024     1.281197  1010000 
  902000   0.85445449   -4.1344832   -4.1344832   -2.8528027  0.024776539   -4.1344832    1.2816805  1010000 
  903000   0.85527935   -4.1357039   -4.1357039   -2.8527862  0.021973299   -4.1357039    1.2829177  1010000 
  904000   0.85471492   -4.1343081   -4.1343081    -2.852237  0.023566458   -4.1343081    1.2820711  1010000 
  905000   0.85409729   -4.1339638   -4.1339638   -2.8528191  0.020396142   -4.1339638    1.2811447  1010000 
  906000   0.85387043   -4.1336917   -4.1336917   -2.8528874  0.020021863   -4.1336917    1.2808044  1010000 
  907000   0.85338193   -4.1328625   -4.1328625   -2.8527908  0.023920534   -4.1328625    1.2800716  1010000 
  908000   0.85437719   -4.1341735   -4.1341735   -2.8526089  0.019575443   -4.1341735    1.2815645  1010000 
  909000   0.85351318   -4.1325313   -4.1325313   -2.8522628  0.024874554   -4.1325313    1.2802685  1010000 
  910000   0.85393575   -4.1336039   -4.1336039   -2.8527015  0.023785945   -4.1336039    1.2809024  1010000 
  911000   0.85438873   -4.1346314   -4.1346314   -2.8530496   0.02100264   -4.1346314    1.2815818  1010000 
  912000   0.85458636   -4.1341861   -4.1341861   -2.8523079  0.023553857   -4.1341861    1.2818783  1010000 
  913000   0.85517229   -4.1342267   -4.1342267   -2.8514695  0.025763612   -4.1342267    1.2827572  1010000 
  914000   0.85511925   -4.1340078   -4.1340078   -2.8513302    0.0288514   -4.1340078    1.2826776  1010000 
  915000   0.85523928   -4.1343161   -4.1343161   -2.8514584  0.023862396   -4.1343161    1.2828576  1010000 
  916000   0.85475655   -4.1333878   -4.1333878   -2.8512542  0.025833294   -4.1333878    1.2821336  1010000 
  917000   0.85434609    -4.133485    -4.133485   -2.8519671  0.027496059    -4.133485    1.2815179  1010000 
  918000   0.85509604   -4.1335925   -4.1335925   -2.8509497  0.024365375   -4.1335925    1.2826428  1010000 
  919000   0.85370394   -4.1330455   -4.1330455   -2.8524908  0.025450485   -4.1330455    1.2805546  1010000 
  920000   0.85372725   -4.1331134   -4.1331134   -2.8525238  0.022020063   -4.1331134    1.2805896  1010000 
  921000   0.85381121   -4.1335386   -4.1335386    -2.852823  0.024276626   -4.1335386    1.2807155  1010000 
  922000   0.85337792   -4.1325117   -4.1325117   -2.8524461  0.023541104   -4.1325117    1.2800656  1010000 
  923000   0.85373678   -4.1328475   -4.1328475   -2.8522436  0.022433652   -4.1328475    1.2806039  1010000 
  924000   0.85432843   -4.1325486   -4.1325486   -2.8510572  0.022912855   -4.1325486    1.2814914  1010000 
  925000   0.85421955    -4.131958    -4.131958     -2.85063  0.027759617    -4.131958    1.2813281  1010000 
  926000   0.85426256   -4.1321372   -4.1321372   -2.8507447  0.024321637   -4.1321372    1.2813926  1010000 
  927000   0.85425941    -4.132021    -4.132021   -2.8506332  0.026664187    -4.132021    1.2813878  1010000 
  928000   0.85552648    -4.133763    -4.133763   -2.8504746  0.022228329    -4.133763    1.2832884  1010000 
  929000   0.85450434   -4.1324705   -4.1324705   -2.8507153  0.025749123   -4.1324705    1.2817552  1010000 
  930000   0.85411733   -4.1316028   -4.1316028   -2.8504281  0.026463976   -4.1316028    1.2811747  1010000 
  931000   0.85557951    -4.133089    -4.133089    -2.849721  0.025189668    -4.133089     1.283368  1010000 
  932000   0.85459644   -4.1327511   -4.1327511   -2.8508577   0.01820528   -4.1327511    1.2818934  1010000 
  933000    0.8536825   -4.1308113   -4.1308113   -2.8502888   0.02291015   -4.1308113    1.2805225  1010000 
  934000   0.85493493   -4.1328287   -4.1328287   -2.8504276  0.018426117   -4.1328287    1.2824011  1010000 
  935000   0.85466384    -4.132063    -4.132063   -2.8500685  0.021641371    -4.132063    1.2819945  1010000 
  936000   0.85422674   -4.1312321   -4.1312321   -2.8498933  0.027650917   -4.1312321    1.2813388  1010000 
  937000   0.85487607   -4.1317768   -4.1317768    -2.849464  0.025084368   -4.1317768    1.2823128  1010000 
  938000   0.85435029   -4.1305612   -4.1305612    -2.849037  0.025136948   -4.1305612    1.2815242  1010000 
  939000    0.8545074   -4.1312867   -4.1312867   -2.8495269  0.023784734   -4.1312867    1.2817598  1010000 
  940000   0.85447927   -4.1306447   -4.1306447   -2.8489271  0.025704357   -4.1306447    1.2817176  1010000 
  941000   0.85530703   -4.1311843   -4.1311843   -2.8482251  0.024736639   -4.1311843    1.2829593  1010000 
  942000    0.8552628   -4.1317438   -4.1317438   -2.8488509  0.022463689   -4.1317438    1.2828929  1010000 
  943000   0.85453738   -4.1300685   -4.1300685   -2.8482637  0.024593764   -4.1300685    1.2818048  1010000 
  944000   0.85489832   -4.1304254   -4.1304254   -2.8480792   0.02242397   -4.1304254    1.2823462  1010000 
  945000   0.85472447   -4.1303826   -4.1303826   -2.8482972  0.023176031   -4.1303826    1.2820854  1010000 
  946000   0.85514192   -4.1307379   -4.1307379   -2.8480263  0.022288603   -4.1307379    1.2827116  1010000 
  947000   0.85477105   -4.1302536   -4.1302536   -2.8480983  0.021625721   -4.1302536    1.2821553  1010000 
  948000   0.85578855   -4.1314297   -4.1314297   -2.8477482  0.019865067   -4.1314297    1.2836815  1010000 
  949000   0.85581603   -4.1305079   -4.1305079   -2.8467851  0.024276793   -4.1305079    1.2837228  1010000 
  950000   0.85656683   -4.1316881   -4.1316881   -2.8468392  0.019515179   -4.1316881     1.284849  1010000 
  951000   0.85578745     -4.13047     -4.13047   -2.8467901  0.019303274     -4.13047    1.2836799  1010000 
  952000   0.85576129   -4.1299461   -4.1299461   -2.8463055  0.026487251   -4.1299461    1.2836407  1010000 
  953000     0.855282   -4.1292873   -4.1292873   -2.8463655  0.025580818   -4.1292873    1.2829217  1010000 
  954000   0.85529502   -4.1300104   -4.1300104   -2.8470691  0.021787337   -4.1300104    1.2829413  1010000 
  955000    0.8548142   -4.1287802   -4.1287802   -2.8465602  0.022942883   -4.1287802      1.28222  1010000 
  956000   0.85423625   -4.1278885   -4.1278885   -2.8465354  0.025731545   -4.1278885    1.2813531  1010000 
  957000   0.85403259   -4.1281259   -4.1281259   -2.8470783  0.019466485   -4.1281259    1.2810476  1010000 
  958000   0.85412608   -4.1281423   -4.1281423   -2.8469544  0.026379843   -4.1281423    1.2811879  1010000 
  959000   0.85394103   -4.1274637   -4.1274637   -2.8465534  0.022269356   -4.1274637    1.2809103  1010000 
  960000   0.85444253   -4.1279494   -4.1279494   -2.8462869  0.023015847   -4.1279494    1.2816625  1010000 
  961000    0.8548037   -4.1284495   -4.1284495   -2.8462452  0.019373516   -4.1284495    1.2822043  1010000 
  962000   0.85585305   -4.1288916   -4.1288916   -2.8451133  0.021988458   -4.1288916    1.2837783  1010000 
  963000   0.85545235   -4.1282007   -4.1282007   -2.8450235  0.023068884   -4.1282007    1.2831773  1010000 
  964000   0.85584118   -4.1282475   -4.1282475    -2.844487  0.024834522   -4.1282475    1.2837605  1010000 
  965000   0.85585937   -4.1289732   -4.1289732   -2.8451854  0.023731628   -4.1289732    1.2837878  1010000 
  966000   0.85542028   -4.1275612   -4.1275612    -2.844432  0.025519888   -4.1275612    1.2831292  1010000 
  967000   0.85464519   -4.1267932   -4.1267932   -2.8448267  0.027881535   -4.1267932    1.2819665  1010000 
  968000   0.85589904   -4.1281994   -4.1281994   -2.8443521  0.025721777   -4.1281994    1.2838473  1010000 
  969000   0.85614804   -4.1281595   -4.1281595   -2.8439387  0.024662798   -4.1281595    1.2842208  1010000 
  970000   0.85607284   -4.1280268   -4.1280268   -2.8439188  0.026572918   -4.1280268     1.284108  1010000 
  971000   0.85468926   -4.1264251   -4.1264251   -2.8443925  0.027354427   -4.1264251    1.2820326  1010000 
  972000   0.85663125   -4.1288406   -4.1288406    -2.843895  0.022062667   -4.1288406    1.2849456  1010000 
  973000     0.855633   -4.1278614   -4.1278614   -2.8444132  0.023323673   -4.1278614    1.2834482  1010000 
  974000    0.8549867   -4.1276368   -4.1276368    -2.845158  0.023432784   -4.1276368    1.2824788  1010000 
  975000   0.85597873   -4.1281047   -4.1281047   -2.8441379  0.024580434   -4.1281047    1.2839668  1010000 
  976000    0.8551513   -4.1265689   -4.1265689   -2.8438432  0.023924303   -4.1265689    1.2827257  1010000 
  977000   0.85397443   -4.1247093   -4.1247093   -2.8437489  0.021976651   -4.1247093    1.2809604  1010000 
  978000   0.85467367   -4.1255939   -4.1255939   -2.8435847  0.017735888   -4.1255939    1.2820092  1010000 
  979000   0.85556395   -4.1266038   -4.1266038   -2.8432592  0.019746819   -4.1266038    1.2833446  1010000 
  980000   0.85609807   -4.1265122   -4.1265122   -2.8423664  0.023974815   -4.1265122    1.2841458  1010000 
  981000   0.85508379   -4.1253056   -4.1253056   -2.8426812   0.02361213   -4.1253056    1.2826244  1010000 
  982000   0.85508102   -4.1259658   -4.1259658   -2.8433456  0.023742766   -4.1259658    1.2826203  1010000 
  983000   0.85502883   -4.1253879   -4.1253879   -2.8428459  0.023141817   -4.1253879     1.282542  1010000 
  984000   0.85536825   -4.1249768   -4.1249768   -2.8419257  0.024286304   -4.1249768    1.2830511  1010000 
  985000   0.85567086   -4.1255665   -4.1255665   -2.8420615  0.023732708   -4.1255665     1.283505  1010000 
  986000   0.85585642   -4.1250341   -4.1250341   -2.8412508  0.029482325   -4.1250341    1.2837834  1010000 
  987000   0.85633987   -4.1249613   -4.1249613   -2.8404528  0.024557019   -4.1249613    1.2845085  1010000 
  988000   0.85539961   -4.1245517   -4.1245517   -2.8414535  0.022779935   -4.1245517    1.2830981  1010000 
  989000   0.85563907   -4.1252019   -4.1252019   -2.8417445  0.026905588   -4.1252019    1.2834573  1010000 
  990000   0.85652401   -4.1269039   -4.1269039   -2.8421191  0.018623615   -4.1269039    1.2847847  1010000 
  991000   0.85601579    -4.126058    -4.126058   -2.8420356  0.020620934    -4.126058    1.2840224  1010000 
  992000    0.8551911   -4.1249201   -4.1249201   -2.8421347  0.024190828   -4.1249201    1.2827854  1010000 
  993000   0.85487529    -4.124304    -4.124304   -2.8419923  0.026981148    -4.124304    1.2823117  1010000 
  994000    0.8554917   -4.1252901   -4.1252901   -2.8420538  0.022497169   -4.1252901    1.2832363  1010000 
  995000   0.85556987   -4.1239855   -4.1239855   -2.8406319    0.0209042   -4.1239855    1.2833535  1010000 
  996000   0.85708836   -4.1260672   -4.1260672    -2.840436  0.018681725   -4.1260672    1.2856313  1010000 
  997000   0.85588518   -4.1248109   -4.1248109   -2.8409844  0.023162856   -4.1248109    1.2838265  1010000 
  998000   0.85730229   -4.1261112   -4.1261112   -2.8401591  0.022042075   -4.1261112    1.2859522  1010000 
  999000   0.85687328   -4.1252799   -4.1252799   -2.8399712   0.02847087   -4.1252799    1.2853087  1010000 
 1000000   0.85678754   -4.1252228   -4.1252228   -2.8400427  0.024831742   -4.1252228      1.28518  1010000 
 1001000   0.85710849   -4.1254478   -4.1254478   -2.8397864  0.023162324   -4.1254478    1.2856615  1010000 
 1002000   0.85668209   -4.1252328   -4.1252328    -2.840211  0.027308902   -4.1252328    1.2850219  1010000 
 1003000   0.85663382   -4.1247532   -4.1247532   -2.8398037  0.026050943   -4.1247532    1.2849495  1010000 
 1004000   0.85619005   -4.1243946   -4.1243946   -2.8401108  0.026391871   -4.1243946    1.2842838  1010000 
 1005000   0.85615281   -4.1235948   -4.1235948   -2.8393668  0.025202814   -4.1235948    1.2842279  1010000 
 1006000   0.85656134   -4.1239828   -4.1239828    -2.839142   0.01926503   -4.1239828    1.2848407  1010000 
 1007000   0.85468741   -4.1220736   -4.1220736   -2.8400437  0.025223749   -4.1220736    1.2820298  1010000 
 1008000   0.85694825   -4.1253747   -4.1253747   -2.8399536  0.020053676   -4.1253747    1.2854211  1010000 
 1009000   0.85565781   -4.1232547   -4.1232547   -2.8397693  0.021634686   -4.1232547    1.2834854  1010000 
 1010000   0.85537302   -4.1228858   -4.1228858   -2.8398276  0.024511351   -4.1228858    1.2830583  1010000 
 1011000     0.854946    -4.121593    -4.121593   -2.8391753  0.025730743    -4.121593    1.2824177  1010000 
 1012000   0.85671366   -4.1232626   -4.1232626   -2.8381934  0.025007632   -4.1232626    1.2850692  1010000 
 1013000   0.85707971   -4.1242163   -4.1242163    -2.838598  0.019091928   -4.1242163    1.2856183  1010000 
 1014000   0.85715283   -4.1237701   -4.1237701   -2.8380421  0.019477751   -4.1237701     1.285728  1010000 
 1015000    0.8562917   -4.1220715   -4.1220715   -2.8376352  0.023587762   -4.1220715    1.2844363  1010000 
 1016000   0.85594766    -4.122422    -4.122422   -2.8385018  0.024062903    -4.122422    1.2839202  1010000 
 1017000    0.8552449   -4.1211922   -4.1211922   -2.8383261  0.023627975   -4.1211922    1.2828661  1010000 
 1018000   0.85564988   -4.1214733   -4.1214733   -2.8379998  0.025069416   -4.1214733    1.2834735  1010000 
 1019000   0.85648802   -4.1222587   -4.1222587   -2.8375279  0.020418584   -4.1222587    1.2847308  1010000 
 1020000   0.85697341   -4.1227491   -4.1227491   -2.8372903  0.020469287   -4.1227491    1.2854588  1010000 
 1021000   0.85729849   -4.1232668   -4.1232668   -2.8373204  0.022285206   -4.1232668    1.2859465  1010000 
 1022000   0.85629922   -4.1221804   -4.1221804   -2.8377328  0.022022899   -4.1221804    1.2844476  1010000 
 1023000    0.8558796   -4.1215625   -4.1215625   -2.8377443   0.02542117   -4.1215625    1.2838181  1010000 
 1024000   0.85675605    -4.122713    -4.122713   -2.8375802  0.021400305    -4.122713    1.2851328  1010000 
 1025000   0.85677781   -4.1223746   -4.1223746   -2.8372091  0.021057828   -4.1223746    1.2851654  1010000 
 1026000   0.85680379   -4.1217903   -4.1217903   -2.8365859  0.023522748   -4.1217903    1.2852044  1010000 
 1027000   0.85645727   -4.1217313   -4.1217313   -2.8370466   0.02259697   -4.1217313    1.2846846  1010000 
 1028000   0.85661616   -4.1216584   -4.1216584   -2.8367354  0.022085013   -4.1216584     1.284923  1010000 
 1029000   0.85636108   -4.1214268   -4.1214268   -2.8368865  0.021860497   -4.1214268    1.2845403  1010000 
 1030000   0.85735343   -4.1222652   -4.1222652   -2.8362363  0.020723816   -4.1222652    1.2860289  1010000 
 1031000   0.85703529   -4.1210262   -4.1210262   -2.8354745   0.02833094   -4.1210262    1.2855517  1010000 
 1032000   0.85779243   -4.1219111   -4.1219111   -2.8352238  0.027609552   -4.1219111    1.2866874  1010000 
 1033000   0.85780312   -4.1223083   -4.1223083   -2.8356049  0.021693536   -4.1223083    1.2867034  1010000 
 1034000   0.85774446   -4.1219464   -4.1219464    -2.835331  0.021697591   -4.1219464    1.2866154  1010000 
 1035000   0.85742658   -4.1218465   -4.1218465   -2.8357079  0.025277084   -4.1218465    1.2861386  1010000 
 1036000   0.85784048   -4.1216607   -4.1216607   -2.8349012  0.023135946   -4.1216607    1.2867594  1010000 
 1037000   0.85712946   -4.1205162   -4.1205162   -2.8348233  0.022058869   -4.1205162    1.2856929  1010000 
 1038000   0.85673611    -4.119699    -4.119699   -2.8345961   0.02545965    -4.119699    1.2851029  1010000 
 1039000   0.85805632   -4.1214572   -4.1214572    -2.834374   0.02231503   -4.1214572    1.2870832  1010000 
 1040000   0.85706982    -4.119835    -4.119835   -2.8342315  0.025706724    -4.119835    1.2856035  1010000 
 1041000   0.85726458   -4.1197224   -4.1197224   -2.8338268  0.023656332   -4.1197224    1.2858956  1010000 
 1042000   0.85680015   -4.1192615   -4.1192615   -2.8340626  0.021963512   -4.1192615     1.285199  1010000 
 1043000   0.85715487   -4.1197356   -4.1197356   -2.8340046  0.023535319   -4.1197356     1.285731  1010000 
 1044000   0.85793136   -4.1201802   -4.1201802   -2.8332844  0.019676093   -4.1201802    1.2868958  1010000 
 1045000   0.85708496   -4.1185235   -4.1185235   -2.8328973  0.022869841   -4.1185235    1.2856262  1010000 
 1046000   0.85641188   -4.1176781   -4.1176781   -2.8330615  0.024920107   -4.1176781    1.2846165  1010000 
 1047000   0.85674748   -4.1169071   -4.1169071   -2.8317872  0.024308844   -4.1169071      1.28512  1010000 
 1048000   0.85722737   -4.1176946   -4.1176946   -2.8318548  0.021548174   -4.1176946    1.2858398  1010000 
 1049000   0.85678093   -4.1172485   -4.1172485   -2.8320784  0.023372132   -4.1172485    1.2851701  1010000 
 1050000   0.85674181   -4.1168646   -4.1168646   -2.8317531  0.022486097   -4.1168646    1.2851114  1010000 
 1051000   0.85667988   -4.1169602   -4.1169602   -2.8319417  0.021213036   -4.1169602    1.2850186  1010000 
 1052000   0.85609042    -4.115274    -4.115274   -2.8311396  0.026020053    -4.115274    1.2841344  1010000 
 1053000   0.85735488   -4.1167746   -4.1167746   -2.8307435  0.018587974   -4.1167746    1.2860311  1010000 
 1054000   0.85710134   -4.1161403   -4.1161403   -2.8304896  0.021964895   -4.1161403    1.2856507  1010000 
 1055000   0.85742395   -4.1172385   -4.1172385   -2.8311038  0.020409229   -4.1172385    1.2861347  1010000 
 1056000   0.85713989   -4.1168593   -4.1168593   -2.8311507   0.01724366   -4.1168593    1.2857086  1010000 
 1057000   0.85684894   -4.1162533   -4.1162533   -2.8309811  0.026170726   -4.1162533    1.2852721  1010000 
 1058000   0.85665417   -4.1165989   -4.1165989   -2.8316189  0.021533385   -4.1165989      1.28498  1010000 
 1059000    0.8573429   -4.1170384   -4.1170384   -2.8310253  0.021612389   -4.1170384    1.2860131  1010000 
 1060000   0.85692159    -4.116562    -4.116562   -2.8311809  0.021178859    -4.116562    1.2853811  1010000 
 1061000   0.85663435   -4.1158048   -4.1158048   -2.8308545   0.02325048   -4.1158048    1.2849503  1010000 
 1062000   0.85730204   -4.1160173   -4.1160173   -2.8300655  0.024969508   -4.1160173    1.2859518  1010000 
 1063000    0.8580297    -4.116165    -4.116165   -2.8291217  0.028902589    -4.116165    1.2870433  1010000 
 1064000   0.85850924   -4.1171017   -4.1171017   -2.8293391  0.027336692   -4.1171017    1.2877626  1010000 
 1065000   0.85921226   -4.1185101   -4.1185101   -2.8296929  0.026240101   -4.1185101    1.2888171  1010000 
 1066000   0.85991663   -4.1190628   -4.1190628   -2.8291891  0.023494722   -4.1190628    1.2898737  1010000 
 1067000   0.85860094   -4.1174007   -4.1174007   -2.8295006  0.027699477   -4.1174007    1.2879001  1010000 
 1068000   0.85834459   -4.1167216   -4.1167216    -2.829206  0.030818031   -4.1167216    1.2875156  1010000 
 1069000   0.85893643   -4.1183588   -4.1183588   -2.8299555  0.027650053   -4.1183588    1.2884034  1010000 
 1070000   0.85946318   -4.1182944   -4.1182944    -2.829101  0.023000564   -4.1182944    1.2891935  1010000 
 1071000   0.85894212   -4.1176705   -4.1176705   -2.8292586  0.027204259   -4.1176705    1.2884119  1010000 
 1072000   0.85896776   -4.1181376   -4.1181376   -2.8296872   0.02565686   -4.1181376    1.2884504  1010000 
 1073000   0.85880643   -4.1171114   -4.1171114    -2.828903  0.023424115   -4.1171114    1.2882084  1010000 
 1074000   0.85874614   -4.1163221   -4.1163221   -2.8282042  0.024996988   -4.1163221    1.2881179  1010000 
 1075000   0.85851059   -4.1162929   -4.1162929   -2.8285283  0.023679394   -4.1162929    1.2877646  1010000 
 1076000   0.85968734    -4.118059    -4.118059   -2.8285292  0.024611768    -4.118059    1.2895297  1010000 
 1077000   0.85802248    -4.115653    -4.115653   -2.8286205  0.024252657    -4.115653    1.2870324  1010000 
 1078000   0.85886158   -4.1156129   -4.1156129   -2.8273218  0.027049146   -4.1156129    1.2882911  1010000 
 1079000   0.85777494   -4.1139661   -4.1139661   -2.8273049  0.030333372   -4.1139661    1.2866611  1010000 
 1080000   0.85864831    -4.114249    -4.114249   -2.8262778  0.025555597    -4.114249    1.2879712  1010000 
 1081000   0.85850037   -4.1144499   -4.1144499   -2.8267007  0.019675799   -4.1144499    1.2877493  1010000 
 1082000   0.85762832   -4.1126946   -4.1126946   -2.8262534  0.025212054   -4.1126946    1.2864412  1010000 
 1083000   0.85684894   -4.1114512   -4.1114512   -2.8261791  0.021829645   -4.1114512    1.2852721  1010000 
 1084000   0.85803313   -4.1128122   -4.1128122   -2.8257637  0.019692165   -4.1128122    1.2870484  1010000 
 1085000   0.85716835   -4.1109785   -4.1109785   -2.8252273  0.025241286   -4.1109785    1.2857512  1010000 
 1086000   0.85751074   -4.1119477   -4.1119477   -2.8256829  0.018741497   -4.1119477    1.2862648  1010000 
 1087000   0.85726775   -4.1108984   -4.1108984   -2.8249981  0.022368628   -4.1108984    1.2859003  1010000 
 1088000   0.85806199   -4.1120404   -4.1120404   -2.8249487  0.017581619   -4.1120404    1.2870917  1010000 
 1089000   0.85832464   -4.1118554   -4.1118554   -2.8243697  0.020254084   -4.1118554    1.2874857  1010000 
 1090000   0.85672507   -4.1095204   -4.1095204   -2.8244341  0.025475968   -4.1095204    1.2850863  1010000 
 1091000   0.85781097   -4.1107213   -4.1107213   -2.8240062  0.019496387   -4.1107213    1.2867152  1010000 
 1092000   0.85718005   -4.1105639   -4.1105639   -2.8247951  0.018335065   -4.1105639    1.2857688  1010000 
 1093000   0.85755252   -4.1109445   -4.1109445    -2.824617  0.017047625   -4.1109445    1.2863275  1010000 
 1094000   0.85741244    -4.111234    -4.111234   -2.8251166  0.019088218    -4.111234    1.2861174  1010000 
 1095000   0.85764827   -4.1111605   -4.1111605   -2.8246893  0.021987661   -4.1111605    1.2864711  1010000 
 1096000   0.85813226   -4.1122465   -4.1122465   -2.8250494  0.019153955   -4.1122465    1.2871971  1010000 
 1097000   0.85844733   -4.1124088   -4.1124088   -2.8247391   0.02079818   -4.1124088    1.2876697  1010000 
 1098000   0.85722119   -4.1117851   -4.1117851   -2.8259546  0.022644016   -4.1117851    1.2858305  1010000 
 1099000   0.85857207   -4.1114197   -4.1114197   -2.8235629  0.024074579   -4.1114197    1.2878568  1010000 
 1100000   0.85916106   -4.1124501   -4.1124501   -2.8237098  0.025412741   -4.1124501    1.2887403  1010000 
 1101000   0.85859435   -4.1120808   -4.1120808   -2.8241906  0.028191846   -4.1120808    1.2878902  1010000 
 1102000   0.85894075   -4.1117469   -4.1117469    -2.823337  0.027769224   -4.1117469    1.2884099  1010000 
 1103000   0.86009154   -4.1138229   -4.1138229   -2.8236869  0.026961812   -4.1138229     1.290136  1010000 
 1104000   0.86074257   -4.1138995   -4.1138995   -2.8227869  0.025831673   -4.1138995    1.2911126  1010000 
 1105000   0.86018283   -4.1126119   -4.1126119    -2.822339  0.031917453   -4.1126119     1.290273  1010000 
 1106000   0.86034186   -4.1135526   -4.1135526   -2.8230411  0.030205327   -4.1135526    1.2905115  1010000 
 1107000   0.86041551   -4.1135339   -4.1135339    -2.822912  0.029744908   -4.1135339     1.290622  1010000 
 1108000   0.86031942   -4.1129959   -4.1129959    -2.822518  0.029132444   -4.1129959    1.2904779  1010000 
 1109000   0.86059056   -4.1128854   -4.1128854   -2.8220009  0.026797737   -4.1128854    1.2908846  1010000 
 1110000   0.85900319   -4.1109509   -4.1109509   -2.8224474  0.030199484   -4.1109509    1.2885035  1010000 
 1111000   0.85877065   -4.1105086   -4.1105086   -2.8223539  0.023807872   -4.1105086    1.2881547  1010000 
 1112000   0.85902619   -4.1103875   -4.1103875   -2.8218495  0.026539364   -4.1103875     1.288538  1010000 
 1113000    0.8587252   -4.1100934   -4.1100934   -2.8220069  0.025089471   -4.1100934    1.2880865  1010000 
 1114000    0.8582739   -4.1093149   -4.1093149   -2.8219053   0.02369931   -4.1093149    1.2874096  1010000 
 1115000   0.86010151   -4.1116271   -4.1116271   -2.8214762  0.018673957   -4.1116271     1.290151  1010000 
 1116000   0.85906386   -4.1102511   -4.1102511   -2.8216566   0.01893825   -4.1102511    1.2885945  1010000 
 1117000   0.85835198   -4.1087589   -4.1087589   -2.8212322  0.024110451   -4.1087589    1.2875267  1010000 
 1118000   0.85823425   -4.1081818   -4.1081818   -2.8208317  0.023110354   -4.1081818    1.2873501  1010000 
 1119000   0.85788678   -4.1074994   -4.1074994   -2.8206705  0.023209129   -4.1074994    1.2868289  1010000 
 1120000   0.85866858   -4.1082196   -4.1082196   -2.8202181  0.016056807   -4.1082196    1.2880016  1010000 
 1121000   0.85683406   -4.1056987   -4.1056987   -2.8204489  0.017185336   -4.1056987    1.2852498  1010000 
 1122000   0.85767246   -4.1063458   -4.1063458   -2.8198384  0.021710629   -4.1063458    1.2865074  1010000 
 1123000    0.8577402   -4.1059488   -4.1059488   -2.8193398  0.022081044   -4.1059488     1.286609  1010000 
 1124000   0.85799803   -4.1061412   -4.1061412   -2.8191454  0.020974067   -4.1061412    1.2869958  1010000 
 1125000   0.85832496   -4.1066624   -4.1066624   -2.8191762  0.023023277   -4.1066624    1.2874862  1010000 
 1126000   0.85910438   -4.1068354   -4.1068354   -2.8181801  0.019837329   -4.1068354    1.2886553  1010000 
 1127000   0.85927115   -4.1068035   -4.1068035   -2.8178981  0.023061005   -4.1068035    1.2889054  1010000 
 1128000    0.8599406   -4.1073216   -4.1073216    -2.817412  0.019232029   -4.1073216    1.2899096  1010000 
 1129000   0.85990935    -4.106578    -4.106578   -2.8167153  0.021902762    -4.106578    1.2898627  1010000 
 1130000   0.85984255   -4.1071472   -4.1071472   -2.8173847  0.018408465   -4.1071472    1.2897625  1010000 
 1131000   0.85926411   -4.1061358   -4.1061358   -2.8172409  0.028112658   -4.1061358    1.2888949  1010000 
 1132000   0.85958667   -4.1064343   -4.1064343   -2.8170556  0.023107696   -4.1064343    1.2893787  1010000 
 1133000   0.85987041   -4.1067162   -4.1067162   -2.8169119   0.02768527   -4.1067162    1.2898043  1010000 
 1134000   0.86111124   -4.1084653   -4.1084653   -2.8167997  0.023914183   -4.1084653    1.2916656  1010000 
 1135000    0.8601054   -4.1068131   -4.1068131   -2.8166563  0.025820811   -4.1068131    1.2901568  1010000 
 1136000   0.86039194   -4.1078122   -4.1078122   -2.8172256  0.025777107   -4.1078122    1.2905866  1010000 
 1137000   0.86038784   -4.1065195   -4.1065195    -2.815939  0.029528318   -4.1065195    1.2905805  1010000 
 1138000   0.86118354   -4.1081997   -4.1081997   -2.8164257  0.022276264   -4.1081997     1.291774  1010000 
 1139000   0.85981653   -4.1064455   -4.1064455    -2.816722  0.024788552   -4.1064455    1.2897235  1010000 
 1140000    0.8605148   -4.1075032   -4.1075032   -2.8167323  0.024854874   -4.1075032    1.2907709  1010000 
 1141000   0.86005567   -4.1070254   -4.1070254   -2.8169432  0.023863031   -4.1070254    1.2900822  1010000 
 1142000   0.86021768    -4.106613    -4.106613   -2.8162878  0.027046093    -4.106613    1.2903252  1010000 
 1143000    0.8599471    -4.106565    -4.106565   -2.8166457   0.02444062    -4.106565    1.2899194  1010000 
 1144000   0.85959589   -4.1058064   -4.1058064   -2.8164138   0.02602899   -4.1058064    1.2893926  1010000 
 1145000   0.85996333     -4.10604     -4.10604   -2.8160963  0.026028898     -4.10604    1.2899437  1010000 
 1146000   0.86053703   -4.1065445   -4.1065445   -2.8157402  0.022742369   -4.1065445    1.2908043  1010000 
 1147000   0.86043329   -4.1061152   -4.1061152   -2.8154666  0.021882459   -4.1061152    1.2906487  1010000 
 1148000   0.85955929   -4.1045862   -4.1045862   -2.8152486  0.029597041   -4.1045862    1.2893377  1010000 
 1149000   0.86006675   -4.1052803   -4.1052803   -2.8151815  0.024874741   -4.1052803    1.2900989  1010000 
 1150000   0.86016594   -4.1052008   -4.1052008   -2.8149532  0.021270549   -4.1052008    1.2902476  1010000 
 1151000   0.86089614   -4.1051193   -4.1051193   -2.8137764  0.018963263   -4.1051193    1.2913429  1010000 
 1152000   0.86004007   -4.1036999   -4.1036999   -2.8136411  0.023921774   -4.1036999    1.2900588  1010000 
 1153000   0.85933973   -4.1034794   -4.1034794   -2.8144711  0.021878952   -4.1034794    1.2890083  1010000 
 1154000   0.86034805   -4.1041976   -4.1041976   -2.8136768  0.021879635   -4.1041976    1.2905208  1010000 
 1155000   0.85934925   -4.1032708   -4.1032708   -2.8142482   0.01958912   -4.1032708    1.2890226  1010000 
 1156000   0.85994235   -4.1032281   -4.1032281   -2.8133158  0.021134034   -4.1032281    1.2899123  1010000 
 1157000    0.8604128   -4.1023607   -4.1023607   -2.8117428  0.017505016   -4.1023607    1.2906179  1010000 
 1158000   0.86076901   -4.1027095   -4.1027095   -2.8115573    0.0181419   -4.1027095    1.2911522  1010000 
 1159000    0.8598272   -4.1009005   -4.1009005    -2.811161  0.024371972   -4.1009005    1.2897395  1010000 
 1160000   0.86057174   -4.1019157   -4.1019157   -2.8110593  0.022445585   -4.1019157    1.2908563  1010000 
 1161000   0.86115074   -4.1029051   -4.1029051   -2.8111803  0.024691946   -4.1029051    1.2917248  1010000 
 1162000   0.86020022   -4.1023428   -4.1023428   -2.8120438   0.02607549   -4.1023428     1.290299  1010000 
 1163000   0.85978713   -4.1013379   -4.1013379   -2.8116584  0.025723678   -4.1013379    1.2896794  1010000 
 1164000   0.86060958   -4.1020955   -4.1020955   -2.8111824  0.019103164   -4.1020955    1.2909131  1010000 
 1165000   0.85990295   -4.1010673   -4.1010673   -2.8112142  0.019965352   -4.1010673    1.2898531  1010000 
 1166000   0.86040279   -4.1011741   -4.1011741   -2.8105712  0.019548528   -4.1011741    1.2906029  1010000 
 1167000   0.86021642   -4.1011233   -4.1011233      -2.8108  0.021219745   -4.1011233    1.2903234  1010000 
 1168000   0.85959634   -4.1004607   -4.1004607   -2.8110675  0.019228335   -4.1004607    1.2893932  1010000 
 1169000   0.86054769   -4.1022644   -4.1022644   -2.8114442  0.019639154   -4.1022644    1.2908203  1010000 
 1170000    0.8597806   -4.1001218   -4.1001218   -2.8104522  0.026532575   -4.1001218    1.2896696  1010000 
 1171000    0.8600515   -4.1009906   -4.1009906   -2.8109147   0.02410863   -4.1009906     1.290076  1010000 
 1172000   0.86095921    -4.101409    -4.101409   -2.8099715  0.024775636    -4.101409    1.2914375  1010000 
 1173000   0.86087964   -4.1016967   -4.1016967   -2.8103785  0.026029552   -4.1016967    1.2913182  1010000 
 1174000   0.86043613   -4.1008224   -4.1008224   -2.8101695  0.026539279   -4.1008224    1.2906529  1010000 
 1175000    0.8614819   -4.1022492   -4.1022492   -2.8100276  0.021843865   -4.1022492    1.2922216  1010000 
 1176000   0.86106415   -4.1021359   -4.1021359    -2.810541  0.021587589   -4.1021359    1.2915949  1010000 
 1177000   0.86088427   -4.1014051   -4.1014051   -2.8100799  0.028115519   -4.1014051    1.2913251  1010000 
 1178000   0.86105883   -4.1016353   -4.1016353   -2.8100484  0.022083124   -4.1016353     1.291587  1010000 
 1179000   0.86081481   -4.1012647   -4.1012647   -2.8100438  0.024739977   -4.1012647    1.2912209  1010000 
 1180000   0.86109262   -4.1018149   -4.1018149   -2.8101773  0.024240115   -4.1018149    1.2916376  1010000 
 1181000     0.861093   -4.1021002   -4.1021002    -2.810462  0.027227782   -4.1021002    1.2916382  1010000 
 1182000   0.86216479   -4.1027875   -4.1027875   -2.8095416  0.026537431   -4.1027875    1.2932459  1010000 
 1183000   0.86151666   -4.1019925   -4.1019925   -2.8097188  0.026768653   -4.1019925    1.2922737  1010000 
 1184000   0.86137698    -4.102827    -4.102827   -2.8107628  0.022205644    -4.102827    1.2920642  1010000 
 1185000   0.86190703   -4.1026448   -4.1026448   -2.8097855  0.021145607   -4.1026448    1.2928593  1010000 
 1186000   0.86185132   -4.1025211   -4.1025211   -2.8097454  0.028034592   -4.1025211    1.2927757  1010000 
 1187000   0.86178877   -4.1015205   -4.1015205   -2.8088386   0.02496084   -4.1015205    1.2926819  1010000 
 1188000   0.86153714   -4.1008464   -4.1008464   -2.8085419  0.024948721   -4.1008464    1.2923044  1010000 
 1189000   0.86210375    -4.101179    -4.101179   -2.8080247  0.021646324    -4.101179    1.2931543  1010000 
 1190000   0.86158232   -4.1015587   -4.1015587   -2.8091865  0.022942316   -4.1015587    1.2923722  1010000 
 1191000   0.86200963   -4.1016227   -4.1016227   -2.8086095  0.025726504   -4.1016227    1.2930132  1010000 
 1192000   0.86262146   -4.1020695   -4.1020695   -2.8081386  0.023408056   -4.1020695    1.2939309  1010000 
 1193000   0.86153643   -4.1005197   -4.1005197   -2.8082163  0.026284731   -4.1005197    1.2923034  1010000 
 1194000   0.86164867   -4.1004048   -4.1004048   -2.8079331  0.022204386   -4.1004048    1.2924717  1010000 
 1195000    0.8615113   -4.0999021   -4.0999021   -2.8076364  0.023918369   -4.0999021    1.2922657  1010000 
 1196000   0.86051293   -4.0986963   -4.0986963   -2.8079282  0.025579281   -4.0986963    1.2907681  1010000 
 1197000   0.86159266   -4.0993925   -4.0993925   -2.8070048  0.022011372   -4.0993925    1.2923877  1010000 
 1198000   0.86147665   -4.0990462   -4.0990462   -2.8068325  0.020700821   -4.0990462    1.2922137  1010000 
 1199000   0.86217174   -4.0994465   -4.0994465   -2.8061902  0.023709629   -4.0994465    1.2932563  1010000 
 1200000   0.86212563   -4.0987767   -4.0987767   -2.8055895  0.024629882   -4.0987767    1.2931872  1010000 
 1201000   0.86195676   -4.0989822   -4.0989822   -2.8060483  0.024594407   -4.0989822    1.2929339  1010000 
 1202000   0.86130336   -4.0974885   -4.0974885   -2.8055347  0.021727245   -4.0974885    1.2919538  1010000 
 1203000   0.86098873   -4.0958238   -4.0958238    -2.804342  0.024886822   -4.0958238    1.2914818  1010000 
 1204000   0.86187267   -4.0975738   -4.0975738   -2.8047661  0.020760003   -4.0975738    1.2928077  1010000 
 1205000   0.86194916   -4.0972313   -4.0972313   -2.8043089  0.022179773   -4.0972313    1.2929225  1010000 
 1206000      0.86108   -4.0963606   -4.0963606   -2.8047419  0.025119936   -4.0963606    1.2916187  1010000 
 1207000   0.86105132   -4.0958569   -4.0958569   -2.8042812  0.026952544   -4.0958569    1.2915757  1010000 
 1208000   0.86125642   -4.0969591   -4.0969591   -2.8050758  0.020049044   -4.0969591    1.2918834  1010000 
 1209000   0.86159243    -4.096548    -4.096548   -2.8041607  0.022800279    -4.096548    1.2923874  1010000 
 1210000   0.86259593   -4.0977867   -4.0977867   -2.8038941   0.01845538   -4.0977867    1.2938926  1010000 
 1211000   0.86171663    -4.096771    -4.096771   -2.8041973  0.022810491    -4.096771    1.2925737  1010000 
 1212000   0.86217789   -4.0968206   -4.0968206   -2.8035551  0.022740961   -4.0968206    1.2932655  1010000 
 1213000    0.8619899   -4.0962547   -4.0962547   -2.8032712  0.022906484   -4.0962547    1.2929836  1010000 
 1214000   0.86212868   -4.0964713   -4.0964713   -2.8032795  0.024412018   -4.0964713    1.2931917  1010000 
 1215000   0.86183754   -4.0967049   -4.0967049   -2.8039498  0.022928063   -4.0967049     1.292755  1010000 
 1216000   0.86176813   -4.0967972   -4.0967972   -2.8041463  0.021571324   -4.0967972    1.2926509  1010000 
 1217000   0.86270573   -4.0977717   -4.0977717   -2.8037144  0.020393635   -4.0977717    1.2940573  1010000 
 1218000   0.86235323   -4.0967532   -4.0967532   -2.8032247  0.024010146   -4.0967532    1.2935286  1010000 
 1219000   0.86206878   -4.0960462   -4.0960462   -2.8029443  0.022764022   -4.0960462    1.2931019  1010000 
 1220000   0.86283724   -4.0967116   -4.0967116    -2.802457  0.021854082   -4.0967116    1.2942546  1010000 
 1221000   0.86247569   -4.0956285   -4.0956285   -2.8019163  0.022984806   -4.0956285    1.2937123  1010000 
 1222000    0.8626091   -4.0953486   -4.0953486   -2.8014362   0.02036847   -4.0953486    1.2939124  1010000 
 1223000   0.86314407   -4.0961689   -4.0961689   -2.8014541  0.021758234   -4.0961689    1.2947148  1010000 
 1224000   0.86236038   -4.0949019   -4.0949019   -2.8013626  0.025539866   -4.0949019    1.2935393  1010000 
 1225000    0.8624175   -4.0947183   -4.0947183   -2.8010933  0.025789965   -4.0947183     1.293625  1010000 
 1226000   0.86255003   -4.0948283   -4.0948283   -2.8010045  0.023762494   -4.0948283    1.2938238  1010000 
 1227000   0.86278549   -4.0946563   -4.0946563   -2.8004794  0.023227449   -4.0946563    1.2941769  1010000 
 1228000    0.8628835   -4.0939668   -4.0939668   -2.7996428   0.02551007   -4.0939668     1.294324  1010000 
 1229000   0.86332445   -4.0944136   -4.0944136   -2.7994282  0.022438571   -4.0944136    1.2949854  1010000 
 1230000   0.86317212   -4.0940971   -4.0940971   -2.7993402  0.026414832   -4.0940971    1.2947569  1010000 
 1231000   0.86405599    -4.095603    -4.095603   -2.7995203  0.024063102    -4.095603    1.2960827  1010000 
 1232000   0.86336678   -4.0944424   -4.0944424   -2.7993935  0.023087649   -4.0944424    1.2950489  1010000 
 1233000   0.86288305   -4.0937115   -4.0937115   -2.7993882  0.023460794   -4.0937115    1.2943233  1010000 
 1234000   0.86292707   -4.0936203   -4.0936203    -2.799231  0.025154115   -4.0936203    1.2943893  1010000 
 1235000   0.86331154   -4.0929199   -4.0929199   -2.7979539  0.022485007   -4.0929199     1.294966  1010000 
 1236000   0.86279855    -4.093018    -4.093018   -2.7988214   0.02244826    -4.093018    1.2941965  1010000 
 1237000   0.86129267   -4.0908969   -4.0908969   -2.7989592   0.02459457   -4.0908969    1.2919377  1010000 
 1238000   0.86216104   -4.0915706   -4.0915706   -2.7983303  0.017994037   -4.0915706    1.2932403  1010000 
 1239000   0.86179387   -4.0901309   -4.0901309   -2.7974413  0.025091479   -4.0901309    1.2926895  1010000 
 1240000   0.86254392   -4.0908461   -4.0908461   -2.7970315  0.024024687   -4.0908461    1.2938146  1010000 
 1241000   0.86314996   -4.0914758   -4.0914758   -2.7967521  0.021802055   -4.0914758    1.2947237  1010000 
 1242000   0.86230526   -4.0909397   -4.0909397   -2.7974831  0.022151033   -4.0909397    1.2934566  1010000 
 1243000   0.86232357   -4.0910978   -4.0910978   -2.7976137  0.023717072   -4.0910978    1.2934841  1010000 
 1244000   0.86296395   -4.0920592   -4.0920592   -2.7976146   0.02096899   -4.0920592    1.2944446  1010000 
 1245000   0.86073302   -4.0895128   -4.0895128   -2.7984146  0.023488917   -4.0895128    1.2910982  1010000 
 1246000   0.86168439    -4.089927    -4.089927   -2.7974017  0.024132662    -4.089927    1.2925253  1010000 
 1247000   0.86154615   -4.0901925   -4.0901925   -2.7978746  0.021555263   -4.0901925    1.2923179  1010000 
 1248000   0.86183952   -4.0907875   -4.0907875   -2.7980295  0.016041229   -4.0907875     1.292758  1010000 
 1249000   0.86284096    -4.091905    -4.091905   -2.7976448  0.019450362    -4.091905    1.2942602  1010000 
 1250000   0.86333623   -4.0917081   -4.0917081    -2.796705   0.01958949   -4.0917081    1.2950031  1010000 
 1251000   0.86327578   -4.0916705   -4.0916705   -2.7967582    0.0235779   -4.0916705    1.2949124  1010000 
 1252000   0.86283414   -4.0911295   -4.0911295   -2.7968796  0.028499144   -4.0911295    1.2942499  1010000 
 1253000   0.86335739   -4.0926276   -4.0926276   -2.7975928  0.026964311   -4.0926276    1.2950348  1010000 
 1254000   0.86362713   -4.0913193   -4.0913193   -2.7958798  0.031260789   -4.0913193    1.2954394  1010000 
 1255000   0.86496517   -4.0927258   -4.0927258   -2.7952793  0.028602281   -4.0927258    1.2974465  1010000 
 1256000   0.86516895    -4.093019    -4.093019   -2.7952668  0.029576547    -4.093019    1.2977521  1010000 
 1257000   0.86548382   -4.0935149   -4.0935149   -2.7952905   0.02594884   -4.0935149    1.2982244  1010000 
 1258000   0.86412855   -4.0905563   -4.0905563   -2.7943648  0.030797163   -4.0905563    1.2961915  1010000 
 1259000   0.86492685   -4.0916425   -4.0916425   -2.7942535  0.023544925   -4.0916425     1.297389  1010000 
 1260000   0.86511082   -4.0917376   -4.0917376   -2.7940727  0.026726465   -4.0917376    1.2976649  1010000 
 1261000   0.86397644   -4.0911033   -4.0911033     -2.79514   0.03064461   -4.0911033    1.2959634  1010000 
 1262000   0.86464686   -4.0915478   -4.0915478   -2.7945788  0.024657588   -4.0915478     1.296969  1010000 
 1263000   0.86390559   -4.0902828   -4.0902828   -2.7944257  0.028294615   -4.0902828    1.2958571  1010000 
 1264000   0.86360759   -4.0898341   -4.0898341   -2.7944239  0.025598566   -4.0898341    1.2954101  1010000 
 1265000    0.8638562   -4.0902227   -4.0902227   -2.7944397  0.023168484   -4.0902227     1.295783  1010000 
 1266000   0.86209468   -4.0871338   -4.0871338   -2.7939931  0.022364712   -4.0871338    1.2931407  1010000 
 1267000   0.86355991   -4.0885606   -4.0885606    -2.793222  0.021549312   -4.0885606    1.2953386  1010000 
 1268000   0.86351522   -4.0878118   -4.0878118   -2.7925403  0.018951934   -4.0878118    1.2952715  1010000 
 1269000   0.86273509   -4.0869098   -4.0869098   -2.7928084  0.021879485   -4.0869098    1.2941014  1010000 
 1270000   0.86319889   -4.0872112   -4.0872112   -2.7924141  0.020790048   -4.0872112    1.2947971  1010000 
 1271000   0.86297972   -4.0868871   -4.0868871   -2.7924188  0.022209475   -4.0868871    1.2944683  1010000 
 1272000   0.86281657   -4.0866213   -4.0866213   -2.7923978  0.020073555   -4.0866213    1.2942236  1010000 
 1273000   0.86364362   -4.0874528   -4.0874528   -2.7919886  0.021819981   -4.0874528    1.2954641  1010000 
 1274000   0.86394577   -4.0864261   -4.0864261   -2.7905088  0.022389094   -4.0864261    1.2959174  1010000 
 1275000   0.86407207   -4.0864524   -4.0864524   -2.7903456  0.022071676   -4.0864524    1.2961068  1010000 
 1276000   0.86394329   -4.0866139   -4.0866139   -2.7907003  0.020801255   -4.0866139    1.2959136  1010000 
 1277000   0.86394944   -4.0858937   -4.0858937   -2.7899708  0.021706081   -4.0858937    1.2959229  1010000 
 1278000   0.86473224   -4.0863541   -4.0863541   -2.7892571  0.019600683   -4.0863541    1.2970971  1010000 
 1279000    0.8641131   -4.0851796   -4.0851796   -2.7890112  0.023036488   -4.0851796    1.2961684  1010000 
 1280000   0.86407849   -4.0848625   -4.0848625   -2.7887461  0.022140105   -4.0848625    1.2961164  1010000 
 1281000   0.86433228    -4.084439    -4.084439   -2.7879419  0.024394409    -4.084439    1.2964971  1010000 
 1282000   0.86503563   -4.0858172   -4.0858172   -2.7882651  0.025550403   -4.0858172    1.2975522  1010000 
 1283000   0.86406202   -4.0844342   -4.0844342   -2.7883425  0.030429685   -4.0844342    1.2960917  1010000 
 1284000   0.86479759   -4.0855878   -4.0855878   -2.7883927  0.026635102   -4.0855878    1.2971951  1010000 
 1285000   0.86486169   -4.0851542   -4.0851542    -2.787863  0.025761738   -4.0851542    1.2972912  1010000 
 1286000   0.86494106   -4.0849635   -4.0849635   -2.7875531  0.026609326   -4.0849635    1.2974103  1010000 
 1287000   0.86549557   -4.0862831   -4.0862831    -2.788041  0.021235124   -4.0862831    1.2982421  1010000 
 1288000   0.86540297   -4.0862319   -4.0862319   -2.7881287  0.021599503   -4.0862319    1.2981032  1010000 
 1289000   0.86424105   -4.0848029   -4.0848029   -2.7884426  0.024816415   -4.0848029    1.2963603  1010000 
 1290000   0.86453238    -4.084591    -4.084591   -2.7877937  0.023946476    -4.084591    1.2967973  1010000 
 1291000   0.86384223   -4.0839655   -4.0839655   -2.7882034  0.022411126   -4.0839655    1.2957621  1010000 
 1292000   0.86482504   -4.0844837   -4.0844837   -2.7872474  0.019646844   -4.0844837    1.2972363  1010000 
 1293000   0.86424446   -4.0829617   -4.0829617   -2.7865963   0.02346795   -4.0829617    1.2963654  1010000 
 1294000   0.86523538   -4.0844375   -4.0844375   -2.7865858  0.019701208   -4.0844375    1.2978518  1010000 
 1295000   0.86457579   -4.0831608   -4.0831608   -2.7862984  0.027572134   -4.0831608    1.2968624  1010000 
 1296000   0.86539975   -4.0837554   -4.0837554   -2.7856571   0.02887207   -4.0837554    1.2980983  1010000 
 1297000   0.86579372   -4.0839136   -4.0839136   -2.7852243  0.028130245   -4.0839136    1.2986893  1010000 
 1298000   0.86511026   -4.0828791   -4.0828791    -2.785215  0.027456674   -4.0828791    1.2976641  1010000 
 1299000   0.86471589   -4.0813329   -4.0813329   -2.7842603  0.024503219   -4.0813329    1.2970726  1010000 
 1300000   0.86560541   -4.0827164   -4.0827164   -2.7843095  0.024596586   -4.0827164    1.2984068  1010000 
 1301000   0.86462847    -4.081578    -4.081578   -2.7846366  0.023954733    -4.081578    1.2969414  1010000 
 1302000   0.86484908   -4.0818054   -4.0818054   -2.7845331  0.021347852   -4.0818054    1.2972723  1010000 
 1303000   0.86534978     -4.08222     -4.08222   -2.7841967  0.020346088     -4.08222    1.2980234  1010000 
 1304000   0.86459191   -4.0811959   -4.0811959   -2.7843093  0.021182763   -4.0811959    1.2968866  1010000 
 1305000   0.86489417   -4.0803258   -4.0803258   -2.7829858  0.025560779   -4.0803258      1.29734  1010000 
 1306000   0.86552963    -4.080896    -4.080896   -2.7826029  0.023618829    -4.080896    1.2982932  1010000 
 1307000   0.86480933    -4.080462    -4.080462   -2.7832493  0.024580438    -4.080462    1.2972127  1010000 
 1308000    0.8652116   -4.0801904   -4.0801904   -2.7823743  0.021929692   -4.0801904    1.2978161  1010000 
 1309000   0.86478628   -4.0795591   -4.0795591    -2.782381  0.021803126   -4.0795591    1.2971781  1010000 
 1310000   0.86535138   -4.0793451   -4.0793451   -2.7813193  0.020303049   -4.0793451    1.2980258  1010000 
 1311000   0.86433024     -4.07838     -4.07838   -2.7818859   0.02715427     -4.07838    1.2964941  1010000 
 1312000   0.86490835   -4.0782213   -4.0782213     -2.78086  0.025127476   -4.0782213    1.2973612  1010000 
 1313000   0.86481002   -4.0782289   -4.0782289   -2.7810152  0.022233564   -4.0782289    1.2972137  1010000 
 1314000    0.8641324   -4.0778633   -4.0778633    -2.781666  0.020402132   -4.0778633    1.2961973  1010000 
 1315000   0.86481936   -4.0780288   -4.0780288    -2.780801  0.022119229   -4.0780288    1.2972278  1010000 
 1316000    0.8657273   -4.0783565   -4.0783565   -2.7797668  0.024241907   -4.0783565    1.2985897  1010000 
 1317000    0.8645853   -4.0764777   -4.0764777    -2.779601   0.02206411   -4.0764777    1.2968767  1010000 
 1318000   0.86494148   -4.0775161   -4.0775161   -2.7801052  0.023567107   -4.0775161    1.2974109  1010000 
 1319000   0.86507755   -4.0772994   -4.0772994   -2.7796844  0.021794169   -4.0772994     1.297615  1010000 
 1320000   0.86570325   -4.0780514   -4.0780514   -2.7794978   0.02180265   -4.0780514    1.2985536  1010000 
 1321000   0.86563705   -4.0774268   -4.0774268   -2.7789725   0.02471397   -4.0774268    1.2984543  1010000 
 1322000    0.8666441   -4.0779365   -4.0779365   -2.7779717     0.024712   -4.0779365    1.2999649  1010000 
 1323000    0.8665457   -4.0780418   -4.0780418   -2.7782245  0.026585805   -4.0780418    1.2998173  1010000 
 1324000   0.86665417   -4.0787004   -4.0787004   -2.7787204  0.024619811   -4.0787004      1.29998  1010000 
 1325000   0.86570935   -4.0773925   -4.0773925   -2.7788298  0.028017482   -4.0773925    1.2985627  1010000 
 1326000   0.86624118   -4.0782992   -4.0782992   -2.7789387  0.025612975   -4.0782992    1.2993605  1010000 
 1327000   0.86555456   -4.0770236   -4.0770236    -2.778693  0.025547734   -4.0770236    1.2983306  1010000 
 1328000   0.86609971   -4.0775352   -4.0775352   -2.7783869  0.026416055   -4.0775352    1.2991483  1010000 
 1329000   0.86489667   -4.0763634   -4.0763634   -2.7790197  0.024150115   -4.0763634    1.2973437  1010000 
 1330000   0.86604489   -4.0781685   -4.0781685   -2.7791024  0.021354769   -4.0781685     1.299066  1010000 
 1331000   0.86612831   -4.0778511   -4.0778511   -2.7786599  0.022656205   -4.0778511    1.2991912  1010000 
 1332000   0.86541645   -4.0761307   -4.0761307   -2.7780073  0.026707116   -4.0761307    1.2981234  1010000 
 1333000   0.86569992    -4.076881    -4.076881   -2.7783324  0.023497804    -4.076881    1.2985486  1010000 
 1334000   0.86593901   -4.0769988   -4.0769988   -2.7780916  0.025050406   -4.0769988    1.2989072  1010000 
 1335000   0.86622714   -4.0770177   -4.0770177   -2.7776783  0.025846922   -4.0770177    1.2993394  1010000 
 1336000    0.8661019   -4.0760931   -4.0760931   -2.7769416  0.026811563   -4.0760931    1.2991516  1010000 
 1337000   0.86678035   -4.0772966   -4.0772966   -2.7771273  0.027223367   -4.0772966    1.3001692  1010000 
 1338000   0.86605726    -4.075687    -4.075687   -2.7766024  0.024237502    -4.075687    1.2990846  1010000 
 1339000   0.86594092   -4.0760269   -4.0760269   -2.7771168  0.023908025   -4.0760269    1.2989101  1010000 
 1340000   0.86556829   -4.0756261   -4.0756261   -2.7772749  0.025466098   -4.0756261    1.2983511  1010000 
 1341000   0.86577278   -4.0759836   -4.0759836   -2.7773257  0.025964441   -4.0759836    1.2986579  1010000 
 1342000   0.86568822    -4.076083    -4.076083    -2.777552  0.021548828    -4.076083     1.298531  1010000 
 1343000   0.86580902   -4.0757295   -4.0757295   -2.7770172  0.022399239   -4.0757295    1.2987122  1010000 
 1344000   0.86542492   -4.0750708   -4.0750708   -2.7769347  0.024720052   -4.0750708    1.2981361  1010000 
 1345000    0.8656507   -4.0751925   -4.0751925   -2.7767178  0.024577877   -4.0751925    1.2984748  1010000 
 1346000    0.8664858    -4.076167    -4.076167   -2.7764396  0.023701343    -4.076167    1.2997274  1010000 
 1347000   0.86643358   -4.0753222   -4.0753222   -2.7756731  0.024113124   -4.0753222    1.2996491  1010000 
 1348000   0.86615228   -4.0745377   -4.0745377   -2.7753106  0.028396621   -4.0745377    1.2992271  1010000 
 1349000     0.867273   -4.0753447   -4.0753447   -2.7744365  0.026457957   -4.0753447    1.3009082  1010000 
 1350000   0.86742981   -4.0753275   -4.0753275   -2.7741841  0.024421962   -4.0753275    1.3011434  1010000 
 1351000   0.86696649   -4.0745699   -4.0745699   -2.7741214  0.028332278   -4.0745699    1.3004485  1010000 
 1352000   0.86663769   -4.0738161   -4.0738161   -2.7738609  0.024097319   -4.0738161    1.2999552  1010000 
 1353000   0.86693812   -4.0745872   -4.0745872   -2.7741813  0.026644063   -4.0745872    1.3004059  1010000 
 1354000   0.86682423   -4.0746719   -4.0746719   -2.7744368  0.026819507   -4.0746719    1.3002351  1010000 
 1355000   0.86627319    -4.073367    -4.073367   -2.7739585  0.028369069    -4.073367    1.2994085  1010000 
 1356000   0.86702316   -4.0746111   -4.0746111   -2.7740776  0.024196795   -4.0746111    1.3005335  1010000 
 1357000   0.86686197   -4.0735731   -4.0735731   -2.7732814  0.023022036   -4.0735731    1.3002917  1010000 
 1358000   0.86600691   -4.0724198   -4.0724198   -2.7734107  0.022962069   -4.0724198    1.2990091  1010000 
 1359000   0.86561909    -4.072195    -4.072195   -2.7737677  0.022735002    -4.072195    1.2984274  1010000 
 1360000   0.86576907   -4.0719373   -4.0719373    -2.773285  0.026728047   -4.0719373    1.2986523  1010000 
 1361000    0.8663409   -4.0724724   -4.0724724   -2.7729623  0.021774398   -4.0724724    1.2995101  1010000 
 1362000   0.86599292   -4.0720273   -4.0720273   -2.7730392  0.022268613   -4.0720273    1.2989881  1010000 
 1363000   0.86618238   -4.0720199   -4.0720199   -2.7727476  0.023531691   -4.0720199    1.2992723  1010000 
 1364000   0.86562832   -4.0716893   -4.0716893   -2.7732481  0.024153616   -4.0716893    1.2984412  1010000 
 1365000   0.86647475   -4.0723013   -4.0723013   -2.7725905  0.022351419   -4.0723013    1.2997108  1010000 
 1366000   0.86617674   -4.0718971   -4.0718971   -2.7726333  0.024601375   -4.0718971    1.2992638  1010000 
 1367000    0.8665647   -4.0718787   -4.0718787   -2.7720329  0.022306621   -4.0718787    1.2998458  1010000 
 1368000   0.86709439   -4.0715926   -4.0715926   -2.7709523  0.022588294   -4.0715926    1.3006403  1010000 
 1369000    0.8671622   -4.0711718   -4.0711718   -2.7704297  0.024139592   -4.0711718     1.300742  1010000 
 1370000   0.86709235   -4.0708383   -4.0708383    -2.770201  0.024698508   -4.0708383    1.3006372  1010000 
 1371000    0.8679983   -4.0723719   -4.0723719   -2.7703757  0.024970608   -4.0723719    1.3019962  1010000 
 1372000   0.86815875    -4.072411    -4.072411   -2.7701742  0.026039713    -4.072411    1.3022368  1010000 
 1373000   0.86839383   -4.0727734   -4.0727734   -2.7701839  0.024047727   -4.0727734    1.3025895  1010000 
 1374000   0.86782181   -4.0715011   -4.0715011   -2.7697697  0.028049657   -4.0715011    1.3017314  1010000 
 1375000   0.86747422   -4.0708143   -4.0708143   -2.7696043  0.029581687   -4.0708143      1.30121  1010000 
 1376000   0.86768511   -4.0711442   -4.0711442   -2.7696178  0.026312964   -4.0711442    1.3015264  1010000 
 1377000   0.86738272   -4.0702737   -4.0702737   -2.7692009  0.026333858   -4.0702737    1.3010728  1010000 
 1378000   0.86725001    -4.070252    -4.070252   -2.7693782  0.023122232    -4.070252    1.3008737  1010000 
 1379000   0.86712703   -4.0701614   -4.0701614   -2.7694721  0.024416423   -4.0701614    1.3006893  1010000 
 1380000   0.86686236   -4.0704519   -4.0704519   -2.7701596   0.02282786   -4.0704519    1.3002923  1010000 
 1381000   0.86707863   -4.0702531   -4.0702531   -2.7696365  0.022999009   -4.0702531    1.3006167  1010000 
 1382000   0.86658098   -4.0697765   -4.0697765   -2.7699063  0.025836686   -4.0697765    1.2998702  1010000 
 1383000   0.86791175   -4.0714009   -4.0714009   -2.7695345  0.021716882   -4.0714009    1.3018663  1010000 
 1384000   0.86729251   -4.0705345   -4.0705345    -2.769597  0.017718661   -4.0705345    1.3009375  1010000 
 1385000   0.86743515   -4.0704273   -4.0704273   -2.7692758  0.021518827   -4.0704273    1.3011514  1010000 
 1386000   0.86728774     -4.07034     -4.07034   -2.7694097  0.021975611     -4.07034    1.3009303  1010000 
 1387000   0.86703366   -4.0698409   -4.0698409   -2.7692917  0.022798294   -4.0698409    1.3005492  1010000 
 1388000   0.86662396   -4.0680627   -4.0680627    -2.768128  0.025652515   -4.0680627    1.2999346  1010000 
 1389000   0.86705724   -4.0687548   -4.0687548   -2.7681703  0.022194229   -4.0687548    1.3005846  1010000 
 1390000   0.86755432   -4.0687664   -4.0687664   -2.7674362  0.022604598   -4.0687664    1.3013302  1010000 
 1391000   0.86847473   -4.0702404   -4.0702404   -2.7675296  0.020925654   -4.0702404    1.3027108  1010000 
 1392000   0.86795663   -4.0692847   -4.0692847   -2.7673511   0.02670663   -4.0692847    1.3019337  1010000 
 1393000   0.86915982   -4.0707809   -4.0707809   -2.7670425  0.023476999   -4.0707809    1.3037384  1010000 
 1394000   0.86911033   -4.0696846   -4.0696846   -2.7660204  0.026222464   -4.0696846    1.3036642  1010000 
 1395000   0.86859083   -4.0690367   -4.0690367   -2.7661518  0.027773651   -4.0690367     1.302885  1010000 
 1396000    0.8682703   -4.0674375   -4.0674375   -2.7650333  0.029925859   -4.0674375    1.3024042  1010000 
 1397000   0.86962931   -4.0693237   -4.0693237    -2.764881  0.024089132   -4.0693237    1.3044427  1010000 
 1398000   0.86934395   -4.0685977   -4.0685977   -2.7645831  0.024358357   -4.0685977    1.3040146  1010000 
 1399000   0.86887364   -4.0679457   -4.0679457   -2.7646365  0.026287171   -4.0679457    1.3033092  1010000 
 1400000    0.8689549   -4.0681064   -4.0681064   -2.7646753  0.026084828   -4.0681064    1.3034311  1010000 
 1401000   0.86905887   -4.0681203   -4.0681203   -2.7645333  0.021025266   -4.0681203     1.303587  1010000 
 1402000   0.86835853    -4.067103    -4.067103   -2.7645665  0.023398569    -4.067103    1.3025365  1010000 
 1403000   0.86891415   -4.0667011   -4.0667011   -2.7633311  0.025214111   -4.0667011    1.3033699  1010000 
 1404000   0.86937996   -4.0672609   -4.0672609   -2.7631922  0.025721728   -4.0672609    1.3040686  1010000 
 1405000    0.8681261   -4.0653028   -4.0653028   -2.7631149  0.031235795   -4.0653028    1.3021879  1010000 
 1406000   0.86851966   -4.0653922   -4.0653922    -2.762614  0.022003517   -4.0653922    1.3027782  1010000 
 1407000   0.86796503   -4.0649642   -4.0649642   -2.7630179  0.021812623   -4.0649642    1.3019463  1010000 
 1408000   0.86808536   -4.0644091   -4.0644091   -2.7622823  0.024526885   -4.0644091    1.3021268  1010000 
 1409000   0.86825623   -4.0642774   -4.0642774   -2.7618944  0.021003788   -4.0642774    1.3023831  1010000 
 1410000   0.86827046   -4.0638299   -4.0638299   -2.7614255  0.020282059   -4.0638299    1.3024044  1010000 
 1411000   0.86909559   -4.0647312   -4.0647312   -2.7610891  0.023080579   -4.0647312    1.3036421  1010000 
 1412000   0.86872267    -4.064195    -4.064195   -2.7611123  0.025065313    -4.064195    1.3030827  1010000 
 1413000    0.8686108   -4.0637346   -4.0637346   -2.7608197  0.021741173   -4.0637346    1.3029149  1010000 
 1414000    0.8677696    -4.062886    -4.062886   -2.7612329  0.024453611    -4.062886    1.3016531  1010000 
 1415000   0.86831598   -4.0631884   -4.0631884   -2.7607157  0.024720385   -4.0631884    1.3024727  1010000 
 1416000   0.86858714   -4.0633726   -4.0633726   -2.7604932  0.025045843   -4.0633726    1.3028794  1010000 
 1417000   0.87007647   -4.0645874   -4.0645874    -2.759474  0.022671593   -4.0645874    1.3051134  1010000 
 1418000   0.86889429   -4.0631246   -4.0631246   -2.7597845  0.027362028   -4.0631246    1.3033401  1010000 
 1419000    0.8682793   -4.0617619   -4.0617619   -2.7593442  0.025725363   -4.0617619    1.3024177  1010000 
 1420000   0.86806862   -4.0618594   -4.0618594   -2.7597578  0.025679682   -4.0618594    1.3021016  1010000 
 1421000   0.86787024   -4.0612137   -4.0612137   -2.7594096  0.026611597   -4.0612137    1.3018041  1010000 
 1422000   0.86863097   -4.0619199   -4.0619199   -2.7589747  0.021317097   -4.0619199    1.3029452  1010000 
 1423000   0.86894031   -4.0618224   -4.0618224   -2.7584133  0.024504622   -4.0618224    1.3034092  1010000 
 1424000   0.86868305    -4.061819    -4.061819   -2.7587957  0.025812879    -4.061819    1.3030233  1010000 
 1425000   0.86889267   -4.0622625   -4.0622625   -2.7589248  0.028111701   -4.0622625    1.3033377  1010000 
 1426000   0.86885071   -4.0621307   -4.0621307   -2.7588559  0.025172932   -4.0621307    1.3032748  1010000 
 1427000   0.86976503   -4.0623538   -4.0623538   -2.7577075    0.0258474   -4.0623538    1.3046463  1010000 
 1428000   0.86895448   -4.0621663   -4.0621663   -2.7587359  0.026444184   -4.0621663    1.3034304  1010000 
 1429000    0.8685206   -4.0621331   -4.0621331   -2.7593535  0.026672502   -4.0621331    1.3027796  1010000 
 1430000   0.86962047   -4.0623183   -4.0623183   -2.7578889  0.023891439   -4.0623183    1.3044294  1010000 
 1431000   0.86937055   -4.0626474   -4.0626474   -2.7585929  0.023872506   -4.0626474    1.3040545  1010000 
 1432000   0.86890747   -4.0615548   -4.0615548   -2.7581949    0.0269332   -4.0615548    1.3033599  1010000 
 1433000   0.86992179   -4.0629395   -4.0629395   -2.7580581  0.023683855   -4.0629395    1.3048814  1010000 
 1434000   0.86853711    -4.061454    -4.061454   -2.7586496  0.026545566    -4.061454    1.3028044  1010000 
 1435000   0.86827702   -4.0603777   -4.0603777   -2.7579634  0.028936599   -4.0603777    1.3024142  1010000 
 1436000   0.86995429    -4.062521    -4.062521   -2.7575909  0.023468341    -4.062521    1.3049301  1010000 
 1437000   0.87027453     -4.06278     -4.06278   -2.7573695  0.022471888     -4.06278    1.3054105  1010000 
 1438000   0.87034777   -4.0617576   -4.0617576   -2.7562372  0.026138034   -4.0617576    1.3055204  1010000 
 1439000   0.87046914   -4.0615677   -4.0615677   -2.7558652   0.03002052   -4.0615677    1.3057024  1010000 
 1440000   0.87022464   -4.0608321   -4.0608321   -2.7554964  0.027824179   -4.0608321    1.3053357  1010000 
 1441000   0.87090509   -4.0611088   -4.0611088   -2.7547524  0.027214788   -4.0611088    1.3063563  1010000 
 1442000   0.87048343   -4.0609459   -4.0609459    -2.755222  0.028900768   -4.0609459    1.3057239  1010000 
 1443000   0.87138046   -4.0619602   -4.0619602   -2.7548908  0.023777625   -4.0619602    1.3070694  1010000 
 1444000   0.87114114   -4.0605055   -4.0605055   -2.7537951  0.027520508   -4.0605055    1.3067104  1010000 
 1445000   0.87060422   -4.0599234   -4.0599234   -2.7540184  0.029009941   -4.0599234     1.305905  1010000 
 1446000   0.86987805   -4.0588966   -4.0588966   -2.7540808  0.025477963   -4.0588966    1.3048158  1010000 
 1447000   0.86971713   -4.0587587   -4.0587587   -2.7541844  0.024383848   -4.0587587    1.3045744  1010000 
 1448000   0.87002883    -4.058762    -4.058762   -2.7537201  0.019908521    -4.058762    1.3050419  1010000 
 1449000   0.86911244   -4.0568232   -4.0568232   -2.7531558  0.023934144   -4.0568232    1.3036674  1010000 
 1450000   0.86879299   -4.0560556   -4.0560556   -2.7528674  0.023696543   -4.0560556    1.3031882  1010000 
 1451000   0.86926912   -4.0576818   -4.0576818   -2.7537794  0.018142796   -4.0576818    1.3039024  1010000 
 1452000   0.86958699   -4.0570753   -4.0570753   -2.7526961  0.020007061   -4.0570753    1.3043792  1010000 
 1453000   0.86982232   -4.0566005   -4.0566005   -2.7518684  0.023931942   -4.0566005    1.3047322  1010000 
 1454000   0.86964182   -4.0565719   -4.0565719   -2.7521105  0.022735756   -4.0565719    1.3044614  1010000 
 1455000   0.87018378   -4.0572597   -4.0572597   -2.7519853  0.020051714   -4.0572597    1.3052744  1010000 
 1456000   0.86865434   -4.0546312   -4.0546312    -2.751651  0.024925051   -4.0546312    1.3029802  1010000 
 1457000   0.87017643   -4.0560979   -4.0560979   -2.7508345  0.023529927   -4.0560979    1.3052633  1010000 
 1458000      0.87022   -4.0548666   -4.0548666   -2.7495379  0.027083585   -4.0548666    1.3053287  1010000 
 1459000   0.86967551   -4.0552523   -4.0552523   -2.7507403  0.023943837   -4.0552523     1.304512  1010000 
 1460000   0.87050672   -4.0559426   -4.0559426   -2.7501838  0.022244584   -4.0559426    1.3057588  1010000 
 1461000   0.86984079   -4.0548615   -4.0548615   -2.7501016  0.018822661   -4.0548615    1.3047599  1010000 
 1462000   0.87017748   -4.0554149   -4.0554149     -2.75015  0.019440966   -4.0554149    1.3052649  1010000 
 1463000   0.87122466   -4.0556938   -4.0556938   -2.7488581  0.025963915   -4.0556938    1.3068357  1010000 
 1464000   0.87087607   -4.0552936   -4.0552936   -2.7489808   0.02279035   -4.0552936    1.3063128  1010000 
 1465000   0.87155795   -4.0561411   -4.0561411   -2.7488055  0.020341007   -4.0561411    1.3073356  1010000 
 1466000   0.87115732   -4.0556209   -4.0556209   -2.7488862  0.024663319   -4.0556209    1.3067347  1010000 
 1467000   0.87038223   -4.0549077   -4.0549077   -2.7493357  0.023852879   -4.0549077     1.305572  1010000 
 1468000   0.87033016    -4.054634    -4.054634     -2.74914  0.022248946    -4.054634    1.3054939  1010000 
 1469000   0.87113258   -4.0553609   -4.0553609   -2.7486633  0.023268199   -4.0553609    1.3066976  1010000 
 1470000   0.87100944   -4.0545258   -4.0545258   -2.7480129  0.028858652   -4.0545258    1.3065129  1010000 
 1471000   0.87042155   -4.0538185   -4.0538185   -2.7481875  0.025232629   -4.0538185     1.305631  1010000 
 1472000   0.87114596   -4.0549983   -4.0549983   -2.7482806  0.022671473   -4.0549983    1.3067176  1010000 
 1473000   0.87103285    -4.054612    -4.054612    -2.748064  0.027777648    -4.054612     1.306548  1010000 
 1474000   0.87126422   -4.0542985   -4.0542985   -2.7474034  0.025407604   -4.0542985     1.306895  1010000 
 1475000   0.87181655    -4.054706    -4.054706   -2.7469825  0.025801291    -4.054706    1.3077235  1010000 
 1476000   0.87103088   -4.0536827   -4.0536827   -2.7471376  0.029188575   -4.0536827     1.306545  1010000 
 1477000   0.87167382   -4.0538508   -4.0538508   -2.7463413  0.027808229   -4.0538508    1.3075094  1010000 
 1478000   0.87176746    -4.054158    -4.054158   -2.7465081  0.025127449    -4.054158    1.3076499  1010000 
 1479000   0.87225107   -4.0547822   -4.0547822   -2.7464069   0.02540347   -4.0547822    1.3083753  1010000 
 1480000   0.87094177   -4.0522458   -4.0522458   -2.7458344  0.026319419   -4.0522458    1.3064114  1010000 
 1481000   0.87162395   -4.0529241   -4.0529241   -2.7454895  0.026240615   -4.0529241    1.3074346  1010000 
 1482000    0.8717197     -4.05253     -4.05253   -2.7449517  0.025433091     -4.05253    1.3075783  1010000 
 1483000   0.87115531   -4.0520849   -4.0520849   -2.7453532  0.021618523   -4.0520849    1.3067317  1010000 
 1484000   0.87076776   -4.0508273   -4.0508273   -2.7446769  0.026511776   -4.0508273    1.3061503  1010000 
 1485000   0.87202218   -4.0517693   -4.0517693   -2.7437373   0.02651248   -4.0517693     1.308032  1010000 
 1486000    0.8715413   -4.0511674   -4.0511674   -2.7438568  0.023169268   -4.0511674    1.3073107  1010000 
 1487000   0.87189558    -4.051555    -4.051555   -2.7437129  0.024401676    -4.051555    1.3078421  1010000 
 1488000   0.87176197   -4.0516025   -4.0516025   -2.7439608   0.02325653   -4.0516025    1.3076417  1010000 
 1489000   0.87194835   -4.0515491   -4.0515491   -2.7436279  0.019316669   -4.0515491    1.3079212  1010000 
 1490000   0.87063293    -4.048861    -4.048861   -2.7429129  0.028858962    -4.048861    1.3059481  1010000 
 1491000   0.87187972   -4.0504223   -4.0504223    -2.742604  0.020399705   -4.0504223    1.3078183  1010000 
 1492000   0.86961121   -4.0467182   -4.0467182   -2.7423027  0.023100869   -4.0467182    1.3044155  1010000 
 1493000   0.87056941   -4.0476175   -4.0476175   -2.7417647  0.022710258   -4.0476175    1.3058528  1010000 
 1494000   0.87092904    -4.047805    -4.047805   -2.7414127  0.021287786    -4.047805    1.3063923  1010000 
 1495000   0.87050158   -4.0469803   -4.0469803   -2.7412292  0.025904912   -4.0469803    1.3057511  1010000 
 1496000   0.87162488   -4.0484775   -4.0484775   -2.7410414  0.025136451   -4.0484775     1.307436  1010000 
 1497000   0.87219412   -4.0488788   -4.0488788   -2.7405889  0.023347284   -4.0488788    1.3082899  1010000 
 1498000   0.87135353    -4.047248    -4.047248    -2.740219  0.027607717    -4.047248     1.307029  1010000 
 1499000   0.87271339   -4.0480721   -4.0480721   -2.7390033  0.023482537   -4.0480721    1.3090688  1010000 
 1500000   0.87210357   -4.0473852   -4.0473852   -2.7392311  0.024180239   -4.0473852    1.3081541  1010000 
 1501000    0.8737131   -4.0487804   -4.0487804    -2.738212  0.023627944   -4.0487804    1.3105683  1010000 
 1502000   0.87240233   -4.0465783   -4.0465783   -2.7379761  0.025101672   -4.0465783    1.3086022  1010000 
 1503000   0.87276815   -4.0465039   -4.0465039   -2.7373529  0.021247661   -4.0465039    1.3091509  1010000 
 1504000   0.87288276   -4.0471103   -4.0471103   -2.7377875  0.024571384   -4.0471103    1.3093228  1010000 
 1505000   0.87323275   -4.0467382   -4.0467382   -2.7368904  0.027252326   -4.0467382    1.3098478  1010000 
 1506000   0.87291568   -4.0462261   -4.0462261   -2.7368539  0.026295121   -4.0462261    1.3093722  1010000 
 1507000   0.87286464   -4.0465037   -4.0465037   -2.7372081  0.027393754   -4.0465037    1.3092957  1010000 
 1508000   0.87293935   -4.0465432   -4.0465432   -2.7371355  0.026516253   -4.0465432    1.3094077  1010000 
 1509000   0.87330812   -4.0467451   -4.0467451   -2.7367842  0.021871651   -4.0467451    1.3099609  1010000 
 1510000   0.87256467   -4.0453447   -4.0453447    -2.736499  0.027406686   -4.0453447    1.3088457  1010000 
 1511000   0.87254002   -4.0451498   -4.0451498   -2.7363411  0.022828967   -4.0451498    1.3088087  1010000 
 1512000   0.87195481   -4.0441989   -4.0441989    -2.736268  0.022160077   -4.0441989    1.3079309  1010000 
 1513000   0.87248179   -4.0449441   -4.0449441   -2.7362227  0.023120955   -4.0449441    1.3087214  1010000 
 1514000   0.87195456    -4.044062    -4.044062   -2.7361315  0.023045918    -4.044062    1.3079305  1010000 
 1515000   0.87272332    -4.045728    -4.045728   -2.7366444  0.019366863    -4.045728    1.3090837  1010000 
 1516000   0.87134148   -4.0431615   -4.0431615   -2.7361505  0.023791357   -4.0431615    1.3070109  1010000 
 1517000     0.872087   -4.0441908   -4.0441908   -2.7360616  0.019816936   -4.0441908    1.3081292  1010000 
 1518000   0.87279893   -4.0447892   -4.0447892   -2.7355921  0.019998862   -4.0447892    1.3091971  1010000 
 1519000   0.87220944   -4.0438864   -4.0438864   -2.7355735  0.022784555   -4.0438864    1.3083129  1010000 
 1520000   0.87171784    -4.043108    -4.043108   -2.7355326  0.026447065    -4.043108    1.3075755  1010000 
 1521000   0.87210911   -4.0435249   -4.0435249   -2.7353625  0.023528308   -4.0435249    1.3081624  1010000 
 1522000   0.87248794    -4.043906    -4.043906   -2.7351754  0.021946066    -4.043906    1.3087306  1010000 
 1523000   0.87288273   -4.0440079   -4.0440079   -2.7346851  0.021441462   -4.0440079    1.3093228  1010000 
 1524000   0.87291628   -4.0435612   -4.0435612   -2.7341881  0.022467025   -4.0435612    1.3093731  1010000 
 1525000   0.87314736   -4.0433601   -4.0433601   -2.7336404  0.022849144   -4.0433601    1.3097197  1010000 
 1526000   0.87279069   -4.0434424   -4.0434424   -2.7342576  0.023864817   -4.0434424    1.3091847  1010000 
 1527000    0.8719597   -4.0428859   -4.0428859   -2.7349477  0.026712773   -4.0428859    1.3079382  1010000 
 1528000   0.87256729   -4.0432608   -4.0432608   -2.7344112  0.028564905   -4.0432608    1.3088496  1010000 
 1529000   0.87345302   -4.0437604   -4.0437604   -2.7335822  0.023817274   -4.0437604    1.3101782  1010000 
 1530000   0.87342861   -4.0438267   -4.0438267   -2.7336851  0.028734031   -4.0438267    1.3101416  1010000 
 1531000   0.87409358   -4.0440591   -4.0440591     -2.73292   0.02262592   -4.0440591    1.3111391  1010000 
 1532000   0.87344572   -4.0431958   -4.0431958   -2.7330285  0.028898998   -4.0431958    1.3101673  1010000 
 1533000   0.87393596   -4.0435164   -4.0435164   -2.7326138   0.02657585   -4.0435164    1.3109026  1010000 
 1534000   0.87383318    -4.042344    -4.042344   -2.7315955  0.030289115    -4.042344    1.3107485  1010000 
 1535000   0.87411914   -4.0425475   -4.0425475   -2.7313701  0.027992753   -4.0425475    1.3111774  1010000 
 1536000   0.87539759   -4.0440969   -4.0440969   -2.7310018  0.026212813   -4.0440969    1.3130951  1010000 
 1537000   0.87478987    -4.043494    -4.043494   -2.7313105  0.025421892    -4.043494    1.3121835  1010000 
 1538000   0.87479014   -4.0426932   -4.0426932   -2.7305093  0.030170721   -4.0426932    1.3121839  1010000 
 1539000   0.87434507   -4.0423643   -4.0423643    -2.730848  0.023625679   -4.0423643    1.3115163  1010000 
 1540000   0.87408978   -4.0422788   -4.0422788   -2.7311454  0.021857503   -4.0422788    1.3111334  1010000 
 1541000   0.87330688    -4.041114    -4.041114    -2.731155  0.024238373    -4.041114     1.309959  1010000 
 1542000   0.87291801   -4.0402973   -4.0402973   -2.7309216  0.025397642   -4.0402973    1.3093757  1010000 
 1543000   0.87298187   -4.0401352   -4.0401352   -2.7306637  0.022216643   -4.0401352    1.3094715  1010000 
 1544000   0.87229377   -4.0389252   -4.0389252   -2.7304858  0.022904419   -4.0389252    1.3084394  1010000 
 1545000   0.87247214   -4.0388057   -4.0388057   -2.7300988  0.023324354   -4.0388057    1.3087069  1010000 
 1546000   0.87344744   -4.0395162   -4.0395162   -2.7293463    0.0259289   -4.0395162    1.3101699  1010000 
 1547000   0.87238565   -4.0390328   -4.0390328   -2.7304556  0.024363508   -4.0390328    1.3085772  1010000 
 1548000   0.87239652   -4.0387539   -4.0387539   -2.7301604  0.024198794   -4.0387539    1.3085935  1010000 
 1549000   0.87311505    -4.038926    -4.038926   -2.7292547  0.018634197    -4.038926    1.3096713  1010000 
 1550000   0.87273545   -4.0383098   -4.0383098   -2.7292079  0.023011965   -4.0383098    1.3091019  1010000 
 1551000   0.87366118   -4.0382741   -4.0382741   -2.7277836  0.025666353   -4.0382741    1.3104905  1010000 
 1552000   0.87342287   -4.0373491   -4.0373491    -2.727216  0.024036239   -4.0373491     1.310133  1010000 
 1553000   0.87312051    -4.037281    -4.037281   -2.7276015  0.021851835    -4.037281    1.3096795  1010000 
 1554000   0.87201198   -4.0359424   -4.0359424   -2.7279258  0.027611704   -4.0359424    1.3080167  1010000 
 1555000   0.87314658   -4.0377741   -4.0377741   -2.7280555  0.023926198   -4.0377741    1.3097186  1010000 
 1556000   0.87368987   -4.0372445   -4.0372445    -2.726711  0.026008808   -4.0372445    1.3105335  1010000 
 1557000   0.87360359   -4.0371351   -4.0371351    -2.726731  0.025358546   -4.0371351    1.3104041  1010000 
 1558000   0.87393273   -4.0379763   -4.0379763   -2.7270785  0.018580923   -4.0379763    1.3108978  1010000 
 1559000   0.87288241   -4.0363362   -4.0363362   -2.7270138  0.027185777   -4.0363362    1.3093223  1010000 
 1560000   0.87440405   -4.0373004   -4.0373004   -2.7256956  0.024457643   -4.0373004    1.3116048  1010000 
 1561000   0.87460928   -4.0380743   -4.0380743   -2.7261617  0.027098784   -4.0380743    1.3119126  1010000 
 1562000   0.87490643   -4.0377917   -4.0377917   -2.7254334   0.02589975   -4.0377917    1.3123584  1010000 
 1563000   0.87391585   -4.0365626   -4.0365626   -2.7256901  0.025069041   -4.0365626    1.3108725  1010000 
 1564000   0.87430191   -4.0380166   -4.0380166    -2.726565  0.023149155   -4.0380166    1.3114516  1010000 
 1565000   0.87450117   -4.0373912   -4.0373912   -2.7256407  0.024634686   -4.0373912    1.3117505  1010000 
 1566000   0.87500635   -4.0383799   -4.0383799   -2.7258717  0.024776879   -4.0383799    1.3125082  1010000 
 1567000   0.87420253   -4.0368515   -4.0368515    -2.725549  0.027545933   -4.0368515    1.3113025  1010000 
 1568000   0.87398211     -4.03684     -4.03684   -2.7258681  0.026381379     -4.03684    1.3109719  1010000 
 1569000    0.8747428   -4.0373963   -4.0373963   -2.7252834   0.02609161   -4.0373963    1.3121129  1010000 
 1570000   0.87428522    -4.036756    -4.036756   -2.7253295  0.026788818    -4.036756    1.3114265  1010000 
 1571000   0.87414413   -4.0357946   -4.0357946   -2.7245797  0.029181105   -4.0357946    1.3112149  1010000 
 1572000   0.87506507    -4.037323    -4.037323   -2.7247267  0.025015875    -4.037323    1.3125963  1010000 
 1573000   0.87505596   -4.0373357   -4.0373357   -2.7247531  0.027244665   -4.0373357    1.3125826  1010000 
 1574000   0.87516634   -4.0375896   -4.0375896   -2.7248414  0.025040828   -4.0375896    1.3127482  1010000 
 1575000   0.87517231   -4.0364826   -4.0364826   -2.7237254  0.028388126   -4.0364826    1.3127572  1010000 
 1576000   0.87516225   -4.0360787   -4.0360787   -2.7233366  0.024574974   -4.0360787    1.3127421  1010000 
 1577000   0.87506999   -4.0356254   -4.0356254   -2.7230217  0.028641544   -4.0356254    1.3126037  1010000 
 1578000    0.8757238   -4.0364392   -4.0364392   -2.7228548  0.023343551   -4.0364392    1.3135844  1010000 
 1579000   0.87467668   -4.0350458   -4.0350458   -2.7230321    0.0235815   -4.0350458    1.3120137  1010000 
 1580000   0.87488196   -4.0350353   -4.0350353   -2.7227137  0.021770669   -4.0350353    1.3123216  1010000 
 1581000   0.87441095   -4.0342772   -4.0342772   -2.7226621  0.028839935   -4.0342772    1.3116151  1010000 
 1582000   0.87498027   -4.0344204   -4.0344204   -2.7219513  0.024626805   -4.0344204    1.3124691  1010000 
 1583000   0.87473368     -4.03339     -4.03339   -2.7212908  0.024539696     -4.03339    1.3120992  1010000 
 1584000   0.87540897   -4.0338146   -4.0338146   -2.7207025  0.027768066   -4.0338146    1.3131122  1010000 
 1585000   0.87520263   -4.0338855   -4.0338855   -2.7210829   0.02248177   -4.0338855    1.3128026  1010000 
 1586000   0.87482486   -4.0333109   -4.0333109   -2.7210749  0.023918532   -4.0333109     1.312236  1010000 
 1587000   0.87431163   -4.0325062   -4.0325062     -2.72104  0.024099778   -4.0325062    1.3114661  1010000 
 1588000   0.87507533   -4.0330927   -4.0330927   -2.7204811  0.022102079   -4.0330927    1.3126117  1010000 
 1589000   0.87489182   -4.0323248   -4.0323248   -2.7199883  0.018930735   -4.0323248    1.3123364  1010000 
 1590000   0.87404016     -4.03094     -4.03094   -2.7198811  0.023745393     -4.03094    1.3110589  1010000 
 1591000   0.87456365   -4.0314584   -4.0314584   -2.7196143  0.019891939   -4.0314584    1.3118442  1010000 
 1592000   0.87451096   -4.0313112   -4.0313112   -2.7195461  0.023295167   -4.0313112    1.3117651  1010000 
 1593000   0.87483812   -4.0321628   -4.0321628   -2.7199069  0.021608457   -4.0321628    1.3122559  1010000 
 1594000   0.87366823   -4.0302506   -4.0302506   -2.7197495  0.020924235   -4.0302506     1.310501  1010000 
 1595000   0.87518489   -4.0322298   -4.0322298   -2.7194538  0.022699565   -4.0322298     1.312776  1010000 
 1596000   0.87520372   -4.0313816   -4.0313816   -2.7185773  0.020962736   -4.0313816    1.3128043  1010000 
 1597000   0.87541498   -4.0309387   -4.0309387   -2.7178176  0.021261528   -4.0309387    1.3131212  1010000 
 1598000   0.87555732   -4.0304592   -4.0304592   -2.7171245  0.023095555   -4.0304592    1.3133347  1010000 
 1599000   0.87664039   -4.0326227   -4.0326227   -2.7176634  0.024128163   -4.0326227    1.3149593  1010000 
 1600000   0.87646708   -4.0316314   -4.0316314   -2.7169321  0.026148593   -4.0316314    1.3146993  1010000 
 1601000   0.87653339   -4.0313548   -4.0313548    -2.716556  0.026086545   -4.0313548    1.3147988  1010000 
 1602000   0.87693993   -4.0318342   -4.0318342   -2.7164256  0.025861249   -4.0318342    1.3154086  1010000 
 1603000   0.87561389   -4.0299487   -4.0299487   -2.7165292  0.030890743   -4.0299487    1.3134195  1010000 
 1604000    0.8756256   -4.0298011   -4.0298011    -2.716364  0.026421683   -4.0298011    1.3134371  1010000 
 1605000    0.8761879   -4.0301365   -4.0301365    -2.715856  0.027940202   -4.0301365    1.3142806  1010000 
 1606000   0.87534791    -4.028832    -4.028832   -2.7158114  0.028270269    -4.028832    1.3130206  1010000 
 1607000   0.87627713   -4.0293547   -4.0293547   -2.7149403  0.028968519   -4.0293547    1.3144144  1010000 
 1608000   0.87647994   -4.0299745   -4.0299745   -2.7152559  0.026525865   -4.0299745    1.3147186  1010000 
 1609000   0.87575945   -4.0290868   -4.0290868   -2.7154489  0.025883617   -4.0290868    1.3136379  1010000 
 1610000   0.87650996   -4.0298257   -4.0298257   -2.7150621  0.026181407   -4.0298257    1.3147636  1010000 
 1611000   0.87631579   -4.0291408   -4.0291408   -2.7146684  0.026289706   -4.0291408    1.3144724  1010000 
 1612000   0.87601424   -4.0284693   -4.0284693   -2.7144492  0.022640989   -4.0284693    1.3140201  1010000 
 1613000   0.87601602   -4.0277566   -4.0277566   -2.7137339  0.024513978   -4.0277566    1.3140227  1010000 
 1614000   0.87593244   -4.0277373   -4.0277373     -2.71384  0.024463024   -4.0277373    1.3138974  1010000 
 1615000   0.87532867   -4.0274086   -4.0274086   -2.7144169  0.027308698   -4.0274086    1.3129917  1010000 
 1616000   0.87563845   -4.0275472   -4.0275472   -2.7140909  0.022122122   -4.0275472    1.3134564  1010000 
 1617000   0.87558306   -4.0271819   -4.0271819   -2.7138086  0.026222602   -4.0271819    1.3133733  1010000 
 1618000   0.87546906   -4.0267235   -4.0267235   -2.7135212  0.024581943   -4.0267235    1.3132023  1010000 
 1619000   0.87614903    -4.027191    -4.027191   -2.7129688  0.017302112    -4.027191    1.3142222  1010000 
 1620000    0.8757217   -4.0258602   -4.0258602    -2.712279  0.024878786   -4.0258602    1.3135812  1010000 
 1621000   0.87560288   -4.0256906   -4.0256906   -2.7122875   0.02138345   -4.0256906     1.313403  1010000 
 1622000   0.87623943   -4.0258764   -4.0258764   -2.7115186  0.026009118   -4.0258764    1.3143578  1010000 
 1623000   0.87585786   -4.0251491   -4.0251491   -2.7113637  0.026803096   -4.0251491    1.3137855  1010000 
 1624000   0.87582394   -4.0255422   -4.0255422   -2.7118076  0.025508093   -4.0255422    1.3137346  1010000 
 1625000   0.87657932   -4.0262829   -4.0262829   -2.7114152   0.02497152   -4.0262829    1.3148677  1010000 
 1626000   0.87546451    -4.024545    -4.024545   -2.7113495  0.031703735    -4.024545    1.3131955  1010000 
 1627000   0.87665018   -4.0256224   -4.0256224   -2.7106484  0.023910915   -4.0256224     1.314974  1010000 
 1628000   0.87726347   -4.0259045   -4.0259045   -2.7100106  0.021832818   -4.0259045    1.3158939  1010000 
 1629000   0.87608989     -4.02433     -4.02433   -2.7101965  0.026059317     -4.02433    1.3141335  1010000 
 1630000   0.87640495   -4.0246114   -4.0246114   -2.7100052  0.022522933   -4.0246114    1.3146061  1010000 
 1631000   0.87648623   -4.0239297   -4.0239297   -2.7092017  0.023626366   -4.0239297     1.314728  1010000 
 1632000   0.87694653   -4.0246154   -4.0246154   -2.7091969  0.027457877   -4.0246154    1.3154185  1010000 
 1633000   0.87710941   -4.0247261   -4.0247261   -2.7090633   0.02576279   -4.0247261    1.3156628  1010000 
 1634000   0.87689315    -4.023972    -4.023972   -2.7086336  0.025028009    -4.023972    1.3153384  1010000 
 1635000   0.87621066   -4.0230482   -4.0230482   -2.7087335  0.024546119   -4.0230482    1.3143147  1010000 
 1636000   0.87696312   -4.0239404   -4.0239404   -2.7084971    0.0228558   -4.0239404    1.3154434  1010000 
 1637000   0.87697315   -4.0235939   -4.0235939   -2.7081354  0.025657049   -4.0235939    1.3154584  1010000 
 1638000   0.87689704   -4.0230213   -4.0230213    -2.707677   0.02630499   -4.0230213    1.3153443  1010000 
 1639000   0.87660165   -4.0233634   -4.0233634   -2.7084622  0.022707441   -4.0233634    1.3149012  1010000 
 1640000   0.87580935   -4.0220852   -4.0220852   -2.7083725  0.026828449   -4.0220852    1.3137127  1010000 
 1641000   0.87619472   -4.0229283   -4.0229283   -2.7086375   0.02128858   -4.0229283    1.3142908  1010000 
 1642000   0.87722742   -4.0234945   -4.0234945   -2.7076547  0.026371872   -4.0234945    1.3158398  1010000 
 1643000   0.87709477   -4.0228762   -4.0228762   -2.7072354  0.023437578   -4.0228762    1.3156409  1010000 
 1644000   0.87630762   -4.0219092   -4.0219092    -2.707449  0.022793625   -4.0219092    1.3144601  1010000 
 1645000   0.87664518   -4.0218931   -4.0218931   -2.7069267   0.02878931   -4.0218931    1.3149665  1010000 
 1646000   0.87665362    -4.022148    -4.022148   -2.7071689   0.01946066    -4.022148    1.3149791  1010000 
 1647000   0.87626511     -4.02062     -4.02062   -2.7062236  0.022926176     -4.02062    1.3143964  1010000 
 1648000   0.87708699   -4.0211585   -4.0211585   -2.7055293  0.028804054   -4.0211585    1.3156292  1010000 
 1649000   0.87751813   -4.0212843   -4.0212843   -2.7050084  0.028859377   -4.0212843    1.3162759  1010000 
 1650000   0.87671749   -4.0209054   -4.0209054   -2.7058304  0.025697657   -4.0209054    1.3150749  1010000 
 1651000    0.8773832   -4.0212392   -4.0212392   -2.7051657  0.024346808   -4.0212392    1.3160735  1010000 
 1652000   0.87742764   -4.0209192   -4.0209192    -2.704779  0.023016442   -4.0209192    1.3161402  1010000 
 1653000   0.87714639   -4.0201274   -4.0201274   -2.7044091   0.02472281   -4.0201274    1.3157183  1010000 
 1654000   0.87748916   -4.0207403   -4.0207403   -2.7045079   0.02418648   -4.0207403    1.3162324  1010000 
 1655000   0.87763253   -4.0208443   -4.0208443   -2.7043968  0.023423433   -4.0208443    1.3164475  1010000 
 1656000   0.87726055   -4.0198652   -4.0198652   -2.7039757  0.025806069   -4.0198652    1.3158895  1010000 
 1657000   0.87820011   -4.0216709   -4.0216709    -2.704372  0.024177022   -4.0216709    1.3172989  1010000 
 1658000   0.87755847   -4.0208608   -4.0208608   -2.7045244  0.023137623   -4.0208608    1.3163364  1010000 
 1659000   0.87732019   -4.0201493   -4.0201493   -2.7041703  0.023439562   -4.0201493     1.315979  1010000 
 1660000   0.87725357   -4.0201165   -4.0201165   -2.7042374   0.02387198   -4.0201165    1.3158791  1010000 
 1661000    0.8776804   -4.0202316   -4.0202316   -2.7037123  0.023598997   -4.0202316    1.3165193  1010000 
 1662000   0.87796326    -4.020311    -4.020311   -2.7033674  0.024207133    -4.020311    1.3169436  1010000 
 1663000   0.87713029   -4.0191867   -4.0191867   -2.7034925    0.0243922   -4.0191867    1.3156941  1010000 
 1664000   0.87780019   -4.0194061   -4.0194061   -2.7027071  0.021352566   -4.0194061     1.316699  1010000 
 1665000   0.87704507   -4.0185117   -4.0185117   -2.7029454   0.02450803   -4.0185117    1.3155663  1010000 
 1666000   0.87684599   -4.0181019   -4.0181019   -2.7028342  0.023827489   -4.0181019    1.3152677  1010000 
 1667000   0.87654915   -4.0170916   -4.0170916   -2.7022692  0.022257521   -4.0170916    1.3148224  1010000 
 1668000   0.87790051   -4.0185932   -4.0185932   -2.7017438  0.020244452   -4.0185932    1.3168495  1010000 
 1669000   0.87755758   -4.0180432   -4.0180432   -2.7017081  0.025145556   -4.0180432    1.3163351  1010000 
 1670000   0.87748174   -4.0178742   -4.0178742   -2.7016529  0.023691937   -4.0178742    1.3162213  1010000 
 1671000   0.87833881   -4.0191073   -4.0191073   -2.7016004  0.020470836   -4.0191073    1.3175069  1010000 
 1672000   0.87745089   -4.0171231   -4.0171231   -2.7009481  0.028111127   -4.0171231     1.316175  1010000 
 1673000   0.87767085   -4.0169666   -4.0169666   -2.7004616  0.024234539   -4.0169666     1.316505  1010000 
 1674000   0.87851063   -4.0173571   -4.0173571   -2.6995924  0.025934052   -4.0173571    1.3177646  1010000 
 1675000   0.87904187   -4.0177341   -4.0177341   -2.6991726  0.027229321   -4.0177341    1.3185615  1010000 
 1676000   0.87883499   -4.0178974   -4.0178974   -2.6996462  0.024305334   -4.0178974    1.3182512  1010000 
 1677000   0.87909025   -4.0178606   -4.0178606   -2.6992266  0.028896459   -4.0178606    1.3186341  1010000 
 1678000   0.87935328   -4.0177111   -4.0177111   -2.6986825  0.026884345   -4.0177111    1.3190286  1010000 
 1679000   0.87963774   -4.0182221   -4.0182221   -2.6987668  0.024070913   -4.0182221    1.3194553  1010000 
 1680000    0.8796468   -4.0178824   -4.0178824   -2.6984135  0.024482688   -4.0178824    1.3194689  1010000 
 1681000   0.87800673   -4.0152455   -4.0152455   -2.6982367  0.027272291   -4.0152455    1.3170088  1010000 
 1682000   0.87771685   -4.0150316   -4.0150316   -2.6984577  0.026686722   -4.0150316     1.316574  1010000 
 1683000   0.87780474   -4.0152277   -4.0152277   -2.6985218  0.026057576   -4.0152277    1.3167058  1010000 
 1684000    0.8790237   -4.0169398   -4.0169398   -2.6984056  0.022106407   -4.0169398    1.3185343  1010000 
 1685000   0.87876216   -4.0158109   -4.0158109    -2.697669  0.023846896   -4.0158109    1.3181419  1010000 
 1686000   0.87814626   -4.0148438   -4.0148438   -2.6976257  0.022194335   -4.0148438    1.3172181  1010000 
 1687000   0.87806087   -4.0142816   -4.0142816   -2.6971916  0.024708573   -4.0142816      1.31709  1010000 
 1688000   0.87804203   -4.0145344   -4.0145344   -2.6974727  0.022478645   -4.0145344    1.3170617  1010000 
 1689000   0.87815955   -4.0140428   -4.0140428   -2.6968048  0.024527025   -4.0140428     1.317238  1010000 
 1690000   0.87841035    -4.014092    -4.014092   -2.6964778  0.027262463    -4.014092    1.3176142  1010000 
 1691000   0.87907601   -4.0148837   -4.0148837    -2.696271  0.026631862   -4.0148837    1.3186127  1010000 
 1692000   0.87933429   -4.0148786   -4.0148786   -2.6958785  0.024426759   -4.0148786    1.3190001  1010000 
 1693000   0.87927722   -4.0143854   -4.0143854   -2.6954709  0.019974123   -4.0143854    1.3189145  1010000 
 1694000   0.87838029   -4.0118881   -4.0118881   -2.6943189  0.026849567   -4.0118881    1.3175691  1010000 
 1695000   0.87801718   -4.0114369   -4.0114369   -2.6944124  0.026042491   -4.0114369    1.3170245  1010000 
 1696000   0.87895572   -4.0128788   -4.0128788   -2.6944466  0.021063901   -4.0128788    1.3184323  1010000 
 1697000   0.87846473   -4.0113001   -4.0113001   -2.6936043  0.026674293   -4.0113001    1.3176958  1010000 
 1698000   0.87862313   -4.0118413   -4.0118413   -2.6939079  0.024168918   -4.0118413    1.3179334  1010000 
 1699000   0.87838152   -4.0117538   -4.0117538   -2.6941828  0.023197895   -4.0117538     1.317571  1010000 
 1700000   0.87941634   -4.0127742   -4.0127742   -2.6936509  0.025145291   -4.0127742    1.3191232  1010000 
 1701000   0.87946617   -4.0125088   -4.0125088   -2.6933108  0.026692513   -4.0125088    1.3191979  1010000 
 1702000   0.87904997    -4.010232    -4.010232   -2.6916583  0.024618535    -4.010232    1.3185737  1010000 
 1703000   0.87982808   -4.0108864   -4.0108864   -2.6911456  0.027379621   -4.0108864    1.3197408  1010000 
 1704000   0.87962943   -4.0102637   -4.0102637   -2.6908208  0.028323401   -4.0102637    1.3194428  1010000 
 1705000   0.88014135   -4.0109829   -4.0109829   -2.6907722  0.027640752   -4.0109829    1.3202107  1010000 
 1706000   0.87982321   -4.0109259   -4.0109259   -2.6911924  0.027108981   -4.0109259    1.3197335  1010000 
 1707000   0.87921642   -4.0097078   -4.0097078   -2.6908844  0.027423394   -4.0097078    1.3188233  1010000 
 1708000   0.87982024   -4.0104082   -4.0104082   -2.6906792  0.023414245   -4.0104082    1.3197291  1010000 
 1709000    0.8798667   -4.0103379   -4.0103379   -2.6905392   0.02328809   -4.0103379    1.3197987  1010000 
 1710000   0.87901597   -4.0092244   -4.0092244   -2.6907018   0.02678536   -4.0092244    1.3185226  1010000 
 1711000   0.87909827   -4.0089716   -4.0089716   -2.6903255  0.021737758   -4.0089716    1.3186461  1010000 
 1712000   0.87929811   -4.0086308   -4.0086308    -2.689685   0.02737288   -4.0086308    1.3189459  1010000 
 1713000   0.87941712   -4.0089264   -4.0089264    -2.689802  0.024518688   -4.0089264    1.3191244  1010000 
 1714000   0.87986073   -4.0088831   -4.0088831   -2.6890933  0.023355074   -4.0088831    1.3197898  1010000 
 1715000   0.87948871   -4.0071456   -4.0071456   -2.6879139  0.027553115   -4.0071456    1.3192318  1010000 
 1716000     0.879678   -4.0071672   -4.0071672   -2.6876515  0.025660816   -4.0071672    1.3195157  1010000 
 1717000   0.88004066   -4.0079271   -4.0079271   -2.6878674  0.022906881   -4.0079271    1.3200597  1010000 
 1718000   0.88000827   -4.0076928   -4.0076928   -2.6876817  0.025951549   -4.0076928    1.3200111  1010000 
 1719000   0.88098165   -4.0078382   -4.0078382   -2.6863671  0.026292139   -4.0078382    1.3214712  1010000 
 1720000   0.88032868   -4.0072767   -4.0072767    -2.686785  0.026028728   -4.0072767    1.3204917  1010000 
 1721000   0.88035101   -4.0074392   -4.0074392    -2.686914  0.028283423   -4.0074392    1.3205252  1010000 
 1722000   0.88045611   -4.0075279   -4.0075279    -2.686845  0.018322056   -4.0075279    1.3206829  1010000 
 1723000   0.87987021   -4.0058557   -4.0058557   -2.6860517  0.019722317   -4.0058557     1.319804  1010000 
 1724000   0.87971948   -4.0058968   -4.0058968   -2.6863189  0.025212268   -4.0058968    1.3195779  1010000 
 1725000   0.87928446   -4.0047953   -4.0047953   -2.6858699  0.021667934   -4.0047953    1.3189254  1010000 
 1726000   0.87972791   -4.0043356   -4.0043356    -2.684745   0.02727134   -4.0043356    1.3195906  1010000 
 1727000   0.88020319   -4.0054277   -4.0054277   -2.6851242  0.023411343   -4.0054277    1.3203035  1010000 
 1728000    0.8809415   -4.0062501   -4.0062501   -2.6848392  0.024208195   -4.0062501    1.3214109  1010000 
 1729000   0.88019293   -4.0052073   -4.0052073   -2.6849192  0.024590485   -4.0052073    1.3202881  1010000 
 1730000   0.88084567    -4.005866    -4.005866   -2.6845988   0.02315089    -4.005866    1.3212672  1010000 
 1731000    0.8809536   -4.0059836   -4.0059836   -2.6845545  0.022348736   -4.0059836    1.3214291  1010000 
 1732000    0.8808362   -4.0057924   -4.0057924   -2.6845394  0.022817127   -4.0057924     1.321253  1010000 
 1733000   0.88086549   -4.0051155   -4.0051155   -2.6838186  0.026233877   -4.0051155    1.3212969  1010000 
 1734000   0.87998596   -4.0039646   -4.0039646   -2.6839869  0.022576366   -4.0039646    1.3199776  1010000 
 1735000   0.88018174   -4.0038305   -4.0038305   -2.6835592  0.027642253   -4.0038305    1.3202713  1010000 
 1736000   0.87983207   -4.0026509   -4.0026509   -2.6829041  0.024560255   -4.0026509    1.3197468  1010000 
 1737000   0.88090448   -4.0036913   -4.0036913   -2.6823359  0.019291204   -4.0036913    1.3213554  1010000 
 1738000   0.88006235   -4.0029797   -4.0029797   -2.6828874    0.0216364   -4.0029797    1.3200922  1010000 
 1739000   0.88013038    -4.003049    -4.003049   -2.6828547  0.023865466    -4.003049    1.3201943  1010000 
 1740000   0.88086904   -4.0042381   -4.0042381   -2.6829359  0.024678368   -4.0042381    1.3213023  1010000 
 1741000   0.88066087   -4.0033201   -4.0033201   -2.6823301  0.026428727   -4.0033201      1.32099  1010000 
 1742000    0.8813789   -4.0045449   -4.0045449   -2.6824779  0.025318558   -4.0045449     1.322067  1010000 
 1743000   0.88173725   -4.0036919   -4.0036919   -2.6810874  0.028002263   -4.0036919    1.3226046  1010000 
 1744000   0.88164036   -4.0028898   -4.0028898   -2.6804305  0.025455452   -4.0028898    1.3224592  1010000 
 1745000   0.88167624   -4.0028878   -4.0028878   -2.6803747  0.025357263   -4.0028878    1.3225131  1010000 
 1746000   0.88199496    -4.002991    -4.002991   -2.6799999  0.026734779    -4.002991    1.3229911  1010000 
 1747000   0.88140049   -4.0022602   -4.0022602   -2.6801608  0.027639543   -4.0022602    1.3220994  1010000 
 1748000   0.88226226   -4.0029887   -4.0029887   -2.6795966  0.024491611   -4.0029887    1.3233921  1010000 
 1749000   0.88193913    -4.002566    -4.002566   -2.6796586  0.025766994    -4.002566    1.3229074  1010000 
 1750000   0.88144539   -4.0019092   -4.0019092   -2.6797424  0.027687375   -4.0019092    1.3221668  1010000 
 1751000   0.88198556   -4.0027136   -4.0027136   -2.6797366  0.024888333   -4.0027136     1.322977  1010000 
 1752000   0.88123935   -4.0013158   -4.0013158   -2.6794581  0.027919504   -4.0013158    1.3218577  1010000 
 1753000    0.8808274   -4.0007478   -4.0007478    -2.679508  0.026505129   -4.0007478    1.3212398  1010000 
 1754000   0.88055372   -4.0002754   -4.0002754   -2.6794461  0.027090109   -4.0002754    1.3208293  1010000 
 1755000   0.88163549   -4.0007068   -4.0007068   -2.6782549  0.027410717   -4.0007068    1.3224519  1010000 
 1756000   0.88131059   -3.9998217   -3.9998217   -2.6778572  0.027263739   -3.9998217    1.3219646  1010000 
 1757000   0.88192073   -4.0005514   -4.0005514   -2.6776716  0.022269755   -4.0005514    1.3228798  1010000 
 1758000   0.88239641   -4.0011481   -4.0011481   -2.6775548  0.026088232   -4.0011481    1.3235933  1010000 
 1759000   0.88044715    -3.998154    -3.998154   -2.6774846  0.028881068    -3.998154    1.3206694  1010000 
 1760000   0.88187727   -3.9987893   -3.9987893   -2.6759747  0.024849811   -3.9987893    1.3228146  1010000 
 1761000   0.88260948   -3.9992306   -3.9992306   -2.6753177  0.023706806   -3.9992306    1.3239129  1010000 
 1762000   0.88078622   -3.9977408   -3.9977408   -2.6765628  0.025394736   -3.9977408     1.321178  1010000 
 1763000   0.88116118   -3.9983145   -3.9983145    -2.676574  0.023391796   -3.9983145    1.3217405  1010000 
 1764000   0.88168574   -3.9982713   -3.9982713    -2.675744  0.025178223   -3.9982713    1.3225273  1010000 
 1765000   0.88137199   -3.9971634   -3.9971634   -2.6751067  0.021732762   -3.9971634    1.3220567  1010000 
 1766000   0.88125966   -3.9970902   -3.9970902    -2.675202  0.022339581   -3.9970902    1.3218882  1010000 
 1767000   0.88084634   -3.9967034   -3.9967034   -2.6754352  0.023051436   -3.9967034    1.3212682  1010000 
 1768000   0.88152036   -3.9973381   -3.9973381   -2.6750588  0.024254065   -3.9973381    1.3222792  1010000 
 1769000   0.88078307   -3.9970826   -3.9970826   -2.6759093  0.022591645   -3.9970826    1.3211733  1010000 
 1770000   0.88102911   -3.9965866   -3.9965866   -2.6750442  0.025601569   -3.9965866    1.3215423  1010000 
 1771000   0.88109227   -3.9963083   -3.9963083   -2.6746712  0.023154689   -3.9963083    1.3216371  1010000 
 1772000    0.8808791   -3.9957695   -3.9957695   -2.6744522   0.02065009   -3.9957695    1.3213173  1010000 
 1773000   0.88166045   -3.9964479   -3.9964479   -2.6739586  0.022240562   -3.9964479    1.3224894  1010000 
 1774000   0.88146887   -3.9960947   -3.9960947   -2.6738927  0.025586634   -3.9960947     1.322202  1010000 
 1775000   0.88119063    -3.995523    -3.995523   -2.6737383  0.022997631    -3.995523    1.3217846  1010000 
 1776000   0.88189964   -3.9961327   -3.9961327   -2.6732846  0.025579907   -3.9961327    1.3228482  1010000 
 1777000   0.88162735   -3.9958472   -3.9958472   -2.6734075  0.030553532   -3.9958472    1.3224397  1010000 
 1778000    0.8825565   -3.9960315   -3.9960315   -2.6721981  0.026884886   -3.9960315    1.3238334  1010000 
 1779000   0.88326764   -3.9960081   -3.9960081   -2.6711079  0.028711421   -3.9960081    1.3249002  1010000 
 1780000   0.88258445   -3.9954653   -3.9954653     -2.67159  0.027803758   -3.9954653    1.3238754  1010000 
 1781000    0.8831639   -3.9956808   -3.9956808   -2.6709363  0.032593675   -3.9956808    1.3247445  1010000 
 1782000   0.88329794   -3.9961982   -3.9961982   -2.6712526  0.027848598   -3.9961982    1.3249456  1010000 
 1783000   0.88387345   -3.9967414   -3.9967414   -2.6709325  0.030844371   -3.9967414    1.3258089  1010000 
 1784000   0.88418237    -3.996752    -3.996752   -2.6704798  0.027622823    -3.996752    1.3262722  1010000 
 1785000   0.88484339   -3.9980691   -3.9980691   -2.6708053  0.027290514   -3.9980691    1.3272638  1010000 
 1786000   0.88392936   -3.9962861   -3.9962861   -2.6703934  0.024882928   -3.9962861    1.3258927  1010000 
 1787000   0.88297157   -3.9946508   -3.9946508   -2.6701948  0.027259217   -3.9946508     1.324456  1010000 
 1788000    0.8845626   -3.9970023   -3.9970023   -2.6701597  0.024864744   -3.9970023    1.3268426  1010000 
 1789000   0.88279502    -3.994343    -3.994343   -2.6701518  0.029793965    -3.994343    1.3241912  1010000 
 1790000    0.8830537   -3.9952607   -3.9952607   -2.6706815  0.023187456   -3.9952607    1.3245792  1010000 
 1791000   0.88314985   -3.9957726   -3.9957726   -2.6710492  0.024486574   -3.9957726    1.3247235  1010000 
 1792000   0.88279768     -3.99542     -3.99542   -2.6712248  0.024618469     -3.99542    1.3241952  1010000 
 1793000   0.88204243   -3.9938268   -3.9938268   -2.6707645  0.023703437   -3.9938268    1.3230623  1010000 
 1794000   0.88183868   -3.9937562   -3.9937562   -2.6709995  0.023903285   -3.9937562    1.3227567  1010000 
 1795000   0.88166325   -3.9925121   -3.9925121   -2.6700185  0.022172818   -3.9925121    1.3224936  1010000 
 1796000   0.88262888   -3.9931056   -3.9931056   -2.6691636  0.022316537   -3.9931056     1.323942  1010000 
 1797000   0.88205315    -3.992244    -3.992244   -2.6691655  0.025570078    -3.992244    1.3230784  1010000 
 1798000   0.88168527    -3.991661    -3.991661   -2.6691344  0.025033207    -3.991661    1.3225266  1010000 
 1799000    0.8822812   -3.9921452   -3.9921452   -2.6687247  0.027664715   -3.9921452    1.3234205  1010000 
 1800000   0.88344492   -3.9925973   -3.9925973   -2.6674312  0.028938078   -3.9925973    1.3251661  1010000 
 1801000   0.88282078   -3.9912708   -3.9912708    -2.667041  0.033057335   -3.9912708    1.3242299  1010000 
 1802000    0.8831502   -3.9910762   -3.9910762   -2.6663522  0.028625458   -3.9910762     1.324724  1010000 
 1803000   0.88337425    -3.991371    -3.991371   -2.6663109  0.025829758    -3.991371    1.3250601  1010000 
 1804000   0.88221819   -3.9898863   -3.9898863   -2.6665603  0.029876597   -3.9898863     1.323326  1010000 
 1805000    0.8835504   -3.9919118   -3.9919118   -2.6665875  0.024729737   -3.9919118    1.3253243  1010000 
 1806000   0.88263018   -3.9902181   -3.9902181   -2.6662742  0.027054356   -3.9902181     1.323944  1010000 
 1807000    0.8821889   -3.9897797   -3.9897797   -2.6664977  0.023498137   -3.9897797     1.323282  1010000 
 1808000   0.88249303   -3.9896939   -3.9896939   -2.6659557  0.025243682   -3.9896939    1.3237382  1010000 
 1809000    0.8824228   -3.9892066   -3.9892066   -2.6655737  0.023768454   -3.9892066    1.3236329  1010000 
 1810000   0.88282804   -3.9906111   -3.9906111   -2.6663703  0.024004327   -3.9906111    1.3242408  1010000 
 1811000   0.88232749   -3.9888957   -3.9888957   -2.6654057  0.029755661   -3.9888957    1.3234899  1010000 
 1812000    0.8834132   -3.9899344   -3.9899344   -2.6648159  0.027978564   -3.9899344    1.3251185  1010000 
 1813000   0.88399846   -3.9907298   -3.9907298   -2.6647334  0.024609405   -3.9907298    1.3259964  1010000 
 1814000   0.88376273   -3.9900971   -3.9900971   -2.6644544  0.026832974   -3.9900971    1.3256428  1010000 
 1815000   0.88390214   -3.9891844   -3.9891844   -2.6633325  0.031705336   -3.9891844    1.3258519  1010000 
 1816000     0.884963   -3.9910235   -3.9910235   -2.6635803  0.022747223   -3.9910235    1.3274432  1010000 
 1817000   0.88479748   -3.9895042   -3.9895042   -2.6623093  0.029274324   -3.9895042    1.3271949  1010000 
 1818000   0.88384907   -3.9885163   -3.9885163    -2.662744  0.028424637   -3.9885163    1.3257723  1010000 
 1819000   0.88457166   -3.9889412   -3.9889412    -2.662085  0.025702709   -3.9889412    1.3268562  1010000 
 1820000   0.88400666   -3.9880352   -3.9880352   -2.6620265  0.028878331   -3.9880352    1.3260087  1010000 
 1821000   0.88457163   -3.9894515   -3.9894515   -2.6625953  0.026679204   -3.9894515    1.3268561  1010000 
 1822000   0.88480973   -3.9894124   -3.9894124   -2.6621991  0.029879981   -3.9894124    1.3272133  1010000 
 1823000   0.88444282    -3.988092    -3.988092   -2.6614291  0.027598954    -3.988092    1.3266629  1010000 
 1824000   0.88331216   -3.9874106   -3.9874106   -2.6624437  0.025819986   -3.9874106    1.3249669  1010000 
 1825000   0.88487499   -3.9879331   -3.9879331    -2.660622  0.025019883   -3.9879331    1.3273112  1010000 
 1826000   0.88377111   -3.9868411   -3.9868411   -2.6611857  0.024341134   -3.9868411    1.3256554  1010000 
 1827000   0.88388171   -3.9872261   -3.9872261   -2.6614049  0.020059088   -3.9872261    1.3258213  1010000 
 1828000   0.88379974   -3.9861789   -3.9861789   -2.6604807  0.025422648   -3.9861789    1.3256983  1010000 
 1829000   0.88428285   -3.9858074   -3.9858074   -2.6593845  0.023535119   -3.9858074     1.326423  1010000 
 1830000   0.88529079   -3.9869278   -3.9869278   -2.6589929  0.024412392   -3.9869278    1.3279349  1010000 
 1831000   0.88454006    -3.985461    -3.985461   -2.6586522  0.027800571    -3.985461    1.3268088  1010000 
 1832000   0.88456435   -3.9856275   -3.9856275   -2.6587823   0.02643414   -3.9856275    1.3268452  1010000 
 1833000   0.88480292   -3.9845406   -3.9845406   -2.6573375  0.027965077   -3.9845406    1.3272031  1010000 
 1834000   0.88536955   -3.9848625   -3.9848625   -2.6568095  0.025162176   -3.9848625     1.328053  1010000 
 1835000   0.88543941   -3.9850658   -3.9850658    -2.656908  0.028911194   -3.9850658    1.3281578  1010000 
 1836000   0.88595341   -3.9850484   -3.9850484   -2.6561196  0.027761068   -3.9850484    1.3289288  1010000 
 1837000   0.88487078   -3.9836655   -3.9836655   -2.6563607  0.029471382   -3.9836655    1.3273049  1010000 
 1838000   0.88449395   -3.9832082   -3.9832082   -2.6564686  0.025073697   -3.9832082    1.3267396  1010000 
 1839000   0.88412473   -3.9826723   -3.9826723   -2.6564865  0.022924029   -3.9826723    1.3261858  1010000 
 1840000   0.88427551   -3.9820586   -3.9820586   -2.6556466  0.027090304   -3.9820586     1.326412  1010000 
 1841000   0.88466562   -3.9823213   -3.9823213   -2.6553242  0.023440629   -3.9823213    1.3269971  1010000 
 1842000   0.88462633    -3.982081    -3.982081   -2.6551429   0.02395165    -3.982081    1.3269382  1010000 
 1843000     0.883799   -3.9793672   -3.9793672     -2.65367  0.026259068   -3.9793672    1.3256972  1010000 
 1844000   0.88523402    -3.980942    -3.980942   -2.6530923  0.024809137    -3.980942    1.3278497  1010000 
 1845000   0.88537754   -3.9822805   -3.9822805   -2.6542155  0.020297374   -3.9822805     1.328065  1010000 
 1846000   0.88507159   -3.9811965   -3.9811965   -2.6535905  0.023663308   -3.9811965    1.3276061  1010000 
 1847000   0.88537013   -3.9813456   -3.9813456   -2.6532917  0.023843022   -3.9813456    1.3280539  1010000 
 1848000   0.88552358    -3.981094    -3.981094     -2.65281  0.025547269    -3.981094    1.3282841  1010000 
 1849000   0.88625884    -3.981576    -3.981576    -2.652189  0.023060189    -3.981576    1.3293869  1010000 
 1850000   0.88547575   -3.9795572   -3.9795572   -2.6513449  0.029115992   -3.9795572    1.3282123  1010000 
 1851000   0.88671685   -3.9803293   -3.9803293   -2.6502553  0.020026829   -3.9803293     1.330074  1010000 
 1852000   0.88626067   -3.9798022   -3.9798022   -2.6504125   0.02414402   -3.9798022    1.3293897  1010000 
 1853000   0.88536607   -3.9784982   -3.9784982   -2.6504504   0.02826254   -3.9784982    1.3280478  1010000 
 1854000   0.88555907   -3.9788521   -3.9788521   -2.6505148  0.022822779   -3.9788521    1.3283373  1010000 
 1855000    0.8846073   -3.9776783   -3.9776783   -2.6507686  0.024264935   -3.9776783    1.3269096  1010000 
 1856000   0.88442722    -3.977128    -3.977128   -2.6504884  0.026362169    -3.977128    1.3266395  1010000 
 1857000   0.88523541   -3.9774381   -3.9774381   -2.6495863  0.025973554   -3.9774381    1.3278518  1010000 
 1858000   0.88526766   -3.9766109   -3.9766109   -2.6487108  0.026960131   -3.9766109    1.3279002  1010000 
 1859000   0.88587185   -3.9783862   -3.9783862   -2.6495798   0.02452904   -3.9783862    1.3288065  1010000 
 1860000   0.88604582   -3.9774657   -3.9774657   -2.6483983  0.025571219   -3.9774657    1.3290674  1010000 
 1861000   0.88589842   -3.9774191   -3.9774191   -2.6485728  0.024291952   -3.9774191    1.3288463  1010000 
 1862000   0.88642121   -3.9776409   -3.9776409   -2.6480104  0.020990224   -3.9776409    1.3296305  1010000 
 1863000   0.88622561   -3.9767104   -3.9767104   -2.6473733  0.025890955   -3.9767104    1.3293371  1010000 
 1864000   0.88666492   -3.9769705   -3.9769705   -2.6469744  0.024758633   -3.9769705    1.3299961  1010000 
 1865000    0.8856882   -3.9753013   -3.9753013   -2.6467703  0.026761058   -3.9753013     1.328531  1010000 
 1866000   0.88616545   -3.9755626   -3.9755626   -2.6463157    0.0265954   -3.9755626    1.3292469  1010000 
 1867000   0.88654003   -3.9760022   -3.9760022   -2.6461935  0.023586765   -3.9760022    1.3298087  1010000 
 1868000   0.88624876   -3.9760651   -3.9760651   -2.6466932  0.024183617   -3.9760651    1.3293718  1010000 
 1869000    0.8858938   -3.9751559   -3.9751559   -2.6463165  0.025944303   -3.9751559    1.3288394  1010000 
 1870000   0.88558246   -3.9744383   -3.9744383   -2.6460659  0.026751533   -3.9744383    1.3283724  1010000 
 1871000    0.8862353   -3.9754327   -3.9754327   -2.6460811    0.0249054   -3.9754327    1.3293516  1010000 
 1872000   0.88473344   -3.9735148   -3.9735148   -2.6464159  0.025106514   -3.9735148    1.3270989  1010000 
 1873000   0.88615134   -3.9749486   -3.9749486   -2.6457229  0.023790137   -3.9749486    1.3292257  1010000 
 1874000   0.88643117    -3.975098    -3.975098   -2.6454525  0.023509966    -3.975098    1.3296454  1010000 
 1875000   0.88576333   -3.9739165   -3.9739165   -2.6452729  0.027073822   -3.9739165    1.3286437  1010000 
 1876000   0.88543295   -3.9738662   -3.9738662   -2.6457181  0.023168788   -3.9738662    1.3281481  1010000 
 1877000   0.88672247   -3.9753603   -3.9753603   -2.6452779  0.022382607   -3.9753603    1.3300824  1010000 
 1878000   0.88719083   -3.9759917   -3.9759917   -2.6452068  0.026027067   -3.9759917    1.3307849  1010000 
 1879000   0.88730643   -3.9753748   -3.9753748   -2.6444165  0.027753487   -3.9753748    1.3309583  1010000 
 1880000   0.88584234   -3.9735071   -3.9735071   -2.6447449  0.028544814   -3.9735071    1.3287622  1010000 
 1881000   0.88687463   -3.9743229   -3.9743229   -2.6440123  0.027360552   -3.9743229    1.3303106  1010000 
 1882000   0.88662902   -3.9742565   -3.9742565   -2.6443143  0.023767565   -3.9742565    1.3299422  1010000 
 1883000   0.88723769   -3.9744024   -3.9744024   -2.6435472  0.024189974   -3.9744024    1.3308552  1010000 
 1884000   0.88665901   -3.9742518   -3.9742518   -2.6442646  0.025974575   -3.9742518    1.3299872  1010000 
 1885000   0.88608713   -3.9736559   -3.9736559   -2.6445265  0.026844135   -3.9736559    1.3291294  1010000 
 1886000   0.88740155   -3.9749118   -3.9749118   -2.6438108  0.027186936   -3.9749118     1.331101  1010000 
 1887000   0.88583316   -3.9726621   -3.9726621   -2.6439136  0.030412076   -3.9726621    1.3287484  1010000 
 1888000   0.88729514   -3.9743529   -3.9743529   -2.6434115  0.021821287   -3.9743529    1.3309414  1010000 
 1889000   0.88816367   -3.9751565   -3.9751565   -2.6429123  0.027039602   -3.9751565    1.3322442  1010000 
 1890000   0.88812181   -3.9748902   -3.9748902   -2.6427088  0.027082968   -3.9748902    1.3321814  1010000 
 1891000   0.88764659   -3.9738274   -3.9738274   -2.6423588    0.0268441   -3.9738274    1.3314686  1010000 
 1892000   0.88728746   -3.9734578   -3.9734578   -2.6425279  0.027291223   -3.9734578    1.3309299  1010000 
 1893000   0.88728856   -3.9735417   -3.9735417   -2.6426102  0.029382871   -3.9735417    1.3309315  1010000 
 1894000   0.88706502    -3.972615    -3.972615   -2.6420188  0.027596999    -3.972615    1.3305962  1010000 
 1895000   0.88732878   -3.9723566   -3.9723566   -2.6413648  0.026280282   -3.9723566    1.3309918  1010000 
 1896000   0.88727421   -3.9724383   -3.9724383   -2.6415283  0.025941634   -3.9724383      1.33091  1010000 
 1897000   0.88791411   -3.9727382   -3.9727382   -2.6408684  0.023759654   -3.9727382    1.3318698  1010000 
 1898000    0.8873518     -3.97187     -3.97187   -2.6408436  0.030151399     -3.97187    1.3310264  1010000 
 1899000   0.88777065   -3.9721197   -3.9721197    -2.640465  0.029172795   -3.9721197    1.3316546  1010000 
 1900000   0.88776196   -3.9720882   -3.9720882   -2.6404466  0.030506364   -3.9720882    1.3316416  1010000 
 1901000   0.88844983   -3.9723774   -3.9723774    -2.639704  0.029013239   -3.9723774    1.3326734  1010000 
 1902000   0.88751853    -3.969995    -3.969995   -2.6387185  0.026994666    -3.969995    1.3312765  1010000 
 1903000   0.88769463   -3.9697139   -3.9697139   -2.6381732  0.026635138   -3.9697139    1.3315406  1010000 
 1904000    0.8876449   -3.9684302   -3.9684302   -2.6369642  0.032905672   -3.9684302     1.331466  1010000 
 1905000   0.88834326   -3.9701983   -3.9701983   -2.6376847  0.027661756   -3.9701983    1.3325136  1010000 
 1906000   0.88724304   -3.9687155   -3.9687155   -2.6378522  0.028461164   -3.9687155    1.3308632  1010000 
 1907000   0.88634608   -3.9669364   -3.9669364   -2.6374186   0.02894002   -3.9669364    1.3295178  1010000 
 1908000   0.88742943    -3.968015    -3.968015   -2.6368722  0.023913971    -3.968015    1.3311428  1010000 
 1909000   0.88690128    -3.966324    -3.966324   -2.6359734  0.024213567    -3.966324    1.3303506  1010000 
 1910000   0.88736794   -3.9670132   -3.9670132   -2.6359626  0.022632849   -3.9670132    1.3310506  1010000 
 1911000   0.88832713   -3.9682876   -3.9682876   -2.6357982  0.020894742   -3.9682876    1.3324894  1010000 
 1912000   0.88808143    -3.967913    -3.967913   -2.6357922  0.020597074    -3.967913    1.3321208  1010000 
 1913000   0.88768248   -3.9667178   -3.9667178   -2.6351954   0.02399192   -3.9667178    1.3315224  1010000 
 1914000   0.88746226   -3.9669266   -3.9669266   -2.6357346  0.025453906   -3.9669266    1.3311921  1010000 
 1915000   0.88724049   -3.9659489   -3.9659489   -2.6350895  0.024483925   -3.9659489    1.3308594  1010000 
 1916000    0.8870098   -3.9650097   -3.9650097   -2.6344963  0.029731141   -3.9650097    1.3305134  1010000 
 1917000   0.88774162   -3.9653463   -3.9653463   -2.6337352  0.023526573   -3.9653463    1.3316111  1010000 
 1918000   0.88775765   -3.9645562   -3.9645562    -2.632921  0.025936173   -3.9645562    1.3316352  1010000 
 1919000   0.88757135   -3.9645994   -3.9645994   -2.6332437  0.025029366   -3.9645994    1.3313557  1010000 
 1920000   0.88680676   -3.9637991   -3.9637991   -2.6335903  0.025555515   -3.9637991    1.3302088  1010000 
 1921000   0.88764129   -3.9650042   -3.9650042   -2.6335435  0.022851934   -3.9650042    1.3314606  1010000 
 1922000   0.88770182   -3.9645323   -3.9645323   -2.6329809  0.025438363   -3.9645323    1.3315514  1010000 
 1923000   0.88807896   -3.9639981   -3.9639981    -2.631881  0.025590616   -3.9639981    1.3321171  1010000 
 1924000   0.88841838   -3.9647729   -3.9647729   -2.6321466   0.02578793   -3.9647729    1.3326263  1010000 
 1925000   0.88845139   -3.9648348   -3.9648348    -2.632159  0.024306437   -3.9648348    1.3326758  1010000 
 1926000   0.88777861   -3.9633481   -3.9633481   -2.6316815  0.030607416   -3.9633481    1.3316666  1010000 
 1927000   0.88831044   -3.9642198   -3.9642198   -2.6317555  0.026557031   -3.9642198    1.3324643  1010000 
 1928000   0.88860277   -3.9639825   -3.9639825   -2.6310797  0.027538672   -3.9639825    1.3329028  1010000 
 1929000   0.88930469    -3.964759    -3.964759   -2.6308032  0.030260089    -3.964759    1.3339557  1010000 
 1930000   0.88919283   -3.9638681   -3.9638681   -2.6300802  0.028293804   -3.9638681    1.3337879  1010000 
 1931000   0.88922784    -3.962892    -3.962892   -2.6290515  0.033174139    -3.962892    1.3338404  1010000 
 1932000   0.88942158   -3.9625464   -3.9625464   -2.6284153  0.028952086   -3.9625464     1.334131  1010000 
 1933000   0.89020882   -3.9634101   -3.9634101   -2.6280982  0.029867882   -3.9634101    1.3353119  1010000 
 1934000   0.89009186   -3.9633367   -3.9633367   -2.6282003  0.029108802   -3.9633367    1.3351365  1010000 
 1935000   0.88974473    -3.963243    -3.963243   -2.6286272  0.031318008    -3.963243    1.3346158  1010000 
 1936000    0.8895862   -3.9630238   -3.9630238   -2.6286458  0.027488175   -3.9630238     1.334378  1010000 
 1937000   0.88951304   -3.9627568   -3.9627568   -2.6284885  0.027524781   -3.9627568    1.3342682  1010000 
 1938000   0.88951075   -3.9624064   -3.9624064   -2.6281415  0.024689589   -3.9624064    1.3342648  1010000 
 1939000   0.88828282   -3.9604587   -3.9604587   -2.6280357  0.027663613   -3.9604587    1.3324229  1010000 
 1940000   0.88775085   -3.9597473   -3.9597473   -2.6281223  0.021327021   -3.9597473     1.331625  1010000 
 1941000   0.88747521   -3.9597843   -3.9597843   -2.6285728  0.024610463   -3.9597843    1.3312115  1010000 
 1942000    0.8880304   -3.9598883   -3.9598883    -2.627844  0.022360162   -3.9598883    1.3320443  1010000 
 1943000   0.88898542   -3.9612347   -3.9612347   -2.6277579  0.024772604   -3.9612347    1.3334768  1010000 
 1944000   0.88912456   -3.9609278   -3.9609278   -2.6272423  0.022840526   -3.9609278    1.3336855  1010000 
 1945000   0.88790288   -3.9586517   -3.9586517   -2.6267987  0.026700875   -3.9586517     1.331853  1010000 
 1946000   0.88835236   -3.9590163   -3.9590163   -2.6264891  0.027134444   -3.9590163    1.3325272  1010000 
 1947000    0.8893164   -3.9591796   -3.9591796   -2.6252063  0.026382416   -3.9591796    1.3339733  1010000 
 1948000   0.88944333   -3.9591569   -3.9591569   -2.6249932  0.027110469   -3.9591569    1.3341637  1010000 
 1949000   0.88988206   -3.9595608   -3.9595608   -2.6247391  0.026905278   -3.9595608    1.3348218  1010000 
 1950000   0.88947527   -3.9582608   -3.9582608   -2.6240492  0.026640555   -3.9582608    1.3342116  1010000 
 1951000   0.88967381   -3.9597108   -3.9597108   -2.6252014  0.022862331   -3.9597108    1.3345094  1010000 
 1952000   0.88962847   -3.9587309   -3.9587309   -2.6242895  0.024564037   -3.9587309    1.3344414  1010000 
 1953000   0.88897997   -3.9569176   -3.9569176   -2.6234489  0.028585381   -3.9569176    1.3334686  1010000 
 1954000   0.88846451   -3.9560696   -3.9560696   -2.6233742  0.026693948   -3.9560696    1.3326954  1010000 
 1955000   0.88866017   -3.9570021   -3.9570021   -2.6240132  0.023000317   -3.9570021    1.3329889  1010000 
 1956000   0.88814889   -3.9563288   -3.9563288   -2.6241068  0.025841234   -3.9563288     1.332222  1010000 
 1957000   0.88884002   -3.9564535   -3.9564535   -2.6231947  0.025159077   -3.9564535    1.3332587  1010000 
 1958000   0.88807006     -3.95621     -3.95621   -2.6241063  0.026794185     -3.95621    1.3321038  1010000 
 1959000   0.88893836    -3.956869    -3.956869   -2.6234628   0.02513866    -3.956869    1.3334062  1010000 
 1960000   0.88960751   -3.9576694   -3.9576694   -2.6232595  0.024015169   -3.9576694    1.3344099  1010000 
 1961000   0.88943241   -3.9574887   -3.9574887   -2.6233414  0.029748847   -3.9574887    1.3341473  1010000 
 1962000   0.89005783   -3.9567389   -3.9567389   -2.6216535  0.028861396   -3.9567389    1.3350854  1010000 
 1963000   0.88957807   -3.9566773   -3.9566773   -2.6223115  0.029991809   -3.9566773    1.3343658  1010000 
 1964000   0.88956613   -3.9561115   -3.9561115   -2.6217636  0.025126102   -3.9561115    1.3343479  1010000 
 1965000   0.88973404   -3.9558615   -3.9558615   -2.6212618  0.023669624   -3.9558615    1.3345997  1010000 
 1966000   0.89032285    -3.957039    -3.957039   -2.6215561  0.026928772    -3.957039     1.335483  1010000 
 1967000   0.89089262   -3.9574837   -3.9574837    -2.621146  0.026414097   -3.9574837    1.3363376  1010000 
 1968000   0.88957489   -3.9555206   -3.9555206   -2.6211596  0.033293118   -3.9555206     1.334361  1010000 
 1969000   0.89023472   -3.9558565   -3.9558565   -2.6205058   0.02946004   -3.9558565    1.3353508  1010000 
 1970000    0.8905714   -3.9563294   -3.9563294   -2.6204736  0.029187744   -3.9563294    1.3358558  1010000 
 1971000   0.89113841    -3.957337    -3.957337   -2.6206307  0.027338226    -3.957337    1.3367063  1010000 
 1972000     0.892046   -3.9572863   -3.9572863   -2.6192186  0.032899861   -3.9572863    1.3380677  1010000 
 1973000   0.89148524   -3.9559943   -3.9559943   -2.6187678  0.027857371   -3.9559943    1.3372265  1010000 
 1974000   0.89145513   -3.9560739   -3.9560739   -2.6188925   0.02678716   -3.9560739    1.3371814  1010000 
 1975000   0.89047299   -3.9548233   -3.9548233   -2.6191152  0.027965252   -3.9548233    1.3357082  1010000 
 1976000   0.89100473   -3.9552043   -3.9552043   -2.6186986  0.025055456   -3.9552043    1.3365058  1010000 
 1977000    0.8904553   -3.9542113   -3.9542113   -2.6185297  0.029707755   -3.9542113    1.3356816  1010000 
 1978000   0.89028477   -3.9534715   -3.9534715   -2.6180457  0.029197944   -3.9534715    1.3354258  1010000 
 1979000   0.89073086   -3.9541043   -3.9541043   -2.6180093  0.028750567   -3.9541043     1.336095  1010000 
 1980000   0.89046371   -3.9535416   -3.9535416   -2.6178474  0.025700743   -3.9535416    1.3356942  1010000 
 1981000   0.89051567   -3.9530665   -3.9530665   -2.6172943  0.024415447   -3.9530665    1.3357722  1010000 
 1982000   0.88984871   -3.9520056   -3.9520056   -2.6172338  0.028281644   -3.9520056    1.3347717  1010000 
 1983000   0.89074621   -3.9522914   -3.9522914   -2.6161735   0.02818164   -3.9522914     1.336118  1010000 
 1984000   0.88965123   -3.9505625   -3.9505625    -2.616087  0.027454386   -3.9505625    1.3344755  1010000 
 1985000   0.89099217    -3.952363    -3.952363   -2.6158761  0.024144287    -3.952363    1.3364869  1010000 
 1986000   0.89029923   -3.9514393   -3.9514393   -2.6159918  0.023486573   -3.9514393    1.3354475  1010000 
 1987000   0.89078307   -3.9518327   -3.9518327   -2.6156594  0.024077636   -3.9518327    1.3361733  1010000 
 1988000   0.88972533   -3.9502171   -3.9502171   -2.6156305  0.024629404   -3.9502171    1.3345867  1010000 
 1989000   0.89049226   -3.9504209   -3.9504209   -2.6146839  0.023195652   -3.9504209    1.3357371  1010000 
 1990000   0.88975849   -3.9493628   -3.9493628   -2.6147264  0.025393886   -3.9493628    1.3346364  1010000 
 1991000   0.88975877   -3.9490215   -3.9490215   -2.6143847  0.021135414   -3.9490215    1.3346368  1010000 
 1992000   0.89075877   -3.9503075   -3.9503075   -2.6141706  0.024298561   -3.9503075    1.3361368  1010000 
 1993000   0.89071819   -3.9500777   -3.9500777   -2.6140017  0.023056794   -3.9500777     1.336076  1010000 
 1994000   0.88971112   -3.9487643   -3.9487643    -2.614199  0.027576436   -3.9487643    1.3345654  1010000 
 1995000   0.89042831   -3.9493656   -3.9493656   -2.6137244  0.027417379   -3.9493656    1.3356411  1010000 
 1996000   0.89082386   -3.9492008   -3.9492008   -2.6129664  0.027996443   -3.9492008    1.3362345  1010000 
 1997000   0.89162136   -3.9503581   -3.9503581   -2.6129274  0.025022209   -3.9503581    1.3374307  1010000 
 1998000   0.89185756   -3.9500427   -3.9500427   -2.6122577  0.023951826   -3.9500427     1.337785  1010000 
 1999000   0.89116196   -3.9488835   -3.9488835   -2.6121418  0.026835676   -3.9488835    1.3367416  1010000 
 2000000   0.89121843    -3.948796    -3.948796   -2.6119697   0.02874502    -3.948796    1.3368263  1010000 
 2001000   0.89185645   -3.9494918   -3.9494918   -2.6117085  0.026944416   -3.9494918    1.3377834  1010000 
 2002000   0.89079736   -3.9484044   -3.9484044   -2.6122097  0.030692618   -3.9484044    1.3361947  1010000 
 2003000   0.89231858   -3.9492696   -3.9492696    -2.610793  0.028832815   -3.9492696    1.3384766  1010000 
 2004000   0.89207357    -3.949317    -3.949317   -2.6112079  0.027033332    -3.949317     1.338109  1010000 
 2005000   0.89193944   -3.9493373   -3.9493373   -2.6114295  0.029020273   -3.9493373    1.3379078  1010000 
 2006000   0.89174734   -3.9482847   -3.9482847    -2.610665  0.029600144   -3.9482847    1.3376197  1010000 
 2007000   0.89258908   -3.9495346   -3.9495346   -2.6106523  0.029583387   -3.9495346    1.3388823  1010000 
 2008000   0.89135844   -3.9471755   -3.9471755   -2.6101392  0.033172223   -3.9471755    1.3370363  1010000 
 2009000   0.89241962   -3.9487689   -3.9487689   -2.6101408  0.028828722   -3.9487689    1.3386281  1010000 
 2010000   0.89231122   -3.9481125   -3.9481125    -2.609647  0.031162762   -3.9481125    1.3384655  1010000 
 2011000   0.89234013   -3.9478784   -3.9478784   -2.6093696  0.029891648   -3.9478784    1.3385089  1010000 
 2012000   0.89223889   -3.9476846   -3.9476846   -2.6093275  0.027791132   -3.9476846     1.338357  1010000 
 2013000   0.89221473   -3.9475476   -3.9475476   -2.6092268  0.023258858   -3.9475476    1.3383208  1010000 
 2014000   0.89222987    -3.947094    -3.947094   -2.6087505  0.028098557    -3.947094    1.3383435  1010000 
 2015000   0.89213357   -3.9465364   -3.9465364   -2.6083374  0.031447846   -3.9465364     1.338199  1010000 
 2016000   0.89188898   -3.9452994   -3.9452994   -2.6074673  0.029899094   -3.9452994    1.3378321  1010000 
 2017000   0.89240514    -3.945734    -3.945734   -2.6071276  0.028522423    -3.945734    1.3386064  1010000 
 2018000   0.89213307   -3.9458028   -3.9458028   -2.6076045  0.029246598   -3.9458028    1.3381983  1010000 
 2019000   0.89105892   -3.9440326   -3.9440326   -2.6074455  0.027848303   -3.9440326    1.3365871  1010000 
 2020000   0.89261672   -3.9455275   -3.9455275   -2.6066037  0.025458897   -3.9455275    1.3389238  1010000 
 2021000   0.89170858    -3.944511    -3.944511   -2.6069494  0.024270851    -3.944511    1.3375615  1010000 
 2022000   0.89270391   -3.9453214   -3.9453214   -2.6062668  0.026059326   -3.9453214    1.3390545  1010000 
 2023000   0.89179803   -3.9441508   -3.9441508    -2.606455   0.02836892   -3.9441508    1.3376957  1010000 
 2024000   0.89221403   -3.9442563   -3.9442563   -2.6059365  0.026520542   -3.9442563    1.3383197  1010000 
 2025000   0.89132538   -3.9432171   -3.9432171   -2.6062304  0.027847829   -3.9432171    1.3369868  1010000 
 2026000   0.89102781   -3.9417665   -3.9417665   -2.6052261  0.021676209   -3.9417665    1.3365404  1010000 
 2027000   0.89299236   -3.9443396   -3.9443396   -2.6048524  0.026011658   -3.9443396    1.3394872  1010000 
 2028000   0.89168107   -3.9426188   -3.9426188   -2.6050985   0.02572926   -3.9426188    1.3375203  1010000 
 2029000   0.89245181   -3.9423606   -3.9423606   -2.6036842  0.027251753   -3.9423606    1.3386764  1010000 
 2030000   0.89224659   -3.9413237   -3.9413237   -2.6029551  0.028655312   -3.9413237    1.3383686  1010000 
 2031000   0.89311104   -3.9423202   -3.9423202   -2.6026549  0.025235185   -3.9423202    1.3396652  1010000 
 2032000   0.89337487   -3.9422654   -3.9422654   -2.6022044  0.025579478   -3.9422654     1.340061  1010000 
 2033000   0.89360509   -3.9420589   -3.9420589   -2.6016526  0.027751746   -3.9420589    1.3404063  1010000 
 2034000    0.8931829   -3.9417044   -3.9417044   -2.6019314  0.027048927   -3.9417044     1.339773  1010000 
 2035000   0.89252029   -3.9413517   -3.9413517   -2.6025726  0.027520831   -3.9413517    1.3387791  1010000 
 2036000   0.89380848   -3.9414731   -3.9414731   -2.6007617  0.025943677   -3.9414731    1.3407114  1010000 
 2037000   0.89300188    -3.940641    -3.940641   -2.6011395  0.022730713    -3.940641    1.3395015  1010000 
 2038000   0.89289762   -3.9397878   -3.9397878   -2.6004427  0.027416952   -3.9397878    1.3393451  1010000 
 2039000   0.89313421    -3.939781    -3.939781    -2.600081   0.02551247    -3.939781       1.3397  1010000 
 2040000    0.8940733   -3.9414262   -3.9414262   -2.6003175  0.022698849   -3.9414262    1.3411086  1010000 
 2041000   0.89245915   -3.9394987   -3.9394987   -2.6008113   0.03048209   -3.9394987    1.3386874  1010000 
 2042000   0.89330591   -3.9397405   -3.9397405   -2.5997829  0.027557948   -3.9397405    1.3399575  1010000 
 2043000   0.89311877   -3.9391191   -3.9391191   -2.5994422  0.028389645   -3.9391191    1.3396768  1010000 
 2044000   0.89367224   -3.9394496   -3.9394496   -2.5989426  0.023100414   -3.9394496     1.340507  1010000 
 2045000   0.89280709   -3.9383324   -3.9383324   -2.5991231  0.024697019   -3.9383324    1.3392093  1010000 
 2046000   0.89290819   -3.9385077   -3.9385077   -2.5991467  0.025021197   -3.9385077     1.339361  1010000 
 2047000   0.89308802   -3.9376981   -3.9376981   -2.5980674  0.026281338   -3.9376981    1.3396307  1010000 
 2048000   0.89300546   -3.9371578   -3.9371578   -2.5976509  0.027187345   -3.9371578    1.3395069  1010000 
 2049000   0.89398224   -3.9375973   -3.9375973   -2.5966252   0.02848191   -3.9375973     1.340972  1010000 
 2050000   0.89383339   -3.9372145   -3.9372145   -2.5964658  0.028198733   -3.9372145    1.3407488  1010000 
 2051000   0.89519324   -3.9390212   -3.9390212   -2.5962327  0.026058261   -3.9390212    1.3427885  1010000 
 2052000   0.89475576   -3.9387261   -3.9387261   -2.5965938  0.028187947   -3.9387261    1.3421323  1010000 
 2053000   0.89345156   -3.9363409   -3.9363409   -2.5961649  0.031067495   -3.9363409     1.340176  1010000 
 2054000   0.89342347   -3.9360752   -3.9360752   -2.5959414  0.032936857   -3.9360752    1.3401339  1010000 
 2055000    0.8946652   -3.9371443   -3.9371443   -2.5951479  0.029828774   -3.9371443    1.3419965  1010000 
 2056000   0.89430286   -3.9369542   -3.9369542   -2.5955012  0.026649674   -3.9369542     1.341453  1010000 
 2057000   0.89444222   -3.9370453   -3.9370453   -2.5953833  0.027483111   -3.9370453     1.341662  1010000 
 2058000   0.89408738   -3.9365254   -3.9365254   -2.5953957  0.023060744   -3.9365254    1.3411297  1010000 
 2059000   0.89325311   -3.9359397   -3.9359397   -2.5960613  0.021415712   -3.9359397    1.3398783  1010000 
 2060000   0.89312949   -3.9355958   -3.9355958   -2.5959029  0.025207993   -3.9355958    1.3396929  1010000 
 2061000    0.8936042   -3.9353608   -3.9353608   -2.5949558  0.025647923   -3.9353608     1.340405  1010000 
 2062000   0.89437869   -3.9353715   -3.9353715   -2.5938048  0.028510322   -3.9353715    1.3415667  1010000 
 2063000   0.89397729   -3.9357913   -3.9357913   -2.5948267  0.024495613   -3.9357913    1.3409646  1010000 
 2064000   0.89383192   -3.9348103   -3.9348103   -2.5940637   0.03204501   -3.9348103    1.3407466  1010000 
 2065000   0.89416293   -3.9351078   -3.9351078   -2.5938647  0.029555072   -3.9351078    1.3412431  1010000 
 2066000   0.89431395   -3.9345805   -3.9345805   -2.5931109  0.028963227   -3.9345805    1.3414696  1010000 
 2067000     0.894835   -3.9351584   -3.9351584   -2.5929073  0.028632348   -3.9351584    1.3422512  1010000 
 2068000   0.89555088   -3.9349695   -3.9349695   -2.5916445  0.028365146   -3.9349695     1.343325  1010000 
 2069000   0.89351852   -3.9322014   -3.9322014   -2.5919249  0.030662334   -3.9322014    1.3402764  1010000 
 2070000   0.89361337    -3.932324    -3.932324   -2.5919053  0.028604911    -3.932324    1.3404187  1010000 
 2071000   0.89409496   -3.9324543   -3.9324543   -2.5913132  0.024202828   -3.9324543    1.3411411  1010000 
 2072000   0.89488766   -3.9330775   -3.9330775   -2.5907473  0.025970575   -3.9330775    1.3423302  1010000 
 2073000   0.89382808   -3.9318245   -3.9318245   -2.5910837  0.026680732   -3.9318245    1.3407408  1010000 
 2074000   0.89465967   -3.9335241   -3.9335241    -2.591536  0.022109629   -3.9335241    1.3419882  1010000 
 2075000   0.89511098   -3.9340803   -3.9340803   -2.5914152  0.021301747   -3.9340803    1.3426651  1010000 
 2076000   0.89489029   -3.9330379   -3.9330379   -2.5907038   0.02379123   -3.9330379    1.3423341  1010000 
 2077000   0.89528166   -3.9329879   -3.9329879   -2.5900668  0.027195312   -3.9329879    1.3429212  1010000 
 2078000    0.8952017   -3.9328779   -3.9328779   -2.5900767  0.026504885   -3.9328779    1.3428012  1010000 
 2079000   0.89403994   -3.9306607   -3.9306607   -2.5896021  0.028326175   -3.9306607    1.3410586  1010000 
 2080000   0.89522243   -3.9318166   -3.9318166   -2.5889843  0.028132546   -3.9318166    1.3428323  1010000 
 2081000   0.89541883   -3.9324852   -3.9324852   -2.5893582  0.030566953   -3.9324852    1.3431269  1010000 
 2082000    0.8956972   -3.9311536   -3.9311536   -2.5876091  0.030241367   -3.9311536    1.3435445  1010000 
 2083000   0.89541599   -3.9313333   -3.9313333   -2.5882106  0.028236018   -3.9313333    1.3431227  1010000 
 2084000   0.89556468   -3.9314485   -3.9314485   -2.5881028  0.031372834   -3.9314485    1.3433457  1010000 
 2085000   0.89548543   -3.9311822   -3.9311822   -2.5879554   0.02532767   -3.9311822    1.3432268  1010000 
 2086000   0.89486993   -3.9300968   -3.9300968   -2.5877932  0.029627651   -3.9300968    1.3423036  1010000 
 2087000   0.89550086   -3.9307906   -3.9307906   -2.5875406  0.027186799   -3.9307906      1.34325  1010000 
 2088000   0.89565154   -3.9308922   -3.9308922   -2.5874162  0.030190831   -3.9308922     1.343476  1010000 
 2089000   0.89479523     -3.92941     -3.92941   -2.5872185  0.028359293     -3.92941    1.3421915  1010000 
 2090000   0.89523504   -3.9303155   -3.9303155   -2.5874642  0.026242661   -3.9303155    1.3428512  1010000 
 2091000   0.89514827   -3.9293097   -3.9293097   -2.5865886  0.027819052   -3.9293097    1.3427211  1010000 
 2092000    0.8960574   -3.9306895   -3.9306895   -2.5866047  0.021190387   -3.9306895    1.3440848  1010000 
 2093000   0.89539138    -3.928586    -3.928586   -2.5855002   0.02881268    -3.928586    1.3430857  1010000 
 2094000   0.89570314   -3.9290898   -3.9290898   -2.5855364  0.025481009   -3.9290898    1.3435534  1010000 
 2095000   0.89503611   -3.9277491   -3.9277491   -2.5851963  0.030930228   -3.9277491    1.3425528  1010000 
 2096000   0.89587708   -3.9282767   -3.9282767   -2.5844625  0.028239805   -3.9282767    1.3438143  1010000 
 2097000   0.89616232   -3.9278263   -3.9278263   -2.5835842  0.030242246   -3.9278263    1.3442421  1010000 
 2098000   0.89608923   -3.9280232   -3.9280232   -2.5838907  0.026313032   -3.9280232    1.3441325  1010000 
 2099000   0.89637901   -3.9277424   -3.9277424   -2.5831752  0.025385239   -3.9277424    1.3445672  1010000 
 2100000   0.89562278    -3.925658    -3.925658   -2.5822252  0.030263386    -3.925658    1.3434328  1010000 
 2101000   0.89670615   -3.9274195   -3.9274195   -2.5823616  0.024959302   -3.9274195    1.3450579  1010000 
 2102000    0.8971681   -3.9273858   -3.9273858    -2.581635  0.025115274   -3.9273858    1.3457508  1010000 
 2103000   0.89640941   -3.9268654   -3.9268654   -2.5822526  0.024138767   -3.9268654    1.3446128  1010000 
 2104000   0.89669711   -3.9271489   -3.9271489   -2.5821046  0.024913456   -3.9271489    1.3450443  1010000 
 2105000   0.89547255   -3.9244386   -3.9244386   -2.5812311  0.026421916   -3.9244386    1.3432075  1010000 
 2106000   0.89590602   -3.9249187   -3.9249187    -2.581061   0.02784012   -3.9249187    1.3438577  1010000 
 2107000   0.89532554   -3.9229339   -3.9229339   -2.5799469  0.026228453   -3.9229339     1.342987  1010000 
 2108000   0.89588691   -3.9243069   -3.9243069   -2.5804779  0.026970701   -3.9243069     1.343829  1010000 
 2109000   0.89654708   -3.9245333   -3.9245333    -2.579714    0.0246366   -3.9245333    1.3448193  1010000 
 2110000   0.89616429    -3.923764    -3.923764   -2.5795189  0.025529888    -3.923764    1.3442451  1010000 
 2111000   0.89526747   -3.9226107   -3.9226107   -2.5797109  0.027238818   -3.9226107    1.3428999  1010000 
 2112000   0.89510217    -3.921949    -3.921949   -2.5792971  0.025133655    -3.921949    1.3426519  1010000 
 2113000   0.89610407   -3.9229159   -3.9229159   -2.5787611  0.027524039   -3.9229159    1.3441548  1010000 
 2114000    0.8955809   -3.9220392   -3.9220392   -2.5786692  0.026003176   -3.9220392      1.34337  1010000 
 2115000   0.89590748   -3.9215997   -3.9215997   -2.5777398  0.024644229   -3.9215997    1.3438599  1010000 
 2116000    0.8962715   -3.9221846   -3.9221846   -2.5777786  0.023577819   -3.9221846    1.3444059  1010000 
 2117000    0.8956543   -3.9212406   -3.9212406   -2.5777604  0.024956623   -3.9212406    1.3434801  1010000 
 2118000   0.89677998    -3.922992    -3.922992   -2.5778233  0.021802819    -3.922992    1.3451686  1010000 
 2119000   0.89666095   -3.9228826   -3.9228826   -2.5778925  0.021775014   -3.9228826    1.3449901  1010000 
 2120000   0.89561899   -3.9210509   -3.9210509   -2.5776237  0.024998415   -3.9210509    1.3434271  1010000 
 2121000   0.89564295   -3.9204666   -3.9204666   -2.5770035  0.025580138   -3.9204666    1.3434631  1010000 
 2122000   0.89532102   -3.9198799   -3.9198799   -2.5768997  0.024991862   -3.9198799    1.3429802  1010000 
 2123000   0.89656463    -3.920918    -3.920918   -2.5760724  0.022037587    -3.920918    1.3448456  1010000 
 2124000   0.89699033   -3.9209243   -3.9209243   -2.5754401  0.026400009   -3.9209243    1.3454842  1010000 
 2125000   0.89651423   -3.9201141   -3.9201141   -2.5753441   0.02392792   -3.9201141      1.34477  1010000 
 2126000   0.89660676   -3.9194625   -3.9194625   -2.5745537  0.028464693   -3.9194625    1.3449088  1010000 
 2127000   0.89762888    -3.920881    -3.920881    -2.574439  0.025616177    -3.920881     1.346442  1010000 
 2128000    0.8970153   -3.9209074   -3.9209074   -2.5753858  0.026827742   -3.9209074    1.3455216  1010000 
 2129000    0.8966771   -3.9201224   -3.9201224    -2.575108   0.03152108   -3.9201224    1.3450143  1010000 
 2130000   0.89744075   -3.9211924   -3.9211924   -2.5750326  0.027924732   -3.9211924    1.3461598  1010000 
 2131000   0.89755712   -3.9207129   -3.9207129   -2.5743785  0.029548273   -3.9207129    1.3463343  1010000 
 2132000   0.89677411    -3.920645    -3.920645   -2.5754851  0.031599761    -3.920645    1.3451598  1010000 
 2133000   0.89694889   -3.9205261   -3.9205261   -2.5751041  0.029710182   -3.9205261     1.345422  1010000 
 2134000   0.89713303   -3.9204405   -3.9204405   -2.5747423  0.021130587   -3.9204405    1.3456982  1010000 
 2135000   0.89793339   -3.9205807   -3.9205807   -2.5736819  0.027910057   -3.9205807    1.3468988  1010000 
 2136000   0.89656103   -3.9186572   -3.9186572    -2.573817  0.029818572   -3.9186572    1.3448402  1010000 
 2137000    0.8981073   -3.9212184   -3.9212184   -2.5740588  0.025782707   -3.9212184    1.3471596  1010000 
 2138000   0.89766167   -3.9206008   -3.9206008   -2.5741096   0.02921821   -3.9206008    1.3464912  1010000 
 2139000   0.89695317    -3.919292    -3.919292   -2.5738636  0.031064488    -3.919292    1.3454284  1010000 
 2140000    0.8981394   -3.9209993   -3.9209993   -2.5737915  0.027291959   -3.9209993    1.3472078  1010000 
 2141000    0.8981511   -3.9204318   -3.9204318   -2.5732065  0.029886534   -3.9204318    1.3472253  1010000 
 2142000   0.89775354   -3.9198094   -3.9198094   -2.5731804  0.029113638   -3.9198094     1.346629  1010000 
 2143000   0.89807845    -3.919584    -3.919584   -2.5724676  0.026471323    -3.919584    1.3471163  1010000 
 2144000    0.8979286    -3.918149    -3.918149   -2.5712574  0.027378425    -3.918149    1.3468916  1010000 
 2145000   0.89817274   -3.9181081   -3.9181081   -2.5708503  0.030986743   -3.9181081    1.3472578  1010000 
 2146000   0.89817515   -3.9173552   -3.9173552   -2.5700938  0.028480468   -3.9173552    1.3472614  1010000 
 2147000   0.89776613   -3.9172994   -3.9172994   -2.5706516  0.026976379   -3.9172994    1.3466479  1010000 
 2148000   0.89804766   -3.9178262   -3.9178262   -2.5707561   0.02505424   -3.9178262    1.3470702  1010000 
 2149000   0.89775656   -3.9166657   -3.9166657   -2.5700322  0.028756419   -3.9166657    1.3466335  1010000 
 2150000   0.89897042   -3.9178109   -3.9178109   -2.5693567  0.027347086   -3.9178109    1.3484543  1010000 
 2151000   0.89822803   -3.9164736   -3.9164736   -2.5691329  0.027707664   -3.9164736    1.3473407  1010000 
 2152000   0.89806356   -3.9162041   -3.9162041   -2.5691101   0.02954638   -3.9162041     1.347094  1010000 
 2153000   0.89726997   -3.9152924   -3.9152924   -2.5693888  0.028707187   -3.9152924    1.3459036  1010000 
 2154000   0.89781949   -3.9161792   -3.9161792   -2.5694513  0.025221979   -3.9161792    1.3467279  1010000 
 2155000   0.89797963    -3.915546    -3.915546   -2.5685779  0.026047605    -3.915546    1.3469681  1010000 
 2156000   0.89756501   -3.9141411   -3.9141411   -2.5677949  0.025305401   -3.9141411    1.3463462  1010000 
 2157000   0.89680006   -3.9129979   -3.9129979   -2.5677991  0.024010092   -3.9129979    1.3451988  1010000 
 2158000   0.89768349   -3.9133835   -3.9133835   -2.5668596  0.024072564   -3.9133835    1.3465239  1010000 
 2159000   0.89729008   -3.9124968   -3.9124968    -2.566563  0.025531602   -3.9124968    1.3459338  1010000 
 2160000   0.89753897   -3.9121278   -3.9121278   -2.5658207  0.023736662   -3.9121278    1.3463071  1010000 
 2161000   0.89900377   -3.9133852   -3.9133852   -2.5648809   0.02427862   -3.9133852    1.3485043  1010000 
 2162000   0.89869747   -3.9128035   -3.9128035   -2.5647587  0.025674389   -3.9128035    1.3480449  1010000 
 2163000   0.89858279    -3.912315    -3.912315   -2.5644422  0.026352105    -3.912315    1.3478728  1010000 
 2164000    0.8989196   -3.9130093   -3.9130093   -2.5646312  0.028310019   -3.9130093    1.3483781  1010000 
 2165000   0.89863249   -3.9128696   -3.9128696   -2.5649222  0.028811358   -3.9128696    1.3479474  1010000 
 2166000   0.89805017   -3.9118151   -3.9118151   -2.5647412  0.025343442   -3.9118151    1.3470739  1010000 
 2167000   0.89858648   -3.9111816   -3.9111816   -2.5633032   0.02517875   -3.9111816    1.3478784  1010000 
 2168000   0.89767741   -3.9096918   -3.9096918    -2.563177  0.029721015   -3.9096918    1.3465148  1010000 
 2169000   0.89859458    -3.910883    -3.910883   -2.5629924   0.02069922    -3.910883    1.3478905  1010000 
 2170000   0.89856527   -3.9102566   -3.9102566   -2.5624101  0.028477992   -3.9102566    1.3478466  1010000 
 2171000    0.8982715   -3.9106684   -3.9106684   -2.5632625   0.02649336   -3.9106684    1.3474059  1010000 
 2172000   0.89820814   -3.9100286   -3.9100286   -2.5627177  0.025756479   -3.9100286    1.3473109  1010000 
 2173000   0.89826482    -3.909709    -3.909709   -2.5623131  0.027459557    -3.909709    1.3473959  1010000 
 2174000   0.89942225    -3.910733    -3.910733    -2.561601  0.026216282    -3.910733     1.349132  1010000 
 2175000   0.89891021   -3.9103052   -3.9103052   -2.5619413  0.030818935   -3.9103052     1.348364  1010000 
 2176000     0.900046   -3.9116465   -3.9116465   -2.5615788  0.027344573   -3.9116465    1.3500677  1010000 
 2177000   0.90019895    -3.911578    -3.911578   -2.5612809  0.028792414    -3.911578    1.3502971  1010000 
 2178000   0.89897302   -3.9094508   -3.9094508   -2.5609926  0.030935239   -3.9094508    1.3484582  1010000 
 2179000   0.89956455   -3.9103998   -3.9103998   -2.5610543  0.027607892   -3.9103998    1.3493455  1010000 
 2180000   0.89896546   -3.9095441   -3.9095441   -2.5610972  0.030690814   -3.9095441    1.3484469  1010000 
 2181000   0.89865729   -3.9085212   -3.9085212   -2.5605366  0.029291782   -3.9085212    1.3479846  1010000 
 2182000   0.89873854   -3.9077001   -3.9077001   -2.5595936  0.031109102   -3.9077001    1.3481065  1010000 
 2183000   0.89893234   -3.9087194   -3.9087194   -2.5603222  0.027960481   -3.9087194    1.3483972  1010000 
 2184000   0.89845629   -3.9071421   -3.9071421    -2.559459  0.028022307   -3.9071421    1.3476831  1010000 
 2185000   0.89958101   -3.9083296   -3.9083296   -2.5589594  0.027914234   -3.9083296    1.3493702  1010000 
 2186000   0.89959786   -3.9080812   -3.9080812   -2.5586858  0.026871625   -3.9080812    1.3493954  1010000 
 2187000   0.90008829    -3.908831    -3.908831   -2.5586999  0.027232349    -3.908831    1.3501311  1010000 
 2188000   0.89978248   -3.9076644   -3.9076644    -2.557992  0.029803987   -3.9076644    1.3496724  1010000 
 2189000   0.90031688   -3.9073204   -3.9073204   -2.5568464  0.033630075   -3.9073204     1.350474  1010000 
 2190000   0.90125696   -3.9089942   -3.9089942   -2.5571101  0.024985458   -3.9089942    1.3518841  1010000 
 2191000    0.8999487   -3.9064906   -3.9064906   -2.5565689  0.032508654   -3.9064906    1.3499217  1010000 
 2192000    0.8998696   -3.9061344   -3.9061344   -2.5563313  0.029498789   -3.9061344    1.3498031  1010000 
 2193000   0.90021341   -3.9066247   -3.9066247   -2.5563059  0.025721249   -3.9066247    1.3503188  1010000 
 2194000   0.90010271    -3.905855    -3.905855   -2.5557023  0.025675133    -3.905855    1.3501527  1010000 
 2195000   0.89924589    -3.904924    -3.904924   -2.5560565  0.022849115    -3.904924    1.3488675  1010000 
 2196000   0.89820881   -3.9032507   -3.9032507   -2.5559388  0.027106193   -3.9032507    1.3473119  1010000 
 2197000   0.89892138   -3.9037886   -3.9037886   -2.5554079  0.028204163   -3.9037886    1.3483807  1010000 
 2198000   0.89923583   -3.9040103   -3.9040103   -2.5551578   0.02483059   -3.9040103    1.3488524  1010000 
 2199000   0.89866193   -3.9030266   -3.9030266   -2.5550351  0.026767694   -3.9030266    1.3479916  1010000 
 2200000   0.89823006   -3.9024573   -3.9024573   -2.5551135  0.027847614   -3.9024573    1.3473438  1010000 
 2201000   0.89927636   -3.9029155   -3.9029155   -2.5540023  0.027769408   -3.9029155    1.3489132  1010000 
 2202000   0.89999288   -3.9037149   -3.9037149   -2.5537269  0.026458521   -3.9037149     1.349988  1010000 
 2203000   0.90053375   -3.9036065   -3.9036065   -2.5528073  0.028202953   -3.9036065    1.3507993  1010000 
 2204000   0.90005825   -3.9021211   -3.9021211    -2.552035  0.028148866   -3.9021211     1.350086  1010000 
 2205000   0.89992002   -3.9020695   -3.9020695   -2.5521908  0.030041986   -3.9020695    1.3498787  1010000 
 2206000   0.90012715   -3.9023252   -3.9023252   -2.5521358  0.026519862   -3.9023252    1.3501894  1010000 
 2207000   0.89974735   -3.9011747   -3.9011747    -2.551555  0.026029495   -3.9011747    1.3496197  1010000 
 2208000   0.89960957   -3.9020004   -3.9020004   -2.5525874  0.023623406   -3.9020004     1.349413  1010000 
 2209000    0.8998916   -3.9016531   -3.9016531    -2.551817  0.021633423   -3.9016531    1.3498361  1010000 
 2210000   0.89893591   -3.9001677   -3.9001677   -2.5517651  0.024409114   -3.9001677    1.3484025  1010000 
 2211000    0.8996328   -3.9011865   -3.9011865   -2.5517386  0.024203031   -3.9011865    1.3494479  1010000 
 2212000   0.89910608   -3.9001727   -3.9001727    -2.551515  0.025472301   -3.9001727    1.3486578  1010000 
 2213000   0.89965683   -3.9009713   -3.9009713   -2.5514873  0.025888713   -3.9009713    1.3494839  1010000 
 2214000    0.8994665   -3.9003867   -3.9003867   -2.5511883  0.029397012   -3.9003867    1.3491984  1010000 
 2215000   0.90022005    -3.901374    -3.901374   -2.5510453  0.022755698    -3.901374    1.3503287  1010000 
 2216000   0.90067714   -3.9006893   -3.9006893    -2.549675  0.028193477   -3.9006893    1.3510144  1010000 
 2217000   0.90059607   -3.9007932   -3.9007932   -2.5499005  0.029173916   -3.9007932    1.3508928  1010000 
 2218000   0.90107792   -3.9011117   -3.9011117   -2.5494961  0.030932834   -3.9011117    1.3516155  1010000 
 2219000   0.90189222   -3.9016306   -3.9016306   -2.5487936  0.027875355   -3.9016306     1.352837  1010000 
 2220000   0.90142684   -3.9005378   -3.9005378   -2.5483989  0.027355498   -3.9005378    1.3521389  1010000 
 2221000   0.90073796   -3.8994359   -3.8994359   -2.5483303  0.028990627   -3.8994359    1.3511056  1010000 
 2222000    0.9012697   -3.9002213   -3.9002213   -2.5483181  0.025782522   -3.9002213    1.3519032  1010000 
 2223000   0.90198836   -3.9011038   -3.9011038   -2.5481226  0.027778817   -3.9011038    1.3529812  1010000 
 2224000   0.90152884   -3.9005346   -3.9005346   -2.5482427  0.026143444   -3.9005346    1.3522919  1010000 
 2225000    0.9000944   -3.8990032   -3.8990032    -2.548863  0.025269234   -3.8990032    1.3501403  1010000 
 2226000   0.89920547   -3.8974807   -3.8974807   -2.5486738  0.027135955   -3.8974807    1.3488069  1010000 
 2227000   0.89985087   -3.8981821   -3.8981821   -2.5484071  0.026743711   -3.8981821     1.349775  1010000 
 2228000   0.90126852   -3.8996422   -3.8996422   -2.5477408  0.030305594   -3.8996422    1.3519014  1010000 
 2229000   0.90021195   -3.8981066   -3.8981066     -2.54779  0.031022713   -3.8981066    1.3503166  1010000 
 2230000   0.90163283   -3.9000735   -3.9000735   -2.5476256  0.029390232   -3.9000735    1.3524479  1010000 
 2231000   0.90063018   -3.8985979   -3.8985979   -2.5476539  0.027083173   -3.8985979    1.3509439  1010000 
 2232000   0.90074661   -3.8988481   -3.8988481   -2.5477295  0.025903208   -3.8988481    1.3511186  1010000 
 2233000   0.90130842   -3.8992394   -3.8992394   -2.5472781  0.024048166   -3.8992394    1.3519613  1010000 
 2234000   0.90002302   -3.8964747   -3.8964747   -2.5464416   0.02904576   -3.8964747    1.3500332  1010000 
 2235000   0.90073025   -3.8981283   -3.8981283   -2.5470342  0.023008461   -3.8981283     1.351094  1010000 
 2236000   0.90058917   -3.8972283   -3.8972283   -2.5463459  0.026501935   -3.8972283    1.3508824  1010000 
 2237000   0.90074933   -3.8973471   -3.8973471   -2.5462245  0.024617368   -3.8973471    1.3511227  1010000 
 2238000   0.90085358   -3.8970564   -3.8970564   -2.5457773   0.02599238   -3.8970564     1.351279  1010000 
 2239000    0.9012057   -3.8975836   -3.8975836   -2.5457764  0.025929938   -3.8975836    1.3518072  1010000 
 2240000   0.90153307   -3.8977501   -3.8977501   -2.5454518  0.028850044   -3.8977501    1.3522983  1010000 
 2241000   0.90164831   -3.8971172   -3.8971172   -2.5446461  0.029287324   -3.8971172    1.3524711  1010000 
 2242000   0.90128313    -3.896171    -3.896171   -2.5442477  0.027704171    -3.896171    1.3519234  1010000 
 2243000   0.90114884   -3.8948031   -3.8948031   -2.5430811  0.029319152   -3.8948031    1.3517219  1010000 
 2244000   0.90243692   -3.8967485   -3.8967485   -2.5430945  0.027396318   -3.8967485     1.353654  1010000 
 2245000   0.90217438   -3.8951675   -3.8951675   -2.5419073  0.029756073   -3.8951675    1.3532602  1010000 
 2246000   0.90223063   -3.8951587   -3.8951587   -2.5418141  0.035283162   -3.8951587    1.3533446  1010000 
 2247000   0.90172288   -3.8939251   -3.8939251   -2.5413421  0.031402237   -3.8939251     1.352583  1010000 
 2248000   0.90326272   -3.8956668   -3.8956668   -2.5407741  0.031628297   -3.8956668    1.3548927  1010000 
 2249000   0.90190574   -3.8937551   -3.8937551   -2.5408978  0.030501297   -3.8937551    1.3528573  1010000 
 2250000   0.90176761   -3.8932066   -3.8932066   -2.5405565  0.032217683   -3.8932066    1.3526501  1010000 
 2251000   0.90158693   -3.8930983   -3.8930983   -2.5407192  0.032105816   -3.8930983    1.3523791  1010000 
 2252000       0.9017   -3.8922209   -3.8922209   -2.5396722  0.029378794   -3.8922209    1.3525487  1010000 
 2253000   0.90144069   -3.8925341   -3.8925341   -2.5403744  0.023662778   -3.8925341    1.3521597  1010000 
 2254000    0.9012185   -3.8911827   -3.8911827   -2.5393563  0.025954128   -3.8911827    1.3518264  1010000 
 2255000   0.90147422   -3.8913278   -3.8913278   -2.5391178  0.028414688   -3.8913278      1.35221  1010000 
 2256000    0.9005569   -3.8891542   -3.8891542   -2.5383202  0.026301322   -3.8891542     1.350834  1010000 
 2257000   0.90048131    -3.889062    -3.889062   -2.5383414  0.029043141    -3.889062    1.3507206  1010000 
 2258000   0.90110525   -3.8900653   -3.8900653   -2.5384088  0.024424059   -3.8900653    1.3516565  1010000 
 2259000   0.90207877   -3.8898612   -3.8898612   -2.5367444  0.023214965   -3.8898612    1.3531168  1010000 
 2260000    0.9016206    -3.888863    -3.888863   -2.5364334  0.027163199    -3.888863    1.3524296  1010000 
 2261000   0.90156066   -3.8887894   -3.8887894   -2.5364498  0.027723037   -3.8887894    1.3523396  1010000 
 2262000   0.90208937   -3.8888029   -3.8888029   -2.5356701  0.027121075   -3.8888029    1.3531327  1010000 
 2263000   0.90204993    -3.888905    -3.888905   -2.5358315  0.028983119    -3.888905    1.3530735  1010000 
 2264000   0.90257155   -3.8888076   -3.8888076   -2.5349516  0.027758254   -3.8888076     1.353856  1010000 
 2265000   0.90237264   -3.8882663   -3.8882663   -2.5347087  0.024091759   -3.8882663    1.3535576  1010000 
 2266000   0.90269284   -3.8886203   -3.8886203   -2.5345824  0.023884333   -3.8886203    1.3540379  1010000 
 2267000   0.90243034   -3.8869353   -3.8869353   -2.5332911  0.027316892   -3.8869353    1.3536442  1010000 
 2268000   0.90251323   -3.8870114   -3.8870114   -2.5332429  0.026927158   -3.8870114    1.3537685  1010000 
 2269000   0.90251903   -3.8869683   -3.8869683   -2.5331911    0.0280401   -3.8869683    1.3537772  1010000 
 2270000   0.90200653    -3.885686    -3.885686   -2.5326775  0.029857256    -3.885686    1.3530085  1010000 
 2271000    0.9023631   -3.8864043   -3.8864043    -2.532861  0.030781017   -3.8864043    1.3535433  1010000 
 2272000   0.90304401   -3.8873148   -3.8873148   -2.5327501  0.026393371   -3.8873148    1.3545647  1010000 
 2273000   0.90300857     -3.88649     -3.88649   -2.5319785  0.031348999     -3.88649    1.3545115  1010000 
 2274000   0.90294421    -3.885742    -3.885742    -2.531327  0.030582648    -3.885742     1.354415  1010000 
 2275000   0.90215165   -3.8841784   -3.8841784   -2.5309522   0.03203896   -3.8841784    1.3532261  1010000 
 2276000   0.90293409   -3.8852703   -3.8852703   -2.5308705  0.023289798   -3.8852703    1.3543998  1010000 
 2277000   0.90263355   -3.8845976   -3.8845976   -2.5306486  0.026387037   -3.8845976     1.353949  1010000 
 2278000   0.90289168    -3.884746    -3.884746   -2.5304098   0.02904131    -3.884746    1.3543362  1010000 
 2279000   0.90326788   -3.8855939   -3.8855939   -2.5306934  0.027648154   -3.8855939    1.3549005  1010000 
 2280000   0.90379599   -3.8860385   -3.8860385   -2.5303459  0.025615063   -3.8860385    1.3556926  1010000 
 2281000   0.90402759   -3.8856169   -3.8856169   -2.5295768  0.025795779   -3.8856169      1.35604  1010000 
 2282000   0.90416426   -3.8863992   -3.8863992   -2.5301542  0.025764666   -3.8863992     1.356245  1010000 
 2283000   0.90312657   -3.8844944   -3.8844944   -2.5298059  0.029083174   -3.8844944    1.3546885  1010000 
 2284000   0.90334504   -3.8845567   -3.8845567   -2.5295405  0.031694046   -3.8845567    1.3550162  1010000 
 2285000   0.90309191    -3.883701    -3.883701   -2.5290645  0.030106746    -3.883701    1.3546365  1010000 
 2286000   0.90375118   -3.8844931   -3.8844931   -2.5288677  0.027752882   -3.8844931    1.3556254  1010000 
 2287000   0.90316178   -3.8831329   -3.8831329   -2.5283916  0.028540572   -3.8831329    1.3547413  1010000 
 2288000   0.90396408   -3.8843699   -3.8843699   -2.5284252  0.027958982   -3.8843699    1.3559448  1010000 
 2289000   0.90315004   -3.8831054   -3.8831054   -2.5283816   0.02942123   -3.8831054    1.3547237  1010000 
 2290000   0.90443157   -3.8844735   -3.8844735   -2.5278275  0.027600836   -3.8844735     1.356646  1010000 
 2291000   0.90426253   -3.8835598   -3.8835598   -2.5271673  0.025034941   -3.8835598    1.3563925  1010000 
 2292000   0.90386941   -3.8833268   -3.8833268    -2.527524  0.028960631   -3.8833268    1.3558028  1010000 
 2293000   0.90319121   -3.8823101   -3.8823101   -2.5275247  0.030198577   -3.8823101    1.3547855  1010000 
 2294000   0.90447454   -3.8840129   -3.8840129   -2.5273025  0.028904963   -3.8840129    1.3567105  1010000 
 2295000   0.90394683   -3.8825138   -3.8825138   -2.5265949  0.030972539   -3.8825138    1.3559189  1010000 
 2296000   0.90462787   -3.8833806   -3.8833806   -2.5264401  0.026421323   -3.8833806    1.3569405  1010000 
 2297000    0.9039636   -3.8822944   -3.8822944   -2.5263504  0.026282878   -3.8822944    1.3559441  1010000 
 2298000   0.90428277   -3.8815075   -3.8815075   -2.5250846  0.030984138   -3.8815075    1.3564228  1010000 
 2299000   0.90396836   -3.8820209   -3.8820209   -2.5260697  0.029967812   -3.8820209    1.3559512  1010000 
 2300000   0.90409929   -3.8820793   -3.8820793   -2.5259317  0.027356693   -3.8820793    1.3561476  1010000 
 2301000   0.90356914   -3.8809467   -3.8809467   -2.5255943  0.029313119   -3.8809467    1.3553524  1010000 
 2302000   0.90342631   -3.8811106   -3.8811106   -2.5259725  0.026450728   -3.8811106    1.3551381  1010000 
 2303000   0.90464522   -3.8822281   -3.8822281   -2.5252617  0.027475826   -3.8822281    1.3569665  1010000 
 2304000   0.90338541   -3.8800728   -3.8800728    -2.524996  0.033317125   -3.8800728    1.3550768  1010000 
 2305000   0.90359649   -3.8798184   -3.8798184    -2.524425  0.026500903   -3.8798184    1.3553934  1010000 
 2306000    0.9041098   -3.8799451   -3.8799451   -2.5237817  0.026119972   -3.8799451    1.3561634  1010000 
 2307000    0.9038206   -3.8794318   -3.8794318   -2.5237022  0.028942394   -3.8794318    1.3557296  1010000 
 2308000   0.90394811   -3.8790263   -3.8790263   -2.5231055  0.031928731   -3.8790263    1.3559208  1010000 
 2309000   0.90405261   -3.8795358   -3.8795358   -2.5234583   0.02772414   -3.8795358    1.3560776  1010000 
 2310000   0.90450699   -3.8805828   -3.8805828   -2.5238236   0.02684222   -3.8805828    1.3567591  1010000 
 2311000   0.90433821   -3.8796923   -3.8796923   -2.5231864  0.027956685   -3.8796923     1.356506  1010000 
 2312000     0.905477   -3.8795978   -3.8795978   -2.5213836  0.031815425   -3.8795978    1.3582142  1010000 
 2313000    0.9048352    -3.879694    -3.879694   -2.5224425  0.027494829    -3.879694    1.3572515  1010000 
 2314000   0.90522451   -3.8799934   -3.8799934    -2.522158  0.030537243   -3.8799934    1.3578354  1010000 
 2315000   0.90541334   -3.8788049   -3.8788049   -2.5206862  0.029325185   -3.8788049    1.3581187  1010000 
 2316000   0.90488318   -3.8782677   -3.8782677   -2.5209443   0.02902653   -3.8782677    1.3573234  1010000 
 2317000   0.90472228   -3.8783352   -3.8783352   -2.5212531  0.027742632   -3.8783352    1.3570821  1010000 
 2318000   0.90536262   -3.8785141   -3.8785141   -2.5204715  0.029726972   -3.8785141    1.3580426  1010000 
 2319000   0.90545878   -3.8788459   -3.8788459   -2.5206591    0.0281712   -3.8788459    1.3581868  1010000 
 2320000   0.90480506    -3.877813    -3.877813   -2.5206067  0.029539816    -3.877813    1.3572062  1010000 
 2321000   0.90603225   -3.8792107   -3.8792107   -2.5201637  0.029070667   -3.8792107     1.359047  1010000 
 2322000   0.90552396   -3.8781326   -3.8781326    -2.519848  0.031888953   -3.8781326    1.3582846  1010000 
 2323000   0.90638331   -3.8789867   -3.8789867    -2.519413  0.028372573   -3.8789867    1.3595736  1010000 
 2324000     0.905087    -3.876232    -3.876232   -2.5186029  0.029449862    -3.876232    1.3576292  1010000 
 2325000   0.90517543    -3.876983    -3.876983   -2.5192212  0.027164552    -3.876983    1.3577618  1010000 
 2326000   0.90560863   -3.8775247   -3.8775247   -2.5191131  0.026510821   -3.8775247    1.3584116  1010000 
 2327000   0.90443871   -3.8761842   -3.8761842   -2.5195275  0.027967484   -3.8761842    1.3566567  1010000 
 2328000   0.90469311   -3.8760385   -3.8760385   -2.5190002  0.024286742   -3.8760385    1.3570383  1010000 
 2329000   0.90520858   -3.8762749   -3.8762749   -2.5184634  0.026124779   -3.8762749    1.3578115  1010000 
 2330000   0.90564696   -3.8769729   -3.8769729   -2.5185038  0.027371809   -3.8769729    1.3584691  1010000 
 2331000   0.90389961   -3.8739008   -3.8739008   -2.5180527  0.030333222   -3.8739008    1.3558481  1010000 
 2332000   0.90457432    -3.874654    -3.874654   -2.5177938  0.024157478    -3.874654    1.3568601  1010000 
 2333000   0.90416801   -3.8745452   -3.8745452   -2.5182945  0.025670145   -3.8745452    1.3562507  1010000 
 2334000    0.9046168   -3.8740737   -3.8740737   -2.5171498  0.026819674   -3.8740737    1.3569239  1010000 
 2335000   0.90469012   -3.8738903   -3.8738903   -2.5168564  0.028150038   -3.8738903    1.3570338  1010000 
 2336000   0.90528611   -3.8749666   -3.8749666   -2.5170387  0.022801898   -3.8749666    1.3579278  1010000 
 2337000   0.90490828   -3.8743584   -3.8743584   -2.5169973  0.024426756   -3.8743584    1.3573611  1010000 
 2338000   0.90531145   -3.8733942   -3.8733942   -2.5154283  0.030231822   -3.8733942    1.3579658  1010000 
 2339000   0.90504644   -3.8730618   -3.8730618   -2.5154935  0.025559868   -3.8730618    1.3575683  1010000 
 2340000   0.90558342   -3.8738499   -3.8738499   -2.5154761  0.025747117   -3.8738499    1.3583738  1010000 
 2341000   0.90555076   -3.8732901   -3.8732901   -2.5149653  0.028198619   -3.8732901    1.3583248  1010000 
 2342000   0.90543669   -3.8727319   -3.8727319   -2.5145782  0.030095303   -3.8727319    1.3581537  1010000 
 2343000   0.90615378   -3.8728701   -3.8728701   -2.5136408  0.027320959   -3.8728701    1.3592293  1010000 
 2344000   0.90611514   -3.8729546   -3.8729546   -2.5137832   0.02631278   -3.8729546    1.3591714  1010000 
 2345000   0.90658063     -3.87318     -3.87318   -2.5133104  0.032225516     -3.87318    1.3598696  1010000 
 2346000   0.90685858   -3.8725565   -3.8725565   -2.5122699  0.030858129   -3.8725565    1.3602865  1010000 
 2347000   0.90593655   -3.8713293   -3.8713293   -2.5124259  0.028158585   -3.8713293    1.3589035  1010000 
 2348000   0.90689197   -3.8726849   -3.8726849   -2.5123483  0.026150599   -3.8726849    1.3603366  1010000 
 2349000   0.90689408   -3.8726785   -3.8726785   -2.5123387  0.026411562   -3.8726785    1.3603398  1010000 
 2350000   0.90640844   -3.8718117   -3.8718117   -2.5122004  0.030500195   -3.8718117    1.3596113  1010000 
 2351000   0.90614454   -3.8715669   -3.8715669   -2.5123514  0.025430746   -3.8715669    1.3592155  1010000 
 2352000   0.90552842   -3.8697885   -3.8697885   -2.5114973  0.031187907   -3.8697885    1.3582913  1010000 
 2353000   0.90567459    -3.869236    -3.869236   -2.5107255  0.030133549    -3.869236    1.3585105  1010000 
 2354000   0.90696655   -3.8706631   -3.8706631   -2.5102147   0.02978766   -3.8706631    1.3604485  1010000 
 2355000    0.9073019    -3.870669    -3.870669   -2.5097175  0.029367192    -3.870669    1.3609515  1010000 
 2356000   0.90587329    -3.869222    -3.869222   -2.5104134   0.02900646    -3.869222    1.3588086  1010000 
 2357000   0.90762141   -3.8712193   -3.8712193   -2.5097885  0.028990788   -3.8712193    1.3614308  1010000 
 2358000   0.90709886   -3.8694758   -3.8694758   -2.5088289  0.028454205   -3.8694758    1.3606469  1010000 
 2359000   0.90667006   -3.8686667   -3.8686667    -2.508663  0.028020674   -3.8686667    1.3600037  1010000 
 2360000   0.90663924   -3.8679532   -3.8679532   -2.5079957  0.030695425   -3.8679532    1.3599575  1010000 
 2361000   0.90657628   -3.8680203   -3.8680203   -2.5081573  0.030041318   -3.8680203    1.3598631  1010000 
 2362000   0.90673891   -3.8686087   -3.8686087   -2.5085017  0.028302817   -3.8686087     1.360107  1010000 
 2363000    0.9061373    -3.867241    -3.867241   -2.5080364  0.031668619    -3.867241    1.3592046  1010000 
 2364000   0.90690351   -3.8674018   -3.8674018   -2.5070478  0.028122005   -3.8674018    1.3603539  1010000 
 2365000   0.90682186   -3.8670043   -3.8670043   -2.5067729  0.027455144   -3.8670043    1.3602314  1010000 
 2366000   0.90636258   -3.8659062   -3.8659062   -2.5063637  0.029005348   -3.8659062    1.3595425  1010000 
 2367000   0.90639896    -3.866029    -3.866029   -2.5064319   0.02827377    -3.866029    1.3595971  1010000 
 2368000   0.90698538   -3.8662472   -3.8662472   -2.5057704   0.02764945   -3.8662472    1.3604767  1010000 
 2369000   0.90684932   -3.8653558   -3.8653558   -2.5050831  0.027336466   -3.8653558    1.3602726  1010000 
 2370000   0.90699541   -3.8659964   -3.8659964   -2.5055047  0.025507454   -3.8659964    1.3604918  1010000 
 2371000   0.90663422   -3.8646241   -3.8646241   -2.5046742  0.026089949   -3.8646241      1.35995  1010000 
 2372000   0.90544116   -3.8632121   -3.8632121   -2.5050517  0.031097084   -3.8632121    1.3581604  1010000 
 2373000   0.90661693   -3.8641536   -3.8641536   -2.5042295  0.025709741   -3.8641536    1.3599241  1010000 
 2374000   0.90692011   -3.8646556   -3.8646556   -2.5042768  0.025107962   -3.8646556    1.3603788  1010000 
 2375000   0.90688499   -3.8639714   -3.8639714   -2.5036452  0.026847548   -3.8639714    1.3603261  1010000 
 2376000   0.90704471   -3.8638156   -3.8638156   -2.5032499  0.025227278   -3.8638156    1.3605657  1010000 
 2377000   0.90654636   -3.8633158   -3.8633158   -2.5034976  0.027272316   -3.8633158    1.3598182  1010000 
 2378000   0.90736246   -3.8637689   -3.8637689   -2.5027265  0.026104518   -3.8637689    1.3610423  1010000 
 2379000   0.90722083   -3.8632028   -3.8632028   -2.5023729  0.032115462   -3.8632028    1.3608299  1010000 
 2380000   0.90759259   -3.8627306   -3.8627306    -2.501343  0.029358665   -3.8627306    1.3613875  1010000 
 2381000   0.90819169   -3.8633785   -3.8633785   -2.5010923  0.032196643   -3.8633785    1.3622862  1010000 
 2382000   0.90877937   -3.8641867   -3.8641867    -2.501019  0.029342413   -3.8641867    1.3631677  1010000 
 2383000   0.90815514   -3.8628785   -3.8628785   -2.5006472  0.029349405   -3.8628785    1.3622314  1010000 
 2384000   0.90800298   -3.8626159   -3.8626159   -2.5006127  0.032869009   -3.8626159    1.3620031  1010000 
 2385000   0.90822344    -3.863038    -3.863038   -2.5007042  0.031176751    -3.863038    1.3623338  1010000 
 2386000   0.90803766     -3.86256     -3.86256   -2.5005049  0.028919976     -3.86256    1.3620551  1010000 
 2387000    0.9079892   -3.8617736   -3.8617736   -2.4997912   0.02954749   -3.8617736    1.3619825  1010000 
 2388000   0.90832899   -3.8619985   -3.8619985   -2.4995064  0.030985331   -3.8619985    1.3624921  1010000 
 2389000    0.9091146    -3.863153    -3.863153   -2.4994824   0.02831512    -3.863153    1.3636705  1010000 
 2390000   0.90759759   -3.8595203   -3.8595203   -2.4981252  0.030115284   -3.8595203     1.361395  1010000 
 2391000    0.9076987   -3.8602441   -3.8602441   -2.4986974  0.031101904   -3.8602441    1.3615467  1010000 
 2392000   0.90850034   -3.8610918   -3.8610918   -2.4983426  0.032114322   -3.8610918    1.3627492  1010000 
 2393000   0.90885741   -3.8615525   -3.8615525   -2.4982678   0.03028326   -3.8615525    1.3632848  1010000 
 2394000   0.90828061   -3.8609436   -3.8609436   -2.4985241  0.031261152   -3.8609436    1.3624196  1010000 
 2395000   0.90882329   -3.8612302   -3.8612302   -2.4979966  0.030149946   -3.8612302    1.3632336  1010000 
 2396000      0.90786   -3.8595239   -3.8595239   -2.4977352  0.032511665   -3.8595239    1.3617887  1010000 
 2397000   0.90928024   -3.8615745   -3.8615745   -2.4976555  0.029407642   -3.8615745     1.363919  1010000 
 2398000   0.90814546   -3.8598413   -3.8598413   -2.4976245  0.029694347   -3.8598413    1.3622168  1010000 
 2399000   0.90849112   -3.8598022   -3.8598022   -2.4970669  0.027040806   -3.8598022    1.3627353  1010000 
 2400000   0.90735309   -3.8576631   -3.8576631   -2.4966348  0.027069207   -3.8576631    1.3610283  1010000 
 2401000   0.90705299   -3.8573335   -3.8573335   -2.4967554  0.025628225   -3.8573335    1.3605781  1010000 
 2402000   0.90776008   -3.8580888   -3.8580888   -2.4964501  0.024295102   -3.8580888    1.3616388  1010000 
 2403000    0.9085598   -3.8582253   -3.8582253    -2.495387   0.02414585   -3.8582253    1.3628383  1010000 
 2404000   0.90873869   -3.8588512   -3.8588512   -2.4957445  0.029232882   -3.8588512    1.3631067  1010000 
 2405000    0.9087505    -3.858427    -3.858427   -2.4953026   0.03075269    -3.858427    1.3631244  1010000 
 2406000   0.90920568   -3.8577731   -3.8577731   -2.4939659  0.032496529   -3.8577731    1.3638072  1010000 
 2407000    0.9086223   -3.8573389   -3.8573389   -2.4944068  0.028829939   -3.8573389    1.3629321  1010000 
 2408000   0.90926374   -3.8584574   -3.8584574   -2.4945631  0.031222722   -3.8584574    1.3638943  1010000 
 2409000   0.90827686   -3.8559692   -3.8559692   -2.4935553  0.032580707   -3.8559692    1.3624139  1010000 
 2410000    0.9094952   -3.8570267   -3.8570267   -2.4927852  0.025812231   -3.8570267    1.3642415  1010000 
 2411000   0.90933322   -3.8564009   -3.8564009   -2.4924024  0.028265671   -3.8564009    1.3639985  1010000 
 2412000   0.90876005    -3.855737    -3.855737   -2.4925983  0.027754814    -3.855737    1.3631387  1010000 
 2413000   0.90858392   -3.8545873   -3.8545873   -2.4917128  0.029543584   -3.8545873    1.3628745  1010000 
 2414000   0.90900971   -3.8551607   -3.8551607   -2.4916475  0.030683042   -3.8551607    1.3635132  1010000 
 2415000   0.90915583    -3.855818    -3.855818   -2.4920856   0.02760009    -3.855818    1.3637324  1010000 
 2416000   0.90923802   -3.8551308   -3.8551308   -2.4912751  0.029559687   -3.8551308    1.3638557  1010000 
 2417000   0.90871312   -3.8544367   -3.8544367   -2.4913684   0.02783546   -3.8544367    1.3630683  1010000 
 2418000   0.90826656   -3.8538172   -3.8538172   -2.4914187   0.03075059   -3.8538172    1.3623985  1010000 
 2419000   0.90905349   -3.8549765   -3.8549765   -2.4913977  0.028745564   -3.8549765    1.3635789  1010000 
 2420000   0.90900332   -3.8541983   -3.8541983   -2.4906946  0.026960436   -3.8541983    1.3635036  1010000 
 2421000    0.9088366   -3.8531114   -3.8531114   -2.4898578  0.032416164   -3.8531114    1.3632536  1010000 
 2422000   0.90862542   -3.8524368   -3.8524368   -2.4895001  0.030205728   -3.8524368    1.3629368  1010000 
 2423000   0.90858875   -3.8512824   -3.8512824   -2.4884006  0.027866228   -3.8512824    1.3628818  1010000 
 2424000   0.90829088   -3.8515422   -3.8515422   -2.4891072  0.025901622   -3.8515422     1.362435  1010000 
 2425000   0.90874493   -3.8522317   -3.8522317   -2.4891156  0.025791597   -3.8522317    1.3631161  1010000 
 2426000   0.90859289   -3.8521437   -3.8521437   -2.4892557  0.024068503   -3.8521437     1.362888  1010000 
 2427000   0.90793321   -3.8511417   -3.8511417   -2.4892433   0.02854617   -3.8511417    1.3618985  1010000 
 2428000   0.90870542   -3.8518677   -3.8518677   -2.4888109  0.028571439   -3.8518677    1.3630568  1010000 
 2429000   0.90888612   -3.8518561   -3.8518561   -2.4885282  0.029601528   -3.8518561    1.3633278  1010000 
 2430000   0.90929989    -3.852331    -3.852331   -2.4883825  0.031246811    -3.852331    1.3639485  1010000 
 2431000   0.90933327    -3.850929    -3.850929   -2.4869304  0.030143224    -3.850929    1.3639986  1010000 
 2432000   0.90920806   -3.8509681   -3.8509681   -2.4871573  0.025570435   -3.8509681    1.3638107  1010000 
 2433000   0.91054126   -3.8519987   -3.8519987   -2.4861882  0.025159419   -3.8519987    1.3658105  1010000 
 2434000   0.90984145   -3.8501911   -3.8501911   -2.4854303  0.030084382   -3.8501911    1.3647608  1010000 
 2435000   0.90972389    -3.850385    -3.850385   -2.4858005   0.02949126    -3.850385    1.3645845  1010000 
 2436000   0.90993932   -3.8508611   -3.8508611   -2.4859535  0.030302271   -3.8508611    1.3649076  1010000 
 2437000   0.91083696   -3.8516594   -3.8516594   -2.4854053  0.029226014   -3.8516594    1.3662541  1010000 
 2438000   0.91079505   -3.8510622   -3.8510622    -2.484871  0.031387093   -3.8510622    1.3661912  1010000 
 2439000   0.91020064   -3.8502842   -3.8502842   -2.4849845  0.031039224   -3.8502842    1.3652996  1010000 
 2440000   0.91023786   -3.8493939   -3.8493939   -2.4840385   0.03289913   -3.8493939    1.3653554  1010000 
 2441000    0.9103121   -3.8485705   -3.8485705   -2.4831037  0.029306234   -3.8485705    1.3654668  1010000 
 2442000   0.91030665   -3.8487234   -3.8487234   -2.4832648  0.033581525   -3.8487234    1.3654586  1010000 
 2443000   0.90978702   -3.8479318   -3.8479318   -2.4832526  0.032202687   -3.8479318    1.3646792  1010000 
 2444000   0.91153392   -3.8496559   -3.8496559   -2.4823563  0.032427085   -3.8496559    1.3672995  1010000 
 2445000   0.91123934   -3.8498074   -3.8498074   -2.4829498  0.033275363   -3.8498074    1.3668577  1010000 
 2446000     0.911082   -3.8496665   -3.8496665   -2.4830449  0.034218929   -3.8496665    1.3666216  1010000 
 2447000     0.910577   -3.8481523   -3.8481523   -2.4822881  0.033520605   -3.8481523    1.3658641  1010000 
 2448000   0.91137778   -3.8483901   -3.8483901   -2.4813248  0.030222157   -3.8483901    1.3670653  1010000 
 2449000   0.91095762   -3.8475145   -3.8475145   -2.4810794  0.030118455   -3.8475145    1.3664351  1010000 
 2450000   0.90988043   -3.8457954   -3.8457954   -2.4809761  0.031605071   -3.8457954    1.3648193  1010000 
 2451000   0.91037555   -3.8462399   -3.8462399   -2.4806779  0.030223693   -3.8462399     1.365562  1010000 
 2452000   0.91078586   -3.8472018   -3.8472018   -2.4810243  0.026525545   -3.8472018    1.3661774  1010000 
 2453000   0.91041475   -3.8464942   -3.8464942   -2.4808734  0.028098625   -3.8464942    1.3656208  1010000 
 2454000    0.9107081   -3.8463959   -3.8463959   -2.4803351  0.028399766   -3.8463959    1.3660608  1010000 
 2455000   0.91079452   -3.8462676   -3.8462676   -2.4800772  0.023207609   -3.8462676    1.3661904  1010000 
 2456000   0.90916884   -3.8433655   -3.8433655   -2.4796136  0.027858364   -3.8433655    1.3637519  1010000 
 2457000    0.9094022   -3.8425299   -3.8425299   -2.4784279   0.02714005   -3.8425299    1.3641019  1010000 
 2458000   0.90971737   -3.8430083   -3.8430083   -2.4784336  0.025466203   -3.8430083    1.3645747  1010000 
 2459000   0.91014878   -3.8433099   -3.8433099   -2.4780881  0.026942112   -3.8433099    1.3652218  1010000 
 2460000   0.91057745   -3.8443141   -3.8443141   -2.4784493  0.026292689   -3.8443141    1.3658648  1010000 
 2461000   0.91105876   -3.8445454   -3.8445454   -2.4779586  0.030514776   -3.8445454    1.3665868  1010000 
 2462000   0.91074845   -3.8426261   -3.8426261   -2.4765048  0.032173962   -3.8426261    1.3661213  1010000 
 2463000    0.9110341    -3.842048    -3.842048   -2.4754982  0.026662211    -3.842048    1.3665498  1010000 
 2464000   0.91111497   -3.8414103   -3.8414103   -2.4747392  0.029586695   -3.8414103    1.3666711  1010000 
 2465000   0.91140833   -3.8417989   -3.8417989   -2.4746878  0.027868531   -3.8417989    1.3671111  1010000 
 2466000   0.91175653   -3.8413254   -3.8413254    -2.473692  0.028011078   -3.8413254    1.3676334  1010000 
 2467000   0.91135762    -3.840133    -3.840133   -2.4730979  0.031436117    -3.840133    1.3670351  1010000 
 2468000   0.91140965   -3.8412251   -3.8412251    -2.474112  0.028519161   -3.8412251    1.3671131  1010000 
 2469000   0.91214745   -3.8419765   -3.8419765   -2.4737567  0.032086508   -3.8419765    1.3682198  1010000 
 2470000   0.91184395   -3.8419837   -3.8419837   -2.4742192  0.027304104   -3.8419837    1.3677646  1010000 
 2471000   0.91159868   -3.8415152   -3.8415152   -2.4741186  0.028597689   -3.8415152    1.3673967  1010000 
 2472000   0.91235156   -3.8417902   -3.8417902   -2.4732642  0.024170382   -3.8417902     1.368526  1010000 
 2473000   0.91125176   -3.8398877   -3.8398877   -2.4730114  0.028464964   -3.8398877    1.3668763  1010000 
 2474000   0.91128619   -3.8396129   -3.8396129    -2.472685  0.025800557   -3.8396129    1.3669279  1010000 
 2475000   0.91220991   -3.8404969   -3.8404969   -2.4721834  0.028939697   -3.8404969    1.3683135  1010000 
 2476000   0.91155469    -3.840165    -3.840165   -2.4728344  0.032483007    -3.840165    1.3673307  1010000 
 2477000    0.9110836   -3.8394448   -3.8394448   -2.4728207  0.027675711   -3.8394448    1.3666241  1010000 
 2478000   0.91282497   -3.8413221   -3.8413221    -2.472086    0.0252553   -3.8413221    1.3692361  1010000 
 2479000   0.91225462    -3.839579    -3.839579   -2.4711984  0.030513876    -3.839579    1.3683806  1010000 
 2480000   0.91142228   -3.8384975   -3.8384975   -2.4713654  0.032466224   -3.8384975    1.3671321  1010000 
 2481000   0.91192022   -3.8385149   -3.8385149   -2.4706359  0.031682867   -3.8385149     1.367879  1010000 
 2482000   0.91146008   -3.8376102   -3.8376102   -2.4704215  0.032136011   -3.8376102    1.3671888  1010000 
 2483000   0.91286476   -3.8392988   -3.8392988    -2.470003  0.031632622   -3.8392988    1.3692958  1010000 
 2484000    0.9130426   -3.8394957   -3.8394957   -2.4699332  0.030029596   -3.8394957    1.3695625  1010000 
 2485000   0.91162501   -3.8366471   -3.8366471   -2.4692109  0.033427381   -3.8366471    1.3674362  1010000 
 2486000   0.91184749   -3.8367687   -3.8367687   -2.4689989  0.031123985   -3.8367687    1.3677699  1010000 
 2487000   0.91217307   -3.8373029   -3.8373029   -2.4690447  0.031967416   -3.8373029    1.3682582  1010000 
 2488000   0.91231772   -3.8373379   -3.8373379   -2.4688626  0.032497395   -3.8373379    1.3684752  1010000 
 2489000   0.91306792   -3.8374875   -3.8374875    -2.467887  0.032661176   -3.8374875    1.3696005  1010000 
 2490000   0.91259868    -3.836754    -3.836754   -2.4678573   0.03190991    -3.836754    1.3688967  1010000 
 2491000   0.91312547   -3.8370018   -3.8370018   -2.4673149  0.028171697   -3.8370018    1.3696869  1010000 
 2492000   0.91224188   -3.8365772   -3.8365772   -2.4682157  0.027413817   -3.8365772    1.3683615  1010000 
 2493000   0.91225361   -3.8365209   -3.8365209   -2.4681418  0.025323971   -3.8365209    1.3683791  1010000 
 2494000    0.9124725   -3.8357647   -3.8357647   -2.4670573  0.028823763   -3.8357647    1.3687074  1010000 
 2495000    0.9117524   -3.8336599   -3.8336599   -2.4660327   0.02941422   -3.8336599    1.3676272  1010000 
 2496000   0.91149905   -3.8337823   -3.8337823   -2.4665351  0.028997809   -3.8337823    1.3672472  1010000 
 2497000   0.91176614   -3.8342155   -3.8342155   -2.4665677  0.029403154   -3.8342155    1.3676479  1010000 
 2498000   0.91240043   -3.8345567   -3.8345567   -2.4659574  0.026077093   -3.8345567    1.3685993  1010000 
 2499000    0.9122617   -3.8335607   -3.8335607   -2.4651695  0.024984497   -3.8335607    1.3683912  1010000 
 2500000   0.91196581   -3.8320349   -3.8320349   -2.4640876  0.027875071   -3.8320349    1.3679474  1010000 
 2501000   0.91293788   -3.8327293   -3.8327293   -2.4633238  0.032563471   -3.8327293    1.3694055  1010000 
 2502000   0.91314027    -3.832573    -3.832573    -2.462864  0.028265131    -3.832573     1.369709  1010000 
 2503000   0.91298986   -3.8331723   -3.8331723   -2.4636889  0.030361725   -3.8331723    1.3694834  1010000 
 2504000   0.91236877   -3.8308901   -3.8308901   -2.4623383  0.032096374   -3.8308901    1.3685518  1010000 
 2505000   0.91282917   -3.8306341   -3.8306341   -2.4613917  0.030111342   -3.8306341    1.3692424  1010000 
 2506000   0.91342392   -3.8323266   -3.8323266   -2.4621921  0.029849131   -3.8323266    1.3701345  1010000 
 2507000   0.91224212    -3.830703    -3.830703   -2.4623412  0.031408748    -3.830703    1.3683618  1010000 
 2508000   0.91319506    -3.831854    -3.831854   -2.4620628  0.031346806    -3.831854    1.3697912  1010000 
 2509000   0.91269171   -3.8308206   -3.8308206   -2.4617844   0.02797062   -3.8308206    1.3690362  1010000 
 2510000   0.91280867   -3.8307024   -3.8307024   -2.4614908  0.028454023   -3.8307024    1.3692116  1010000 
 2511000   0.91155866   -3.8291443   -3.8291443   -2.4618077  0.028486012   -3.8291443    1.3673366  1010000 
 2512000   0.91200552   -3.8299543   -3.8299543   -2.4619474  0.024855257   -3.8299543    1.3680069  1010000 
 2513000   0.91211939   -3.8294959   -3.8294959   -2.4613182  0.026587539   -3.8294959    1.3681777  1010000 
 2514000    0.9126285   -3.8300183   -3.8300183    -2.461077  0.029429429   -3.8300183    1.3689414  1010000 
 2515000   0.91342191   -3.8304336   -3.8304336   -2.4603021  0.028880227   -3.8304336    1.3701315  1010000 
 2516000   0.91312834   -3.8293906   -3.8293906   -2.4596994  0.030621989   -3.8293906    1.3696911  1010000 
 2517000   0.91323977    -3.829474    -3.829474   -2.4596157   0.03001742    -3.829474    1.3698583  1010000 
 2518000   0.91420932   -3.8311078   -3.8311078   -2.4597952  0.031097769   -3.8311078    1.3713126  1010000 
 2519000   0.91452044   -3.8306974   -3.8306974    -2.458918  0.030508372   -3.8306974    1.3717793  1010000 
 2520000   0.91444389   -3.8298543   -3.8298543   -2.4581898  0.033197885   -3.8298543    1.3716645  1010000 
 2521000   0.91558696   -3.8312026   -3.8312026   -2.4578235  0.032621148   -3.8312026    1.3733791  1010000 
 2522000   0.91468668   -3.8297699   -3.8297699   -2.4577412  0.034445993   -3.8297699    1.3720287  1010000 
 2523000   0.91381629   -3.8286397   -3.8286397   -2.4579166   0.03014142   -3.8286397    1.3707231  1010000 
 2524000    0.9134742    -3.827817    -3.827817    -2.457607  0.031170319    -3.827817    1.3702099  1010000 
 2525000    0.9137725   -3.8283267   -3.8283267   -2.4576693  0.024924176   -3.8283267    1.3706574  1010000 
 2526000   0.91260152   -3.8264027   -3.8264027   -2.4575018  0.033513688   -3.8264027    1.3689009  1010000 
 2527000   0.91254178   -3.8266918   -3.8266918   -2.4578805  0.026789151   -3.8266918    1.3688113  1010000 
 2528000   0.91297872   -3.8272912   -3.8272912   -2.4578245   0.02798515   -3.8272912    1.3694667  1010000 
 2529000   0.91240804   -3.8272116   -3.8272116   -2.4586008  0.024900585   -3.8272116    1.3686107  1010000 
 2530000   0.91246608   -3.8269429   -3.8269429   -2.4582452  0.027851922   -3.8269429    1.3686978  1010000 
 2531000    0.9127113   -3.8275184   -3.8275184   -2.4584528  0.026333967   -3.8275184    1.3690656  1010000 
 2532000   0.91233276   -3.8259619   -3.8259619   -2.4574641  0.027516256   -3.8259619    1.3684978  1010000 
 2533000   0.91309294   -3.8273469   -3.8273469   -2.4577089  0.025261539   -3.8273469    1.3696381  1010000 
 2534000   0.91220124   -3.8256213   -3.8256213   -2.4573208  0.026877538   -3.8256213    1.3683005  1010000 
 2535000   0.91236598   -3.8250859   -3.8250859   -2.4565383  0.030752612   -3.8250859    1.3685476  1010000 
 2536000   0.91388601   -3.8264737   -3.8264737   -2.4556461  0.026826688   -3.8264737    1.3708277  1010000 
 2537000   0.91421043   -3.8270632   -3.8270632   -2.4557489  0.029756181   -3.8270632    1.3713143  1010000 
 2538000   0.91407187   -3.8264446   -3.8264446   -2.4553382  0.028103475   -3.8264446    1.3711065  1010000 
 2539000   0.91394575   -3.8253454   -3.8253454   -2.4544282  0.027124841   -3.8253454    1.3709173  1010000 
 2540000   0.91311835   -3.8244371   -3.8244371   -2.4547609  0.026863894   -3.8244371    1.3696762  1010000 
 2541000   0.91356713   -3.8241588   -3.8241588   -2.4538094  0.032475479   -3.8241588    1.3703493  1010000 
 2542000   0.91367822   -3.8239947   -3.8239947   -2.4534787  0.031550564   -3.8239947     1.370516  1010000 
 2543000   0.91389107   -3.8244975   -3.8244975   -2.4536623   0.03137812   -3.8244975    1.3708352  1010000 
 2544000   0.91533541   -3.8264547   -3.8264547    -2.453453  0.026528026   -3.8264547    1.3730018  1010000 
 2545000   0.91433718   -3.8256907   -3.8256907   -2.4541863  0.030982398   -3.8256907    1.3715044  1010000 
 2546000   0.91351392   -3.8246743   -3.8246743   -2.4544048  0.032456252   -3.8246743    1.3702695  1010000 
 2547000     0.913664   -3.8249397   -3.8249397    -2.454445  0.032661385   -3.8249397    1.3704946  1010000 
 2548000   0.91398265   -3.8249108   -3.8249108   -2.4539381  0.029319095   -3.8249108    1.3709726  1010000 
 2549000   0.91392532   -3.8242221   -3.8242221   -2.4533355  0.030862827   -3.8242221    1.3708866  1010000 
 2550000   0.91376676   -3.8232972   -3.8232972   -2.4526484  0.030149927   -3.8232972    1.3706488  1010000 
 2551000   0.91499854   -3.8247656   -3.8247656   -2.4522691  0.029252856   -3.8247656    1.3724965  1010000 
 2552000   0.91452264   -3.8234879   -3.8234879   -2.4517053  0.031283394   -3.8234879    1.3717826  1010000 
 2553000   0.91371586   -3.8234166   -3.8234166   -2.4528442  0.032361069   -3.8234166    1.3705724  1010000 
 2554000   0.91480411   -3.8240267   -3.8240267   -2.4518219  0.035014101   -3.8240267    1.3722048  1010000 
 2555000   0.91478934    -3.823657    -3.823657   -2.4514743  0.036244546    -3.823657    1.3721826  1010000 
 2556000   0.91492256   -3.8224967   -3.8224967   -2.4501142  0.030313984   -3.8224967    1.3723825  1010000 
 2557000   0.91561204   -3.8229553   -3.8229553   -2.4495386  0.030376498   -3.8229553    1.3734167  1010000 
 2558000   0.91564471   -3.8219442   -3.8219442   -2.4484785  0.033065742   -3.8219442    1.3734657  1010000 
 2559000   0.91559209   -3.8224176   -3.8224176   -2.4490309  0.029385411   -3.8224176    1.3733868  1010000 
 2560000   0.91581104   -3.8221175   -3.8221175   -2.4484023  0.028902396   -3.8221175    1.3737152  1010000 
 2561000   0.91400879    -3.819633    -3.819633   -2.4486212   0.03331113    -3.819633    1.3710118  1010000 
 2562000   0.91506983   -3.8201038   -3.8201038   -2.4475004  0.030418591   -3.8201038    1.3726034  1010000 
 2563000   0.91552694   -3.8206422   -3.8206422   -2.4473531  0.033268606   -3.8206422     1.373289  1010000 
 2564000   0.91626242   -3.8211182   -3.8211182   -2.4467259  0.030957962   -3.8211182    1.3743923  1010000 
 2565000   0.91532948   -3.8192365   -3.8192365   -2.4462436  0.031368543   -3.8192365    1.3729929  1010000 
 2566000   0.91533332    -3.819083    -3.819083   -2.4460844  0.030478957    -3.819083    1.3729986  1010000 
 2567000   0.91517139   -3.8186551   -3.8186551   -2.4458993  0.028620245   -3.8186551    1.3727557  1010000 
 2568000   0.91426323   -3.8174192   -3.8174192   -2.4460257  0.029066828   -3.8174192    1.3713935  1010000 
 2569000    0.9157207   -3.8183872   -3.8183872   -2.4448075  0.028605374   -3.8183872    1.3735797  1010000 
 2570000   0.91503433   -3.8172834   -3.8172834   -2.4447333  0.031256526   -3.8172834    1.3725501  1010000 
 2571000   0.91452241   -3.8171859   -3.8171859   -2.4454036  0.024539869   -3.8171859    1.3717822  1010000 
 2572000   0.91417512   -3.8164995   -3.8164995   -2.4452382  0.029903433   -3.8164995    1.3712613  1010000 
 2573000   0.91426159   -3.8162387   -3.8162387   -2.4448477  0.028107008   -3.8162387     1.371391  1010000 
 2574000   0.91354861   -3.8145481   -3.8145481   -2.4442265  0.024875148   -3.8145481    1.3703216  1010000 
 2575000    0.9149527   -3.8150137   -3.8150137    -2.442586  0.027596322   -3.8150137    1.3724277  1010000 
 2576000   0.91464889   -3.8139232   -3.8139232   -2.4419512  0.027388815   -3.8139232     1.371972  1010000 
 2577000   0.91537912   -3.8144245   -3.8144245   -2.4413572  0.027323492   -3.8144245    1.3730673  1010000 
 2578000   0.91556007   -3.8148257   -3.8148257   -2.4414869  0.027164205   -3.8148257    1.3733387  1010000 
 2579000   0.91562682   -3.8145862   -3.8145862   -2.4411473  0.029434795   -3.8145862    1.3734389  1010000 
 2580000   0.91581026   -3.8145492   -3.8145492   -2.4408352  0.030640784   -3.8145492     1.373714  1010000 
 2581000   0.91607974   -3.8146948   -3.8146948   -2.4405766  0.032154188   -3.8146948    1.3741182  1010000 
 2582000   0.91596857   -3.8140946   -3.8140946   -2.4401431  0.032329174   -3.8140946    1.3739515  1010000 
 2583000   0.91606803    -3.813901    -3.813901   -2.4398003  0.033324423    -3.813901    1.3741007  1010000 
 2584000   0.91579217   -3.8127669   -3.8127669     -2.43908  0.031627146   -3.8127669    1.3736869  1010000 
 2585000   0.91619257    -3.812691    -3.812691   -2.4384035  0.029801462    -3.812691    1.3742875  1010000 
 2586000   0.91617856   -3.8128084   -3.8128084   -2.4385419  0.032913755   -3.8128084    1.3742665  1010000 
 2587000   0.91619254   -3.8116427   -3.8116427   -2.4373553  0.029000288   -3.8116427    1.3742874  1010000 
 2588000   0.91578871   -3.8109549   -3.8109549   -2.4372732  0.032615499   -3.8109549    1.3736817  1010000 
 2589000   0.91561521   -3.8113171   -3.8113171   -2.4378957  0.029625574   -3.8113171    1.3734215  1010000 
 2590000   0.91610425   -3.8125997   -3.8125997   -2.4384447  0.027579106   -3.8125997     1.374155  1010000 
 2591000   0.91711833   -3.8128947   -3.8128947   -2.4372186  0.031952444   -3.8128947    1.3756761  1010000 
 2592000   0.91590632    -3.810431    -3.810431   -2.4365729  0.032654514    -3.810431    1.3738581  1010000 
 2593000   0.91700735   -3.8117624   -3.8117624   -2.4362528  0.033427673   -3.8117624    1.3755097  1010000 
 2594000   0.91657306   -3.8107309   -3.8107309   -2.4358727  0.029171807   -3.8107309    1.3748582  1010000 
 2595000    0.9162643   -3.8108175   -3.8108175   -2.4364224   0.02724441   -3.8108175    1.3743951  1010000 
 2596000   0.91690419   -3.8111786   -3.8111786   -2.4358236  0.032343032   -3.8111786    1.3753549  1010000 
 2597000    0.9167496   -3.8107581   -3.8107581    -2.435635  0.030584738   -3.8107581     1.375123  1010000 
 2598000   0.91608488     -3.81002     -3.81002   -2.4358941  0.030882557     -3.81002     1.374126  1010000 
 2599000   0.91629906   -3.8100433   -3.8100433   -2.4355961  0.030187674   -3.8100433    1.3744472  1010000 
 2600000   0.91597725    -3.809784    -3.809784   -2.4358195  0.028190122    -3.809784    1.3739645  1010000 
 2601000   0.91544022   -3.8091284   -3.8091284   -2.4359694  0.032127717   -3.8091284     1.373159  1010000 
 2602000   0.91573441   -3.8096247   -3.8096247   -2.4360244  0.028634688   -3.8096247    1.3736003  1010000 
 2603000   0.91651586   -3.8099308   -3.8099308   -2.4351584  0.032441981   -3.8099308    1.3747724  1010000 
 2604000   0.91649175   -3.8096566   -3.8096566   -2.4349203  0.031015056   -3.8096566    1.3747363  1010000 
 2605000   0.91679487   -3.8099263   -3.8099263   -2.4347354  0.030308446   -3.8099263    1.3751909  1010000 
 2606000    0.9169431   -3.8094179   -3.8094179   -2.4340046  0.030220832   -3.8094179    1.3754133  1010000 
 2607000   0.91694583   -3.8089938   -3.8089938   -2.4335764  0.033655058   -3.8089938    1.3754174  1010000 
 2608000   0.91704154   -3.8087221   -3.8087221   -2.4331611  0.028587136   -3.8087221     1.375561  1010000 
 2609000   0.91748498   -3.8086276   -3.8086276   -2.4324015  0.031886452   -3.8086276    1.3762261  1010000 
 2610000   0.91812129   -3.8092403   -3.8092403   -2.4320597   0.03308534   -3.8092403    1.3771806  1010000 
 2611000   0.91782004   -3.8089083   -3.8089083   -2.4321796  0.032071272   -3.8089083    1.3767287  1010000 
 2612000   0.91736868   -3.8078305   -3.8078305   -2.4317789  0.033503994   -3.8078305    1.3760517  1010000 
 2613000   0.91804553   -3.8082237   -3.8082237   -2.4311567  0.032716533   -3.8082237    1.3770669  1010000 
 2614000   0.91737367   -3.8064766   -3.8064766   -2.4304175  0.033978142   -3.8064766    1.3760591  1010000 
 2615000   0.91702824   -3.8065574   -3.8065574   -2.4310164  0.032387101   -3.8065574     1.375541  1010000 
 2616000   0.91925917   -3.8087655   -3.8087655   -2.4298781  0.031710973   -3.8087655    1.3788874  1010000 
 2617000   0.91840584   -3.8079305   -3.8079305   -2.4303231  0.032089841   -3.8079305    1.3776074  1010000 
 2618000   0.91884676   -3.8089142   -3.8089142   -2.4306455  0.031710935   -3.8089142    1.3782688  1010000 
 2619000   0.91761212   -3.8060646   -3.8060646   -2.4296477   0.03498876   -3.8060646    1.3764168  1010000 
 2620000   0.91807609   -3.8069978   -3.8069978   -2.4298851  0.028252691   -3.8069978    1.3771128  1010000 
 2621000    0.9181569   -3.8063885   -3.8063885   -2.4291546  0.031935889   -3.8063885     1.377234  1010000 
 2622000   0.91818483   -3.8059026   -3.8059026   -2.4286268  0.031049362   -3.8059026    1.3772759  1010000 
 2623000   0.91700616   -3.8050385   -3.8050385   -2.4295306  0.029286342   -3.8050385    1.3755079  1010000 
 2624000   0.91692051   -3.8051563   -3.8051563   -2.4297769  0.026921366   -3.8051563    1.3753794  1010000 
 2625000   0.91730301   -3.8043689   -3.8043689   -2.4284157  0.029338333   -3.8043689    1.3759531  1010000 
 2626000   0.91714791   -3.8036895   -3.8036895    -2.427969  0.029483859   -3.8036895    1.3757205  1010000 
 2627000   0.91816225   -3.8044644   -3.8044644   -2.4272224  0.029998094   -3.8044644     1.377242  1010000 
 2628000   0.91752754   -3.8037756   -3.8037756   -2.4274857  0.029621159   -3.8037756    1.3762899  1010000 
 2629000   0.91670823   -3.8015139   -3.8015139   -2.4264529  0.031549944   -3.8015139     1.375061  1010000 
 2630000   0.91754298   -3.8021193   -3.8021193   -2.4258062   0.03039169   -3.8021193    1.3763131  1010000 
 2631000    0.9169616   -3.8009931   -3.8009931    -2.425552  0.031974197   -3.8009931     1.375441  1010000 
 2632000   0.91832139   -3.8015951   -3.8015951   -2.4241144     0.027859   -3.8015951    1.3774807  1010000 
 2633000   0.91805814   -3.8008262   -3.8008262   -2.4237403  0.029508584   -3.8008262    1.3770858  1010000 
 2634000   0.91734214   -3.8000018   -3.8000018   -2.4239899     0.033195   -3.8000018    1.3760118  1010000 
 2635000   0.91832808    -3.802307    -3.802307   -2.4248162    0.0337622    -3.802307    1.3774908  1010000 
 2636000    0.9186443   -3.8013101   -3.8013101    -2.423345  0.032816563   -3.8013101    1.3779651  1010000 
 2637000   0.91850768   -3.8007674   -3.8007674   -2.4230072  0.030338553   -3.8007674    1.3777602  1010000 
 2638000   0.91731655   -3.7985777   -3.7985777   -2.4226042  0.036357191   -3.7985777    1.3759735  1010000 
 2639000   0.91827982   -3.7992534   -3.7992534   -2.4218351  0.030478393   -3.7992534    1.3774184  1010000 
 2640000   0.91787139   -3.7988012   -3.7988012   -2.4219955  0.029093576   -3.7988012    1.3768057  1010000 
 2641000   0.91774069   -3.7986437   -3.7986437    -2.422034  0.022920531   -3.7986437    1.3766097  1010000 
 2642000   0.91635451   -3.7962175   -3.7962175   -2.4216871  0.034560202   -3.7962175    1.3745304  1010000 
 2643000   0.91736741   -3.7984726   -3.7984726   -2.4224229  0.032637937   -3.7984726    1.3760498  1010000 
 2644000    0.9183391   -3.7991897   -3.7991897   -2.4216824  0.028267924   -3.7991897    1.3775073  1010000 
 2645000   0.91823591   -3.7978974   -3.7978974   -2.4205449  0.031974232   -3.7978974    1.3773525  1010000 
 2646000   0.91832854   -3.7973579   -3.7973579   -2.4198665  0.026959124   -3.7973579    1.3774914  1010000 
 2647000   0.91843773   -3.7970712   -3.7970712    -2.419416  0.028728464   -3.7970712    1.3776552  1010000 
 2648000   0.91884113   -3.7968396   -3.7968396   -2.4185792  0.028962429   -3.7968396    1.3782603  1010000 
 2649000   0.91916848   -3.7979451   -3.7979451   -2.4191938  0.028455782   -3.7979451    1.3787514  1010000 
 2650000   0.91940429   -3.7976293   -3.7976293   -2.4185242  0.027465945   -3.7976293    1.3791051  1010000 
 2651000   0.91864573   -3.7957531   -3.7957531   -2.4177859   0.03117711   -3.7957531    1.3779672  1010000 
 2652000   0.91846564   -3.7958644   -3.7958644   -2.4181673  0.028103821   -3.7958644    1.3776971  1010000 
 2653000   0.91891182     -3.79579     -3.79579   -2.4174236  0.031119618     -3.79579    1.3783664  1010000 
 2654000   0.91901068   -3.7954318   -3.7954318   -2.4169172  0.031823176   -3.7954318    1.3785146  1010000 
 2655000   0.91849124   -3.7947674   -3.7947674    -2.417032  0.029858827   -3.7947674    1.3777355  1010000 
 2656000   0.91913992   -3.7950142   -3.7950142   -2.4163057  0.031071472   -3.7950142    1.3787085  1010000 
 2657000   0.91899708   -3.7945796   -3.7945796   -2.4160853  0.032457118   -3.7945796    1.3784943  1010000 
 2658000   0.91961563   -3.7955497   -3.7955497   -2.4161276  0.027675665   -3.7955497    1.3794221  1010000 
 2659000   0.91820081   -3.7934885   -3.7934885   -2.4161887  0.029797323   -3.7934885    1.3772998  1010000 
 2660000   0.91819106   -3.7940619   -3.7940619   -2.4167767  0.030335019   -3.7940619    1.3772852  1010000 
 2661000   0.91882358   -3.7937802   -3.7937802   -2.4155462  0.030677937   -3.7937802     1.378234  1010000 
 2662000   0.91959681    -3.794554    -3.794554   -2.4151601  0.030628086    -3.794554    1.3793939  1010000 
 2663000   0.91978686   -3.7940791   -3.7940791   -2.4144002  0.032206767   -3.7940791    1.3796789  1010000 
 2664000   0.91970737   -3.7945012   -3.7945012   -2.4149415  0.031954754   -3.7945012    1.3795597  1010000 
 2665000   0.91963838   -3.7941599   -3.7941599   -2.4147037  0.032590784   -3.7941599    1.3794562  1010000 
 2666000   0.91841715   -3.7920681   -3.7920681   -2.4144437  0.033927902   -3.7920681    1.3776244  1010000 
 2667000   0.91850592   -3.7920879   -3.7920879   -2.4143304  0.033172158   -3.7920879    1.3777575  1010000 
 2668000   0.91926028   -3.7927919   -3.7927919   -2.4139029  0.031738488   -3.7927919    1.3788891  1010000 
 2669000   0.92025719   -3.7939099   -3.7939099   -2.4135255   0.02815715   -3.7939099    1.3803844  1010000 
 2670000   0.91946607   -3.7922427   -3.7922427    -2.413045  0.034901221   -3.7922427    1.3791977  1010000 
 2671000   0.92032798   -3.7935912   -3.7935912   -2.4131006  0.028574374   -3.7935912    1.3804906  1010000 
 2672000    0.9192487    -3.791861    -3.791861   -2.4129893  0.030251893    -3.791861    1.3788717  1010000 
 2673000   0.92054945   -3.7926261   -3.7926261   -2.4118033  0.032152717   -3.7926261    1.3808228  1010000 
 2674000   0.91995935    -3.791985    -3.791985   -2.4120473  0.031149886    -3.791985    1.3799377  1010000 
 2675000   0.92041531   -3.7920314   -3.7920314   -2.4114098  0.033941996   -3.7920314    1.3806216  1010000 
 2676000   0.91997586   -3.7911479   -3.7911479   -2.4111855  0.036088477   -3.7911479    1.3799624  1010000 
 2677000    0.9201423   -3.7916102   -3.7916102   -2.4113982  0.032279685   -3.7916102    1.3802121  1010000 
 2678000   0.92019358   -3.7918877   -3.7918877   -2.4115987  0.031393433   -3.7918877     1.380289  1010000 
 2679000    0.9199708   -3.7912714   -3.7912714   -2.4113166  0.027961069   -3.7912714    1.3799548  1010000 
 2680000   0.91948283   -3.7892238   -3.7892238   -2.4100009  0.028863229   -3.7892238    1.3792229  1010000 
 2681000   0.91997711   -3.7901069   -3.7901069   -2.4101426  0.031282073   -3.7901069    1.3799643  1010000 
 2682000   0.92049824   -3.7904082   -3.7904082   -2.4096622  0.029858212   -3.7904082     1.380746  1010000 
 2683000   0.91974647   -3.7894146   -3.7894146   -2.4097963  0.031031737   -3.7894146    1.3796183  1010000 
 2684000   0.91986282   -3.7892907   -3.7892907   -2.4094978  0.026814021   -3.7892907    1.3797929  1010000 
 2685000   0.91932831   -3.7884543   -3.7884543   -2.4094632  0.031237411   -3.7884543    1.3789911  1010000 
 2686000    0.9195381   -3.7882812   -3.7882812   -2.4089754  0.030885526   -3.7882812    1.3793058  1010000 
 2687000   0.91983486   -3.7879873   -3.7879873   -2.4082364  0.034185746   -3.7879873    1.3797509  1010000 
 2688000   0.92123946     -3.78955     -3.78955   -2.4076922  0.030129418     -3.78955    1.3818578  1010000 
 2689000   0.92161984   -3.7893648   -3.7893648   -2.4069364   0.03486527   -3.7893648    1.3824284  1010000 
 2690000   0.92091049   -3.7884397   -3.7884397   -2.4070753  0.035341403   -3.7884397    1.3813644  1010000 
 2691000    0.9201262   -3.7864749   -3.7864749    -2.406287  0.034257669   -3.7864749    1.3801879  1010000 
 2692000   0.92139422   -3.7881921   -3.7881921   -2.4061021  0.029008821   -3.7881921      1.38209  1010000 
 2693000   0.92095567   -3.7866547   -3.7866547   -2.4052225  0.030022737   -3.7866547    1.3814321  1010000 
 2694000   0.92232926   -3.7879831   -3.7879831   -2.4044906  0.029800238   -3.7879831    1.3834925  1010000 
 2695000   0.92232344   -3.7881284   -3.7881284   -2.4046446   0.03370412   -3.7881284    1.3834838  1010000 
 2696000   0.92071435   -3.7854193   -3.7854193   -2.4043491  0.032264209   -3.7854193    1.3810702  1010000 
 2697000   0.92094118   -3.7856173   -3.7856173   -2.4042069  0.035333775   -3.7856173    1.3814104  1010000 
 2698000    0.9216225   -3.7863691   -3.7863691   -2.4039367  0.035607888   -3.7863691    1.3824324  1010000 
 2699000   0.92194565   -3.7866226   -3.7866226   -2.4037055  0.034737724   -3.7866226    1.3829171  1010000 
 2700000   0.92118392   -3.7851214   -3.7851214   -2.4033469  0.033668441   -3.7851214    1.3817745  1010000 
 2701000   0.92132458   -3.7847975   -3.7847975    -2.402812  0.032689288   -3.7847975    1.3819855  1010000 
 2702000    0.9204648   -3.7836498   -3.7836498   -2.4029539  0.032111136   -3.7836498    1.3806958  1010000 
 2703000   0.92082067   -3.7844619   -3.7844619   -2.4032323  0.027951978   -3.7844619    1.3812296  1010000 
 2704000   0.92068431   -3.7842213   -3.7842213   -2.4031962  0.028817574   -3.7842213    1.3810251  1010000 
 2705000   0.92031974   -3.7823881   -3.7823881   -2.4019099  0.032729337   -3.7823881    1.3804782  1010000 
 2706000   0.92072655   -3.7823885   -3.7823885   -2.4013001  0.030114962   -3.7823885    1.3810885  1010000 
 2707000   0.92120039    -3.782657    -3.782657   -2.4008578  0.028385945    -3.782657    1.3817992  1010000 
 2708000   0.92137202    -3.782123    -3.782123   -2.4000664  0.031570812    -3.782123    1.3820567  1010000 
 2709000   0.92041919   -3.7804408   -3.7804408   -2.3998134  0.032888021   -3.7804408    1.3806274  1010000 
 2710000   0.92143308   -3.7821546   -3.7821546   -2.4000063  0.025658867   -3.7821546    1.3821482  1010000 
 2711000   0.92139147   -3.7816109   -3.7816109   -2.3995251  0.030484233   -3.7816109    1.3820858  1010000 
 2712000   0.92086022   -3.7810979   -3.7810979    -2.399809  0.032463229   -3.7810979     1.381289  1010000 
 2713000   0.92039471   -3.7797615   -3.7797615   -2.3991708  0.033530101   -3.7797615    1.3805907  1010000 
 2714000   0.92104317   -3.7801229   -3.7801229   -2.3985595  0.031381195   -3.7801229    1.3815634  1010000 
 2715000   0.92054902   -3.7789863   -3.7789863   -2.3981641   0.03067536   -3.7789863    1.3808222  1010000 
 2716000   0.92128837   -3.7800163   -3.7800163   -2.3980851  0.028257968   -3.7800163    1.3819312  1010000 
 2717000   0.91959415   -3.7775242   -3.7775242   -2.3981343  0.031594634   -3.7775242    1.3793899  1010000 
 2718000   0.92106341   -3.7790702   -3.7790702   -2.3974765   0.02473706   -3.7790702    1.3815937  1010000 
 2719000   0.92118567   -3.7796661   -3.7796661    -2.397889  0.028273921   -3.7796661    1.3817771  1010000 
 2720000   0.92076151   -3.7784975   -3.7784975   -2.3973566   0.02774265   -3.7784975    1.3811409  1010000 
 2721000   0.92060162   -3.7769263   -3.7769263   -2.3960252  0.033416037   -3.7769263    1.3809011  1010000 
 2722000   0.92219895   -3.7793645   -3.7793645   -2.3960674  0.026888978   -3.7793645    1.3832971  1010000 
 2723000   0.92062388   -3.7768444   -3.7768444     -2.39591  0.034612847   -3.7768444    1.3809345  1010000 
 2724000   0.92203958   -3.7784073   -3.7784073   -2.3953493  0.031930375   -3.7784073     1.383058  1010000 
 2725000    0.9234689   -3.7803851   -3.7803851   -2.3951831   0.03037837   -3.7803851     1.385202  1010000 
 2726000    0.9233643   -3.7798039   -3.7798039   -2.3947588  0.035251986   -3.7798039    1.3850451  1010000 
 2727000    0.9233193   -3.7798462   -3.7798462   -2.3948686  0.032902963   -3.7798462    1.3849776  1010000 
 2728000    0.9222745     -3.77785     -3.77785   -2.3944396  0.037174701     -3.77785    1.3834104  1010000 
 2729000   0.92290305   -3.7782141   -3.7782141   -2.3938609  0.029265159   -3.7782141    1.3843532  1010000 
 2730000   0.92226337   -3.7773026   -3.7773026   -2.3939089  0.034583107   -3.7773026    1.3833937  1010000 
 2731000   0.92318489   -3.7781208   -3.7781208   -2.3933448  0.031439708   -3.7781208     1.384776  1010000 
 2732000   0.92230944   -3.7768296   -3.7768296   -2.3933668  0.031143617   -3.7768296    1.3834628  1010000 
 2733000   0.92109559   -3.7755535   -3.7755535   -2.3939115  0.031415388   -3.7755535     1.381642  1010000 
 2734000   0.92229902   -3.7769513   -3.7769513   -2.3935041  0.032835148   -3.7769513    1.3834472  1010000 
 2735000    0.9222018   -3.7763272   -3.7763272   -2.3930259  0.030735811   -3.7763272    1.3833013  1010000 
 2736000   0.92235889   -3.7765614   -3.7765614   -2.3930244  0.032092903   -3.7765614     1.383537  1010000 
 2737000   0.92275947   -3.7766615   -3.7766615   -2.3925237  0.032295736   -3.7766615    1.3841378  1010000 
 2738000   0.92259848    -3.776193    -3.776193   -2.3922966  0.033941369    -3.776193    1.3838963  1010000 
 2739000   0.92341964   -3.7763264   -3.7763264   -2.3911983  0.032760294   -3.7763264    1.3851281  1010000 
 2740000   0.92285308   -3.7757771   -3.7757771   -2.3914989  0.032475082   -3.7757771    1.3842782  1010000 
 2741000   0.92460585   -3.7769266   -3.7769266   -2.3900192   0.03500886   -3.7769266    1.3869074  1010000 
 2742000   0.92404646   -3.7756253   -3.7756253   -2.3895569  0.030718307   -3.7756253    1.3860683  1010000 
 2743000   0.92409033   -3.7758872   -3.7758872   -2.3897531  0.034666072   -3.7758872    1.3861341  1010000 
 2744000   0.92385786   -3.7755918   -3.7755918   -2.3898064  0.034582567   -3.7755918    1.3857854  1010000 
 2745000   0.92396682   -3.7755279   -3.7755279    -2.389579  0.029484562   -3.7755279    1.3859489  1010000 
 2746000   0.92382972   -3.7748724   -3.7748724   -2.3891292  0.030907273   -3.7748724    1.3857432  1010000 
 2747000   0.92341436   -3.7742734   -3.7742734   -2.3891532  0.033052407   -3.7742734    1.3851202  1010000 
 2748000     0.923244    -3.773804    -3.773804   -2.3889394  0.032506451    -3.773804    1.3848646  1010000 
 2749000   0.92334691   -3.7735698   -3.7735698   -2.3885508  0.030627233   -3.7735698     1.385019  1010000 
 2750000   0.92366193    -3.773285    -3.773285   -2.3877935  0.029915843    -3.773285    1.3854915  1010000 
 2751000   0.92364684    -3.773672    -3.773672   -2.3882031  0.028393764    -3.773672    1.3854689  1010000 
 2752000   0.92151404   -3.7695271   -3.7695271   -2.3872574  0.034815542   -3.7695271    1.3822697  1010000 
 2753000   0.92293641   -3.7708898   -3.7708898   -2.3864865  0.033914074   -3.7708898    1.3844032  1010000 
 2754000   0.92305558   -3.7710142   -3.7710142   -2.3864322  0.030269825   -3.7710142     1.384582  1010000 
 2755000   0.92306818   -3.7709225   -3.7709225   -2.3863216  0.027809691   -3.7709225    1.3846009  1010000 
 2756000   0.92241204    -3.769309    -3.769309   -2.3856923  0.033065388    -3.769309    1.3836167  1010000 
 2757000    0.9229315   -3.7697878   -3.7697878    -2.385392  0.033559718   -3.7697878    1.3843959  1010000 
 2758000   0.92259787   -3.7689056   -3.7689056   -2.3850102  0.027961059   -3.7689056    1.3838954  1010000 
 2759000   0.92316883    -3.769859    -3.769859   -2.3851071   0.03489476    -3.769859    1.3847519  1010000 
 2760000   0.92459834   -3.7713938   -3.7713938   -2.3844976  0.033898124   -3.7713938    1.3868961  1010000 
 2761000    0.9237478   -3.7700359   -3.7700359   -2.3844155  0.031899646   -3.7700359    1.3856203  1010000 
 2762000   0.92371821   -3.7692851   -3.7692851   -2.3837092  0.032038565   -3.7692851    1.3855759  1010000 
 2763000   0.92270695   -3.7678834   -3.7678834   -2.3838244   0.03222505   -3.7678834    1.3840591  1010000 
 2764000   0.92198831   -3.7674759   -3.7674759   -2.3844948  0.031866901   -3.7674759    1.3829811  1010000 
 2765000   0.92326583   -3.7682119   -3.7682119   -2.3833145  0.031904386   -3.7682119    1.3848974  1010000 
 2766000   0.92327065    -3.767879    -3.767879   -2.3829744  0.034348307    -3.767879    1.3849046  1010000 
 2767000   0.92283017   -3.7667518   -3.7667518    -2.382508  0.031774483   -3.7667518    1.3842439  1010000 
 2768000   0.92259495   -3.7664582   -3.7664582   -2.3825671  0.032162995   -3.7664582    1.3838911  1010000 
 2769000   0.92339002   -3.7678575   -3.7678575   -2.3827739  0.025824246   -3.7678575    1.3850837  1010000 
 2770000   0.92364705   -3.7679049   -3.7679049   -2.3824357  0.027498146   -3.7679049    1.3854692  1010000 
 2771000   0.92313143   -3.7663735   -3.7663735   -2.3816777  0.034103891   -3.7663735    1.3846958  1010000 
 2772000   0.92410703   -3.7669405   -3.7669405   -2.3807813   0.03150423   -3.7669405    1.3861592  1010000 
 2773000   0.92444913   -3.7667561   -3.7667561   -2.3800838  0.033962997   -3.7667561    1.3866723  1010000 
 2774000   0.92580121   -3.7684885   -3.7684885    -2.379788  0.033372692   -3.7684885    1.3887004  1010000 
 2775000   0.92494799   -3.7673828   -3.7673828   -2.3799622  0.037175308   -3.7673828    1.3874206  1010000 
 2776000   0.92479536   -3.7669284   -3.7669284   -2.3797367  0.034190803   -3.7669284    1.3871917  1010000 
 2777000   0.92627171   -3.7685563   -3.7685563   -2.3791501  0.035927091   -3.7685563    1.3894062  1010000 
 2778000   0.92506524   -3.7668618   -3.7668618   -2.3792653  0.035864186   -3.7668618    1.3875965  1010000 
 2779000   0.92521044   -3.7674135   -3.7674135   -2.3795992   0.03297937   -3.7674135    1.3878143  1010000 
 2780000   0.92450717   -3.7662145   -3.7662145   -2.3794551  0.033701603   -3.7662145    1.3867594  1010000 
 2781000    0.9245497   -3.7658797   -3.7658797   -2.3790565  0.032635838   -3.7658797    1.3868232  1010000 
 2782000   0.92454559   -3.7650257   -3.7650257   -2.3782087  0.033129229   -3.7650257     1.386817  1010000 
 2783000   0.92376221   -3.7635428   -3.7635428   -2.3779009  0.034420092   -3.7635428    1.3856419  1010000 
 2784000   0.92496092    -3.764976    -3.764976    -2.377536  0.028789562    -3.764976      1.38744  1010000 
 2785000   0.92407667   -3.7645852   -3.7645852   -2.3784716  0.029566783   -3.7645852    1.3861136  1010000 
 2786000   0.92377198    -3.762906    -3.762906   -2.3772494  0.031833197    -3.762906    1.3856566  1010000 
 2787000   0.92528507   -3.7654824   -3.7654824   -2.3775562  0.028745372   -3.7654824    1.3879262  1010000 
 2788000   0.92507703   -3.7656083   -3.7656083   -2.3779941  0.029457753   -3.7656083    1.3876142  1010000 
 2789000   0.92551277   -3.7655675   -3.7655675   -2.3772997  0.029615941   -3.7655675    1.3882678  1010000 
 2790000   0.92507037   -3.7643138   -3.7643138   -2.3767096  0.031613198   -3.7643138    1.3876042  1010000 
 2791000   0.92467429   -3.7631184   -3.7631184   -2.3761083   0.03518661   -3.7631184    1.3870101  1010000 
 2792000   0.92480889   -3.7621738   -3.7621738   -2.3749618  0.034580865   -3.7621738     1.387212  1010000 
 2793000   0.92554104   -3.7626934   -3.7626934   -2.3743832  0.034042427   -3.7626934    1.3883102  1010000 
 2794000   0.92579328   -3.7627552   -3.7627552   -2.3740666  0.031991609   -3.7627552    1.3886885  1010000 
 2795000    0.9255101   -3.7621088   -3.7621088    -2.373845  0.034971861   -3.7621088    1.3882638  1010000 
 2796000    0.9249688   -3.7614387   -3.7614387   -2.3739869  0.036033152   -3.7614387    1.3874518  1010000 
 2797000   0.92472438   -3.7604632   -3.7604632    -2.373378  0.032531138   -3.7604632    1.3870852  1010000 
 2798000   0.92505827   -3.7610389   -3.7610389   -2.3734529  0.027604417   -3.7610389     1.387586  1010000 
 2799000   0.92508883   -3.7606517   -3.7606517   -2.3730198  0.032760638   -3.7606517    1.3876319  1010000 
 2800000   0.92483874   -3.7598906   -3.7598906   -2.3726338  0.028182041   -3.7598906    1.3872567  1010000 
 2801000    0.9246292   -3.7593107   -3.7593107   -2.3723683  0.030171725   -3.7593107    1.3869424  1010000 
 2802000   0.92416133   -3.7585382   -3.7585382   -2.3722976  0.030852825   -3.7585382    1.3862406  1010000 
 2803000   0.92493836   -3.7589557   -3.7589557   -2.3715496  0.029117398   -3.7589557    1.3874062  1010000 
 2804000   0.92529241   -3.7588908   -3.7588908   -2.3709536  0.032334847   -3.7588908    1.3879372  1010000 
 2805000   0.92522913   -3.7585066   -3.7585066   -2.3706643  0.029476879   -3.7585066    1.3878423  1010000 
 2806000    0.9254866   -3.7579452   -3.7579452   -2.3697167  0.029136189   -3.7579452    1.3882285  1010000 
 2807000   0.92585547   -3.7582163   -3.7582163   -2.3694345  0.026933319   -3.7582163    1.3887818  1010000 
 2808000   0.92560288   -3.7574788   -3.7574788   -2.3690758  0.030217909   -3.7574788    1.3884029  1010000 
 2809000   0.92585698   -3.7568503   -3.7568503   -2.3680662  0.033324176   -3.7568503    1.3887841  1010000 
 2810000   0.92616646   -3.7575845   -3.7575845   -2.3683362  0.033473599   -3.7575845    1.3892483  1010000 
 2811000   0.92632608   -3.7568313   -3.7568313   -2.3673435  0.034917577   -3.7568313    1.3894877  1010000 
 2812000    0.9270697   -3.7571139   -3.7571139   -2.3665108  0.033584896   -3.7571139    1.3906032  1010000 
 2813000   0.92641231   -3.7568469   -3.7568469   -2.3672298    0.0301718   -3.7568469    1.3896171  1010000 
 2814000   0.92591922   -3.7558576   -3.7558576   -2.3669802  0.032209746   -3.7558576    1.3888775  1010000 
 2815000   0.92592041   -3.7558425   -3.7558425   -2.3669632  0.031912801   -3.7558425    1.3888792  1010000 
 2816000   0.92523458   -3.7557114   -3.7557114   -2.3678609  0.031326464   -3.7557114    1.3878505  1010000 
 2817000   0.92628329    -3.756213    -3.756213   -2.3667894  0.030751851    -3.756213    1.3894236  1010000 
 2818000   0.92603527   -3.7553106   -3.7553106    -2.366259  0.032611765   -3.7553106    1.3890515  1010000 
 2819000    0.9254685   -3.7544412   -3.7544412   -2.3662398  0.033272109   -3.7544412    1.3882014  1010000 
 2820000   0.92528648   -3.7539673   -3.7539673    -2.366039  0.031013682   -3.7539673    1.3879283  1010000 
 2821000   0.92583383   -3.7536117   -3.7536117   -2.3648623  0.032061103   -3.7536117    1.3887494  1010000 
 2822000   0.92574294   -3.7532461   -3.7532461   -2.3646331   0.03172167   -3.7532461     1.388613  1010000 
 2823000   0.92599052   -3.7531437   -3.7531437   -2.3641593  0.033939351   -3.7531437    1.3889844  1010000 
 2824000   0.92585943   -3.7529832   -3.7529832   -2.3641954  0.026821422   -3.7529832    1.3887878  1010000 
 2825000   0.92573845   -3.7523211   -3.7523211   -2.3637148  0.035567978   -3.7523211    1.3886063  1010000 
 2826000   0.92601356   -3.7529849   -3.7529849   -2.3639659  0.032514723   -3.7529849     1.389019  1010000 
 2827000   0.92500242   -3.7520822   -3.7520822   -2.3645799   0.03392159   -3.7520822    1.3875023  1010000 
 2828000   0.92693085   -3.7541218   -3.7541218   -2.3637269  0.033421976   -3.7541218    1.3903949  1010000 
 2829000   0.92692728   -3.7530896   -3.7530896      -2.3627  0.030811304   -3.7530896    1.3903895  1010000 
 2830000   0.92642443   -3.7516076   -3.7516076   -2.3619723  0.034482823   -3.7516076    1.3896353  1010000 
 2831000   0.92717834   -3.7525053   -3.7525053   -2.3617392   0.03158115   -3.7525053    1.3907661  1010000 
 2832000    0.9263576   -3.7514192   -3.7514192   -2.3618842  0.034722053   -3.7514192     1.389535  1010000 
 2833000   0.92616797   -3.7507148   -3.7507148   -2.3614642  0.036852244   -3.7507148    1.3892506  1010000 
 2834000    0.9271773   -3.7520397   -3.7520397   -2.3612752  0.034645576   -3.7520397    1.3907646  1010000 
 2835000   0.92705272   -3.7516045   -3.7516045   -2.3610268  0.034585646   -3.7516045    1.3905777  1010000 
 2836000   0.92627163   -3.7505031   -3.7505031   -2.3610971  0.032645689   -3.7505031    1.3894061  1010000 
 2837000   0.92561969   -3.7495466   -3.7495466   -2.3611184  0.031715995   -3.7495466    1.3884282  1010000 
 2838000   0.92594649   -3.7499683   -3.7499683   -2.3610499  0.032936079   -3.7499683    1.3889184  1010000 
 2839000   0.92647868   -3.7501566   -3.7501566   -2.3604399  0.027910115   -3.7501566    1.3897166  1010000 
 2840000   0.92626024   -3.7495582   -3.7495582   -2.3601692  0.028923107   -3.7495582     1.389389  1010000 
 2841000   0.92618001   -3.7492581   -3.7492581   -2.3599895  0.030947522   -3.7492581    1.3892686  1010000 
 2842000    0.9268832   -3.7497962   -3.7497962   -2.3594728  0.031063494   -3.7497962    1.3903234  1010000 
 2843000   0.92696392   -3.7493456   -3.7493456   -2.3589011   0.03531929   -3.7493456    1.3904445  1010000 
 2844000   0.92781798   -3.7499049   -3.7499049   -2.3581793  0.035264031   -3.7499049    1.3917256  1010000 
 2845000   0.92757255    -3.749315    -3.749315   -2.3579575  0.036397858    -3.749315    1.3913574  1010000 
 2846000   0.92805757   -3.7487901   -3.7487901   -2.3567051  0.034841725   -3.7487901     1.392085  1010000 
 2847000   0.92848642   -3.7486751   -3.7486751   -2.3559468  0.035793138   -3.7486751    1.3927282  1010000 
 2848000   0.92825349   -3.7478502   -3.7478502   -2.3554714  0.036026658   -3.7478502    1.3923789  1010000 
 2849000   0.92870995   -3.7481308   -3.7481308   -2.3550672  0.034557292   -3.7481308    1.3930636  1010000 
 2850000   0.92837165   -3.7475813   -3.7475813   -2.3550252  0.032394583   -3.7475813    1.3925561  1010000 
 2851000   0.92888758   -3.7480776   -3.7480776   -2.3547476  0.034055656   -3.7480776      1.39333  1010000 
 2852000   0.92815912   -3.7471713   -3.7471713    -2.354934  0.032012857   -3.7471713    1.3922373  1010000 
 2853000   0.92828403   -3.7474814   -3.7474814   -2.3550567   0.03502604   -3.7474814    1.3924247  1010000 
 2854000   0.92648751   -3.7444419   -3.7444419    -2.354712  0.032478803   -3.7444419    1.3897299  1010000 
 2855000   0.92662385   -3.7443845   -3.7443845   -2.3544501  0.030869265   -3.7443845    1.3899344  1010000 
 2856000   0.92692477   -3.7450935   -3.7450935   -2.3547077  0.027848622   -3.7450935    1.3903858  1010000 
 2857000   0.92733507   -3.7452792   -3.7452792   -2.3542779  0.024199713   -3.7452792    1.3910012  1010000 
 2858000   0.92721245   -3.7437282   -3.7437282   -2.3529109  0.028201541   -3.7437282    1.3908173  1010000 
 2859000   0.92725215   -3.7444877   -3.7444877   -2.3536109  0.025314058   -3.7444877    1.3908769  1010000 
 2860000   0.92646382     -3.74246     -3.74246   -2.3527656  0.030935253     -3.74246    1.3896944  1010000 
 2861000   0.92700139    -3.743185    -3.743185   -2.3526843  0.030743304    -3.743185    1.3905007  1010000 
 2862000   0.92723755   -3.7425489   -3.7425489   -2.3516939  0.026929295   -3.7425489     1.390855  1010000 
 2863000   0.92703192   -3.7423434   -3.7423434   -2.3517969  0.030805201   -3.7423434    1.3905465  1010000 
 2864000   0.92634944   -3.7416096   -3.7416096   -2.3520868  0.028751062   -3.7416096    1.3895228  1010000 
 2865000   0.92781413    -3.742247    -3.742247   -2.3505272  0.027415227    -3.742247    1.3917198  1010000 
 2866000   0.92778555   -3.7412319   -3.7412319    -2.349555  0.035219215   -3.7412319     1.391677  1010000 
 2867000   0.92789206   -3.7418656   -3.7418656   -2.3500289  0.032138201   -3.7418656    1.3918367  1010000 
 2868000   0.92775606   -3.7411006   -3.7411006   -2.3494679  0.033429569   -3.7411006    1.3916327  1010000 
 2869000   0.92713093   -3.7402295   -3.7402295   -2.3495345  0.035510537   -3.7402295     1.390695  1010000 
 2870000   0.92712753   -3.7402629   -3.7402629    -2.349573  0.034154599   -3.7402629    1.3906899  1010000 
 2871000   0.92754503   -3.7409017   -3.7409017   -2.3495855  0.032094351   -3.7409017    1.3913162  1010000 
 2872000   0.92838014   -3.7413678   -3.7413678    -2.348799  0.027893677   -3.7413678    1.3925688  1010000 
 2873000   0.92771807   -3.7399385   -3.7399385   -2.3483627  0.031039582   -3.7399385    1.3915757  1010000 
 2874000   0.92900874   -3.7408937   -3.7408937    -2.347382  0.031130813   -3.7408937    1.3935117  1010000 
 2875000   0.92842576    -3.741251    -3.741251   -2.3486137  0.030136917    -3.741251    1.3926373  1010000 
 2876000   0.92859087    -3.740908    -3.740908   -2.3480231  0.033001621    -3.740908    1.3928849  1010000 
 2877000   0.92881877   -3.7407362   -3.7407362   -2.3475094  0.030746952   -3.7407362    1.3932268  1010000 
 2878000   0.92854866   -3.7397489   -3.7397489   -2.3469273  0.032219094   -3.7397489    1.3928216  1010000 
 2879000   0.92847996   -3.7396157   -3.7396157   -2.3468971  0.038233627   -3.7396157    1.3927186  1010000 
 2880000    0.9290631    -3.740462    -3.740462   -2.3468688  0.034621379    -3.740462    1.3935933  1010000 
 2881000    0.9281924   -3.7385357   -3.7385357   -2.3462485  0.036405106   -3.7385357    1.3922872  1010000 
 2882000   0.93020302    -3.740688    -3.740688   -2.3453849  0.034011629    -3.740688    1.3953032  1010000 
 2883000   0.92968409   -3.7391484   -3.7391484   -2.3446236  0.037024466   -3.7391484    1.3945248  1010000 
 2884000   0.93009517   -3.7395864   -3.7395864   -2.3444451  0.037545354   -3.7395864    1.3951414  1010000 
 2885000   0.92915485   -3.7381917   -3.7381917   -2.3444608  0.036723368   -3.7381917    1.3937309  1010000 
 2886000   0.92995353   -3.7392355   -3.7392355   -2.3443065  0.034875914   -3.7392355    1.3949289  1010000 
 2887000   0.93018809   -3.7398198   -3.7398198   -2.3445391  0.034743638   -3.7398198    1.3952808  1010000 
 2888000   0.92989385   -3.7391658   -3.7391658   -2.3443264  0.035538447   -3.7391658    1.3948394  1010000 
 2889000    0.9298985   -3.7386655   -3.7386655   -2.3438191  0.037443944   -3.7386655    1.3948464  1010000 
 2890000   0.93015874   -3.7389371   -3.7389371   -2.3437004  0.031203119   -3.7389371    1.3952367  1010000 
 2891000   0.92891454   -3.7369888   -3.7369888   -2.3436183  0.034098905   -3.7369888    1.3933704  1010000 
 2892000    0.9295654   -3.7369819   -3.7369819   -2.3426351  0.032966489   -3.7369819    1.3943467  1010000 
 2893000    0.9294372   -3.7362882   -3.7362882   -2.3421338  0.031846101   -3.7362882    1.3941544  1010000 
 2894000   0.93021367    -3.737025    -3.737025   -2.3417059  0.031641212    -3.737025    1.3953191  1010000 
 2895000   0.93059109   -3.7371322   -3.7371322   -2.3412469  0.030939815   -3.7371322    1.3958853  1010000 
 2896000   0.93065585   -3.7365649   -3.7365649   -2.3405825  0.033630086   -3.7365649    1.3959824  1010000 
 2897000   0.93023157   -3.7360886   -3.7360886   -2.3407426   0.03244245   -3.7360886     1.395346  1010000 
 2898000   0.93097064   -3.7368681   -3.7368681   -2.3404136  0.032733655   -3.7368681    1.3964546  1010000 
 2899000   0.93055494   -3.7356618   -3.7356618   -2.3398307   0.03438427   -3.7356618     1.395831  1010000 
 2900000    0.9294988   -3.7329373   -3.7329373   -2.3386905  0.037070103   -3.7329373    1.3942468  1010000 
 2901000   0.93064672   -3.7345069   -3.7345069   -2.3385382  0.032436182   -3.7345069    1.3959687  1010000 
 2902000   0.93004276   -3.7329701   -3.7329701   -2.3379074  0.034496863   -3.7329701    1.3950628  1010000 
 2903000   0.92994336   -3.7330025   -3.7330025   -2.3380889  0.032836519   -3.7330025    1.3949137  1010000 
 2904000   0.92940279   -3.7323337   -3.7323337   -2.3382309  0.031968398   -3.7323337    1.3941028  1010000 
 2905000    0.9289029   -3.7324078   -3.7324078   -2.3390548  0.030880544   -3.7324078     1.393353  1010000 
 2906000   0.92881712   -3.7321131   -3.7321131   -2.3388888  0.034523827   -3.7321131    1.3932243  1010000 
 2907000   0.92813591   -3.7309989   -3.7309989   -2.3387964  0.031020921   -3.7309989    1.3922025  1010000 
 2908000   0.92866091   -3.7317021   -3.7317021   -2.3387121  0.027622279   -3.7317021      1.39299  1010000 
 2909000   0.92930339   -3.7317309   -3.7317309   -2.3377771  0.028553052   -3.7317309    1.3939537  1010000 
 2910000   0.92895983   -3.7299607   -3.7299607   -2.3365223  0.028339013   -3.7299607    1.3934384  1010000 
 2911000   0.92917665   -3.7296781   -3.7296781   -2.3359145  0.030692068   -3.7296781    1.3937636  1010000 
 2912000   0.92897706   -3.7284824   -3.7284824   -2.3350182  0.030594965   -3.7284824    1.3934642  1010000 
 2913000   0.92956321   -3.7294237   -3.7294237   -2.3350802   0.02528742   -3.7294237    1.3943434  1010000 
 2914000   0.92907746   -3.7289753   -3.7289753   -2.3353605   0.03334958   -3.7289753    1.3936148  1010000 
 2915000   0.92996207    -3.729684    -3.729684   -2.3347423  0.035065985    -3.729684    1.3949417  1010000 
 2916000   0.92932758   -3.7286559   -3.7286559   -2.3346659  0.037258853   -3.7286559      1.39399  1010000 
 2917000   0.93047128    -3.729776    -3.729776   -2.3340704  0.036432331    -3.729776    1.3957055  1010000 
 2918000   0.92994738   -3.7283064   -3.7283064   -2.3333868   0.03808907   -3.7283064    1.3949197  1010000 
 2919000   0.93044114   -3.7283797   -3.7283797   -2.3327194  0.033926887   -3.7283797    1.3956603  1010000 
 2920000   0.93068566   -3.7283233   -3.7283233   -2.3322962  0.033601099   -3.7283233    1.3960271  1010000 
 2921000   0.93126254    -3.729389    -3.729389   -2.3324966   0.03231281    -3.729389    1.3968924  1010000 
 2922000   0.93038705   -3.7277339   -3.7277339   -2.3321547  0.035464845   -3.7277339    1.3955792  1010000 
 2923000    0.9310601   -3.7283401   -3.7283401   -2.3317513   0.02905397   -3.7283401    1.3965888  1010000 
 2924000   0.93084116   -3.7284862   -3.7284862   -2.3322259  0.028874509   -3.7284862    1.3962604  1010000 
 2925000     0.930475   -3.7277289   -3.7277289   -2.3320178  0.034046917   -3.7277289    1.3957111  1010000 
 2926000   0.92961046   -3.7262032   -3.7262032   -2.3317889  0.032965781   -3.7262032    1.3944143  1010000 
 2927000   0.93010438   -3.7270389   -3.7270389   -2.3318837  0.032654039   -3.7270389    1.3951552  1010000 
 2928000   0.93035037   -3.7275149   -3.7275149   -2.3319907  0.029611343   -3.7275149    1.3955242  1010000 
 2929000   0.92881349   -3.7255694   -3.7255694   -2.3323505  0.032006169   -3.7255694    1.3932189  1010000 
 2930000   0.93000414   -3.7271943   -3.7271943   -2.3321895  0.029786502   -3.7271943    1.3950048  1010000 
 2931000   0.93089919   -3.7280241   -3.7280241   -2.3316767  0.031545164   -3.7280241    1.3963474  1010000 
 2932000   0.93157891   -3.7283154   -3.7283154   -2.3309484   0.02650162   -3.7283154     1.397367  1010000 
 2933000   0.93147808   -3.7277921   -3.7277921   -2.3305764  0.037607406   -3.7277921    1.3972157  1010000 
 2934000   0.93151009   -3.7272841   -3.7272841   -2.3300204  0.033709283   -3.7272841    1.3972637  1010000 
 2935000   0.93157894   -3.7257774   -3.7257774   -2.3284104  0.039584486   -3.7257774     1.397367  1010000 
 2936000   0.93208686   -3.7269497   -3.7269497   -2.3288208  0.033383818   -3.7269497    1.3981289  1010000 
 2937000   0.93174867   -3.7263289   -3.7263289   -2.3287073  0.036573267   -3.7263289    1.3976216  1010000 
 2938000   0.93234083   -3.7266157   -3.7266157   -2.3281059  0.038269053   -3.7266157    1.3985099  1010000 
 2939000   0.93214779   -3.7260173   -3.7260173    -2.327797  0.038793087   -3.7260173    1.3982203  1010000 
 2940000   0.93253528   -3.7259007   -3.7259007   -2.3270991  0.041993472   -3.7259007    1.3988015  1010000 
 2941000   0.93230828   -3.7251368   -3.7251368   -2.3266757  0.041836219   -3.7251368     1.398461  1010000 
 2942000   0.93310995   -3.7258459   -3.7258459   -2.3261823  0.039182235   -3.7258459    1.3996635  1010000 
 2943000    0.9316483   -3.7240889   -3.7240889   -2.3266179  0.035247443   -3.7240889    1.3974711  1010000 
 2944000   0.93275181   -3.7256267   -3.7256267   -2.3265003   0.03151537   -3.7256267    1.3991263  1010000 
 2945000   0.93211495    -3.725125    -3.725125    -2.326954   0.03238766    -3.725125     1.398171  1010000 
 2946000   0.93165631   -3.7237043   -3.7237043   -2.3262213  0.036772704   -3.7237043    1.3974831  1010000 
 2947000   0.93240303   -3.7247248   -3.7247248   -2.3261217  0.031645703   -3.7247248    1.3986032  1010000 
 2948000   0.93237091   -3.7256313   -3.7256313   -2.3270763  0.035687645   -3.7256313     1.398555  1010000 
 2949000   0.93163291   -3.7237834   -3.7237834   -2.3263354  0.031445496   -3.7237834     1.397448  1010000 
 2950000   0.93102351   -3.7225729   -3.7225729    -2.326039  0.033660285   -3.7225729    1.3965339  1010000 
 2951000   0.93097666   -3.7223087   -3.7223087   -2.3258451  0.032831959   -3.7223087    1.3964636  1010000 
 2952000   0.93146662     -3.72171     -3.72171   -2.3245115  0.033332689     -3.72171    1.3971985  1010000 
 2953000   0.93162602   -3.7216631   -3.7216631   -2.3242254  0.034577281   -3.7216631    1.3974377  1010000 
 2954000   0.93106722   -3.7204151   -3.7204151   -2.3238157  0.030056559   -3.7204151    1.3965995  1010000 
 2955000   0.93128466   -3.7202334   -3.7202334   -2.3233078  0.035585731   -3.7202334    1.3969256  1010000 
 2956000   0.93231503   -3.7217687   -3.7217687   -2.3232976  0.033176326   -3.7217687    1.3984712  1010000 
 2957000   0.93158318    -3.720294    -3.720294   -2.3229206  0.033492369    -3.720294    1.3973734  1010000 
 2958000   0.93140461    -3.719448    -3.719448   -2.3223425  0.037010326    -3.719448    1.3971055  1010000 
 2959000   0.93318168   -3.7214101   -3.7214101    -2.321639  0.034317113   -3.7214101    1.3997711  1010000 
 2960000   0.93278176   -3.7207304   -3.7207304   -2.3215592  0.032786934   -3.7207304    1.3991712  1010000 
 2961000   0.93232025   -3.7191602   -3.7191602   -2.3206812  0.033902489   -3.7191602     1.398479  1010000 
 2962000   0.93250569   -3.7188218   -3.7188218   -2.3200647  0.032190931   -3.7188218    1.3987571  1010000 
 2963000   0.93263488   -3.7190052   -3.7190052   -2.3200542  0.037044424   -3.7190052    1.3989509  1010000 
 2964000    0.9326574   -3.7185876   -3.7185876   -2.3196029  0.031531472   -3.7185876    1.3989847  1010000 
 2965000    0.9318772   -3.7173047   -3.7173047   -2.3194903  0.031863367   -3.7173047    1.3978144  1010000 
 2966000   0.93138318   -3.7156199   -3.7156199   -2.3185465  0.031202818   -3.7156199    1.3970734  1010000 
 2967000   0.93183056   -3.7166385   -3.7166385    -2.318894  0.030559753   -3.7166385    1.3977445  1010000 
 2968000   0.93092673    -3.715374    -3.715374   -2.3189853  0.032141867    -3.715374    1.3963887  1010000 
 2969000   0.93249952   -3.7167681   -3.7167681   -2.3180202  0.034301333   -3.7167681    1.3987479  1010000 
 2970000    0.9323712   -3.7163257   -3.7163257   -2.3177703  0.032775568   -3.7163257    1.3985554  1010000 
 2971000   0.93273169    -3.715937    -3.715937   -2.3168409  0.037661206    -3.715937    1.3990962  1010000 
 2972000   0.93388302   -3.7161805   -3.7161805   -2.3153574  0.030300058   -3.7161805    1.4008231  1010000 
 2973000   0.93260857   -3.7141267   -3.7141267   -2.3152153   0.03379655   -3.7141267    1.3989115  1010000 
 2974000   0.93340329   -3.7150618   -3.7150618   -2.3149582  0.033506153   -3.7150618    1.4001035  1010000 
 2975000   0.93376196   -3.7148733   -3.7148733   -2.3142317  0.033167404   -3.7148733    1.4006416  1010000 
 2976000   0.93335579   -3.7133015   -3.7133015   -2.3132692  0.036601238   -3.7133015    1.4000323  1010000 
 2977000   0.93308406   -3.7131057   -3.7131057    -2.313481  0.034875577   -3.7131057    1.3996247  1010000 
 2978000   0.93411029   -3.7132485   -3.7132485   -2.3120844  0.036835607   -3.7132485    1.4011641  1010000 
 2979000   0.93386105   -3.7132787   -3.7132787   -2.3124885  0.035174541   -3.7132787    1.4007902  1010000 
 2980000    0.9336422   -3.7124663   -3.7124663   -2.3120044  0.032685421   -3.7124663    1.4004619  1010000 
 2981000   0.93405107   -3.7126539   -3.7126539   -2.3115787  0.033641942   -3.7126539    1.4010752  1010000 
 2982000   0.93273418   -3.7109171   -3.7109171   -2.3118172  0.033610705   -3.7109171    1.3990999  1010000 
 2983000   0.93319503   -3.7107369   -3.7107369   -2.3109457    0.0387301   -3.7107369    1.3997912  1010000 
 2984000   0.93413293   -3.7118957   -3.7118957   -2.3106977  0.030725652   -3.7118957     1.401198  1010000 
 2985000   0.93376773   -3.7107875   -3.7107875   -2.3101373  0.033046571   -3.7107875    1.4006502  1010000 
 2986000   0.93378178   -3.7099511   -3.7099511   -2.3092798  0.035237868   -3.7099511    1.4006713  1010000 
 2987000   0.93472614   -3.7104221   -3.7104221   -2.3083342  0.031544655   -3.7104221    1.4020878  1010000 
 2988000   0.93465314   -3.7096695   -3.7096695   -2.3076912  0.032003693   -3.7096695    1.4019783  1010000 
 2989000    0.9332288   -3.7080854   -3.7080854   -2.3082436  0.034135654   -3.7080854    1.3998418  1010000 
 2990000   0.93405698   -3.7082911   -3.7082911    -2.307207  0.034837511   -3.7082911    1.4010841  1010000 
 2991000    0.9334486   -3.7082077   -3.7082077   -2.3080361  0.032719795   -3.7082077    1.4001715  1010000 
 2992000   0.93284197   -3.7063039   -3.7063039   -2.3070423  0.033038104   -3.7063039    1.3992616  1010000 
 2993000   0.93362348   -3.7068522   -3.7068522   -2.3064183  0.032844128   -3.7068522    1.4004338  1010000 
 2994000   0.93391388   -3.7077228   -3.7077228   -2.3068533  0.029894088   -3.7077228    1.4008694  1010000 
 2995000   0.93280403    -3.705561    -3.705561   -2.3063563  0.029196795    -3.705561    1.3992047  1010000 
 2996000   0.93398444   -3.7072568   -3.7072568   -2.3062815  0.023396861   -3.7072568    1.4009753  1010000 
 2997000   0.93294546   -3.7048633   -3.7048633   -2.3054465  0.034811517   -3.7048633    1.3994168  1010000 
 2998000   0.93304516   -3.7050304   -3.7050304    -2.305464  0.030798938   -3.7050304    1.3995664  1010000 
 2999000   0.93334768   -3.7057232   -3.7057232   -2.3057031  0.029714596   -3.7057232    1.4000201  1010000 
 3000000   0.93293655    -3.704664    -3.704664   -2.3052606  0.034484665    -3.704664    1.3994034  1010000 
Loop time of 15121.5 on 240 procs for 3000000 steps with 1010000 atoms

Performance: 85705.960 tau/day, 198.393 timesteps/s
99.0% CPU use with 240 MPI tasks x 1 OpenMP threads

MPI task timing breakdown:
Section |  min time  |  avg time  |  max time  |%varavg|  %CPU | %total
-----------------------------------------------------------------------
Pair    | 2952.8     | 5368.5     | 7946.4     |1002.7 |  99.0 | 35.50
Bond    | 1.0096     | 1.348      | 2.0891     |  14.8 | 100.0 |  0.01
Neigh   | 1150.3     | 2028       | 2875.8     | 570.7 |  99.5 | 13.41
Comm    | 3510.8     | 6954.3     | 10303      |1232.8 |  98.8 | 45.99
Output  | 222.29     | 223.02     | 223.05     |   0.3 |  99.8 |  1.47
Modify  | 149.17     | 289.11     | 949.86     |1215.6 |  99.4 |  1.91
Other   |            | 257.3      |            |       |       |  1.70

Nlocal:        4208.33 ave        4946 max        3739 min
Histogram: 1 3 4 142 84 5 0 0 0 1
Nghost:        5152.89 ave        5637 max        3661 min
Histogram: 19 13 8 0 0 0 1 27 72 100
Neighs:       129666.0 ave      145701 max       78510 min
Histogram: 2 3 6 7 3 14 32 34 98 41

Total # of neighbors = 31119811
Ave neighs/atom = 30.811694
Ave special neighs/atom = 0.0000000
Neighbor list builds = 300000
Dangerous builds = 296999

write_data	data.lj
System init for write_data ...
WARNING: Not all mixed pair coeffs generated from mixing. Use write_data with 'pair ij' option to store all pair coeffs. (src/write_data.cpp:312)
Total wall time: 4:12:13
