LAMMPS (24 Dec 2020)
OMP_NUM_THREADS environment is not set. Defaulting to 1 thread. (src/comm.cpp:94)
  using 1 OpenMP thread(s) per MPI task
# Simple rigid body system
# needed variables: startTemp, temp

units		lj
atom_style	full
dimension 	3
boundary	p p f
pair_style	lj/cut/opt 2.5

variable 	gcmcdisplace	equal 0
variable 	sigma		equal 1.0
variable 	epsilon 	equal 1.0


read_restart	restart.dat.3000000
Reading restart file ...
  restart file = 24 Dec 2020, LAMMPS = 24 Dec 2020
WARNING: Restart file used different # of processors: 48 vs. 192 (src/read_restart.cpp:697)
  restoring atom style full from restart
  orthogonal box = (0.0000000 0.0000000 0.0000000) to (80.000000 80.000000 160.00000)
  6 by 4 by 8 MPI processor grid
  restoring pair style lj/cut/opt from restart
  439061 atoms
Finding 1-2 1-3 1-4 neighbors ...
  special bond factors lj:    0        0        0       
  special bond factors coul:  0        0        0       
     0 = max # of 1-2 neighbors
     0 = max # of 1-3 neighbors
     0 = max # of 1-4 neighbors
     1 = max # of special neighbors
  special bonds CPU = 1.447 seconds
  read_restart CPU = 1.762 seconds

mass		1 1.0
mass		2 1.0
mass		3 1.0


group		solvent type 1
439061 atoms in group solvent


neighbor 	0.4 bin

pair_coeff	1 1 1.0 1.0
pair_coeff	2 2 0.0 0.0
pair_coeff	3 3 0.0 0.0
pair_coeff	2 3 0.0 0.0
pair_coeff	1 2*3 0.0 0.0

pair_modify 	shift yes


balance 	1.05 shift z 10 1.05
Balancing ...
Neighbor list info ...
  update every 1 steps, delay 10 steps, check yes
  max neighbors/atom: 2000, page size: 100000
  master list distance cutoff = 2.9
  ghost atom cutoff = 2.9
  binsize = 1.45, bins = 56 56 111
  1 neighbor lists, perpetual/occasional/extra = 1 0 0
  (1) pair lj/cut/opt, perpetual
      attributes: half, newton on
      pair build: half/bin/newton
      stencil: half/bin/3d/newton
      bin: standard
 rebalancing time: 0.034 seconds
  iteration count = 5
  initial/final maximal load/proc = 3162.0000 2575.0000
  initial/final imbalance factor  = 1.3827327 1.1260394
  x cuts: 0.0000000 0.16666667 0.33333333 0.50000000 0.66666667 0.83333333 1.0000000
  y cuts: 0.0000000 0.25000000 0.50000000 0.75000000 1.0000000
  z cuts: 0.0000000 0.097656250 0.18359375 0.27734375 0.37890625 0.47656250 0.57031250 0.67968750 1.0000000


####################### WALLS ###########################


variable       epsilonWall equal 2*${epsilon}
variable       epsilonWall equal 2*1

variable       cutoffTop   equal   0.7147*${sigma}
variable       cutoffTop   equal   0.7147*1

variable       cutoffLow   equal   3*${sigma}
variable       cutoffLow   equal   3*1


fix            topWall all wall/lj93 zhi EDGE                ${epsilonWall} ${sigma} ${cutoffTop} units box
fix            topWall all wall/lj93 zhi EDGE                2 ${sigma} ${cutoffTop} units box
fix            topWall all wall/lj93 zhi EDGE                2 1 ${cutoffTop} units box
fix            topWall all wall/lj93 zhi EDGE                2 1 0.7147 units box

fix            lowWall all wall/lj93 zlo EDGE                ${epsilonWall} ${sigma} ${cutoffLow} units box
fix            lowWall all wall/lj93 zlo EDGE                2 ${sigma} ${cutoffLow} units box
fix            lowWall all wall/lj93 zlo EDGE                2 1 ${cutoffLow} units box
fix            lowWall all wall/lj93 zlo EDGE                2 1 3 units box


###################### COMPUTES ##########################

compute        bin1 solvent chunk/atom bin/1d z upper 1.0



######################	FIXES ############################


fix 		peclet solvent ave/chunk 1000 1 1000 bin1 density/number norm 		 none ave one file density.profile

fix 		 temp solvent ave/chunk 1000 1 1000 bin1 temp norm none ave one file temp.profile

fix 		2 solvent nve

## Thermostat


region		regthermo block EDGE EDGE EDGE EDGE 0 20

group 		thermo dynamic solvent region regthermo every 1000
dynamic group thermo defined

fix 		3 thermo langevin ${startTemp} ${temp} 10 156453
fix 		3 thermo langevin 1.0 ${temp} 10 156453
fix 		3 thermo langevin 1.0 1.0 10 156453


## Evaporation

region		regevap block EDGE EDGE EDGE EDGE 140 158
fix 		gcmc solvent gcmc 100 100 0 1 780493 ${temp} ${mu} ${gcmcdisplace} region regevap
fix 		gcmc solvent gcmc 100 100 0 1 780493 1.0 ${mu} ${gcmcdisplace} region regevap
fix 		gcmc solvent gcmc 100 100 0 1 780493 1.0 -2.8 ${gcmcdisplace} region regevap
fix 		gcmc solvent gcmc 100 100 0 1 780493 1.0 -2.8 0 region regevap


#### Load balancing

fix 		bal all balance 1000 1.05 shift z 10 1.05

############### Diagnostics and computes ###################
#compute 	com cube	  rigid/local	1 mol x y z
#compute 	quat cube	  rigid/local	1 mol quatw quati quatj quatk

thermo 		1000
thermo_style 	custom step temp epair etotal press pe ke atoms

dump		1 all custom 100000 dump.lammpstrj id mol type x y z
dump 		2 all image 10000 image.*.png type type
dump 		3 all movie 1000 movie.avi type type
#dump 		com cube local 1000 dump.*.xyz c_com[*]
#dump		quat cube      local 1000 dump.*.quat c_quat[*]


restart 	1000000 restart.dat
timestep 	0.005
timer 		full
New timer settings: style=full  mode=nosync  timeout=off


run		5000000
Per MPI rank memory allocation (min/avg/max) = 9.923 | 9.986 | 10.01 Mbytes
Step Temp E_pair TotEng Press PotEng KinEng Atoms 
 3000000     1.016004   -3.1352716   -1.6112691  0.079025997   -3.1352716    1.5240025   439061 
 3001000    1.0151179   -3.1340885   -1.6116163  0.073727014   -3.1340885    1.5224722   439119 
 3002000    1.0164634   -3.1353597   -1.6111158  0.074629034   -3.1353597    1.5242438   439190 
 3003000    1.0142639    -3.132179   -1.6113685  0.075996033    -3.132179    1.5208105   439229 
 3004000    1.0165661   -3.1343945   -1.6104234  0.072098349   -3.1343945    1.5239711   439313 
 3005000    1.0157697   -3.1321148   -1.6096183  0.076922744   -3.1321148    1.5224964   439394 
 3006000    1.0159688   -3.1324491   -1.6097201  0.074904022   -3.1324491     1.522729   439413 
 3007000    1.0159572   -3.1312908      -1.6086  0.078277521   -3.1312908    1.5226908   439419 
 3008000    1.0166889   -3.1340163   -1.6102705  0.077711168   -3.1340163    1.5237458   439431 
 3009000    1.0165215   -3.1328687   -1.6095471  0.076359079   -3.1328687    1.5233216   439481 
 3010000    1.0165813   -3.1322148   -1.6090254   0.07911307   -3.1322148    1.5231894   439545 
 3011000    1.0177843   -3.1335495    -1.608752  0.079417484   -3.1335495    1.5247976   439601 
 3012000    1.0160364   -3.1309552    -1.608835  0.079565166   -3.1309552    1.5221202   439618 
 3013000    1.0177949   -3.1334232   -1.6088802  0.072298261   -3.1334232     1.524543   439679 
 3014000    1.0168275   -3.1315793   -1.6087069  0.074368001   -3.1315793    1.5228723   439743 
 3015000    1.0172022   -3.1317949   -1.6085381  0.070136926   -3.1317949    1.5232568   439794 
 3016000     1.017464   -3.1316082   -1.6080321  0.073633809   -3.1316082    1.5235761   439815 
 3017000    1.0183783   -3.1337033   -1.6089315  0.075048121   -3.1337033    1.5247718   439865 
 3018000    1.0176713   -3.1326243   -1.6090947  0.073208501   -3.1326243    1.5235296   439918 
 3019000    1.0190511    -3.133853   -1.6085454  0.071849882    -3.133853    1.5253076   440001 
 3020000    1.0164802     -3.12845   -1.6071462  0.078608262     -3.12845    1.5213039   440046 
 3021000    1.0176825   -3.1308808   -1.6078571  0.074522639   -3.1308808    1.5230237   440069 
 3022000    1.0202341   -3.1340696   -1.6073592  0.071556092   -3.1340696    1.5267104   440107 
 3023000    1.0191705   -3.1322525   -1.6074315   0.07594212   -3.1322525     1.524821   440193 
 3024000    1.0185749   -3.1304419   -1.6066574  0.080507708   -3.1304419    1.5237845   440235 
 3025000    1.0192304   -3.1323517   -1.6078082  0.079330727   -3.1323517    1.5245435   440299 
 3026000    1.0189959    -3.131533   -1.6075133  0.078205103    -3.131533    1.5240196   440349 
 3027000    1.0189245   -3.1324992   -1.6086972  0.075201158   -3.1324992    1.5238021   440381 
 3028000    1.0179104   -3.1313684   -1.6092558  0.075401264   -3.1313684    1.5221126   440431 
 3029000    1.0177673   -3.1309775   -1.6092896  0.078192399   -3.1309775    1.5216879   440492 
 3030000    1.0182305   -3.1322896   -1.6100473  0.075986657   -3.1322896    1.5222423   440532 
 3031000    1.0202276   -3.1350974   -1.6099976  0.074181684   -3.1350974    1.5250998   440569 
 3032000    1.0201881   -3.1337282   -1.6087567  0.079910979   -3.1337282    1.5249715   440589 
 3033000    1.0205325   -3.1340223    -1.608761  0.077278849   -3.1340223    1.5252613   440654 
 3034000    1.0196383    -3.133195   -1.6093877  0.078858429    -3.133195    1.5238073   440688 
 3035000     1.021533   -3.1359266    -1.609499  0.075206221   -3.1359266    1.5264275   440749 
 3036000     1.019017    -3.132097   -1.6096812  0.072060746    -3.132097    1.5224158   440822 
 3037000    1.0198832   -3.1334531   -1.6098987  0.077008123   -3.1334531    1.5235544   440867 
 3038000    1.0201599   -3.1326979   -1.6089409  0.076461078   -3.1326979     1.523757   440928 
 3039000    1.0201813   -3.1330836   -1.6094432  0.075848241   -3.1330836    1.5236404   440971 
 3040000    1.0192429   -3.1300434   -1.6079979  0.078791762   -3.1300434    1.5220455   441027 
 3041000    1.0212337   -3.1336173   -1.6087683  0.074654889   -3.1336173     1.524849   441076 
 3042000    1.0230302   -3.1360523   -1.6087806  0.074813799   -3.1360523    1.5272717   441151 
 3043000    1.0210548   -3.1327358   -1.6086204  0.076273692   -3.1327358    1.5241154   441211 
 3044000    1.0206547     -3.13222   -1.6089262  0.079411909     -3.13222    1.5232938   441276 
 3045000    1.0197181   -3.1317808   -1.6100366  0.079579276   -3.1317808    1.5217443   441320 
 3046000    1.0217556   -3.1355652    -1.610846  0.080896571   -3.1355652    1.5247192   441339 
 3047000    1.0236938   -3.1364494   -1.6090248  0.076240602   -3.1364494    1.5274246   441393 
 3048000    1.0235943    -3.135604   -1.6085874   0.08383902    -3.135604    1.5270166   441468 
 3049000    1.0256928   -3.1375376   -1.6077369  0.077428411   -3.1375376    1.5298006   441568 
 3050000    1.0245158   -3.1345437   -1.6066162  0.075531806   -3.1345437    1.5279275   441602 
 3051000      1.02394   -3.1336588   -1.6068112  0.079768717   -3.1336588    1.5268476   441666 
 3052000    1.0243317   -3.1341113   -1.6068076  0.080534628   -3.1341113    1.5273037   441703 
 3053000    1.0225956   -3.1327462   -1.6081415  0.081273813   -3.1327462    1.5246047   441735 
 3054000    1.0235861   -3.1323858   -1.6064736  0.078185119   -3.1323858    1.5259122   441784 
 3055000    1.0249144   -3.1341156    -1.606327  0.080648195   -3.1341156    1.5277886   441814 
 3056000    1.0260796   -3.1371789   -1.6077988  0.077900897   -3.1371789    1.5293801   441856 
 3057000    1.0245546   -3.1346589   -1.6077453  0.077980107   -3.1346589    1.5269136   441912 
 3058000    1.0249964   -3.1342541   -1.6069828  0.077129624   -3.1342541    1.5272713   441999 
 3059000    1.0226718   -3.1313799   -1.6076586  0.079289764   -3.1313799    1.5237214   442024 
 3060000    1.0240043   -3.1328134   -1.6072758  0.080542755   -3.1328134    1.5255376   442073 
 3061000    1.0230189   -3.1306375   -1.6067369  0.085142997   -3.1306375    1.5239006   442122 
 3062000    1.0261631   -3.1357544   -1.6072393  0.078589601   -3.1357544    1.5285152   442142 
 3063000    1.0242831    -3.132845   -1.6073027  0.076429934    -3.132845    1.5255423   442192 
 3064000    1.0256598   -3.1342566   -1.6068642  0.080265591   -3.1342566    1.5273924   442250 
 3065000    1.0237593   -3.1311439   -1.6067161  0.084402695   -3.1311439    1.5244277   442289 
 3066000    1.0260919   -3.1341264    -1.606322  0.080753575   -3.1341264    1.5278043   442317 
 3067000     1.025378   -3.1320078   -1.6054458  0.078207785   -3.1320078     1.526562   442369 
 3068000    1.0262627   -3.1328204   -1.6049965  0.083361395   -3.1328204    1.5278239   442385 
 3069000    1.0252775   -3.1317668   -1.6055304   0.08060172   -3.1317668    1.5262364   442420 
 3070000    1.0261707   -3.1335716   -1.6060366  0.076710031   -3.1335716     1.527535   442429 
 3071000    1.0258646    -3.132967   -1.6060155  0.080694785    -3.132967    1.5269516   442466 
 3072000    1.0262624   -3.1336279   -1.6062257  0.077057328   -3.1336279    1.5274021   442507 
 3073000    1.0272143    -3.133352   -1.6046195  0.078851373    -3.133352    1.5287325   442532 
 3074000    1.0274413   -3.1342293   -1.6052903  0.074580726   -3.1342293     1.528939   442570 
 3075000     1.025946   -3.1309342   -1.6044444  0.084862103   -3.1309342    1.5264897   442635 
 3076000    1.0272057   -3.1334526   -1.6052302  0.084739775   -3.1334526    1.5282224   442676 
 3077000    1.0270094   -3.1326499   -1.6048609  0.076666007   -3.1326499     1.527789   442717 
 3078000    1.0255021   -3.1307252   -1.6053475  0.082406458   -3.1307252    1.5253777   442766 
 3079000    1.0267849   -3.1307426   -1.6036913  0.085060477   -3.1307426    1.5270513   442834 
 3080000    1.0277068   -3.1312645   -1.6031354  0.080824374   -3.1312645    1.5281291   442919 
 3081000    1.0269001    -3.130504    -1.603671  0.078646488    -3.130504     1.526833   442947 
 3082000    1.0277151   -3.1319211   -1.6039348  0.079629132   -3.1319211    1.5279863   442964 
 3083000    1.0275699   -3.1317348   -1.6041162  0.080422404   -3.1317348    1.5276186   443008 
 3084000    1.0265146   -3.1289892   -1.6031254  0.078677534   -3.1289892    1.5258638   443062 
 3085000    1.0273187   -3.1302637   -1.6034804  0.078680191   -3.1302637    1.5267833   443142 
 3086000    1.0277751   -3.1290211   -1.6017318  0.078675085   -3.1290211    1.5272893   443192 
 3087000     1.026811    -3.127762   -1.6019259  0.080127185    -3.127762     1.525836   443198 
 3088000    1.0276468   -3.1280734   -1.6011987   0.07914949   -3.1280734    1.5268747   443257 
 3089000    1.0294496   -3.1299054   -1.6005763  0.076065727   -3.1299054    1.5293291   443322 
 3090000    1.0293505    -3.129969   -1.6010114  0.076420045    -3.129969    1.5289576   443387 
 3091000    1.0291374    -3.129324    -1.600838  0.081066938    -3.129324     1.528486   443432 
 3092000    1.0300818    -3.129875   -1.6002279  0.083382188    -3.129875    1.5296471   443502 
 3093000    1.0301622   -3.1292158   -1.5995734  0.082046327   -3.1292158    1.5296424   443538 
 3094000    1.0301105    -3.129692   -1.6002712  0.079680502    -3.129692    1.5294208   443580 
 3095000     1.031892   -3.1311361   -1.5991705  0.080877952   -3.1311361    1.5319656   443609 
 3096000    1.0321166   -3.1303124   -1.5980755  0.083280233   -3.1303124    1.5322369   443627 
 3097000    1.0292212   -3.1270857   -1.5991713  0.085085369   -3.1270857    1.5279145   443634 
 3098000    1.0302896   -3.1288298   -1.5994292  0.077105948   -3.1288298    1.5294005   443663 
 3099000    1.0316494   -3.1293715    -1.598194  0.084063883   -3.1293715    1.5311775   443733 
 3100000    1.0301529   -3.1271843   -1.5984932  0.081710824   -3.1271843    1.5286911   443810 
 3101000    1.0307764   -3.1285332   -1.5990891  0.079148169   -3.1285332    1.5294441   443860 
 3102000    1.0314791   -3.1285671    -1.598208  0.078420476   -3.1285671    1.5303591   443897 
 3103000    1.0328387   -3.1296086   -1.5974498  0.079234691   -3.1296086    1.5321588   443960 
 3104000    1.0320832   -3.1292331    -1.598233  0.079384661   -3.1292331    1.5310001   443971 
 3105000    1.0320036   -3.1294665    -1.598712  0.073658102   -3.1294665    1.5307545   444008 
 3106000    1.0301334   -3.1266593   -1.5987545  0.082274825   -3.1266593    1.5279048   444030 
 3107000     1.031195   -3.1283514   -1.5990236  0.081986276   -3.1283514    1.5293278   444074 
 3108000    1.0314953   -3.1285231    -1.598867  0.084943066   -3.1285231    1.5296561   444108 
 3109000    1.0290038   -3.1266042   -1.6007666   0.07729955   -3.1266042    1.5258377   444144 
 3110000    1.0293766   -3.1277491    -1.601503  0.081487933   -3.1277491    1.5262461   444186 
 3111000    1.0302055   -3.1279536   -1.6006057  0.080201928   -3.1279536    1.5273479   444223 
 3112000    1.0301103   -3.1287416   -1.6017927  0.078402854   -3.1287416     1.526949   444298 
 3113000    1.0291686   -3.1283541   -1.6030243  0.079414153   -3.1283541    1.5253298   444363 
 3114000    1.0303667   -3.1282691    -1.601325  0.080393212   -3.1282691    1.5269441   444410 
 3115000      1.03106   -3.1292517   -1.6014281  0.083989778   -3.1292517    1.5278236   444453 
 3116000    1.0304046   -3.1278622   -1.6011127  0.081703045   -3.1278622    1.5267495   444483 
 3117000    1.0300752   -3.1288045   -1.6025706  0.085010579   -3.1288045    1.5262339   444491 
 3118000     1.032691   -3.1307118   -1.6007089  0.079362937   -3.1307118     1.530003   444522 
 3119000    1.0327393   -3.1304749   -1.6005759   0.08022159   -3.1304749     1.529899   444573 
 3120000     1.030633   -3.1282821   -1.6017197   0.08277785   -3.1282821    1.5265624   444636 
 3121000    1.0337415   -3.1303977   -1.5994204  0.083300374   -3.1303977    1.5309773   444691 
 3122000    1.0335613   -3.1313866   -1.6007037  0.075410549   -3.1313866    1.5306829   444699 
 3123000    1.0318826   -3.1298457   -1.6017281  0.082621123   -3.1298457    1.5281177   444722 
 3124000    1.0320596   -3.1302311   -1.6018581    0.0834305   -3.1302311     1.528373   444724 
 3125000       1.0326   -3.1317046   -1.6026242  0.080579764   -3.1317046    1.5290805   444751 
 3126000    1.0321409   -3.1312016   -1.6030725  0.082500978   -3.1312016    1.5281291   444830 
 3127000    1.0303558   -3.1298444   -1.6044542  0.081442327   -3.1298444    1.5253902   444858 
 3128000      1.03219   -3.1310248   -1.6029777  0.079569577   -3.1310248    1.5280472   444875 
 3129000    1.0321591    -3.130676   -1.6028085  0.084085083    -3.130676    1.5278676   444914 
 3130000    1.0330536    -3.132631   -1.6035974  0.083552383    -3.132631    1.5290336   444960 
 3131000    1.0310884   -3.1299342   -1.6040118  0.083634591   -3.1299342    1.5259224   445019 
 3132000    1.0325185   -3.1320766   -1.6040274  0.077923903   -3.1320766    1.5280492   445016 
 3133000    1.0314773   -3.1320644   -1.6056314  0.080927571   -3.1320644     1.526433   445038 
 3134000    1.0324698    -3.131883   -1.6040602  0.083003786    -3.131883    1.5278227   445061 
 3135000    1.0335067   -3.1332063   -1.6040142  0.078698926   -3.1332063    1.5291921   445109 
 3136000    1.0335548    -3.131953   -1.6028683  0.085752516    -3.131953    1.5290847   445161 
 3137000    1.0333475   -3.1324967   -1.6040208    0.0818807   -3.1324967    1.5284758   445249 
 3138000    1.0342025   -3.1324727   -1.6030482  0.086987795   -3.1324727    1.5294245   445341 
 3139000    1.0328652    -3.131254   -1.6039855   0.08485267    -3.131254    1.5272685   445393 
 3140000    1.0351444   -3.1343391   -1.6036833  0.083657827   -3.1343391    1.5306558   445388 
 3141000    1.0352012   -3.1325558   -1.6019844   0.08517168   -3.1325558    1.5305714   445437 
 3142000    1.0357307   -3.1321656   -1.6009591  0.087449956   -3.1321656    1.5312064   445480 
 3143000    1.0356611   -3.1317924   -1.6008537  0.082537556   -3.1317924    1.5309387   445528 
 3144000    1.0356686   -3.1316869   -1.6008128   0.07904423   -3.1316869    1.5308741   445550 
 3145000    1.0349271   -3.1307893   -1.6011966  0.086181143   -3.1307893    1.5295928   445604 
 3146000    1.0345892   -3.1317119   -1.6026871   0.08231499   -3.1317119    1.5290248   445624 
 3147000    1.0339732   -3.1309925   -1.6030393  0.083766205   -3.1309925    1.5279532   445671 
 3148000    1.0340497   -3.1302566   -1.6022864     0.078547   -3.1302566    1.5279702   445699 
 3149000    1.0332069   -3.1283756   -1.6017707  0.081256815   -3.1283756    1.5266049   445734 
 3150000    1.0330258   -3.1302376   -1.6040064  0.077170464   -3.1302376    1.5262312   445765 
 3151000     1.031697   -3.1267459    -1.602577  0.084083958   -3.1267459    1.5241689   445794 
 3152000    1.0327876   -3.1280624    -1.602498   0.07742627   -3.1280624    1.5255644   445857 
 3153000    1.0328825   -3.1276048   -1.6019719  0.080751353   -3.1276048    1.5256328   445878 
 3154000    1.0350468   -3.1309127   -1.6021653  0.080860892   -3.1309127    1.5287473   445902 
 3155000    1.0336156    -3.128584   -1.6021081  0.071507842    -3.128584    1.5264759   445948 
 3156000    1.0332183   -3.1265325   -1.6007938  0.083760262   -3.1265325    1.5257387   445992 
 3157000    1.0329547   -3.1270968   -1.6020106  0.080945041   -3.1270968    1.5250862   446069 
 3158000    1.0339157   -3.1274287   -1.6010366  0.079510557   -3.1274287    1.5263921   446102 
 3159000     1.033709   -3.1256106   -1.5996536  0.081350862   -3.1256106     1.525957   446140 
 3160000    1.0346789   -3.1259021   -1.5986539  0.080723985   -3.1259021    1.5272483   446181 
 3161000    1.0345699   -3.1252752   -1.5983898   0.08117264   -3.1252752    1.5268855   446240 
 3162000    1.0353126   -3.1275914   -1.5996577  0.078649243   -3.1275914    1.5279337   446254 
 3163000    1.0341648   -3.1258248   -1.5997662  0.081207203   -3.1258248    1.5260586   446307 
 3164000    1.0349816   -3.1266476   -1.5994728  0.077603893   -3.1266476    1.5271748   446333 
 3165000    1.0350997   -3.1259989   -1.5986498  0.084287639   -3.1259989     1.527349   446333 
 3166000    1.0365056   -3.1296863   -1.6002797  0.079810399   -3.1296863    1.5294065   446338 
 3167000    1.0356279   -3.1272555    -1.599192  0.080273733   -3.1272555    1.5280635   446352 
 3168000    1.0353213   -3.1273097   -1.5997157  0.078822977   -3.1273097     1.527594   446357 
 3169000     1.036232   -3.1265615   -1.5977574  0.084495059   -3.1265615     1.528804   446396 
 3170000    1.0350853   -3.1277465   -1.6006341  0.082408859   -3.1277465    1.5271124   446396 
 3171000    1.0351856   -3.1264544   -1.5993994  0.085979978   -3.1264544     1.527055   446456 
 3172000    1.0355914    -3.127071    -1.599609  0.084150584    -3.127071    1.5274621   446512 
 3173000    1.0367406   -3.1291855   -1.6002819  0.081612305   -3.1291855    1.5289037   446586 
 3174000     1.034521   -3.1270445   -1.6015711  0.084225303   -3.1270445    1.5254734   446632 
 3175000    1.0366832   -3.1303725   -1.6018033  0.078951861   -3.1303725    1.5285692   446659 
 3176000    1.0352132   -3.1285239   -1.6022726   0.08013833   -3.1285239    1.5262513   446703 
 3177000    1.0353883   -3.1278299   -1.6015801  0.073383652   -3.1278299    1.5262498   446779 
 3178000    1.0355814    -3.127875   -1.6013951  0.080134383    -3.127875    1.5264798   446795 
 3179000    1.0362609   -3.1281772   -1.6008085  0.076600239   -3.1281772    1.5273686   446828 
 3180000    1.0359602   -3.1281991   -1.6013421  0.081927485   -3.1281991     1.526857   446848 
 3181000    1.0360456     -3.12759   -1.6006824  0.075711763     -3.12759    1.5269077   446870 
 3182000    1.0354614   -3.1264811   -1.6006733  0.079974128   -3.1264811    1.5258078   446940 
 3183000    1.0379699   -3.1273924   -1.5981141  0.074287348   -3.1273924    1.5292783   447006 
 3184000    1.0374261   -3.1278993   -1.5996239  0.079410176   -3.1278993    1.5282754   447065 
 3185000    1.0362469   -3.1248853   -1.5984767  0.085663244   -3.1248853    1.5264086   447103 
 3186000    1.0382787   -3.1277387   -1.5985459  0.081256902   -3.1277387    1.5291928   447164 
 3187000    1.0376104   -3.1268089   -1.5988875  0.083611373   -3.1268089    1.5279214   447248 
 3188000    1.0384623   -3.1273604   -1.5983793  0.080897865   -3.1273604    1.5289811   447305 
 3189000    1.0395462   -3.1282364   -1.5977142  0.077587784   -3.1282364    1.5305222   447321 
 3190000    1.0379888    -3.125342   -1.5972527  0.087287186    -3.125342    1.5280893   447362 
 3191000    1.0389171   -3.1269973    -1.597644  0.081543842   -3.1269973    1.5293533   447392 
 3192000    1.0390873   -3.1272325   -1.5977073  0.083231102   -3.1272325    1.5295252   447415 
 3193000    1.0392459   -3.1280798   -1.5984032  0.081210661   -3.1280798    1.5296766   447439 
 3194000    1.0377107   -3.1262712   -1.5989669  0.076872301   -3.1262712    1.5273043   447472 
 3195000    1.0362845   -3.1252048   -1.6000678  0.079374226   -3.1252048     1.525137   447492 
 3196000    1.0387181   -3.1288488    -1.600219  0.081165677   -3.1288488    1.5286298   447518 
 3197000    1.0395876   -3.1312542   -1.6015226  0.073377904   -3.1312542    1.5297316   447570 
 3198000    1.0388694   -3.1277691   -1.5992958  0.078649325   -3.1277691    1.5284733   447629 
 3199000    1.0403669   -3.1276978    -1.597264  0.083827166   -3.1276978    1.5304338   447700 
 3200000    1.0425183   -3.1298353   -1.5964079    0.0833613   -3.1298353    1.5334274   447750 
 3201000    1.0413807   -3.1295559   -1.5978257  0.084471447   -3.1295559    1.5317302   447757 
 3202000    1.0417209   -3.1282613   -1.5961369  0.082240015   -3.1282613    1.5321244   447788 
 3203000    1.0410683   -3.1274363    -1.596446   0.08579538   -3.1274363    1.5309904   447839 
 3204000    1.0411131   -3.1279981     -1.59713  0.083591324   -3.1279981    1.5308681   447894 
 3205000    1.0421837   -3.1292471   -1.5969279  0.084651372   -3.1292471    1.5323192   447930 
 3206000    1.0409494   -3.1288831   -1.5984879  0.082887892   -3.1288831    1.5303952   447962 
 3207000    1.0405474   -3.1283276   -1.5986875  0.080721896   -3.1283276    1.5296401   448010 
 3208000    1.0402644   -3.1280567     -1.59901  0.082709593   -3.1280567    1.5290467   448062 
 3209000     1.040163    -3.128281   -1.5995198  0.082487936    -3.128281    1.5287613   448102 
 3210000    1.0412422   -3.1297746   -1.5994955  0.080819509   -3.1297746     1.530279   448122 
 3211000    1.0402814   -3.1275354   -1.5989448  0.084044794   -3.1275354    1.5285906   448203 
 3212000    1.0406721    -3.127121    -1.597987  0.079738745    -3.127121    1.5291341   448212 
 3213000    1.0402115   -3.1272107   -1.5988557   0.07770642   -3.1272107     1.528355   448242 
 3214000    1.0407733   -3.1282125   -1.5991038  0.081840071   -3.1282125    1.5291087   448263 
 3215000    1.0393613   -3.1263419   -1.5995086  0.081967176   -3.1263419    1.5268333   448322 
 3216000    1.0393509   -3.1263673   -1.5996992  0.080329178   -3.1263673    1.5266682   448366 
 3217000    1.0407036   -3.1279047   -1.5992598  0.081264272   -3.1279047    1.5286449   448369 
 3218000    1.0380021   -3.1254673    -1.600862  0.081223011   -3.1254673    1.5246053   448390 
 3219000    1.0385745   -3.1256927   -1.6003419  0.079923504   -3.1256927    1.5253508   448418 
 3220000    1.0368573   -3.1247124   -1.6018293  0.079657903   -3.1247124    1.5228831   448402 
 3221000    1.0400117   -3.1266144   -1.5992038   0.07821393   -3.1266144    1.5274106   448433 
 3222000    1.0397555   -3.1266333   -1.5996568  0.078988784   -3.1266333    1.5269765   448450 
 3223000    1.0394246     -3.12751   -1.6011047  0.081320303     -3.12751    1.5264053   448475 
 3224000    1.0406845   -3.1282276   -1.6000538   0.08216797   -3.1282276    1.5281738   448499 
 3225000     1.041733   -3.1294553   -1.5999295   0.07789367   -3.1294553    1.5295258   448554 
 3226000    1.0420488   -3.1282696   -1.5984063  0.079140043   -3.1282696    1.5298633   448591 
 3227000     1.040696   -3.1275426   -1.5998391  0.078541709   -3.1275426    1.5277036   448642 
 3228000    1.0426072   -3.1292037   -1.5987935    0.0827699   -3.1292037    1.5304102   448671 
 3229000    1.0424177   -3.1296954   -1.5996554  0.083528494   -3.1296954      1.53004   448698 
 3230000    1.0427188   -3.1285663   -1.5983469  0.080448927   -3.1285663    1.5302193   448775 
 3231000    1.0441189   -3.1296791   -1.5975417  0.085480572   -3.1296791    1.5321375   448815 
 3232000    1.0423183   -3.1280781   -1.5987636  0.084074649   -3.1280781    1.5293146   448868 
 3233000    1.0437888   -3.1287598   -1.5974479  0.082677515   -3.1287598    1.5313118   448915 
 3234000    1.0421019   -3.1276008    -1.598951   0.08406832   -3.1276008    1.5286498   448970 
 3235000    1.0440188   -3.1298055   -1.5984086  0.082436189   -3.1298055    1.5313969   448989 
 3236000    1.0418956   -3.1278162   -1.5995677   0.08299358   -3.1278162    1.5282484   448999 
 3237000    1.0412209   -3.1270935    -1.599981  0.082804188   -3.1270935    1.5271125   449042 
 3238000     1.043518   -3.1288083   -1.5984153  0.086255682   -3.1288083     1.530393   449068 
 3239000    1.0433006   -3.1296289   -1.5997899   0.08071704   -3.1296289     1.529839   449137 
 3240000    1.0428196   -3.1291067   -1.6001669  0.080532031   -3.1291067    1.5289397   449194 
 3241000    1.0434138   -3.1282705   -1.5985277  0.081845837   -3.1282705    1.5297428   449214 
 3242000    1.0431197   -3.1279789   -1.5988375   0.08537524   -3.1279789    1.5291414   449264 
 3243000    1.0433404   -3.1287181   -1.5994369  0.082392937   -3.1287181    1.5292811   449318 
 3244000    1.0430598   -3.1268079    -1.598149  0.083990127   -3.1268079    1.5286589   449380 
 3245000    1.0438029    -3.126868   -1.5973378  0.082712809    -3.126868    1.5295302   449444 
 3246000    1.0437767   -3.1278656   -1.5985202  0.087698911   -3.1278656    1.5293454   449487 
 3247000    1.0432909   -3.1263307   -1.5978908  0.086337204   -3.1263307    1.5284398   449544 
 3248000    1.0436443   -3.1271585   -1.5983506  0.080104011   -3.1271585    1.5288079   449588 
 3249000    1.0446353   -3.1288885   -1.5987412  0.079037086   -3.1288885    1.5301473   449621 
 3250000    1.0445142   -3.1278627   -1.5981411  0.078658632   -3.1278627    1.5297215   449694 
 3251000    1.0438552   -3.1274203   -1.5987794  0.080133561   -3.1274203    1.5286409   449728 
 3252000    1.0434308   -3.1244671   -1.5967127  0.081779186   -3.1244671    1.5277544   449806 
 3253000    1.0451546    -3.127535   -1.5973995   0.08271981    -3.127535    1.5301355   449848 
 3254000    1.0449841   -3.1255617   -1.5957166   0.08717124   -3.1255617    1.5298451   449860 
 3255000    1.0464325   -3.1273722   -1.5955599  0.083045544   -3.1273722    1.5318123   449905 
 3256000    1.0458672   -3.1263364   -1.5954742  0.086510803   -3.1263364    1.5308622   449941 
 3257000    1.0444085    -3.124743   -1.5961483  0.083661161    -3.124743    1.5285947   449980 
 3258000    1.0446527   -3.1269874   -1.5980423  0.081930008   -3.1269874    1.5289452   449982 
 3259000    1.0441826   -3.1266296   -1.5984201  0.080823123   -3.1266296    1.5282096   449996 
 3260000    1.0451942   -3.1269643   -1.5973591  0.079016649   -3.1269643    1.5296052   450021 
 3261000    1.0466632   -3.1294047   -1.5978165  0.076609513   -3.1294047    1.5315882   450070 
 3262000      1.04399   -3.1249007   -1.5973089  0.087207729   -3.1249007    1.5275917   450095 
 3263000    1.0436979   -3.1257199   -1.5986574  0.083485994   -3.1257199    1.5270625   450125 
 3264000    1.0442893   -3.1261268   -1.5982669  0.081715286   -3.1261268    1.5278599   450145 
 3265000    1.0447454   -3.1275262   -1.5990635  0.081615296   -3.1275262    1.5284627   450164 
 3266000     1.044291   -3.1265461   -1.5988637  0.082073776   -3.1265461    1.5276825   450198 
 3267000    1.0439682   -3.1249742   -1.5978827  0.079877381   -3.1249742    1.5270915   450233 
 3268000    1.0466935   -3.1283697   -1.5973732  0.079429792   -3.1283697    1.5309965   450257 
 3269000    1.0449002   -3.1256584   -1.5974852  0.086070577   -3.1256584    1.5281731   450316 
 3270000    1.0449727    -3.125417    -1.597355  0.084818589    -3.125417     1.528062   450380 
 3271000    1.0447722   -3.1269133   -1.5992734  0.077607765   -3.1269133    1.5276399   450418 
 3272000    1.0450591   -3.1267569    -1.598789  0.086642222   -3.1267569    1.5279679   450445 
 3273000    1.0457034   -3.1272299   -1.5983506  0.090670669   -3.1272299    1.5288792   450454 
 3274000    1.0473326   -3.1288218   -1.5975844  0.082876549   -3.1288218    1.5312374   450461 
 3275000    1.0462686   -3.1276751   -1.5980102  0.080790625   -3.1276751    1.5296649   450466 
 3276000     1.046319   -3.1270626   -1.5975786  0.085010791   -3.1270626     1.529484   450541 
 3277000    1.0459389   -3.1268129    -1.598044  0.084447401   -3.1268129    1.5287689   450588 
 3278000    1.0457645   -3.1275661   -1.5992693  0.082496124   -3.1275661    1.5282968   450652 
 3279000    1.0457931   -3.1274001   -1.5991598  0.084235782   -3.1274001    1.5282404   450681 
 3280000    1.0455652   -3.1276084    -1.599752  0.079261388   -3.1276084    1.5278564   450696 
 3281000    1.0452714   -3.1273511   -1.5999749  0.079432759   -3.1273511    1.5273762   450711 
 3282000    1.0457372    -3.126322   -1.5984245   0.08316344    -3.126322    1.5278976   450758 
 3283000    1.0462922   -3.1277599   -1.5991735  0.080068978   -3.1277599    1.5285865   450794 
 3284000    1.0449263   -3.1259123   -1.5994061  0.079366535   -3.1259123    1.5265062   450819 
 3285000    1.0473333   -3.1287422   -1.5988893  0.075380817   -3.1287422    1.5298529   450869 
 3286000    1.0472801   -3.1283425   -1.5986657  0.081557546   -3.1283425    1.5296768   450898 
 3287000    1.0461201   -3.1264859   -1.5986017  0.080550416   -3.1264859    1.5278842   450927 
 3288000    1.0470409   -3.1276149   -1.5984503  0.081448594   -3.1276149    1.5291646   450946 
 3289000    1.0483876   -3.1272918   -1.5963471  0.083961146   -3.1272918    1.5309447   451001 
 3290000    1.0481841   -3.1251906   -1.5947365  0.089748851   -3.1251906    1.5304541   451058 
 3291000    1.0478046   -3.1260801   -1.5962242  0.080387544   -3.1260801    1.5298559   451071 
 3292000    1.0487404   -3.1275309   -1.5963324  0.079343503   -3.1275309    1.5311985   451078 
 3293000     1.048981   -3.1272107   -1.5958408  0.085464519   -3.1272107    1.5313699   451131 
 3294000    1.0485962   -3.1267302   -1.5960035  0.083633429   -3.1267302    1.5307267   451155 
 3295000    1.0471502   -3.1254933   -1.5969893  0.082578501   -3.1254933     1.528504   451188 
 3296000     1.047125   -3.1267731   -1.5983398  0.089060063   -3.1267731    1.5284333   451198 
 3297000     1.047758   -3.1278059   -1.5985808  0.076588791   -3.1278059     1.529225   451237 
 3298000    1.0473925   -3.1260622   -1.5975197  0.079641453   -3.1260622    1.5285425   451281 
 3299000    1.0488125   -3.1262357   -1.5957496  0.081661688   -3.1262357     1.530486   451319 
 3300000    1.0493895   -3.1273705   -1.5961035  0.083267456   -3.1273705    1.5312669   451337 
 3301000    1.0465005   -3.1250466   -1.5981238  0.084179042   -3.1250466    1.5269228   451375 
 3302000    1.0496058   -3.1268168   -1.5954378  0.082162425   -3.1268168     1.531379   451397 
 3303000    1.0470577   -3.1235048   -1.5959382   0.08489764   -3.1235048    1.5275666   451425 
 3304000    1.0489836   -3.1251351   -1.5950096  0.085518611   -3.1251351    1.5301255   451499 
 3305000    1.0490865   -3.1246359   -1.5945671  0.081508102   -3.1246359    1.5300688   451560 
 3306000    1.0484602   -3.1253288   -1.5962378  0.087813359   -3.1253288     1.529091   451579 
 3307000    1.0501226   -3.1268628   -1.5954559  0.081269928   -3.1268628    1.5314069   451611 
 3308000    1.0491797   -3.1253218   -1.5953441  0.081511979   -3.1253218    1.5299777   451627 
 3309000    1.0481028   -3.1254165    -1.597219  0.081649527   -3.1254165    1.5281975   451689 
 3310000    1.0498693   -3.1269529   -1.5962813  0.081489838   -3.1269529    1.5306716   451719 
 3311000    1.0497282   -3.1259514    -1.595594  0.082622644   -3.1259514    1.5303574   451751 
 3312000    1.0492257   -3.1240189   -1.5945091  0.090421607   -3.1240189    1.5295097   451785 
 3313000    1.0515657   -3.1268318    -1.594006  0.082031314   -3.1268318    1.5328258   451813 
 3314000    1.0509261   -3.1261484   -1.5944312   0.08592982   -3.1261484    1.5317173   451865 
 3315000     1.049735   -3.1246807   -1.5947368  0.082820557   -3.1246807    1.5299439   451876 
 3316000    1.0515845   -3.1275284   -1.5949736  0.082137325   -3.1275284    1.5325548   451901 
 3317000    1.0498293   -3.1259421   -1.5960096   0.08734174   -3.1259421    1.5299325   451920 
 3318000    1.0504151   -3.1274128   -1.5967079  0.082138505   -3.1274128    1.5307049   451944 
 3319000    1.0505956    -3.126406    -1.595489  0.083035902    -3.126406     1.530917   451959 
 3320000    1.0517706   -3.1270714   -1.5944727  0.085954809   -3.1270714    1.5325987   451968 
 3321000    1.0518745   -3.1267101   -1.5939973  0.089925792   -3.1267101    1.5327129   451979 
 3322000    1.0519038   -3.1267301    -1.594161  0.082581578   -3.1267301    1.5325691   452034 
 3323000    1.0509275   -3.1251949   -1.5940754  0.084463246   -3.1251949    1.5311195   452042 
 3324000    1.0510126   -3.1263631   -1.5953567  0.082129067   -3.1263631    1.5310064   452112 
 3325000    1.0498364   -3.1249533   -1.5957515  0.081023451   -3.1249533    1.5292018   452139 
 3326000    1.0516597   -3.1263821   -1.5947142  0.084863155   -3.1263821    1.5316679   452195 
 3327000     1.050406   -3.1247286   -1.5951505  0.085852592   -3.1247286    1.5295781   452273 
 3328000    1.0514204   -3.1260637   -1.5951235  0.084959166   -3.1260637    1.5309402   452307 
 3329000     1.051166   -3.1252415   -1.5948376  0.083951499   -3.1252415    1.5304039   452356 
 3330000     1.051016   -3.1244818   -1.5944856  0.085843452   -3.1244818    1.5299962   452412 
 3331000    1.0534968   -3.1266072   -1.5931081   0.08504962   -3.1266072    1.5334991   452444 
 3332000    1.0513898   -3.1247323   -1.5944186  0.083597208   -3.1247323    1.5303137   452479 
 3333000    1.0530659   -3.1269423   -1.5944193  0.083513561   -3.1269423     1.532523   452547 
 3334000    1.0524201   -3.1260051   -1.5946825  0.082920069   -3.1260051    1.5313226   452624 
 3335000    1.0524478   -3.1261855   -1.5949106  0.084906044   -3.1261855    1.5312749   452650 
 3336000    1.0523524   -3.1276202    -1.596572  0.086424966   -3.1276202    1.5310482   452676 
 3337000    1.0526264   -3.1270286   -1.5955276  0.087759439   -3.1270286    1.5315009   452660 
 3338000    1.0537332   -3.1272669   -1.5943554  0.083942894   -3.1272669    1.5329115   452719 
 3339000    1.0528886   -3.1272247   -1.5956502  0.084171771   -3.1272247    1.5315745   452751 
 3340000    1.0522678   -3.1280878   -1.5975075  0.081320226   -3.1280878    1.5305803   452778 
 3341000    1.0528076   -3.1283945   -1.5972828  0.092510969   -3.1283945    1.5311117   452853 
 3342000    1.0507529   -3.1257932   -1.5978384  0.086896833   -3.1257932    1.5279549   452903 
 3343000    1.0523525   -3.1279798   -1.5976583  0.087263187   -3.1279798    1.5303215   452891 
 3344000    1.0527305   -3.1275583   -1.5967852  0.085084378   -3.1275583    1.5307731   452920 
 3345000    1.0540494   -3.1281341   -1.5955581   0.08525499   -3.1281341     1.532576   452954 
 3346000     1.053547    -3.126476   -1.5946442  0.089309642    -3.126476    1.5318319   452958 
 3347000    1.0542862   -3.1266086   -1.5938678  0.088020432   -3.1266086    1.5327408   453007 
 3348000    1.0522743   -3.1251602   -1.5954862  0.084636281   -3.1251602    1.5296741   453049 
 3349000    1.0530508   -3.1262326    -1.595575  0.084844844   -3.1262326    1.5306576   453092 
 3350000    1.0527369   -3.1257995   -1.5957298  0.085452499   -3.1257995    1.5300697   453131 
 3351000    1.0526411   -3.1252912    -1.595614  0.081895732   -3.1252912    1.5296772   453206 
 3352000    1.0529113   -3.1265173   -1.5965656   0.08341172   -3.1265173    1.5299518   453241 
 3353000    1.0518931   -3.1245683   -1.5962478   0.08186849   -3.1245683    1.5283205   453286 
 3354000    1.0536122   -3.1254253   -1.5946916  0.083592132   -3.1254253    1.5307337   453311 
 3355000    1.0540951    -3.126181   -1.5949382  0.088004584    -3.126181    1.5312428   453368 
 3356000    1.0544216   -3.1258153   -1.5941218  0.090012313   -3.1258153    1.5316935   453375 
 3357000    1.0531251   -3.1249506   -1.5951709  0.079409383   -3.1249506    1.5297797   453384 
 3358000    1.0535899   -3.1263462   -1.5959554  0.079653821   -3.1263462    1.5303908   453403 
 3359000    1.0552479   -3.1287561   -1.5960346  0.078415236   -3.1287561    1.5327214   453426 
 3360000    1.0557773   -3.1274689   -1.5941611  0.081189265   -3.1274689    1.5333078   453480 
 3361000     1.055126   -3.1265709   -1.5943578  0.085186698   -3.1265709    1.5322131   453524 
 3362000    1.0541297   -3.1234493   -1.5928044  0.087308585   -3.1234493    1.5306449   453560 
 3363000    1.0562222   -3.1276351   -1.5940769  0.083890595   -3.1276351    1.5335582   453597 
 3364000    1.0566069   -3.1284201   -1.5944522  0.080635075   -3.1284201     1.533968   453641 
 3365000    1.0553752   -3.1261432   -1.5940615   0.08696423   -3.1261432    1.5320817   453670 
 3366000    1.0554138   -3.1258901   -1.5939379   0.08585046   -3.1258901    1.5319522   453725 
 3367000    1.0557655   -3.1265922   -1.5942613   0.08487095   -3.1265922    1.5323309   453764 
 3368000    1.0567397   -3.1278697   -1.5943006  0.084286174   -3.1278697    1.5335691   453816 
 3369000    1.0572814    -3.128297   -1.5940905  0.082098972    -3.128297    1.5342065   453860 
 3370000     1.057074   -3.1273736   -1.5935188  0.087969813   -3.1273736    1.5338549   453875 
 3371000     1.054486   -3.1244311   -1.5943787  0.089929156   -3.1244311    1.5300524   453889 
 3372000    1.0571421   -3.1278842   -1.5941738  0.079903755   -3.1278842    1.5337104   453947 
 3373000    1.0551037   -3.1251899   -1.5946593  0.080009462   -3.1251899    1.5305305   454013 
 3374000    1.0560008    -3.125383   -1.5937906  0.085392161    -3.125383    1.5315924   454084 
 3375000    1.0562747   -3.1256845   -1.5938906  0.079393665   -3.1256845    1.5317939   454142 
 3376000    1.0569094   -3.1259715   -1.5932673  0.079746794   -3.1259715    1.5327042   454145 
 3377000    1.0561441   -3.1236682   -1.5923098  0.084177502   -3.1236682    1.5313583   454215 
 3378000    1.0561862   -3.1240853   -1.5928345  0.080972506   -3.1240853    1.5312509   454265 
 3379000    1.0571134   -3.1253845   -1.5929649  0.080220788   -3.1253845    1.5324196   454317 
 3380000    1.0563536   -3.1257791   -1.5946563  0.080899084   -3.1257791    1.5311228   454375 
 3381000      1.05568   -3.1243019    -1.594206  0.086365757   -3.1243019    1.5300959   454390 
 3382000    1.0564025   -3.1245661   -1.5935577   0.08342882   -3.1245661    1.5310084   454430 
 3383000     1.056645   -3.1252248   -1.5938852  0.078100942   -3.1252248    1.5313395   454436 
 3384000    1.0571931   -3.1250485   -1.5930259  0.086199677   -3.1250485    1.5320226   454469 
 3385000    1.0564718    -3.125219   -1.5943562  0.081484943    -3.125219    1.5308628   454503 
 3386000    1.0576816   -3.1255665   -1.5929068  0.083375053   -3.1255665    1.5326597   454490 
 3387000    1.0565195   -3.1234606   -1.5927307  0.086261668   -3.1234606    1.5307299   454563 
 3388000     1.055736   -3.1228209   -1.5933338  0.081338306   -3.1228209    1.5294871   454595 
 3389000    1.0594092   -3.1281911   -1.5934669  0.080642403   -3.1281911    1.5347241   454620 
 3390000    1.0561481   -3.1226988   -1.5927729   0.08591107   -3.1226988    1.5299258   454642 
 3391000    1.0575645   -3.1246037   -1.5927574  0.090816883   -3.1246037    1.5318463   454681 
 3392000    1.0594541   -3.1273058   -1.5928068  0.078008865   -3.1273058     1.534499   454706 
 3393000     1.059794   -3.1270127   -1.5923084   0.08355178   -3.1270127    1.5347043   454791 
 3394000    1.0588311   -3.1257233   -1.5925011  0.084073138   -3.1257233    1.5332223   454817 
 3395000    1.0584751   -3.1255858   -1.5929329  0.087372704   -3.1255858    1.5326529   454833 
 3396000    1.0576821   -3.1256569   -1.5942937  0.088309964   -3.1256569    1.5313632   454875 
 3397000    1.0589416    -3.127045    -1.594057   0.08549588    -3.127045     1.532988   454934 
 3398000    1.0584346   -3.1251519   -1.5929551  0.084651977   -3.1251519    1.5321968   454951 
 3399000    1.0597658   -3.1272777   -1.5932685  0.087356553   -3.1272777    1.5340091   454985 
 3400000    1.0587444   -3.1259189   -1.5935869  0.090264705   -3.1259189     1.532332   455044 
 3401000    1.0605489   -3.1279482   -1.5930923  0.082046938   -3.1279482    1.5348559   455070 
 3402000    1.0588979   -3.1248085   -1.5924732  0.086885569   -3.1248085    1.5323353   455109 
 3403000    1.0595385   -3.1258591   -1.5927382  0.083742759   -3.1258591    1.5331208   455151 
 3404000    1.0596175   -3.1254459   -1.5923827  0.085312129   -3.1254459    1.5330633   455202 
 3405000    1.0591774   -3.1260216   -1.5936657  0.084125299   -3.1260216    1.5323559   455223 
 3406000    1.0597994   -3.1276039   -1.5944256   0.08672681   -3.1276039    1.5331783   455246 
 3407000    1.0591793   -3.1255226    -1.593376  0.079346978   -3.1255226    1.5321466   455286 
 3408000    1.0592383   -3.1260527   -1.5939318  0.079429658   -3.1260527    1.5321209   455319 
 3409000    1.0593334   -3.1260076   -1.5938838   0.08518197   -3.1260076    1.5321238   455359 
 3410000    1.0584007   -3.1235205   -1.5928263  0.083669139   -3.1235205    1.5306943   455383 
 3411000    1.0591727   -3.1250468   -1.5933538  0.079902872   -3.1250468    1.5316929   455418 
 3412000    1.0591774   -3.1260304   -1.5943878  0.080068429   -3.1260304    1.5316426   455435 
 3413000    1.0600665   -3.1267303   -1.5939164  0.086900881   -3.1267303    1.5328139   455469 
 3414000    1.0584599   -3.1231265   -1.5928876   0.08817399   -3.1231265    1.5302389   455544 
 3415000    1.0592604   -3.1252057   -1.5938399  0.085332676   -3.1252057    1.5313659   455553 
 3416000    1.0615401   -3.1280899      -1.5936  0.077878589   -3.1280899    1.5344898   455604 
 3417000    1.0603395    -3.126332   -1.5937594   0.07977165    -3.126332    1.5325726   455658 
 3418000    1.0605182   -3.1282774   -1.5956012  0.081769557   -3.1282774    1.5326762   455704 
 3419000    1.0593684   -3.1275934   -1.5965386  0.084640091   -3.1275934    1.5310548   455692 
 3420000    1.0603953   -3.1287202   -1.5962082  0.084252033   -3.1287202    1.5325121   455700 
 3421000    1.0592511   -3.1282026   -1.5974718  0.081518656   -3.1282026    1.5307308   455738 
 3422000    1.0592205   -3.1270009   -1.5964788  0.087932267   -3.1270009     1.530522   455787 
 3423000    1.0596635   -3.1272629   -1.5961948  0.084980669   -3.1272629    1.5310681   455815 
 3424000    1.0596643   -3.1276963   -1.5967313  0.079459545   -3.1276963     1.530965   455846 
 3425000     1.059221   -3.1262093    -1.596019   0.08466045   -3.1262093    1.5301903   455886 
 3426000    1.0595856   -3.1268335    -1.596281  0.085361801   -3.1268335    1.5305525   455935 
 3427000    1.0603292   -3.1277235   -1.5961203  0.083491287   -3.1277235    1.5316032   455942 
 3428000    1.0597699   -3.1271821   -1.5964338  0.086041374   -3.1271821    1.5307483   455956 
 3429000    1.0603126   -3.1280954   -1.5967446  0.081745822   -3.1280954    1.5313509   456010 
 3430000    1.0609025   -3.1291376   -1.5970557  0.089591292   -3.1291376    1.5320819   456046 
 3431000    1.0603684   -3.1297577   -1.5986319  0.086550414   -3.1297577    1.5311258   456101 
 3432000    1.0613682   -3.1318091   -1.5992631  0.082576418   -3.1318091     1.532546   456108 
 3433000    1.0612411   -3.1309809    -1.598736  0.085457282   -3.1309809    1.5322448   456143 
 3434000    1.0598444   -3.1292526   -1.5990512  0.086411019   -3.1292526    1.5302014   456151 
 3435000    1.0612731   -3.1303064   -1.5981362  0.086383798   -3.1303064    1.5321702   456179 
 3436000     1.061775   -3.1314333   -1.5985452  0.085681125   -3.1314333    1.5328881   456181 
 3437000    1.0617331   -3.1310219   -1.5982616  0.083794678   -3.1310219    1.5327603   456201 
 3438000    1.0617215   -3.1320287   -1.5993993  0.084191071   -3.1320287    1.5326294   456235 
 3439000    1.0597388   -3.1281034   -1.5984735  0.089918257   -3.1281034    1.5296299   456276 
 3440000    1.0610357   -3.1304145   -1.5989631  0.089627279   -3.1304145    1.5314514   456291 
 3441000    1.0602508   -3.1294865    -1.599339  0.085041012   -3.1294865    1.5301475   456342 
 3442000    1.0625075   -3.1320483   -1.5988858  0.086085343   -3.1320483    1.5331625   456414 
 3443000    1.0619774   -3.1308981   -1.5986348  0.093875011   -3.1308981    1.5322633   456454 
 3444000    1.0615823   -3.1317207   -1.6001551   0.07972204   -3.1317207    1.5315657   456492 
 3445000    1.0611994   -3.1317929   -1.6008299  0.083680789   -3.1317929     1.530963   456507 
 3446000    1.0596106   -3.1302923   -1.6016315  0.083910436   -3.1302923    1.5286608   456510 
 3447000    1.0590131    -3.128336   -1.6005673  0.080507359    -3.128336    1.5277686   456519 
 3448000    1.0602049   -3.1284954    -1.599138  0.085747581   -3.1284954    1.5293574   456558 
 3449000     1.061093   -3.1306812    -1.600197  0.084398746   -3.1306812    1.5304842   456604 
 3450000     1.059946   -3.1298251   -1.6011057  0.078297119   -3.1298251    1.5287194   456637 
 3451000    1.0594953   -3.1276771   -1.5995977  0.084073639   -3.1276771    1.5280794   456634 
 3452000    1.0617766   -3.1318784   -1.6006361  0.081068085   -3.1318784    1.5312423   456672 
 3453000    1.0634821   -3.1330095   -1.5994051  0.083957391   -3.1330095    1.5336044   456701 
 3454000    1.0626093   -3.1314047   -1.5992635  0.083725735   -3.1314047    1.5321412   456762 
 3455000     1.062492   -3.1311064   -1.5991378  0.082981507   -3.1311064    1.5319686   456763 
 3456000    1.0621215   -3.1300262   -1.5987023  0.084750208   -3.1300262    1.5313239   456796 
 3457000    1.0617766   -3.1282111    -1.597475  0.088907113   -3.1282111    1.5307361   456823 
 3458000    1.0624595   -3.1299771   -1.5983102   0.08566936   -3.1299771    1.5316669   456839 
 3459000     1.060969   -3.1276813   -1.5982367  0.086721026   -3.1276813    1.5294446   456861 
 3460000    1.0626658   -3.1290963   -1.5973298   0.08730224   -3.1290963    1.5317666   456898 
 3461000    1.0620185   -3.1293452   -1.5985721  0.087621632   -3.1293452    1.5307731   456916 
 3462000    1.0636181   -3.1314778   -1.5984829   0.08575933   -3.1314778    1.5329949   456941 
 3463000    1.0625161    -3.129419   -1.5982067  0.087826128    -3.129419    1.5312123   456999 
 3464000    1.0621793    -3.129473   -1.5988432  0.082389305    -3.129473    1.5306298   457028 
 3465000    1.0621849    -3.128244   -1.5978406  0.082173627    -3.128244    1.5304035   457098 
 3466000    1.0630992    -3.129586   -1.5979557  0.082017859    -3.129586    1.5316303   457125 
 3467000    1.0623749   -3.1277713   -1.5972749  0.076154702   -3.1277713    1.5304964   457152 
 3468000    1.0622406   -3.1267121   -1.5965664  0.086631462   -3.1267121    1.5301456   457199 
 3469000    1.0625464   -3.1272843   -1.5968388  0.077213329   -3.1272843    1.5304455   457241 
 3470000    1.0619232   -3.1253315   -1.5958739  0.087576565   -3.1253315    1.5294576   457268 
 3471000     1.061762   -3.1251932   -1.5960313  0.082679719   -3.1251932    1.5291618   457287 
 3472000     1.062672   -3.1256484   -1.5952764  0.083325334   -3.1256484     1.530372   457317 
 3473000    1.0631777   -3.1253587   -1.5943957  0.079518981   -3.1253587     1.530963   457358 
 3474000    1.0639707   -3.1264586   -1.5945178  0.088140193   -3.1264586    1.5319408   457407 
 3475000     1.063215   -3.1253204   -1.5945915  0.086089921   -3.1253204    1.5307289   457444 
 3476000    1.0632811   -3.1251411   -1.5944072  0.084247941   -3.1251411    1.5307338   457471 
 3477000    1.0643956    -3.127467   -1.5951824  0.084004958    -3.127467    1.5322846   457487 
 3478000    1.0632986   -3.1248507    -1.594316  0.078147814   -3.1248507    1.5305347   457538 
 3479000    1.0628491   -3.1233947   -1.5935438  0.085624307   -3.1233947    1.5298509   457549 
 3480000    1.0630213   -3.1240913   -1.5940392  0.084461443   -3.1240913     1.530052   457563 
 3481000    1.0647006   -3.1250582   -1.5927063    0.0859773   -3.1250582    1.5323519   457598 
 3482000    1.0657926   -3.1266155   -1.5928494  0.082340289   -3.1266155    1.5337661   457645 
 3483000    1.0628683   -3.1237559   -1.5942249  0.085850113   -3.1237559     1.529531   457653 
 3484000    1.0648233   -3.1268555   -1.5946082  0.081961925   -3.1268555    1.5322473   457682 
 3485000    1.0637653   -3.1254565   -1.5948455  0.083391253   -3.1254565     1.530611   457716 
 3486000    1.0638616   -3.1249937   -1.5942105   0.08704659   -3.1249937    1.5307832   457706 
 3487000    1.0645861   -3.1266368   -1.5948513  0.081440572   -3.1266368    1.5317855   457718 
 3488000    1.0646693   -3.1251577   -1.5933161  0.084759652   -3.1251577    1.5318416   457737 
 3489000    1.0640435   -3.1246316   -1.5937975  0.087643463   -3.1246316    1.5308341   457769 
 3490000    1.0645472   -3.1253165    -1.593741  0.086837764   -3.1253165    1.5315755   457764 
 3491000    1.0644001   -3.1255768   -1.5943132  0.078086855   -3.1255768    1.5312635   457794 
 3492000    1.0645348   -3.1243457   -1.5930055  0.084656519   -3.1243457    1.5313402   457829 
 3493000    1.0642491   -3.1236896   -1.5929309  0.084192891   -3.1236896    1.5307587   457880 
 3494000    1.0663391   -3.1261455   -1.5923001   0.08841105   -3.1261455    1.5338454   457856 
 3495000    1.0639918   -3.1245508   -1.5941153  0.085029256   -3.1245508    1.5304355   457866 
 3496000    1.0652421   -3.1268948   -1.5946509  0.086724585   -3.1268948    1.5322439   457863 
 3497000    1.0659217   -3.1284027   -1.5953286  0.079215813   -3.1284027    1.5330741   457907 
 3498000    1.0664614   -3.1278599   -1.5941067  0.079874559   -3.1278599    1.5337532   457936 
 3499000    1.0661568   -3.1270724   -1.5937975  0.089981909   -3.1270724     1.533275   457948 
 3500000    1.0661021   -3.1272787   -1.5941996   0.08697949   -3.1272787    1.5330791   457983 
 3501000     1.064171   -3.1252637   -1.5950016  0.087310185   -3.1252637    1.5302621   457995 
 3502000    1.0645151   -3.1258673   -1.5952875  0.087725195   -3.1258673    1.5305798   458048 
 3503000    1.0648125   -3.1277267   -1.5967762  0.086554951   -3.1277267    1.5309506   458065 
 3504000     1.065184   -3.1279633   -1.5966056  0.082744434   -3.1279633    1.5313576   458103 
 3505000     1.066374   -3.1298923   -1.5969377  0.081209501   -3.1298923    1.5329546   458137 
 3506000    1.0647125   -3.1278996   -1.5975138  0.086072645   -3.1278996    1.5303858   458191 
 3507000    1.0656169   -3.1298715   -1.5982291  0.081477193   -3.1298715    1.5316424   458204 
 3508000    1.0648865   -3.1288975   -1.5983885  0.084266083   -3.1288975     1.530509   458229 
 3509000    1.0646419    -3.128239   -1.5982018  0.086745301    -3.128239    1.5300372   458265 
 3510000     1.066389   -3.1299275   -1.5975501   0.08907891   -3.1299275    1.5323774   458316 
 3511000    1.0667186   -3.1305147   -1.5977573  0.086925686   -3.1305147    1.5327575   458344 
 3512000    1.0661135   -3.1301778   -1.5984602   0.08228899   -3.1301778    1.5317176   458395 
 3513000    1.0648594   -3.1294764   -1.5996975  0.084639354   -3.1294764    1.5297789   458436 
 3514000     1.066609    -3.130406   -1.5983174   0.08366885    -3.130406    1.5320886   458497 
 3515000    1.0674555   -3.1317428   -1.5984315  0.086281018   -3.1317428    1.5333113   458495 
 3516000    1.0669302   -3.1306541   -1.5981409   0.08623059   -3.1306541    1.5325132   458508 
 3517000    1.0682633   -3.1316339    -1.597343  0.088113218   -3.1316339    1.5342908   458549 
 3518000    1.0662907   -3.1289477   -1.5974767  0.081614457   -3.1289477     1.531471   458545 
 3519000    1.0680609   -3.1311673   -1.5971571  0.085087853   -3.1311673    1.5340102   458546 
 3520000    1.0674221   -3.1304538   -1.5974381  0.086417748   -3.1304538    1.5330157   458569 
 3521000    1.0650179   -3.1271199   -1.5976204  0.082600979   -3.1271199    1.5294995   458588 
 3522000    1.0674541   -3.1301679      -1.5973  0.084749415   -3.1301679    1.5328679   458627 
 3523000    1.0667669   -3.1275262   -1.5957353  0.086453556   -3.1275262    1.5317908   458654 
 3524000    1.0670649   -3.1269489   -1.5948704  0.080434884   -3.1269489    1.5320785   458696 
 3525000    1.0667778    -3.127222   -1.5956057  0.086733044    -3.127222    1.5316162   458711 
 3526000    1.0663447    -3.127747   -1.5969462  0.082535782    -3.127747    1.5308008   458769 
 3527000    1.0643569   -3.1253784   -1.5974779  0.086791489   -3.1253784    1.5279005   458783 
 3528000    1.0662407   -3.1278984   -1.5974738  0.081895272   -3.1278984    1.5304246   458837 
 3529000    1.0655784   -3.1275129   -1.5981855  0.082998728   -3.1275129    1.5293274   458881 
 3530000    1.0652249   -3.1260216   -1.5972549  0.086565909   -3.1260216    1.5287667   458897 
 3531000    1.0661234   -3.1273718   -1.5973389  0.084418559   -3.1273718    1.5300329   458904 
 3532000    1.0666052   -3.1270666   -1.5963823  0.087553629   -3.1270666    1.5306843   458916 
 3533000    1.0670746   -3.1272277   -1.5959932  0.077670903   -3.1272277    1.5312345   458953 
 3534000    1.0660334   -3.1256167   -1.5958164  0.083500262   -3.1256167    1.5298003   458935 
 3535000    1.0661268    -3.125152   -1.5952576  0.081685392    -3.125152    1.5298944   458947 
 3536000    1.0678334   -3.1277822   -1.5955022  0.087185535   -3.1277822      1.53228   458966 
 3537000     1.067942   -3.1280893   -1.5957838  0.076672502   -3.1280893    1.5323055   459005 
 3538000    1.0677662   -3.1260429   -1.5940763  0.079720906   -3.1260429    1.5319666   459031 
 3539000    1.0678575   -3.1246038   -1.5926297   0.08588657   -3.1246038    1.5319741   459068 
 3540000     1.067091   -3.1249933   -1.5942523  0.077049624   -3.1249933     1.530741   459108 
 3541000    1.0655216   -3.1216679   -1.5933312  0.085076581   -3.1216679    1.5283367   459154 
 3542000    1.0690312   -3.1258482   -1.5924976   0.08264459   -3.1258482    1.5333506   459160 
 3543000    1.0676914   -3.1235923   -1.5923135  0.085877153   -3.1235923    1.5312788   459205 
 3544000    1.0685773    -3.124483   -1.5920838  0.084438281    -3.124483    1.5323992   459250 
 3545000    1.0679404   -3.1238154    -1.592463  0.078897365   -3.1238154    1.5313524   459290 
 3546000    1.0674637   -3.1246169    -1.594008  0.079451585   -3.1246169    1.5306089   459308 
 3547000    1.0675654   -3.1246886   -1.5939705  0.081742496   -3.1246886    1.5307181   459319 
 3548000    1.0670831   -3.1244222   -1.5945256  0.087311775   -3.1244222    1.5298966   459358 
 3549000     1.068755   -3.1257166   -1.5934496  0.085553148   -3.1257166     1.532267   459366 
 3550000      1.06851   -3.1250309   -1.5932218  0.083018576   -3.1250309    1.5318091   459398 
 3551000     1.067274   -3.1232578   -1.5933139  0.087974789   -3.1232578    1.5299438   459426 
 3552000    1.0678173   -3.1251382   -1.5945489  0.086041078   -3.1251382    1.5305894   459466 
 3553000    1.0682472   -3.1257103   -1.5945581  0.083422275   -3.1257103    1.5311522   459482 
 3554000    1.0676695   -3.1252731   -1.5952186  0.084102084   -3.1252731    1.5300545   459563 
 3555000    1.0693932   -3.1269286   -1.5944573  0.079639833   -3.1269286    1.5324713   459579 
 3556000    1.0677924   -3.1262091   -1.5961416  0.083984384   -3.1262091    1.5300675   459612 
 3557000    1.0674798    -3.125061   -1.5955413  0.081356622    -3.125061    1.5295198   459642 
 3558000    1.0688985   -3.1268656   -1.5955728  0.084236135   -3.1268656    1.5312927   459720 
 3559000    1.0696821   -3.1286166   -1.5962813  0.091592476   -3.1286166    1.5323353   459744 
 3560000    1.0688781   -3.1273387   -1.5963017  0.084833566   -3.1273387     1.531037   459788 
 3561000    1.0690418   -3.1263389   -1.5951074  0.086714716   -3.1263389    1.5312315   459800 
 3562000    1.0709982   -3.1287922   -1.5947684  0.084093054   -3.1287922    1.5340238   459803 
 3563000    1.0682494   -3.1252588   -1.5953386  0.087034464   -3.1252588    1.5299202   459853 
 3564000    1.0699221   -3.1290693   -1.5968468   0.09035293   -3.1290693    1.5322224   459881 
 3565000     1.070813   -3.1306308   -1.5972991  0.078786055   -3.1306308    1.5333316   459931 
 3566000    1.0687807   -3.1287244   -1.5985357  0.088518506   -3.1287244    1.5301886   460001 
 3567000    1.0706045   -3.1310269   -1.5983138  0.080741646   -3.1310269    1.5327131   460027 
 3568000     1.069999   -3.1300852   -1.5982823  0.080423544   -3.1300852    1.5318029   460040 
 3569000    1.0703891   -3.1304312   -1.5981896  0.083375901   -3.1304312    1.5322415   460076 
 3570000    1.0708584   -3.1314894   -1.5985995  0.082752151   -3.1314894      1.53289   460083 
 3571000    1.0699871   -3.1310891   -1.5995361  0.083922167   -3.1310891    1.5315529   460110 
 3572000    1.0692115   -3.1296223   -1.5993126  0.085750893   -3.1296223    1.5303097   460150 
 3573000     1.069837   -3.1298284   -1.5987332  0.083932469   -3.1298284    1.5310951   460183 
 3574000    1.0698883   -3.1305036   -1.5995446  0.084226046   -3.1305036     1.530959   460246 
 3575000    1.0690272   -3.1289337   -1.5993099  0.080091984   -3.1289337    1.5296238   460277 
 3576000    1.0715075   -3.1317043   -1.5986748  0.086743973   -3.1317043    1.5330295   460320 
 3577000    1.0717134   -3.1309867   -1.5978359  0.087851276   -3.1309867    1.5331508   460372 
 3578000    1.0719364   -3.1313788   -1.5979322  0.083596178   -3.1313788    1.5334466   460379 
 3579000    1.0714134   -3.1302484     -1.59756  0.090953905   -3.1302484    1.5326884   460382 
 3580000    1.0698055   -3.1272826   -1.5970041  0.085958685   -3.1272826    1.5302785   460415 
 3581000    1.0701592   -3.1275324    -1.596861  0.082988243   -3.1275324    1.5306714   460449 
 3582000    1.0725724   -3.1304055    -1.596429  0.083834639   -3.1304055    1.5339765   460493 
 3583000    1.0715333   -3.1285226   -1.5960655  0.090517738   -3.1285226    1.5324571   460503 
 3584000    1.0704262   -3.1262471   -1.5953932  0.085325402   -3.1262471    1.5308539   460509 
 3585000    1.0699039    -3.127626   -1.5975157  0.083876815    -3.127626    1.5301103   460508 
 3586000    1.0703093   -3.1288254   -1.5981753   0.08116534   -3.1288254    1.5306501   460520 
 3587000    1.0706752   -3.1277747   -1.5967011  0.082070305   -3.1277747    1.5310736   460550 
 3588000    1.0693259   -3.1248735   -1.5958622  0.086021243   -3.1248735    1.5290113   460590 
 3589000    1.0707864   -3.1277277   -1.5967178   0.08031317   -3.1277277      1.53101   460617 
 3590000    1.0716171   -3.1283851   -1.5963538  0.085730929   -3.1283851    1.5320314   460667 
 3591000    1.0701603   -3.1272498   -1.5973809  0.081114833   -3.1272498     1.529869   460691 
 3592000    1.0727459   -3.1288434    -1.595551  0.079259686   -3.1288434    1.5332924   460773 
 3593000    1.0706386    -3.127366   -1.5972018  0.083492475    -3.127366    1.5301642   460808 
 3594000    1.0712073   -3.1271492   -1.5962088  0.077038714   -3.1271492    1.5309404   460819 
 3595000    1.0699258   -3.1232891   -1.5943362  0.089019625   -3.1232891    1.5289529   460866 
 3596000    1.0708275   -3.1247397   -1.5946742  0.081534329   -3.1247397    1.5300655   460919 
 3597000     1.069618   -3.1244896   -1.5962717  0.084093824   -3.1244896    1.5282179   460955 
 3598000    1.0699704   -3.1249078   -1.5964483  0.081564947   -3.1249078    1.5284595   461034 
 3599000    1.0706761   -3.1263599   -1.5970416  0.080009147   -3.1263599    1.5293183   461079 
 3600000    1.0737207   -3.1297027   -1.5961486  0.077667599   -3.1297027    1.5335541   461113 
 3601000    1.0721538   -3.1276172   -1.5964804  0.085357815   -3.1276172    1.5311368   461167 
 3602000    1.0728736   -3.1279834   -1.5959847  0.081612379   -3.1279834    1.5319987   461217 
 3603000    1.0725691     -3.12821   -1.5968586   0.07934139     -3.12821    1.5313513   461281 
 3604000    1.0715818   -3.1270914    -1.597352  0.082140816   -3.1270914    1.5297395   461342 
 3605000    1.0711338   -3.1259242   -1.5969204  0.085535739   -3.1259242    1.5290038   461371 
 3606000    1.0738762   -3.1297145   -1.5970585  0.083729365   -3.1297145     1.532656   461450 
 3607000    1.0743242   -3.1289808   -1.5957983  0.085724282   -3.1289808    1.5331825   461484 
 3608000    1.0745962   -3.1289312   -1.5955268  0.086472553   -3.1289312    1.5334044   461534 
 3609000    1.0740123   -3.1276553     -1.59527  0.083371508   -3.1276553    1.5323853   461590 
 3610000    1.0737177   -3.1278018   -1.5959628  0.082346205   -3.1278018    1.5318389   461628 
 3611000    1.0748815   -3.1298297   -1.5964467  0.087815304   -3.1298297     1.533383   461663 
 3612000    1.0746085   -3.1291113   -1.5963102  0.083991919   -3.1291113    1.5328011   461721 
 3613000    1.0752479   -3.1304995   -1.5967899  0.091108857   -3.1304995    1.5337097   461722 
 3614000    1.0761568   -3.1311698   -1.5962501  0.083740256   -3.1311698    1.5349198   461748 
 3615000    1.0754508   -3.1309299   -1.5971433  0.081204522   -3.1309299    1.5337865   461786 
 3616000    1.0759049   -3.1300831   -1.5957753  0.091950335   -3.1300831    1.5343078   461824 
 3617000    1.0771352   -3.1335133   -1.5975573  0.086065307   -3.1335133     1.535956   461856 
 3618000    1.0758097   -3.1313634   -1.5974304  0.088105824   -3.1313634    1.5339329   461896 
 3619000    1.0776264   -3.1342959   -1.5978857  0.082869192   -3.1342959    1.5364102   461930 
 3620000    1.0750956   -3.1307874   -1.5980054  0.080417728   -3.1307874     1.532782   461936 
 3621000    1.0744996   -3.1309803   -1.5990778  0.085196704   -3.1309803    1.5319025   461945 
 3622000    1.0740345   -3.1300897   -1.5989996  0.080603925   -3.1300897    1.5310902   461990 
 3623000    1.0733156   -3.1297226   -1.5997202  0.076661855   -3.1297226    1.5300025   462009 
 3624000    1.0748523   -3.1311793   -1.5990494  0.085187736   -3.1311793      1.53213   462028 
 3625000    1.0757411   -3.1316018   -1.5984305  0.082452096   -3.1316018    1.5331713   462096 
 3626000     1.075363   -3.1305218   -1.5979159  0.084262118   -3.1305218    1.5326059   462104 
 3627000    1.0758253   -3.1325629   -1.5993911  0.082600822   -3.1325629    1.5331719   462132 
 3628000    1.0751804   -3.1316937   -1.5994972    0.0848659   -3.1316937    1.5321965   462149 
 3629000    1.0763492   -3.1309077   -1.5972977  0.087194787   -3.1309077    1.5336099   462225 
 3630000    1.0758446   -3.1286749   -1.5959531  0.084122245   -3.1286749    1.5327217   462276 
 3631000    1.0755202   -3.1291266    -1.597036  0.082134603   -3.1291266    1.5320907   462327 
 3632000    1.0746014   -3.1275824   -1.5969828  0.084730865   -3.1275824    1.5305996   462382 
 3633000     1.075081   -3.1279787   -1.5968415  0.081506601   -3.1279787    1.5311371   462426 
 3634000    1.0764595   -3.1295465   -1.5965622  0.083037094   -3.1295465    1.5329844   462461 
 3635000    1.0770547   -3.1297378   -1.5960518  0.090592417   -3.1297378     1.533686   462505 
 3636000     1.075928   -3.1288125   -1.5968335   0.08630754   -3.1288125     1.531979   462536 
 3637000    1.0785634   -3.1318801   -1.5961786  0.078859573   -3.1318801    1.5357015   462545 
 3638000    1.0765212   -3.1287266   -1.5960687  0.085964855   -3.1287266    1.5326579   462586 
 3639000    1.0785689   -3.1312052   -1.5956917  0.079923318   -3.1312052    1.5355135   462604 
 3640000    1.0774325   -3.1297154   -1.5959424  0.080107797   -3.1297154    1.5337729   462641 
 3641000    1.0771984   -3.1280812   -1.5946714  0.088434483   -3.1280812    1.5334099   462650 
 3642000    1.0761109   -3.1271203   -1.5953048  0.082845932   -3.1271203    1.5318155   462664 
 3643000    1.0776108   -3.1282939   -1.5944428  0.080269183   -3.1282939     1.533851   462694 
 3644000    1.0767693    -3.127879   -1.5953548  0.083540721    -3.127879    1.5325242   462733 
 3645000    1.0751504   -3.1243221   -1.5941616  0.088376602   -3.1243221    1.5301605   462751 
 3646000    1.0781012   -3.1286458   -1.5942427  0.084161897   -3.1286458    1.5344031   462738 
 3647000    1.0762147   -3.1268769   -1.5952679  0.087215175   -3.1268769     1.531609   462771 
 3648000    1.0761979   -3.1270638   -1.5956342  0.084742092   -3.1270638    1.5314296   462818 
 3649000    1.0776675   -3.1288126   -1.5954409  0.080856427   -3.1288126    1.5333717   462863 
 3650000    1.0785364   -3.1282654   -1.5937369  0.085713985   -3.1282654    1.5345285   462887 
 3651000    1.0780119   -3.1276809   -1.5939815  0.085458211   -3.1276809    1.5336995   462912 
 3652000    1.0772641   -3.1272616   -1.5947849  0.087952136   -3.1272616    1.5324766   462960 
 3653000    1.0776471   -3.1277475   -1.5948553  0.083244537   -3.1277475    1.5328922   462999 
 3654000    1.0776081   -3.1277094   -1.5949388  0.085376034   -3.1277094    1.5327706   463019 
 3655000    1.0777561   -3.1279473   -1.5951946  0.088632629   -3.1279473    1.5327527   463088 
 3656000    1.0784877   -3.1276573   -1.5939833  0.084072063   -3.1276573    1.5336739   463124 
 3657000    1.0780605   -3.1279924   -1.5950782  0.084816359   -3.1279924    1.5329142   463170 
 3658000    1.0783755   -3.1286533   -1.5954302  0.083214859   -3.1286533    1.5332231   463212 
 3659000    1.0780071   -3.1289608   -1.5962946  0.078103664   -3.1289608    1.5326662   463222 
 3660000    1.0771855    -3.128327   -1.5970173  0.083465602    -3.128327    1.5313097   463279 
 3661000    1.0776042   -3.1286687   -1.5969226  0.089118658   -3.1286687    1.5317461   463327 
 3662000    1.0787632   -3.1293447   -1.5961166  0.087199802   -3.1293447    1.5332281   463377 
 3663000    1.0788926   -3.1297828   -1.5965163  0.085875418   -3.1297828    1.5332665   463421 
 3664000    1.0780466   -3.1284678   -1.5965391  0.085965232   -3.1284678    1.5319287   463462 
 3665000    1.0800263   -3.1294881   -1.5949912  0.089833967   -3.1294881    1.5344969   463536 
 3666000    1.0804217   -3.1296451   -1.5947356  0.089317179   -3.1296451    1.5349096   463581 
 3667000    1.0804448   -3.1292844   -1.5945472  0.085272801   -3.1292844    1.5347372   463643 
 3668000    1.0794442   -3.1292318   -1.5959789  0.088177539   -3.1292318     1.533253   463662 
 3669000    1.0803905   -3.1302274   -1.5957361  0.086331605   -3.1302274    1.5344913   463694 
 3670000    1.0799462   -3.1289392   -1.5951749  0.087849483   -3.1289392    1.5337643   463723 
 3671000     1.079498   -3.1285795   -1.5956832  0.083785313   -3.1285795    1.5328963   463793 
 3672000    1.0809171   -3.1306326   -1.5959924  0.087108469   -3.1306326    1.5346401   463875 
 3673000    1.0801719   -3.1296975    -1.596317  0.086288167   -3.1296975    1.5333805   463936 
 3674000    1.0796567   -3.1298071    -1.597148  0.095524784   -3.1298071    1.5326591   463933 
 3675000    1.0797948    -3.130713    -1.597815  0.085593227    -3.130713     1.532898   463920 
 3676000     1.078227   -3.1300519   -1.5994753  0.086460579   -3.1300519    1.5305767   463949 
 3677000    1.0787395   -3.1302506   -1.5992104  0.083834903   -3.1302506    1.5310402   464029 
 3678000    1.0787127   -3.1305011   -1.5995287   0.08580746   -3.1305011    1.5309724   464038 
 3679000    1.0800167   -3.1316329   -1.5990443  0.080926232   -3.1316329    1.5325886   464109 
 3680000    1.0782898    -3.128941   -1.5990467  0.080678825    -3.128941    1.5298942   464183 
 3681000    1.0793553   -3.1297038   -1.5983703  0.082987811   -3.1297038    1.5313334   464205 
 3682000    1.0781273   -3.1281787   -1.5987787  0.086209637   -3.1281787    1.5294001   464263 
 3683000    1.0805598   -3.1298295   -1.5971636  0.089102832   -3.1298295    1.5326659   464319 
 3684000    1.0817336   -3.1301377   -1.5958996  0.088144658   -3.1301377    1.5342382   464347 
 3685000    1.0812297   -3.1313022   -1.5978678  0.084815336   -3.1313022    1.5334344   464374 
 3686000    1.0808412   -3.1300248   -1.5973427   0.08671859   -3.1300248    1.5326821   464435 
 3687000     1.081714   -3.1308934   -1.5970132  0.085721885   -3.1308934    1.5338802   464447 
 3688000    1.0819652   -3.1305371   -1.5963998    0.0864965   -3.1305371    1.5341373   464477 
 3689000    1.0827768   -3.1322203    -1.597071  0.082416776   -3.1322203    1.5351492   464519 
 3690000     1.081101   -3.1295101    -1.596925  0.091599561   -3.1295101    1.5325852   464576 
 3691000    1.0826875   -3.1316125   -1.5970821   0.08346846   -3.1316125    1.5345304   464668 
 3692000    1.0809717   -3.1299567    -1.597934  0.085740274   -3.1299567    1.5320227   464691 
 3693000    1.0824688    -3.132717   -1.5986881  0.083199707    -3.132717    1.5340289   464726 
 3694000    1.0816083   -3.1299365   -1.5972986  0.082621083   -3.1299365    1.5326379   464778 
 3695000    1.0831242   -3.1308723   -1.5962448  0.086454937   -3.1308723    1.5346275   464826 
 3696000    1.0830445    -3.131933   -1.5975108  0.081811134    -3.131933    1.5344222   464854 
 3697000    1.0836998   -3.1320747   -1.5968133  0.086123674   -3.1320747    1.5352614   464881 
 3698000    1.0812221   -3.1277953   -1.5960473  0.087987382   -3.1277953     1.531748   464882 
 3699000    1.0835466   -3.1304962   -1.5955179  0.086290968   -3.1304962    1.5349783   464901 
 3700000    1.0842866   -3.1322349   -1.5963305  0.080077623   -3.1322349    1.5359044   464938 
 3701000    1.0835877   -3.1312197   -1.5963086  0.084335038   -3.1312197    1.5349111   464939 
 3702000    1.0825148   -3.1294353    -1.596077  0.082651516   -3.1294353    1.5333583   464949 
 3703000    1.0832349   -3.1299671   -1.5956416  0.087104298   -3.1299671    1.5343255   464965 
 3704000    1.0843488   -3.1307389   -1.5949182  0.081741636   -3.1307389    1.5358207   464990 
 3705000    1.0836364   -3.1301888   -1.5954331  0.084636181   -3.1301888    1.5347556   465007 
 3706000    1.0824494   -3.1274005   -1.5944679  0.083662883   -3.1274005    1.5329327   465050 
 3707000    1.0834583   -3.1286831   -1.5944008  0.083032949   -3.1286831    1.5342823   465074 
 3708000    1.0829087   -3.1272015   -1.5938888  0.086624752   -3.1272015    1.5333127   465132 
 3709000    1.0835338   -3.1270978   -1.5929823  0.091156616   -3.1270978    1.5341155   465157 
 3710000    1.0838451    -3.128996    -1.594496  0.087183395    -3.128996    1.5345001   465174 
 3711000    1.0844188   -3.1293697   -1.5941398   0.08497744   -3.1293697    1.5352298   465199 
 3712000    1.0838423   -3.1265956   -1.5923139  0.090637268   -3.1265956    1.5342817   465239 
 3713000    1.0849333   -3.1287339   -1.5930794  0.082517897   -3.1287339    1.5356545   465291 
 3714000    1.0839592   -3.1272725   -1.5930495   0.08885549   -3.1272725    1.5342229   465307 
 3715000     1.083057   -3.1266819   -1.5938019  0.088298273   -3.1266819    1.5328801   465327 
 3716000    1.0847072   -3.1287411   -1.5937135   0.08557097   -3.1287411    1.5350276   465384 
 3717000    1.0842413   -3.1274408   -1.5931779  0.081992413   -3.1274408    1.5342629   465416 
 3718000     1.082584   -3.1253916   -1.5935595  0.080271678   -3.1253916    1.5318321   465442 
 3719000    1.0830897   -3.1267789   -1.5943497  0.087619137   -3.1267789    1.5324292   465478 
 3720000    1.0849685   -3.1296482   -1.5946498  0.086685504   -3.1296482    1.5349984   465505 
 3721000    1.0819881   -3.1254413   -1.5948042  0.090235003   -3.1254413     1.530637   465549 
 3722000     1.082591   -3.1259445   -1.5945137  0.085438437   -3.1259445    1.5314308   465567 
 3723000    1.0849151   -3.1295275   -1.5947992  0.075952695   -3.1295275    1.5347282   465564 
 3724000    1.0829697   -3.1263198   -1.5944653  0.088694277   -3.1263198    1.5318545   465601 
 3725000    1.0836692   -3.1268698   -1.5941344  0.082185663   -3.1268698    1.5327354   465634 
 3726000    1.0832131   -3.1262435   -1.5941005  0.082482537   -3.1262435    1.5321429   465618 
 3727000    1.0841692   -3.1276569   -1.5942703  0.079097412   -3.1276569    1.5333866   465651 
 3728000    1.0838783   -3.1277202   -1.5948273  0.081077291   -3.1277202    1.5328929   465676 
 3729000    1.0842048   -3.1276716   -1.5944519  0.086328063   -3.1276716    1.5332197   465717 
 3730000    1.0834609   -3.1265704   -1.5945343   0.08451648   -3.1265704    1.5320361   465757 
 3731000    1.0847343   -3.1274455   -1.5938394  0.083713026   -3.1274455    1.5336061   465827 
 3732000    1.0826207   -3.1240131   -1.5934839    0.0831735   -3.1240131    1.5305292   465854 
 3733000    1.0855463   -3.1280964   -1.5934772  0.086488048   -3.1280964    1.5346192   465868 
 3734000    1.0854779   -3.1281534   -1.5937133  0.084279688   -3.1281534    1.5344401   465893 
 3735000    1.0849258   -3.1293028   -1.5957749  0.090522466   -3.1293028    1.5335279   465933 
 3736000    1.0843332   -3.1283557   -1.5957707  0.087639635   -3.1283557     1.532585   465965 
 3737000    1.0871678   -3.1319716   -1.5953636  0.080731391   -3.1319716     1.536608   465960 
 3738000    1.0839616   -3.1277868   -1.5957696  0.087207385   -3.1277868    1.5320171   465978 
 3739000    1.0823142   -3.1284214   -1.5987983  0.081195476   -3.1284214    1.5296231   465998 
 3740000    1.0843852    -3.129768   -1.5972641  0.087385097    -3.129768     1.532504   466012 
 3741000    1.0856267   -3.1325448   -1.5982599  0.080177936   -3.1325448    1.5342849   466004 
 3742000    1.0828742   -3.1280872   -1.5977842  0.086169369   -3.1280872     1.530303   466032 
 3743000    1.0854103   -3.1313066   -1.5976533  0.083080241   -3.1313066    1.5336532   466103 
 3744000    1.0852339    -3.131956    -1.598779  0.081716176    -3.131956    1.5331771   466172 
 3745000    1.0861692   -3.1324056    -1.598006  0.084323135   -3.1324056    1.5343996   466202 
 3746000    1.0852256   -3.1302759   -1.5973934  0.090773791   -3.1302759    1.5328824   466258 
 3747000     1.085935   -3.1319486   -1.5982515  0.081363172   -3.1319486    1.5336971   466315 
 3748000    1.0864223    -3.132141   -1.5979301  0.087546654    -3.132141    1.5342109   466368 
 3749000    1.0860513   -3.1311748   -1.5975339  0.081669773   -3.1311748    1.5336409   466382 
 3750000    1.0872289   -3.1330659   -1.5978312  0.086924006   -3.1330659    1.5352347   466403 
 3751000    1.0853845   -3.1313667   -1.5988909  0.082338874   -3.1313667    1.5324759   466450 
 3752000    1.0862816   -3.1322806   -1.5986204  0.082591125   -3.1322806    1.5336603   466475 
 3753000    1.0872426   -3.1332849   -1.5982513   0.08406449   -3.1332849    1.5350336   466470 
 3754000    1.0856579    -3.131965   -1.5992772  0.089201352    -3.131965    1.5326877   466503 
 3755000    1.0872768    -3.133739   -1.5988776  0.085408845    -3.133739    1.5348614   466537 
 3756000    1.0877842   -3.1339322   -1.5984534  0.086905348   -3.1339322    1.5354789   466567 
 3757000    1.0878362   -3.1332721   -1.5978482  0.087047081   -3.1332721     1.535424   466606 
 3758000    1.0867007    -3.133058    -1.599309  0.085223343    -3.133058     1.533749   466628 
 3759000    1.0880861   -3.1329792   -1.5974197  0.085295544   -3.1329792    1.5355595   466672 
 3760000     1.087236   -3.1313225   -1.5970186  0.086356328   -3.1313225    1.5343039   466689 
 3761000    1.0870143   -3.1327938   -1.5988914  0.084637668   -3.1327938    1.5339024   466716 
 3762000    1.0864107   -3.1319735   -1.5990084  0.084756856   -3.1319735    1.5329652   466742 
 3763000    1.0865729   -3.1326253   -1.5995166  0.085394108   -3.1326253    1.5331087   466768 
 3764000    1.0887205   -3.1343761   -1.5983953  0.087977269   -3.1343761    1.5359808   466816 
 3765000    1.0879883   -3.1329641   -1.5981709   0.08807568   -3.1329641    1.5347933   466863 
 3766000    1.0874652   -3.1331567   -1.5992459  0.082482372   -3.1331567    1.5339108   466907 
 3767000    1.0878457   -3.1329854   -1.5986759    0.0828852   -3.1329854    1.5343095   466949 
 3768000    1.0869545   -3.1322645   -1.5992843   0.08379394   -3.1322645    1.5329803   466971 
 3769000    1.0871872   -3.1325829   -1.5993565  0.080155719   -3.1325829    1.5332265   466996 
 3770000    1.0857099   -3.1310345   -1.5999439  0.090278595   -3.1310345    1.5310906   467012 
 3771000    1.0878168   -3.1321538   -1.5982201  0.087943729   -3.1321538    1.5339337   467051 
 3772000     1.088302   -3.1335792   -1.5991322  0.083879662   -3.1335792     1.534447   467103 
 3773000    1.0890486   -3.1361261   -1.6006988  0.084766721   -3.1361261    1.5354274   467125 
 3774000    1.0879943   -3.1335373   -1.5996424  0.089120511   -3.1335373     1.533895   467139 
 3775000    1.0870507   -3.1325981   -1.6001122  0.081256388   -3.1325981     1.532486   467163 
 3776000    1.0886592   -3.1343906   -1.5997653  0.082611573   -3.1343906    1.5346254   467202 
 3777000    1.0879441   -3.1345465   -1.6011195  0.087575216   -3.1345465    1.5334271   467260 
 3778000    1.0886611   -3.1343822   -1.5999938  0.089904973   -3.1343822    1.5343884   467275 
 3779000    1.0890745   -3.1344376   -1.5995849  0.089491843   -3.1344376    1.5348527   467311 
 3780000    1.0889375   -3.1354108   -1.6009219  0.084214231   -3.1354108    1.5344889   467363 
 3781000    1.0901012   -3.1376319   -1.6015919  0.081224243   -3.1376319      1.53604   467390 
 3782000    1.0884878   -3.1339947   -1.6003068  0.085663842   -3.1339947    1.5336879   467414 
 3783000    1.0885587    -3.136249   -1.6025827  0.082312987    -3.136249    1.5336663   467451 
 3784000    1.0873379   -3.1337403   -1.6018955  0.086149961   -3.1337403    1.5318448   467482 
 3785000    1.0865036   -3.1333138   -1.6028049  0.085570241   -3.1333138    1.5305089   467531 
 3786000    1.0887216   -3.1360028   -1.6024809  0.090193144   -3.1360028    1.5335219   467565 
 3787000    1.0890952   -3.1362646   -1.6023182  0.088199328   -3.1362646    1.5339465   467596 
 3788000    1.0896559    -3.135876   -1.6012581  0.093261434    -3.135876    1.5346179   467632 
 3789000    1.0898455    -3.136588   -1.6016833  0.091018232    -3.136588    1.5349047   467626 
 3790000    1.0905238   -3.1377086   -1.6018387  0.087410041   -3.1377086    1.5358699   467623 
 3791000     1.090678    -3.138328   -1.6022837  0.083322387    -3.138328    1.5360443   467636 
 3792000    1.0885565   -3.1368439   -1.6038693  0.088271913   -3.1368439    1.5329746   467661 
 3793000    1.0876316   -3.1356063   -1.6041241  0.086722384   -3.1356063    1.5314822   467719 
 3794000    1.0885476    -3.135007   -1.6023039  0.089984781    -3.135007    1.5327031   467740 
 3795000    1.0908799   -3.1385062   -1.6026274   0.08414499   -3.1385062    1.5358788   467773 
 3796000    1.0883104   -3.1350757   -1.6030013  0.087374872   -3.1350757    1.5320744   467830 
 3797000    1.0884028   -3.1356524   -1.6035004  0.083942399   -3.1356524     1.532152   467846 
 3798000    1.0886067   -3.1358521   -1.6035473  0.085859269   -3.1358521    1.5323047   467887 
 3799000    1.0892344   -3.1358022   -1.6027711  0.089056066   -3.1358022    1.5330311   467935 
 3800000    1.0888012   -3.1353176   -1.6030567  0.089523371   -3.1353176    1.5322609   467984 
 3801000    1.0909093    -3.137903   -1.6027934  0.083940533    -3.137903    1.5351095   468020 
 3802000    1.0903725   -3.1351483   -1.6008925  0.085568419   -3.1351483    1.5342558   468050 
 3803000    1.0882323   -3.1334892   -1.6024019  0.083462218   -3.1334892    1.5310874   468098 
 3804000    1.0901602   -3.1360357   -1.6024293  0.082456997   -3.1360357    1.5336065   468157 
 3805000    1.0895239   -3.1335567   -1.6009829  0.087176629   -3.1335567    1.5325738   468199 
 3806000    1.0911751   -3.1334169   -1.5986155  0.091686092   -3.1334169    1.5348014   468228 
 3807000    1.0916596    -3.135862   -1.6004774  0.081313885    -3.135862    1.5353846   468258 
 3808000    1.0904394   -3.1334042   -1.5999257  0.087400715   -3.1334042    1.5334785   468316 
 3809000    1.0907144   -3.1345455   -1.6007393  0.085199101   -3.1345455    1.5338062   468334 
 3810000    1.0905008   -3.1333386   -1.5999473  0.085302325   -3.1333386    1.5333912   468369 
 3811000    1.0911556    -3.133219   -1.5990577  0.082214575    -3.133219    1.5341614   468415 
 3812000    1.0924293   -3.1356034   -1.5998021  0.078663926   -3.1356034    1.5358013   468461 
 3813000    1.0921633   -3.1338571   -1.5984986  0.083502889   -3.1338571    1.5353585   468482 
 3814000    1.0913013   -3.1320702   -1.5980741  0.089991034   -3.1320702    1.5339961   468528 
 3815000    1.0921641   -3.1325666   -1.5975706  0.083238577   -3.1325666     1.534996   468593 
 3816000     1.093244   -3.1343828   -1.5979216  0.085265597   -3.1343828    1.5364612   468609 
 3817000    1.0922361   -3.1324372   -1.5974841  0.078601405   -3.1324372     1.534953   468637 
 3818000    1.0933987   -3.1335869   -1.5971115  0.086774254   -3.1335869    1.5364754   468671 
 3819000    1.0914417   -3.1312575   -1.5975976  0.085194854   -3.1312575    1.5336599   468691 
 3820000    1.0923138   -3.1334868   -1.5986047  0.087194352   -3.1334868     1.534882   468692 
 3821000    1.0934876   -3.1342297   -1.5978064  0.085203747   -3.1342297    1.5364233   468725 
 3822000    1.0936325    -3.132514   -1.5961854  0.089740266    -3.132514    1.5363286   468816 
 3823000    1.0924183   -3.1311181   -1.5965901  0.082951596   -3.1311181     1.534528   468845 
 3824000    1.0917396   -3.1314539   -1.5978859  0.082920996   -3.1314539     1.533568   468847 
 3825000    1.0924462   -3.1320649    -1.597573  0.087458969   -3.1320649    1.5344918   468868 
 3826000    1.0925019   -3.1322406   -1.5978832  0.087124874   -3.1322406    1.5343575   468933 
 3827000    1.0923772   -3.1335943   -1.5994807  0.085661101   -3.1335943    1.5341136   468954 
 3828000    1.0918173   -3.1327155   -1.5994897  0.086215563   -3.1327155    1.5332259   468985 
 3829000    1.0921779   -3.1332322   -1.5996242  0.085062578   -3.1332322     1.533608   469023 
 3830000    1.0905449   -3.1315044   -1.6001404  0.090768371   -3.1315044     1.531364   469008 
 3831000    1.0914954     -3.13295   -1.6003623  0.081556304     -3.13295    1.5325876   469042 
 3832000    1.0923419   -3.1335976   -1.5998247  0.084603377   -3.1335976    1.5337729   469043 
 3833000    1.0919986   -3.1316991   -1.5985847  0.089526062   -3.1316991    1.5331143   469097 
 3834000    1.0916767   -3.1309354    -1.598469   0.08332908   -3.1309354    1.5324665   469157 
 3835000    1.0925581   -3.1340609   -1.6005206  0.077837631   -3.1340609    1.5335403   469207 
 3836000    1.0912073   -3.1313026   -1.5998477  0.090768831   -3.1313026    1.5314549   469265 
 3837000    1.0931576    -3.133825   -1.5998355  0.080131975    -3.133825    1.5339895   469327 
 3838000    1.0920638   -3.1327358   -1.6003106  0.082820635   -3.1327358    1.5324251   469336 
 3839000    1.0925514    -3.133082   -1.6000837  0.083462101    -3.133082    1.5329984   469370 
 3840000    1.0919753   -3.1334974   -1.6014902  0.080201846   -3.1334974    1.5320073   469426 
 3841000    1.0918295   -3.1337686   -1.6020019  0.087089025   -3.1337686    1.5317667   469437 
 3842000     1.093289   -3.1352713   -1.6015255  0.081031987   -3.1352713    1.5337458   469458 
 3843000    1.0913794   -3.1318284   -1.6008693  0.084301772   -3.1318284    1.5309591   469491 
 3844000    1.0936917   -3.1366469   -1.6025747  0.078240665   -3.1366469    1.5340722   469531 
 3845000     1.093024   -3.1361101   -1.6029778  0.085661752   -3.1361101    1.5331323   469532 
 3846000    1.0934296   -3.1362744   -1.6027267  0.088433562   -3.1362744    1.5335477   469579 
 3847000    1.0934048   -3.1356545   -1.6023375  0.084549527   -3.1356545     1.533317   469639 
 3848000    1.0938332   -3.1354575   -1.6016607  0.086205887   -3.1354575    1.5337969   469676 
 3849000    1.0927649   -3.1337586    -1.601613  0.088001287   -3.1337586    1.5321456   469723 
 3850000    1.0948225   -3.1356069   -1.6006645  0.082339662   -3.1356069    1.5349424   469750 
 3851000    1.0942473   -3.1355314   -1.6015229   0.08589465   -3.1355314    1.5340085   469789 
 3852000    1.0953986   -3.1365433   -1.6009797  0.089296516   -3.1365433    1.5355636   469807 
 3853000    1.0934562   -3.1348711   -1.6021772  0.087903646   -3.1348711    1.5326939   469852 
 3854000    1.0957093   -3.1370396   -1.6012104  0.081059836   -3.1370396    1.5358292   469859 
 3855000    1.0956365   -3.1364967   -1.6009362  0.083413694   -3.1364967    1.5355605   469910 
 3856000    1.0953579   -3.1365162   -1.6014997  0.083871577   -3.1365162    1.5350165   469957 
 3857000    1.0960755   -3.1376587    -1.601875  0.090539085   -3.1376587    1.5357836   470030 
 3858000    1.0955981   -3.1365604     -1.60156  0.086222999   -3.1365604    1.5350004   470065 
 3859000    1.0962823    -3.138539   -1.6027728  0.086158427    -3.138539    1.5357662   470124 
 3860000    1.0969362   -3.1392885   -1.6027042  0.082713668   -3.1392885    1.5365843   470154 
 3861000      1.09626   -3.1366779   -1.6011259  0.088216255   -3.1366779     1.535552   470180 
 3862000    1.0964195   -3.1360606   -1.6003798  0.087026583   -3.1360606    1.5356808   470209 
 3863000    1.0991531   -3.1403824   -1.6009481  0.085759106   -3.1403824    1.5394343   470232 
 3864000    1.0961145   -3.1370209   -1.6018489  0.083836942   -3.1370209    1.5351719   470234 
 3865000    1.0965733   -3.1373233   -1.6016263  0.085398371   -3.1373233    1.5356969   470270 
 3866000    1.0956698   -3.1355876   -1.6012049  0.086261072   -3.1355876    1.5343828   470285 
 3867000    1.0950581   -3.1347284   -1.6012089  0.087807841   -3.1347284    1.5335195   470287 
 3868000    1.0954365   -3.1355402   -1.6015787   0.08433123   -3.1355402    1.5339615   470314 
 3869000    1.0952864   -3.1344641   -1.6007553  0.088065845   -3.1344641    1.5337088   470327 
 3870000    1.0945931   -3.1328296   -1.6001894  0.089654119   -3.1328296    1.5326402   470357 
 3871000     1.094958   -3.1348763   -1.6018033  0.087747744   -3.1348763     1.533073   470381 
 3872000    1.0950131   -3.1343451   -1.6013351  0.082635233   -3.1343451      1.53301   470424 
 3873000    1.0962308   -3.1359636   -1.6012914  0.084934936   -3.1359636    1.5346723   470437 
 3874000     1.096353   -3.1358145   -1.6012092  0.087201984   -3.1358145    1.5346053   470510 
 3875000    1.0957093   -3.1338186   -1.6002284  0.087946912   -3.1338186    1.5335901   470545 
 3876000    1.0954829   -3.1331113   -1.5999358  0.081876815   -3.1331113    1.5331755   470575 
 3877000    1.0968695    -3.133289   -1.5982577  0.087282596    -3.133289    1.5350313   470601 
 3878000    1.0950844   -3.1318385   -1.5993607  0.083943581   -3.1318385    1.5324778   470618 
 3879000    1.0967222   -3.1342969   -1.5996739  0.084025399   -3.1342969     1.534623   470663 
 3880000    1.0967148   -3.1346721    -1.600154   0.08952028   -3.1346721    1.5345181   470692 
 3881000    1.0979574   -3.1355886   -1.5994102  0.083180758   -3.1355886    1.5361785   470716 
 3882000    1.0966076   -3.1344587    -1.600247   0.08624152   -3.1344587    1.5342117   470740 
 3883000    1.0972925   -3.1343529   -1.5994243  0.088317373   -3.1343529    1.5349286   470814 
 3884000    1.0975057    -3.135388   -1.6002394  0.088258805    -3.135388    1.5351486   470838 
 3885000    1.0961517   -3.1332894   -1.6001161  0.090106761   -3.1332894    1.5331732   470863 
 3886000     1.096255   -3.1336087   -1.6004115  0.089282827   -3.1336087    1.5331972   470900 
 3887000    1.0972626   -3.1346576   -1.6001327  0.084434479   -3.1346576     1.534525   470925 
 3888000    1.0973102    -3.135011   -1.6006443  0.082219994    -3.135011    1.5343667   470994 
 3889000    1.0982879   -3.1351328   -1.5994315  0.089666595   -3.1351328    1.5357013   471004 
 3890000    1.0985622   -3.1353459   -1.5993328   0.09029633   -3.1353459    1.5360131   471026 
 3891000    1.0989953   -3.1369484   -1.6004864  0.086132871   -3.1369484    1.5364621   471074 
 3892000    1.1004332   -3.1377698   -1.5994281  0.083726176   -3.1377698    1.5383416   471114 
 3893000    1.1002865   -3.1373984   -1.5994119  0.086909349   -3.1373984    1.5379865   471160 
 3894000     1.099896   -3.1363307   -1.5990859  0.091051092   -3.1363307    1.5372449   471220 
 3895000    1.1014797   -3.1374572   -1.5980284  0.088023556   -3.1374572    1.5394288   471229 
 3896000      1.10146   -3.1367089   -1.5973957  0.086670444   -3.1367089    1.5393131   471256 
 3897000     1.101317   -3.1371083   -1.5980539  0.086422748   -3.1371083    1.5390544   471274 
 3898000    1.1004172   -3.1354534   -1.5977379  0.086785436   -3.1354534    1.5377155   471299 
 3899000    1.1003191   -3.1342541   -1.5967377  0.089870693   -3.1342541    1.5375164   471318 
 3900000    1.1004579   -3.1337848    -1.596068  0.086093889   -3.1337848    1.5377168   471316 
 3901000    1.0995471   -3.1349916   -1.5987333  0.084096023   -3.1349916    1.5362584   471373 
 3902000    1.0999538   -3.1351794   -1.5985419  0.083935302   -3.1351794    1.5366375   471431 
 3903000    1.0992039   -3.1338531   -1.5983869  0.090902671   -3.1338531    1.5354661   471469 
 3904000     1.099713   -3.1360734   -1.5999222  0.083893844   -3.1360734    1.5361513   471477 
 3905000    1.0987528   -3.1341933   -1.5994809  0.089253394   -3.1341933    1.5347124   471507 
 3906000    1.0981147   -3.1334304   -1.5996646  0.089808188   -3.1334304    1.5337658   471524 
 3907000    1.0985296   -3.1340979   -1.5998991  0.088262697   -3.1340979    1.5341989   471569 
 3908000    1.1007958   -3.1361365   -1.5988151  0.081987652   -3.1361365    1.5373214   471582 
 3909000    1.1004128   -3.1361676   -1.5994463  0.086397426   -3.1361676    1.5367213   471602 
 3910000    1.0994995   -3.1347606   -1.5994579   0.08708107   -3.1347606    1.5353027   471646 
 3911000    1.0999435   -3.1354219   -1.5995447  0.087416338   -3.1354219    1.5358772   471660 
 3912000    1.0980099   -3.1335711   -1.6004037  0.085145142   -3.1335711    1.5331674   471663 
 3913000    1.0999873   -3.1361089    -1.600291  0.086818904   -3.1361089    1.5358178   471697 
 3914000    1.0992494   -3.1336726   -1.5989176  0.090364848   -3.1336726     1.534755   471707 
 3915000    1.1013397   -3.1373216   -1.5997199  0.084514339   -3.1373216    1.5376018   471729 
 3916000    1.1017341    -3.135961   -1.5979163  0.085140505    -3.135961    1.5380447   471762 
 3917000    1.1010561   -3.1360248   -1.5989494  0.090265196   -3.1360248    1.5370754   471769 
 3918000     1.103279   -3.1390631   -1.5990053  0.087578423   -3.1390631    1.5400578   471806 
 3919000    1.1027373     -3.13759   -1.5984874  0.091323904     -3.13759    1.5391026   471867 
 3920000    1.1025385   -3.1379598   -1.5992129  0.093317663   -3.1379598    1.5387469   471891 
 3921000    1.1027162   -3.1381728   -1.5993148  0.086137144   -3.1381728     1.538858   471933 
 3922000    1.1045229   -3.1416075   -1.6003654   0.09160412   -3.1416075    1.5412421   471975 
 3923000    1.1030111   -3.1397912   -1.6008184  0.094566358   -3.1397912    1.5389727   472024 
 3924000    1.1021344   -3.1398066   -1.6021352  0.086788214   -3.1398066    1.5376714   472048 
 3925000    1.1031155   -3.1410133   -1.6020449  0.085361953   -3.1410133    1.5389684   472070 
 3926000    1.1030589   -3.1390652   -1.6003355   0.09010327   -3.1390652    1.5387297   472119 
 3927000    1.1023153   -3.1380151   -1.6003975  0.091742396   -3.1380151    1.5376176   472142 
 3928000    1.1017161   -3.1376958   -1.6011809  0.089270326   -3.1376958    1.5365149   472224 
 3929000    1.1013642   -3.1370292   -1.6011223  0.087080225   -3.1370292     1.535907   472260 
 3930000    1.1058012   -3.1419107   -1.5999206  0.084836851   -3.1419107    1.5419901   472292 
 3931000    1.1038694   -3.1391025   -1.5997834  0.089870048   -3.1391025    1.5393191   472285 
 3932000    1.1046951   -3.1394001    -1.599073  0.095212977   -3.1394001    1.5403271   472329 
 3933000    1.1041161   -3.1390469   -1.5995435  0.091113307   -3.1390469    1.5395035   472334 
 3934000    1.1043921   -3.1388563   -1.5990625   0.09148546   -3.1388563    1.5397937   472363 
 3935000    1.1026077   -3.1385005   -1.6014159  0.090765915   -3.1385005    1.5370846   472431 
 3936000    1.1028863   -3.1378053   -1.6005146  0.087297787   -3.1378053    1.5372907   472487 
 3937000    1.1023649   -3.1376134    -1.601134  0.082582699   -3.1376134    1.5364794   472513 
 3938000    1.1018715   -3.1363535   -1.6007047  0.084996709   -3.1363535    1.5356488   472557 
 3939000    1.1028489   -3.1372807   -1.6003511  0.090250723   -3.1372807    1.5369296   472582 
 3940000    1.1030955   -3.1369968   -1.5998081  0.082466864   -3.1369968    1.5371887   472608 
 3941000    1.1037045   -3.1384252   -1.6004986  0.087967795   -3.1384252    1.5379266   472642 
 3942000    1.1046401   -3.1392846   -1.6001812  0.083684296   -3.1392846    1.5391034   472681 
 3943000    1.1031077    -3.137096   -1.6001602  0.086420412    -3.137096    1.5369358   472691 
 3944000    1.1036768    -3.137956   -1.6002273  0.090147584    -3.137956    1.5377287   472691 
 3945000    1.1031241   -3.1368527   -1.5999819  0.088285021   -3.1368527    1.5368708   472718 
 3946000    1.1038686   -3.1382982   -1.6005429  0.085692296   -3.1382982    1.5377552   472765 
 3947000    1.1042751   -3.1379105    -1.599703  0.092487704   -3.1379105    1.5382075   472800 
 3948000    1.1025581   -3.1359169   -1.6001466  0.086953017   -3.1359169    1.5357703   472814 
 3949000    1.1019924   -3.1358725   -1.6009875   0.08665358   -3.1358725     1.534885   472844 
 3950000    1.1017227   -3.1355873   -1.6011655  0.088558031   -3.1355873    1.5344217   472871 
 3951000    1.1014942   -3.1344964   -1.6003637  0.089598936   -3.1344964    1.5341327   472862 
 3952000    1.1043773   -3.1380704   -1.6001661  0.080252144   -3.1380704    1.5379043   472937 
 3953000    1.1022773   -3.1363889   -1.6015227  0.084898187   -3.1363889    1.5348663   472972 
 3954000    1.1012109   -3.1360807   -1.6028938  0.087267649   -3.1360807    1.5331869   473032 
 3955000    1.1029575   -3.1378889   -1.6023156  0.088522303   -3.1378889    1.5355733   473046 
 3956000    1.1042852   -3.1377764   -1.6005301  0.092249281   -3.1377764    1.5372462   473100 
 3957000    1.1039801    -3.138057   -1.6013232  0.085405627    -3.138057    1.5367339   473127 
 3958000    1.1037198   -3.1370272    -1.600831  0.088304507   -3.1370272    1.5361962   473181 
 3959000    1.1057507   -3.1381598   -1.5990589  0.089803558   -3.1381598    1.5391009   473157 
 3960000     1.105889   -3.1380564   -1.5987761   0.08975143   -3.1380564    1.5392803   473161 
 3961000    1.1056426   -3.1388794   -1.5999844  0.085743382   -3.1388794    1.5388951   473174 
 3962000    1.1047322   -3.1377717    -1.600225  0.086294506   -3.1377717    1.5375467   473199 
 3963000     1.104377   -3.1370431   -1.6000265  0.088004317   -3.1370431    1.5370166   473210 
 3964000     1.104411   -3.1370584   -1.6000821  0.092003735   -3.1370584    1.5369763   473237 
 3965000     1.107774   -3.1414981    -1.599936  0.085498212   -3.1414981     1.541562   473266 
 3966000    1.1065279   -3.1394902   -1.5998184   0.09152292   -3.1394902    1.5396718   473314 
 3967000     1.107088   -3.1395453   -1.5991984   0.08680886   -3.1395453    1.5403469   473346 
 3968000    1.1043049    -3.136975   -1.6007209  0.087837326    -3.136975     1.536254   473414 
 3969000    1.1054767   -3.1372021   -1.5993375  0.091246263   -3.1372021    1.5378646   473420 
 3970000    1.1048003   -3.1372369   -1.6003944  0.088925397   -3.1372369    1.5368425   473445 
 3971000     1.103493   -3.1358294   -1.6008864  0.086357858   -3.1358294     1.534943   473470 
 3972000    1.1065711   -3.1386709   -1.5996155  0.083513357   -3.1386709    1.5390555   473522 
 3973000    1.1047449   -3.1368038   -1.6004861  0.081595729   -3.1368038    1.5363176   473583 
 3974000    1.1039154    -3.133834   -1.5987542  0.088510718    -3.133834    1.5350798   473609 
 3975000    1.1048647   -3.1355536   -1.5991601  0.080732831   -3.1355536    1.5363935   473611 
 3976000    1.1033067   -3.1338647   -1.5997512  0.083788699   -3.1338647    1.5341135   473646 
 3977000    1.1035563   -3.1338836   -1.5995072  0.083208784   -3.1338836    1.5343765   473672 
 3978000     1.104082   -3.1349175   -1.5999172  0.086107157   -3.1349175    1.5350003   473705 
 3979000    1.1052684   -3.1355136   -1.5989158  0.090539233   -3.1355136    1.5365979   473721 
 3980000    1.1039601   -3.1347719   -1.6001029  0.083308578   -3.1347719     1.534669   473755 
 3981000    1.1046483   -3.1349479   -1.5994001  0.084494563   -3.1349479    1.5355478   473779 
 3982000    1.1028758   -3.1330476   -1.6000382   0.08421224   -3.1330476    1.5330095   473802 
 3983000    1.1044479   -3.1353424   -1.6002351   0.08624209   -3.1353424    1.5351073   473829 
 3984000    1.1043737   -3.1357409   -1.6007789  0.088576662   -3.1357409     1.534962   473842 
 3985000    1.1048877   -3.1367794    -1.601265  0.080815832   -3.1367794    1.5355144   473892 
 3986000    1.1038226    -3.135553    -1.601726  0.084410123    -3.135553     1.533827   473956 
 3987000     1.105545   -3.1373957   -1.6012402  0.086385759   -3.1373957    1.5361555   473976 
 3988000    1.1060052   -3.1371739   -1.6005636   0.08094025   -3.1371739    1.5366103   474033 
 3989000    1.1063232   -3.1378326   -1.6008713  0.087879864   -3.1378326    1.5369613   474061 
 3990000    1.1065677   -3.1374583   -1.6003098  0.086187355   -3.1374583    1.5371486   474108 
 3991000     1.107644   -3.1388232   -1.6004327  0.083254026   -3.1388232    1.5383905   474186 
 3992000    1.1076222   -3.1395675    -1.601405  0.090366124   -3.1395675    1.5381624   474247 
 3993000    1.1094413   -3.1426506   -1.6020985  0.085701994   -3.1426506    1.5405521   474289 
 3994000    1.1078466    -3.141573   -1.6032937  0.086382811    -3.141573    1.5382793   474307 
 3995000    1.1076629   -3.1418253   -1.6038496  0.088071194   -3.1418253    1.5379757   474322 
 3996000    1.1066106   -3.1403722   -1.6040843  0.085552479   -3.1403722    1.5362879   474392 
 3997000    1.1067899   -3.1409177   -1.6045201  0.092006514   -3.1409177    1.5363975   474435 
 3998000    1.1080667   -3.1417896   -1.6038109  0.089289486   -3.1417896    1.5379787   474494 
 3999000    1.1073031   -3.1421806   -1.6053882  0.093306372   -3.1421806    1.5367924   474533 
 4000000    1.1091194   -3.1430115   -1.6037728  0.092194281   -3.1430115    1.5392387   474556 
 4001000    1.1094056   -3.1433565   -1.6038893  0.083816402   -3.1433565    1.5394671   474608 
 4002000     1.109293   -3.1449467   -1.6056974  0.087200303   -3.1449467    1.5392493   474627 
 4003000    1.1091287   -3.1444071   -1.6053956  0.092563044   -3.1444071    1.5390115   474630 
 4004000    1.1089348   -3.1445477   -1.6058829  0.088819191   -3.1445477    1.5386647   474654 
 4005000    1.1080957   -3.1432461   -1.6058039   0.09583201   -3.1432461    1.5374422   474672 
 4006000    1.1088368   -3.1447598   -1.6063899  0.091104883   -3.1447598    1.5383699   474703 
 4007000    1.1093117   -3.1464006    -1.607388  0.091850732   -3.1464006    1.5390126   474708 
 4008000    1.1097476   -3.1447025   -1.6051208  0.092115566   -3.1447025    1.5395817   474719 
 4009000    1.1108185   -3.1451069   -1.6042602  0.087162991   -3.1451069    1.5408467   474787 
 4010000    1.1099531   -3.1434005   -1.6038938  0.088022503   -3.1434005    1.5395067   474830 
 4011000    1.1097763   -3.1434125   -1.6042352  0.090361731   -3.1434125    1.5391773   474856 
 4012000    1.1109176   -3.1451501   -1.6045814    0.0883939   -3.1451501    1.5405687   474915 
 4013000    1.1096342   -3.1431053   -1.6044103  0.087499863   -3.1431053     1.538695   474944 
 4014000    1.1083987   -3.1410011   -1.6041131   0.08842257   -3.1410011    1.5368879   474973 
 4015000    1.1078958   -3.1402099   -1.6041711  0.090626871   -3.1402099    1.5360387   475020 
 4016000    1.1082174   -3.1403052    -1.603853  0.095086577   -3.1403052    1.5364522   475030 
 4017000    1.1100782   -3.1401212   -1.6012803  0.084096347   -3.1401212    1.5388409   475089 
 4018000    1.1092522   -3.1401399   -1.6024667  0.084491839   -3.1401399    1.5376732   475096 
 4019000    1.1088711   -3.1378233   -1.6008692  0.087700957   -3.1378233    1.5369541   475155 
 4020000    1.1088537   -3.1371854   -1.6003169  0.090175015   -3.1371854    1.5368685   475174 
 4021000    1.1095429   -3.1376219   -1.5999244  0.087197557   -3.1376219    1.5376975   475213 
 4022000    1.1081797   -3.1358385   -1.6001207  0.083909929   -3.1358385    1.5357178   475241 
 4023000    1.1078543   -3.1361483   -1.6009428  0.082543979   -3.1361483    1.5352054   475260 
 4024000     1.108864   -3.1356254   -1.5991275  0.085620325   -3.1356254     1.536498   475293 
 4025000    1.1075452   -3.1338115   -1.5991731  0.087772597   -3.1338115    1.5346384   475303 
 4026000    1.1063701   -3.1329781   -1.6001228  0.087893219   -3.1329781    1.5328552   475351 
 4027000      1.10834   -3.1340038    -1.598542  0.086089474   -3.1340038    1.5354617   475389 
 4028000    1.1106482   -3.1373831   -1.5987818  0.081299119   -3.1373831    1.5386013   475407 
 4029000    1.1070806   -3.1332087   -1.5995724  0.088804751   -3.1332087    1.5336363   475414 
 4030000    1.1080363   -3.1336885   -1.5987992  0.077065569   -3.1336885    1.5348893   475436 
 4031000    1.1078052    -3.134112   -1.5997268  0.083976831    -3.134112    1.5343852   475493 
 4032000    1.1074815   -3.1340052   -1.6003071  0.084435947   -3.1340052    1.5336982   475567 
 4033000     1.107572    -3.133882   -1.6001907  0.080731162    -3.133882    1.5336913   475608 
 4034000    1.1089288   -3.1352599   -1.5997995  0.084559899   -3.1352599    1.5354604   475642 
 4035000    1.1098045   -3.1358651   -1.5992374  0.081334883   -3.1358651    1.5366276   475656 
 4036000    1.1094622   -3.1372251   -1.6011361  0.080376268   -3.1372251     1.536089   475676 
 4037000    1.1102909   -3.1377974   -1.6007257  0.089777126   -3.1377974    1.5370717   475727 
 4038000     1.109889   -3.1376339   -1.6012381  0.095568123   -3.1376339    1.5363958   475764 
 4039000    1.1113686   -3.1396876   -1.6012048  0.089557125   -3.1396876    1.5384828   475752 
 4040000    1.1114476   -3.1403911   -1.6018896   0.09057852   -3.1403911    1.5385015   475780 
 4041000    1.1139997   -3.1435321   -1.6016599  0.087391807   -3.1435321    1.5418722   475830 
 4042000    1.1115891   -3.1414495   -1.6029493  0.088904118   -3.1414495    1.5385001   475841 
 4043000    1.1114377   -3.1414283   -1.6031959  0.090599295   -3.1414283    1.5382325   475859 
 4044000    1.1125201   -3.1428139   -1.6031869  0.092860041   -3.1428139     1.539627   475891 
 4045000    1.1126089   -3.1429499   -1.6033748  0.093442207   -3.1429499    1.5395751   475945 
 4046000    1.1122371   -3.1426101   -1.6035818  0.089720559   -3.1426101    1.5390284   475955 
 4047000    1.1131803    -3.145057   -1.6047817  0.084353998    -3.145057    1.5402753   475973 
 4048000     1.111595   -3.1439014   -1.6059586  0.088763423   -3.1439014    1.5379428   476016 
 4049000    1.1127041   -3.1455116   -1.6060343  0.091629255   -3.1455116    1.5394773   476016 
 4050000    1.1135118   -3.1451216    -1.604569  0.090898559   -3.1451216    1.5405526   476029 
 4051000    1.1130924   -3.1447971   -1.6048991  0.094656501   -3.1447971     1.539898   476052 
 4052000    1.1159816   -3.1474759   -1.6038207   0.08801242   -3.1474759    1.5436551   476126 
 4053000     1.114217   -3.1460887    -1.604923  0.092226342   -3.1460887    1.5411657   476141 
 4054000    1.1134213   -3.1456178   -1.6057241  0.088940012   -3.1456178    1.5398936   476194 
 4055000    1.1130448   -3.1453788   -1.6061255  0.088797424   -3.1453788    1.5392534   476231 
 4056000    1.1140364    -3.146895   -1.6063996  0.087037423    -3.146895    1.5404954   476271 
 4057000    1.1115616   -3.1420656   -1.6050764  0.089633241   -3.1420656    1.5369892   476297 
 4058000    1.1126773   -3.1433228    -1.604849     0.088407   -3.1433228    1.5384737   476315 
 4059000    1.1116601   -3.1413574   -1.6043642  0.094128325   -3.1413574    1.5369932   476338 
 4060000    1.1121203   -3.1418537    -1.604518  0.085880695   -3.1418537    1.5373357   476429 
 4061000    1.1120101   -3.1404292   -1.6032975  0.088702195   -3.1404292    1.5371318   476445 
 4062000    1.1129612   -3.1426841   -1.6044087  0.086275983   -3.1426841    1.5382754   476498 
 4063000     1.111806   -3.1414512   -1.6048951  0.085993639   -3.1414512    1.5365561   476536 
 4064000    1.1110531    -3.139021    -1.603528  0.084567314    -3.139021     1.535493   476543 
 4065000    1.1131777   -3.1414352   -1.6030479  0.084625889   -3.1414352    1.5383873   476556 
 4066000    1.1118948   -3.1393468    -1.602797  0.085663916   -3.1393468    1.5365498   476576 
 4067000    1.1121783   -3.1392102   -1.6023524  0.089553209   -3.1392102    1.5368578   476602 
 4068000    1.1113818   -3.1381956    -1.602606  0.084252854   -3.1381956    1.5355896   476654 
 4069000     1.112537   -3.1393764   -1.6022874  0.083763314   -3.1393764     1.537089   476684 
 4070000    1.1116878   -3.1369867   -1.6011225  0.083715768   -3.1369867    1.5358642   476700 
 4071000     1.111715    -3.136883   -1.6010263  0.083450397    -3.136883    1.5358567   476714 
 4072000    1.1113972   -3.1374457   -1.6021053  0.092670648   -3.1374457    1.5353404   476738 
 4073000    1.1130458   -3.1393803    -1.601827  0.086538718   -3.1393803    1.5375533   476758 
 4074000    1.1132198   -3.1396326     -1.60191  0.082802155   -3.1396326    1.5377226   476780 
 4075000    1.1122137   -3.1379879    -1.601729  0.088474982   -3.1379879    1.5362588   476803 
 4076000    1.1139838   -3.1381399   -1.5996394  0.085843098   -3.1381399    1.5385005   476866 
 4077000    1.1134023   -3.1380106   -1.6003389  0.082206672   -3.1380106    1.5376716   476874 
 4078000    1.1135078   -3.1377354   -1.6000309  0.085485675   -3.1377354    1.5377045   476909 
 4079000    1.1129257   -3.1377379   -1.6008534  0.085995361   -3.1377379    1.5368845   476914 
 4080000    1.1137263   -3.1392554   -1.6013331  0.083673695   -3.1392554    1.5379224   476935 
 4081000    1.1142072    -3.140031   -1.6014961   0.08862121    -3.140031    1.5385349   476951 
 4082000    1.1147693    -3.140335   -1.6010594  0.091154666    -3.140335    1.5392755   476962 
 4083000    1.1155839   -3.1400146   -1.5997048  0.086691192   -3.1400146    1.5403098   476990 
 4084000    1.1169606    -3.143884   -1.6017703  0.089406068    -3.143884    1.5421137   477020 
 4085000     1.115566   -3.1422922   -1.6021943  0.085814875   -3.1422922    1.5400979   477048 
 4086000    1.1142484   -3.1410578    -1.602766  0.083750827   -3.1410578    1.5382918   477044 
 4087000    1.1142101   -3.1415076   -1.6032719  0.086468392   -3.1415076    1.5382357   477045 
 4088000    1.1153726   -3.1446465   -1.6048802   0.08339669   -3.1446465    1.5397663   477068 
 4089000     1.112429   -3.1411101   -1.6053785  0.084773012   -3.1411101    1.5357316   477059 
 4090000    1.1134179   -3.1426489   -1.6056391  0.083227554   -3.1426489    1.5370099   477086 
 4091000    1.1139698   -3.1445249   -1.6068273  0.085384643   -3.1445249    1.5376976   477109 
 4092000    1.1121677   -3.1429663   -1.6077981  0.086191634   -3.1429663    1.5351682   477122 
 4093000    1.1128582   -3.1433951   -1.6074927  0.089689392   -3.1433951    1.5359024   477190 
 4094000     1.113636    -3.143132   -1.6063526  0.090432881    -3.143132    1.5367795   477251 
 4095000    1.1117526   -3.1412524   -1.6071781  0.086360452   -3.1412524    1.5340744   477284 
 4096000    1.1139951   -3.1439664   -1.6068588  0.089902845   -3.1439664    1.5371076   477303 
 4097000    1.1160308    -3.145427   -1.6055397  0.085719847    -3.145427    1.5398873   477312 
 4098000    1.1162045   -3.1447181   -1.6048039  0.083803409   -3.1447181    1.5399142   477378 
 4099000    1.1152157   -3.1435718   -1.6052184  0.085126588   -3.1435718    1.5383535   477439 
 4100000    1.1146626   -3.1436404   -1.6061111  0.090589418   -3.1436404    1.5375293   477458 
 4101000    1.1148294   -3.1428546   -1.6051306  0.086464658   -3.1428546    1.5377239   477469 
 4102000    1.1159288   -3.1445421   -1.6054242  0.086086831   -3.1445421    1.5391179   477507 
 4103000    1.1159286    -3.144451   -1.6054881  0.083855433    -3.144451    1.5389629   477555 
 4104000    1.1139672   -3.1414772   -1.6053223  0.089835223   -3.1414772    1.5361549   477587 
 4105000     1.114731   -3.1425373   -1.6054546  0.087347413   -3.1425373    1.5370828   477626 
 4106000    1.1148295   -3.1417233   -1.6046464  0.086055851   -3.1417233    1.5370769   477670 
 4107000    1.1143697   -3.1420619   -1.6057508  0.087706978   -3.1420619    1.5363111   477711 
 4108000    1.1160327    -3.143919   -1.6053216  0.086911962    -3.143919    1.5385974   477713 
 4109000    1.1145862   -3.1426495   -1.6061331  0.085724743   -3.1426495    1.5365164   477740 
 4110000    1.1155356   -3.1424278   -1.6046187  0.090145108   -3.1424278    1.5378091   477745 
 4111000    1.1169937   -3.1430377   -1.6032379  0.088671553   -3.1430377    1.5397998   477751 
 4112000    1.1167347   -3.1439731   -1.6046077  0.089833316   -3.1439731    1.5393654   477775 
 4113000    1.1155241   -3.1427495   -1.6051076  0.088642031   -3.1427495    1.5376419   477792 
 4114000    1.1160294   -3.1441382   -1.6059445  0.091226366   -3.1441382    1.5381936   477837 
 4115000    1.1154727   -3.1443023   -1.6069018  0.086823183   -3.1443023    1.5374005   477845 
 4116000    1.1154661   -3.1439441   -1.6066041  0.088688733   -3.1439441      1.53734   477861 
 4117000    1.1172954   -3.1461718   -1.6062752  0.084248884   -3.1461718    1.5398966   477850 
 4118000    1.1163645   -3.1461193   -1.6076988  0.089951348   -3.1461193    1.5384205   477910 
 4119000    1.1163152   -3.1459054   -1.6076656   0.08258977   -3.1459054    1.5382398   477945 
 4120000    1.1156151   -3.1451443   -1.6079817  0.090628094   -3.1451443    1.5371626   477980 
 4121000    1.1168141    -3.148017   -1.6092249  0.082478125    -3.148017    1.5387921   477987 
 4122000    1.1166621   -3.1466314   -1.6082323  0.088267765   -3.1466314    1.5383991   478044 
 4123000    1.1167266   -3.1460427   -1.6077026  0.092226842   -3.1460427    1.5383401   478090 
 4124000     1.117864   -3.1465443   -1.6068436  0.089592722   -3.1465443    1.5397007   478154 
 4125000    1.1157464   -3.1443123   -1.6075958  0.086778828   -3.1443123    1.5367165   478175 
 4126000    1.1175159   -3.1468239   -1.6077218  0.084556678   -3.1468239    1.5391021   478191 
 4127000    1.1165013   -3.1455772   -1.6080043  0.091348349   -3.1455772    1.5375729   478232 
 4128000      1.11636   -3.1459083   -1.6086617  0.082587011   -3.1459083    1.5372466   478273 
 4129000     1.117806   -3.1469478   -1.6079449  0.087828032   -3.1469478    1.5390029   478346 
 4130000    1.1173928   -3.1459603   -1.6076197  0.089742274   -3.1459603    1.5383406   478375 
 4131000    1.1169765   -3.1458329   -1.6082935  0.087985842   -3.1458329    1.5375394   478446 
 4132000    1.1176167   -3.1458725   -1.6074551  0.091047955   -3.1458725    1.5384174   478447 
 4133000    1.1188836   -3.1475819   -1.6074657  0.090809194   -3.1475819    1.5401163   478461 
 4134000    1.1165715   -3.1455247   -1.6086874  0.087792034   -3.1455247    1.5368373   478491 
 4135000    1.1198589   -3.1487073   -1.6075675  0.086015081   -3.1487073    1.5411398   478560 
 4136000    1.1170752   -3.1443675   -1.6071356  0.087062164   -3.1443675    1.5372319   478584 
 4137000    1.1178101   -3.1461497   -1.6079806  0.092050199   -3.1461497    1.5381692   478607 
 4138000    1.1183801   -3.1475122   -1.6085522  0.084222357   -3.1475122      1.53896   478605 
 4139000    1.1164481   -3.1452157   -1.6089753  0.084531745   -3.1452157    1.5362405   478624 
 4140000    1.1173735   -3.1465807   -1.6091375  0.080191498   -3.1465807    1.5374432   478646 
 4141000    1.1166889   -3.1457172   -1.6092706  0.087138677   -3.1457172    1.5364466   478663 
 4142000    1.1175206   -3.1474857   -1.6099526  0.088720285   -3.1474857    1.5375331   478681 
 4143000    1.1161913   -3.1449948   -1.6092457  0.089607531   -3.1449948    1.5357491   478667 
 4144000    1.1189749   -3.1468112   -1.6074186   0.08425828   -3.1468112    1.5393926   478725 
 4145000    1.1179266   -3.1448762   -1.6070094  0.090892533   -3.1448762    1.5378668   478751 
 4146000    1.1185083   -3.1463011   -1.6076374  0.088881355   -3.1463011    1.5386638   478752 
 4147000    1.1184965   -3.1461429   -1.6076431  0.083934629   -3.1461429    1.5384998   478798 
 4148000    1.1187939   -3.1480293   -1.6092908  0.086123095   -3.1480293    1.5387385   478851 
 4149000    1.1186531    -3.147647   -1.6091536  0.088917009    -3.147647    1.5384934   478867 
 4150000    1.1193201   -3.1472314   -1.6078624  0.088101267   -3.1472314    1.5393691   478880 
 4151000    1.1192201   -3.1478031   -1.6085459  0.093249221   -3.1478031    1.5392573   478872 
 4152000    1.1192896   -3.1485563   -1.6092261  0.083494866   -3.1485563    1.5393302   478879 
 4153000    1.1177028   -3.1458939    -1.608839  0.088153327   -3.1458939    1.5370549   478908 
 4154000    1.1184021   -3.1452223   -1.6073791  0.086006008   -3.1452223    1.5378431   478962 
 4155000    1.1189088   -3.1451206   -1.6067798  0.093577602   -3.1451206    1.5383408   479024 
 4156000    1.1179536   -3.1435809   -1.6067042   0.08919177   -3.1435809    1.5368767   479071 
 4157000    1.1192105   -3.1449226   -1.6064111  0.092696208   -3.1449226    1.5385115   479100 
 4158000    1.1191004   -3.1454018    -1.607048  0.083923171   -3.1454018    1.5383537   479102 
 4159000     1.118976   -3.1460664   -1.6079029  0.087265335   -3.1460664    1.5381635   479108 
 4160000    1.1194438   -3.1463981   -1.6076398  0.088482197   -3.1463981    1.5387583   479123 
 4161000     1.120113   -3.1474618   -1.6078801  0.087047992   -3.1474618    1.5395817   479153 
 4162000    1.1187505   -3.1459312    -1.608296  0.092343622   -3.1459312    1.5376352   479176 
 4163000    1.1193397   -3.1455522   -1.6071747  0.092816776   -3.1455522    1.5383776   479197 
 4164000    1.1202081   -3.1464867   -1.6069028  0.090691817   -3.1464867    1.5395839   479193 
 4165000    1.1187621   -3.1443135   -1.6067906  0.087151934   -3.1443135    1.5375229   479216 
 4166000    1.1201545   -3.1461445   -1.6068174  0.089856301   -3.1461445    1.5393272   479250 
 4167000     1.120423   -3.1467213   -1.6069481  0.091099584   -3.1467213    1.5397733   479226 
 4168000    1.1181551   -3.1431584   -1.6065628  0.091583642   -3.1431584    1.5365956   479245 
 4169000    1.1199612   -3.1452682   -1.6063095  0.090341637   -3.1452682    1.5389587   479282 
 4170000    1.1182741   -3.1434067   -1.6068656  0.091015734   -3.1434067    1.5365411   479313 
 4171000    1.1186411   -3.1445986   -1.6076943  0.089322934   -3.1445986    1.5369044   479357 
 4172000    1.1181588   -3.1452858   -1.6090826  0.087756626   -3.1452858    1.5362032   479369 
 4173000    1.1181921   -3.1425873    -1.606428  0.093150877   -3.1425873    1.5361593   479397 
 4174000    1.1183534   -3.1442763   -1.6079563  0.086923227   -3.1442763      1.53632   479416 
 4175000    1.1198163   -3.1456617   -1.6073514   0.08711696   -3.1456617    1.5383104   479422 
 4176000    1.1192461   -3.1462596   -1.6087422  0.087739792   -3.1462596    1.5375174   479425 
 4177000     1.119366   -3.1464434     -1.60879  0.086000266   -3.1464434    1.5376533   479434 
 4178000    1.1189984   -3.1451432   -1.6081744  0.089821114   -3.1451432    1.5369688   479490 
 4179000    1.1201664   -3.1462438   -1.6078825  0.083860784   -3.1462438    1.5383613   479556 
 4180000     1.120881   -3.1466872   -1.6074569  0.089318172   -3.1466872    1.5392304   479591 
 4181000    1.1198475   -3.1456251   -1.6078268  0.086583692   -3.1456251    1.5377983   479595 
 4182000    1.1212929   -3.1466573   -1.6069641  0.093550329   -3.1466573    1.5396933   479623 
 4183000    1.1201751   -3.1455662   -1.6075777  0.092844551   -3.1455662    1.5379884   479676 
 4184000    1.1198291   -3.1456786    -1.608255  0.086525971   -3.1456786    1.5374236   479704 
 4185000     1.121023   -3.1481167   -1.6090635  0.088522189   -3.1481167    1.5390532   479707 
 4186000    1.1214599   -3.1479372    -1.608326  0.089699072   -3.1479372    1.5396111   479720 
 4187000    1.1202469   -3.1468548   -1.6089185  0.090781133   -3.1468548    1.5379363   479723 
 4188000    1.1202852    -3.146288   -1.6084305  0.084338659    -3.146288    1.5378575   479764 
 4189000    1.1224354   -3.1503096   -1.6095454  0.088264929   -3.1503096    1.5407642   479778 
 4190000    1.1196039   -3.1460271   -1.6093003  0.085995987   -3.1460271    1.5367268   479825 
 4191000    1.1198877   -3.1462129   -1.6091799  0.090949937   -3.1462129    1.5370331   479851 
 4192000    1.1220985   -3.1485964    -1.608619  0.088115615   -3.1485964    1.5399774   479879 
 4193000    1.1205406    -3.147488   -1.6096966  0.090891378    -3.147488    1.5377914   479894 
 4194000     1.121741   -3.1487004   -1.6093772  0.087707081   -3.1487004    1.5393232   479930 
 4195000    1.1202752   -3.1463991   -1.6091386  0.085802066   -3.1463991    1.5372605   479946 
 4196000    1.1221733   -3.1485919   -1.6087203  0.086418128   -3.1485919    1.5398715   479944 
 4197000     1.121198   -3.1479383   -1.6094435  0.085685643   -3.1479383    1.5384948   479956 
 4198000      1.12103   -3.1469239   -1.6086854  0.088493943   -3.1469239    1.5382385   479964 
 4199000    1.1205457   -3.1464257   -1.6089382  0.089652684   -3.1464257    1.5374875   479991 
 4200000    1.1212674   -3.1468119   -1.6084559  0.092146363   -3.1468119     1.538356   480029 
 4201000    1.1222731   -3.1496092   -1.6099504  0.089227026   -3.1496092    1.5396588   480053 
 4202000    1.1212372   -3.1482822   -1.6102303  0.087374783   -3.1482822    1.5380519   480111 
 4203000     1.121607   -3.1473623   -1.6089025  0.088226698   -3.1473623    1.5384598   480142 
 4204000    1.1223168    -3.148728   -1.6093267  0.089399383    -3.148728    1.5394013   480152 
 4205000    1.1204746   -3.1473287    -1.610563  0.091937475   -3.1473287    1.5367657   480186 
 4206000    1.1209729   -3.1477612   -1.6104177  0.090541908   -3.1477612    1.5373435   480219 
 4207000      1.12122   -3.1484579   -1.6109388  0.087126193   -3.1484579     1.537519   480270 
 4208000    1.1228063   -3.1484544   -1.6089908   0.08936242   -3.1484544    1.5394636   480342 
 4209000    1.1239023   -3.1494115   -1.6085479  0.090326484   -3.1494115    1.5408637   480374 
 4210000     1.123668     -3.14855   -1.6081648  0.088088139     -3.14855    1.5403853   480423 
 4211000    1.1225632   -3.1461873   -1.6073614    0.0887477   -3.1461873    1.5388259   480437 
 4212000    1.1224167   -3.1464862   -1.6078419  0.091165866   -3.1464862    1.5386443   480431 
 4213000    1.1226323   -3.1472854   -1.6084128  0.085121583   -3.1472854    1.5388726   480452 
 4214000    1.1250708   -3.1499243   -1.6079755  0.087844085   -3.1499243    1.5419488   480535 
 4215000    1.1219183   -3.1459826   -1.6083256  0.089084107   -3.1459826     1.537657   480526 
 4216000    1.1235079   -3.1476359   -1.6078066  0.088908249   -3.1476359    1.5398292   480528 
 4217000    1.1233577   -3.1468459    -1.607261  0.086177663   -3.1468459    1.5395849   480540 
 4218000     1.123041   -3.1467551   -1.6077964  0.089732373   -3.1467551    1.5389587   480600 
 4219000    1.1225042   -3.1453299   -1.6072348  0.087514267   -3.1453299    1.5380951   480640 
 4220000    1.1214276   -3.1448183   -1.6082303  0.084906262   -3.1448183     1.536588   480650 
 4221000    1.1209424   -3.1443861   -1.6085717  0.081295398   -3.1443861    1.5358145   480684 
 4222000    1.1204205    -3.143733   -1.6087677  0.085832781    -3.143733    1.5349653   480726 
 4223000    1.1208063   -3.1438793   -1.6084079  0.080255913   -3.1438793    1.5354714   480733 
 4224000    1.1210615   -3.1440875   -1.6083111   0.09217698   -3.1440875    1.5357764   480747 
 4225000    1.1209609     -3.14454   -1.6090165  0.087658788     -3.14454    1.5355236   480783 
 4226000    1.1205426    -3.144879   -1.6099859  0.087359984    -3.144879    1.5348931   480801 
 4227000    1.1204105   -3.1449761   -1.6102926  0.084583812   -3.1449761    1.5346835   480810 
 4228000    1.1208282   -3.1446778   -1.6094476  0.082360023   -3.1446778    1.5352301   480818 
 4229000    1.1206906   -3.1438672   -1.6089469  0.085201888   -3.1438672    1.5349203   480856 
 4230000    1.1217793   -3.1455469   -1.6090972  0.082452955   -3.1455469    1.5364497   480844 
 4231000     1.121648   -3.1450575   -1.6088835  0.081927503   -3.1450575     1.536174   480874 
 4232000    1.1216876   -3.1459087   -1.6096804  0.080070428   -3.1459087    1.5362283   480874 
 4233000    1.1201854   -3.1442478   -1.6102108  0.082756057   -3.1442478     1.534037   480916 
 4234000    1.1203659   -3.1446457   -1.6104669  0.083259091   -3.1446457    1.5341788   480949 
 4235000    1.1229127   -3.1480135   -1.6103824  0.085960423   -3.1480135    1.5376311   480960 
 4236000    1.1213907   -3.1447364   -1.6092628  0.091829795   -3.1447364    1.5354736   480983 
 4237000    1.1216759   -3.1464309   -1.6105604  0.085900053   -3.1464309    1.5358704   480981 
 4238000    1.1219801   -3.1469879   -1.6107647   0.08753806   -3.1469879    1.5362232   481001 
 4239000     1.122602   -3.1486531   -1.6117445  0.090172322   -3.1486531    1.5369085   481053 
 4240000    1.1225314   -3.1476813   -1.6109813  0.094459528   -3.1476813       1.5367   481088 
 4241000    1.1240852   -3.1506965   -1.6118247  0.087891743   -3.1506965    1.5388719   481074 
 4242000    1.1239323   -3.1501693   -1.6115931  0.084060545   -3.1501693    1.5385762   481101 
 4243000    1.1252262   -3.1505551   -1.6103036  0.094031047   -3.1505551    1.5402515   481131 
 4244000    1.1250438   -3.1503982   -1.6104477  0.086513996   -3.1503982    1.5399506   481147 
 4245000      1.12516    -3.150706   -1.6107436  0.087986347    -3.150706    1.5399624   481193 
 4246000    1.1245814   -3.1511472   -1.6121238  0.090492322   -3.1511472    1.5390234   481239 
 4247000    1.1244631   -3.1502168   -1.6113681  0.089287213   -3.1502168    1.5388487   481243 
 4248000    1.1249193    -3.150863   -1.6115531  0.091317124    -3.150863    1.5393099   481294 
 4249000    1.1246729   -3.1501123   -1.6113058  0.088341794   -3.1501123    1.5388065   481346 
 4250000    1.1240956    -3.150342   -1.6124405  0.092116055    -3.150342    1.5379015   481382 
 4251000     1.121999   -3.1479254   -1.6130165  0.088161769   -3.1479254    1.5349088   481421 
 4252000    1.1243609   -3.1504345   -1.6123841  0.083926394   -3.1504345    1.5380504   481449 
 4253000    1.1245663   -3.1513478   -1.6130292  0.088192701   -3.1513478    1.5383186   481453 
 4254000    1.1232646   -3.1501666   -1.6135393  0.084351453   -3.1501666    1.5366273   481425 
 4255000    1.1227086   -3.1496788   -1.6138759  0.083998431   -3.1496788    1.5358029   481445 
 4256000     1.123463   -3.1496725   -1.6129812  0.087599627   -3.1496725    1.5366914   481490 
 4257000    1.1228738   -3.1483692   -1.6126274  0.084155739   -3.1483692    1.5357418   481535 
 4258000    1.1235306   -3.1502162   -1.6136909  0.079992998   -3.1502162    1.5365253   481571 
 4259000    1.1220625    -3.148126   -1.6137678  0.085167735    -3.148126    1.5343582   481621 
 4260000    1.1216899   -3.1472458   -1.6134386  0.083336844   -3.1472458    1.5338073   481634 
 4261000    1.1226457   -3.1481185   -1.6130998  0.083531676   -3.1481185    1.5350186   481664 
 4262000    1.1213794   -3.1465378   -1.6133939   0.08555389   -3.1465378    1.5331439   481709 
 4263000    1.1232074   -3.1484431   -1.6128573  0.083318555   -3.1484431    1.5355858   481727 
 4264000    1.1244975    -3.149771    -1.612549   0.08450431    -3.149771     1.537222   481767 
 4265000    1.1240648   -3.1489267    -1.612376  0.087572826   -3.1489267    1.5365507   481792 
 4266000    1.1253757   -3.1502772   -1.6120846  0.083464929   -3.1502772    1.5381926   481839 
 4267000    1.1255129   -3.1501812   -1.6119607  0.086563076   -3.1501812    1.5382205   481889 
 4268000    1.1244871   -3.1479183   -1.6111955  0.090188776   -3.1479183    1.5367229   481919 
 4269000    1.1264133   -3.1507329   -1.6115054   0.08587639   -3.1507329    1.5392275   481959 
 4270000    1.1269656   -3.1515798    -1.611572   0.08574611   -3.1515798    1.5400078   481951 
 4271000    1.1254509   -3.1501236   -1.6123803  0.081933968   -3.1501236    1.5377433   482012 
 4272000    1.1259287   -3.1505386   -1.6122382  0.088720573   -3.1505386    1.5383003   482042 
 4273000    1.1258991   -3.1510618    -1.612955  0.089852881   -3.1510618    1.5381068   482090 
 4274000    1.1262196   -3.1517739   -1.6132325  0.084866682   -3.1517739    1.5385414   482091 
 4275000    1.1253905   -3.1519016   -1.6144418  0.088637663   -3.1519016    1.5374598   482075 
 4276000    1.1248149   -3.1504865   -1.6138736  0.087204751   -3.1504865    1.5366129   482094 
 4277000    1.1246378    -3.151473   -1.6152455  0.084614379    -3.151473    1.5362275   482139 
 4278000    1.1258582   -3.1509706   -1.6131557   0.09130569   -3.1509706    1.5378149   482164 
 4279000    1.1257829   -3.1497012   -1.6121231  0.084009854   -3.1497012    1.5375781   482206 
 4280000    1.1260274   -3.1519114   -1.6141493  0.092145279   -3.1519114    1.5377621   482253 
 4281000    1.1267898   -3.1530614   -1.6143921  0.082942098   -3.1530614    1.5386692   482295 
 4282000    1.1250134   -3.1504381   -1.6142232  0.081717095   -3.1504381    1.5362148   482304 
 4283000    1.1262046   -3.1516973   -1.6139834  0.089818786   -3.1516973    1.5377139   482344 
 4284000    1.1270828   -3.1530392   -1.6142634  0.085635133   -3.1530392    1.5387758   482387 
 4285000    1.1272919   -3.1528398    -1.613855  0.088987231   -3.1528398    1.5389848   482411 
 4286000    1.1258724   -3.1504009   -1.6134083    0.0880906   -3.1504009    1.5369926   482428 
 4287000    1.1241466   -3.1474409   -1.6129091  0.089394831   -3.1474409    1.5345318   482461 
 4288000    1.1244731   -3.1474229   -1.6125728  0.089072616   -3.1474229    1.5348501   482501 
 4289000    1.1267464   -3.1508805   -1.6129337  0.086002333   -3.1508805    1.5379467   482503 
 4290000    1.1255696   -3.1503512   -1.6141063  0.080011914   -3.1503512    1.5362449   482533 
 4291000    1.1247465   -3.1486731    -1.613577  0.083215988   -3.1486731    1.5350961   482541 
 4292000    1.1251809   -3.1478337   -1.6123134  0.083615228   -3.1478337    1.5355202   482594 
 4293000    1.1254418   -3.1468791   -1.6111745  0.083389377   -3.1468791    1.5357045   482648 
 4294000    1.1260949   -3.1485655   -1.6121193  0.081328871   -3.1485655    1.5364461   482695 
 4295000    1.1260012   -3.1484388   -1.6122511  0.085216563   -3.1484388    1.5361877   482736 
 4296000    1.1261889   -3.1482424   -1.6118845  0.083410933   -3.1482424    1.5363579   482763 
 4297000    1.1255186   -3.1475487   -1.6121402  0.082526777   -3.1475487    1.5354085   482774 
 4298000    1.1267764   -3.1487507   -1.6117697   0.08521881   -3.1487507     1.536981   482819 
 4299000    1.1253433   -3.1463243   -1.6112854  0.084451725   -3.1463243    1.5350389   482815 
 4300000    1.1245283   -3.1454488   -1.6115406  0.085636233   -3.1454488    1.5339082   482821 
 4301000    1.1256985   -3.1466113   -1.6111292  0.084707247   -3.1466113    1.5354821   482828 
 4302000    1.1267333    -3.148343   -1.6116308  0.086811051    -3.148343    1.5367122   482885 
 4303000    1.1267565   -3.1480369   -1.6113948  0.084504148   -3.1480369    1.5366421   482917 
 4304000    1.1273511   -3.1498428   -1.6125459  0.084712599   -3.1498428    1.5372969   482966 
 4305000    1.1263643   -3.1480898   -1.6122625  0.081871691   -3.1480898    1.5358273   483005 
 4306000    1.1263392   -3.1498494   -1.6140468  0.080325146   -3.1498494    1.5358026   483002 
 4307000    1.1256029   -3.1479556   -1.6132904  0.082533191   -3.1479556    1.5346652   483044 
 4308000    1.1265285   -3.1488576   -1.6131086  0.084492023   -3.1488576    1.5357491   483100 
 4309000    1.1276054   -3.1505967   -1.6135291  0.083605527   -3.1505967    1.5370676   483147 
 4310000    1.1260216   -3.1470255   -1.6122501   0.09126588   -3.1470255    1.5347753   483189 
 4311000    1.1269062   -3.1481548   -1.6122977  0.081841766   -3.1481548    1.5358572   483228 
 4312000    1.1289208   -3.1506702    -1.612303  0.086729436   -3.1506702    1.5383673   483302 
 4313000    1.1287497   -3.1507955   -1.6128492  0.085103955   -3.1507955    1.5379463   483361 
 4314000    1.1279919   -3.1493781   -1.6125629   0.08989741   -3.1493781    1.5368152   483392 
 4315000    1.1298786   -3.1517264   -1.6123503  0.087311832   -3.1517264    1.5393761   483395 
 4316000    1.1287669   -3.1518625   -1.6140615  0.086652461   -3.1518625    1.5378011   483414 
 4317000    1.1283799   -3.1510133    -1.613749  0.090036676   -3.1510133    1.5372644   483417 
 4318000    1.1291583   -3.1531967   -1.6150629  0.086298519   -3.1531967    1.5381339   483477 
 4319000    1.1291741   -3.1533421   -1.6152502  0.086116678   -3.1533421    1.5380918   483497 
 4320000    1.1271752   -3.1505307   -1.6152221  0.092269534   -3.1505307    1.5353086   483516 
 4321000    1.1280612   -3.1523283   -1.6159622   0.08190567   -3.1523283    1.5363661   483563 
 4322000    1.1265732   -3.1512468   -1.6171009  0.081546763   -3.1512468     1.534146   483624 
 4323000    1.1290149   -3.1541011   -1.6167127  0.083556243   -3.1541011    1.5373884   483650 
 4324000    1.1286349   -3.1532869   -1.6165556  0.081399161   -3.1532869    1.5367313   483694 
 4325000    1.1288739   -3.1552213    -1.618222  0.088064123   -3.1552213    1.5369994   483712 
 4326000    1.1277037   -3.1542977   -1.6190058  0.081523676   -3.1542977    1.5352919   483748 
 4327000    1.1280769   -3.1530107   -1.6174456  0.087313057   -3.1530107    1.5355651   483822 
 4328000    1.1304681    -3.155142   -1.6163347  0.084449671    -3.155142    1.5388073   483826 
 4329000    1.1300448    -3.155608   -1.6174723  0.091638855    -3.155608    1.5381357   483856 
 4330000    1.1291104   -3.1542598   -1.6174784   0.09030277   -3.1542598    1.5367813   483882 
 4331000    1.1302055   -3.1552643   -1.6171769  0.088654692   -3.1552643    1.5380874   483940 
 4332000    1.1309725   -3.1558585   -1.6168322  0.088543415   -3.1558585    1.5390263   483973 
 4333000    1.1323925   -3.1571989   -1.6163803  0.085859067   -3.1571989    1.5408185   484017 
 4334000    1.1307817   -3.1562541   -1.6177417  0.090512865   -3.1562541    1.5385124   484053 
 4335000    1.1294226   -3.1541207   -1.6176606  0.085536148   -3.1541207      1.53646   484117 
 4336000    1.1310821   -3.1563912   -1.6177244  0.086080845   -3.1563912    1.5386668   484133 
 4337000    1.1318806   -3.1564596   -1.6169387   0.08718633   -3.1564596    1.5395209   484206 
 4338000     1.128781   -3.1525809   -1.6173012  0.090847512   -3.1525809    1.5352797   484214 
 4339000    1.1307196   -3.1550196   -1.6171795  0.085814095   -3.1550196    1.5378401   484238 
 4340000    1.1307946   -3.1558879   -1.6179141  0.090934255   -3.1558879    1.5379738   484228 
 4341000     1.132032   -3.1569321   -1.6172721  0.091222634   -3.1569321      1.53966   484227 
 4342000    1.1330293   -3.1580781   -1.6171094  0.079524944   -3.1580781    1.5409687   484242 
 4343000    1.1310948   -3.1556649   -1.6173145  0.088033594   -3.1556649    1.5383504   484238 
 4344000    1.1311147   -3.1563797   -1.6182087   0.08495437   -3.1563797     1.538171   484303 
 4345000    1.1318358   -3.1563021   -1.6172967  0.085220977   -3.1563021    1.5390054   484349 
 4346000    1.1324378    -3.156579   -1.6169235  0.089821719    -3.156579    1.5396555   484402 
 4347000    1.1305283   -3.1533143   -1.6164104  0.092355228   -3.1533143    1.5369039   484451 
 4348000    1.1329794   -3.1557415   -1.6156231  0.084426824   -3.1557415    1.5401184   484488 
 4349000    1.1308938   -3.1528397   -1.6155816  0.089743601   -3.1528397     1.537258   484496 
 4350000     1.132168   -3.1547155   -1.6158494  0.091654792   -3.1547155    1.5388661   484535 
 4351000    1.1316338   -3.1533509   -1.6152776  0.087682767   -3.1533509    1.5380734   484556 
 4352000    1.1319042    -3.154477   -1.6162298  0.086773462    -3.154477    1.5382472   484617 
 4353000    1.1299569   -3.1518317   -1.6163607  0.090686121   -3.1518317     1.535471   484658 
 4354000    1.1323106   -3.1551235   -1.6166668  0.087482411   -3.1551235    1.5384568   484725 
 4355000    1.1312798   -3.1532016   -1.6162531  0.086610157   -3.1532016    1.5369485   484759 
 4356000    1.1307594   -3.1520006    -1.615813  0.088816048   -3.1520006    1.5361876   484776 
 4357000    1.1322278   -3.1538996    -1.615749  0.091352361   -3.1538996    1.5381506   484786 
 4358000    1.1323083   -3.1541691   -1.6159662  0.087812974   -3.1541691    1.5382028   484804 
 4359000    1.1315127   -3.1547255   -1.6177112  0.083097479   -3.1547255    1.5370143   484838 
 4360000    1.1320079   -3.1558309   -1.6180868  0.083841245   -3.1558309    1.5377441   484820 
 4361000    1.1304484   -3.1538434   -1.6184299   0.08611416   -3.1538434    1.5354134   484887 
 4362000    1.1314445     -3.15483   -1.6180478  0.084269284     -3.15483    1.5367822   484882 
 4363000    1.1306237   -3.1537112   -1.6181326  0.090564467   -3.1537112    1.5355786   484910 
 4364000    1.1323171   -3.1558236   -1.6180465  0.086364351   -3.1558236    1.5377771   484942 
 4365000     1.130643   -3.1529905    -1.617414  0.087705689   -3.1529905    1.5355764   484919 
 4366000    1.1330088   -3.1575344   -1.6187607  0.085455083   -3.1575344    1.5387736   484924 
 4367000    1.1314931   -3.1555478    -1.618931   0.08271123   -3.1555478    1.5366168   484955 
 4368000    1.1340434   -3.1587404   -1.6188379   0.08762295   -3.1587404    1.5399025   485011 
 4369000    1.1308908    -3.154649   -1.6191129  0.092356479    -3.154649    1.5355361   485038 
 4370000    1.1330394   -3.1569015   -1.6185368  0.084695107   -3.1569015    1.5383647   485066 
 4371000    1.1318038    -3.155413   -1.6188336  0.086929087    -3.155413    1.5365793   485100 
 4372000    1.1319227   -3.1566079   -1.6199589  0.087957383   -3.1566079     1.536649   485129 
 4373000    1.1335075   -3.1585279   -1.6199082  0.083834752   -3.1585279    1.5386197   485186 
 4374000    1.1358977   -3.1627152    -1.620991  0.081252706   -3.1627152    1.5417242   485230 
 4375000    1.1350261   -3.1610191   -1.6206365  0.092869623   -3.1610191    1.5403826   485280 
 4376000    1.1350775    -3.161413   -1.6210909  0.089535461    -3.161413    1.5403221   485321 
 4377000     1.133929   -3.1602455   -1.6215263   0.09064858   -3.1602455    1.5387192   485335 
 4378000    1.1344539   -3.1606763   -1.6214351  0.087445319   -3.1606763    1.5392412   485395 
 4379000    1.1331084   -3.1590825   -1.6217239  0.091225067   -3.1590825    1.5373586   485413 
 4380000    1.1356178   -3.1605523   -1.6198556  0.089797617   -3.1605523    1.5406967   485434 
 4381000    1.1345444    -3.159693   -1.6205446  0.084747266    -3.159693    1.5391484   485463 
 4382000    1.1352513   -3.1606602   -1.6206384  0.084754577   -3.1606602    1.5400218   485490 
 4383000    1.1346689   -3.1599205   -1.6207586  0.087779996   -3.1599205    1.5391619   485512 
 4384000    1.1349134   -3.1603586   -1.6210394  0.091275351   -3.1603586    1.5393192   485567 
 4385000    1.1353704   -3.1609785   -1.6211218  0.086968738   -3.1609785    1.5398566   485593 
 4386000    1.1346551   -3.1607702   -1.6219472  0.090156924   -3.1607702    1.5388231   485613 
 4387000    1.1354242   -3.1590904   -1.6191863  0.095903733   -3.1590904    1.5399042   485601 
 4388000    1.1348801   -3.1586701   -1.6195925  0.095003646   -3.1586701    1.5390776   485629 
 4389000    1.1372389   -3.1623078   -1.6200821   0.08984352   -3.1623078    1.5422257   485645 
 4390000    1.1343677    -3.159409    -1.621172  0.087094554    -3.159409     1.538237   485675 
 4391000    1.1351694   -3.1614523   -1.6222866  0.089260513   -3.1614523    1.5391657   485725 
 4392000    1.1337512   -3.1590653   -1.6218448  0.086551442   -3.1590653    1.5372205   485732 
 4393000    1.1351989   -3.1598741   -1.6207478  0.090483432   -3.1598741    1.5391263   485750 
 4394000    1.1358042   -3.1594773   -1.6196539  0.093153392   -3.1594773    1.5398234   485789 
 4395000    1.1332574   -3.1565746   -1.6203462  0.086911239   -3.1565746    1.5362284   485834 
 4396000    1.1344934   -3.1586764   -1.6208484  0.086678571   -3.1586764     1.537828   485858 
 4397000     1.135374   -3.1589174   -1.6199592  0.091492541   -3.1589174    1.5389582   485878 
 4398000    1.1348469   -3.1573772   -1.6192695  0.087734279   -3.1573772    1.5381077   485921 
 4399000    1.1353724   -3.1585163   -1.6198199  0.086426852   -3.1585163    1.5386964   485960 
 4400000    1.1345383   -3.1574697   -1.6200176  0.090277232   -3.1574697    1.5374521   485996 
 4401000    1.1342607    -3.156973   -1.6199824  0.088384763    -3.156973    1.5369906   486023 
 4402000    1.1338343   -3.1557263   -1.6194653  0.088883222   -3.1557263     1.536261   486071 
 4403000    1.1342385   -3.1563958   -1.6196883  0.089201431   -3.1563958    1.5367075   486103 
 4404000    1.1342082   -3.1573971   -1.6209235  0.092984425   -3.1573971    1.5364736   486164 
 4405000    1.1336331   -3.1576091    -1.622044  0.087256524   -3.1576091    1.5355651   486205 
 4406000    1.1345482   -3.1582169   -1.6216272  0.085710119   -3.1582169    1.5365897   486273 
 4407000    1.1350168   -3.1581439   -1.6209796  0.086783553   -3.1581439    1.5371643   486292 
 4408000    1.1361834   -3.1590836   -1.6204911  0.087199014   -3.1590836    1.5385924   486340 
 4409000    1.1354925   -3.1574528   -1.6199319  0.089634526   -3.1574528    1.5375208   486383 
 4410000    1.1340468   -3.1564944     -1.62107   0.09134181   -3.1564944    1.5354244   486427 
 4411000    1.1356213    -3.157392   -1.6199085  0.089371931    -3.157392    1.5374834   486450 
 4412000    1.1364034   -3.1578203   -1.6193159  0.090415699   -3.1578203    1.5385044   486462 
 4413000    1.1352317   -3.1569925    -1.620185  0.086387843   -3.1569925    1.5368075   486497 
 4414000    1.1358761   -3.1575516   -1.6199571  0.088872809   -3.1575516    1.5375945   486524 
 4415000      1.13684   -3.1590601   -1.6202336  0.087933559   -3.1590601    1.5388266   486547 
 4416000    1.1381257   -3.1607004   -1.6202918  0.084031069   -3.1607004    1.5404086   486597 
 4417000    1.1362686   -3.1583923   -1.6205699  0.085400103   -3.1583923    1.5378224   486620 
 4418000    1.1372287   -3.1594104   -1.6204183  0.090364996   -3.1594104    1.5389921   486661 
 4419000    1.1357731   -3.1588282   -1.6218722  0.091799292   -3.1588282     1.536956   486682 
 4420000    1.1369351   -3.1606059   -1.6220838  0.084189366   -3.1606059    1.5385221   486684 
 4421000    1.1371142   -3.1601271   -1.6213311  0.089620282   -3.1601271    1.5387961   486674 
 4422000    1.1377612    -3.160698   -1.6211877  0.092689101    -3.160698    1.5395103   486725 
 4423000    1.1375998     -3.16217   -1.6229951  0.087366099     -3.16217    1.5391749   486762 
 4424000    1.1373106    -3.162197   -1.6234102  0.090069032    -3.162197    1.5387868   486761 
 4425000    1.1359812   -3.1602167   -1.6233297  0.085891794   -3.1602167     1.536887   486793 
 4426000    1.1362006   -3.1620919   -1.6250311  0.083189555   -3.1620919    1.5370608   486832 
 4427000    1.1377148   -3.1636106    -1.624612  0.083967258   -3.1636106    1.5389985   486867 
 4428000    1.1363132   -3.1622457   -1.6252157  0.082283387   -3.1622457      1.53703   486890 
 4429000    1.1381849   -3.1637582   -1.6243704  0.091286492   -3.1637582    1.5393878   486945 
 4430000    1.1380117   -3.1623253   -1.6232444  0.085635806   -3.1623253    1.5390809   486968 
 4431000     1.137929      -3.1627   -1.6238194  0.086153577      -3.1627    1.5388806   486996 
 4432000    1.1390575   -3.1644051    -1.624163  0.088108323   -3.1644051    1.5402421   487048 
 4433000    1.1376758   -3.1622056   -1.6238412  0.087800442   -3.1622056    1.5383644   487051 
 4434000    1.1395118   -3.1648706   -1.6241912  0.092077475   -3.1648706    1.5406794   487104 
 4435000    1.1386777   -3.1639593   -1.6244803  0.089240893   -3.1639593    1.5394789   487127 
 4436000    1.1395252   -3.1637671   -1.6233194  0.094744165   -3.1637671    1.5404477   487183 
 4437000    1.1403003   -3.1653147   -1.6238794  0.090404134   -3.1653147    1.5414353   487202 
 4438000    1.1388984   -3.1636793   -1.6240854  0.092219861   -3.1636793     1.539594   487185 
 4439000    1.1390836   -3.1638504    -1.624101  0.086239226   -3.1638504    1.5397495   487215 
 4440000    1.1386988   -3.1621673   -1.6230769  0.091239022   -3.1621673    1.5390904   487259 
 4441000    1.1380223   -3.1609083   -1.6228869  0.092061619   -3.1609083    1.5380214   487308 
 4442000    1.1381077   -3.1624395   -1.6243942  0.088419349   -3.1624395    1.5380453   487337 
 4443000    1.1379623    -3.162637   -1.6249177  0.085313923    -3.162637    1.5377194   487378 
 4444000    1.1379432   -3.1624238   -1.6247965  0.081965097   -3.1624238    1.5376273   487399 
 4445000    1.1398267   -3.1641125   -1.6240444  0.079056779   -3.1641125    1.5400681   487432 
 4446000    1.1382873   -3.1619792   -1.6240794  0.089891034   -3.1619792    1.5378998   487460 
 4447000    1.1364042   -3.1600173   -1.6247089  0.083445957   -3.1600173    1.5353084   487475 
 4448000    1.1374808   -3.1603218   -1.6236408  0.087207271   -3.1603218    1.5366809   487501 
 4449000    1.1385242   -3.1611362   -1.6229447  0.090354472   -3.1611362    1.5381914   487469 
 4450000    1.1372655   -3.1581784   -1.6217473  0.084471971   -3.1581784    1.5364311   487488 
 4451000    1.1375491   -3.1588626   -1.6220894  0.082305928   -3.1588626    1.5367732   487501 
 4452000    1.1383825   -3.1585002   -1.6207715  0.086793839   -3.1585002    1.5377287   487555 
 4453000    1.1382934   -3.1585405   -1.6209637  0.092669234   -3.1585405    1.5375768   487565 
 4454000    1.1402756   -3.1614203   -1.6211975  0.088580958   -3.1614203    1.5402227   487575 
 4455000    1.1383132   -3.1580385   -1.6205484  0.087119021   -3.1580385    1.5374901   487601 
 4456000    1.1389369   -3.1586971   -1.6205255  0.085221884   -3.1586971    1.5381717   487652 
 4457000    1.1368954   -3.1568807   -1.6216204  0.089227502   -3.1568807    1.5352603   487701 
 4458000    1.1381899   -3.1583253   -1.6213107  0.082467322   -3.1583253    1.5370146   487699 
 4459000     1.138732   -3.1582389   -1.6205617  0.083044674   -3.1582389    1.5376773   487721 
 4460000     1.138904   -3.1583724   -1.6204912  0.088193013   -3.1583724    1.5378812   487730 
 4461000    1.1390158    -3.158833   -1.6207725  0.090479743    -3.158833    1.5380605   487721 
 4462000    1.1397654    -3.160335   -1.6212118  0.079582659    -3.160335    1.5391232   487705 
 4463000    1.1389084   -3.1583698   -1.6205615  0.085413415   -3.1583698    1.5378082   487755 
 4464000    1.1401383   -3.1598971    -1.620548   0.08546137   -3.1598971     1.539349   487793 
 4465000    1.1390544   -3.1587275   -1.6209049  0.087250438   -3.1587275    1.5378226   487813 
 4466000    1.1408018   -3.1602013   -1.6200354  0.089430142   -3.1602013    1.5401659   487818 
 4467000    1.1404791   -3.1599799    -1.620215  0.091254593   -3.1599799    1.5397649   487807 
 4468000    1.1394673   -3.1593035   -1.6209739  0.086008872   -3.1593035    1.5383296   487829 
 4469000    1.1406512   -3.1610085   -1.6211216  0.090319288   -3.1610085    1.5398869   487842 
 4470000    1.1405559   -3.1591172   -1.6195295  0.089888847   -3.1591172    1.5395877   487896 
 4471000     1.140957   -3.1582333   -1.6181136  0.088675569   -3.1582333    1.5401197   487899 
 4472000    1.1418436   -3.1601101   -1.6189074  0.092057086   -3.1601101    1.5412027   487935 
 4473000    1.1411423    -3.159256   -1.6190472  0.086713762    -3.159256    1.5402088   487950 
 4474000    1.1426558   -3.1611778   -1.6190716  0.093407021   -3.1611778    1.5421063   487996 
 4475000    1.1437514   -3.1623803   -1.6189599   0.08659886   -3.1623803    1.5434204   488048 
 4476000    1.1425853   -3.1607556   -1.6189309  0.096878217   -3.1607556    1.5418247   488055 
 4477000    1.1419023   -3.1606228   -1.6198271  0.091317582   -3.1606228    1.5407957   488089 
 4478000    1.1427071   -3.1601547   -1.6183899  0.095147497   -3.1601547    1.5417648   488126 
 4479000    1.1408473   -3.1591597   -1.6201596  0.097235501   -3.1591597    1.5390001   488207 
 4480000    1.1423977    -3.161324   -1.6202671  0.088953795    -3.161324    1.5410569   488218 
 4481000     1.143018   -3.1625548   -1.6207244  0.087135289   -3.1625548    1.5418304   488238 
 4482000    1.1419464   -3.1602347   -1.6200075  0.087725104   -3.1602347    1.5402272   488288 
 4483000    1.1417408   -3.1594249   -1.6195159  0.090669625   -3.1594249     1.539909   488301 
 4484000    1.1415969   -3.1596362   -1.6200444  0.090650519   -3.1596362    1.5395919   488340 
 4485000    1.1416439   -3.1611007   -1.6213887  0.085851688   -3.1611007     1.539712   488322 
 4486000     1.141676   -3.1605786   -1.6209431  0.086396207   -3.1605786    1.5396355   488360 
 4487000    1.1403504   -3.1590263   -1.6213579  0.090729743   -3.1590263    1.5376684   488417 
 4488000    1.1412159   -3.1607473   -1.6220379   0.08867578   -3.1607473    1.5387095   488457 
 4489000    1.1422027   -3.1602013   -1.6203001  0.086224425   -3.1602013    1.5399012   488501 
 4490000    1.1404981   -3.1579555    -1.620428  0.086097082   -3.1579555    1.5375275   488525 
 4491000    1.1423999    -3.159996   -1.6200528  0.085098877    -3.159996    1.5399432   488572 
 4492000     1.143146   -3.1612682   -1.6203539   0.08834741   -3.1612682    1.5409143   488583 
 4493000     1.141991   -3.1610041   -1.6216435  0.086582736   -3.1610041    1.5393606   488582 
 4494000    1.1427256   -3.1606202   -1.6203545  0.088827307   -3.1606202    1.5402657   488609 
 4495000    1.1423361   -3.1606934   -1.6209842  0.085712759   -3.1606934    1.5397092   488619 
 4496000    1.1419413   -3.1605286    -1.621487  0.084549942   -3.1605286    1.5390415   488662 
 4497000    1.1427183    -3.161115   -1.6211113   0.08674617    -3.161115    1.5400037   488689 
 4498000    1.1434098    -3.160746   -1.6200154  0.088687589    -3.160746    1.5407306   488754 
 4499000    1.1445902   -3.1612825   -1.6190812  0.089280747   -3.1612825    1.5422012   488792 
 4500000    1.1441859   -3.1613868   -1.6197712  0.094149268   -3.1613868    1.5416156   488805 
 4501000    1.1438267   -3.1598761   -1.6188768  0.088562894   -3.1598761    1.5409992   488847 
 4502000    1.1443619   -3.1610482   -1.6193974  0.094471878   -3.1610482    1.5416508   488869 
 4503000    1.1447333   -3.1599487   -1.6178575   0.09200604   -3.1599487    1.5420912   488888 
 4504000    1.1446788   -3.1617858   -1.6198846  0.091584308   -3.1617858    1.5419012   488925 
 4505000    1.1443788   -3.1602625   -1.6188097  0.089774386   -3.1602625    1.5414528   488939 
 4506000    1.1457116   -3.1616168   -1.6184949  0.096366031   -3.1616168    1.5431219   488979 
 4507000    1.1448532   -3.1625947   -1.6206857  0.093241948   -3.1625947     1.541909   488997 
 4508000    1.1455554   -3.1635998   -1.6209596  0.089750588   -3.1635998    1.5426402   489065 
 4509000    1.1441708    -3.160145   -1.6193663  0.093638499    -3.160145    1.5407788   489064 
 4510000    1.1459755   -3.1639461   -1.6207781  0.082169788   -3.1639461     1.543168   489077 
 4511000    1.1426276   -3.1602046   -1.6216832  0.091118355   -3.1602046    1.5385214   489121 
 4512000    1.1442954   -3.1628453   -1.6222483  0.084599387   -3.1628453     1.540597   489175 
 4513000    1.1423433   -3.1603995   -1.6225564  0.080451356   -3.1603995     1.537843   489215 
 4514000    1.1440089   -3.1623248   -1.6223874  0.078616781   -3.1623248    1.5399374   489262 
 4515000    1.1416733   -3.1600902   -1.6232968  0.088099015   -3.1600902    1.5367934   489262 
 4516000    1.1449331   -3.1643983   -1.6234626   0.08677298   -3.1643983    1.5409357   489340 
 4517000    1.1433502   -3.1619963   -1.6232413  0.084910871   -3.1619963    1.5387551   489356 
 4518000    1.1455581   -3.1632242   -1.6216331  0.090888039   -3.1632242     1.541591   489399 
 4519000    1.1435331   -3.1606866   -1.6219056  0.087925705   -3.1606866     1.538781   489426 
 4520000    1.1458562   -3.1633732   -1.6215733  0.084620141   -3.1633732       1.5418   489460 
 4521000    1.1454109   -3.1630548    -1.622002  0.091206523   -3.1630548    1.5410528   489507 
 4522000    1.1461768   -3.1631904   -1.6212111  0.085144547   -3.1631904    1.5419793   489540 
 4523000    1.1466609   -3.1640769   -1.6216101  0.083382515   -3.1640769    1.5424668   489592 
 4524000     1.144923   -3.1605048   -1.6204795  0.086617296   -3.1605048    1.5400253   489625 
 4525000    1.1454459   -3.1620953   -1.6214926  0.090014954   -3.1620953    1.5406027   489665 
 4526000    1.1443603   -3.1610751    -1.621854   0.08464875   -3.1610751    1.5392212   489640 
 4527000    1.1438548   -3.1622713   -1.6238275  0.088550006   -3.1622713    1.5384438   489671 
 4528000    1.1441754   -3.1634693   -1.6247922  0.089416561   -3.1634693    1.5386771   489734 
 4529000    1.1458211   -3.1648934    -1.624195  0.089440474   -3.1648934    1.5406984   489795 
 4530000    1.1448841   -3.1652268   -1.6259331  0.089154652   -3.1652268    1.5392937   489841 
 4531000    1.1449463   -3.1647146   -1.6254533  0.090173767   -3.1647146    1.5392612   489878 
 4532000    1.1455932   -3.1651406   -1.6250884  0.090237278   -3.1651406    1.5400522   489903 
 4533000     1.147898   -3.1673239   -1.6241858  0.091387957   -3.1673239    1.5431381   489907 
 4534000    1.1466206   -3.1658889   -1.6245656  0.096200881   -3.1658889    1.5413233   489938 
 4535000    1.1471769   -3.1651574   -1.6231366   0.09142945   -3.1651574    1.5420208   489954 
 4536000    1.1470771   -3.1660979   -1.6243655  0.090124767   -3.1660979    1.5417324   490003 
 4537000    1.1466473   -3.1669941   -1.6258707  0.089087031   -3.1669941    1.5411233   490013 
 4538000    1.1451475   -3.1650678   -1.6261425  0.090215321   -3.1650678    1.5389253   490071 
 4539000    1.1458061   -3.1651271     -1.62537  0.091357568   -3.1651271     1.539757   490088 
 4540000    1.1468833   -3.1655456   -1.6243913  0.097425902   -3.1655456    1.5411543   490104 
 4541000    1.1487498   -3.1691016   -1.6254801  0.094711778   -3.1691016    1.5436215   490117 
 4542000     1.147058   -3.1677714   -1.6266024  0.089303808   -3.1677714     1.541169   490174 
 4543000    1.1473105   -3.1668934   -1.6254639  0.089482807   -3.1668934    1.5414295   490199 
 4544000    1.1465101   -3.1661584   -1.6259048  0.088051211   -3.1661584    1.5402536   490231 
 4545000    1.1450976   -3.1638254   -1.6255478  0.084502403   -3.1638254    1.5382776   490256 
 4546000    1.1472193   -3.1667494   -1.6257411  0.088540155   -3.1667494    1.5410083   490294 
 4547000     1.146833   -3.1659369   -1.6255039  0.088399307   -3.1659369     1.540433   490312 
 4548000    1.1449136   -3.1645125   -1.6267111  0.091673612   -3.1645125    1.5378014   490329 
 4549000    1.1467373   -3.1668104   -1.6266317  0.088846175   -3.1668104    1.5401787   490352 
 4550000    1.1461565   -3.1658223   -1.6264864   0.08852236   -3.1658223    1.5393358   490372 
 4551000    1.1463875   -3.1665492   -1.6269973  0.086983823   -3.1665492    1.5395519   490402 
 4552000    1.1471136   -3.1661148   -1.6257417  0.094586762   -3.1661148    1.5403731   490451 
 4553000     1.145853   -3.1647943   -1.6261045  0.087332604   -3.1647943    1.5386898   490448 
 4554000    1.1476407   -3.1677045   -1.6266644  0.086294554   -3.1677045    1.5410401   490464 
 4555000    1.1461905   -3.1661879   -1.6271766  0.089088675   -3.1661879    1.5390113   490490 
 4556000     1.145045   -3.1657068   -1.6283622   0.08431756   -3.1657068    1.5373446   490531 
 4557000    1.1465732    -3.166995   -1.6277586  0.080658687    -3.166995    1.5392363   490582 
 4558000    1.1457573   -3.1671772   -1.6290236  0.084428442   -3.1671772    1.5381536   490578 
 4559000    1.1466734   -3.1667339   -1.6273913  0.093388838   -3.1667339    1.5393426   490591 
 4560000    1.1456142   -3.1650842    -1.627245  0.087037906   -3.1650842    1.5378392   490617 
 4561000    1.1464569   -3.1663939   -1.6274987  0.088871053   -3.1663939    1.5388952   490641 
 4562000     1.146431   -3.1665564   -1.6277149  0.089264324   -3.1665564    1.5388415   490647 
 4563000     1.147153   -3.1674466   -1.6277614  0.090691283   -3.1674466    1.5396852   490687 
 4564000    1.1473183   -3.1671649   -1.6274211  0.088654853   -3.1671649    1.5397438   490739 
 4565000     1.147212   -3.1660832   -1.6265668  0.090020009   -3.1660832    1.5395164   490766 
 4566000    1.1462546    -3.165042   -1.6269513  0.095308409    -3.165042    1.5380907   490811 
 4567000     1.148632   -3.1685497   -1.6273977  0.085277718   -3.1685497    1.5411521   490852 
 4568000    1.1467719   -3.1668151   -1.6282371  0.091463932   -3.1668151     1.538578   490877 
 4569000    1.1488733   -3.1680226   -1.6266567  0.082554667   -3.1680226    1.5413658   490887 
 4570000     1.147717   -3.1664428   -1.6267255  0.090263376   -3.1664428    1.5397173   490918 
 4571000    1.1481445   -3.1669117   -1.6267055  0.090608932   -3.1669117    1.5402062   490945 
 4572000    1.1469502   -3.1650418   -1.6265444  0.091085027   -3.1650418    1.5384974   490979 
 4573000    1.1492004   -3.1678834   -1.6265183  0.089600188   -3.1678834    1.5413651   491027 
 4574000    1.1502395   -3.1685629   -1.6257319  0.091717493   -3.1685629    1.5428311   491004 
 4575000    1.1494578    -3.168296   -1.6265918  0.086880413    -3.168296    1.5417041   491029 
 4576000    1.1495497    -3.168683   -1.6268526  0.089256078    -3.168683    1.5418304   491028 
 4577000    1.1459991   -3.1641853   -1.6272235  0.088554838   -3.1641853    1.5369618   491062 
 4578000    1.1477076   -3.1668535   -1.6276786  0.087325533   -3.1668535    1.5391748   491087 
 4579000     1.146915    -3.166985   -1.6288512  0.084780347    -3.166985    1.5381338   491080 
 4580000     1.147758    -3.167091   -1.6279269  0.085459255    -3.167091    1.5391641   491112 
 4581000    1.1464724    -3.165194   -1.6278978  0.087195686    -3.165194    1.5372961   491158 
 4582000     1.147648    -3.166624   -1.6278487  0.086992433    -3.166624    1.5387753   491189 
 4583000    1.1480953   -3.1663436   -1.6271503  0.085886205   -3.1663436    1.5391933   491247 
 4584000    1.1492998    -3.167698   -1.6270155  0.091307606    -3.167698    1.5406826   491287 
 4585000    1.1482415   -3.1662861   -1.6270848  0.086140181   -3.1662861    1.5392013   491307 
 4586000    1.1485399    -3.167034   -1.6275549  0.089993468    -3.167034    1.5394791   491346 
 4587000    1.1485266   -3.1662244   -1.6268509  0.092398206   -3.1662244    1.5393735   491374 
 4588000    1.1475066   -3.1637844   -1.6258031  0.086802876   -3.1637844    1.5379813   491382 
 4589000      1.14868   -3.1644464   -1.6250395  0.088328019   -3.1644464    1.5394069   491429 
 4590000     1.149703   -3.1650614   -1.6244341  0.093208624   -3.1650614    1.5406273   491477 
 4591000     1.147835   -3.1638471   -1.6257761  0.088125437   -3.1638471     1.538071   491494 
 4592000    1.1479037   -3.1643207   -1.6262266  0.083880175   -3.1643207    1.5380942   491516 
 4593000     1.148271   -3.1629387   -1.6244118  0.081463518   -3.1629387    1.5385269   491535 
 4594000    1.1492575   -3.1643935   -1.6247547  0.086533512   -3.1643935    1.5396388   491602 
 4595000    1.1510145   -3.1647823   -1.6228712  0.081356113   -3.1647823    1.5419111   491628 
 4596000    1.1493102   -3.1632619   -1.6237498   0.08369889   -3.1632619     1.539512   491665 
 4597000    1.1478851   -3.1623586   -1.6248493  0.087167218   -3.1623586    1.5375093   491695 
 4598000    1.1489437   -3.1635953    -1.624787  0.092955747   -3.1635953    1.5388083   491733 
 4599000    1.1486393   -3.1639404   -1.6256181  0.088776944   -3.1639404    1.5383224   491758 
 4600000    1.1485076    -3.164004   -1.6258579  0.085422483    -3.164004    1.5381461   491758 
 4601000    1.1483989   -3.1629017   -1.6250576  0.084828279   -3.1629017    1.5378441   491808 
 4602000    1.1485046   -3.1625252   -1.6246865  0.087207101   -3.1625252    1.5378387   491855 
 4603000    1.1491376   -3.1647607   -1.6260557  0.094844601   -3.1647607     1.538705   491849 
 4604000    1.1489935   -3.1645753   -1.6261946  0.084855634   -3.1645753    1.5383807   491891 
 4605000    1.1495342   -3.1643023   -1.6253196  0.087084525   -3.1643023    1.5389827   491930 
 4606000    1.1485563   -3.1624273   -1.6248602  0.089030616   -3.1624273    1.5375671   491964 
 4607000    1.1477097   -3.1619711   -1.6256528  0.090363346   -3.1619711    1.5363183   492001 
 4608000     1.148721   -3.1639521   -1.6263489  0.088475335   -3.1639521    1.5376032   492023 
 4609000    1.1474984   -3.1616151   -1.6258575  0.089452485   -3.1616151    1.5357576   492090 
 4610000    1.1485043   -3.1630379   -1.6261371   0.08387011   -3.1630379    1.5369009   492155 
 4611000    1.1473438   -3.1627219   -1.6274426  0.091605533   -3.1627219    1.5352793   492177 
 4612000    1.1486959   -3.1639658   -1.6268679  0.085865909   -3.1639658    1.5370979   492174 
 4613000    1.1500669   -3.1654117   -1.6264729  0.087479049   -3.1654117    1.5389388   492172 
 4614000     1.148966   -3.1639226   -1.6264913  0.087509197   -3.1639226    1.5374313   492183 
 4615000    1.1502329   -3.1650705   -1.6259879  0.088473629   -3.1650705    1.5390827   492197 
 4616000    1.1493438   -3.1649537    -1.627095  0.088463371   -3.1649537    1.5378587   492208 
 4617000    1.1490316   -3.1649347   -1.6276062  0.088157122   -3.1649347    1.5373285   492244 
 4618000    1.1500163   -3.1669967   -1.6284664  0.087949258   -3.1669967    1.5385303   492281 
 4619000    1.1497062   -3.1667184   -1.6285874  0.083970881   -3.1667184     1.538131   492276 
 4620000    1.1499152   -3.1669057   -1.6286543  0.087952317   -3.1669057    1.5382513   492327 
 4621000    1.1497675   -3.1662386   -1.6282504  0.085353988   -3.1662386    1.5379881   492348 
 4622000    1.1508545   -3.1684435   -1.6291139  0.086343515   -3.1684435    1.5393295   492384 
 4623000    1.1495002   -3.1657654   -1.6283003  0.089760408   -3.1657654    1.5374651   492401 
 4624000    1.1492523   -3.1649152   -1.6279659  0.092234977   -3.1649152    1.5369493   492460 
 4625000    1.1494151   -3.1666982   -1.6296341  0.086318302   -3.1666982    1.5370641   492493 
 4626000    1.1501854   -3.1669204   -1.6289636  0.087685504   -3.1669204    1.5379568   492537 
 4627000     1.150672   -3.1668518    -1.628335  0.090830874   -3.1668518    1.5385168   492566 
 4628000      1.15105   -3.1674385   -1.6284224    0.0845278   -3.1674385     1.539016   492568 
 4629000    1.1497683   -3.1655278   -1.6282193  0.086523611   -3.1655278    1.5373085   492566 
 4630000    1.1506196   -3.1669834   -1.6287083  0.088062032   -3.1669834     1.538275   492621 
 4631000    1.1502604    -3.167249   -1.6295292  0.090118243    -3.167249    1.5377199   492645 
 4632000    1.1517854   -3.1675649   -1.6278782  0.091169027   -3.1675649    1.5396867   492668 
 4633000    1.1522487   -3.1681535    -1.627957  0.084368558   -3.1681535    1.5401965   492703 
 4634000    1.1512988   -3.1665689   -1.6276982  0.088858989   -3.1665689    1.5388706   492721 
 4635000    1.1519635    -3.166963   -1.6272414  0.091642054    -3.166963    1.5397216   492733 
 4636000    1.1500853   -3.1658887   -1.6287181  0.087527347   -3.1658887    1.5371706   492746 
 4637000     1.151384   -3.1669002   -1.6280968  0.089486414   -3.1669002    1.5388034   492779 
 4638000    1.1509912    -3.166672   -1.6284592  0.086667241    -3.166672    1.5382129   492800 
 4639000     1.152192   -3.1681184   -1.6284601  0.084051576   -3.1681184    1.5396583   492851 
 4640000    1.1499929   -3.1659391   -1.6292412  0.084007328   -3.1659391    1.5366979   492858 
 4641000    1.1505239   -3.1664238   -1.6291006  0.084861873   -3.1664238    1.5373232   492885 
 4642000    1.1495895   -3.1658326   -1.6298171  0.082972288   -3.1658326    1.5360155   492904 
 4643000    1.1504229   -3.1656286   -1.6285963  0.091413056   -3.1656286    1.5370323   492935 
 4644000    1.1484955   -3.1652553   -1.6309444  0.086661512   -3.1652553    1.5343109   492982 
 4645000     1.151094   -3.1689149   -1.6312292  0.079772112   -3.1689149    1.5376856   493013 
 4646000    1.1492253   -3.1655556   -1.6304192  0.088144662   -3.1655556    1.5351364   493030 
 4647000    1.1509155    -3.167305   -1.6299763  0.088292613    -3.167305    1.5373287   493051 
 4648000    1.1518678   -3.1685754   -1.6300497  0.084745999   -3.1685754    1.5385258   493075 
 4649000    1.1515306   -3.1675779   -1.6296023  0.081987111   -3.1675779    1.5379756   493107 
 4650000    1.1531616   -3.1692546   -1.6293193  0.086679932   -3.1692546    1.5399353   493177 
 4651000    1.1536338   -3.1680993    -1.627727  0.086008526   -3.1680993    1.5403723   493239 
 4652000    1.1550013   -3.1695916   -1.6273778  0.085271523   -3.1695916    1.5422138   493234 
 4653000    1.1517946   -3.1663293   -1.6285094  0.090556519   -3.1663293    1.5378199   493270 
 4654000    1.1551866   -3.1705505   -1.6282268  0.089704757   -3.1705505    1.5423237   493278 
 4655000    1.1534933   -3.1682539   -1.6283065  0.088373636   -3.1682539    1.5399475   493315 
 4656000    1.1529551   -3.1680096    -1.628893  0.093296592   -3.1680096    1.5391165   493351 
 4657000    1.1538559   -3.1694502   -1.6291717   0.08908317   -3.1694502    1.5402785   493364 
 4658000    1.1535097   -3.1690025   -1.6292111  0.092177579   -3.1690025    1.5397914   493372 
 4659000    1.1526125   -3.1693967   -1.6307842  0.085836608   -3.1693967    1.5386125   493366 
 4660000    1.1528674   -3.1706221   -1.6316819   0.08664778   -3.1706221    1.5389402   493370 
 4661000    1.1537632   -3.1700675   -1.6301187  0.087103693   -3.1700675    1.5399488   493430 
 4662000    1.1551431   -3.1718291   -1.6301885  0.085545488   -3.1718291    1.5416405   493478 
 4663000    1.1541411   -3.1715029   -1.6313182   0.09084596   -3.1715029    1.5401847   493516 
 4664000    1.1525859   -3.1697336   -1.6316803  0.091699589   -3.1697336    1.5380533   493534 
 4665000    1.1548596   -3.1728234   -1.6318486   0.08588058   -3.1728234    1.5409749   493570 
 4666000    1.1528739   -3.1706493   -1.6323957  0.086243177   -3.1706493    1.5382536   493593 
 4667000       1.1539   -3.1717335     -1.63217  0.085160058   -3.1717335    1.5395635   493612 
 4668000     1.151633   -3.1688127   -1.6323424  0.092157877   -3.1688127    1.5364703   493634 
 4669000    1.1532743   -3.1698933   -1.6312457  0.090381855   -3.1698933    1.5386477   493638 
 4670000    1.1527902   -3.1688667   -1.6309678  0.087594205   -3.1688667    1.5378989   493671 
 4671000    1.1521566   -3.1686158   -1.6316338  0.096458657   -3.1686158     1.536982   493694 
 4672000    1.1536124   -3.1685497   -1.6297565  0.087948409   -3.1685497    1.5387932   493736 
 4673000     1.155412   -3.1715243   -1.6304898  0.091812441   -3.1715243    1.5410344   493787 
 4674000     1.153879   -3.1684798   -1.6295803  0.089482576   -3.1684798    1.5388994   493816 
 4675000    1.1536334    -3.168219   -1.6296221   0.09208516    -3.168219    1.5385969   493808 
 4676000    1.1544812     -3.16926   -1.6294732  0.087209577     -3.16926    1.5397867   493789 
 4677000    1.1545693   -3.1698463   -1.6300606  0.097215377   -3.1698463    1.5397857   493827 
 4678000    1.1545876    -3.168852   -1.6291354  0.089799932    -3.168852    1.5397167   493857 
 4679000    1.1547649   -3.1694366   -1.6294772  0.086360256   -3.1694366    1.5399594   493855 
 4680000    1.1542454   -3.1689099   -1.6297026  0.084231574   -3.1689099    1.5392074   493874 
 4681000    1.1546698   -3.1703637   -1.6306309  0.086391353   -3.1703637    1.5397327   493887 
 4682000    1.1547037   -3.1690595   -1.6293814  0.088489235   -3.1690595    1.5396781   493919 
 4683000    1.1546349   -3.1693238   -1.6298932   0.09377919   -3.1693238    1.5394306   493969 
 4684000    1.1544011   -3.1682616   -1.6291832  0.088862178   -3.1682616    1.5390784   493982 
 4685000    1.1540017   -3.1685398   -1.6301153  0.083011786   -3.1685398    1.5384245   494021 
 4686000    1.1548819   -3.1688129   -1.6292898  0.090763834   -3.1688129    1.5395231   494045 
 4687000    1.1539081   -3.1686182   -1.6305054  0.085056662   -3.1686182    1.5381129   494081 
 4688000    1.1533844   -3.1684331   -1.6311241  0.086535486   -3.1684331     1.537309   494115 
 4689000     1.155693   -3.1697357   -1.6294837  0.084057217   -3.1697357     1.540252   494158 
 4690000     1.154428   -3.1683344   -1.6298368  0.081770208   -3.1683344    1.5384976   494180 
 4691000    1.1538777   -3.1668209   -1.6292153  0.083525613   -3.1668209    1.5376056   494231 
 4692000    1.1547348    -3.167196   -1.6285075  0.087986581    -3.167196    1.5386885   494250 
 4693000    1.1543977   -3.1672327   -1.6290899  0.089042581   -3.1672327    1.5381428   494281 
 4694000    1.1543321   -3.1676787   -1.6297726  0.083065801   -3.1676787    1.5379061   494329 
 4695000    1.1558058   -3.1686493   -1.6289044  0.085649813   -3.1686493    1.5397448   494369 
 4696000    1.1578566   -3.1721605   -1.6297117  0.085488997   -3.1721605    1.5424488   494378 
 4697000    1.1564141   -3.1703618   -1.6299249  0.085761854   -3.1703618    1.5404369   494407 
 4698000    1.1542359   -3.1674635   -1.6300619  0.086726234   -3.1674635    1.5374016   494450 
 4699000     1.155999   -3.1687725   -1.6292094  0.089635516   -3.1687725    1.5395631   494510 
 4700000    1.1565285   -3.1696943   -1.6295599  0.088918646   -3.1696943    1.5401344   494553 
 4701000    1.1542604   -3.1671153   -1.6301162  0.089281253   -3.1671153     1.536999   494590 
 4702000    1.1554455    -3.168139   -1.6296397  0.088483612    -3.168139    1.5384993   494615 
 4703000    1.1557394   -3.1693821   -1.6306127  0.088598344   -3.1693821    1.5387694   494654 
 4704000    1.1566868   -3.1714124   -1.6314346  0.081469351   -3.1714124    1.5399778   494671 
 4705000    1.1555671   -3.1701919   -1.6317391  0.093124536   -3.1701919    1.5384528   494682 
 4706000    1.1566373   -3.1722852   -1.6325103   0.08440865   -3.1722852     1.539775   494715 
 4707000    1.1551274   -3.1702175   -1.6324806  0.085294767   -3.1702175    1.5377369   494724 
 4708000    1.1560995   -3.1716398   -1.6326804  0.083064179   -3.1716398    1.5389594   494747 
 4709000    1.1570241   -3.1737687   -1.6337124  0.091634825   -3.1737687    1.5400563   494790 
 4710000     1.156943    -3.172558   -1.6326438  0.084974484    -3.172558    1.5399142   494801 
 4711000    1.1566965   -3.1719208     -1.63254  0.089056659   -3.1719208    1.5393808   494867 
 4712000    1.1571288   -3.1727378   -1.6328502  0.087899933   -3.1727378    1.5398877   494889 
 4713000      1.15745   -3.1730197   -1.6327792  0.092367198   -3.1730197    1.5402405   494913 
 4714000    1.1572343   -3.1720295   -1.6322473  0.093275212   -3.1720295    1.5397823   494968 
 4715000    1.1584612   -3.1742487   -1.6328932  0.092339477   -3.1742487    1.5413555   494987 
 4716000    1.1577107   -3.1739383    -1.633575  0.094777151   -3.1739383    1.5403633   494985 
 4717000    1.1576326   -3.1741748   -1.6340057  0.088577294   -3.1741748     1.540169   495014 
 4718000    1.1575901   -3.1742227   -1.6342594  0.084643142   -3.1742227    1.5399632   495062 
 4719000    1.1578806   -3.1742082   -1.6339021  0.090875466   -3.1742082    1.5403061   495076 
 4720000    1.1569562   -3.1751459   -1.6361565  0.089025774   -3.1751459    1.5389894   495104 
 4721000     1.157458   -3.1743853   -1.6348155  0.087481681   -3.1743853    1.5395698   495132 
 4722000    1.1588172   -3.1758339   -1.6345341  0.086739554   -3.1758339    1.5412998   495157 
 4723000    1.1584913   -3.1752247   -1.6344424  0.088142511   -3.1752247    1.5407823   495184 
 4724000    1.1589923   -3.1757632   -1.6344889  0.093565698   -3.1757632    1.5412744   495240 
 4725000    1.1588746   -3.1761552   -1.6351182  0.090481654   -3.1761552     1.541037   495266 
 4726000    1.1597134   -3.1772253   -1.6351382  0.091534573   -3.1772253     1.542087   495287 
 4727000    1.1600206   -3.1757775   -1.6334158  0.094842854   -3.1757775    1.5423617   495330 
 4728000    1.1605724   -3.1762551   -1.6332253  0.087707345   -3.1762551    1.5430298   495351 
 4729000     1.160513   -3.1768197   -1.6340556  0.088628202   -3.1768197     1.542764   495411 
 4730000    1.1612905   -3.1773403   -1.6336581  0.091771031   -3.1773403    1.5436822   495448 
 4731000     1.160304   -3.1764255   -1.6340264  0.091612596   -3.1764255     1.542399   495439 
 4732000    1.1609413    -3.176216   -1.6331411   0.09026588    -3.176216    1.5430749   495494 
 4733000    1.1582887   -3.1733168   -1.6337863  0.092683311   -3.1733168    1.5395305   495500 
 4734000    1.1590917   -3.1740515    -1.633606  0.088732619   -3.1740515    1.5404455   495549 
 4735000    1.1593184    -3.174848   -1.6341199  0.092673668    -3.174848     1.540728   495555 
 4736000    1.1577115   -3.1735423    -1.635046  0.090478881   -3.1735423    1.5384963   495586 
 4737000    1.1580773   -3.1744519   -1.6354788  0.090352357   -3.1744519    1.5389731   495589 
 4738000    1.1588355   -3.1747164   -1.6348942  0.083836646   -3.1747164    1.5398222   495640 
 4739000    1.1590601   -3.1736415   -1.6335675  0.087302354   -3.1736415     1.540074   495655 
 4740000    1.1587883   -3.1730327   -1.6335279  0.092095839   -3.1730327    1.5395048   495722 
 4741000    1.1605853   -3.1741372   -1.6323197  0.086223669   -3.1741372    1.5418175   495746 
 4742000    1.1618782   -3.1765373   -1.6330862  0.090565868   -3.1765373    1.5434511   495773 
 4743000    1.1582069   -3.1741529   -1.6356316  0.091871616   -3.1741529    1.5385213   495790 
 4744000    1.1584577   -3.1738982   -1.6351523  0.086446477   -3.1738982    1.5387459   495825 
 4745000    1.1590296    -3.173686   -1.6342458  0.084852494    -3.173686    1.5394402   495846 
 4746000    1.1593932   -3.1735749     -1.63381  0.088007147   -3.1735749    1.5397649   495897 
 4747000    1.1596151   -3.1740518   -1.6341072  0.084594381   -3.1740518    1.5399446   495934 
 4748000    1.1598318   -3.1739961   -1.6338413  0.092641834   -3.1739961    1.5401547   495959 
 4749000    1.1598056   -3.1743786   -1.6342865  0.086235975   -3.1743786     1.540092   495968 
 4750000    1.1574267   -3.1718266   -1.6350422  0.083770119   -3.1718266    1.5367844   496016 
 4751000    1.1588988   -3.1734431   -1.6347568  0.090203845   -3.1734431    1.5386863   496033 
 4752000    1.1576962    -3.172014   -1.6350206  0.086561328    -3.172014    1.5369934   496064 
 4753000    1.1585814   -3.1730883   -1.6350189  0.091675082   -3.1730883    1.5380694   496096 
 4754000    1.1586096   -3.1730583   -1.6349452  0.088154971   -3.1730583    1.5381131   496094 
 4755000    1.1577202   -3.1719415   -1.6350865  0.088760515   -3.1719415     1.536855   496119 
 4756000    1.1580755   -3.1736615   -1.6364217  0.086469657   -3.1736615    1.5372398   496147 
 4757000    1.1580373     -3.17423   -1.6370563  0.089081308     -3.17423    1.5371737   496152 
 4758000    1.1579759   -3.1750886   -1.6379593  0.085343893   -3.1750886    1.5371293   496140 
 4759000    1.1582169   -3.1738667   -1.6365475  0.089747483   -3.1738667    1.5373191   496182 
 4760000    1.1580416   -3.1746885   -1.6376237  0.082454356   -3.1746885    1.5370648   496189 
 4761000    1.1589036   -3.1750412    -1.636947  0.084091441   -3.1750412    1.5380942   496226 
 4762000    1.1583147   -3.1741917    -1.636941  0.087565511   -3.1741917    1.5372506   496246 
 4763000    1.1587297   -3.1746797   -1.6368969  0.092153301   -3.1746797    1.5377827   496252 
 4764000    1.1599302   -3.1756024   -1.6363567  0.086090016   -3.1756024    1.5392457   496294 
 4765000    1.1590714   -3.1754702   -1.6374663  0.088987471   -3.1754702    1.5380039   496327 
 4766000    1.1600698   -3.1779874   -1.6385812   0.08900273   -3.1779874    1.5394062   496302 
 4767000    1.1606084   -3.1780468   -1.6380035  0.085585124   -3.1780468    1.5400433   496327 
 4768000    1.1599389   -3.1775634   -1.6384984  0.089883792   -3.1775634     1.539065   496356 
 4769000    1.1594998   -3.1771818   -1.6388017  0.090497248   -3.1771818    1.5383801   496389 
 4770000    1.1598645   -3.1776467   -1.6389439  0.087126735   -3.1776467    1.5387027   496441 
 4771000    1.1601573   -3.1768255   -1.6377529  0.090687016   -3.1768255    1.5390726   496447 
 4772000    1.1611338   -3.1779533   -1.6377527  0.094133677   -3.1779533    1.5402006   496501 
 4773000    1.1612811   -3.1789709   -1.6386773  0.090657101   -3.1789709    1.5402936   496534 
 4774000    1.1609734    -3.178466    -1.638655  0.090955217    -3.178466     1.539811   496558 
 4775000    1.1604541   -3.1782154   -1.6392048  0.086182813   -3.1782154    1.5390106   496594 
 4776000    1.1626458   -3.1807463   -1.6387576  0.086902288   -3.1807463    1.5419887   496571 
 4777000    1.1606828   -3.1777231   -1.6384959  0.089824526   -3.1777231    1.5392272   496622 
 4778000    1.1595721   -3.1767137   -1.6391482  0.094275813   -3.1767137    1.5375655   496683 
 4779000    1.1605376   -3.1771061   -1.6383627  0.094878181   -3.1771061    1.5387433   496716 
 4780000    1.1626303   -3.1779663   -1.6365599  0.096741029   -3.1779663    1.5414064   496752 
 4781000    1.1633469   -3.1803134   -1.6380129  0.089783435   -3.1803134    1.5423006   496770 
 4782000    1.1632578   -3.1796803   -1.6375817  0.092656782   -3.1796803    1.5420986   496797 
 4783000    1.1637982   -3.1801678   -1.6375081  0.088110629   -3.1801678    1.5426598   496847 
 4784000    1.1628281   -3.1803597   -1.6390945  0.085398588   -3.1803597    1.5412652   496882 
 4785000    1.1627502   -3.1804778   -1.6393747  0.090188099   -3.1804778     1.541103   496901 
 4786000    1.1624125   -3.1793215   -1.6387808  0.094880131   -3.1793215    1.5405407   496938 
 4787000    1.1613799   -3.1774793   -1.6383876  0.095998119   -3.1774793    1.5390917   496964 
 4788000     1.162141   -3.1784507   -1.6385084  0.090477369   -3.1784507    1.5399423   497015 
 4789000    1.1618091   -3.1790172   -1.6395146  0.085900754   -3.1790172    1.5395026   497015 
 4790000    1.1611313   -3.1785573   -1.6400891  0.090950075   -3.1785573    1.5384682   497059 
 4791000     1.161252   -3.1797478    -1.641259  0.088113703   -3.1797478    1.5384888   497104 
 4792000    1.1625393   -3.1800724   -1.6399711  0.086215447   -3.1800724    1.5401013   497134 
 4793000    1.1617525   -3.1790461   -1.6400893  0.086414191   -3.1790461    1.5389569   497167 
 4794000    1.1621673   -3.1799926   -1.6405698  0.088884151   -3.1799926    1.5394227   497194 
 4795000    1.1605372   -3.1773346   -1.6401886  0.092390316   -3.1773346    1.5371461   497232 
 4796000    1.1627251   -3.1795336   -1.6395794  0.084832557   -3.1795336    1.5399541   497261 
 4797000    1.1640261   -3.1803392   -1.6387023  0.087321091   -3.1803392    1.5416369   497274 
 4798000      1.16142   -3.1779998   -1.6399413  0.082561318   -3.1779998    1.5380585   497315 
 4799000    1.1633334   -3.1789652   -1.6383418   0.08763171   -3.1789652    1.5406234   497305 
 4800000    1.1638453   -3.1787846     -1.63757  0.091101511   -3.1787846    1.5412146   497333 
 4801000    1.1648531    -3.179738    -1.637226  0.092324621    -3.179738     1.542512   497345 
 4802000    1.1649395   -3.1792598   -1.6367079  0.092428539   -3.1792598    1.5425519   497369 
 4803000    1.1652267   -3.1796138   -1.6367622  0.091400696   -3.1796138    1.5428516   497395 
 4804000    1.1654984   -3.1799905   -1.6369344  0.086702971   -3.1799905    1.5430561   497445 
 4805000    1.1651479   -3.1804561   -1.6378175  0.089355795   -3.1804561    1.5426386   497430 
 4806000    1.1648804   -3.1798748   -1.6377546  0.090034713   -3.1798748    1.5421202   497483 
 4807000    1.1636145   -3.1782845   -1.6379548  0.093584258   -3.1782845    1.5403297   497520 
 4808000    1.1639845   -3.1780492   -1.6372421  0.083320542   -3.1780492    1.5408071   497524 
 4809000    1.1633017   -3.1785879   -1.6387124  0.088225063   -3.1785879    1.5398755   497533 
 4810000    1.1627176   -3.1781376   -1.6392766  0.092102247   -3.1781376     1.538861   497611 
 4811000    1.1633472   -3.1787223   -1.6390559   0.08979233   -3.1787223    1.5396664   497620 
 4812000     1.162588   -3.1792475   -1.6406106  0.088681447   -3.1792475    1.5386369   497628 
 4813000    1.1635291   -3.1787692   -1.6389332  0.091622293   -3.1787692    1.5398361   497643 
 4814000    1.1644989   -3.1796885   -1.6385907  0.094665529   -3.1796885    1.5410979   497650 
 4815000    1.1629969    -3.179721   -1.6405584  0.089717284    -3.179721    1.5391626   497633 
 4816000    1.1638361   -3.1806768   -1.6404407  0.085631401   -3.1806768    1.5402361   497645 
 4817000    1.1621072   -3.1791875   -1.6412702  0.093698508   -3.1791875    1.5379172   497655 
 4818000    1.1623271   -3.1808921   -1.6427612  0.091001592   -3.1808921    1.5381309   497680 
 4819000     1.162896   -3.1802782   -1.6414068  0.087206805   -3.1802782    1.5388713   497684 
 4820000    1.1632263   -3.1806657   -1.6413912  0.090124954   -3.1806657    1.5392745   497695 
 4821000    1.1644647   -3.1812491   -1.6403823  0.092519546   -3.1812491    1.5408667   497710 
 4822000    1.1644627   -3.1826011   -1.6419104  0.083402754   -3.1826011    1.5406907   497766 
 4823000    1.1646989    -3.181197   -1.6404197  0.089975132    -3.181197    1.5407773   497839 
 4824000    1.1647669   -3.1813479   -1.6405146  0.089405941   -3.1813479    1.5408333   497850 
 4825000    1.1647148   -3.1814964   -1.6407011  0.087138424   -3.1814964    1.5407952   497840 
 4826000     1.164211   -3.1809796    -1.641027  0.089947044   -3.1809796    1.5399525   497897 
 4827000    1.1638717   -3.1796961   -1.6401801  0.091606805   -3.1796961     1.539516   497893 
 4828000    1.1661996    -3.182333   -1.6398462  0.091422701    -3.182333    1.5424868   497928 
 4829000    1.1657466   -3.1815776   -1.6398014  0.091482443   -3.1815776    1.5417762   497964 
 4830000    1.1656415   -3.1820722   -1.6405496  0.092600595   -3.1820722    1.5415227   498001 
 4831000    1.1657802   -3.1823389   -1.6407225  0.091923705   -3.1823389    1.5416164   498030 
 4832000    1.1648079   -3.1806757     -1.64037  0.089863778   -3.1806757    1.5403058   498038 
 4833000    1.1644452   -3.1823034   -1.6423999  0.089629459   -3.1823034    1.5399035   498013 
 4834000    1.1652348   -3.1829707   -1.6421313  0.083014122   -3.1829707    1.5408394   498048 
 4835000    1.1635063   -3.1806876   -1.6422667  0.091830748   -3.1806876    1.5384209   498091 
 4836000    1.1649435   -3.1829345   -1.6427494  0.086029458   -3.1829345    1.5401852   498135 
 4837000     1.163419   -3.1811057   -1.6430534  0.082649667   -3.1811057    1.5380523   498173 
 4838000    1.1635829   -3.1800466   -1.6418889  0.090845608   -3.1800466    1.5381578   498209 
 4839000    1.1638709   -3.1796146   -1.6411471  0.091813754   -3.1796146    1.5384675   498232 
 4840000    1.1632572   -3.1789979   -1.6413879  0.090775475   -3.1789979      1.53761   498247 
 4841000    1.1641066   -3.1804694   -1.6419683  0.086188848   -3.1804694    1.5385011   498322 
 4842000     1.163829   -3.1799088    -1.641901   0.08341075   -3.1799088    1.5380078   498363 
 4843000    1.1641543   -3.1793969   -1.6409315  0.087032859   -3.1793969    1.5384654   498354 
 4844000    1.1638569   -3.1779106   -1.6399586  0.094229733   -3.1779106     1.537952   498393 
 4845000    1.1643184   -3.1791347   -1.6406624  0.094841179   -3.1791347    1.5384723   498422 
 4846000    1.1667076   -3.1808152    -1.639288  0.089280048   -3.1808152    1.5415272   498455 
 4847000    1.1665927   -3.1807245    -1.639482  0.090076365   -3.1807245    1.5412425   498498 
 4848000    1.1664236   -3.1789179   -1.6379575  0.092709584   -3.1789179    1.5409604   498517 
 4849000    1.1651707   -3.1784563   -1.6392562  0.083675821   -3.1784563    1.5392001   498551 
 4850000    1.1647917   -3.1789852   -1.6403814  0.094217906   -3.1789852    1.5386038   498582 
 4851000     1.164917   -3.1805995   -1.6418054  0.086109123   -3.1805995    1.5387941   498574 
 4852000    1.1641383   -3.1796172   -1.6419597   0.07968671   -3.1796172    1.5376574   498609 
 4853000     1.164899   -3.1802298   -1.6416417  0.087140181   -3.1802298    1.5385881   498633 
 4854000    1.1637969   -3.1773845   -1.6403351  0.088034368   -3.1773845    1.5370493   498660 
 4855000    1.1652273   -3.1797193   -1.6408487  0.080204971   -3.1797193    1.5388706   498682 
 4856000    1.1643911   -3.1783447   -1.6406648  0.083308684   -3.1783447    1.5376799   498710 
 4857000    1.1643184   -3.1776687   -1.6401804  0.085539088   -3.1776687    1.5374883   498741 
 4858000    1.1640018   -3.1781418   -1.6411147  0.083345263   -3.1781418    1.5370271   498755 
 4859000    1.1627527   -3.1760399   -1.6406991  0.088914396   -3.1760399    1.5353408   498767 
 4860000    1.1615151   -3.1748363   -1.6411943  0.090669298   -3.1748363     1.533642   498788 
 4861000    1.1642895   -3.1770572   -1.6396904  0.085406996   -3.1770572    1.5373669   498768 
 4862000    1.1663214   -3.1796525   -1.6396427   0.08147344   -3.1796525    1.5400097   498781 
 4863000    1.1651601   -3.1785187   -1.6401596  0.083731504   -3.1785187    1.5383591   498819 
 4864000    1.1653698    -3.177816   -1.6391892  0.087970487    -3.177816    1.5386268   498822 
 4865000    1.1639631   -3.1777436   -1.6409709  0.086661511   -3.1777436    1.5367727   498821 
 4866000    1.1649979    -3.178956   -1.6407493  0.088333573    -3.178956    1.5382067   498799 
 4867000    1.1648859   -3.1789171   -1.6410279  0.087795362   -3.1789171    1.5378892   498854 
 4868000    1.1659785    -3.179721   -1.6404047  0.091255867    -3.179721    1.5393163   498859 
 4869000    1.1657433   -3.1788208    -1.639889  0.080403387   -3.1788208    1.5389318   498883 
 4870000    1.1662387   -3.1797549   -1.6402431  0.088120177   -3.1797549    1.5395117   498907 
 4871000     1.166243   -3.1790118   -1.6395624  0.086846448   -3.1790118    1.5394494   498929 
 4872000    1.1670179   -3.1798521   -1.6393921  0.088535082   -3.1798521      1.54046   498933 
 4873000    1.1668144   -3.1797633   -1.6396676  0.091240335   -3.1797633    1.5400957   498964 
 4874000    1.1667984   -3.1807608   -1.6407325  0.090085653   -3.1807608    1.5400283   498979 
 4875000    1.1673316   -3.1806724   -1.6400824  0.087199434   -3.1806724      1.54059   499025 
 4876000    1.1681181   -3.1818504   -1.6403213  0.088522291   -3.1818504    1.5415291   499057 
 4877000    1.1680138   -3.1820403   -1.6407755  0.086328476   -3.1820403    1.5412649   499098 
 4878000    1.1675393    -3.180874   -1.6403247  0.083193292    -3.180874    1.5405493   499127 
 4879000    1.1670217   -3.1811363   -1.6414058  0.089933142   -3.1811363    1.5397306   499171 
 4880000    1.1657958   -3.1811154   -1.6430701  0.089633291   -3.1811154    1.5380453   499193 
 4881000    1.1670979   -3.1825968   -1.6430033  0.088884551   -3.1825968    1.5395935   499248 
 4882000     1.167672    -3.184343   -1.6440786  0.086442319    -3.184343    1.5402645   499276 
 4883000    1.1652627   -3.1816131   -1.6447175  0.087623198   -3.1816131    1.5368956   499338 
 4884000    1.1642669   -3.1803923   -1.6449454  0.086434797   -3.1803923    1.5354469   499382 
 4885000    1.1641755   -3.1805131   -1.6452912  0.086515603   -3.1805131    1.5352219   499416 
 4886000    1.1649867   -3.1809292   -1.6447299  0.084981708   -3.1809292    1.5361993   499446 
 4887000     1.166674   -3.1824901   -1.6441336  0.085827741   -3.1824901    1.5383565   499468 
 4888000    1.1655772   -3.1814047   -1.6444975  0.088687291   -3.1814047    1.5369072   499469 
 4889000    1.1665347    -3.183257   -1.6451242   0.08702421    -3.183257    1.5381328   499481 
 4890000     1.166826   -3.1826244   -1.6442739  0.086551111   -3.1826244    1.5383506   499535 
 4891000     1.168258   -3.1834305   -1.6433185  0.092984353   -3.1834305    1.5401121   499576 
 4892000    1.1681877   -3.1823505   -1.6424606  0.089268296   -3.1823505    1.5398899   499618 
 4893000    1.1678126   -3.1832868   -1.6440115  0.089386121   -3.1832868    1.5392753   499657 
 4894000    1.1695646   -3.1839203   -1.6423727  0.092863494   -3.1839203    1.5415476   499669 
 4895000    1.1694736   -3.1832279   -1.6418836  0.087517837   -3.1832279    1.5413444   499696 
 4896000    1.1686514   -3.1820074   -1.6418207  0.094226427   -3.1820074    1.5401867   499720 
 4897000    1.1685453   -3.1832066   -1.6432336  0.093132381   -3.1832066     1.539973   499744 
 4898000    1.1693414   -3.1840294   -1.6431584  0.084786619   -3.1840294     1.540871   499793 
 4899000    1.1691692   -3.1852962   -1.6446921  0.087018273   -3.1852962     1.540604   499806 
 4900000    1.1693515   -3.1849132   -1.6442015  0.091799361   -3.1849132    1.5407117   499849 
 4901000    1.1668731   -3.1824384   -1.6451336  0.086754637   -3.1824384    1.5373048   499895 
 4902000    1.1691977   -3.1849395    -1.644677  0.088920669   -3.1849395    1.5402625   499929 
 4903000    1.1694583    -3.185445   -1.6448884  0.082385781    -3.185445    1.5405566   499945 
 4904000    1.1691213   -3.1842085   -1.6442191  0.084225408   -3.1842085    1.5399894   499985 
 4905000    1.1681021   -3.1829334   -1.6444742  0.091137474   -3.1829334    1.5384592   500046 
 4906000    1.1692187   -3.1842094   -1.6443782  0.091596153   -3.1842094    1.5398312   500078 
 4907000    1.1683207   -3.1841572   -1.6457731  0.088691122   -3.1841572    1.5383841   500164 
 4908000    1.1668821    -3.182965   -1.6465182  0.087250095    -3.182965    1.5364468   500178 
 4909000    1.1688948   -3.1841541    -1.645131  0.087685602   -3.1841541     1.539023   500202 
 4910000    1.1716137   -3.1859113   -1.6433515  0.088981338   -3.1859113    1.5425597   500216 
 4911000    1.1683518   -3.1825583    -1.644364  0.090954518   -3.1825583    1.5381943   500239 
 4912000    1.1692997   -3.1838106   -1.6443129  0.083358027   -3.1838106    1.5394978   500221 
 4913000    1.1694654   -3.1827126   -1.6430644  0.096106135   -3.1827126    1.5396482   500243 
 4914000     1.169339   -3.1827229   -1.6432319   0.09407665   -3.1827229     1.539491   500240 
 4915000    1.1721327    -3.184892   -1.6418587  0.088850581    -3.184892    1.5430333   500284 
 4916000    1.1716625   -3.1844448   -1.6421198  0.091101041   -3.1844448    1.5423249   500313 
 4917000     1.171686   -3.1849058   -1.6425437  0.093775999   -3.1849058    1.5423621   500311 
 4918000    1.1732192   -3.1855756   -1.6412447  0.091042521   -3.1855756    1.5443309   500327 
 4919000     1.170414   -3.1814207   -1.6409393  0.092889325   -3.1814207    1.5404813   500378 
 4920000    1.1720931   -3.1853543   -1.6427986  0.088069413   -3.1853543    1.5425557   500422 
 4921000     1.170932   -3.1844104   -1.6433735   0.08913461   -3.1844104    1.5410369   500419 
 4922000    1.1704905   -3.1827632   -1.6423443  0.094961234   -3.1827632    1.5404189   500431 
 4923000    1.1695345   -3.1817205    -1.642772  0.087389054   -3.1817205    1.5389485   500500 
 4924000    1.1706721   -3.1833603   -1.6429795  0.085850937   -3.1833603    1.5403808   500521 
 4925000    1.1696481   -3.1827361   -1.6437518  0.084992627   -3.1827361    1.5389842   500537 
 4926000    1.1702455   -3.1833077   -1.6435836  0.088010281   -3.1833077    1.5397242   500552 
 4927000    1.1698732   -3.1829024   -1.6437574   0.08635792   -3.1829024    1.5391451   500581 
 4928000    1.1689023   -3.1810798   -1.6432889   0.07789541   -3.1810798    1.5377909   500606 
 4929000    1.1701193   -3.1829128   -1.6436376  0.090905328   -3.1829128    1.5392751   500644 
 4930000    1.1693094   -3.1832802   -1.6451197   0.08840264   -3.1832802    1.5381606   500660 
 4931000    1.1689543   -3.1815467   -1.6440252  0.089894754   -3.1815467    1.5375215   500716 
 4932000    1.1705872   -3.1830137   -1.6433753  0.091837404   -3.1830137    1.5396385   500726 
 4933000     1.171824   -3.1844493   -1.6431779  0.081792457   -3.1844493    1.5412714   500724 
 4934000    1.1703734   -3.1826236   -1.6432724  0.088849352   -3.1826236    1.5393512   500728 
 4935000    1.1696415   -3.1815665   -1.6431781  0.091477455   -3.1815665    1.5383885   500728 
 4936000    1.1705369   -3.1826201   -1.6431215  0.085805938   -3.1826201    1.5394986   500750 
 4937000    1.1698817   -3.1821739   -1.6435862  0.088343789   -3.1821739    1.5385877   500766 
 4938000    1.1710582   -3.1838195   -1.6437583  0.082924267   -3.1838195    1.5400612   500790 
 4939000    1.1710409    -3.183325   -1.6434618  0.084108377    -3.183325    1.5398632   500847 
 4940000    1.1703685   -3.1823339   -1.6434502  0.088845928   -3.1823339    1.5388837   500878 
 4941000    1.1716885   -3.1829456   -1.6424432  0.089084528   -3.1829456    1.5405025   500916 
 4942000    1.1714038   -3.1826067   -1.6426261   0.09392723   -3.1826067    1.5399805   500964 
 4943000    1.1729063   -3.1840385   -1.6421966  0.090473715   -3.1840385     1.541842   501001 
 4944000    1.1725461   -3.1830966   -1.6417712  0.090079722   -3.1830966    1.5413254   501015 
 4945000    1.1733285   -3.1840222   -1.6417485  0.086088107   -3.1840222    1.5422738   501041 
 4946000    1.1726299   -3.1817825    -1.640507  0.095564333   -3.1817825    1.5412755   501067 
 4947000    1.1733883   -3.1835099   -1.6412776  0.088075349   -3.1835099    1.5422324   501080 
 4948000    1.1725873   -3.1842749   -1.6431875  0.089949896   -3.1842749    1.5410874   501110 
 4949000    1.1732249   -3.1844112   -1.6426766  0.091436867   -3.1844112    1.5417346   501172 
 4950000    1.1739933   -3.1851746   -1.6425903  0.088233924   -3.1851746    1.5425843   501224 
 4951000    1.1745993   -3.1857513   -1.6423769  0.087599407   -3.1857513    1.5433744   501226 
 4952000    1.1726516   -3.1834168   -1.6425832  0.091669742   -3.1834168    1.5408336   501220 
 4953000    1.1722322   -3.1837146   -1.6434413  0.091035553   -3.1837146    1.5402733   501223 
 4954000    1.1737468   -3.1860102   -1.6438238  0.088179503   -3.1860102    1.5421865   501248 
 4955000    1.1726089   -3.1835178   -1.6429462   0.09468897   -3.1835178    1.5405716   501287 
 4956000    1.1740523   -3.1856093   -1.6432429  0.091704094   -3.1856093    1.5423664   501320 
 4957000    1.1712444   -3.1828887   -1.6442449  0.089817082   -3.1828887    1.5386438   501331 
 4958000    1.1731567   -3.1847144   -1.6436076  0.088557227   -3.1847144    1.5411068   501347 
 4959000    1.1724579   -3.1836084   -1.6435179  0.089914693   -3.1836084    1.5400906   501379 
 4960000    1.1735725   -3.1850821   -1.6436135  0.089229902   -3.1850821    1.5414686   501407 
 4961000    1.1740226   -3.1853908   -1.6434203  0.087716859   -3.1853908    1.5419705   501436 
 4962000    1.1737679   -3.1857713   -1.6442244  0.087393208   -3.1857713    1.5415469   501465 
 4963000    1.1733427   -3.1849072   -1.6439771  0.084304883   -3.1849072    1.5409301   501484 
 4964000    1.1729707   -3.1832483   -1.6429696  0.090538092   -3.1832483    1.5402787   501537 
 4965000    1.1704031   -3.1822268   -1.6454146  0.081918397   -3.1822268    1.5368122   501568 
 4966000     1.172381   -3.1826509   -1.6433183  0.089806953   -3.1826509    1.5393325   501593 
 4967000    1.1738894   -3.1844025   -1.6431479  0.088059181   -3.1844025    1.5412547   501612 
 4968000    1.1741933   -3.1838544   -1.6422653  0.092382941   -3.1838544    1.5415891   501633 
 4969000    1.1747567    -3.185029   -1.6428386  0.092727457    -3.185029    1.5421904   501678 
 4970000    1.1751407   -3.1863248   -1.6437378  0.088435178   -3.1863248     1.542587   501713 
 4971000    1.1748865   -3.1847369   -1.6426804  0.092218352   -3.1847369    1.5420565   501777 
 4972000    1.1772137   -3.1864365   -1.6414886  0.090877446   -3.1864365    1.5449479   501830 
 4973000    1.1767972   -3.1856998   -1.6413694  0.089245606   -3.1856998    1.5443304   501853 
 4974000    1.1784242   -3.1865779   -1.6402325  0.089102198   -3.1865779    1.5463454   501892 
 4975000    1.1764976   -3.1842402   -1.6405091  0.091771285   -3.1842402    1.5437311   501920 
 4976000    1.1764334     -3.18395   -1.6403185  0.098282391     -3.18395    1.5436315   501925 
 4977000    1.1781455   -3.1851079   -1.6393284  0.092907568   -3.1851079    1.5457795   501957 
 4978000    1.1768266   -3.1847323   -1.6407355  0.096262048   -3.1847323    1.5439967   501974 
 4979000    1.1765977   -3.1864743   -1.6427594  0.094134522   -3.1864743    1.5437149   501968 
 4980000    1.1770399    -3.186091   -1.6419406   0.09702944    -3.186091    1.5441504   502015 
 4981000    1.1768323   -3.1854537   -1.6416248  0.094262869   -3.1854537    1.5438289   502031 
 4982000    1.1773424   -3.1858672   -1.6414644  0.095138877   -3.1858672    1.5444028   502062 
 4983000    1.1765477   -3.1876407    -1.644305   0.09034326   -3.1876407    1.5433357   502070 
 4984000    1.1757636   -3.1876962   -1.6453952  0.091762054   -3.1876962     1.542301   502072 
 4985000     1.176105    -3.188853   -1.6461994   0.09158024    -3.188853    1.5426536   502103 
 4986000    1.1748032    -3.186686   -1.6458566  0.093112291    -3.186686    1.5408294   502141 
 4987000    1.1742326   -3.1860459   -1.6460047  0.088694722   -3.1860459    1.5400412   502154 
 4988000    1.1746958   -3.1866225   -1.6461058  0.089221961   -3.1866225    1.5405168   502197 
 4989000     1.175797   -3.1874244   -1.6456292  0.095615067   -3.1874244    1.5417952   502251 
 4990000    1.1752326   -3.1860255   -1.6450379  0.091003345   -3.1860255    1.5409876   502273 
 4991000    1.1773374   -3.1899374   -1.6462668   0.09026717   -3.1899374    1.5436706   502298 
 4992000    1.1750086   -3.1872163   -1.6467218  0.092481331   -3.1872163    1.5404945   502338 
 4993000    1.1747087   -3.1866803   -1.6466833  0.087783568   -3.1866803    1.5399971   502372 
 4994000    1.1739054   -3.1856297   -1.6467655  0.087754814   -3.1856297    1.5388643   502398 
 4995000    1.1744419    -3.186836   -1.6473175  0.088337504    -3.186836    1.5395185   502414 
 4996000    1.1735774   -3.1857912   -1.6474886  0.086036707   -3.1857912    1.5383026   502441 
 4997000     1.174543   -3.1874353   -1.6479804  0.089172347   -3.1874353     1.539455   502478 
 4998000    1.1762247   -3.1893406   -1.6477489  0.090390667   -3.1893406    1.5415917   502500 
 4999000    1.1755924   -3.1874208   -1.6467897  0.086899333   -3.1874208    1.5406312   502543 
 5000000     1.176012   -3.1876477   -1.6464574  0.088573666   -3.1876477    1.5411903   502540 
 5001000    1.1764151   -3.1874109   -1.6457385  0.091610861   -3.1874109    1.5416724   502555 
 5002000    1.1767153   -3.1879379   -1.6459088  0.093269811   -3.1879379    1.5420291   502567 
 5003000    1.1767386   -3.1885955   -1.6465481  0.091865025   -3.1885955    1.5420474   502571 
 5004000    1.1773102   -3.1883903    -1.645686  0.092637364   -3.1883903    1.5427043   502601 
 5005000    1.1773686   -3.1880477   -1.6453129  0.085843652   -3.1880477    1.5427347   502616 
 5006000    1.1780756    -3.188526   -1.6449999  0.096810217    -3.188526    1.5435261   502660 
 5007000    1.1792774   -3.1891391   -1.6440045  0.096404267   -3.1891391    1.5451345   502649 
 5008000    1.1778223   -3.1875048   -1.6443444  0.089327047   -3.1875048    1.5431604   502671 
 5009000    1.1771514   -3.1862626   -1.6440242  0.097042871   -3.1862626    1.5422384   502685 
 5010000    1.1774038   -3.1871948   -1.6446717  0.096696854   -3.1871948    1.5425231   502700 
 5011000    1.1787118   -3.1889492   -1.6447862  0.083063929   -3.1889492    1.5441629   502724 
 5012000    1.1765812   -3.1857227   -1.6445041  0.095040352   -3.1857227    1.5412186   502774 
 5013000    1.1755992   -3.1863098   -1.6465123  0.090388305   -3.1863098    1.5397975   502818 
 5014000    1.1772417   -3.1882999   -1.6465166  0.085639871   -3.1882999    1.5417833   502872 
 5015000    1.1774144   -3.1885479   -1.6466335  0.086459789   -3.1885479    1.5419144   502903 
 5016000    1.1746128   -3.1851543   -1.6470587  0.090799524   -3.1851543    1.5380956   502952 
 5017000    1.1752484   -3.1866286    -1.647814  0.083747065   -3.1866286    1.5388146   502989 
 5018000    1.1774809   -3.1891945   -1.6475641  0.088907472   -3.1891945    1.5416305   503024 
 5019000    1.1749309   -3.1853825   -1.6470936  0.089816123   -3.1853825    1.5382889   503025 
 5020000    1.1760202   -3.1860564   -1.6464731  0.085898471   -3.1860564    1.5395834   503068 
 5021000    1.1741547   -3.1846024   -1.6474368  0.086342158   -3.1846024    1.5371656   503060 
 5022000    1.1760606   -3.1864402   -1.6469355  0.082563699   -3.1864402    1.5395047   503111 
 5023000    1.1770103   -3.1872784   -1.6466254  0.084159765   -3.1872784     1.540653   503142 
 5024000    1.1781297   -3.1892329   -1.6471882  0.092540613   -3.1892329    1.5420446   503166 
 5025000    1.1770201   -3.1873874   -1.6467919  0.086827936   -3.1873874    1.5405954   503165 
 5026000    1.1768699   -3.1872912   -1.6470149  0.085408836   -3.1872912    1.5402763   503205 
 5027000    1.1779508   -3.1877304   -1.6461497  0.086136604   -3.1877304    1.5415807   503241 
 5028000    1.1776889   -3.1862538   -1.6451108   0.09459891   -3.1862538     1.541143   503272 
 5029000    1.1799241   -3.1882257   -1.6441822  0.093268006   -3.1882257    1.5440435   503280 
 5030000    1.1805935   -3.1897742   -1.6449499  0.096553914   -3.1897742    1.5448243   503311 
 5031000    1.1788039   -3.1882643   -1.6458308  0.087720004   -3.1882643    1.5424336   503327 
 5032000    1.1790908   -3.1874982   -1.6447658  0.095727614   -3.1874982    1.5427324   503352 
 5033000    1.1788792   -3.1881855   -1.6458434  0.089848045   -3.1881855    1.5423421   503389 
 5034000    1.1779885    -3.188021   -1.6468687   0.09761472    -3.188021    1.5411523   503397 
 5035000    1.1796067   -3.1891205   -1.6459063   0.08918992   -3.1891205    1.5432141   503415 
 5036000    1.1793461    -3.189159   -1.6463379   0.09098857    -3.189159    1.5428211   503432 
 5037000     1.179107   -3.1901345   -1.6476874    0.0901447   -3.1901345    1.5424471   503452 
 5038000     1.176735   -3.1873646    -1.648158  0.094331867   -3.1873646    1.5392066   503497 
 5039000    1.1779988   -3.1883316   -1.6475729  0.088840602   -3.1883316    1.5407587   503530 
 5040000    1.1776788    -3.187425    -1.647198  0.092793641    -3.187425     1.540227   503567 
 5041000     1.177717   -3.1868026   -1.6466235  0.088681917   -3.1868026    1.5401791   503599 
 5042000    1.1781888   -3.1875224   -1.6468089   0.09047408   -3.1875224    1.5407135   503626 
 5043000    1.1791107   -3.1889245    -1.647079  0.087143655   -3.1889245    1.5418455   503650 
 5044000    1.1787063   -3.1875226   -1.6463283  0.090898589   -3.1875226    1.5411944   503690 
 5045000    1.1797874   -3.1871957    -1.644649  0.091296001   -3.1871957    1.5425467   503710 
 5046000    1.1799387   -3.1878789   -1.6452263  0.097899784   -3.1878789    1.5426526   503740 
 5047000    1.1789995   -3.1870227   -1.6456592  0.089534126   -3.1870227    1.5413635   503760 
 5048000    1.1801776   -3.1878702   -1.6451013  0.086375817   -3.1878702    1.5427689   503804 
 5049000    1.1789818   -3.1857867   -1.6446514  0.093388838   -3.1857867    1.5411353   503827 
 5050000    1.1812512   -3.1887688    -1.644768  0.087300495   -3.1887688    1.5440008   503860 
 5051000    1.1795106   -3.1859294   -1.6443445    0.0916809   -3.1859294    1.5415849   503906 
 5052000    1.1816781   -3.1882616   -1.6439603  0.088801473   -3.1882616    1.5443014   503944 
 5053000    1.1806687   -3.1875952   -1.6446804  0.090575143   -3.1875952    1.5429148   503966 
 5054000    1.1795266   -3.1859811   -1.6446444  0.091814183   -3.1859811    1.5413367   503994 
 5055000    1.1800468   -3.1867673   -1.6446683  0.085668461   -3.1867673     1.542099   503967 
 5056000    1.1795068   -3.1858419   -1.6446137  0.087457899   -3.1858419    1.5412282   504021 
 5057000     1.178666   -3.1852221    -1.645169  0.089040729   -3.1852221    1.5400531   504046 
 5058000    1.1785766   -3.1863946   -1.6464888  0.083720588   -3.1863946    1.5399058   504056 
 5059000    1.1771686   -3.1855202   -1.6474724  0.083633543   -3.1855202    1.5380478   504062 
 5060000     1.180222   -3.1890388   -1.6470443  0.087728795   -3.1890388    1.5419945   504076 
 5061000    1.1789373   -3.1872509   -1.6469778  0.083428269   -3.1872509    1.5402732   504090 
 5062000    1.1785917   -3.1857098   -1.6459951  0.093695466   -3.1857098    1.5397148   504125 
 5063000    1.1795002    -3.187548   -1.6467228  0.084956324    -3.187548    1.5408253   504150 
 5064000    1.1803144   -3.1872949   -1.6454764  0.091129265   -3.1872949    1.5418185   504173 
 5065000    1.1807276   -3.1872729   -1.6449085  0.082372498   -3.1872729    1.5423644   504171 
 5066000    1.1812932    -3.186935   -1.6439083  0.094672183    -3.186935    1.5430267   504196 
 5067000    1.1791208   -3.1864556    -1.646404  0.089795788   -3.1864556    1.5400516   504241 
 5068000    1.1809427   -3.1879758   -1.6456883   0.08413577   -3.1879758    1.5422875   504288 
 5069000    1.1805894    -3.187797   -1.6459954  0.086721241    -3.187797    1.5418016   504296 
 5070000    1.1813768   -3.1890232    -1.646227  0.088625121   -3.1890232    1.5427963   504307 
 5071000    1.1812127   -3.1887259   -1.6461012   0.08681014   -3.1887259    1.5426248   504293 
 5072000    1.1807703   -3.1883838   -1.6463704  0.089868004   -3.1883838    1.5420134   504304 
 5073000    1.1806543    -3.187479    -1.645721  0.092190468    -3.187479     1.541758   504338 
 5074000    1.1828687   -3.1911028   -1.6465451  0.090634229   -3.1911028    1.5445577   504368 
 5075000    1.1821845   -3.1903687   -1.6468267  0.087475417   -3.1903687    1.5435419   504408 
 5076000    1.1801014   -3.1873173   -1.6465259  0.092967206   -3.1873173    1.5407915   504418 
 5077000    1.1809042   -3.1889408   -1.6472233   0.08827156   -3.1889408    1.5417175   504458 
 5078000    1.1818564   -3.1894711   -1.6466573  0.092664939   -3.1894711    1.5428137   504506 
 5079000    1.1821756   -3.1885498   -1.6453622  0.096489913   -3.1885498    1.5431877   504520 
 5080000    1.1822496   -3.1882003   -1.6449589  0.092178236   -3.1882003    1.5432414   504534 
 5081000    1.1819307   -3.1880809   -1.6454178  0.087631809   -3.1880809    1.5426631   504587 
 5082000    1.1813106   -3.1883149   -1.6465467  0.091511194   -3.1883149    1.5417682   504615 
 5083000    1.1812867   -3.1897811   -1.6480563  0.088160559   -3.1897811    1.5417248   504619 
 5084000    1.1824094   -3.1902063   -1.6469857  0.091200671   -3.1902063    1.5432206   504609 
 5085000    1.1820547   -3.1900102   -1.6473014  0.093443049   -3.1900102    1.5427088   504625 
 5086000    1.1801653   -3.1886258   -1.6484074  0.092204884   -3.1886258    1.5402184   504633 
 5087000    1.1810261   -3.1899099   -1.6486719  0.088143053   -3.1899099     1.541238   504667 
 5088000    1.1812273   -3.1893737   -1.6478699  0.092506911   -3.1893737    1.5415037   504666 
 5089000    1.1817715   -3.1888466   -1.6467214   0.08951399   -3.1888466    1.5421252   504695 
 5090000    1.1821427   -3.1887179   -1.6462397  0.088185576   -3.1887179    1.5424782   504738 
 5091000      1.18057   -3.1871648   -1.6468394   0.08878028   -3.1871648    1.5403254   504771 
 5092000     1.180835   -3.1881419   -1.6475134  0.088116041   -3.1881419    1.5406285   504785 
 5093000    1.1807291   -3.1884656   -1.6481004  0.084895718   -3.1884656    1.5403652   504826 
 5094000    1.1803992   -3.1885867   -1.6487435  0.091752915   -3.1885867    1.5398432   504856 
 5095000    1.1815671   -3.1904952   -1.6491498  0.086792295   -3.1904952    1.5413454   504863 
 5096000    1.1817746   -3.1892884   -1.6477853  0.089125431   -3.1892884    1.5415031   504900 
 5097000    1.1816379   -3.1895847   -1.6483423  0.087064891   -3.1895847    1.5412424   504927 
 5098000    1.1821679   -3.1901167   -1.6483937  0.090144078   -3.1901167     1.541723   504996 
 5099000     1.180048   -3.1877944   -1.6490067  0.093116283   -3.1877944    1.5387877   505052 
 5100000    1.1811612   -3.1890149   -1.6489006  0.092987164   -3.1890149    1.5401143   505093 
 5101000    1.1819591   -3.1886945   -1.6475673  0.088441843   -3.1886945    1.5411272   505102 
 5102000    1.1830181   -3.1896322   -1.6473196   0.09125476   -3.1896322    1.5423127   505166 
 5103000    1.1840721   -3.1904232   -1.6468342  0.087487763   -3.1904232     1.543589   505198 
 5104000    1.1835471   -3.1898154   -1.6470178  0.092241474   -3.1898154    1.5427977   505233 
 5105000      1.18386   -3.1907599   -1.6476704   0.09139448   -3.1907599    1.5430895   505271 
 5106000     1.183583    -3.189897   -1.6471258  0.098366732    -3.189897    1.5427712   505257 
 5107000    1.1833111   -3.1891054   -1.6467345   0.10475736   -3.1891054    1.5423709   505272 
 5108000    1.1850638   -3.1928854   -1.6482727  0.094032421   -3.1928854    1.5446127   505286 
 5109000    1.1852347   -3.1938938   -1.6491745  0.090534191   -3.1938938    1.5447193   505324 
 5110000    1.1845165    -3.191826   -1.6481496  0.087018649    -3.191826    1.5436763   505359 
 5111000    1.1843595    -3.191963   -1.6486104  0.091200971    -3.191963    1.5433526   505398 
 5112000    1.1839435   -3.1918367   -1.6491208  0.090984782   -3.1918367    1.5427159   505429 
 5113000    1.1836151   -3.1915968   -1.6493119  0.093021521   -3.1915968    1.5422849   505430 
 5114000     1.184514   -3.1921786   -1.6487958  0.092145431   -3.1921786    1.5433829   505454 
 5115000    1.1835421    -3.191148   -1.6489887  0.093976419    -3.191148    1.5421592   505440 
 5116000    1.1853405   -3.1941632    -1.649737  0.090409385   -3.1941632    1.5444263   505465 
 5117000    1.1835895   -3.1933422   -1.6512462  0.095396978   -3.1933422     1.542096   505481 
 5118000    1.1826825   -3.1927078    -1.651885  0.087782903   -3.1927078    1.5408228   505511 
 5119000    1.1829835   -3.1924719   -1.6513453  0.091693753   -3.1924719    1.5411266   505540 
 5120000    1.1847786   -3.1937956   -1.6504831  0.093171238   -3.1937956    1.5433125   505590 
 5121000    1.1844297   -3.1941758   -1.6513086  0.090794367   -3.1941758    1.5428672   505587 
 5122000    1.1838178   -3.1923715   -1.6503778  0.091055719   -3.1923715    1.5419938   505612 
 5123000    1.1830616   -3.1923861   -1.6515236  0.091421572   -3.1923861    1.5408625   505660 
 5124000    1.1842226   -3.1930742   -1.6508428  0.094605173   -3.1930742    1.5422313   505707 
 5125000    1.1831573   -3.1929295   -1.6522135  0.082372957   -3.1929295     1.540716   505749 
 5126000    1.1826379   -3.1909059    -1.650976  0.092790194   -3.1909059    1.5399299   505785 
 5127000    1.1830756   -3.1915796   -1.6512351  0.089405549   -3.1915796    1.5403446   505836 
 5128000    1.1836456   -3.1921733   -1.6511657  0.086793625   -3.1921733    1.5410076   505862 
 5129000    1.1845789    -3.192514   -1.6503677   0.09193538    -3.192514    1.5421464   505887 
 5130000    1.1853901   -3.1934489   -1.6503105  0.097656769   -3.1934489    1.5431384   505908 
 5131000    1.1854379   -3.1925264   -1.6494538  0.089824729   -3.1925264    1.5430726   505950 
 5132000    1.1844686    -3.190828   -1.6490813  0.092675018    -3.190828    1.5417468   505971 
 5133000    1.1867367   -3.1944075    -1.649858  0.089397611   -3.1944075    1.5445494   506020 
 5134000    1.1873733   -3.1934897   -1.6480963  0.090399026   -3.1934897    1.5453933   506015 
 5135000    1.1862154   -3.1921325    -1.648411  0.093987785   -3.1921325    1.5437214   506069 
 5136000    1.1876876   -3.1920924   -1.6465527  0.087864179   -3.1920924    1.5455397   506101 
 5137000    1.1871132   -3.1920007   -1.6473459  0.092336349   -3.1920007    1.5446548   506146 
 5138000    1.1859341   -3.1895435   -1.6464868  0.092020709   -3.1895435    1.5430566   506167 
 5139000    1.1857351   -3.1912073   -1.6485406  0.088141581   -3.1912073    1.5426667   506210 
 5140000    1.1858549   -3.1901071    -1.647376   0.09106544   -3.1901071    1.5427311   506240 
 5141000    1.1856998   -3.1894462   -1.6469991  0.090219289   -3.1894462    1.5424471   506267 
 5142000    1.1857593    -3.191039   -1.6487217  0.088766255    -3.191039    1.5423173   506335 
 5143000     1.184621   -3.1906713   -1.6499228  0.081732796   -3.1906713    1.5407485   506364 
 5144000    1.1852628    -3.190598   -1.6490178  0.084875868    -3.190598    1.5415802   506365 
 5145000    1.1838761   -3.1890336   -1.6493331  0.088549295   -3.1890336    1.5397005   506390 
 5146000    1.1836351   -3.1890819   -1.6497252  0.090143659   -3.1890819    1.5393567   506400 
 5147000    1.1839924   -3.1898646   -1.6501588  0.090127729   -3.1898646    1.5397058   506438 
 5148000    1.1840446   -3.1884856   -1.6488426   0.08523427   -3.1884856     1.539643   506481 
 5149000    1.1843888   -3.1882775   -1.6483542  0.089023215   -3.1882775    1.5399233   506536 
 5150000      1.18503   -3.1887825   -1.6481349  0.090706899   -3.1887825    1.5406476   506572 
 5151000    1.1845452   -3.1880962   -1.6482522  0.086317792   -3.1880962     1.539844   506629 
 5152000    1.1839372   -3.1882818   -1.6492221  0.087928081   -3.1882818    1.5390597   506627 
 5153000    1.1837767   -3.1876043   -1.6487077  0.085783755   -3.1876043    1.5388966   506612 
 5154000    1.1859039   -3.1901576   -1.6485747  0.085238849   -3.1901576    1.5415828   506638 
 5155000    1.1859448   -3.1901601   -1.6485972  0.089042764   -3.1901601    1.5415629   506662 
 5156000    1.1876364   -3.1917545   -1.6480992  0.091770189   -3.1917545    1.5436552   506697 
 5157000    1.1869425   -3.1916453   -1.6489407  0.090066576   -3.1916453    1.5427046   506713 
 5158000    1.1880311   -3.1931893   -1.6491277  0.087067833   -3.1931893    1.5440616   506732 
 5159000    1.1853001    -3.189671   -1.6492348  0.098784682    -3.189671    1.5404361   506757 
 5160000    1.1865591   -3.1915045   -1.6495538  0.096762335   -3.1915045    1.5419507   506797 
 5161000    1.1846764   -3.1895209   -1.6501324  0.094883061   -3.1895209    1.5393886   506835 
 5162000    1.1866576   -3.1931391   -1.6513768   0.08214322   -3.1931391    1.5417623   506901 
 5163000    1.1861724   -3.1916932   -1.6506799  0.090932403   -3.1916932    1.5410133   506940 
 5164000     1.187821   -3.1937432   -1.6506763  0.087536615   -3.1937432    1.5430669   506969 
 5165000    1.1869129   -3.1940046   -1.6521995   0.09588081   -3.1940046     1.541805   506996 
 5166000     1.188498   -3.1964994   -1.6527267  0.090160795   -3.1964994    1.5437727   507026 
 5167000    1.1868937   -3.1938577   -1.6522874  0.086771903   -3.1938577    1.5415703   507065 
 5168000    1.1883618   -3.1952936   -1.6518774  0.091349753   -3.1952936    1.5434162   507085 
 5169000    1.1865456   -3.1934539   -1.6525303  0.093622307   -3.1934539    1.5409237   507129 
 5170000    1.1867079   -3.1937705   -1.6526118  0.096251998   -3.1937705    1.5411587   507121 
 5171000    1.1874234    -3.194148   -1.6521329  0.094535269    -3.194148     1.542015   507145 
 5172000    1.1865631   -3.1938203    -1.652959  0.091438026   -3.1938203    1.5408613   507157 
 5173000    1.1880085   -3.1937039   -1.6511421  0.093716045   -3.1937039    1.5425619   507215 
 5174000    1.1878994    -3.193639     -1.65131  0.086908514    -3.193639     1.542329   507245 
 5175000    1.1887387    -3.195091   -1.6517635  0.094603025    -3.195091    1.5433275   507275 
 5176000    1.1880004   -3.1932947   -1.6510048  0.090323511   -3.1932947    1.5422899   507301 
 5177000     1.187558   -3.1940616    -1.652501  0.083079386   -3.1940616    1.5415606   507352 
 5178000    1.1893417   -3.1948866   -1.6511567    0.0892742   -3.1948866    1.5437299   507400 
 5179000    1.1882056   -3.1940768   -1.6519371  0.087661572   -3.1940768    1.5421397   507438 
 5180000    1.1862428   -3.1921089   -1.6525591  0.088322288   -3.1921089    1.5395498   507452 
 5181000    1.1876282   -3.1926731   -1.6513981  0.086234058   -3.1926731     1.541275   507476 
 5182000    1.1881192   -3.1941087   -1.6522421  0.092638918   -3.1941087    1.5418666   507491 
 5183000    1.1876323   -3.1928649   -1.6518245  0.092359397   -3.1928649    1.5410404   507555 
 5184000    1.1882507   -3.1934738   -1.6516674  0.083766521   -3.1934738    1.5418064   507567 
 5185000    1.1868728   -3.1921381   -1.6523199  0.087556711   -3.1921381    1.5398182   507633 
 5186000    1.1858461   -3.1899816   -1.6515409  0.094876939   -3.1899816    1.5384407   507648 
 5187000    1.1887662   -3.1939047   -1.6516756  0.082890603   -3.1939047    1.5422291   507648 
 5188000     1.188778   -3.1924605   -1.6502707  0.083271918   -3.1924605    1.5421898   507666 
 5189000     1.189158    -3.193227   -1.6505625  0.087797655    -3.193227    1.5426645   507672 
 5190000    1.1881349    -3.192535   -1.6512979  0.092757943    -3.192535    1.5412371   507705 
 5191000    1.1881352   -3.1920172   -1.6509953   0.09510292   -3.1920172    1.5410219   507776 
 5192000    1.1889328    -3.193982    -1.652047  0.087344195    -3.193982     1.541935   507816 
 5193000    1.1902986   -3.1937355   -1.6501235  0.090336169   -3.1937355    1.5436121   507847 
 5194000    1.1896717   -3.1915095   -1.6487681  0.096006807   -3.1915095    1.5427414   507866 
 5195000    1.1895213   -3.1923741   -1.6498156  0.095203822   -3.1923741    1.5425585   507862 
 5196000    1.1902753   -3.1935738   -1.6500467  0.093545821   -3.1935738    1.5435272   507865 
 5197000     1.189264   -3.1931086   -1.6509567  0.092909233   -3.1931086    1.5421519   507886 
 5198000    1.1889613   -3.1932907    -1.651686  0.092750562   -3.1932907    1.5416047   507937 
 5199000    1.1908584   -3.1960236   -1.6519167  0.084414845   -3.1960236    1.5441069   507923 
 5200000      1.18835   -3.1916487   -1.6509246  0.091018814   -3.1916487    1.5407241   507966 
 5201000    1.1882186   -3.1913826   -1.6508925  0.095685729   -3.1913826      1.54049   507987 
 5202000    1.1907129   -3.1929435   -1.6493869  0.097417367   -3.1929435    1.5435567   508042 
 5203000    1.1908271   -3.1935344   -1.6499118  0.095233479   -3.1935344    1.5436226   508069 
 5204000    1.1910993   -3.1937583   -1.6498861  0.094441802   -3.1937583    1.5438722   508103 
 5205000    1.1904749   -3.1945099   -1.6514563   0.08939296   -3.1945099    1.5430537   508106 
 5206000    1.1900898   -3.1945199   -1.6520291  0.091857211   -3.1945199    1.5424908   508127 
 5207000    1.1905563   -3.1957954   -1.6527697   0.08903958   -3.1957954    1.5430257   508150 
 5208000    1.1917153   -3.1959248   -1.6514518  0.090292721   -3.1959248     1.544473   508168 
 5209000    1.1930582   -3.1963726   -1.6502231  0.089410328   -3.1963726    1.5461495   508189 
 5210000    1.1911843   -3.1947889    -1.651083  0.094334723   -3.1947889    1.5437059   508194 
 5211000    1.1918599   -3.1954981   -1.6509349  0.090099852   -3.1954981    1.5445632   508200 
 5212000    1.1894617   -3.1933108   -1.6518889  0.087142336   -3.1933108    1.5414219   508211 
 5213000    1.1906761   -3.1952229   -1.6522879  0.093255234   -3.1952229    1.5429349   508231 
 5214000    1.1897305   -3.1945303   -1.6529753  0.090747505   -3.1945303    1.5415549   508282 
 5215000    1.1884145   -3.1942776    -1.654443  0.089022919   -3.1942776    1.5398346   508287 
 5216000    1.1877799   -3.1942907    -1.655345  0.088031229   -3.1942907    1.5389457   508309 
 5217000    1.1889095   -3.1957598   -1.6554838   0.09208041   -3.1957598     1.540276   508353 
 5218000    1.1879017   -3.1949192   -1.6559883  0.080878846   -3.1949192    1.5389309   508366 
 5219000    1.1881483   -3.1946983   -1.6555447  0.086744359   -3.1946983    1.5391536   508398 
 5220000    1.1877595   -3.1944833   -1.6558213  0.083685874   -3.1944833     1.538662   508394 
 5221000    1.1894627   -3.1970576   -1.6563074   0.08349941   -3.1970576    1.5407502   508433 
 5222000    1.1888948   -3.1948796    -1.654871  0.088080524   -3.1948796    1.5400085   508435 
 5223000    1.1892629   -3.1948458    -1.654412  0.087766945   -3.1948458    1.5404338   508452 
 5224000     1.188768    -3.193576   -1.6539164   0.08741588    -3.193576    1.5396596   508496 
 5225000    1.1898454   -3.1949121   -1.6539965   0.08456863   -3.1949121    1.5409156   508542 
 5226000    1.1906515   -3.1964962   -1.6547035  0.088135132   -3.1964962    1.5417927   508597 
 5227000     1.188941    -3.194336   -1.6547097   0.08822533    -3.194336    1.5396263   508581 
 5228000    1.1917771   -3.1968108   -1.6535999  0.089568382   -3.1968108    1.5432108   508610 
 5229000    1.1908956   -3.1956387   -1.6535722  0.085628449   -3.1956387    1.5420664   508611 
 5230000     1.190991   -3.1962119   -1.6540978  0.089226616   -3.1962119    1.5421141   508636 
 5231000    1.1902507   -3.1950323   -1.6539494  0.090310516   -3.1950323    1.5410829   508660 
 5232000     1.190312   -3.1933735   -1.6523113  0.093147395   -3.1933735    1.5410622   508693 
 5233000    1.1925037   -3.1961371   -1.6523375  0.088369664   -3.1961371    1.5437996   508726 
 5234000    1.1917382   -3.1956936   -1.6530214  0.090558907   -3.1956936    1.5426722   508771 
 5235000    1.1910324   -3.1944281   -1.6528119  0.086531615   -3.1944281    1.5416162   508818 
 5236000    1.1916406    -3.194551   -1.6522386  0.092552635    -3.194551    1.5423123   508848 
 5237000    1.1907002   -3.1946283   -1.6536331  0.087629026   -3.1946283    1.5409953   508881 
 5238000    1.1919271   -3.1958108   -1.6532579  0.089878827   -3.1958108    1.5425529   508891 
 5239000    1.1903696   -3.1938897   -1.6534797  0.088383129   -3.1938897      1.54041   508933 
 5240000    1.1903873   -3.1948075   -1.6544533  0.090575679   -3.1948075    1.5403543   508959 
 5241000    1.1901577   -3.1939673   -1.6539494  0.080651018   -3.1939673    1.5400179   508972 
 5242000    1.1893435   -3.1924917   -1.6535607   0.08677473   -3.1924917     1.538931   508983 
 5243000    1.1903956    -3.194304   -1.6540752  0.088816504    -3.194304    1.5402288   509004 
 5244000    1.1895266   -3.1930486   -1.6540893  0.088991102   -3.1930486    1.5389593   509052 
 5245000    1.1883633   -3.1931502    -1.655723  0.086898663   -3.1931502    1.5374271   509061 
 5246000    1.1892993   -3.1944845   -1.6558192  0.081742052   -3.1944845    1.5386652   509052 
 5247000    1.1892406   -3.1939988   -1.6555213  0.086254443   -3.1939988    1.5384775   509089 
 5248000     1.190022    -3.194877   -1.6554732  0.087121911    -3.194877    1.5394037   509117 
 5249000    1.1912037   -3.1967598   -1.6558849  0.077659809   -3.1967598    1.5408749   509136 
 5250000    1.1905643   -3.1961341   -1.6561106  0.086566489   -3.1961341    1.5400235   509144 
 5251000    1.1901848    -3.194683   -1.6552955  0.079107981    -3.194683    1.5393875   509192 
 5252000    1.1896041   -3.1933852   -1.6548303  0.085351261   -3.1933852    1.5385548   509219 
 5253000    1.1898396    -3.192597   -1.6537798  0.087960958    -3.192597    1.5388172   509233 
 5254000     1.191233   -3.1959247   -1.6553237  0.082511187   -3.1959247     1.540601   509239 
 5255000    1.1898049   -3.1942296   -1.6555328  0.090749717   -3.1942296    1.5386967   509258 
 5256000    1.1898784   -3.1936772   -1.6550185  0.087653669   -3.1936772    1.5386588   509302 
 5257000    1.1908585   -3.1944338   -1.6545591  0.084300502   -3.1944338    1.5398748   509319 
 5258000    1.1918292    -3.195395   -1.6542711  0.085651365    -3.195395    1.5411239   509321 
 5259000    1.1923017   -3.1969402   -1.6553536  0.086576791   -3.1969402    1.5415866   509370 
 5260000    1.1932597   -3.1970369   -1.6543904   0.08687161   -3.1970369    1.5426465   509429 
 5261000    1.1943823   -3.1983066   -1.6542876  0.081440914   -3.1983066     1.544019   509455 
 5262000     1.192827   -3.1956636    -1.653752  0.089820507   -3.1956636    1.5419116   509487 
 5263000    1.1921638   -3.1961489   -1.6551279  0.092597219   -3.1961489     1.541021   509498 
 5264000    1.1923284   -3.1972101   -1.6560731  0.092493159   -3.1972101     1.541137   509530 
 5265000    1.1918325   -3.1959722   -1.6556031  0.092706343   -3.1959722    1.5403691   509572 
 5266000     1.194213    -3.199031   -1.6556791  0.091796422    -3.199031    1.5433518   509603 
 5267000    1.1936203   -3.1981732   -1.6556358  0.094963137   -3.1981732    1.5425374   509619 
 5268000     1.193294   -3.1976047   -1.6556069    0.0886944   -3.1976047    1.5419978   509658 
 5269000    1.1907445   -3.1956833   -1.6570676  0.097634985   -3.1956833    1.5386157   509687 
 5270000    1.1920523   -3.1967161   -1.6565041  0.089965247   -3.1967161    1.5402119   509718 
 5271000    1.1933375   -3.1983881   -1.6567001  0.091046998   -3.1983881     1.541688   509779 
 5272000    1.1923206      -3.1984   -1.6581286  0.086407742      -3.1984    1.5402714   509813 
 5273000    1.1928651   -3.1987139   -1.6578418  0.087320214   -3.1987139    1.5408721   509847 
 5274000    1.1934248   -3.2004104   -1.6589362  0.091661755   -3.2004104    1.5414742   509887 
 5275000    1.1927325   -3.1999914   -1.6595353  0.094102364   -3.1999914    1.5404561   509928 
 5276000    1.1930581   -3.2012303   -1.6603175  0.086615828   -3.2012303    1.5409129   509916 
 5277000    1.1920358    -3.200292   -1.6607931  0.091183384    -3.200292     1.539499   509947 
 5278000    1.1922178   -3.1996816   -1.6600653  0.087077831   -3.1996816    1.5396163   509986 
 5279000    1.1942741   -3.2021388   -1.6598792  0.086149036   -3.2021388    1.5422597   509990 
 5280000    1.1938679   -3.2011975   -1.6594867  0.090306621   -3.2011975    1.5417108   509998 
 5281000    1.1934296   -3.2005198   -1.6594806  0.093203318   -3.2005198    1.5410391   510033 
 5282000    1.1944509   -3.2005952   -1.6583069  0.090513541   -3.2005952    1.5422883   510056 
 5283000    1.1938849   -3.1990619   -1.6575951  0.093464149   -3.1990619    1.5414668   510086 
 5284000    1.1955458    -3.200936   -1.6573852  0.091227455    -3.200936    1.5435508   510106 
 5285000    1.1963026   -3.2011287   -1.6566099  0.093365777   -3.2011287    1.5445188   510109 
 5286000    1.1957022   -3.2009814   -1.6573771  0.090512562   -3.2009814    1.5436044   510155 
 5287000     1.196318   -3.2023476   -1.6580723  0.088129472   -3.2023476    1.5442753   510196 
 5288000     1.195076   -3.2001396   -1.6575644  0.087443557   -3.2001396    1.5425753   510228 
 5289000    1.1943067   -3.2008059   -1.6593776  0.084760093   -3.2008059    1.5414282   510279 
 5290000    1.1933185   -3.1997683   -1.6597181  0.091378683   -3.1997683    1.5400502   510313 
 5291000     1.194292   -3.2021442    -1.660886   0.08665683   -3.2021442    1.5412582   510329 
 5292000    1.1939743   -3.2009917   -1.6602794   0.08990064   -3.2009917    1.5407123   510374 
 5293000     1.192007   -3.1988493   -1.6607841  0.090423757   -3.1988493    1.5380653   510410 
 5294000    1.1934306   -3.2013435   -1.6614625  0.087088906   -3.2013435     1.539881   510417 
 5295000    1.1929903   -3.2013615    -1.662115  0.089760767   -3.2013615    1.5392465   510439 
 5296000    1.1942505   -3.2021722   -1.6613238  0.088298759   -3.2021722    1.5408484   510447 
 5297000     1.193701   -3.2014274   -1.6613875  0.087543872   -3.2014274    1.5400399   510480 
 5298000    1.1939036   -3.2034271   -1.6631379   0.08722072   -3.2034271    1.5402892   510484 
 5299000    1.1937967   -3.2025663   -1.6625599  0.085189751   -3.2025663    1.5400064   510532 
 5300000    1.1929002   -3.2011841    -1.662313  0.086456253   -3.2011841    1.5388711   510525 
 5301000     1.193217   -3.2014779   -1.6623338  0.082878639   -3.2014779     1.539144   510570 
 5302000    1.1939794   -3.2025353   -1.6625405  0.085374883   -3.2025353    1.5399948   510614 
 5303000    1.1957698   -3.2044773   -1.6622729  0.093002513   -3.2044773    1.5422044   510647 
 5304000    1.1949304   -3.2034711   -1.6624157  0.088459166   -3.2034711    1.5410554   510669 
 5305000    1.1956909   -3.2038633   -1.6619448  0.093419614   -3.2038633    1.5419185   510708 
 5306000    1.1955935   -3.2025098   -1.6608618  0.091018036   -3.2025098     1.541648   510756 
 5307000    1.1957241   -3.2045587   -1.6626911  0.090358381   -3.2045587    1.5418676   510739 
 5308000    1.1972626   -3.2062157   -1.6623703  0.085116113   -3.2062157    1.5438454   510741 
 5309000    1.1938909   -3.2021561   -1.6627187  0.085041258   -3.2021561    1.5394375   510761 
 5310000    1.1956512   -3.2043943    -1.662838  0.086025455   -3.2043943    1.5415563   510811 
 5311000    1.1936507   -3.2031401   -1.6642082  0.096688211   -3.2031401    1.5389319   510826 
 5312000    1.1969651   -3.2070326   -1.6639877  0.088154226   -3.2070326     1.543045   510879 
 5313000    1.1982491   -3.2091835   -1.6644592  0.087302012   -3.2091835    1.5447243   510871 
 5314000    1.1963035   -3.2056453   -1.6635439  0.094252243   -3.2056453    1.5421015   510909 
 5315000    1.1960248   -3.2052619   -1.6637188  0.096206696   -3.2052619    1.5415431   510975 
 5316000    1.1968684   -3.2066627    -1.664141  0.089547151   -3.2066627    1.5425217   511011 
 5317000    1.1970039   -3.2070262   -1.6643933   0.09407387   -3.2070262    1.5426329   511032 
 5318000    1.1972261   -3.2058798   -1.6630119  0.086946837   -3.2058798     1.542868   511049 
 5319000    1.1951493   -3.2050433   -1.6650476  0.093342577   -3.2050433    1.5399957   511114 
 5320000    1.1948645   -3.2040768   -1.6645805  0.094309328   -3.2040768    1.5394962   511158 
 5321000    1.1961108    -3.205257   -1.6642123  0.090326905    -3.205257    1.5410447   511177 
 5322000    1.1956826   -3.2045662   -1.6641515  0.084503941   -3.2045662    1.5404147   511203 
 5323000    1.1958878   -3.2056477   -1.6650772   0.08657999   -3.2056477    1.5405706   511239 
 5324000    1.1963587   -3.2045476    -1.663479  0.090698514   -3.2045476    1.5410686   511275 
 5325000     1.195628   -3.2043361   -1.6642147  0.084962833   -3.2043361    1.5401214   511277 
 5326000    1.1948361    -3.204372    -1.665382  0.085177174    -3.204372      1.53899   511314 
 5327000    1.1943291   -3.2037977   -1.6654849  0.082770049   -3.2037977    1.5383128   511322 
 5328000     1.195006   -3.2040362   -1.6648786  0.088657924   -3.2040362    1.5391576   511331 
 5329000     1.194314   -3.2040367   -1.6658425  0.081332862   -3.2040367    1.5381941   511355 
 5330000    1.1941074   -3.2018333   -1.6640526  0.087688061   -3.2018333    1.5377807   511404 
 5331000    1.1930302   -3.1997564    -1.663429  0.086070935   -3.1997564    1.5363274   511426 
 5332000     1.195467   -3.2019817   -1.6626519  0.083815077   -3.2019817    1.5393299   511471 
 5333000    1.1951917   -3.2019228   -1.6630046  0.089224382   -3.2019228    1.5389182   511490 
 5334000    1.1945261   -3.2018103   -1.6639837  0.088050943   -3.2018103    1.5378267   511568 
 5335000    1.1970862   -3.2043634   -1.6633763  0.088016584   -3.2043634     1.540987   511613 
 5336000    1.1951902   -3.2027456   -1.6642804  0.084721803   -3.2027456    1.5384652   511640 
 5337000    1.1953405   -3.2032963    -1.664779  0.082205375   -3.2032963    1.5385173   511687 
 5338000    1.1972511   -3.2053205   -1.6644315  0.085352365   -3.2053205     1.540889   511716 
 5339000    1.1966602   -3.2035285   -1.6634541   0.08116782   -3.2035285    1.5400744   511734 
 5340000     1.195593   -3.2034509   -1.6649183   0.08436342   -3.2034509    1.5385327   511790 
 5341000     1.192863   -3.2006827   -1.6657981  0.089013311   -3.2006827    1.5348846   511835 
 5342000    1.1970327   -3.2035687   -1.6634332  0.087705149   -3.2035687    1.5401354   511873 
 5343000    1.1957178    -3.202369   -1.6640785  0.087869366    -3.202369    1.5382905   511924 
 5344000    1.1977228   -3.2035263    -1.662834  0.081834598   -3.2035263    1.5406923   511983 
 5345000    1.1967956    -3.203117   -1.6636444  0.094577771    -3.203117    1.5394726   511992 
 5346000    1.1975432    -3.204467   -1.6641111  0.088967127    -3.204467    1.5403559   512018 
 5347000    1.2010885     -3.20775   -1.6629727  0.085917709     -3.20775    1.5447773   512064 
 5348000    1.1999338   -3.2060579   -1.6629073  0.088305296   -3.2060579    1.5431506   512111 
 5349000    1.2003069   -3.2059169    -1.662386  0.090185203   -3.2059169     1.543531   512144 
 5350000    1.1991735   -3.2038887   -1.6619357  0.094649393   -3.2038887     1.541953   512184 
 5351000    1.2001832   -3.2064927   -1.6632715  0.088350127   -3.2064927    1.5432212   512194 
 5352000    1.1995944   -3.2054859   -1.6630729  0.090076635   -3.2054859     1.542413   512211 
 5353000    1.2008068   -3.2060165   -1.6621291  0.089739947   -3.2060165    1.5438874   512239 
 5354000    1.2009353   -3.2069094   -1.6629654  0.093376129   -3.2069094    1.5439441   512275 
 5355000    1.2003652   -3.2059307   -1.6627557  0.097835165   -3.2059307    1.5431751   512287 
 5356000    1.1996289   -3.2059774   -1.6639145  0.090686699   -3.2059774    1.5420629   512342 
 5357000    1.2001956    -3.207049   -1.6643028  0.092910408    -3.207049    1.5427462   512357 
 5358000    1.1989557   -3.2048975   -1.6638865  0.095329154   -3.2048975     1.541011   512404 
 5359000    1.1986142   -3.2053199   -1.6649041  0.090216296   -3.2053199    1.5404159   512456 
 5360000    1.1985932   -3.2052787   -1.6650312  0.094091782   -3.2052787    1.5402476   512503 
 5361000    1.1995285   -3.2072564   -1.6658852  0.091572138   -3.2072564    1.5413712   512529 
 5362000      1.19926   -3.2068726   -1.6658734  0.087196284   -3.2068726    1.5409992   512538 
 5363000     1.198249   -3.2053751   -1.6657501  0.086087626   -3.2053751     1.539625   512563 
 5364000    1.1992897   -3.2064865   -1.6656535  0.088576741   -3.2064865    1.5408329   512606 
 5365000    1.1990305   -3.2064015   -1.6660129  0.091128205   -3.2064015    1.5403887   512643 
 5366000    1.2003759   -3.2077314   -1.6656653  0.082592636   -3.2077314    1.5420661   512660 
 5367000    1.1991964   -3.2060369   -1.6655042  0.087306209   -3.2060369    1.5405327   512666 
 5368000    1.2003561   -3.2069934    -1.665022  0.092909863   -3.2069934    1.5419714   512683 
 5369000    1.1997451   -3.2064792    -1.665431   0.09273832   -3.2064792    1.5410482   512729 
 5370000    1.2002302   -3.2060879   -1.6645098  0.084076785   -3.2060879    1.5415781   512760 
 5371000    1.1991399   -3.2041805   -1.6641169    0.0920203   -3.2041805    1.5400636   512798 
 5372000    1.2012499   -3.2059294   -1.6632853  0.092335768   -3.2059294    1.5426441   512841 
 5373000    1.2011613   -3.2056115   -1.6631803  0.089877106   -3.2056115    1.5424312   512874 
 5374000    1.2027833   -3.2071279   -1.6626712  0.084274695   -3.2071279    1.5444567   512893 
 5375000     1.202304   -3.2056134   -1.6617631  0.093326022   -3.2056134    1.5438503   512890 
 5376000     1.202846   -3.2070871   -1.6625228  0.087379158   -3.2070871    1.5445643   512884 
 5377000    1.2023442   -3.2064628   -1.6626331  0.088235842   -3.2064628    1.5438297   512914 
 5378000     1.202594   -3.2065564   -1.6624661  0.090608542   -3.2065564    1.5440903   512934 
 5379000     1.201641   -3.2066505   -1.6639433  0.093386662   -3.2066505    1.5427073   512987 
 5380000    1.2025558   -3.2060647   -1.6622763  0.091228886   -3.2060647    1.5437884   513018 
 5381000    1.2032953   -3.2073841   -1.6627156  0.085673812   -3.2073841    1.5446685   513041 
 5382000    1.2018946   -3.2059985   -1.6631311  0.091314358   -3.2059985    1.5428674   513042 
 5383000    1.2011942   -3.2058811   -1.6641111  0.090157246   -3.2058811      1.54177   513108 
 5384000    1.2011141     -3.20636   -1.6647619  0.090475354     -3.20636    1.5415981   513131 
 5385000     1.200676   -3.2060961   -1.6651444   0.08975488   -3.2060961    1.5409517   513159 
 5386000    1.2011127   -3.2061576   -1.6646815  0.092723192   -3.2061576    1.5414761   513171 
 5387000    1.2003466   -3.2057143   -1.6653445  0.088968326   -3.2057143    1.5403698   513212 
 5388000    1.2023374   -3.2084157   -1.6655693  0.084747218   -3.2084157    1.5428464   513238 
 5389000    1.2022116   -3.2067395   -1.6641387  0.093082772   -3.2067395    1.5426008   513266 
 5390000    1.2023991   -3.2057972   -1.6629738  0.089681593   -3.2057972    1.5428234   513272 
 5391000    1.2010229   -3.2058842   -1.6649168  0.090137103   -3.2058842    1.5409674   513302 
 5392000    1.2024563   -3.2071738   -1.6644693  0.091500153   -3.2071738    1.5427044   513336 
 5393000    1.2017657   -3.2058406   -1.6641723  0.090973373   -3.2058406    1.5416682   513386 
 5394000    1.2024507   -3.2061257   -1.6636839  0.088038194   -3.2061257    1.5424418   513421 
 5395000     1.201917   -3.2055352   -1.6638771  0.093084899   -3.2055352    1.5416581   513454 
 5396000    1.2023356   -3.2064571    -1.664214  0.092664623   -3.2064571    1.5422431   513438 
 5397000    1.2026542   -3.2075994   -1.6650257  0.089415326   -3.2075994    1.5425736   513464 
 5398000    1.2011552   -3.2062436   -1.6656646  0.089980055   -3.2062436     1.540579   513488 
 5399000    1.2024537   -3.2067856   -1.6645623  0.087941235   -3.2067856    1.5422234   513495 
 5400000      1.20163   -3.2062483   -1.6651594  0.089811254   -3.2062483    1.5410889   513521 
 5401000    1.2014932   -3.2047153   -1.6638258   0.09051027   -3.2047153    1.5408894   513529 
 5402000    1.2020802   -3.2064425   -1.6648543  0.089572764   -3.2064425    1.5415882   513547 
 5403000     1.201881   -3.2068606   -1.6656209  0.086845169   -3.2068606    1.5412398   513578 
 5404000    1.2015114   -3.2063986   -1.6657318  0.086091057   -3.2063986    1.5406667   513611 
 5405000    1.2015961   -3.2057569   -1.6650955  0.090769937   -3.2057569    1.5406614   513649 
 5406000    1.2014055   -3.2046806   -1.6643265  0.092339474   -3.2046806    1.5403541   513670 
 5407000    1.2020157   -3.2054834    -1.664371  0.085311296   -3.2054834    1.5411124   513678 
 5408000    1.2035823   -3.2066923   -1.6635714  0.085684243   -3.2066923    1.5431209   513678 
 5409000    1.2037311   -3.2066663   -1.6634808  0.087470753   -3.2066663    1.5431855   513720 
 5410000    1.2026181   -3.2050236    -1.663292  0.095782326   -3.2050236    1.5417317   513729 
 5411000    1.2050399   -3.2076516   -1.6629265  0.093056182   -3.2076516    1.5447251   513766 
 5412000    1.2029497   -3.2053882   -1.6634086  0.092797295   -3.2053882    1.5419797   513788 
 5413000    1.2039927   -3.2062944   -1.6630318  0.089863481   -3.2062944    1.5432626   513806 
 5414000    1.2052335   -3.2080249   -1.6632951  0.093217973   -3.2080249    1.5447297   513847 
 5415000    1.2053444   -3.2083051   -1.6635595  0.083176319   -3.2083051    1.5447456   513889 
 5416000    1.2043899   -3.2073193   -1.6639291  0.092538107   -3.2073193    1.5433902   513933 
 5417000    1.2042002   -3.2064903   -1.6634573  0.094340672   -3.2064903    1.5430331   513971 
 5418000    1.2046122   -3.2082769    -1.664812  0.089656272   -3.2082769    1.5434649   514003 
 5419000    1.2027144   -3.2077714   -1.6667683  0.087107422   -3.2077714    1.5410031   514013 
 5420000    1.2050369   -3.2093248   -1.6654539   0.09265756   -3.2093248    1.5438709   514049 
 5421000    1.2033039   -3.2062136     -1.66462   0.09209565   -3.2062136    1.5415936   514068 
 5422000    1.2039225   -3.2081576   -1.6658706  0.096596632   -3.2081576     1.542287   514101 
 5423000    1.2037523    -3.206742    -1.664856  0.089836461    -3.206742     1.541886   514162 
 5424000    1.2027877   -3.2052034   -1.6646727   0.08613063   -3.2052034    1.5405307   514202 
 5425000    1.2047384   -3.2081852    -1.665204  0.086625076   -3.2081852    1.5429812   514218 
 5426000    1.2038555   -3.2065237   -1.6647663  0.090821851   -3.2065237    1.5417574   514249 
 5427000    1.2042579   -3.2070095   -1.6647998  0.087768195   -3.2070095    1.5422097   514270 
 5428000    1.2030469   -3.2048033   -1.6642852  0.092633799   -3.2048033    1.5405182   514317 
 5429000    1.2054262   -3.2085388   -1.6651091  0.090417027   -3.2085388    1.5434298   514362 
 5430000    1.2045007   -3.2081317   -1.6659529   0.08768788   -3.2081317    1.5421788   514384 
 5431000     1.205326   -3.2091515    -1.665961  0.088244523   -3.2091515    1.5431905   514399 
 5432000    1.2053381   -3.2072614   -1.6641574  0.090238416   -3.2072614     1.543104   514433 
 5433000     1.205782   -3.2079815   -1.6644413  0.086570287   -3.2079815    1.5435403   514477 
 5434000     1.205408   -3.2070708   -1.6640633  0.092938407   -3.2070708    1.5430075   514495 
 5435000    1.2069504   -3.2093512   -1.6644954  0.092826435   -3.2093512    1.5448558   514537 
 5436000    1.2066204   -3.2086853   -1.6644469  0.093188194   -3.2086853    1.5442384   514602 
 5437000    1.2056749   -3.2070409   -1.6640367  0.091976855   -3.2070409    1.5430043   514610 
 5438000    1.2073416   -3.2070393   -1.6619711  0.088900858   -3.2070393    1.5450682   514633 
 5439000    1.2066895   -3.2080849   -1.6639772  0.091543539   -3.2080849    1.5441077   514675 
 5440000    1.2051258   -3.2065209    -1.664522  0.095791597   -3.2065209    1.5419989   514711 
 5441000    1.2068003   -3.2076097   -1.6636392   0.09200899   -3.2076097    1.5439706   514768 
 5442000    1.2047732   -3.2060474   -1.6647542  0.093207669   -3.2060474    1.5412932   514796 
 5443000    1.2066713   -3.2083145   -1.6647219  0.088455292   -3.2083145    1.5435926   514839 
 5444000    1.2065999   -3.2085324   -1.6650731  0.089570469   -3.2085324    1.5434593   514853 
 5445000    1.2068575   -3.2102065   -1.6665767  0.090824326   -3.2102065    1.5436299   514906 
 5446000    1.2050584   -3.2079502   -1.6667353  0.091998296   -3.2079502     1.541215   514944 
 5447000    1.2044035   -3.2070962   -1.6668593  0.090303894   -3.2070962    1.5402369   514991 
 5448000    1.2069693    -3.208711   -1.6652889  0.089763005    -3.208711    1.5434221   515023 
 5449000    1.2054428   -3.2077847   -1.6663146  0.091952755   -3.2077847    1.5414701   515023 
 5450000    1.2056282   -3.2070677   -1.6653993  0.093654008   -3.2070677    1.5416684   515036 
 5451000    1.2054273   -3.2084081   -1.6670056  0.081317526   -3.2084081    1.5414025   515039 
 5452000    1.2060001   -3.2086686   -1.6665846  0.090374145   -3.2086686     1.542084   515056 
 5453000    1.2054484   -3.2082151   -1.6668425  0.090657292   -3.2082151    1.5413726   515058 
 5454000    1.2063185    -3.208758   -1.6663028  0.090976993    -3.208758    1.5424551   515068 
 5455000    1.2070542   -3.2106979   -1.6674188   0.08605455   -3.2106979    1.5432791   515107 
 5456000    1.2057101   -3.2079484   -1.6664538  0.092579608   -3.2079484    1.5414946   515129 
 5457000    1.2052568    -3.208011   -1.6670151  0.087214118    -3.208011    1.5409959   515102 
 5458000    1.2053292   -3.2093412   -1.6682618  0.090514422   -3.2093412    1.5410795   515105 
 5459000     1.205011   -3.2077258   -1.6671399  0.092480544   -3.2077258    1.5405859   515134 
 5460000    1.2047783   -3.2079126   -1.6676032  0.095675405   -3.2079126    1.5403094   515127 
 5461000    1.2053695   -3.2092387   -1.6682453  0.091781134   -3.2092387    1.5409934   515151 
 5462000    1.2056314   -3.2094044   -1.6682526  0.083232278   -3.2094044    1.5411517   515210 
 5463000    1.2058908   -3.2097509   -1.6682766  0.091853698   -3.2097509    1.5414743   515213 
 5464000    1.2059201   -3.2087106   -1.6672018  0.094826112   -3.2087106    1.5415089   515214 
 5465000     1.204653     -3.20703   -1.6672066  0.090127963     -3.20703    1.5398234   515236 
 5466000    1.2059137   -3.2076402   -1.6663131  0.092766155   -3.2076402    1.5413271   515272 
 5467000    1.2048706   -3.2073297   -1.6673716  0.087210119   -3.2073297     1.539958   515284 
 5468000    1.2058311    -3.208844   -1.6676464   0.08628522    -3.208844    1.5411976   515280 
 5469000    1.2073631   -3.2094502   -1.6663334  0.081794362   -3.2094502    1.5431167   515293 
 5470000     1.207422   -3.2102201   -1.6671149  0.086498447   -3.2102201    1.5431052   515322 
 5471000    1.2065772   -3.2093643   -1.6674434  0.093677682   -3.2093643    1.5419208   515357 
 5472000    1.2078552   -3.2105276   -1.6670965   0.09081765   -3.2105276    1.5434312   515398 
 5473000    1.2074139   -3.2104188   -1.6676323  0.091314287   -3.2104188    1.5427865   515425 
 5474000    1.2085203   -3.2112394   -1.6671051  0.091661736   -3.2112394    1.5441343   515447 
 5475000    1.2065938   -3.2100123    -1.668495  0.092272594   -3.2100123    1.5415172   515499 
 5476000    1.2070536   -3.2088884   -1.6667987  0.086883317   -3.2088884    1.5420897   515504 
 5477000    1.2088285   -3.2103546    -1.666144  0.090107939   -3.2103546    1.5442106   515553 
 5478000    1.2082738   -3.2093592   -1.6659979  0.088668202   -3.2093592    1.5433613   515600 
 5479000    1.2081903   -3.2092903   -1.6660926  0.089267833   -3.2092903    1.5431977   515619 
 5480000    1.2094592   -3.2105017   -1.6657582  0.092934753   -3.2105017    1.5447435   515644 
 5481000    1.2088147   -3.2098608   -1.6660033   0.08523519   -3.2098608    1.5438574   515665 
 5482000    1.2065524   -3.2081759   -1.6672257  0.091848991   -3.2081759    1.5409503   515671 
 5483000    1.2081603   -3.2092548   -1.6663228  0.092998514   -3.2092548     1.542932   515695 
 5484000    1.2081681   -3.2081034   -1.6652841  0.095378854   -3.2081034    1.5428193   515736 
 5485000     1.207742   -3.2074327   -1.6651635   0.09187466   -3.2074327    1.5422692   515738 
 5486000    1.2082063   -3.2083671   -1.6655469  0.095422212   -3.2083671    1.5428201   515752 
 5487000    1.2083091   -3.2084268   -1.6655531  0.091231369   -3.2084268    1.5428737   515778 
 5488000    1.2085684    -3.208736   -1.6656837  0.085288056    -3.208736    1.5430522   515829 
 5489000    1.2097458   -3.2094407   -1.6649481   0.08513849   -3.2094407    1.5444925   515850 
 5490000    1.2091187   -3.2086852    -1.665092  0.082606826   -3.2086852    1.5435932   515883 
 5491000    1.2090252   -3.2093248   -1.6658809  0.088209047   -3.2093248    1.5434439   515893 
 5492000    1.2084493   -3.2078988   -1.6652529  0.087357231   -3.2078988    1.5426459   515914 
 5493000    1.2081577   -3.2092196   -1.6670057  0.081673997   -3.2092196    1.5422139   515934 
 5494000    1.2081293   -3.2085274   -1.6664155  0.089649451   -3.2085274    1.5421119   515956 
 5495000    1.2074358   -3.2068452    -1.665747  0.084567476   -3.2068452    1.5410982   515999 
 5496000     1.208157    -3.208355   -1.6663811  0.088926086    -3.208355    1.5419738   516014 
 5497000     1.206319   -3.2057812   -1.6661472  0.090268644   -3.2057812     1.539634   516012 
 5498000    1.2079748   -3.2079142   -1.6661399  0.089180585   -3.2079142    1.5417743   516003 
 5499000     1.207998   -3.2087657   -1.6670545  0.085938909   -3.2087657    1.5417112   516034 
 5500000    1.2083519   -3.2084133   -1.6662982  0.084881476   -3.2084133    1.5421151   516050 
 5501000    1.2079897   -3.2082156   -1.6667211  0.085559851   -3.2082156    1.5414945   516103 
 5502000    1.2079373   -3.2071395   -1.6658015  0.090333569   -3.2071395     1.541338   516133 
 5503000     1.207445   -3.2068288   -1.6661129  0.089051379   -3.2068288    1.5407159   516131 
 5504000    1.2080529   -3.2086678   -1.6671674  0.090212905   -3.2086678    1.5415004   516128 
 5505000    1.2102259   -3.2102123   -1.6661396  0.093756851   -3.2102123    1.5440728   516195 
 5506000    1.2087944   -3.2092479   -1.6671508  0.092026826   -3.2092479    1.5420971   516245 
 5507000    1.2081516   -3.2081634    -1.666973  0.092622817   -3.2081634    1.5411904   516274 
 5508000    1.2075903   -3.2078439   -1.6675037  0.092022237   -3.2078439    1.5403402   516319 
 5509000    1.2084392   -3.2089011   -1.6675199  0.085839924   -3.2089011    1.5413812   516333 
 5510000    1.2079791   -3.2077028   -1.6670815  0.090980145   -3.2077028    1.5406213   516391 
 5511000    1.2088244   -3.2094851   -1.6678156  0.088945398   -3.2094851    1.5416695   516401 
 5512000     1.209955   -3.2111496   -1.6681517  0.085973508   -3.2111496    1.5429978   516439 
 5513000    1.2103355   -3.2114179   -1.6680275   0.09449258   -3.2114179    1.5433904   516470 
 5514000    1.2095799   -3.2110525   -1.6687122  0.087036681   -3.2110525    1.5423403   516499 
 5515000    1.2118277   -3.2127854   -1.6676328  0.082287251   -3.2127854    1.5451526   516517 
 5516000    1.2087686     -3.21035   -1.6690741  0.090563006     -3.21035    1.5412759   516509 
 5517000    1.2087924   -3.2110084   -1.6697737  0.085661173   -3.2110084    1.5412347   516533 
 5518000    1.2106748   -3.2128835   -1.6693413   0.09208537   -3.2128835    1.5435422   516564 
 5519000    1.2092927   -3.2112414   -1.6695598  0.084908056   -3.2112414    1.5416816   516597 
 5520000    1.2104008   -3.2131196   -1.6700462  0.092276722   -3.2131196    1.5430733   516604 
 5521000    1.2093282   -3.2113296   -1.6696297  0.091792084   -3.2113296    1.5416999   516606 
 5522000    1.2101996   -3.2139008   -1.6710959  0.085409648   -3.2139008    1.5428049   516608 
 5523000    1.2090158   -3.2127878   -1.6716352  0.093114148   -3.2127878    1.5411526   516656 
 5524000    1.2103019   -3.2140557   -1.6713533  0.086980216   -3.2140557    1.5427024   516686 
 5525000    1.2096642   -3.2138717   -1.6720208  0.084279559   -3.2138717    1.5418508   516699 
 5526000    1.2094595   -3.2130686   -1.6715892   0.08898381   -3.2130686    1.5414794   516736 
 5527000    1.2100105   -3.2139342   -1.6717704  0.084481832   -3.2139342    1.5421638   516742 
 5528000    1.2099624   -3.2133734   -1.6712709  0.090452366   -3.2133734    1.5421025   516742 
 5529000    1.2107305    -3.215056   -1.6720283  0.088317674    -3.215056    1.5430277   516760 
 5530000    1.2105233   -3.2138443   -1.6711195  0.090893571   -3.2138443    1.5427248   516773 
 5531000    1.2095372   -3.2126443   -1.6711702  0.089699016   -3.2126443    1.5414741   516771 
 5532000    1.2095345   -3.2126667    -1.671196  0.089795027   -3.2126667    1.5414706   516771 
 5533000     1.210622   -3.2135393   -1.6708171  0.088129244   -3.2135393    1.5427222   516816 
 5534000     1.210745   -3.2120617    -1.669323  0.090381998   -3.2120617    1.5427387   516863 
 5535000    1.2132027   -3.2142675   -1.6684271  0.094824577   -3.2142675    1.5458405   516873 
 5536000    1.2123353   -3.2140421   -1.6693577  0.092299178   -3.2140421    1.5446844   516890 
 5537000    1.2102471   -3.2112018   -1.6692199  0.092691558   -3.2112018    1.5419819   516904 
 5538000    1.2116959   -3.2136797   -1.6698637  0.087518076   -3.2136797    1.5438159   516908 
 5539000    1.2103454    -3.210768   -1.6687444  0.093960578    -3.210768    1.5420236   516932 
 5540000    1.2104853   -3.2108048    -1.668758  0.092562844   -3.2108048    1.5420468   516984 
 5541000    1.2124623   -3.2122621   -1.6677416  0.089213503   -3.2122621    1.5445204   516999 
 5542000    1.2125045    -3.212498   -1.6680224  0.089713144    -3.212498    1.5444756   517032 
 5543000    1.2114679   -3.2119903   -1.6689066  0.095453874   -3.2119903    1.5430836   517056 
 5544000    1.2103123   -3.2110339   -1.6695295  0.090795111   -3.2110339    1.5415044   517092 
 5545000    1.2117698   -3.2131514   -1.6698056  0.084857012   -3.2131514    1.5433458   517097 
 5546000     1.211017   -3.2123265   -1.6699724  0.089102883   -3.2123265    1.5423542   517108 
 5547000    1.2115107    -3.212411   -1.6694489  0.086279779    -3.212411    1.5429621   517115 
 5548000    1.2116843   -3.2115586   -1.6683784  0.094126237   -3.2115586    1.5431802   517116 
 5549000    1.2116926   -3.2117525   -1.6685616  0.085754257   -3.2117525    1.5431908   517116 
 5550000    1.2115581   -3.2126238    -1.669667   0.08798999   -3.2126238    1.5429568   517137 
 5551000    1.2112591   -3.2120236   -1.6695877  0.090073549   -3.2120236    1.5424359   517184 
 5552000    1.2115379     -3.21114   -1.6684745  0.090076883     -3.21114    1.5426655   517226 
 5553000    1.2125106    -3.212693   -1.6688575  0.092443027    -3.212693    1.5438354   517249 
 5554000    1.2121188   -3.2120442    -1.668815  0.089071602   -3.2120442    1.5432292   517285 
 5555000    1.2126492   -3.2128656   -1.6690656  0.089628222   -3.2128656       1.5438   517320 
 5556000     1.213065   -3.2131939   -1.6689421  0.093058748   -3.2131939    1.5442518   517346 
 5557000    1.2138122   -3.2144701   -1.6693747  0.091697015   -3.2144701    1.5450954   517382 
 5558000    1.2116436   -3.2117228   -1.6694832  0.088584531   -3.2117228    1.5422396   517414 
 5559000    1.2122894   -3.2133154   -1.6702508  0.094159839   -3.2133154    1.5430646   517413 
 5560000    1.2122361   -3.2127319   -1.6697888  0.095476016   -3.2127319    1.5429431   517431 
 5561000    1.2132222   -3.2143024    -1.670137  0.085138995   -3.2143024    1.5441654   517442 
 5562000    1.2111524   -3.2130753   -1.6716069  0.091754147   -3.2130753    1.5414685   517463 
 5563000    1.2118097   -3.2123402    -1.670077  0.093716222   -3.2123402    1.5422632   517477 
 5564000     1.213026   -3.2139737   -1.6703265  0.093926929   -3.2139737    1.5436471   517532 
 5565000    1.2129077   -3.2141542   -1.6708008  0.089625342   -3.2141542    1.5433534   517580 
 5566000    1.2124493   -3.2126216   -1.6700064  0.088012139   -3.2126216    1.5426152   517632 
 5567000     1.212434   -3.2139292    -1.671414  0.092346908   -3.2139292    1.5425152   517659 
 5568000    1.2121536   -3.2148032   -1.6727876  0.095815713   -3.2148032    1.5420156   517707 
 5569000    1.2119317   -3.2132802    -1.671535  0.093238432   -3.2132802    1.5417452   517703 
 5570000    1.2117148   -3.2133472   -1.6719911  0.091794062   -3.2133472    1.5413561   517741 
 5571000    1.2119021   -3.2143059   -1.6728515  0.090807416   -3.2143059    1.5414544   517788 
 5572000    1.2121137   -3.2142747   -1.6725957  0.093392177   -3.2142747     1.541679   517803 
 5573000     1.212397   -3.2145298   -1.6725381   0.09355545   -3.2145298    1.5419916   517819 
 5574000    1.2121769   -3.2145983   -1.6730474  0.086943438   -3.2145983    1.5415509   517873 
 5575000    1.2119168   -3.2139971   -1.6728067  0.088501316   -3.2139971    1.5411904   517883 
 5576000    1.2123442   -3.2153323   -1.6736371   0.08809859   -3.2153323    1.5416952   517896 
 5577000    1.2127777   -3.2170051   -1.6749254  0.092013221   -3.2170051    1.5420797   517952 
 5578000    1.2114061   -3.2148212   -1.6744975  0.095476172   -3.2148212    1.5403238   517956 
 5579000    1.2133486   -3.2168049   -1.6739993  0.091576295   -3.2168049    1.5428056   517952 
 5580000    1.2105913   -3.2142076   -1.6749704  0.087340645   -3.2142076    1.5392372   517973 
 5581000    1.2126062   -3.2156236   -1.6739167  0.092692285   -3.2156236    1.5417069   518004 
 5582000    1.2124091   -3.2159968   -1.6746299  0.088022298   -3.2159968     1.541367   518034 
 5583000     1.213787   -3.2162999   -1.6732973  0.090298023   -3.2162999    1.5430025   518073 
 5584000    1.2121343   -3.2151744   -1.6743025  0.091349165   -3.2151744    1.5408719   518083 
 5585000    1.2135601   -3.2165426   -1.6739564  0.090896004   -3.2165426    1.5425861   518116 
 5586000    1.2134926   -3.2171962   -1.6747703  0.090566555   -3.2171962    1.5424259   518141 
 5587000    1.2126361   -3.2152236   -1.6739786  0.094434462   -3.2152236     1.541245   518172 
 5588000    1.2141983   -3.2163711   -1.6731882  0.089579791   -3.2163711    1.5431829   518188 
 5589000    1.2142734   -3.2159711    -1.672654   0.10038641   -3.2159711    1.5433171   518175 
 5590000    1.2153101   -3.2181382   -1.6735869  0.090850358   -3.2181382    1.5445513   518203 
 5591000    1.2149041   -3.2178137   -1.6737637  0.094330415   -3.2178137    1.5440501   518198 
 5592000    1.2150819   -3.2181478   -1.6740029  0.092372445   -3.2181478     1.544145   518242 
 5593000    1.2162551    -3.218844   -1.6733125  0.091598399    -3.218844    1.5455315   518277 
 5594000    1.2166937   -3.2192131   -1.6731958  0.091063146   -3.2192131    1.5460173   518301 
 5595000    1.2152372   -3.2164187   -1.6723386  0.095087812   -3.2164187    1.5440801   518330 
 5596000    1.2164316   -3.2186054   -1.6730642  0.085174217   -3.2186054    1.5455412   518349 
 5597000    1.2137129   -3.2154417   -1.6734917  0.090111788   -3.2154417    1.5419501   518395 
 5598000    1.2141522   -3.2151946   -1.6727489   0.09953083   -3.2151946    1.5424457   518416 
 5599000    1.2165904   -3.2183507    -1.672912  0.094723894   -3.2183507    1.5454388   518451 
 5600000    1.2157192   -3.2163528   -1.6721308  0.089608962   -3.2163528    1.5442219   518488 
 5601000    1.2153889   -3.2150987    -1.671344  0.092965384   -3.2150987    1.5437547   518504 
 5602000    1.2163942   -3.2166845   -1.6716977  0.087881691   -3.2166845    1.5449868   518519 
 5603000    1.2163262    -3.216632   -1.6717553  0.092894975    -3.216632    1.5448767   518527 
 5604000    1.2147516   -3.2153939   -1.6725855  0.093001995   -3.2153939    1.5428083   518550 
 5605000    1.2163567   -3.2172732   -1.6724591  0.087780405   -3.2172732    1.5448141   518561 
 5606000    1.2168322   -3.2177355   -1.6724039  0.089948793   -3.2177355    1.5453316   518590 
 5607000    1.2135087   -3.2139444   -1.6728869  0.087997452   -3.2139444    1.5410575   518608 
 5608000    1.2168139    -3.218003   -1.6728198  0.089102559    -3.218003    1.5451833   518632 
 5609000    1.2159715   -3.2165589   -1.6724811  0.086330503   -3.2165589    1.5440777   518644 
 5610000    1.2128306   -3.2125429   -1.6725427  0.097247328   -3.2125429    1.5400002   518674 
 5611000    1.2150454   -3.2156618   -1.6729207  0.083950243   -3.2156618    1.5427412   518698 
 5612000    1.2142802    -3.214103   -1.6725384  0.087433606    -3.214103    1.5415646   518767 
 5613000    1.2123495   -3.2120685    -1.672967  0.089439097   -3.2120685    1.5391015   518771 
 5614000     1.214899   -3.2164187   -1.6741697  0.083629333   -3.2164187     1.542249   518801 
 5615000    1.2151831   -3.2162973   -1.6737531  0.091316459   -3.2162973    1.5425442   518823 
 5616000    1.2156264   -3.2162534   -1.6731613   0.08640073   -3.2162534    1.5430921   518828 
 5617000    1.2149721   -3.2156403   -1.6735214  0.088618488   -3.2156403    1.5421189   518876 
 5618000    1.2145486    -3.214453   -1.6730291  0.092340557    -3.214453    1.5414239   518929 
 5619000    1.2169821   -3.2171666   -1.6726304  0.088535393   -3.2171666    1.5445362   518921 
 5620000    1.2148543   -3.2147933   -1.6730794  0.098753647   -3.2147933    1.5417139   518962 
 5621000    1.2139736   -3.2135909   -1.6730867  0.094824786   -3.2135909    1.5405041   518993 
 5622000    1.2163681   -3.2164147   -1.6729196  0.085501215   -3.2164147    1.5434951   519009 
 5623000    1.2178132   -3.2174116   -1.6722167  0.091923115   -3.2174116    1.5451949   519054 
 5624000    1.2164097   -3.2161827   -1.6729262  0.091863187   -3.2161827    1.5432565   519107 
 5625000    1.2174069   -3.2176155   -1.6731355  0.091818502   -3.2176155      1.54448   519121 
 5626000    1.2182952   -3.2192368   -1.6736715  0.090076191   -3.2192368    1.5455653   519135 
 5627000    1.2175536   -3.2186622   -1.6741448  0.093395166   -3.2186622    1.5445174   519171 
 5628000    1.2160688   -3.2178954   -1.6753419  0.089897627   -3.2178954    1.5425536   519198 
 5629000    1.2185124   -3.2200892   -1.6745252    0.0901939   -3.2200892     1.545564   519228 
 5630000    1.2177797   -3.2204303   -1.6759384  0.096920519   -3.2204303    1.5444919   519276 
 5631000    1.2181562   -3.2209564   -1.6760763  0.098417949   -3.2209564    1.5448801   519306 
 5632000    1.2177302   -3.2196438   -1.6753605  0.093792323   -3.2196438    1.5442833   519325 
 5633000     1.218626   -3.2212958   -1.6759419  0.091979859   -3.2212958    1.5453539   519347 
 5634000    1.2184727   -3.2206289   -1.6755646  0.091596018   -3.2206289    1.5450643   519379 
 5635000    1.2169556   -3.2193696   -1.6763449  0.093659622   -3.2193696    1.5430247   519418 
 5636000    1.2171013   -3.2199071   -1.6767245  0.093852831   -3.2199071    1.5431826   519427 
 5637000    1.2185029   -3.2219032   -1.6769078    0.0894098   -3.2219032    1.5449954   519415 
 5638000    1.2181903    -3.222522   -1.6779645  0.086799147    -3.222522    1.5445575   519429 
 5639000    1.2171189   -3.2210063   -1.6778844  0.087984443   -3.2210063    1.5431218   519455 
 5640000    1.2174679   -3.2216245   -1.6781166  0.099059737   -3.2216245    1.5435078   519474 
 5641000    1.2166548   -3.2204697   -1.6779393  0.089836742   -3.2204697    1.5425304   519456 
 5642000    1.2175341    -3.221518   -1.6779292  0.091610944    -3.221518    1.5435888   519475 
 5643000    1.2160842   -3.2188453   -1.6772847  0.092903003   -3.2188453    1.5415606   519539 
 5644000     1.216946   -3.2207321   -1.6781235  0.092814636   -3.2207321    1.5426086   519554 
 5645000    1.2166186   -3.2210675   -1.6788858  0.088589524   -3.2210675    1.5421817   519558 
 5646000    1.2148242   -3.2195672   -1.6797608  0.085708536   -3.2195672    1.5398064   519592 
 5647000    1.2149965    -3.220353   -1.6803075  0.090525994    -3.220353    1.5400454   519585 
 5648000    1.2163826   -3.2216652   -1.6800081  0.091066016   -3.2216652    1.5416571   519634 
 5649000    1.2175418   -3.2221996   -1.6791357  0.086621273   -3.2221996    1.5430639   519655 
 5650000    1.2152725   -3.2200837    -1.679967  0.091363501   -3.2200837    1.5401167   519679 
 5651000    1.2165803   -3.2202284   -1.6784958  0.083791039   -3.2202284    1.5417325   519693 
 5652000     1.215371   -3.2204603   -1.6803461  0.089886387   -3.2204603    1.5401141   519722 
 5653000    1.2159127    -3.219964   -1.6792464  0.088053872    -3.219964    1.5407176   519750 
 5654000    1.2148908   -3.2193871   -1.6799288  0.086541075   -3.2193871    1.5394583   519738 
 5655000    1.2157266   -3.2208194   -1.6804295   0.08718124   -3.2208194    1.5403899   519781 
 5656000    1.2163041   -3.2196493   -1.6786314  0.088039167   -3.2196493    1.5410179   519816 
 5657000    1.2163968   -3.2203529   -1.6793155  0.088754321   -3.2203529    1.5410374   519849 
 5658000    1.2163407   -3.2188762   -1.6780254  0.087223411   -3.2188762    1.5408507   519888 
 5659000    1.2160544    -3.217429   -1.6769854  0.089101477    -3.217429    1.5404436   519903 
 5660000    1.2155471   -3.2172862   -1.6775651  0.091748564   -3.2172862    1.5397211   519930 
 5661000    1.2164367   -3.2194269   -1.6786828  0.091136379   -3.2194269    1.5407442   519965 
 5662000    1.2153313   -3.2182516   -1.6789815  0.088940088   -3.2182516    1.5392701   519990 
 5663000    1.2158602   -3.2181011   -1.6782619  0.089333579   -3.2181011    1.5398392   520024 
 5664000    1.2172926   -3.2191782   -1.6775902  0.093009844   -3.2191782    1.5415881   520046 
 5665000    1.2178256   -3.2204474   -1.6782258  0.084895917   -3.2204474    1.5422216   520060 
 5666000    1.2167662    -3.217615   -1.6767409  0.096569248    -3.217615    1.5408741   520062 
 5667000    1.2172871   -3.2197042   -1.6782475  0.091148485   -3.2197042    1.5414567   520088 
 5668000    1.2177411   -3.2196364   -1.6776404  0.089151778   -3.2196364     1.541996   520100 
 5669000    1.2180809   -3.2203147   -1.6780012   0.08222489   -3.2203147    1.5423136   520138 
 5670000     1.217609   -3.2197926   -1.6780855  0.092417188   -3.2197926    1.5417071   520141 
 5671000    1.2193169   -3.2211353   -1.6773488  0.084397837   -3.2211353    1.5437865   520169 
 5672000    1.2169561   -3.2178514   -1.6771545  0.089709568   -3.2178514    1.5406968   520203 
 5673000    1.2187589   -3.2204496   -1.6775504  0.095295895   -3.2204496    1.5428992   520230 
 5674000    1.2181888    -3.220124   -1.6779792  0.087365743    -3.220124    1.5421448   520241 
 5675000    1.2181908   -3.2200059   -1.6779623  0.091644226   -3.2200059    1.5420436   520276 
 5676000    1.2165795   -3.2184855   -1.6785969  0.086720834   -3.2184855    1.5398885   520315 
 5677000    1.2168135   -3.2196691   -1.6795614  0.090863185   -3.2196691    1.5401077   520341 
 5678000     1.219552   -3.2223207   -1.6788359   0.08760062   -3.2223207    1.5434848   520371 
 5679000    1.2173538   -3.2196638   -1.6790972  0.089821502   -3.2196638    1.5405666   520417 
 5680000    1.2190559   -3.2218686   -1.6792429  0.089402005   -3.2218686    1.5426258   520449 
 5681000    1.2184374   -3.2206463   -1.6788921  0.093960255   -3.2206463    1.5417542   520479 
 5682000     1.216539   -3.2185898   -1.6793087  0.092493996   -3.2185898    1.5392811   520503 
 5683000     1.217758    -3.220021   -1.6793041  0.088264332    -3.220021    1.5407169   520539 
 5684000     1.218429   -3.2193472   -1.6778701  0.096251305   -3.2193472     1.541477   520569 
 5685000     1.219733   -3.2217848   -1.6786076  0.091400518   -3.2217848    1.5431772   520552 
 5686000    1.2190861   -3.2205704   -1.6783302   0.08957812   -3.2205704    1.5422402   520592 
 5687000    1.2181678   -3.2198786   -1.6788001  0.089713542   -3.2198786    1.5410785   520592 
 5688000    1.2181637   -3.2188433    -1.677844  0.090478528   -3.2188433    1.5409993   520617 
 5689000    1.2186544   -3.2198776   -1.6783198  0.090727748   -3.2198776    1.5415578   520638 
 5690000    1.2197228    -3.221872   -1.6791019  0.084494251    -3.221872    1.5427701   520685 
 5691000    1.2175721   -3.2205086   -1.6805416  0.091107101   -3.2205086    1.5399669   520713 
 5692000    1.2194475    -3.222527   -1.6802029  0.088748606    -3.222527    1.5423241   520718 
 5693000    1.2184948   -3.2218095   -1.6808027  0.094997068   -3.2218095    1.5410067   520756 
 5694000    1.2178363   -3.2201981   -1.6800656  0.086118924   -3.2201981    1.5401325   520770 
 5695000    1.2180143   -3.2212353   -1.6809191  0.087338204   -3.2212353    1.5403163   520784 
 5696000    1.2164551   -3.2186381   -1.6803202  0.089105349   -3.2186381    1.5383179   520793 
 5697000    1.2174268    -3.220745    -1.681154  0.085375821    -3.220745     1.539591   520778 
 5698000    1.2179444   -3.2206217   -1.6804619  0.084686743   -3.2206217    1.5401598   520807 
 5699000    1.2169412   -3.2190048   -1.6802524  0.089950133   -3.2190048    1.5387524   520854 
 5700000    1.2177689   -3.2191654   -1.6794403  0.084811645   -3.2191654     1.539725   520879 
 5701000    1.2180181   -3.2193148   -1.6794344  0.090620612   -3.2193148    1.5398804   520933 
 5702000    1.2173565   -3.2176478   -1.6786244  0.088992224   -3.2176478    1.5390233   520940 
 5703000    1.2194563   -3.2215047   -1.6799036  0.093064621   -3.2215047    1.5416011   520966 
 5704000    1.2188024   -3.2201098   -1.6794863  0.088065554   -3.2201098    1.5406235   521017 
 5705000     1.220269   -3.2211913   -1.6788648  0.089003898   -3.2211913    1.5423265   521068 
 5706000    1.2198261   -3.2216377   -1.6799303  0.094354367   -3.2216377    1.5417074   521088 
 5707000     1.221114   -3.2224448   -1.6791303  0.092053044   -3.2224448    1.5433145   521095 
 5708000    1.2198474   -3.2212332   -1.6796764  0.090089201   -3.2212332    1.5415569   521148 
 5709000    1.2198157   -3.2216787   -1.6801441  0.091506717   -3.2216787    1.5415346   521142 
 5710000    1.2190977   -3.2202757   -1.6796929  0.091683531   -3.2202757    1.5405829   521157 
 5711000    1.2200247   -3.2211777   -1.6794765  0.088360193   -3.2211777    1.5417011   521175 
 5712000    1.2201116   -3.2223313   -1.6806062  0.088994769   -3.2223313    1.5417251   521204 
 5713000    1.2202208   -3.2229826    -1.681158   0.08492491   -3.2229826    1.5418246   521217 
 5714000     1.219461   -3.2224179    -1.681707  0.091748124   -3.2224179    1.5407109   521269 
 5715000    1.2193283   -3.2221539   -1.6816254  0.087073795   -3.2221539    1.5405285   521274 
 5716000     1.217464   -3.2185839   -1.6805584  0.095981425   -3.2185839    1.5380255   521324 
 5717000    1.2208014   -3.2245149   -1.6823768  0.089702515   -3.2245149    1.5421381   521359 
 5718000    1.2193629   -3.2223022   -1.6820107  0.090315472   -3.2223022    1.5402915   521369 
 5719000    1.2195475   -3.2219917   -1.6815173  0.092733326   -3.2219917    1.5404744   521386 
 5720000    1.2215345   -3.2258591   -1.6829281  0.089461868   -3.2258591     1.542931   521404 
 5721000    1.2196118   -3.2228499   -1.6823208  0.092528308   -3.2228499    1.5405291   521395 
 5722000    1.2218556   -3.2257749   -1.6824946  0.095589826   -3.2257749    1.5432804   521423 
 5723000    1.2220265   -3.2266729   -1.6832566  0.090616403   -3.2266729    1.5434163   521450 
 5724000    1.2218172   -3.2270182   -1.6838454  0.089419126   -3.2270182    1.5431727   521443 
 5725000    1.2214959   -3.2256447     -1.68294  0.091988794   -3.2256447    1.5427047   521464 
 5726000    1.2209404   -3.2246716     -1.68263  0.091797956   -3.2246716    1.5420416   521451 
 5727000    1.2221813   -3.2249684   -1.6814335  0.091186767   -3.2249684    1.5435349   521476 
 5728000    1.2226328   -3.2250794   -1.6811253  0.092615751   -3.2250794    1.5439541   521527 
 5729000    1.2219113   -3.2250489   -1.6820651  0.091302768   -3.2250489    1.5429838   521547 
 5730000    1.2206086   -3.2242718   -1.6829448  0.094894538   -3.2242718     1.541327   521551 
 5731000     1.221173   -3.2252035   -1.6832141  0.092193287   -3.2252035    1.5419894   521568 
 5732000    1.2205328   -3.2251694   -1.6840592  0.094696866   -3.2251694    1.5411101   521592 
 5733000    1.2195586   -3.2241917   -1.6843472  0.091099426   -3.2241917    1.5398445   521604 
 5734000    1.2187981   -3.2241119   -1.6853692  0.090931841   -3.2241119    1.5387427   521652 
 5735000    1.2204768   -3.2270244   -1.6862745  0.083402242   -3.2270244    1.5407499   521690 
 5736000    1.2198698   -3.2265205   -1.6866225  0.086142914   -3.2265205     1.539898   521719 
 5737000    1.2195899   -3.2258413   -1.6863379  0.091031223   -3.2258413    1.5395034   521733 
 5738000    1.2192333   -3.2241781   -1.6851189   0.08866304   -3.2241781    1.5390592   521731 
 5739000    1.2216811   -3.2262328   -1.6841931  0.090397274   -3.2262328    1.5420397   521768 
 5740000    1.2197504   -3.2243417    -1.684863   0.08704218   -3.2243417    1.5394787   521810 
 5741000    1.2198412   -3.2238467   -1.6842946  0.092768509   -3.2238467    1.5395521   521824 
 5742000    1.2201653   -3.2262642   -1.6864654  0.084301787   -3.2262642    1.5397988   521879 
 5743000    1.2194021   -3.2252248   -1.6864629  0.089151234   -3.2252248    1.5387619   521904 
 5744000    1.2212596   -3.2268818   -1.6858644  0.083811425   -3.2268818    1.5410174   521934 
 5745000     1.221362   -3.2265345   -1.6854677  0.093351222   -3.2265345    1.5410669   521961 
 5746000    1.2220966   -3.2276624    -1.685778  0.084867806   -3.2276624    1.5418844   521998 
 5747000    1.2218302   -3.2273158   -1.6858561  0.086562386   -3.2273158    1.5414597   522028 
 5748000    1.2201421   -3.2262683   -1.6869854  0.088755742   -3.2262683    1.5392828   522044 
 5749000    1.2214784   -3.2280779   -1.6871947  0.086552031   -3.2280779    1.5408832   522073 
 5750000    1.2204284   -3.2263611   -1.6869234  0.090693105   -3.2263611    1.5394377   522114 
 5751000    1.2210282   -3.2267172   -1.6866615  0.092508464   -3.2267172    1.5400556   522161 
 5752000    1.2216459   -3.2276154   -1.6868367  0.085940889   -3.2276154    1.5407786   522180 
 5753000    1.2226404   -3.2296536   -1.6876857  0.086461184   -3.2296536    1.5419679   522202 
 5754000    1.2215488   -3.2280998   -1.6876235  0.087471656   -3.2280998    1.5404762   522241 
 5755000    1.2222324   -3.2304232   -1.6891912  0.092094993   -3.2304232     1.541232   522277 
 5756000    1.2228961   -3.2293908   -1.6874223  0.088251104   -3.2293908    1.5419685   522311 
 5757000    1.2237232   -3.2309441   -1.6879503  0.088303876   -3.2309441    1.5429938   522317 
 5758000    1.2228452   -3.2304695   -1.6886389  0.087088315   -3.2304695    1.5418306   522336 
 5759000    1.2234255   -3.2320357   -1.6895384   0.08610143   -3.2320357    1.5424973   522358 
 5760000    1.2213457   -3.2286617    -1.688822  0.094174659   -3.2286617    1.5398397   522370 
 5761000    1.2221193   -3.2290117   -1.6882733  0.091894707   -3.2290117    1.5407384   522396 
 5762000    1.2219017   -3.2287797   -1.6883511  0.089185981   -3.2287797    1.5404286   522408 
 5763000    1.2236323   -3.2302295   -1.6877048  0.093624667   -3.2302295    1.5425247   522437 
 5764000    1.2224721    -3.229455   -1.6883633     0.093274    -3.229455    1.5410917   522427 
 5765000    1.2217739   -3.2284836   -1.6884107  0.095487145   -3.2284836    1.5400729   522474 
 5766000    1.2244244    -3.230918   -1.6875483  0.091226778    -3.230918    1.5433697   522489 
 5767000    1.2229017   -3.2297541   -1.6883687  0.094841333   -3.2297541    1.5413854   522511 
 5768000    1.2217454   -3.2293982   -1.6894996  0.091664527   -3.2293982    1.5398985   522521 
 5769000    1.2219665   -3.2297973   -1.6895818  0.087090149   -3.2297973    1.5402155   522508 
 5770000    1.2227934   -3.2310058   -1.6897982  0.088169479   -3.2310058    1.5412076   522525 
 5771000    1.2218464   -3.2286632   -1.6887051  0.092701587   -3.2286632     1.539958   522544 
 5772000    1.2219262   -3.2295924   -1.6895986  0.091862595   -3.2295924    1.5399937   522566 
 5773000    1.2209412   -3.2282182   -1.6894835  0.093935266   -3.2282182    1.5387347   522572 
 5774000    1.2229501   -3.2283074   -1.6871442  0.088738754   -3.2283074    1.5411633   522607 
 5775000    1.2213332   -3.2260471   -1.6870098  0.091124843   -3.2260471    1.5390373   522637 
 5776000     1.222593   -3.2286461   -1.6880891  0.088226351   -3.2286461    1.5405571   522660 
 5777000    1.2212184   -3.2272494   -1.6885039  0.088888079   -3.2272494    1.5387455   522687 
 5778000    1.2205218   -3.2264759   -1.6886435  0.089286239   -3.2264759    1.5378324   522699 
 5779000    1.2206702    -3.227731   -1.6898146  0.090119762    -3.227731    1.5379164   522734 
 5780000    1.2203838    -3.227046   -1.6895992  0.081985491    -3.227046    1.5374468   522771 
 5781000    1.2213969   -3.2281029   -1.6894123  0.085353482   -3.2281029    1.5386906   522782 
 5782000    1.2202488   -3.2265844   -1.6893519  0.088099495   -3.2265844    1.5372325   522786 
 5783000    1.2217583   -3.2279941   -1.6888834  0.083107826   -3.2279941    1.5391107   522794 
 5784000    1.2225378     -3.22936   -1.6893735  0.092107842     -3.22936    1.5399865   522830 
 5785000     1.222258   -3.2263709   -1.6868487  0.091154479   -3.2263709    1.5395222   522868 
 5786000     1.223676   -3.2270179    -1.685745   0.08728465   -3.2270179     1.541273   522880 
 5787000    1.2226535   -3.2263347    -1.686444  0.088830522   -3.2263347    1.5398907   522912 
 5788000    1.2243486   -3.2276978   -1.6857488  0.091850659   -3.2276978     1.541949   522938 
 5789000    1.2252157   -3.2287637   -1.6857285  0.088691857   -3.2287637    1.5430351   522940 
 5790000    1.2236256   -3.2271816   -1.6861992   0.09278479   -3.2271816    1.5409824   522957 
 5791000    1.2233836    -3.227466   -1.6868561  0.092863357    -3.227466    1.5406099   522980 
 5792000    1.2245874   -3.2286475    -1.686613  0.090892501   -3.2286475    1.5420345   523011 
 5793000    1.2253908   -3.2294387   -1.6865075  0.092646113   -3.2294387    1.5429312   523050 
 5794000    1.2257872   -3.2294431   -1.6860718  0.091098023   -3.2294431    1.5433713   523070 
 5795000    1.2256626   -3.2287532   -1.6856598  0.091669904   -3.2287532    1.5430934   523111 
 5796000    1.2289761   -3.2330454   -1.6859134   0.08940359   -3.2330454     1.547132   523156 
 5797000    1.2257283   -3.2297096   -1.6866278  0.092933938   -3.2297096    1.5430818   523143 
 5798000    1.2255832   -3.2303608   -1.6875296  0.085076696   -3.2303608    1.5428312   523166 
 5799000    1.2244608   -3.2288968   -1.6875758  0.094690554   -3.2288968     1.541321   523199 
 5800000    1.2254075   -3.2296971   -1.6872227   0.09603442   -3.2296971    1.5424744   523212 
 5801000    1.2236716   -3.2300364   -1.6897558  0.093711283   -3.2300364    1.5402805   523215 
 5802000    1.2258209   -3.2329915   -1.6900056  0.087430362   -3.2329915    1.5429859   523215 
 5803000    1.2226086   -3.2304413   -1.6915547   0.09107073   -3.2304413    1.5388866   523234 
 5804000    1.2238852   -3.2310414    -1.690598  0.090702187   -3.2310414    1.5404435   523251 
 5805000    1.2229548   -3.2305837   -1.6913554  0.088346828   -3.2305837    1.5392283   523266 
 5806000    1.2246797   -3.2329022   -1.6915531  0.090720748   -3.2329022    1.5413491   523283 
 5807000    1.2231163   -3.2316874   -1.6923411  0.092477438   -3.2316874    1.5393462   523295 
 5808000    1.2251551   -3.2328359   -1.6909532   0.09019011   -3.2328359    1.5418827   523305 
 5809000    1.2243975   -3.2322915   -1.6914035  0.091508809   -3.2322915     1.540888   523319 
 5810000     1.223979   -3.2309442    -1.690733  0.095706154   -3.2309442    1.5402112   523370 
 5811000     1.225186   -3.2311353   -1.6894819  0.095790175   -3.2311353    1.5416534   523396 
 5812000    1.2253975   -3.2312574   -1.6893437  0.094273833   -3.2312574    1.5419137   523398 
 5813000    1.2244541   -3.2309611   -1.6902757  0.091887553   -3.2309611    1.5406854   523412 
 5814000    1.2252701   -3.2314709    -1.689856  0.089863289   -3.2314709     1.541615   523445 
 5815000    1.2268359   -3.2328911   -1.6893415  0.091892755   -3.2328911    1.5435496   523457 
 5816000    1.2251903   -3.2312473   -1.6898564  0.089351475   -3.2312473    1.5413909   523487 
 5817000    1.2272406   -3.2328335   -1.6889664  0.092740223   -3.2328335    1.5438671   523522 
 5818000    1.2267377   -3.2319086    -1.688745  0.092130413   -3.2319086    1.5431637   523546 
 5819000     1.226735   -3.2324841    -1.689371  0.088659698   -3.2324841    1.5431131   523562 
 5820000    1.2272352   -3.2317022   -1.6880041  0.095862947   -3.2317022    1.5436981   523577 
 5821000    1.2254317   -3.2310522   -1.6896903  0.091876799   -3.2310522    1.5413618   523600 
 5822000    1.2263973   -3.2320583   -1.6895614  0.087386832   -3.2320583    1.5424969   523627 
 5823000    1.2272547   -3.2323145   -1.6888335  0.085756165   -3.2323145    1.5434809   523659 
 5824000    1.2265327   -3.2315323   -1.6890331  0.086137795   -3.2315323    1.5424992   523684 
 5825000    1.2249692   -3.2308851   -1.6904228  0.084365418   -3.2308851    1.5404624   523708 
 5826000    1.2243965   -3.2294914    -1.689808  0.078290325   -3.2294914    1.5396834   523728 
 5827000    1.2243824   -3.2286311    -1.689033  0.090379557   -3.2286311    1.5395981   523751 
 5828000    1.2258677   -3.2308892   -1.6895118  0.091701707   -3.2308892    1.5413774   523781 
 5829000    1.2252121   -3.2298911   -1.6894086  0.088870838   -3.2298911    1.5404825   523805 
 5830000    1.2230228   -3.2278117   -1.6901905  0.089277041   -3.2278117    1.5376212   523842 
 5831000    1.2244861   -3.2289743   -1.6895663  0.092074361   -3.2289743     1.539408   523860 
 5832000    1.2249541   -3.2297644    -1.689815  0.091250417   -3.2297644    1.5399494   523876 
 5833000    1.2247514   -3.2304446   -1.6908823    0.0859097   -3.2304446    1.5395623   523921 
 5834000     1.222979   -3.2276406   -1.6904501  0.086930368   -3.2276406    1.5371905   523970 
 5835000    1.2259794   -3.2311112   -1.6901641  0.086284327   -3.2311112    1.5409471   523975 
 5836000    1.2257815   -3.2312001   -1.6905841  0.092059771   -3.2312001     1.540616   524003 
 5837000    1.2264589   -3.2315237   -1.6901504  0.093293385   -3.2315237    1.5413733   524035 
 5838000    1.2271387   -3.2320409   -1.6899427  0.097586839   -3.2320409    1.5420982   524079 
 5839000    1.2272285   -3.2323033   -1.6901393  0.089241302   -3.2323033     1.542164   524095 
 5840000    1.2268772   -3.2323141   -1.6906886  0.090608287   -3.2323141    1.5416254   524128 
 5841000    1.2253972   -3.2328019   -1.6930655  0.086402111   -3.2328019    1.5397364   524138 
 5842000    1.2263651   -3.2339988   -1.6930992  0.088755697   -3.2339988    1.5408996   524156 
 5843000    1.2266111   -3.2326216   -1.6914864  0.089812053   -3.2326216    1.5411352   524181 
 5844000    1.2250108   -3.2308096   -1.6917466  0.095560518   -3.2308096     1.539063   524202 
 5845000    1.2270228   -3.2330429   -1.6915138  0.088454529   -3.2330429     1.541529   524223 
 5846000    1.2278657   -3.2343707   -1.6918033  0.089590712   -3.2343707    1.5425673   524230 
 5847000    1.2279307   -3.2347125   -1.6920841  0.088663424   -3.2347125    1.5426284   524237 
 5848000    1.2282842   -3.2347541    -1.691767  0.094484752   -3.2347541    1.5429871   524266 
 5849000    1.2292055   -3.2351692     -1.69106  0.092629308   -3.2351692    1.5441092   524278 
 5850000    1.2275897   -3.2335678   -1.6915501  0.089912927   -3.2335678    1.5420177   524299 
 5851000    1.2297882   -3.2357319   -1.6910145  0.097876766   -3.2357319    1.5447174   524320 
 5852000    1.2298013   -3.2358222   -1.6911914  0.097903628   -3.2358222    1.5446308   524355 
 5853000    1.2291759   -3.2331412   -1.6894432  0.094227065   -3.2331412     1.543698   524405 
 5854000    1.2312497   -3.2368652   -1.6906659  0.093028428   -3.2368652    1.5461992   524440 
 5855000    1.2304723   -3.2352574   -1.6901228   0.10041345   -3.2352574    1.5451346   524470 
 5856000    1.2304214   -3.2350779   -1.6901073  0.098273416   -3.2350779    1.5449706   524504 
 5857000    1.2305408   -3.2356031   -1.6905358  0.092859484   -3.2356031    1.5450674   524522 
 5858000    1.2289865   -3.2339579   -1.6909039  0.094534467   -3.2339579    1.5430541   524543 
 5859000    1.2279949   -3.2334066   -1.6915328  0.092980833   -3.2334066    1.5418738   524521 
 5860000    1.2286978   -3.2342716   -1.6915477  0.093736932   -3.2342716    1.5427239   524532 
 5861000    1.2261462    -3.232206   -1.6927738  0.089967929    -3.232206    1.5394322   524562 
 5862000    1.2278147   -3.2351648   -1.6936907  0.089481026   -3.2351648    1.5414741   524580 
 5863000    1.2269011   -3.2329109   -1.6926601  0.087273406   -3.2329109    1.5402508   524606 
 5864000    1.2279687    -3.234625   -1.6931192  0.087599403    -3.234625    1.5415058   524635 
 5865000    1.2267323   -3.2333513   -1.6934005  0.086528308   -3.2333513    1.5399508   524636 
 5866000    1.2253835   -3.2314393   -1.6933019   0.09670155   -3.2314393    1.5381374   524677 
 5867000    1.2256799   -3.2317657   -1.6932444  0.086754748   -3.2317657    1.5385212   524673 
 5868000    1.2281335   -3.2340011    -1.692356  0.090207042   -3.2340011    1.5416452   524658 
 5869000     1.226335   -3.2313796   -1.6920039  0.089456308   -3.2313796    1.5393757   524662 
 5870000    1.2285663   -3.2322526   -1.6901523  0.082724348   -3.2322526    1.5421003   524688 
 5871000    1.2293242   -3.2330521   -1.6899711  0.090318332   -3.2330521    1.5430809   524678 
 5872000    1.2289152    -3.231839   -1.6893391  0.092275811    -3.231839    1.5424999   524701 
 5873000    1.2296736   -3.2322401   -1.6888441  0.088698749   -3.2322401     1.543396   524720 
 5874000    1.2305737   -3.2330713    -1.688578  0.091058017   -3.2330713    1.5444933   524731 
 5875000    1.2307248   -3.2336627   -1.6890357  0.090403951   -3.2336627     1.544627   524750 
 5876000    1.2285866   -3.2315158   -1.6896046  0.091323483   -3.2315158    1.5419112   524761 
 5877000    1.2293927   -3.2334639   -1.6906293  0.090636572   -3.2334639    1.5428346   524791 
 5878000    1.2276733   -3.2309942   -1.6903789  0.088705545   -3.2309942    1.5406152   524812 
 5879000    1.2286461   -3.2316552   -1.6898928  0.088804229   -3.2316552    1.5417625   524837 
 5880000    1.2285537   -3.2309327   -1.6893243  0.088945246   -3.2309327    1.5416084   524850 
 5881000    1.2289842   -3.2322903   -1.6901916  0.090525342   -3.2322903    1.5420986   524867 
 5882000    1.2263487   -3.2301504   -1.6913499  0.087486281   -3.2301504    1.5388005   524864 
 5883000    1.2280376   -3.2330125   -1.6921602  0.085590398   -3.2330125    1.5408522   524887 
 5884000    1.2253317   -3.2293726     -1.69198  0.087400661   -3.2293726    1.5373926   524909 
 5885000     1.227207    -3.231298   -1.6916289  0.090155519    -3.231298    1.5396692   524935 
 5886000    1.2272798   -3.2307806   -1.6910729  0.090977127   -3.2307806    1.5397077   524953 
 5887000    1.2277576   -3.2319122   -1.6917253  0.087646623   -3.2319122    1.5401869   524994 
 5888000    1.2268251   -3.2302259      -1.6912  0.090953954   -3.2302259    1.5390259   524991 
 5889000    1.2281273   -3.2322609   -1.6915692  0.090073232   -3.2322609    1.5406918   524980 
 5890000    1.2277355   -3.2326234   -1.6925787  0.088979998   -3.2326234    1.5400447   525033 
 5891000    1.2301461   -3.2340945   -1.6911024  0.088211106   -3.2340945    1.5429921   525059 
 5892000    1.2304312   -3.2354539   -1.6921423  0.090674629   -3.2354539    1.5433115   525072 
 5893000    1.2299439   -3.2352591   -1.6926117  0.089001249   -3.2352591    1.5426474   525090 
 5894000     1.229026   -3.2342815   -1.6928088  0.091563436   -3.2342815    1.5414728   525098 
 5895000    1.2301083   -3.2363262    -1.693452   0.09008003   -3.2363262    1.5428742   525083 
 5896000    1.2305951   -3.2358447   -1.6923716  0.087497159   -3.2358447    1.5434731   525087 
 5897000    1.2292639   -3.2342428   -1.6925069  0.092361802   -3.2342428    1.5417359   525110 
 5898000    1.2287801   -3.2338589   -1.6927562  0.088469798   -3.2338589    1.5411027   525119 
 5899000    1.2286974   -3.2343616   -1.6934126  0.090865273   -3.2343616     1.540949   525136 
 5900000    1.2274097   -3.2328356   -1.6935748  0.093198157   -3.2328356    1.5392608   525161 
 5901000    1.2291446   -3.2353245   -1.6939966  0.084229768   -3.2353245     1.541328   525198 
 5902000    1.2279115   -3.2346407   -1.6948942  0.095229718   -3.2346407    1.5397465   525210 
 5903000    1.2289007   -3.2361821   -1.6952626  0.088475616   -3.2361821    1.5409194   525233 
 5904000    1.2294708   -3.2360757   -1.6945677  0.090719254   -3.2360757     1.541508   525276 
 5905000    1.2286442   -3.2364843    -1.695995  0.088228267   -3.2364843    1.5404892   525270 
 5906000    1.2281313   -3.2348751   -1.6950934  0.089512207   -3.2348751    1.5397817   525292 
 5907000    1.2296286    -3.236815   -1.6952529  0.089367846    -3.236815    1.5415621   525325 
 5908000    1.2292467   -3.2374204   -1.6963781  0.087431436   -3.2374204    1.5410423   525339 
 5909000    1.2296927   -3.2372195   -1.6956886  0.088368513   -3.2372195     1.541531   525363 
 5910000     1.229767   -3.2366448   -1.6951263  0.090772175   -3.2366448    1.5415185   525399 
 5911000    1.2294855   -3.2360102    -1.694915  0.091196986   -3.2360102    1.5410952   525423 
 5912000     1.229107   -3.2342144   -1.6936289  0.088802502   -3.2342144    1.5405855   525435 
 5913000    1.2299423   -3.2344195    -1.692831  0.090621182   -3.2344195    1.5415885   525450 
 5914000    1.2295082   -3.2341312   -1.6931513  0.091424401   -3.2341312    1.5409799   525472 
 5915000    1.2304998   -3.2357706   -1.6936036  0.091696648   -3.2357706     1.542167   525491 
 5916000    1.2289655   -3.2339943   -1.6937941  0.094246739   -3.2339943    1.5402001   525506 
 5917000    1.2311649   -3.2361354   -1.6932935  0.088356044   -3.2361354     1.542842   525545 
 5918000    1.2290384   -3.2341088    -1.693961  0.093730817   -3.2341088    1.5401478   525555 
 5919000    1.2309486   -3.2352778   -1.6927685  0.095365899   -3.2352778    1.5425093   525566 
 5920000    1.2331171   -3.2379956   -1.6928896  0.086986093   -3.2379956    1.5451061   525607 
 5921000    1.2300606   -3.2346622   -1.6934827  0.092960182   -3.2346622    1.5411795   525640 
 5922000    1.2289005   -3.2339497   -1.6942676  0.095562055   -3.2339497     1.539682   525655 
 5923000    1.2302977   -3.2352299   -1.6938531  0.093043302   -3.2352299    1.5413768   525674 
 5924000    1.2304842   -3.2346654   -1.6931341  0.089381244   -3.2346654    1.5415313   525701 
 5925000     1.230788   -3.2350956   -1.6932071  0.091014081   -3.2350956    1.5418885   525709 
 5926000     1.231653   -3.2349721   -1.6921378  0.091648232   -3.2349721    1.5428343   525756 
 5927000     1.232319   -3.2354968   -1.6919429  0.093128764   -3.2354968    1.5435539   525795 
 5928000    1.2323103   -3.2352423   -1.6917961   0.09071061   -3.2352423    1.5434462   525828 
 5929000    1.2303038   -3.2337728   -1.6929158  0.093486672   -3.2337728    1.5408569   525854 
 5930000    1.2302544   -3.2333155   -1.6925703  0.089269953   -3.2333155    1.5407452   525871 
 5931000    1.2329089   -3.2361459   -1.6921173  0.090519133   -3.2361459    1.5440286   525885 
 5932000    1.2309075   -3.2340638   -1.6926003   0.09350911   -3.2340638    1.5414635   525905 
 5933000    1.2309555   -3.2336025   -1.6922079  0.088855992   -3.2336025    1.5413946   525949 
 5934000     1.232136     -3.23423   -1.6914803   0.09207779     -3.23423    1.5427497   525991 
 5935000    1.2322802   -3.2336758   -1.6908365  0.092137816   -3.2336758    1.5428393   526022 
 5936000    1.2325087   -3.2336929   -1.6906263  0.091993705   -3.2336929    1.5430667   526042 
 5937000    1.2323429   -3.2338371   -1.6910483  0.094744983   -3.2338371    1.5427888   526066 
 5938000    1.2325041   -3.2340878   -1.6911529  0.089331585   -3.2340878    1.5429349   526085 
 5939000     1.232093   -3.2341293   -1.6917765  0.086381994   -3.2341293    1.5423528   526108 
 5940000    1.2319722   -3.2348957   -1.6926267  0.088862699   -3.2348957     1.542269   526085 
 5941000    1.2306281   -3.2330399   -1.6924916  0.090731539   -3.2330399    1.5405483   526098 
 5942000    1.2311019   -3.2343863   -1.6933416  0.087913043   -3.2343863    1.5410447   526131 
 5943000    1.2314624   -3.2348467   -1.6934503  0.089212416   -3.2348467    1.5413964   526165 
 5944000    1.2304192   -3.2345988   -1.6945989  0.085538115   -3.2345988    1.5399999   526196 
 5945000    1.2309657   -3.2343659   -1.6937259   0.08849073   -3.2343659      1.54064   526211 
 5946000    1.2309225    -3.234527   -1.6940758  0.087697339    -3.234527    1.5404513   526257 
 5947000      1.23056   -3.2335807   -1.6936387  0.092633498   -3.2335807     1.539942   526276 
 5948000    1.2312845   -3.2340561   -1.6932689  0.086905284   -3.2340561    1.5407872   526297 
 5949000    1.2323387   -3.2346591   -1.6926084  0.091196015   -3.2346591    1.5420507   526316 
 5950000     1.231112   -3.2339438   -1.6935276  0.092726909   -3.2339438    1.5404162   526350 
 5951000    1.2326979   -3.2343681   -1.6920731  0.088304052   -3.2343681     1.542295   526386 
 5952000    1.2332271   -3.2346669   -1.6917596  0.091285468   -3.2346669    1.5429073   526403 
 5953000    1.2307014   -3.2321691   -1.6925505  0.094933122   -3.2321691    1.5396186   526447 
 5954000    1.2332814   -3.2350436   -1.6921886  0.092562467   -3.2350436     1.542855   526444 
 5955000    1.2329045   -3.2335778   -1.6912997  0.093056634   -3.2335778    1.5422782   526480 
 5956000    1.2324959   -3.2333685   -1.6916981  0.088774126   -3.2333685    1.5416704   526513 
 5957000    1.2345962   -3.2355118     -1.69127  0.094091105   -3.2355118    1.5442418   526532 
 5958000    1.2352419   -3.2362681   -1.6912862  0.092490625   -3.2362681    1.5449819   526555 
 5959000    1.2327849   -3.2330841   -1.6912602  0.092528504   -3.2330841    1.5418239   526584 
 5960000    1.2336162   -3.2337458   -1.6909349  0.094612507   -3.2337458    1.5428109   526602 
 5961000    1.2351131   -3.2362987   -1.6917242  0.089089422   -3.2362987    1.5445744   526639 
 5962000    1.2352753   -3.2352829    -1.690664   0.08713564   -3.2352829    1.5446189   526693 
 5963000    1.2346854   -3.2341781   -1.6903876  0.092806122   -3.2341781    1.5437905   526724 
 5964000     1.236245   -3.2357528   -1.6900886  0.094420469   -3.2357528    1.5456641   526750 
 5965000    1.2343159    -3.233572   -1.6903549  0.091848061    -3.233572    1.5432171   526762 
 5966000    1.2349081   -3.2345456   -1.6907112  0.089252827   -3.2345456    1.5438344   526804 
 5967000    1.2332803   -3.2317772   -1.6900451  0.088956163   -3.2317772    1.5417321   526827 
 5968000    1.2344544   -3.2341313   -1.6909345  0.090947089   -3.2341313    1.5431969   526828 
 5969000    1.2341698   -3.2346656   -1.6918597  0.087530674   -3.2346656    1.5428059   526840 
 5970000    1.2333143   -3.2330985   -1.6913941  0.093358766   -3.2330985    1.5417043   526851 
 5971000    1.2346128   -3.2354402   -1.6921801  0.092005561   -3.2354402    1.5432601   526874 
 5972000    1.2333975   -3.2346109   -1.6929986  0.086251616   -3.2346109    1.5416123   526918 
 5973000    1.2349491   -3.2358286    -1.692403  0.080226303   -3.2358286    1.5434256   526961 
 5974000    1.2326742   -3.2332645   -1.6926967  0.092250411   -3.2332645    1.5405679   526966 
 5975000    1.2330203   -3.2328666   -1.6919158  0.093103274   -3.2328666    1.5409508   526983 
 5976000     1.234962   -3.2339748    -1.690618   0.08807559   -3.2339748    1.5433568   526990 
 5977000    1.2354137   -3.2347763   -1.6909166  0.091622525   -3.2347763    1.5438598   527011 
 5978000    1.2348737   -3.2344795   -1.6913822  0.091311752   -3.2344795    1.5430972   527041 
 5979000    1.2357291    -3.236974   -1.6929076   0.09406433    -3.236974    1.5440664   527075 
 5980000    1.2345623   -3.2352975   -1.6928001  0.092692249   -3.2352975    1.5424974   527113 
 5981000    1.2341081   -3.2349558    -1.693105  0.095714325   -3.2349558    1.5418508   527140 
 5982000     1.235163   -3.2356132   -1.6925117  0.089162164   -3.2356132    1.5431015   527163 
 5983000    1.2332394   -3.2348716   -1.6942346  0.089582753   -3.2348716     1.540637   527184 
 5984000    1.2345911   -3.2371117   -1.6947569  0.089097692   -3.2371117    1.5423549   527174 
 5985000    1.2340189   -3.2371722   -1.6955058  0.090794552   -3.2371722    1.5416663   527165 
 5986000    1.2336545   -3.2360128   -1.6948836  0.094642576   -3.2360128    1.5411292   527193 
 5987000    1.2339347   -3.2371443   -1.6957557  0.095636915   -3.2371443    1.5413886   527224 
 5988000    1.2337871   -3.2378254    -1.696703  0.090818078   -3.2378254    1.5411224   527252 
 5989000    1.2342834   -3.2373406   -1.6956713  0.088907131   -3.2373406    1.5416692   527277 
 5990000    1.2330298   -3.2360566    -1.695962  0.092639513   -3.2360566    1.5400946   527280 
 5991000    1.2330057   -3.2356606   -1.6956544  0.089406736   -3.2356606    1.5400062   527300 
 5992000    1.2359651   -3.2394336   -1.6958688  0.084235264   -3.2394336    1.5435648   527347 
 5993000    1.2341942   -3.2374897   -1.6961892  0.084112719   -3.2374897    1.5413005   527365 
 5994000       1.2351   -3.2379321   -1.6955413  0.093741626   -3.2379321    1.5423907   527379 
 5995000     1.235275   -3.2379187   -1.6952802  0.095988134   -3.2379187    1.5426385   527369 
 5996000    1.2360338   -3.2386513   -1.6951471  0.099039345   -3.2386513    1.5435042   527397 
 5997000    1.2357027   -3.2382255    -1.695199  0.089737809   -3.2382255    1.5430264   527419 
 5998000    1.2347436     -3.23747   -1.6957347  0.086287214     -3.23747    1.5417353   527451 
 5999000    1.2357141   -3.2389844   -1.6960813  0.093802171   -3.2389844    1.5429032   527466 
 6000000    1.2386226   -3.2416195   -1.6951933  0.088069263   -3.2416195    1.5464262   527503 
 6001000    1.2355661   -3.2379904   -1.6954388  0.095260807   -3.2379904    1.5425516   527523 
 6002000    1.2384143    -3.240234    -1.694144  0.090688075    -3.240234      1.54609   527529 
 6003000    1.2360583   -3.2376864   -1.6946459  0.091656086   -3.2376864    1.5430404   527566 
 6004000    1.2351152   -3.2352719   -1.6934118  0.092625527   -3.2352719    1.5418601   527567 
 6005000      1.23654   -3.2367871   -1.6932712  0.095905239   -3.2367871    1.5435159   527609 
 6006000     1.235743   -3.2360901   -1.6936479  0.091492605   -3.2360901    1.5424421   527636 
 6007000     1.235634   -3.2369439   -1.6946291  0.097250858   -3.2369439    1.5423148   527633 
 6008000    1.2359274   -3.2368451   -1.6942576  0.093354701   -3.2368451    1.5425875   527665 
 6009000    1.2366219    -3.238315    -1.694922  0.088925981    -3.238315    1.5433929   527686 
 6010000    1.2361591   -3.2386035    -1.695759  0.093777427   -3.2386035    1.5428445   527676 
 6011000    1.2356988   -3.2385529   -1.6962946  0.090743883   -3.2385529    1.5422583   527680 
 6012000    1.2349591   -3.2362744   -1.6950094  0.091640014   -3.2362744     1.541265   527704 
 6013000    1.2358069   -3.2381596   -1.6958862  0.084627813   -3.2381596    1.5422735   527721 
 6014000    1.2351559   -3.2369007   -1.6955069   0.09288624   -3.2369007    1.5413938   527744 
 6015000    1.2360974   -3.2374198    -1.694968  0.087757872   -3.2374198    1.5424519   527784 
 6016000      1.23652   -3.2367518   -1.6938427   0.08932197   -3.2367518     1.542909   527808 
 6017000    1.2365629    -3.236485   -1.6935167   0.08946133    -3.236485    1.5429683   527806 
 6018000    1.2384351   -3.2382497   -1.6929541  0.091855674   -3.2382497    1.5452956   527809 
 6019000    1.2360917   -3.2356263   -1.6932897  0.091065341   -3.2356263    1.5423366   527821 
 6020000    1.2360922   -3.2367985   -1.6944496    0.0880235   -3.2367985    1.5423489   527817 
 6021000    1.2355843   -3.2372148   -1.6954996  0.091484586   -3.2372148    1.5417151   527817 
 6022000    1.2359944    -3.237451   -1.6952854  0.086057566    -3.237451    1.5421655   527838 
 6023000    1.2350821   -3.2378117   -1.6968838  0.092332222   -3.2378117    1.5409279   527872 
 6024000    1.2342757   -3.2369883   -1.6971626  0.090366209   -3.2369883    1.5398256   527905 
 6025000     1.234132   -3.2374969   -1.6978972   0.09291635   -3.2374969    1.5395997   527921 
 6026000    1.2345159    -3.236669   -1.6967683  0.088489143    -3.236669    1.5399006   527982 
 6027000    1.2351233   -3.2380273   -1.6974273   0.08797692   -3.2380273       1.5406   528002 
 6028000    1.2352833    -3.236702   -1.6959463  0.094329697    -3.236702    1.5407557   528017 
 6029000     1.234735   -3.2356299   -1.6956455  0.091186962   -3.2356299    1.5399844   528047 
 6030000    1.2359127    -3.238416   -1.6970066  0.089609056    -3.238416    1.5414094   528062 
 6031000    1.2354831   -3.2376388   -1.6967622  0.087605422   -3.2376388    1.5408766   528061 
 6032000    1.2344966   -3.2363786   -1.6968082  0.090511503   -3.2363786    1.5395704   528087 
 6033000    1.2347062   -3.2366587   -1.6969785  0.091202687   -3.2366587    1.5396802   528139 
 6034000    1.2361646   -3.2385663   -1.6970471  0.090579705   -3.2385663    1.5415193   528132 
 6035000    1.2349664   -3.2358144   -1.6958622  0.089458992   -3.2358144    1.5399522   528157 
 6036000    1.2349199   -3.2371215   -1.6972565  0.093044345   -3.2371215     1.539865   528167 
 6037000    1.2363279   -3.2394562   -1.6979288  0.083449882   -3.2394562    1.5415274   528199 
 6038000    1.2366485   -3.2383196   -1.6963575  0.089321561   -3.2383196    1.5419621   528187 
 6039000    1.2363123   -3.2374419   -1.6959516  0.090546315   -3.2374419    1.5414903   528205 
 6040000     1.235699   -3.2358655   -1.6952419  0.097299741   -3.2358655    1.5406236   528240 
 6041000     1.235894   -3.2362721   -1.6954229  0.092912905   -3.2362721    1.5408492   528246 
 6042000    1.2355375   -3.2358508   -1.6954724  0.089180312   -3.2358508    1.5403785   528255 
 6043000    1.2361217   -3.2373038   -1.6962144  0.085823623   -3.2373038    1.5410894   528261 
 6044000     1.235306   -3.2362108   -1.6962667  0.095696152   -3.2362108    1.5399441   528305 
 6045000    1.2359106   -3.2365349   -1.6959099  0.089168343   -3.2365349     1.540625   528330 
 6046000    1.2366225    -3.237157   -1.6956534  0.087525829    -3.237157    1.5415036   528333 
 6047000    1.2363407    -3.236282   -1.6952756  0.091368085    -3.236282    1.5410065   528383 
 6048000    1.2370496   -3.2374375   -1.6956437  0.090745522   -3.2374375    1.5417938   528416 
 6049000    1.2353066   -3.2350147   -1.6954457  0.092732495   -3.2350147     1.539569   528434 
 6050000    1.2364144   -3.2373926   -1.6964983  0.091681958   -3.2373926    1.5408942   528453 
 6051000    1.2362982    -3.236556   -1.6957834  0.096767479    -3.236556    1.5407727   528445 
 6052000    1.2358531    -3.235058   -1.6949419  0.090987214    -3.235058     1.540116   528480 
 6053000    1.2369571   -3.2365019   -1.6951122   0.09541974   -3.2365019    1.5413897   528515 
 6054000    1.2374932   -3.2364853   -1.6944596   0.08980426   -3.2364853    1.5420256   528526 
 6055000    1.2381841   -3.2387391   -1.6959868  0.087287878   -3.2387391    1.5427522   528572 
 6056000    1.2349605   -3.2359406   -1.6972979  0.090971568   -3.2359406    1.5386426   528604 
 6057000    1.2372018    -3.238146   -1.6967401  0.090862786    -3.238146    1.5414059   528614 
 6058000    1.2360238   -3.2375978   -1.6977558  0.090537184   -3.2375978    1.5398421   528647 
 6059000    1.2368521   -3.2383745   -1.6975647   0.09289352   -3.2383745    1.5408099   528669 
 6060000    1.2373372   -3.2381846   -1.6968549  0.085962726   -3.2381846    1.5413297   528698 
 6061000    1.2368245   -3.2388371    -1.698181  0.089356763   -3.2388371    1.5406561   528710 
 6062000    1.2370991   -3.2387064   -1.6978395  0.094147435   -3.2387064    1.5408669   528755 
 6063000    1.2379313   -3.2394444   -1.6975146  0.088689725   -3.2394444    1.5419298   528746 
 6064000    1.2373024    -3.240015   -1.6989182  0.092439134    -3.240015    1.5410968   528763 
 6065000    1.2366797   -3.2390928   -1.6988065   0.09018812   -3.2390928    1.5402863   528775 
 6066000    1.2373086   -3.2401183   -1.6991011   0.08858696   -3.2401183    1.5410172   528793 
 6067000    1.2358692   -3.2390116   -1.6998134  0.092482472   -3.2390116    1.5391982   528802 
 6068000    1.2383609   -3.2418087   -1.6995713  0.089187354   -3.2418087    1.5422373   528824 
 6069000    1.2373481   -3.2409305   -1.7000187  0.086304669   -3.2409305    1.5409119   528846 
 6070000    1.2367268   -3.2414933   -1.7013755   0.08930962   -3.2414933    1.5401178   528853 
 6071000    1.2369397   -3.2418514   -1.7015064  0.087408651   -3.2418514     1.540345   528866 
 6072000    1.2374662   -3.2426035   -1.7016873  0.086668577   -3.2426035    1.5409162   528895 
 6073000    1.2374375   -3.2426638   -1.7019115  0.094114554   -3.2426638    1.5407523   528939 
 6074000    1.2396066   -3.2447425   -1.7013157  0.090082628   -3.2447425    1.5434268   528948 
 6075000    1.2385713   -3.2427926   -1.7007541  0.086788167   -3.2427926    1.5420386   528982 
 6076000    1.2393408   -3.2444077   -1.7014023  0.086552151   -3.2444077    1.5430055   528979 
 6077000    1.2384079   -3.2416084   -1.6997936  0.096242775   -3.2416084    1.5418147   528989 
 6078000    1.2383666   -3.2427809   -1.7010787  0.090459577   -3.2427809    1.5417022   529010 
 6079000    1.2375814   -3.2426998   -1.7020217  0.090549281   -3.2426998    1.5406781   529026 
 6080000    1.2376939   -3.2419539   -1.7012319   0.09481552   -3.2419539     1.540722   529059 
 6081000    1.2384998   -3.2423751   -1.7007432   0.09485361   -3.2423751    1.5416319   529091 
 6082000    1.2383131   -3.2416033   -1.7003028  0.089349903   -3.2416033    1.5413004   529125 
 6083000    1.2388312   -3.2419041   -1.7000228  0.087739757   -3.2419041    1.5418813   529147 
 6084000     1.240133   -3.2437651   -1.7003919  0.092742105   -3.2437651    1.5433731   529191 
 6085000    1.2393881   -3.2430797   -1.7007268  0.089311121   -3.2430797    1.5423528   529223 
 6086000    1.2380706   -3.2423015    -1.701591  0.091816193   -3.2423015    1.5407104   529224 
 6087000    1.2392102   -3.2424601   -1.7003258  0.085936628   -3.2424601    1.5421344   529222 
 6088000    1.2386707   -3.2414434   -1.7000008  0.092847118   -3.2414434    1.5414426   529229 
 6089000    1.2388649   -3.2411268   -1.6994863  0.091863734   -3.2411268    1.5416405   529244 
 6090000    1.2388052   -3.2419579    -1.700511  0.092756476   -3.2419579    1.5414468   529285 
 6091000    1.2384622    -3.240883   -1.6999036  0.093576419    -3.240883    1.5409794   529299 
 6092000    1.2391348   -3.2410074   -1.6992669  0.093906162   -3.2410074    1.5417405   529325 
 6093000    1.2380315   -3.2406028   -1.7003572  0.088004736   -3.2406028    1.5402455   529367 
 6094000      1.23736   -3.2394271   -1.7000868  0.091457249   -3.2394271    1.5393403   529391 
 6095000    1.2354337   -3.2380707   -1.7012024  0.089310512   -3.2380707    1.5368684   529417 
 6096000    1.2376025   -3.2403121   -1.7008504  0.088754162   -3.2403121    1.5394617   529453 
 6097000    1.2379834    -3.239945   -1.7000182  0.089913933    -3.239945    1.5399268   529456 
 6098000    1.2381298   -3.2401823   -1.7002043  0.087603797   -3.2401823     1.539978   529501 
 6099000     1.239871   -3.2418302   -1.6997418  0.083923486   -3.2418302    1.5420884   529520 
 6100000    1.2403386   -3.2413128   -1.6987041  0.097180787   -3.2413128    1.5426088   529541 
 6101000    1.2387141   -3.2414071   -1.7009089  0.087631155   -3.2414071    1.5404982   529572 
 6102000    1.2392565   -3.2423251   -1.7012746   0.08755579   -3.2423251    1.5410505   529614 
 6103000    1.2392876   -3.2418999   -1.7008485  0.093328872   -3.2418999    1.5410513   529627 
 6104000    1.2392604   -3.2410565   -1.7001146  0.087061507   -3.2410565    1.5409419   529653 
 6105000    1.2395871    -3.241448   -1.7001522  0.091974602    -3.241448    1.5412957   529671 
 6106000      1.24021   -3.2413745   -1.6994498   0.09318873   -3.2413745    1.5419247   529721 
 6107000    1.2397043   -3.2406781   -1.6994025   0.09148287   -3.2406781    1.5412757   529728 
 6108000    1.2390175   -3.2408904   -1.7005093  0.092067848   -3.2408904    1.5403811   529742 
 6109000    1.2400567   -3.2413012   -1.6997068  0.091608474   -3.2413012    1.5415944   529769 
 6110000    1.2396548   -3.2426886   -1.7016375  0.086312546   -3.2426886    1.5410511   529784 
 6111000    1.2401043   -3.2424947   -1.7009371  0.092984243   -3.2424947    1.5415576   529802 
 6112000    1.2401296   -3.2421376   -1.7007086  0.086957864   -3.2421376     1.541429   529857 
 6113000     1.240365   -3.2418935   -1.7002097  0.091065267   -3.2418935    1.5416838   529870 
 6114000    1.2398262   -3.2418026   -1.7008264  0.090620257   -3.2418026    1.5409762   529883 
 6115000    1.2398146   -3.2431818    -1.702249  0.085157971   -3.2431818    1.5409328   529893 
 6116000    1.2399966    -3.242769   -1.7016449  0.090833327    -3.242769    1.5411241   529905 
 6117000    1.2384007   -3.2414949    -1.702392  0.094116285   -3.2414949    1.5391029   529918 
 6118000    1.2390451    -3.240705   -1.7008477  0.093350274    -3.240705    1.5398573   529934 
 6119000    1.2395836    -3.242517   -1.7020807  0.087007993    -3.242517    1.5404363   529965 
 6120000    1.2392852   -3.2425747   -1.7025702  0.088170858   -3.2425747    1.5400045   529986 
 6121000    1.2385691   -3.2433575   -1.7042254  0.092024885   -3.2433575    1.5391321   529980 
 6122000    1.2370202    -3.240521   -1.7033195  0.092879329    -3.240521    1.5372015   529982 
 6123000     1.239845   -3.2442251   -1.7036528  0.089952108   -3.2442251    1.5405723   530030 
 6124000    1.2388704   -3.2417318   -1.7023763  0.094245865   -3.2417318    1.5393555   530032 
 6125000    1.2386173   -3.2416057   -1.7027041  0.086231415   -3.2416057    1.5389016   530080 
 6126000    1.2397515    -3.243531   -1.7032639  0.091739161    -3.243531    1.5402672   530095 
 6127000    1.2402978   -3.2426567   -1.7017602  0.094222861   -3.2426567    1.5408965   530112 
 6128000    1.2398482   -3.2416523    -1.701387  0.092528457   -3.2416523    1.5402653   530137 
 6129000    1.2411062   -3.2424668   -1.7007085  0.094525525   -3.2424668    1.5417583   530161 
 6130000    1.2403148   -3.2426918   -1.7020009  0.093667581   -3.2426918    1.5406909   530190 
 6131000    1.2423714   -3.2439102   -1.7008015  0.091498943   -3.2439102    1.5431088   530237 
 6132000    1.2412489   -3.2427964   -1.7011283  0.089917315   -3.2427964    1.5416681   530253 
 6133000    1.2420386   -3.2433981   -1.7008248  0.093680975   -3.2433981    1.5425733   530279 
 6134000    1.2418809   -3.2437942   -1.7014779  0.092955225   -3.2437942    1.5423163   530300 
 6135000    1.2408658   -3.2428069   -1.7017919  0.093574832   -3.2428069    1.5410149   530314 
 6136000    1.2413117   -3.2441377   -1.7026358  0.088841374   -3.2441377    1.5415019   530337 
 6137000    1.2406155   -3.2445804   -1.7040215  0.085166051   -3.2445804    1.5405588   530364 
 6138000    1.2398409   -3.2435603   -1.7040272  0.093050022   -3.2435603    1.5395331   530386 
 6139000    1.2415499   -3.2453406   -1.7037522  0.086078786   -3.2453406    1.5415884   530409 
 6140000    1.2392724   -3.2429765   -1.7043379  0.086906035   -3.2429765    1.5386386   530451 
 6141000    1.2404802   -3.2447409   -1.7046578  0.088497958   -3.2447409    1.5400831   530470 
 6142000    1.2406381   -3.2434038   -1.7032264  0.095211357   -3.2434038    1.5401774   530505 
 6143000    1.2413986   -3.2454352   -1.7043078  0.085567963   -3.2454352    1.5411274   530503 
 6144000    1.2407938   -3.2441487     -1.70381  0.092045768   -3.2441487    1.5403388   530516 
 6145000    1.2390758    -3.241748   -1.7036318  0.098990093    -3.241748    1.5381162   530547 
 6146000    1.2416527   -3.2465743   -1.7053029  0.088502187   -3.2465743    1.5412715   530562 
 6147000    1.2416074   -3.2451409   -1.7040448  0.087771575   -3.2451409    1.5410961   530603 
 6148000    1.2413788   -3.2458064   -1.7050607  0.091293219   -3.2458064    1.5407456   530626 
 6149000    1.2413611   -3.2461889   -1.7055262  0.090742612   -3.2461889    1.5406627   530647 
 6150000    1.2408893   -3.2453686   -1.7053525  0.089802997   -3.2453686    1.5400161   530668 
 6151000    1.2423946    -3.247364    -1.705471  0.090969041    -3.247364     1.541893   530665 
 6152000     1.242675   -3.2471816   -1.7051179  0.090124673   -3.2471816    1.5420637   530726 
 6153000    1.2418622   -3.2443815   -1.7034686  0.095505574   -3.2443815    1.5409129   530775 
 6154000    1.2437799    -3.246171   -1.7030415  0.093063438    -3.246171    1.5431296   530831 
 6155000     1.243647   -3.2457001   -1.7027704  0.094682165   -3.2457001    1.5429298   530843 
 6156000    1.2443418   -3.2460097   -1.7022877  0.096399317   -3.2460097     1.543722   530867 
 6157000    1.2449811    -3.246669    -1.702247  0.092936695    -3.246669     1.544422   530899 
 6158000    1.2441525   -3.2459395   -1.7025715  0.096042987   -3.2459395    1.5433679   530908 
 6159000    1.2449776   -3.2475361   -1.7032696    0.0923112   -3.2475361    1.5442665   530951 
 6160000    1.2444185   -3.2469419   -1.7034039  0.096944045   -3.2469419     1.543538   530963 
 6161000    1.2449972   -3.2474224   -1.7032713  0.088627692   -3.2474224    1.5441511   530999 
 6162000    1.2433059   -3.2456009   -1.7035678  0.094178465   -3.2456009    1.5420331   531006 
 6163000    1.2428041   -3.2449179   -1.7035912  0.095009478   -3.2449179    1.5413266   531035 
 6164000    1.2427518   -3.2454322    -1.704246  0.095027157   -3.2454322    1.5411862   531061 
 6165000    1.2431809   -3.2467263   -1.7050457  0.089127254   -3.2467263    1.5416807   531074 
 6166000    1.2433598   -3.2466451   -1.7048093  0.091076975   -3.2466451    1.5418358   531097 
 6167000    1.2451324   -3.2489688   -1.7049814  0.082202724   -3.2489688    1.5439874   531113 
 6168000     1.243125   -3.2458292   -1.7043775  0.089878991   -3.2458292    1.5414517   531129 
 6169000    1.2434709   -3.2451205   -1.7033792  0.089530462   -3.2451205    1.5417413   531177 
 6170000    1.2426763   -3.2444062   -1.7037807  0.092889678   -3.2444062    1.5406255   531222 
 6171000    1.2426587    -3.244386   -1.7038838  0.090729826    -3.244386    1.5405023   531257 
 6172000    1.2425283   -3.2443212   -1.7040154  0.094252741   -3.2443212    1.5403057   531269 
 6173000    1.2452667   -3.2471759   -1.7035074  0.084786163   -3.2471759    1.5436685   531280 
 6174000    1.2433571   -3.2446275   -1.7033089  0.089818016   -3.2446275    1.5413187   531274 
 6175000     1.244342   -3.2454015    -1.702978    0.0915569   -3.2454015    1.5424235   531314 
 6176000    1.2436941   -3.2448843   -1.7033335  0.088440759   -3.2448843    1.5415508   531338 
 6177000    1.2447111    -3.246362   -1.7035797  0.088670428    -3.246362    1.5427823   531348 
 6178000    1.2430577   -3.2441504   -1.7035247  0.086565459   -3.2441504    1.5406257   531385 
 6179000    1.2430103   -3.2437725   -1.7032868   0.09037296   -3.2437725    1.5404858   531413 
 6180000    1.2447979   -3.2458076   -1.7031878  0.088586025   -3.2458076    1.5426198   531441 
 6181000    1.2448338    -3.245211   -1.7025438    0.0896952    -3.245211    1.5426672   531440 
 6182000    1.2451469   -3.2453072    -1.702339  0.092759038   -3.2453072    1.5429682   531470 
 6183000     1.245846   -3.2461201   -1.7023408  0.089847152   -3.2461201    1.5437794   531489 
 6184000    1.2454667   -3.2451138   -1.7017842  0.090411834   -3.2451138    1.5433296   531482 
 6185000    1.2451822   -3.2464387    -1.703537  0.094748666   -3.2464387    1.5429016   531508 
 6186000    1.2441487   -3.2447044   -1.7030922  0.092091586   -3.2447044    1.5416123   531511 
 6187000    1.2445464   -3.2447924   -1.7027714  0.089849225   -3.2447924    1.5420209   531540 
 6188000    1.2447833   -3.2451534   -1.7029261   0.09388106   -3.2451534    1.5422274   531570 
 6189000    1.2450911   -3.2457233   -1.7032045  0.088716918   -3.2457233    1.5425188   531601 
 6190000    1.2450443   -3.2453935   -1.7029298   0.10082514   -3.2453935    1.5424637   531600 
 6191000    1.2463461   -3.2473588   -1.7033491  0.090408067   -3.2473588    1.5440097   531623 
 6192000    1.2464705   -3.2490676   -1.7049561  0.087937531   -3.2490676    1.5441116   531641 
 6193000     1.245737   -3.2463857   -1.7033251  0.095190427   -3.2463857    1.5430607   531690 
 6194000    1.2470315   -3.2470329   -1.7024211  0.094762499   -3.2470329    1.5446118   531708 
 6195000      1.24605   -3.2467541   -1.7034247  0.092271485   -3.2467541    1.5433294   531731 
 6196000    1.2458608   -3.2479069   -1.7048497  0.089281415   -3.2479069    1.5430572   531744 
 6197000    1.2448261   -3.2474239   -1.7057872  0.090792864   -3.2474239    1.5416366   531792 
 6198000    1.2454338   -3.2487454   -1.7064491  0.089080151   -3.2487454    1.5422964   531824 
 6199000      1.24374   -3.2460639    -1.705949  0.097016049   -3.2460639    1.5401149   531853 
 6200000     1.244165   -3.2458802   -1.7052738   0.09100176   -3.2458802    1.5406064   531865 
 6201000    1.2439137   -3.2453741   -1.7051165  0.097710292   -3.2453741    1.5402576   531878 
 6202000    1.2448461   -3.2467099   -1.7053732  0.092808159   -3.2467099    1.5413368   531904 
 6203000    1.2439198   -3.2465758   -1.7063946  0.093063997   -3.2465758    1.5401812   531907 
 6204000    1.2455018   -3.2493931   -1.7072996  0.086736022   -3.2493931    1.5420935   531923 
 6205000    1.2443583   -3.2475932   -1.7069734  0.087521849   -3.2475932    1.5406199   531943 
 6206000    1.2459465   -3.2499866   -1.7074294  0.087466045   -3.2499866    1.5425572   531953 
 6207000     1.246002   -3.2490793   -1.7065173  0.092351301   -3.2490793     1.542562   531975 
 6208000    1.2443999   -3.2478696   -1.7072417  0.096295467   -3.2478696    1.5406279   531958 
 6209000    1.2443678   -3.2488116   -1.7081945  0.088859485   -3.2488116    1.5406171   531948 
 6210000    1.2447242   -3.2483968   -1.7073789  0.092997059   -3.2483968    1.5410178   531962 
 6211000    1.2448092   -3.2481583   -1.7070469  0.093958146   -3.2481583    1.5411114   531966 
 6212000    1.2445463   -3.2484471   -1.7076466   0.08733835   -3.2484471    1.5408004   531961 
 6213000    1.2430718   -3.2457303   -1.7067408  0.094140604   -3.2457303    1.5389895   531956 
 6214000    1.2443123   -3.2472614   -1.7067999   0.08804234   -3.2472614    1.5404615   531978 
 6215000    1.2446176    -3.246734   -1.7059582  0.093624032    -3.246734    1.5407758   532000 
 6216000    1.2440865   -3.2466848   -1.7066302  0.087462622   -3.2466848    1.5400546   532022 
 6217000    1.2453266   -3.2482641   -1.7067266  0.093422419   -3.2482641    1.5415375   532040 
 6218000    1.2437895   -3.2470558   -1.7075194  0.096242454   -3.2470558    1.5395364   532074 
 6219000    1.2447787   -3.2476297   -1.7069702  0.091204348   -3.2476297    1.5406595   532109 
 6220000    1.2464459   -3.2485925   -1.7059506  0.086846888   -3.2485925    1.5426419   532137 
 6221000    1.2459172   -3.2483549   -1.7064109  0.097263185   -3.2483549    1.5419441   532152 
 6222000    1.2461144   -3.2501034   -1.7079384   0.08420564   -3.2501034     1.542165   532160 
 6223000     1.245414   -3.2486341   -1.7074085  0.088705135   -3.2486341    1.5412257   532185 
 6224000    1.2457365   -3.2483871   -1.7067768   0.08450184   -3.2483871    1.5416103   532190 
 6225000    1.2466829   -3.2501631   -1.7074424  0.083766472   -3.2501631    1.5427206   532211 
 6226000    1.2452612   -3.2481733   -1.7072467  0.092337947   -3.2481733    1.5409266   532223 
 6227000    1.2464293   -3.2489795    -1.706677  0.085698725   -3.2489795    1.5423025   532247 
 6228000    1.2448149   -3.2470663   -1.7068599  0.092116588   -3.2470663    1.5402064   532281 
 6229000     1.245835   -3.2481025   -1.7066541   0.09040935   -3.2481025    1.5414483   532288 
 6230000    1.2447979   -3.2470451   -1.7069001  0.090829696   -3.2470451     1.540145   532295 
 6231000    1.2460623   -3.2486085   -1.7069456  0.084210996   -3.2486085    1.5416629   532311 
 6232000    1.2448985   -3.2465525   -1.7064394  0.093910828   -3.2465525    1.5401131   532349 
 6233000     1.244452   -3.2463639   -1.7069014  0.093197987   -3.2463639    1.5394625   532383 
 6234000    1.2458141   -3.2486684   -1.7075701  0.087195081   -3.2486684    1.5410983   532400 
 6235000    1.2459769   -3.2487752   -1.7075305  0.087192123   -3.2487752    1.5412447   532419 
 6236000    1.2451934   -3.2480347   -1.7078374  0.088370684   -3.2480347    1.5401974   532446 
 6237000    1.2452133   -3.2476466   -1.7074882  0.088598655   -3.2476466    1.5401584   532468 
 6238000    1.2464768   -3.2496301   -1.7079351  0.086354231   -3.2496301     1.541695   532477 
 6239000    1.2450972     -3.24814   -1.7081802  0.090143205     -3.24814    1.5399598   532487 
 6240000    1.2460728   -3.2484834   -1.7074241  0.089283089   -3.2484834    1.5410594   532524 
 6241000    1.2432144   -3.2452638    -1.707858  0.083738856   -3.2452638    1.5374058   532565 
 6242000    1.2464093    -3.248018   -1.7067799  0.090006119    -3.248018    1.5412381   532606 
 6243000    1.2451235   -3.2479884   -1.7084095  0.088361434   -3.2479884    1.5395789   532630 
 6244000    1.2451084   -3.2466884   -1.7071571  0.094166142   -3.2466884    1.5395313   532640 
 6245000    1.2455896   -3.2478557   -1.7077641  0.088512139   -3.2478557    1.5400916   532652 
 6246000    1.2445183    -3.246234   -1.7075247  0.093627538    -3.246234    1.5387093   532672 
 6247000    1.2442313    -3.246059   -1.7078461  0.092796888    -3.246059    1.5382129   532721 
 6248000     1.246367   -3.2482038   -1.7074374  0.082447342   -3.2482038    1.5407664   532751 
 6249000    1.2461311   -3.2478281   -1.7073533  0.090478506   -3.2478281    1.5404748   532751 
 6250000    1.2476075   -3.2471875   -1.7050236   0.09347292   -3.2471875    1.5421638   532798 
 6251000    1.2470935   -3.2470415   -1.7055419  0.094560913   -3.2470415    1.5414996   532808 
 6252000    1.2474245   -3.2470117   -1.7051522  0.093113209   -3.2470117    1.5418595   532825 
 6253000    1.2457369   -3.2451398   -1.7054269  0.086854605   -3.2451398    1.5397129   532846 
 6254000    1.2475245   -3.2483559   -1.7065262  0.085893451   -3.2483559    1.5418297   532878 
 6255000    1.2457234   -3.2463692   -1.7068202   0.09006564   -3.2463692    1.5395489   532897 
 6256000    1.2454147   -3.2471459   -1.7080709   0.09076058   -3.2471459     1.539075   532929 
 6257000    1.2455904   -3.2475466   -1.7082632  0.084759132   -3.2475466    1.5392834   532932 
 6258000    1.2450414   -3.2471625   -1.7085719  0.093693146   -3.2471625    1.5385906   532937 
 6259000    1.2464077   -3.2494163   -1.7091633   0.09294981   -3.2494163     1.540253   532946 
 6260000    1.2457981   -3.2489227    -1.709501  0.087125595   -3.2489227    1.5394217   532973 
 6261000     1.244994   -3.2491887   -1.7108098  0.088395708   -3.2491887    1.5383789   532990 
 6262000    1.2472279   -3.2504554   -1.7093855  0.086854109   -3.2504554    1.5410699   533014 
 6263000    1.2454262   -3.2490891   -1.7102223  0.086064602   -3.2490891    1.5388668   533006 
 6264000    1.2471089   -3.2500375   -1.7091927   0.08984168   -3.2500375    1.5408448   533041 
 6265000    1.2452266   -3.2475217   -1.7091757  0.092594228   -3.2475217     1.538346   533101 
 6266000    1.2449679   -3.2469643   -1.7089755  0.093393936   -3.2469643    1.5379889   533114 
 6267000    1.2462949   -3.2480448   -1.7084051  0.094665936   -3.2480448    1.5396397   533110 
 6268000    1.2479276   -3.2507956   -1.7091447  0.089908027   -3.2507956     1.541651   533112 
 6269000    1.2476249   -3.2508123   -1.7095614  0.086794096   -3.2508123     1.541251   533121 
 6270000    1.2469158   -3.2504591   -1.7101881  0.085241036   -3.2504591     1.540271   533157 
 6271000    1.2478783   -3.2513987   -1.7100312  0.092835466   -3.2513987    1.5413675   533189 
 6272000    1.2461682   -3.2487607   -1.7095748  0.085091953   -3.2487607    1.5391859   533213 
 6273000    1.2461563   -3.2491105   -1.7100057  0.087635065   -3.2491105    1.5391048   533236 
 6274000    1.2478493   -3.2506966   -1.7096136  0.086651458   -3.2506966     1.541083   533275 
 6275000    1.2451203   -3.2480172   -1.7102842  0.090260297   -3.2480172    1.5377329   533268 
 6276000    1.2476222   -3.2512663    -1.710559  0.085013423   -3.2512663    1.5407073   533308 
 6277000    1.2462984   -3.2489498    -1.709938  0.094752814   -3.2489498    1.5390119   533329 
 6278000    1.2476119   -3.2498316   -1.7092526  0.089568586   -3.2498316     1.540579   533348 
 6279000    1.2489694   -3.2512997   -1.7091283  0.094227715   -3.2512997    1.5421714   533377 
 6280000    1.2482759   -3.2502479   -1.7089761  0.089902612   -3.2502479    1.5412718   533392 
 6281000    1.2485301   -3.2510744    -1.709535  0.096069861   -3.2510744    1.5415394   533408 
 6282000    1.2468263   -3.2502354   -1.7108372  0.092031777   -3.2502354    1.5393982   533421 
 6283000    1.2475662   -3.2505723    -1.710301   0.08524189   -3.2505723    1.5402713   533435 
 6284000    1.2484454   -3.2526598   -1.7113694  0.084287726   -3.2526598    1.5412903   533458 
 6285000    1.2472576   -3.2513227   -1.7116547  0.094327275   -3.2513227    1.5396681   533512 
 6286000    1.2468532    -3.251401   -1.7123534  0.091148575    -3.251401    1.5390477   533554 
 6287000    1.2478291   -3.2520661   -1.7119178  0.091910801   -3.2520661    1.5401483   533590 
 6288000    1.2471991   -3.2511757   -1.7118886  0.088901498   -3.2511757    1.5392871   533619 
 6289000    1.2493104   -3.2530821   -1.7112817  0.090009619   -3.2530821    1.5418004   533651 
 6290000    1.2472748   -3.2509604   -1.7116924  0.091413796   -3.2509604     1.539268   533658 
 6291000     1.248651    -3.252247   -1.7113729  0.089245846    -3.252247     1.540874   533690 
 6292000    1.2480183   -3.2522191    -1.712172  0.089747881   -3.2522191     1.540047   533706 
 6293000    1.2466675   -3.2504159   -1.7120789  0.094854095   -3.2504159     1.538337   533721 
 6294000    1.2471394   -3.2522373   -1.7133814  0.087138366   -3.2522373    1.5388559   533743 
 6295000    1.2478371   -3.2518737   -1.7122204  0.089103707   -3.2518737    1.5396533   533765 
 6296000    1.2482417   -3.2529358   -1.7129073  0.088468797   -3.2529358    1.5400284   533808 
 6297000    1.2488229   -3.2540394   -1.7134007  0.083910833   -3.2540394    1.5406387   533845 
 6298000      1.24688   -3.2519165   -1.7136401  0.090853779   -3.2519165    1.5382764   533833 
 6299000    1.2468874   -3.2524238   -1.7141672  0.084665667   -3.2524238    1.5382567   533843 
 6300000     1.248303   -3.2530587    -1.713145  0.087252055   -3.2530587    1.5399137   533874 
 6301000    1.2493706   -3.2539882   -1.7129077  0.088010104   -3.2539882    1.5410805   533926 
 6302000    1.2497797    -3.254035   -1.7125133  0.099908856    -3.254035    1.5415217   533948 
 6303000    1.2481999   -3.2535199   -1.7139785  0.088735103   -3.2535199    1.5395413   533959 
 6304000      1.24894   -3.2534031   -1.7129922  0.083462941   -3.2534031    1.5404109   533974 
 6305000    1.2490821    -3.253173   -1.7126416  0.091977199    -3.253173    1.5405314   533993 
 6306000     1.250401    -3.254366   -1.7121964    0.0928738    -3.254366    1.5421696   533989 
 6307000    1.2501145   -3.2537382   -1.7119595  0.091809106   -3.2537382    1.5417787   534002 
 6308000     1.249728   -3.2522675   -1.7110751  0.093685333   -3.2522675    1.5411923   534040 
 6309000    1.2496346   -3.2527657   -1.7117607   0.09152856   -3.2527657     1.541005   534065 
 6310000    1.2500385   -3.2537367    -1.712248  0.091275515   -3.2537367    1.5414887   534070 
 6311000     1.249544   -3.2532956   -1.7125004  0.091721842   -3.2532956    1.5407952   534099 
 6312000    1.2492617   -3.2540238   -1.7136603  0.092194566   -3.2540238    1.5403634   534128 
 6313000    1.2500778   -3.2542576   -1.7129744  0.090303423   -3.2542576    1.5412832   534158 
 6314000    1.2502621   -3.2542109   -1.7127842  0.097991477   -3.2542109    1.5414267   534187 
 6315000    1.2506954   -3.2546863   -1.7127831  0.090302107   -3.2546863    1.5419032   534207 
 6316000    1.2506587   -3.2542361   -1.7124301  0.088304447   -3.2542361     1.541806   534225 
 6317000    1.2489105   -3.2531125   -1.7134934  0.096036164   -3.2531125    1.5396191   534236 
 6318000    1.2491398    -3.253765   -1.7139554  0.084726435    -3.253765    1.5398096   534268 
 6319000    1.2492245   -3.2542581   -1.7143499  0.086591284   -3.2542581    1.5399082   534270 
 6320000    1.2487535    -3.251292    -1.712022   0.10061939    -3.251292      1.53927   534290 
 6321000    1.2490804   -3.2529386   -1.7133579  0.091220017   -3.2529386    1.5395807   534322 
 6322000       1.2481   -3.2525401   -1.7142138  0.083651086   -3.2525401    1.5383262   534338 
 6323000    1.2479313   -3.2513973   -1.7132933  0.088525815   -3.2513973     1.538104   534343 
 6324000    1.2483671   -3.2526851   -1.7140757  0.089254504   -3.2526851    1.5386094   534354 
 6325000    1.2481156   -3.2523683    -1.714089   0.08921699   -3.2523683    1.5382793   534361 
 6326000    1.2487085   -3.2524962   -1.7135495  0.092385636   -3.2524962    1.5389467   534383 
 6327000    1.2483073   -3.2511217   -1.7127645  0.088899001   -3.2511217    1.5383572   534416 
 6328000    1.2489508   -3.2528648   -1.7137491  0.089576112   -3.2528648    1.5391157   534428 
 6329000    1.2492295   -3.2522863   -1.7128531  0.087281611   -3.2522863    1.5394332   534437 
 6330000     1.249834   -3.2531077   -1.7129728  0.095216115   -3.2531077    1.5401349   534452 
 6331000    1.2490808   -3.2515507   -1.7123757  0.092666261   -3.2515507    1.5391751   534463 
 6332000    1.2499745   -3.2520852   -1.7118752  0.086193651   -3.2520852      1.54021   534486 
 6333000    1.2497552   -3.2518858    -1.711992  0.090486159   -3.2518858    1.5398938   534502 
 6334000    1.2492969   -3.2523799   -1.7130913  0.089102304   -3.2523799    1.5392887   534516 
 6335000    1.2499028   -3.2537124   -1.7136166  0.085101397   -3.2537124    1.5400957   534495 
 6336000    1.2490102   -3.2520591   -1.7131179    0.0871052   -3.2520591    1.5389412   534514 
 6337000    1.2495431   -3.2517425   -1.7121792  0.097162477   -3.2517425    1.5395633   534526 
 6338000    1.2494881   -3.2526153   -1.7131831  0.084165136   -3.2526153    1.5394322   534548 
 6339000    1.2506708   -3.2531618   -1.7123013  0.092297856   -3.2531618    1.5408605   534558 
 6340000    1.2505288   -3.2536269   -1.7129558  0.093302409   -3.2536269    1.5406711   534563 
 6341000    1.2482058   -3.2509644   -1.7131984  0.086513725   -3.2509644     1.537766   534578 
 6342000    1.2492131   -3.2529317   -1.7139651  0.087337658   -3.2529317    1.5389666   534592 
 6343000    1.2493777   -3.2533851   -1.7142445  0.089240093   -3.2533851    1.5391406   534602 
 6344000     1.249985   -3.2552899   -1.7154185  0.086596443   -3.2552899    1.5398715   534608 
 6345000    1.2476347   -3.2535497   -1.7165936  0.091991017   -3.2535497    1.5369561   534615 
 6346000    1.2477027   -3.2537604   -1.7167407  0.085411099   -3.2537604    1.5370196   534622 
 6347000    1.2481021   -3.2535842   -1.7161444  0.090192756   -3.2535842    1.5374398   534647 
 6348000    1.2491679   -3.2536603   -1.7150372  0.086474629   -3.2536603    1.5386231   534692 
 6349000    1.2492691   -3.2535408   -1.7148132  0.091620647   -3.2535408    1.5387277   534699 
 6350000    1.2503965   -3.2547877   -1.7147837  0.083765636   -3.2547877     1.540004   534738 
 6351000    1.2490899   -3.2540458   -1.7157518  0.089496485   -3.2540458     1.538294   534773 
 6352000    1.2497401   -3.2545653   -1.7155022  0.089244074   -3.2545653    1.5390631   534784 
 6353000    1.2511267   -3.2546492    -1.713916  0.084484933   -3.2546492    1.5407333   534797 
 6354000     1.249372    -3.253075   -1.7145631  0.092570437    -3.253075    1.5385119   534818 
 6355000    1.2489777    -3.253915   -1.7159058  0.086042071    -3.253915    1.5380092   534824 
 6356000    1.2478739   -3.2531408   -1.7166489  0.088842271   -3.2531408     1.536492   534879 
 6357000    1.2489375   -3.2541543   -1.7163556  0.089856873   -3.2541543    1.5377987   534880 
 6358000    1.2480411   -3.2539776     -1.71732  0.080615406   -3.2539776    1.5366576   534893 
 6359000    1.2469502    -3.253309   -1.7180347  0.083623184    -3.253309    1.5352743   534907 
 6360000    1.2483359   -3.2529769   -1.7160281  0.090929627   -3.2529769    1.5369488   534918 
 6361000    1.2498112    -3.254418   -1.7157133  0.087364195    -3.254418    1.5387047   534939 
 6362000    1.2492744   -3.2537573    -1.715794  0.089227509   -3.2537573    1.5379633   534967 
 6363000    1.2489747   -3.2543528   -1.7168475  0.089887328   -3.2543528    1.5375053   534998 
 6364000    1.2483899   -3.2534972   -1.7168123  0.084772661   -3.2534972    1.5366848   535033 
 6365000    1.2485568   -3.2536614   -1.7169176  0.086749292   -3.2536614    1.5367439   535084 
 6366000    1.2505155   -3.2545259   -1.7154202  0.082333013   -3.2545259    1.5391057   535101 
 6367000    1.2490794   -3.2542876   -1.7170011  0.079573631   -3.2542876    1.5372865   535119 
 6368000    1.2493205   -3.2538872   -1.7163327  0.090378011   -3.2538872    1.5375545   535129 
 6369000    1.2499263   -3.2556685   -1.7174461  0.088623942   -3.2556685    1.5382224   535156 
 6370000    1.2479537   -3.2532324   -1.7175207  0.085641684   -3.2532324    1.5357117   535185 
 6371000    1.2487459   -3.2531792   -1.7165472   0.09268249   -3.2531792     1.536632   535204 
 6372000    1.2507047    -3.255599    -1.716594  0.093560087    -3.255599     1.539005   535217 
 6373000    1.2493777   -3.2547556   -1.7174065   0.08645486   -3.2547556    1.5373491   535225 
 6374000    1.2512798   -3.2574629   -1.7177907  0.091396677   -3.2574629    1.5396723   535231 
 6375000    1.2482454   -3.2531498    -1.717303  0.091803535   -3.2531498    1.5358468   535263 
 6376000    1.2511255    -3.256904   -1.7175682  0.083901012    -3.256904    1.5393358   535282 
 6377000     1.250146   -3.2556863   -1.7176562  0.093758652   -3.2556863    1.5380301   535317 
 6378000    1.2503154   -3.2550104   -1.7168322   0.09342808   -3.2550104    1.5381782   535338 
 6379000    1.2515202   -3.2562702   -1.7166358  0.089161128   -3.2562702    1.5396344   535347 
 6380000    1.2498573   -3.2545284   -1.7170201  0.090559135   -3.2545284    1.5375083   535375 
 6381000     1.250328   -3.2546985   -1.7166658  0.086210244   -3.2546985    1.5380327   535394 
 6382000    1.2515691   -3.2565413   -1.7170797  0.086673232   -3.2565413    1.5394617   535428 
 6383000    1.2529382   -3.2591845   -1.7180532  0.085739061   -3.2591845    1.5411313   535433 
 6384000    1.2511858   -3.2567422    -1.717841  0.088505715   -3.2567422    1.5389011   535459 
 6385000    1.2497321   -3.2557469   -1.7187141  0.095461258   -3.2557469    1.5370327   535487 
 6386000    1.2514896   -3.2575379   -1.7183637  0.084974497   -3.2575379    1.5391742   535494 
 6387000    1.2509091   -3.2570699   -1.7186039  0.086055819   -3.2570699     1.538466   535492 
 6388000    1.2513238   -3.2567198     -1.71783  0.087174585   -3.2567198    1.5388898   535522 
 6389000    1.2513001   -3.2575045   -1.7186956  0.088695957   -3.2575045    1.5388089   535540 
 6390000    1.2495864   -3.2563409    -1.719714  0.089755852   -3.2563409    1.5366269   535566 
 6391000     1.250872    -3.256128   -1.7180782  0.085929216    -3.256128    1.5380498   535621 
 6392000    1.2515304   -3.2578259   -1.7190469  0.088246203   -3.2578259     1.538779   535649 
 6393000    1.2500653   -3.2564711   -1.7196141  0.087710035   -3.2564711     1.536857   535691 
 6394000    1.2516597   -3.2599173   -1.7211776  0.085813269   -3.2599173    1.5387397   535718 
 6395000    1.2524608   -3.2594788   -1.7198117  0.085889456   -3.2594788    1.5396671   535738 
 6396000    1.2525517   -3.2602377   -1.7205279  0.087721226   -3.2602377    1.5397098   535762 
 6397000     1.250746   -3.2585467   -1.7211024  0.089521826   -3.2585467    1.5374443   535778 
 6398000    1.2519233   -3.2595161   -1.7206907  0.091284935   -3.2595161    1.5388254   535801 
 6399000    1.2523886    -3.259018   -1.7196494   0.09107813    -3.259018    1.5393686   535811 
 6400000     1.251736   -3.2569236   -1.7184289  0.094923201   -3.2569236    1.5384947   535836 
 6401000    1.2523256   -3.2579829   -1.7188124  0.092597582   -3.2579829    1.5391705   535853 
 6402000    1.2526762   -3.2590663   -1.7194677  0.087651334   -3.2590663    1.5395986   535854 
 6403000     1.251347   -3.2574623   -1.7194946  0.089887671   -3.2574623    1.5379677   535853 
 6404000    1.2515582   -3.2579864   -1.7198309  0.092570294   -3.2579864    1.5381555   535878 
 6405000    1.2515057    -3.259168   -1.7211803  0.087498449    -3.259168    1.5379877   535914 
 6406000    1.2516533   -3.2592049   -1.7211391  0.088263108   -3.2592049    1.5380658   535950 
 6407000    1.2524409   -3.2594628   -1.7204723  0.083975481   -3.2594628    1.5389906   535965 
 6408000    1.2518961   -3.2587214    -1.720475  0.085444414   -3.2587214    1.5382464   535991 
 6409000     1.253409   -3.2593361    -1.719271  0.084707889   -3.2593361    1.5400651   536005 
 6410000    1.2504342   -3.2562401    -1.719936  0.084127078   -3.2562401     1.536304   536042 
 6411000    1.2522461    -3.257953   -1.7195031  0.081042513    -3.257953    1.5384498   536070 
 6412000    1.2524099   -3.2571408   -1.7184697  0.092504346   -3.2571408    1.5386711   536063 
 6413000    1.2508379   -3.2552797   -1.7185313  0.086427408   -3.2552797    1.5367484   536060 
 6414000    1.2539703   -3.2588269   -1.7183135  0.088888524   -3.2588269    1.5405134   536089 
 6415000    1.2539507   -3.2584359   -1.7180242  0.082226219   -3.2584359    1.5404117   536116 
 6416000    1.2538328   -3.2575895   -1.7173484  0.090204824   -3.2575895    1.5402411   536125 
 6417000    1.2547255   -3.2592545   -1.7179226  0.087075567   -3.2592545     1.541332   536127 
 6418000    1.2544447   -3.2595508   -1.7186357  0.083939846   -3.2595508    1.5409151   536152 
 6419000    1.2535497   -3.2577818   -1.7180896  0.093331287   -3.2577818    1.5396922   536195 
 6420000    1.2525007   -3.2569685   -1.7186449  0.092434828   -3.2569685    1.5383235   536223 
 6421000    1.2531684   -3.2581848   -1.7190614  0.092338648   -3.2581848    1.5391234   536230 
 6422000    1.2544504   -3.2605292   -1.7199202  0.086569823   -3.2605292     1.540609   536261 
 6423000    1.2548232   -3.2608142   -1.7198336  0.082405976   -3.2608142    1.5409806   536291 
 6424000    1.2521398   -3.2579678   -1.7203141  0.092160984   -3.2579678    1.5376537   536302 
 6425000    1.2531506   -3.2601429   -1.7213053  0.085369954   -3.2601429    1.5388376   536322 
 6426000    1.2536897    -3.260159   -1.7206795   0.08745015    -3.260159    1.5394795   536329 
 6427000    1.2524358   -3.2574869   -1.7196332  0.083997994   -3.2574869    1.5378537   536359 
 6428000    1.2542167   -3.2600774    -1.720077  0.085603541   -3.2600774    1.5400003   536373 
 6429000    1.2527595   -3.2587331   -1.7205764  0.081829792   -3.2587331    1.5381566   536392 
 6430000    1.2526168   -3.2581711   -1.7202929  0.089990082   -3.2581711    1.5378782   536428 
 6431000    1.2542181   -3.2599422   -1.7201785  0.088068988   -3.2599422    1.5397637   536456 
 6432000    1.2534203   -3.2584525   -1.7197313  0.088577547   -3.2584525    1.5387212   536478 
 6433000    1.2532907   -3.2589972   -1.7205154  0.086873328   -3.2589972    1.5384818   536506 
 6434000    1.2520456   -3.2590655   -1.7221695   0.08904451   -3.2590655    1.5368961   536526 
 6435000    1.2527082   -3.2605075   -1.7228239  0.089083347   -3.2605075    1.5376837   536535 
 6436000     1.251116    -3.258165   -1.7224615  0.091892931    -3.258165    1.5357034   536544 
 6437000    1.2535846   -3.2619556   -1.7233166  0.086765885   -3.2619556     1.538639   536577 
 6438000    1.2527872   -3.2603445   -1.7227874  0.091503006   -3.2603445    1.5375571   536613 
 6439000    1.2511968    -3.259254   -1.7237118  0.090836137    -3.259254    1.5355423   536635 
 6440000    1.2513123   -3.2592845   -1.7237178   0.08654261   -3.2592845    1.5355667   536676 
 6441000    1.2519094   -3.2588118   -1.7226498  0.087741694   -3.2588118     1.536162   536724 
 6442000    1.2532027   -3.2595645   -1.7218986  0.085888889   -3.2595645    1.5376659   536753 
 6443000    1.2529884   -3.2603436   -1.7229465  0.083668033   -3.2603436    1.5373972   536755 
 6444000    1.2530952   -3.2600168   -1.7224542  0.092716203   -3.2600168    1.5375626   536743 
 6445000    1.2505183   -3.2585791   -1.7242041  0.088921215   -3.2585791    1.5343749   536752 
 6446000    1.2534458   -3.2616563   -1.7237238   0.08371509   -3.2616563    1.5379326   536764 
 6447000    1.2532211   -3.2615822   -1.7240313  0.084017663   -3.2615822     1.537551   536801 
 6448000    1.2541445   -3.2617328   -1.7230948  0.091393245   -3.2617328     1.538638   536817 
 6449000    1.2511072   -3.2572281   -1.7223708  0.092135808   -3.2572281    1.5348573   536836 
 6450000    1.2527716   -3.2605895   -1.7237074  0.086059959   -3.2605895    1.5368821   536842 
 6451000    1.2529918   -3.2610581   -1.7239116  0.084662408   -3.2610581    1.5371465   536844 
 6452000    1.2528795   -3.2592817   -1.7223675  0.089953898   -3.2592817    1.5369142   536877 
 6453000    1.2535245   -3.2606149   -1.7230268  0.088891336   -3.2606149    1.5375881   536918 
 6454000    1.2530176   -3.2602105   -1.7232184  0.091742656   -3.2602105    1.5369921   536909 
 6455000    1.2546672   -3.2609589   -1.7219606  0.087526174   -3.2609589    1.5389983   536915 
 6456000    1.2559962   -3.2611723   -1.7205955   0.08750832   -3.2611723    1.5405769   536933 
 6457000    1.2542811   -3.2595472   -1.7210826  0.084336492   -3.2595472    1.5384645   536936 
 6458000    1.2531115   -3.2583015   -1.7213231  0.085808489   -3.2583015    1.5369784   536954 
 6459000    1.2540396    -3.259537   -1.7214919  0.088996067    -3.259537    1.5380451   536979 
 6460000    1.2541302   -3.2595822   -1.7214144  0.086042956   -3.2595822    1.5381677   536975 
 6461000    1.2535947   -3.2597645   -1.7223223  0.090979334   -3.2597645    1.5374422   536999 
 6462000    1.2536722   -3.2598713   -1.7223226  0.089497012   -3.2598713    1.5375488   536995 
 6463000    1.2538847   -3.2590748    -1.721294  0.089307016   -3.2590748    1.5377808   537005 
 6464000    1.2540648   -3.2587976   -1.7207587  0.087045996   -3.2587976    1.5380388   536992 
 6465000    1.2519334   -3.2583375   -1.7229956  0.086269909   -3.2583375    1.5353419   537021 
 6466000    1.2522002   -3.2581224   -1.7225391  0.085096917   -3.2581224    1.5355833   537051 
 6467000    1.2538542   -3.2585301   -1.7209615  0.084132137   -3.2585301    1.5375686   537066 
 6468000    1.2530367   -3.2589994   -1.7225305   0.07896196   -3.2589994    1.5364689   537100 
 6469000     1.254589   -3.2600023   -1.7216385  0.087110128   -3.2600023    1.5383638   537103 
 6470000    1.2521779   -3.2571781   -1.7218338  0.089865695   -3.2571781    1.5353443   537125 
 6471000    1.2527735   -3.2577746   -1.7217542  0.086576225   -3.2577746    1.5360203   537144 
 6472000    1.2534183   -3.2586373   -1.7218607  0.089140076   -3.2586373    1.5367766   537156 
 6473000    1.2528003   -3.2582924   -1.7223165  0.087907803   -3.2582924     1.535976   537171 
 6474000    1.2536851   -3.2601578   -1.7231055  0.088656218   -3.2601578    1.5370522   537174 
 6475000    1.2542953   -3.2601842   -1.7224898  0.087840306   -3.2601842    1.5376944   537211 
 6476000    1.2535377   -3.2596839   -1.7229011  0.090389758   -3.2596839    1.5367827   537205 
 6477000    1.2543928   -3.2611061   -1.7232693  0.085432944   -3.2611061    1.5378369   537203 
 6478000     1.254075   -3.2615865   -1.7241021  0.086116285   -3.2615865    1.5374844   537190 
 6479000    1.2527962   -3.2604811   -1.7245845  0.083811896   -3.2604811    1.5358966   537197 
 6480000    1.2531474   -3.2608728      -1.7246  0.085015491   -3.2608728    1.5362729   537216 
 6481000    1.2528874   -3.2608026     -1.72494  0.088850511   -3.2608026    1.5358626   537248 
 6482000    1.2559894   -3.2644268   -1.7247787  0.086516051   -3.2644268    1.5396481   537254 
 6483000    1.2553411   -3.2634369   -1.7246294  0.086143298   -3.2634369    1.5388075   537270 
 6484000    1.2552025   -3.2630942   -1.7245139  0.090940817   -3.2630942    1.5385803   537290 
 6485000     1.254195   -3.2611741   -1.7238832  0.089598531   -3.2611741    1.5372909   537309 
 6486000    1.2528647   -3.2613694   -1.7257833  0.095731075   -3.2613694    1.5355862   537335 
 6487000    1.2517688   -3.2594217   -1.7252359  0.091938848   -3.2594217    1.5341858   537355 
 6488000     1.256187   -3.2631198   -1.7235907  0.088718606   -3.2631198    1.5395292   537380 
 6489000    1.2567634    -3.263926   -1.7237448  0.087933375    -3.263926    1.5401812   537399 
 6490000    1.2552094   -3.2615398   -1.7233518  0.092644258   -3.2615398    1.5381879   537430 
 6491000    1.2562571    -3.263074    -1.723605   0.08733685    -3.263074     1.539469   537431 
 6492000    1.2575178    -3.264769   -1.7237895  0.085542978    -3.264769    1.5409795   537443 
 6493000    1.2575961   -3.2650256   -1.7240275  0.087723209   -3.2650256    1.5409981   537470 
 6494000     1.255892   -3.2625283   -1.7236384  0.093168567   -3.2625283    1.5388898   537477 
 6495000    1.2555888    -3.263474   -1.7249442   0.09037105    -3.263474    1.5385298   537473 
 6496000    1.2551767    -3.263009   -1.7250271  0.086636217    -3.263009     1.537982   537488 
 6497000    1.2548402   -3.2628816   -1.7253405   0.08809603   -3.2628816     1.537541   537498 
 6498000    1.2542911   -3.2617828    -1.724946  0.087249605   -3.2617828    1.5368368   537509 
 6499000      1.25575   -3.2637758    -1.725183  0.088211169   -3.2637758    1.5385928   537520 
 6500000    1.2553279   -3.2635213   -1.7254715  0.082042773   -3.2635213    1.5380498   537529 
 6501000    1.2546596   -3.2629569   -1.7258145  0.086493084   -3.2629569    1.5371424   537560 
 6502000    1.2547776   -3.2638592   -1.7266294  0.079921331   -3.2638592    1.5372298   537580 
 6503000    1.2541059   -3.2620947   -1.7257736  0.087470488   -3.2620947    1.5363211   537610 
 6504000    1.2539832   -3.2629221   -1.7267598   0.08184347   -3.2629221    1.5361623   537613 
 6505000    1.2550893   -3.2618779   -1.7244351  0.089194464   -3.2618779    1.5374429   537639 
 6506000    1.2557962   -3.2626448   -1.7243989  0.084601266   -3.2626448    1.5382459   537661 
 6507000    1.2549441   -3.2603479   -1.7231429  0.087470627   -3.2603479     1.537205   537660 
 6508000     1.255423   -3.2621848   -1.7244218  0.083943784   -3.2621848     1.537763   537670 
 6509000    1.2545198   -3.2607332    -1.724165  0.085312523   -3.2607332    1.5365681   537701 
 6510000    1.2526401   -3.2573455   -1.7231425   0.09683321   -3.2573455    1.5342031   537723 
 6511000    1.2555314   -3.2607453   -1.7230211  0.087951372   -3.2607453    1.5377242   537730 
 6512000    1.2562287   -3.2618705   -1.7233781  0.088197873   -3.2618705    1.5384924   537760 
 6513000    1.2567992   -3.2621604   -1.7230123  0.092954447   -3.2621604    1.5391481   537775 
 6514000    1.2560983   -3.2608247   -1.7226408  0.088236917   -3.2608247    1.5381839   537812 
 6515000    1.2552675   -3.2604302   -1.7233264    0.0886377   -3.2604302    1.5371037   537834 
 6516000    1.2546218    -3.260572   -1.7242733  0.088504566    -3.260572    1.5362987   537839 
 6517000    1.2555697   -3.2620035   -1.7245498  0.087777993   -3.2620035    1.5374538   537841 
 6518000     1.254995   -3.2606033   -1.7238875  0.086053402   -3.2606033    1.5367157   537853 
 6519000    1.2558597   -3.2612056   -1.7235369  0.089522397   -3.2612056    1.5376687   537890 
 6520000    1.2559097   -3.2608299   -1.7231514  0.088660654   -3.2608299    1.5376785   537908 
 6521000    1.2559233   -3.2621039   -1.7244431  0.094222769   -3.2621039    1.5376608   537920 
 6522000    1.2570853   -3.2629361   -1.7238813  0.078540296   -3.2629361    1.5390549   537930 
 6523000    1.2557027   -3.2624039    -1.725076   0.08351156   -3.2624039    1.5373279   537942 
 6524000    1.2544939   -3.2611678   -1.7253198  0.091683383   -3.2611678    1.5358479   537942 
 6525000    1.2549572   -3.2618469   -1.7255916  0.078809658   -3.2618469    1.5362552   537998 
 6526000    1.2558175   -3.2626948   -1.7254635  0.086896305   -3.2626948    1.5372313   538025 
 6527000    1.2554672   -3.2614846   -1.7247307  0.085146571   -3.2614846    1.5367539   538042 
 6528000    1.2556118   -3.2625213   -1.7256618  0.081872247   -3.2625213    1.5368594   538067 
 6529000    1.2558629   -3.2631913   -1.7259988  0.083897874   -3.2631913    1.5371925   538058 
 6530000    1.2559096   -3.2621353   -1.7249542  0.085957033   -3.2621353    1.5371811   538082 
 6531000    1.2565482   -3.2630314   -1.7251601  0.084475044   -3.2630314    1.5378713   538114 
 6532000    1.2565895   -3.2622671   -1.7244081  0.090891648   -3.2622671     1.537859   538136 
 6533000    1.2559149   -3.2617769   -1.7247578  0.088380581   -3.2617769    1.5370191   538141 
 6534000    1.2573336   -3.2630563   -1.7243353  0.089112018   -3.2630563     1.538721   538153 
 6535000    1.2567804   -3.2622933   -1.7243064  0.085125282   -3.2622933    1.5379869   538173 
 6536000    1.2565152   -3.2621326   -1.7245817  0.080325016   -3.2621326    1.5375509   538212 
 6537000    1.2567761   -3.2617639    -1.723928  0.083658415   -3.2617639    1.5378359   538224 
 6538000    1.2555625   -3.2610409   -1.7247357  0.086276152   -3.2610409    1.5363052   538240 
 6539000    1.2559455   -3.2608892   -1.7242152  0.087313699   -3.2608892     1.536674   538275 
 6540000    1.2579001   -3.2627995   -1.7237684  0.086283699   -3.2627995    1.5390311   538287 
 6541000    1.2576675   -3.2610826   -1.7224161  0.091257502   -3.2610826    1.5386664   538315 
 6542000    1.2566094   -3.2605672   -1.7232666  0.085849018   -3.2605672    1.5373006   538340 
 6543000    1.2576915   -3.2622598   -1.7236869  0.086182366   -3.2622598    1.5385729   538358 
 6544000    1.2578248   -3.2629705   -1.7242888  0.091075918   -3.2629705    1.5386817   538377 
 6545000    1.2573731    -3.262736   -1.7246183  0.091416402    -3.262736    1.5381177   538381 
 6546000    1.2572101   -3.2630652   -1.7252125  0.088219011   -3.2630652    1.5378526   538404 
 6547000    1.2567793   -3.2621871   -1.7249328  0.089279615   -3.2621871    1.5372543   538429 
 6548000    1.2572086   -3.2633205   -1.7255868  0.082585161   -3.2633205    1.5377337   538445 
 6549000    1.2573658   -3.2647063   -1.7267974  0.084107284   -3.2647063    1.5379088   538451 
 6550000    1.2577196   -3.2645603   -1.7262702  0.088542541   -3.2645603    1.5382901   538469 
 6551000     1.256777   -3.2631081   -1.7259966  0.086774552   -3.2631081    1.5371115   538478 
 6552000    1.2583771   -3.2648934   -1.7258619    0.0830433   -3.2648934    1.5390315   538491 
 6553000    1.2573444   -3.2648734    -1.727105  0.083852962   -3.2648734    1.5377684   538491 
 6554000     1.256625   -3.2644494   -1.7276008   0.08654384   -3.2644494    1.5368486   538505 
 6555000    1.2569941   -3.2650426   -1.7278396  0.087015118   -3.2650426    1.5372029   538539 
 6556000    1.2571685   -3.2646231   -1.7272953  0.086565201   -3.2646231    1.5373278   538570 
 6557000    1.2560074   -3.2640902    -1.728265  0.086709369   -3.2640902    1.5358252   538599 
 6558000    1.2575265   -3.2647447   -1.7271048  0.096494421   -3.2647447    1.5376399   538614 
 6559000    1.2578065    -3.265068   -1.7271085  0.084533501    -3.265068    1.5379595   538622 
 6560000     1.258414    -3.266129   -1.7274696  0.086421401    -3.266129    1.5386594   538637 
 6561000    1.2554947   -3.2642688   -1.7292358  0.090498114   -3.2642688     1.535033   538657 
 6562000    1.2570801    -3.264639   -1.7277731  0.087743297    -3.264639    1.5368658   538694 
 6563000    1.2574843   -3.2653109   -1.7280194  0.090220264   -3.2653109    1.5372915   538718 
 6564000    1.2582346   -3.2653498   -1.7271896  0.086396856   -3.2653498    1.5381601   538735 
 6565000    1.2570206   -3.2652464   -1.7285988  0.089532828   -3.2652464    1.5366476   538745 
 6566000    1.2582136   -3.2659336   -1.7278305  0.085450355   -3.2659336    1.5381031   538746 
 6567000    1.2561295   -3.2642388   -1.7287546  0.084697244   -3.2642388    1.5354842   538771 
 6568000    1.2568064   -3.2639572   -1.7276399  0.087840492   -3.2639572    1.5363173   538769 
 6569000    1.2591308   -3.2657298    -1.726577  0.091539798   -3.2657298    1.5391529   538771 
 6570000     1.258541   -3.2648607   -1.7265086  0.090013545   -3.2648607     1.538352   538799 
 6571000    1.2586359   -3.2645894   -1.7261557  0.089382477   -3.2645894    1.5384337   538811 
 6572000    1.2581931   -3.2653058   -1.7274362  0.088229815   -3.2653058    1.5378697   538819 
 6573000    1.2564318   -3.2638977   -1.7281865  0.087879955   -3.2638977    1.5357112   538821 
 6574000    1.2572852    -3.265796   -1.7290532  0.082322243    -3.265796    1.5367429   538825 
 6575000    1.2566995   -3.2639904   -1.7280605  0.088947324   -3.2639904      1.53593   538859 
 6576000    1.2576999    -3.265268    -1.728161  0.085166269    -3.265268    1.5371071   538875 
 6577000    1.2582489    -3.266075   -1.7283055  0.085063996    -3.266075    1.5377695   538878 
 6578000    1.2585605   -3.2669813   -1.7288567  0.081785376   -3.2669813    1.5381246   538887 
 6579000    1.2575344   -3.2659672   -1.7290967  0.084930585   -3.2659672    1.5368705   538887 
 6580000    1.2567687   -3.2639116   -1.7279997   0.09368132   -3.2639116     1.535912   538895 
 6581000    1.2590574   -3.2667643   -1.7281009  0.083345474   -3.2667643    1.5386634   538911 
 6582000    1.2565404   -3.2638121   -1.7282988  0.088162006   -3.2638121    1.5355133   538937 
 6583000      1.25675   -3.2635264   -1.7278339   0.08663814   -3.2635264    1.5356925   538964 
 6584000    1.2583738   -3.2637028   -1.7260888  0.089683138   -3.2637028    1.5376139   538986 
 6585000    1.2591613   -3.2651577   -1.7266614  0.085970357   -3.2651577    1.5384963   539014 
 6586000    1.2579598    -3.262809   -1.7257979  0.088515433    -3.262809    1.5370111   539020 
 6587000    1.2585466   -3.2635575    -1.725858   0.08621705   -3.2635575    1.5376996   539030 
 6588000    1.2582717   -3.2642544   -1.7269535  0.084781472   -3.2642544    1.5373009   539052 
 6589000     1.258998   -3.2663273   -1.7282503  0.089516315   -3.2663273     1.538077   539091 
 6590000    1.2584906    -3.265919   -1.7285531  0.085256784    -3.265919    1.5373659   539123 
 6591000    1.2590162   -3.2658396   -1.7278943  0.084373591   -3.2658396    1.5379453   539145 
 6592000    1.2588472   -3.2672256   -1.7295125   0.08827159   -3.2672256    1.5377131   539154 
 6593000    1.2593322    -3.267125   -1.7288993  0.089172384    -3.267125    1.5382257   539182 
 6594000    1.2582368   -3.2658288   -1.7289982   0.08855718   -3.2658288    1.5368307   539202 
 6595000    1.2574891   -3.2648134   -1.7289502  0.087276516   -3.2648134    1.5358633   539221 
 6596000    1.2574836   -3.2655762    -1.729751  0.084157142   -3.2655762    1.5358252   539232 
 6597000    1.2565824   -3.2638106   -1.7291173   0.08375412   -3.2638106    1.5346933   539243 
 6598000    1.2579472    -3.265672   -1.7294002   0.08940984    -3.265672    1.5362718   539274 
 6599000    1.2582076    -3.265143   -1.7285816  0.086026248    -3.265143    1.5365614   539284 
 6600000    1.2576353   -3.2649944   -1.7291975  0.084187351   -3.2649944    1.5357969   539307 
 6601000    1.2573917   -3.2640924   -1.7286841  0.088511275   -3.2640924    1.5354083   539339 
 6602000    1.2577448   -3.2653109   -1.7294999  0.083241297   -3.2653109     1.535811   539349 
 6603000    1.2576593   -3.2645974   -1.7289449  0.087285397   -3.2645974    1.5356525   539368 
 6604000    1.2589549   -3.2658674   -1.7286499  0.088580971   -3.2658674    1.5372174   539374 
 6605000    1.2576458   -3.2640613   -1.7284992  0.078122451   -3.2640613    1.5355621   539394 
 6606000    1.2587097   -3.2654297   -1.7286542   0.09287467   -3.2654297    1.5367755   539424 
 6607000    1.2605256   -3.2668522   -1.7279253  0.087075418   -3.2668522     1.538927   539447 
 6608000    1.2592085   -3.2654617   -1.7281598  0.088297119   -3.2654617    1.5373019   539453 
 6609000    1.2585447   -3.2649579   -1.7284949   0.08990659   -3.2649579     1.536463   539463 
 6610000    1.2597953   -3.2662442   -1.7283627  0.086720148   -3.2662442    1.5378815   539501 
 6611000    1.2595566    -3.266594   -1.7289896  0.088253677    -3.266594    1.5376043   539496 
 6612000    1.2575633   -3.2642788    -1.729233  0.086194786   -3.2642788    1.5350458   539540 
 6613000    1.2606537   -3.2671275   -1.7283465  0.077003501   -3.2671275     1.538781   539553 
 6614000    1.2586899   -3.2657397   -1.7293927  0.082903792   -3.2657397    1.5363469   539566 
 6615000    1.2579441    -3.265043   -1.7296263  0.085342944    -3.265043    1.5354167   539573 
 6616000    1.2579988   -3.2655732   -1.7301353  0.083361643   -3.2655732    1.5354379   539589 
 6617000    1.2587475   -3.2658625   -1.7295877  0.090686669   -3.2658625    1.5362749   539616 
 6618000    1.2584887    -3.265541   -1.7296048  0.081576383    -3.265541    1.5359363   539624 
 6619000    1.2599286   -3.2671941   -1.7295006  0.089966434   -3.2671941    1.5376936   539624 
 6620000    1.2575517   -3.2646871   -1.7299001  0.085354031   -3.2646871     1.534787   539626 
 6621000    1.2582715   -3.2658006   -1.7301266  0.085584557   -3.2658006     1.535674   539623 
 6622000    1.2605439   -3.2674274   -1.7291111  0.085910129   -3.2674274    1.5383163   539669 
 6623000     1.259858   -3.2668164   -1.7293257  0.087180834   -3.2668164    1.5374907   539665 
 6624000    1.2593325   -3.2658507   -1.7290042  0.095388314   -3.2658507    1.5368465   539666 
 6625000    1.2607234   -3.2682178   -1.7297281   0.08864613   -3.2682178    1.5384898   539685 
 6626000    1.2605441   -3.2686833   -1.7304324  0.082593059   -3.2686833    1.5382509   539692 
 6627000    1.2572533   -3.2657756   -1.7314722  0.087367784   -3.2657756    1.5343034   539668 
 6628000     1.258089   -3.2662878   -1.7310299  0.083542903   -3.2662878    1.5352579   539691 
 6629000    1.2596586   -3.2669197   -1.7298006  0.087429854   -3.2669197    1.5371191   539710 
 6630000    1.2601585    -3.268662   -1.7309529  0.084588516    -3.268662    1.5377092   539717 
 6631000    1.2588619   -3.2676555   -1.7316224  0.089681141   -3.2676555     1.536033   539750 
 6632000    1.2568702   -3.2670576   -1.7335172  0.084819815   -3.2670576    1.5335404   539772 
 6633000    1.2582371   -3.2678875   -1.7327078  0.082489327   -3.2678875    1.5351797   539782 
 6634000    1.2577979   -3.2679286   -1.7333274  0.087190819   -3.2679286    1.5346012   539797 
 6635000    1.2578754   -3.2680324    -1.733422  0.090879378   -3.2680324    1.5346104   539827 
 6636000    1.2603571   -3.2710031   -1.7333649  0.086910746   -3.2710031    1.5376382   539827 
 6637000    1.2572505   -3.2679824   -1.7341996  0.090310444   -3.2679824    1.5337827   539850 
 6638000    1.2579169   -3.2684796   -1.7338982  0.088660216   -3.2684796    1.5345815   539855 
 6639000    1.2597577   -3.2709213   -1.7341681  0.082050938   -3.2709213    1.5367531   539881 
 6640000    1.2579478   -3.2690139   -1.7345453  0.091793391   -3.2690139    1.5344686   539908 
 6641000    1.2601678   -3.2713598   -1.7342601  0.086702557   -3.2713598    1.5370996   539935 
 6642000    1.2608415   -3.2716027   -1.7337211   0.08769041   -3.2716027    1.5378816   539949 
 6643000    1.2587154   -3.2697974   -1.7346058  0.086332064   -3.2697974    1.5351917   539983 
 6644000    1.2597133    -3.270363   -1.7339884  0.088379804    -3.270363    1.5363746   539995 
 6645000    1.2617096   -3.2723719   -1.7336452  0.089928045   -3.2723719    1.5387267   540024 
 6646000    1.2595989   -3.2705111   -1.7344325  0.079026339   -3.2705111    1.5360786   540050 
 6647000    1.2605542   -3.2709724   -1.7337829  0.087094748   -3.2709724    1.5371895   540069 
 6648000    1.2595837   -3.2708335   -1.7348702  0.080463169   -3.2708335    1.5359633   540084 
 6649000    1.2589661   -3.2700504   -1.7348799   0.08938643   -3.2700504    1.5351705   540098 
 6650000    1.2599711   -3.2722448   -1.7358829  0.086673664   -3.2722448    1.5363619   540110 
 6651000    1.2603695      -3.2721   -1.7353009  0.078679935      -3.2721    1.5367992   540127 
 6652000    1.2613776   -3.2723206   -1.7343207  0.083945391   -3.2723206    1.5379999   540137 
 6653000    1.2595471   -3.2698283   -1.7341115  0.081645275   -3.2698283    1.5357168   540155 
 6654000    1.2618111   -3.2736597   -1.7352167  0.085359229   -3.2736597     1.538443   540167 
 6655000    1.2597677   -3.2724341   -1.7365762  0.086213528   -3.2724341    1.5358579   540200 
 6656000    1.2607512   -3.2725179   -1.7354951  0.087158832   -3.2725179    1.5370228   540212 
 6657000    1.2593179   -3.2702177   -1.7350049   0.08535619   -3.2702177    1.5352128   540234 
 6658000    1.2600825   -3.2711385   -1.7350475  0.085823987   -3.2711385     1.536091   540253 
 6659000    1.2614455   -3.2717493   -1.7340708  0.089299552   -3.2717493    1.5376785   540279 
 6660000    1.2588674   -3.2693393   -1.7348943   0.08681919   -3.2693393     1.534445   540311 
 6661000    1.2603222   -3.2695574   -1.7334444  0.080608376   -3.2695574     1.536113   540348 
 6662000    1.2601234   -3.2690886   -1.7332577  0.092055875   -3.2690886    1.5358309   540362 
 6663000    1.2611776   -3.2699413   -1.7329336  0.078412845   -3.2699413    1.5370077   540400 
 6664000    1.2596358   -3.2668709    -1.731799  0.086612523   -3.2668709    1.5350719   540420 
 6665000    1.2610833   -3.2691947   -1.7323644  0.088259574   -3.2691947    1.5368302   540422 
 6666000    1.2612365   -3.2679069   -1.7308956  0.085002119   -3.2679069    1.5370112   540424 
 6667000    1.2620541   -3.2703124   -1.7323731  0.088781406   -3.2703124    1.5379393   540448 
 6668000    1.2609629     -3.26918   -1.7325932  0.086764274     -3.26918    1.5365868   540456 
 6669000    1.2602482    -3.268349    -1.732707  0.090966294    -3.268349     1.535642   540482 
 6670000    1.2613492   -3.2690667   -1.7321514  0.082332786   -3.2690667    1.5369153   540506 
 6671000    1.2606802   -3.2684622   -1.7324132  0.085478476   -3.2684622     1.536049   540524 
 6672000    1.2621362   -3.2704262   -1.7326544  0.082334995   -3.2704262    1.5377718   540542 
 6673000    1.2587953   -3.2675739   -1.7339037  0.082626203   -3.2675739    1.5336702   540553 
 6674000    1.2589705   -3.2672436   -1.7334196  0.088809409   -3.2672436     1.533824   540574 
 6675000    1.2596665   -3.2679692   -1.7333313  0.083735687   -3.2679692    1.5346379   540586 
 6676000    1.2590525   -3.2672599   -1.7333388  0.084149564   -3.2672599    1.5339211   540575 
 6677000    1.2601957   -3.2681805   -1.7329263  0.085994001   -3.2681805    1.5352542   540596 
 6678000    1.2605818   -3.2682482   -1.7325776  0.084200404   -3.2682482    1.5356706   540615 
 6679000    1.2613849   -3.2693126   -1.7326409  0.084598385   -3.2693126    1.5366718   540607 
 6680000     1.259897   -3.2676034   -1.7327641  0.085485934   -3.2676034    1.5348393   540614 
 6681000    1.2611026   -3.2676523   -1.7313756   0.08434561   -3.2676523    1.5362766   540625 
 6682000    1.2613346    -3.268248    -1.731757  0.089063806    -3.268248     1.536491   540649 
 6683000    1.2619695   -3.2689663   -1.7317701  0.086251153   -3.2689663    1.5371962   540673 
 6684000    1.2615637   -3.2677513   -1.7311119  0.084539719   -3.2677513    1.5366394   540695 
 6685000    1.2616965   -3.2685463   -1.7317849  0.087090831   -3.2685463    1.5367614   540709 
 6686000    1.2626253   -3.2697635   -1.7319391  0.091253813   -3.2697635    1.5378244   540733 
 6687000    1.2627931   -3.2703639    -1.732338  0.086400198   -3.2703639    1.5380259   540734 
 6688000    1.2613891    -3.269286   -1.7330212  0.089912265    -3.269286    1.5362647   540752 
 6689000    1.2609365   -3.2694337   -1.7337088  0.085906864   -3.2694337    1.5357249   540748 
 6690000    1.2613659   -3.2693787   -1.7331507  0.082198202   -3.2693787     1.536228   540755 
 6691000    1.2620387   -3.2713252   -1.7342749   0.08803962   -3.2713252    1.5370503   540754 
 6692000    1.2622632   -3.2712881   -1.7339446  0.082549804   -3.2712881    1.5373436   540747 
 6693000    1.2621048   -3.2724435   -1.7353725  0.083302799   -3.2724435    1.5370711   540775 
 6694000    1.2624978   -3.2719243   -1.7343916  0.086434735   -3.2719243    1.5375326   540781 
 6695000    1.2622064   -3.2713504   -1.7342011   0.09030219   -3.2713504    1.5371493   540791 
 6696000    1.2621535   -3.2714009   -1.7343729  0.087186535   -3.2714009     1.537028   540811 
 6697000    1.2623648   -3.2708771   -1.7336429  0.088264785   -3.2708771    1.5372342   540829 
 6698000    1.2634785    -3.272473   -1.7339253  0.089925445    -3.272473    1.5385477   540844 
 6699000    1.2625712   -3.2716405   -1.7342488  0.088038986   -3.2716405    1.5373917   540862 
 6700000    1.2625369   -3.2710987   -1.7337827  0.088200381   -3.2710987    1.5373159   540874 
 6701000    1.2641682   -3.2736996   -1.7344287  0.084996407   -3.2736996    1.5392709   540885 
 6702000    1.2632525   -3.2726043   -1.7344569  0.087926597   -3.2726043    1.5381474   540888 
 6703000    1.2635539   -3.2720085   -1.7335026  0.091101487   -3.2720085    1.5385059   540891 
 6704000    1.2634087   -3.2730828    -1.734748  0.092878541   -3.2730828    1.5383347   540889 
 6705000    1.2638801   -3.2749829   -1.7360828   0.08883862   -3.2749829    1.5389002   540892 
 6706000    1.2616721   -3.2727587   -1.7365811  0.085794731   -3.2727587    1.5361777   540904 
 6707000      1.26222     -3.27237   -1.7355537  0.092023939     -3.27237    1.5368163   540914 
 6708000    1.2646434   -3.2751616   -1.7354232   0.08380233   -3.2751616    1.5397385   540924 
 6709000     1.263659   -3.2735567   -1.7350111  0.088776008   -3.2735567    1.5385456   540922 
 6710000    1.2614338   -3.2709987   -1.7351794  0.087628142   -3.2709987    1.5358194   540928 
 6711000    1.2629039    -3.272951   -1.7353873   0.08603106    -3.272951    1.5375637   540944 
 6712000     1.262035   -3.2736444   -1.7371726  0.087814198   -3.2736444    1.5364718   540956 
 6713000    1.2624074   -3.2732217   -1.7362937  0.086165228   -3.2732217     1.536928   540955 
 6714000    1.2612687   -3.2720623   -1.7366313  0.087300378   -3.2720623     1.535431   540994 
 6715000    1.2624163   -3.2721247   -1.7353392  0.086556546   -3.2721247    1.5367855   541009 
 6716000    1.2620055   -3.2723073   -1.7360845  0.081815604   -3.2723073    1.5362229   541031 
 6717000    1.2625935   -3.2725996   -1.7357205  0.090905043   -3.2725996     1.536879   541052 
 6718000     1.261526   -3.2717419   -1.7362305  0.090612009   -3.2717419    1.5355114   541076 
 6719000     1.263489   -3.2738662   -1.7360193  0.086619118   -3.2738662    1.5378468   541095 
 6720000    1.2635328   -3.2723561   -1.7345469  0.090936215   -3.2723561    1.5378092   541127 
 6721000    1.2636165   -3.2727859    -1.734926  0.096460476   -3.2727859    1.5378599   541145 
 6722000    1.2620604   -3.2708284   -1.7348596  0.089993629   -3.2708284    1.5359689   541144 
 6723000    1.2624194   -3.2712354   -1.7348778  0.085014515   -3.2712354    1.5363576   541161 
 6724000    1.2627756   -3.2731081   -1.7363766  0.087595432   -3.2731081    1.5367315   541182 
 6725000     1.262886   -3.2727625   -1.7359422  0.083384325   -3.2727625    1.5368203   541198 
 6726000    1.2625763    -3.271658   -1.7352515  0.087068492    -3.271658    1.5364066   541211 
 6727000    1.2627158   -3.2726346   -1.7360753  0.088744964   -3.2726346    1.5365593   541217 
 6728000     1.261557   -3.2711183   -1.7360373  0.086920522   -3.2711183     1.535081   541241 
 6729000    1.2628768   -3.2721008   -1.7354308   0.08810936   -3.2721008      1.53667   541247 
 6730000    1.2624961   -3.2711246   -1.7349263  0.085271059   -3.2711246    1.5361983   541250 
 6731000    1.2630297   -3.2723382   -1.7355191  0.084820209   -3.2723382    1.5368191   541260 
 6732000     1.260975   -3.2695751   -1.7352192   0.08875459   -3.2695751    1.5343559   541247 
 6733000    1.2631901   -3.2727703    -1.735739  0.084586495   -3.2727703    1.5370314   541254 
 6734000    1.2620291   -3.2713116   -1.7357071  0.082468741   -3.2713116    1.5356045   541259 
 6735000    1.2614348   -3.2706047   -1.7357772  0.083644175   -3.2706047    1.5348275   541278 
 6736000    1.2623931   -3.2715315   -1.7355805  0.079435016   -3.2715315     1.535951   541293 
 6737000    1.2628834   -3.2723574   -1.7358383  0.081849056   -3.2723574    1.5365191   541303 
 6738000    1.2627542   -3.2721231   -1.7358606   0.08782177   -3.2721231    1.5362625   541338 
 6739000    1.2627953   -3.2726826   -1.7363927  0.088603677   -3.2726826    1.5362899   541346 
 6740000    1.2617535   -3.2720816   -1.7371273  0.088626313   -3.2720816    1.5349544   541370 
 6741000    1.2620696   -3.2728774   -1.7375896  0.082572411   -3.2728774    1.5352878   541388 
 6742000    1.2613056   -3.2720093   -1.7376678   0.08725095   -3.2720093    1.5343415   541394 
 6743000    1.2606645   -3.2714277   -1.7379171  0.088882996   -3.2714277    1.5335106   541412 
 6744000    1.2617535   -3.2720599   -1.7372728   0.09300047   -3.2720599    1.5347871   541429 
 6745000    1.2627187   -3.2731927   -1.7372542  0.086111057   -3.2731927    1.5359384   541437 
 6746000     1.263194   -3.2716346   -1.7350783   0.08901597   -3.2716346    1.5365563   541423 
 6747000    1.2632907   -3.2710095   -1.7344065  0.083446982   -3.2710095     1.536603   541448 
 6748000    1.2639514   -3.2713469   -1.7339943  0.091725855   -3.2713469    1.5373527   541467 
 6749000    1.2632835   -3.2719331   -1.7353757  0.088203133   -3.2719331    1.5365574   541461 
 6750000    1.2645744   -3.2732783   -1.7351905  0.083692509   -3.2732783    1.5380878   541475 
 6751000    1.2644749   -3.2740579   -1.7361026  0.084867365   -3.2740579    1.5379553   541479 
 6752000    1.2647887   -3.2752419     -1.73701  0.084295419   -3.2752419    1.5382319   541516 
 6753000    1.2617805      -3.2715   -1.7369409  0.088038632      -3.2715    1.5345592   541521 
 6754000    1.2620324   -3.2720508    -1.737208  0.087100505   -3.2720508    1.5348428   541529 
 6755000    1.2636949   -3.2745044   -1.7376937  0.088521495   -3.2745044    1.5368108   541548 
 6756000    1.2623652   -3.2729718   -1.7378575  0.087523339   -3.2729718    1.5351143   541576 
 6757000    1.2642038   -3.2747834   -1.7374388   0.08555564   -3.2747834    1.5373446   541578 
 6758000    1.2617702   -3.2727433   -1.7384007  0.085555036   -3.2727433    1.5343426   541593 
 6759000    1.2618935   -3.2731395   -1.7387177   0.08267955   -3.2731395    1.5344217   541618 
 6760000    1.2638543   -3.2757373   -1.7389766  0.088187996   -3.2757373    1.5367607   541634 
 6761000    1.2633711   -3.2749167   -1.7388344  0.085271536   -3.2749167    1.5360823   541666 
 6762000    1.2637633   -3.2754471   -1.7389502  0.081334472   -3.2754471    1.5364968   541688 
 6763000    1.2651619   -3.2753323   -1.7371578  0.088254523   -3.2753323    1.5381745   541696 
 6764000    1.2639017    -3.273833    -1.737253  0.089381782    -3.273833      1.53658   541718 
 6765000    1.2652463   -3.2747646   -1.7365811  0.083084842   -3.2747646    1.5381835   541729 
 6766000     1.264751   -3.2759079   -1.7383608    0.0897106   -3.2759079    1.5375472   541741 
 6767000    1.2655264   -3.2767808   -1.7383647  0.091351102   -3.2767808    1.5384161   541767 
 6768000    1.2651113   -3.2758938   -1.7379881  0.088332538   -3.2758938    1.5379057   541769 
 6769000    1.2645137   -3.2746664   -1.7375127  0.091501703   -3.2746664    1.5371537   541778 
 6770000    1.2656935   -3.2762263   -1.7377009  0.091417327   -3.2762263    1.5385254   541800 
 6771000    1.2657167   -3.2750697   -1.7366041  0.084691639   -3.2750697    1.5384656   541831 
 6772000    1.2649384    -3.275144   -1.7376783  0.091046539    -3.275144    1.5374657   541850 
 6773000    1.2656561   -3.2773886    -1.739079  0.094726719   -3.2773886    1.5383096   541860 
 6774000    1.2656227   -3.2768777   -1.7386854  0.088367301   -3.2768777    1.5381923   541887 
 6775000    1.2640121   -3.2739787   -1.7377693  0.088478057   -3.2739787    1.5362094   541896 
 6776000     1.265369   -3.2771828   -1.7393527  0.084231451   -3.2771828    1.5378301   541906 
 6777000     1.264484   -3.2773952     -1.74072  0.084521185   -3.2773952    1.5366752   541934 
 6778000    1.2634924   -3.2755711   -1.7402766  0.085600022   -3.2755711    1.5352945   541996 
 6779000    1.2623502   -3.2741065   -1.7401914  0.090651416   -3.2741065    1.5339151   541993 
 6780000    1.2626145   -3.2749729   -1.7407763  0.088557896   -3.2749729    1.5341965   542007 
 6781000    1.2618161   -3.2754069   -1.7422286  0.088509886   -3.2754069    1.5331783   542024 
 6782000    1.2637725   -3.2775997    -1.742098  0.086681007   -3.2775997    1.5355017   542043 
 6783000    1.2624844   -3.2761398   -1.7422372   0.08377219   -3.2761398    1.5339027   542055 
 6784000    1.2631931   -3.2760682    -1.741378  0.085765573   -3.2760682    1.5346902   542081 
 6785000    1.2646043    -3.276444   -1.7400309  0.083620372    -3.276444    1.5364132   542078 
 6786000    1.2634958    -3.274949   -1.7399477   0.09275039    -3.274949    1.5350013   542101 
 6787000     1.262784   -3.2737248   -1.7396648  0.091200719   -3.2737248      1.53406   542128 
 6788000    1.2638062   -3.2751975   -1.7399041   0.08803025   -3.2751975    1.5352934   542131 
 6789000    1.2650159   -3.2761954   -1.7394976  0.082906487   -3.2761954    1.5366977   542154 
 6790000    1.2656243   -3.2771523   -1.7397156  0.088941202   -3.2771523    1.5374368   542154 
 6791000    1.2642001    -3.275931   -1.7403319  0.088430429    -3.275931    1.5355991   542192 
 6792000    1.2633298   -3.2758519   -1.7413806  0.086973923   -3.2758519    1.5344712   542217 
 6793000    1.2629171   -3.2756681   -1.7417407  0.086296487   -3.2756681    1.5339275   542232 
 6794000     1.265367   -3.2788424   -1.7420384  0.088381917   -3.2788424     1.536804   542267 
 6795000    1.2640882   -3.2771186   -1.7419895   0.08858897   -3.2771186    1.5351291   542310 
 6796000    1.2645705   -3.2768871   -1.7412487  0.085257697   -3.2768871    1.5356384   542337 
 6797000     1.264229   -3.2764704   -1.7412921  0.085829501   -3.2764704    1.5351783   542353 
 6798000    1.2640811   -3.2765899   -1.7416165  0.084712434   -3.2765899    1.5349733   542362 
 6799000     1.264817    -3.276976   -1.7411064  0.084406761    -3.276976    1.5358697   542361 
 6800000     1.265487    -3.276464   -1.7398459  0.087810466    -3.276464    1.5366181   542384 
 6801000    1.2639176   -3.2757642   -1.7411225  0.087227779   -3.2757642    1.5346417   542409 
 6802000    1.2653002   -3.2767089   -1.7404167  0.085571998   -3.2767089    1.5362922   542419 
 6803000    1.2638657   -3.2758984   -1.7414612  0.089645899   -3.2758984    1.5344372   542459 
 6804000    1.2640915   -3.2755606   -1.7409002  0.085046028   -3.2755606    1.5346605   542477 
 6805000    1.2654248    -3.277388   -1.7411371  0.086362754    -3.277388    1.5362509   542487 
 6806000    1.2655797   -3.2772966   -1.7408973  0.083164743   -3.2772966    1.5363993   542501 
 6807000    1.2654025   -3.2760615   -1.7399453  0.088124417   -3.2760615    1.5361162   542525 
 6808000    1.2673303    -3.278329   -1.7399378  0.081229116    -3.278329    1.5383912   542548 
 6809000     1.266491   -3.2773822    -1.740075   0.08844864   -3.2773822    1.5373072   542571 
 6810000    1.2665025   -3.2787411   -1.7414454  0.087791628   -3.2787411    1.5372957   542580 
 6811000    1.2660125   -3.2769993   -1.7403523  0.086087699   -3.2769993     1.536647   542599 
 6812000    1.2667422    -3.277538   -1.7400817   0.08150545    -3.277538    1.5374563   542626 
 6813000    1.2662736   -3.2755398   -1.7387061  0.092593985   -3.2755398    1.5368337   542645 
 6814000    1.2651281   -3.2751414   -1.7397404  0.088358481   -3.2751414     1.535401   542660 
 6815000    1.2656249    -3.275942   -1.7399778  0.091624235    -3.275942    1.5359643   542674 
 6816000    1.2649001   -3.2739349   -1.7388926  0.083155223   -3.2739349    1.5350423   542689 
 6817000    1.2649161   -3.2740515    -1.739035  0.084151368   -3.2740515    1.5350165   542705 
 6818000    1.2646559   -3.2736422   -1.7389755  0.087240987   -3.2736422    1.5346667   542717 
 6819000    1.2648946   -3.2748798   -1.7399602  0.084097837   -3.2748798    1.5349196   542730 
 6820000    1.2669498   -3.2763194   -1.7389681  0.085441802   -3.2763194    1.5373513   542752 
 6821000    1.2660758   -3.2752513   -1.7390314  0.084146231   -3.2752513    1.5362199   542777 
 6822000    1.2647517   -3.2741738   -1.7395605  0.082135764   -3.2741738    1.5346133   542777 
 6823000    1.2672304   -3.2770862   -1.7394767    0.0855638   -3.2770862    1.5376096   542781 
 6824000    1.2676236   -3.2767292   -1.7386963   0.08574938   -3.2767292    1.5380329   542800 
 6825000    1.2680007   -3.2775007   -1.7391322  0.081948108   -3.2775007    1.5383686   542843 
 6826000    1.2660667   -3.2752532   -1.7392367  0.091050271   -3.2752532    1.5360165   542845 
 6827000     1.265599   -3.2751725   -1.7397998  0.088840418   -3.2751725    1.5353727   542872 
 6828000    1.2668379   -3.2765716   -1.7397101  0.088248226   -3.2765716    1.5368616   542877 
 6829000    1.2666149   -3.2759083   -1.7394023  0.082788973   -3.2759083     1.536506   542907 
 6830000    1.2669648   -3.2772298   -1.7403814  0.087211309   -3.2772298    1.5368484   542936 
 6831000     1.266813   -3.2768212   -1.7401909   0.08613726   -3.2768212    1.5366303   542948 
 6832000    1.2672616   -3.2782608   -1.7410863  0.082876944   -3.2782608    1.5371745   542948 
 6833000    1.2671616   -3.2784222   -1.7413662  0.091651002   -3.2784222     1.537056   542947 
 6834000    1.2663407   -3.2772865   -1.7412659  0.086125114   -3.2772865    1.5360206   542961 
 6835000    1.2676223   -3.2772718   -1.7397249  0.082700543   -3.2772718    1.5375468   542971 
 6836000    1.2680009   -3.2781412   -1.7401945  0.077641726   -3.2781412    1.5379466   542992 
 6837000    1.2680989   -3.2777719   -1.7397631  0.082178498   -3.2777719    1.5380088   543012 
 6838000    1.2661756   -3.2751457   -1.7394978  0.086368999   -3.2751457    1.5356479   543022 
 6839000    1.2665817   -3.2773269   -1.7412177  0.089778428   -3.2773269    1.5361093   543033 
 6840000      1.26525   -3.2760177   -1.7415715  0.088395597   -3.2760177    1.5344462   543050 
 6841000    1.2673769   -3.2788973   -1.7419282  0.084202297   -3.2788973     1.536969   543070 
 6842000    1.2661757   -3.2770281    -1.741564  0.087245581   -3.2770281    1.5354642   543087 
 6843000    1.2637375   -3.2750465   -1.7426322  0.084354652   -3.2750465    1.5324143   543120 
 6844000    1.2661286   -3.2782532   -1.7429704  0.087798968   -3.2782532    1.5352827   543131 
 6845000    1.2649734   -3.2768721   -1.7430185  0.087129673   -3.2768721    1.5338537   543141 
 6846000    1.2662744   -3.2782417   -1.7428698  0.084839029   -3.2782417    1.5353719   543162 
 6847000    1.2662011   -3.2770602    -1.741862  0.087737028   -3.2770602    1.5351982   543192 
 6848000    1.2661114   -3.2773907   -1.7422984  0.090992388   -3.2773907    1.5350923   543191 
 6849000    1.2661928   -3.2775608   -1.7424462  0.082940721   -3.2775608    1.5351146   543218 
 6850000    1.2659147   -3.2771555   -1.7424402   0.08744549   -3.2771555    1.5347153   543240 
 6851000    1.2657881   -3.2772965   -1.7427911  0.084567821   -3.2772965    1.5345053   543260 
 6852000    1.2659751   -3.2786562   -1.7440032  0.082482975   -3.2786562     1.534653   543288 
 6853000    1.2649066   -3.2775424   -1.7442722  0.086416462   -3.2775424    1.5332702   543319 
 6854000    1.2656729   -3.2778961   -1.7437507  0.087948988   -3.2778961    1.5341455   543338 
 6855000    1.2662014   -3.2781752   -1.7433637   0.08725206   -3.2781752    1.5348115   543329 
 6856000    1.2672243   -3.2785201   -1.7424574  0.089564536   -3.2785201    1.5360627   543325 
 6857000     1.267796   -3.2794351   -1.7427105  0.086161007   -3.2794351    1.5367245   543336 
 6858000    1.2671735   -3.2797834   -1.7438728  0.081380081   -3.2797834    1.5359106   543357 
 6859000    1.2665196   -3.2777555   -1.7427024  0.083079897   -3.2777555    1.5350531   543380 
 6860000    1.2675967   -3.2788651   -1.7425801   0.08266059   -3.2788651     1.536285   543406 
 6861000    1.2675898   -3.2788619    -1.742687  0.083366497   -3.2788619    1.5361749   543442 
 6862000    1.2661899   -3.2775811    -1.743145   0.08169213   -3.2775811    1.5344361   543457 
 6863000     1.266526   -3.2779496   -1.7431797  0.086434411   -3.2779496    1.5347699   543483 
 6864000    1.2675582   -3.2787357   -1.7427912  0.088324915   -3.2787357    1.5359444   543510 
 6865000    1.2673405   -3.2789967   -1.7433443  0.087112846   -3.2789967    1.5356524   543520 
 6866000    1.2669941   -3.2782194   -1.7430235  0.095778054   -3.2782194    1.5351959   543533 
 6867000    1.2662654   -3.2784926   -1.7442868  0.092750156   -3.2784926    1.5342057   543571 
 6868000    1.2678409   -3.2797716   -1.7436655  0.091584483   -3.2797716    1.5361061   543574 
 6869000    1.2677669   -3.2787081   -1.7426973  0.088722457   -3.2787081    1.5360107   543576 
 6870000    1.2681161   -3.2787671   -1.7424378  0.091083833   -3.2787671    1.5363293   543613 
 6871000    1.2689404    -3.280403   -1.7431486  0.083101537    -3.280403    1.5372545   543639 
 6872000    1.2689552   -3.2814697   -1.7442964  0.083540754   -3.2814697    1.5371734   543674 
 6873000     1.267996   -3.2794219   -1.7435008  0.086076472   -3.2794219    1.5359211   543706 
 6874000    1.2706343    -3.282665   -1.7435793  0.085248894    -3.282665    1.5390857   543717 
 6875000    1.2691445    -3.280695    -1.743445  0.085251453    -3.280695    1.5372501   543728 
 6876000    1.2701845   -3.2822891   -1.7438643  0.083272243   -3.2822891    1.5384248   543758 
 6877000    1.2687415   -3.2806378   -1.7440087   0.09228266   -3.2806378    1.5366291   543775 
 6878000    1.2690966   -3.2815603    -1.744518  0.088152972   -3.2815603    1.5370422   543781 
 6879000    1.2690359   -3.2827555   -1.7458829  0.087522213   -3.2827555    1.5368726   543815 
 6880000    1.2658524   -3.2799066   -1.7469317  0.086727386   -3.2799066    1.5329749   543830 
 6881000    1.2679959    -3.282544   -1.7470214  0.083860855    -3.282544    1.5355227   543847 
 6882000    1.2680128   -3.2824594   -1.7469756  0.085172907   -3.2824594    1.5354838   543868 
 6883000    1.2680715   -3.2813388   -1.7458205  0.082854211   -3.2813388    1.5355183   543881 
 6884000    1.2676615   -3.2814238   -1.7464472  0.086529951   -3.2814238    1.5349766   543897 
 6885000    1.2678731   -3.2814868   -1.7463866  0.085367904   -3.2814868    1.5351002   543944 
 6886000    1.2669642   -3.2802067   -1.7461788  0.085416036   -3.2802067     1.534028   543934 
 6887000    1.2677821   -3.2819069   -1.7469113  0.089476711   -3.2819069    1.5349957   543942 
 6888000    1.2672551   -3.2805143    -1.746216  0.089814398   -3.2805143    1.5342984   543963 
 6889000    1.2696541    -3.282491   -1.7452852   0.08561344    -3.282491    1.5372057   543962 
 6890000    1.2691781   -3.2828377   -1.7462366  0.087999791   -3.2828377    1.5366012   543972 
 6891000    1.2688193   -3.2829569   -1.7468494   0.09415567   -3.2829569    1.5361075   543993 
 6892000    1.2703777   -3.2849818   -1.7470668  0.088748359   -3.2849818     1.537915   544021 
 6893000    1.2685181   -3.2814429   -1.7458073  0.090516773   -3.2814429    1.5356355   544031 
 6894000    1.2709548   -3.2844455   -1.7458827  0.089430364   -3.2844455    1.5385627   544039 
 6895000    1.2696028   -3.2829636   -1.7460546  0.086331374   -3.2829636     1.536909   544045 
 6896000    1.2692198   -3.2825337   -1.7461136  0.088594827   -3.2825337      1.53642   544054 
 6897000    1.2686306   -3.2824174   -1.7467557  0.089626578   -3.2824174    1.5356617   544070 
 6898000    1.2698637   -3.2824724   -1.7453492   0.09208896   -3.2824724    1.5371233   544081 
 6899000    1.2692284   -3.2817686   -1.7454567  0.087895854   -3.2817686    1.5363119   544096 
 6900000     1.268806   -3.2828741   -1.7471215  0.088122495   -3.2828741    1.5357526   544113 
 6901000    1.2670845   -3.2811574    -1.747528  0.085837959   -3.2811574    1.5336294   544127 
 6902000    1.2682075   -3.2821254   -1.7471706  0.085922995   -3.2821254    1.5349548   544139 
 6903000     1.268416    -3.282703   -1.7475099  0.087344833    -3.282703    1.5351931   544144 
 6904000    1.2678561    -3.281431   -1.7469269  0.083324419    -3.281431    1.5345041   544148 
 6905000    1.2682214   -3.2830757   -1.7481351  0.083840379   -3.2830757    1.5349406   544150 
 6906000    1.2663737   -3.2806747   -1.7480154  0.086032221   -3.2806747    1.5326593   544166 
 6907000    1.2699746   -3.2839411   -1.7469718  0.085999451   -3.2839411    1.5369693   544183 
 6908000    1.2675535   -3.2809219   -1.7468995  0.090986158   -3.2809219    1.5340223   544189 
 6909000    1.2678399   -3.2809449   -1.7465788  0.085248526   -3.2809449     1.534366   544190 
 6910000    1.2663222   -3.2794423   -1.7468988  0.083241176   -3.2794423    1.5325434   544185 
 6911000    1.2680307   -3.2816429   -1.7470545  0.086884469   -3.2816429    1.5345885   544193 
 6912000    1.2668184   -3.2808762   -1.7478421  0.080306086   -3.2808762    1.5330341   544224 
 6913000     1.268508   -3.2811452   -1.7460833  0.085913841   -3.2811452    1.5350619   544230 
 6914000     1.268004   -3.2830436   -1.7486086  0.080067713   -3.2830436     1.534435   544236 
 6915000    1.2674932   -3.2813323   -1.7475662  0.084567431   -3.2813323    1.5337661   544254 
 6916000    1.2667769   -3.2797064   -1.7468662  0.086598396   -3.2797064    1.5328402   544275 
 6917000    1.2686685   -3.2816806   -1.7466164  0.085158858   -3.2816806    1.5350642   544298 
 6918000    1.2685002   -3.2815611   -1.7467372  0.087307303   -3.2815611    1.5348239   544311 
 6919000    1.2676849   -3.2808666    -1.747094  0.086058076   -3.2808666    1.5337726   544334 
 6920000    1.2668101   -3.2805669   -1.7478696  0.085722858   -3.2805669    1.5326973   544340 
 6921000    1.2662675   -3.2795167   -1.7475208  0.086496814   -3.2795167    1.5319958   544356 
 6922000    1.2681334   -3.2821992   -1.7480333  0.080657968   -3.2821992    1.5341659   544387 
 6923000     1.268678   -3.2821024   -1.7473143  0.085390593   -3.2821024    1.5347881   544400 
 6924000    1.2700962   -3.2835367   -1.7470866  0.082367831   -3.2835367    1.5364502   544419 
 6925000    1.2706934    -3.283823    -1.746704  0.084753474    -3.283823     1.537119   544438 
 6926000    1.2680751   -3.2806362   -1.7467324   0.08286473   -3.2806362    1.5339038   544455 
 6927000    1.2707425   -3.2835012   -1.7463991  0.080772003   -3.2835012    1.5371021   544465 
 6928000    1.2691033   -3.2829191   -1.7477941  0.087718827   -3.2829191    1.5351249   544463 
 6929000    1.2672103   -3.2806709   -1.7478836  0.088557762   -3.2806709    1.5327873   544480 
 6930000    1.2689957   -3.2827635   -1.7478899  0.083453927   -3.2827635    1.5348736   544506 
 6931000    1.2695794   -3.2838183   -1.7482924  0.085705837   -3.2838183     1.535526   544525 
 6932000    1.2684079   -3.2827743   -1.7487074  0.084318789   -3.2827743    1.5340668   544540 
 6933000    1.2692913   -3.2840826   -1.7489755  0.091191097   -3.2840826    1.5351071   544550 
 6934000    1.2687506    -3.284481   -1.7500645  0.089811867    -3.284481    1.5344165   544563 
 6935000    1.2674983   -3.2834709   -1.7505548   0.08586368   -3.2834709    1.5329161   544558 
 6936000    1.2678115   -3.2838329   -1.7505691  0.089073487   -3.2838329    1.5332638   544569 
 6937000    1.2691922    -3.284321   -1.7493986  0.090217124    -3.284321    1.5349224   544573 
 6938000    1.2698625   -3.2850247   -1.7493509  0.085965971   -3.2850247    1.5356738   544594 
 6939000    1.2702343   -3.2845483   -1.7484953  0.088124155   -3.2845483     1.536053   544619 
 6940000    1.2707116   -3.2857105   -1.7491114    0.0851379   -3.2857105    1.5365991   544630 
 6941000    1.2687296   -3.2839826   -1.7497154   0.08761113   -3.2839826    1.5342672   544607 
 6942000     1.270751   -3.2873957    -1.750715  0.086459435   -3.2873957    1.5366806   544618 
 6943000    1.2701527   -3.2863296   -1.7504458  0.094099223   -3.2863296    1.5358838   544644 
 6944000    1.2689458    -3.283883   -1.7494841  0.091883869    -3.283883     1.534399   544653 
 6945000    1.2722772   -3.2860818   -1.7477109  0.086687163   -3.2860818    1.5383709   544673 
 6946000    1.2713505   -3.2867656   -1.7495351  0.085931295   -3.2867656    1.5372305   544680 
 6947000    1.2704381    -3.284938   -1.7488869  0.092423755    -3.284938    1.5360512   544707 
 6948000    1.2717544   -3.2867341   -1.7491253  0.088943758   -3.2867341    1.5376089   544719 
 6949000    1.2699691   -3.2843374   -1.7489999  0.089735299   -3.2843374    1.5353375   544759 
 6950000     1.270906   -3.2852585   -1.7488784  0.085993002   -3.2852585      1.53638   544791 
 6951000    1.2718563   -3.2859698   -1.7485144  0.086584247   -3.2859698    1.5374554   544817 
 6952000    1.2702239   -3.2848439    -1.749421  0.086325697   -3.2848439    1.5354229   544838 
 6953000    1.2695252   -3.2842828   -1.7497467  0.088100503   -3.2842828    1.5345362   544853 
 6954000    1.2697091   -3.2848772   -1.7502061  0.085070563   -3.2848772    1.5346711   544884 
 6955000    1.2693549   -3.2859273   -1.7517238  0.087289202   -3.2859273    1.5342035   544898 
 6956000    1.2681704   -3.2843153   -1.7515969  0.081769688   -3.2843153    1.5327184   544917 
 6957000    1.2692336   -3.2855753   -1.7515775  0.086406771   -3.2855753    1.5339978   544919 
 6958000    1.2696525   -3.2861715   -1.7516674  0.087831284   -3.2861715    1.5345041   544919 
 6959000    1.2720777   -3.2876856   -1.7502843  0.088233787   -3.2876856    1.5374013   544931 
 6960000    1.2701073   -3.2865721   -1.7515971  0.086286204   -3.2865721     1.534975   544947 
 6961000    1.2695481   -3.2865179   -1.7522638  0.087289166   -3.2865179    1.5342541   544963 
 6962000    1.2695591   -3.2860968    -1.751838  0.087365634   -3.2860968    1.5342588   544966 
 6963000    1.2708371   -3.2870516   -1.7511749  0.083924338   -3.2870516    1.5358766   544940 
 6964000    1.2708047   -3.2866041   -1.7508201  0.090563129   -3.2866041    1.5357839   544959 
 6965000    1.2713251   -3.2872234   -1.7508077  0.083178596   -3.2872234    1.5364157   544958 
 6966000    1.2707671    -3.286197   -1.7504754  0.088964219    -3.286197    1.5357216   544965 
 6967000    1.2724959   -3.2875502   -1.7497562  0.090178888   -3.2875502    1.5377939   544971 
 6968000    1.2726593   -3.2884611   -1.7504839  0.087364627   -3.2884611    1.5379772   544976 
 6969000    1.2693877   -3.2837218   -1.7497742  0.093160226   -3.2837218    1.5339476   545003 
 6970000    1.2708037   -3.2857255   -1.7500921  0.086284807   -3.2857255    1.5356334   545012 
 6971000    1.2704772   -3.2855222   -1.7503961  0.088071398   -3.2855222    1.5351261   545052 
 6972000    1.2703926   -3.2859848   -1.7510285  0.084071001   -3.2859848    1.5349564   545076 
 6973000    1.2694879   -3.2850683   -1.7512501   0.08659899   -3.2850683    1.5338182   545092 
 6974000    1.2719754   -3.2874204   -1.7505883  0.083956768   -3.2874204    1.5368321   545089 
 6975000    1.2709821    -3.286503   -1.7508964  0.087577904    -3.286503    1.5356066   545098 
 6976000    1.2719931   -3.2879267   -1.7511352  0.086282394   -3.2879267    1.5367915   545111 
 6977000    1.2694273    -3.284229   -1.7505487  0.091580853    -3.284229    1.5336803   545115 
 6978000    1.2710666   -3.2863564   -1.7507321  0.086369976   -3.2863564    1.5356242   545128 
 6979000    1.2718559   -3.2860756   -1.7495824  0.087173777   -3.2860756    1.5364932   545158 
 6980000    1.2701945   -3.2852981   -1.7508626  0.087303525   -3.2852981    1.5344354   545176 
 6981000    1.2710222   -3.2848607   -1.7494817  0.087962407   -3.2848607     1.535379   545196 
 6982000     1.272048   -3.2866336   -1.7500605  0.093115066   -3.2866336    1.5365731   545212 
 6983000    1.2711771   -3.2860451   -1.7506253  0.085538108   -3.2860451    1.5354198   545248 
 6984000    1.2720849   -3.2858473   -1.7493705   0.09200346   -3.2858473    1.5364767   545262 
 6985000    1.2703466   -3.2841683   -1.7497883  0.093119424   -3.2841683      1.53438   545261 
 6986000    1.2727728   -3.2864382   -1.7492264  0.086956362   -3.2864382    1.5372118   545296 
 6987000    1.2718961   -3.2858284   -1.7497317  0.084778511   -3.2858284    1.5360966   545316 
 6988000    1.2724551   -3.2864673   -1.7497406  0.086051737   -3.2864673    1.5367267   545332 
 6989000    1.2737877   -3.2879291   -1.7496071  0.080261663   -3.2879291    1.5383219   545337 
 6990000    1.2710915   -3.2834595   -1.7484106  0.089785366   -3.2834595    1.5350489   545343 
 6991000    1.2727946   -3.2859397   -1.7488706  0.089372008   -3.2859397     1.537069   545356 
 6992000    1.2732202   -3.2876187   -1.7499878  0.085788695   -3.2876187    1.5376309   545339 
 6993000    1.2730366   -3.2867946   -1.7494531  0.087549039   -3.2867946    1.5373415   545363 
 6994000    1.2716338   -3.2849804   -1.7493893  0.091547586   -3.2849804    1.5355911   545383 
 6995000    1.2711461   -3.2843445   -1.7493959  0.089149961   -3.2843445    1.5349487   545402 
 6996000    1.2725635   -3.2867078   -1.7501292   0.08276058   -3.2867078    1.5365786   545431 
 6997000    1.2713903   -3.2848206   -1.7497121  0.088122247   -3.2848206    1.5351085   545450 
 6998000    1.2710131    -3.285382   -1.7508301  0.090719049    -3.285382    1.5345518   545486 
 6999000    1.2719472   -3.2866472   -1.7510043  0.088796472   -3.2866472     1.535643   545499 
 7000000    1.2732781   -3.2876691   -1.7504137  0.086645906   -3.2876691    1.5372554   545497 
 7001000    1.2715177    -3.286345   -1.7512347  0.087378864    -3.286345    1.5351103   545504 
 7002000    1.2726814     -3.28857   -1.7520913  0.089654386     -3.28857    1.5364787   545517 
 7003000    1.2713388   -3.2867757   -1.7520023  0.093454715   -3.2867757    1.5347733   545547 
 7004000    1.2701888   -3.2859296   -1.7526373  0.088243553   -3.2859296    1.5332923   545580 
 7005000    1.2715435   -3.2879304   -1.7531097   0.09233804   -3.2879304    1.5348207   545618 
 7006000     1.271659   -3.2877668   -1.7528432  0.091435755   -3.2877668    1.5349237   545631 
 7007000    1.2702774   -3.2854791   -1.7522428  0.092192861   -3.2854791    1.5332363   545638 
 7008000    1.2725888   -3.2891924    -1.753186  0.092618125   -3.2891924    1.5360064   545645 
 7009000    1.2724163   -3.2883863   -1.7526921  0.090379212   -3.2883863    1.5356942   545682 
 7010000    1.2715587   -3.2886639   -1.7540499  0.093018937   -3.2886639    1.5346141   545698 
 7011000    1.2722981   -3.2886938   -1.7532239  0.083321739   -3.2886938    1.5354699   545711 
 7012000    1.2719156   -3.2874028   -1.7524367  0.085501458   -3.2874028    1.5349661   545726 
 7013000    1.2720995   -3.2879401   -1.7527492  0.087339419   -3.2879401    1.5351908   545725 
 7014000    1.2719917   -3.2874625   -1.7524608  0.086503508   -3.2874625    1.5350017   545746 
 7015000    1.2718289    -3.287851    -1.753133  0.088254873    -3.287851    1.5347181   545777 
 7016000    1.2724069   -3.2896176   -1.7542866  0.085266721   -3.2896176     1.535331   545807 
 7017000    1.2716281    -3.287849   -1.7534858  0.085187367    -3.287849    1.5343633   545817 
 7018000    1.2746085   -3.2914862    -1.753524  0.086767679   -3.2914862    1.5379623   545816 
 7019000    1.2743395   -3.2901741   -1.7525674  0.087781199   -3.2901741    1.5376067   545827 
 7020000    1.2742978   -3.2892575   -1.7517602  0.091875127   -3.2892575    1.5374973   545848 
 7021000    1.2730958   -3.2879754   -1.7519396  0.092447568   -3.2879754    1.5360357   545852 
 7022000    1.2731556   -3.2889154   -1.7527963  0.097268361   -3.2889154    1.5361191   545848 
 7023000     1.272337    -3.288165   -1.7530561  0.091566899    -3.288165    1.5351089   545856 
 7024000    1.2736367   -3.2885478   -1.7518876  0.096483255   -3.2885478    1.5366601   545862 
 7025000    1.2719891    -3.286697   -1.7520472   0.09041362    -3.286697    1.5346498   545870 
 7026000    1.2733968   -3.2891455   -1.7527861  0.084687624   -3.2891455    1.5363594   545866 
 7027000      1.27387   -3.2902736   -1.7533206   0.08772551   -3.2902736     1.536953   545858 
 7028000    1.2739357   -3.2908758   -1.7538746  0.083256787   -3.2908758    1.5370012   545869 
 7029000    1.2728562   -3.2907724    -1.755082  0.084899729   -3.2907724    1.5356903   545872 
 7030000    1.2712529   -3.2887787   -1.7550929  0.088875626   -3.2887787    1.5336858   545897 
 7031000    1.2714394   -3.2891518   -1.7552214  0.083502751   -3.2891518    1.5339305   545890 
 7032000    1.2718405   -3.2900416   -1.7556892  0.085764252   -3.2900416    1.5343524   545912 
 7033000    1.2716407   -3.2908582   -1.7568479  0.080037272   -3.2908582    1.5340103   545948 
 7034000    1.2705882    -3.288408   -1.7556954   0.08697572    -3.288408    1.5327126   545958 
 7035000    1.2718434   -3.2907543   -1.7565922   0.08326862   -3.2907543    1.5341621   545981 
 7036000    1.2693906   -3.2887307   -1.7575442  0.092166748   -3.2887307    1.5311865   545987 
 7037000     1.270931   -3.2889807   -1.7559866  0.085443066   -3.2889807    1.5329941   546005 
 7038000    1.2699332   -3.2877108   -1.7559904  0.089010603   -3.2877108    1.5317204   546030 
 7039000    1.2722676   -3.2893626   -1.7548518  0.085539844   -3.2893626    1.5345108   546039 
 7040000    1.2716222   -3.2890942    -1.755376  0.085133753   -3.2890942    1.5337182   546044 
 7041000    1.2727433   -3.2894861    -1.754424  0.086552684   -3.2894861    1.5350621   546047 
 7042000    1.2725901   -3.2899501   -1.7551544  0.086591121   -3.2899501    1.5347957   546076 
 7043000     1.273616   -3.2907772   -1.7548174  0.087395198   -3.2907772    1.5359598   546102 
 7044000    1.2727335   -3.2899533   -1.7551111  0.088911928   -3.2899533    1.5348422   546121 
 7045000    1.2727503   -3.2897953   -1.7549694  0.096553111   -3.2897953    1.5348259   546134 
 7046000    1.2732226   -3.2902003   -1.7548385  0.097917603   -3.2902003    1.5353618   546146 
 7047000    1.2720224   -3.2882744   -1.7543853  0.094336984   -3.2882744    1.5338891   546155 
 7048000    1.2730976   -3.2902588   -1.7551012  0.088545159   -3.2902588    1.5351575   546165 
 7049000    1.2751966   -3.2924725   -1.7548007  0.092073855   -3.2924725    1.5376717   546171 
 7050000    1.2734297   -3.2915405   -1.7560668  0.091777953   -3.2915405    1.5354737   546195 
 7051000    1.2731634   -3.2918752   -1.7567508  0.087398953   -3.2918752    1.5351245   546205 
 7052000    1.2715924   -3.2912095   -1.7580803   0.08946672   -3.2912095    1.5331293   546241 
 7053000    1.2744715   -3.2939806   -1.7574139  0.085312768   -3.2939806    1.5365667   546253 
 7054000    1.2744176   -3.2937086   -1.7572434  0.087343708   -3.2937086    1.5364652   546266 
 7055000    1.2724412   -3.2913356    -1.757301  0.087144811   -3.2913356    1.5340347   546283 
 7056000    1.2704736   -3.2900349   -1.7584228  0.083412288   -3.2900349    1.5316121   546301 
 7057000    1.2722601   -3.2915433   -1.7578139  0.087494798   -3.2915433    1.5337293   546314 
 7058000    1.2716943   -3.2922319   -1.7591959  0.081956952   -3.2922319     1.533036   546318 
 7059000    1.2719558    -3.293238   -1.7599233  0.082637939    -3.293238    1.5333147   546331 
 7060000    1.2730486   -3.2923977   -1.7578078   0.08670742   -3.2923977    1.5345899   546346 
 7061000     1.271823   -3.2923088   -1.7592523  0.085786892   -3.2923088    1.5330565   546366 
 7062000    1.2711921   -3.2918809   -1.7595906  0.086874053   -3.2918809    1.5322903   546368 
 7063000    1.2722288    -3.293002   -1.7595097  0.086948707    -3.293002    1.5334923   546385 
 7064000    1.2728626   -3.2939159   -1.7596794  0.088672162   -3.2939159    1.5342365   546392 
 7065000    1.2733821   -3.2937331   -1.7588788  0.081686354   -3.2937331    1.5348543   546395 
 7066000    1.2735835   -3.2923784    -1.757315  0.089216153   -3.2923784    1.5350634   546407 
 7067000    1.2737762   -3.2938043   -1.7585789  0.088703475   -3.2938043    1.5352254   546432 
 7068000    1.2753208   -3.2953023   -1.7582602  0.087736828   -3.2953023     1.537042   546448 
 7069000    1.2742498   -3.2947348   -1.7589724  0.084531741   -3.2947348    1.5357624   546444 
 7070000    1.2741384   -3.2953139   -1.7597391  0.086650751   -3.2953139    1.5355747   546463 
 7071000    1.2740084   -3.2943515   -1.7589868  0.082494791   -3.2943515    1.5353648   546482 
 7072000    1.2734524   -3.2948965   -1.7602242   0.08819136   -3.2948965    1.5346723   546490 
 7073000    1.2732379    -3.295495   -1.7610616   0.08286405    -3.295495    1.5344334   546483 
 7074000    1.2746714   -3.2968946   -1.7607701  0.091495437   -3.2968946    1.5361244   546496 
 7075000    1.2731681   -3.2944493   -1.7601758  0.087694785   -3.2944493    1.5342735   546510 
 7076000    1.2729094   -3.2940709   -1.7601879  0.093885636   -3.2940709    1.5338831   546538 
 7077000    1.2737319   -3.2937796   -1.7589727  0.091767704   -3.2937796    1.5348069   546562 
 7078000    1.2729533   -3.2943672   -1.7605491  0.090237732   -3.2943672    1.5338181   546580 
 7079000    1.2724188   -3.2943997   -1.7612846  0.090834154   -3.2943997    1.5331152   546601 
 7080000    1.2754998   -3.2981005   -1.7612732  0.083240278   -3.2981005    1.5368274   546601 
 7081000    1.2739128   -3.2961631   -1.7612618  0.086406401   -3.2961631    1.5349013   546606 
 7082000    1.2733654   -3.2955069   -1.7612792  0.089247717   -3.2955069    1.5342277   546611 
 7083000    1.2735617   -3.2956204    -1.761232  0.087214811   -3.2956204    1.5343884   546638 
 7084000    1.2742345   -3.2952988   -1.7601054  0.093891635   -3.2952988    1.5351934   546640 
 7085000    1.2751259    -3.296458   -1.7601851  0.088850321    -3.296458    1.5362729   546638 
 7086000    1.2751078   -3.2963428   -1.7600804  0.085235085   -3.2963428    1.5362624   546634 
 7087000    1.2723953   -3.2939127   -1.7609604  0.089826397   -3.2939127    1.5329523   546649 
 7088000    1.2727983   -3.2943334   -1.7609068   0.08965308   -3.2943334    1.5334266   546653 
 7089000    1.2715757   -3.2939177   -1.7619948  0.093714407   -3.2939177    1.5319228   546664 
 7090000    1.2718419     -3.29387   -1.7617022  0.082980606     -3.29387    1.5321678   546691 
 7091000    1.2727624   -3.2964927   -1.7632946  0.080821006   -3.2964927    1.5331982   546719 
 7092000    1.2735669   -3.2958159   -1.7616794  0.089707235   -3.2958159    1.5341365   546730 
 7093000    1.2749473   -3.2963805   -1.7606177  0.090953171   -3.2963805    1.5357628   546743 
 7094000    1.2751857   -3.2965758   -1.7605539  0.080784398   -3.2965758    1.5360218   546753 
 7095000    1.2740444   -3.2954375   -1.7608269  0.088867964   -3.2954375    1.5346106   546766 
 7096000    1.2752564   -3.2961719   -1.7601744  0.084922117   -3.2961719    1.5359975   546792 
 7097000    1.2736559   -3.2936776    -1.759664  0.090439144   -3.2936776    1.5340136   546812 
 7098000    1.2732544   -3.2932913   -1.7598062   0.09345811   -3.2932913    1.5334851   546828 
 7099000    1.2740149   -3.2937368   -1.7594284  0.094726938   -3.2937368    1.5343085   546861 
 7100000      1.27475   -3.2940565   -1.7588824  0.086836296   -3.2940565    1.5351742   546868 
 7101000    1.2755421   -3.2944757   -1.7583729  0.087994209   -3.2944757    1.5361028   546877 
 7102000    1.2739125   -3.2938684   -1.7597674  0.088164517   -3.2938684     1.534101   546891 
 7103000    1.2742836   -3.2952465   -1.7607154  0.084241185   -3.2952465    1.5345311   546897 
 7104000    1.2751215   -3.2958549   -1.7603176   0.08609609   -3.2958549    1.5355372   546898 
 7105000    1.2739316   -3.2936911   -1.7595671  0.088199782   -3.2936911    1.5341241   546891 
 7106000    1.2759777   -3.2940933   -1.7575278  0.088962419   -3.2940933    1.5365655   546899 
 7107000    1.2770155   -3.2956308   -1.7578577  0.085204541   -3.2956308    1.5377731   546914 
 7108000    1.2752559   -3.2938588   -1.7582494  0.088655215   -3.2938588    1.5356093   546930 
 7109000    1.2746809    -3.293912   -1.7590793   0.09041536    -3.293912    1.5348327   546960 
 7110000    1.2730875   -3.2933872   -1.7605571  0.089475123   -3.2933872    1.5328301   546990 
 7111000    1.2746884   -3.2954581   -1.7607847  0.087632318   -3.2954581    1.5346734   547020 
 7112000    1.2762018   -3.2961746   -1.7597325  0.084763087   -3.2961746    1.5364421   547039 
 7113000    1.2758094   -3.2959013   -1.7600046   0.08327028   -3.2959013    1.5358967   547065 
 7114000    1.2751203   -3.2949113   -1.7599284   0.08651474   -3.2949113    1.5349829   547095 
 7115000     1.276619   -3.2959311   -1.7591919  0.088000084   -3.2959311    1.5367392   547112 
 7116000    1.2744178   -3.2942709   -1.7601842  0.090181926   -3.2942709    1.5340868   547113 
 7117000    1.2765547   -3.2965682    -1.759968   0.08400231   -3.2965682    1.5366002   547134 
 7118000    1.2753682     -3.29588   -1.7607558  0.090190978     -3.29588    1.5351242   547151 
 7119000     1.275633   -3.2957661   -1.7603513  0.092560735   -3.2957661    1.5354148   547161 
 7120000    1.2737128   -3.2948176   -1.7617672  0.088759389   -3.2948176    1.5330503   547180 
 7121000    1.2763285   -3.2964117   -1.7602496  0.084856405   -3.2964117    1.5361621   547193 
 7122000    1.2755793   -3.2964704   -1.7612324    0.0897343   -3.2964704     1.535238   547201 
 7123000    1.2765332    -3.297321   -1.7609911  0.092957818    -3.297321      1.53633   547221 
 7124000    1.2749857   -3.2956948    -1.761261  0.092368868   -3.2956948    1.5344338   547233 
 7125000    1.2752345   -3.2944988   -1.7598077  0.085631979   -3.2944988    1.5346912   547248 
 7126000    1.2747931    -3.294664   -1.7605432  0.089906253    -3.294664    1.5341208   547262 
 7127000     1.275814   -3.2948986   -1.7596026  0.084162177   -3.2948986     1.535296   547281 
 7128000    1.2757491   -3.2958381    -1.760637  0.087443392   -3.2958381    1.5352011   547287 
 7129000    1.2761197   -3.2966831   -1.7609772  0.081610447   -3.2966831     1.535706   547266 
 7130000    1.2741597   -3.2944574   -1.7611522  0.087173963   -3.2944574    1.5333052   547281 
 7131000    1.2737388   -3.2931777   -1.7603845  0.092000293   -3.2931777    1.5327931   547283 
 7132000    1.2730096   -3.2943206   -1.7624078  0.089336773   -3.2943206    1.5319129   547284 
 7133000    1.2740578   -3.2948042   -1.7616609  0.085738171   -3.2948042    1.5331434   547295 
 7134000    1.2716922   -3.2931963   -1.7628912  0.083745789   -3.2931963    1.5303051   547292 
 7135000    1.2745204   -3.2953439   -1.7616859  0.085962376   -3.2953439     1.533658   547310 
 7136000    1.2740399   -3.2944565   -1.7614467  0.084421224   -3.2944565    1.5330098   547335 
 7137000    1.2748668    -3.295257   -1.7612802  0.089787986    -3.295257    1.5339767   547345 
 7138000    1.2747407   -3.2961132   -1.7623245   0.08650984   -3.2961132    1.5337887   547358 
 7139000    1.2749912    -3.296324   -1.7622676  0.083195606    -3.296324    1.5340564   547370 
 7140000    1.2741685   -3.2951034   -1.7620397   0.08902778   -3.2951034    1.5330637   547371 
 7141000    1.2758598   -3.2960535   -1.7609745  0.091385271   -3.2960535     1.535079   547378 
 7142000    1.2760511   -3.2956631    -1.760382  0.086864962   -3.2956631    1.5352811   547388 
 7143000    1.2763485   -3.2960638    -1.760509  0.084903818   -3.2960638    1.5355548   547418 
 7144000    1.2764044   -3.2975317   -1.7619573  0.085241522   -3.2975317    1.5355744   547435 
 7145000    1.2754509   -3.2959878   -1.7616278   0.08769259   -3.2959878      1.53436   547459 
 7146000    1.2757241   -3.2961375   -1.7614965  0.088071897   -3.2961375     1.534641   547476 
 7147000    1.2750882   -3.2959511   -1.7621114  0.091462458   -3.2959511    1.5338396   547489 
 7148000    1.2752472   -3.2954256   -1.7614648  0.090817952   -3.2954256    1.5339608   547514 
 7149000     1.274621   -3.2943967   -1.7612198  0.081261414   -3.2943967    1.5331768   547525 
 7150000    1.2758319   -3.2961918   -1.7616034  0.090965796   -3.2961918    1.5345885   547541 
 7151000     1.275465   -3.2960701   -1.7618781  0.089559661   -3.2960701     1.534192   547525 
 7152000    1.2736809   -3.2938074    -1.761781  0.089688423   -3.2938074    1.5320264   547532 
 7153000    1.2745477   -3.2947088   -1.7616734   0.08631173   -3.2947088    1.5330354   547544 
 7154000    1.2753118   -3.2952723   -1.7613207  0.084949714   -3.2952723    1.5339517   547545 
 7155000    1.2756904   -3.2956453   -1.7612746  0.082027691   -3.2956453    1.5343707   547558 
 7156000    1.2758635   -3.2951544   -1.7606512  0.083266849   -3.2951544    1.5345032   547585 
 7157000    1.2753328    -3.295675   -1.7619277  0.088120657    -3.295675    1.5337473   547627 
 7158000    1.2769766    -3.297197   -1.7615402  0.086854992    -3.297197    1.5356568   547651 
 7159000    1.2757503   -3.2973332   -1.7631707  0.085095625   -3.2973332    1.5341625   547658 
 7160000    1.2737096   -3.2947256   -1.7630395  0.087728868   -3.2947256    1.5316861   547666 
 7161000    1.2752858   -3.2961186   -1.7625567  0.085276506   -3.2961186    1.5335619   547673 
 7162000    1.2767385   -3.2977202   -1.7624674  0.082039856   -3.2977202    1.5352528   547693 
 7163000    1.2742448    -3.295003   -1.7628383  0.090064073    -3.295003    1.5321647   547725 
 7164000    1.2746002   -3.2937568    -1.761204  0.088599856   -3.2937568    1.5325529   547739 
 7165000    1.2756434   -3.2954073   -1.7616478  0.083110506   -3.2954073    1.5337596   547756 
 7166000    1.2757911   -3.2960118   -1.7621895  0.083426865   -3.2960118    1.5338223   547797 
 7167000    1.2741901   -3.2952543   -1.7633764  0.082710931   -3.2952543    1.5318779   547804 
 7168000    1.2752754   -3.2969575   -1.7638448  0.083360659   -3.2969575    1.5331127   547829 
 7169000    1.2757056   -3.2974219   -1.7638368  0.087843953   -3.2974219    1.5335851   547845 
 7170000    1.2748602   -3.2964305   -1.7639008  0.086718978   -3.2964305    1.5325296   547859 
 7171000    1.2761147   -3.2973075    -1.763337  0.086693189   -3.2973075    1.5339705   547883 
 7172000    1.2738925   -3.2948509   -1.7635347  0.083884599   -3.2948509    1.5313161   547877 
 7173000    1.2749416   -3.2965965   -1.7640222  0.081522378   -3.2965965    1.5325744   547878 
 7174000     1.275279   -3.2969535   -1.7639959  0.088342364   -3.2969535    1.5329575   547886 
 7175000    1.2762002   -3.2982478   -1.7641549  0.087881283   -3.2982478    1.5340929   547876 
 7176000    1.2762542   -3.2983172   -1.7642182  0.088136879   -3.2983172     1.534099   547897 
 7177000    1.2748147   -3.2965413   -1.7642454  0.087635002   -3.2965413    1.5322959   547923 
 7178000    1.2743604   -3.2964346   -1.7647266  0.086437071   -3.2964346    1.5317079   547938 
 7179000    1.2742584   -3.2961597   -1.7645604  0.088211144   -3.2961597    1.5315993   547933 
 7180000    1.2761069   -3.2978248   -1.7640736  0.087303463   -3.2978248    1.5337512   547958 
 7181000    1.2766155   -3.2991091   -1.7647858  0.086915141   -3.2991091    1.5343233   547972 
 7182000    1.2753793   -3.2989939   -1.7662067  0.082741817   -3.2989939    1.5327872   547990 
 7183000    1.2762539   -3.2998986   -1.7661107   0.08815309   -3.2998986    1.5337879   548008 
 7184000    1.2743871   -3.2988414    -1.767364   0.08632793   -3.2988414    1.5314774   548032 
 7185000    1.2736754   -3.2970804   -1.7664863  0.083005681   -3.2970804    1.5305941   548042 
 7186000    1.2755372   -3.2991102   -1.7662955  0.090073309   -3.2991102    1.5328147   548048 
 7187000    1.2750513   -3.2986397   -1.7664508   0.08805093   -3.2986397    1.5321889   548063 
 7188000    1.2760022   -3.2995113   -1.7662106  0.089621587   -3.2995113    1.5333007   548074 
 7189000    1.2757909   -3.2997211   -1.7667526  0.087291307   -3.2997211    1.5329685   548102 
 7190000    1.2755215   -3.2996572   -1.7670375  0.087611798   -3.2996572    1.5326197   548111 
 7191000    1.2762745   -3.2999173   -1.7664963  0.085169555   -3.2999173    1.5334209   548148 
 7192000    1.2748938   -3.2989052   -1.7671739  0.083302391   -3.2989052    1.5317313   548159 
 7193000    1.2763771   -3.3012452   -1.7677681   0.08146691   -3.3012452    1.5334771   548172 
 7194000    1.2760911   -3.3011206   -1.7680598  0.081642194   -3.3011206    1.5330607   548198 
 7195000    1.2753795   -3.2994103   -1.7672352  0.089121122   -3.2994103    1.5321751   548209 
 7196000    1.2772946   -3.3000743   -1.7656125  0.088378175   -3.3000743    1.5344618   548214 
 7197000    1.2756753   -3.2984294   -1.7659156  0.088097396   -3.2984294    1.5325137   548215 
 7198000    1.2779798    -3.300064   -1.7648686  0.085549901    -3.300064    1.5351954   548246 
 7199000    1.2771198   -3.3001811   -1.7660832  0.089541157   -3.3001811    1.5340979   548269 
 7200000    1.2765419   -3.3008707   -1.7674446   0.08466958   -3.3008707    1.5334261   548261 
 7201000    1.2774701   -3.3004254   -1.7659515  0.087550828   -3.3004254    1.5344739   548285 
 7202000    1.2765872   -3.2998671   -1.7665348  0.086784805   -3.2998671    1.5333323   548314 
 7203000    1.2767493   -3.2997378   -1.7662136  0.094225774   -3.2997378    1.5335242   548315 
 7204000    1.2781929   -3.3014281   -1.7662483  0.090118522   -3.3014281    1.5351798   548343 
 7205000    1.2784887   -3.3006398   -1.7651749  0.081950737   -3.3006398     1.535465   548368 
 7206000     1.276701   -3.2994438   -1.7661957  0.090097847   -3.2994438    1.5332481   548393 
 7207000    1.2770434   -3.2986388   -1.7650271  0.090646918   -3.2986388    1.5336117   548410 
 7208000    1.2791196   -3.2998542   -1.7637883  0.088467027   -3.2998542    1.5360658   548424 
 7209000    1.2774183   -3.2986862    -1.764711  0.090391802   -3.2986862    1.5339752   548441 
 7210000    1.2768467   -3.2975411   -1.7643193   0.08813375   -3.2975411    1.5332218   548465 
 7211000    1.2774959   -3.2981313   -1.7641133  0.092105462   -3.2981313    1.5340181   548459 
 7212000    1.2782622   -3.2991787   -1.7642769  0.086580905   -3.2991787    1.5349018   548472 
 7213000    1.2800854   -3.3013266   -1.7643055  0.085289824   -3.3013266    1.5370211   548497 
 7214000    1.2766571   -3.2976639   -1.7647955  0.086576073   -3.2976639    1.5328684   548510 
 7215000    1.2792126   -3.2997804   -1.7638885  0.089470505   -3.2997804    1.5358919   548526 
 7216000    1.2771368   -3.2971776   -1.7637837  0.098131538   -3.2971776     1.533394   548528 
 7217000     1.277563   -3.2977661   -1.7639163  0.090684231   -3.2977661    1.5338498   548548 
 7218000      1.27853   -3.3000477   -1.7650901  0.084124723   -3.3000477    1.5349576   548567 
 7219000    1.2793498   -3.2996391   -1.7637898  0.089727072   -3.2996391    1.5358494   548600 
 7220000    1.2776809   -3.2979021   -1.7641037  0.087116378   -3.2979021    1.5337983   548617 
 7221000     1.278777   -3.2997901   -1.7646843   0.08796877   -3.2997901    1.5351058   548620 
 7222000    1.2781554   -3.2999122   -1.7655553  0.087232124   -3.2999122    1.5343569   548621 
 7223000    1.2783563   -3.2990616    -1.764514  0.089931798   -3.2990616    1.5345477   548639 
 7224000    1.2802478   -3.3015571   -1.7647529  0.083144779   -3.3015571    1.5368042   548644 
 7225000    1.2787285   -3.3000072   -1.7650659  0.086382925   -3.3000072    1.5349413   548658 
 7226000    1.2775643   -3.2993084   -1.7658484  0.087131639   -3.2993084      1.53346   548688 
 7227000    1.2784338   -3.2989072   -1.7644568  0.082544872   -3.2989072    1.5344504   548707 
 7228000    1.2766865   -3.2972762   -1.7649062  0.089795128   -3.2972762      1.53237   548701 
 7229000    1.2768554   -3.2985076   -1.7659628  0.090360133   -3.2985076    1.5325448   548711 
 7230000    1.2765204   -3.2983937   -1.7662761  0.081787234   -3.2983937    1.5321175   548720 
 7231000    1.2782706   -3.3000429   -1.7658526  0.080868668   -3.3000429    1.5341903   548730 
 7232000    1.2757281   -3.2978465   -1.7667077  0.082181815   -3.2978465    1.5311388   548730 
 7233000    1.2775151   -3.3008167   -1.7675891  0.082297348   -3.3008167    1.5332276   548750 
 7234000    1.2763594   -3.2983286   -1.7665299  0.084012539   -3.2983286    1.5317987   548765 
 7235000     1.277063   -3.3003685   -1.7677198  0.087852846   -3.3003685    1.5326487   548763 
 7236000    1.2786471    -3.301798   -1.7673461  0.089123108    -3.301798     1.534452   548798 
 7237000    1.2773883   -3.2995132   -1.7666109  0.084565592   -3.2995132    1.5329023   548812 
 7238000    1.2773634   -3.3001618   -1.7673649  0.090537694   -3.3001618     1.532797   548839 
 7239000    1.2779035   -3.3010913   -1.7676909  0.082975799   -3.3010913    1.5334004   548855 
 7240000    1.2772951   -3.3015576   -1.7688761  0.081855505   -3.3015576    1.5326815   548851 
 7241000    1.2788536   -3.3019856   -1.7675374  0.088579032   -3.3019856    1.5344482   548888 
 7242000    1.2781017   -3.3010233   -1.7675276    0.0949814   -3.3010233    1.5334957   548906 
 7243000     1.278859   -3.3020413   -1.7676956   0.08815696   -3.3020413    1.5343456   548927 
 7244000    1.2776111   -3.2998116   -1.7670134  0.091474132   -3.2998116    1.5327982   548945 
 7245000    1.2769943   -3.3002738   -1.7682101  0.082066897   -3.3002738    1.5320637   548943 
 7246000     1.278224   -3.3013743   -1.7678799  0.082701702   -3.3013743    1.5334943   548959 
 7247000    1.2786814   -3.3011509   -1.7671636  0.082802705   -3.3011509    1.5339873   548979 
 7248000     1.278586   -3.3021204   -1.7682923  0.089062486   -3.3021204    1.5338281   548995 
 7249000    1.2795021   -3.3027082   -1.7678091  0.084186448   -3.3027082    1.5348991   549005 
 7250000    1.2775034   -3.3008857   -1.7684121  0.089654002   -3.3008857    1.5324736   549015 
 7251000    1.2789456   -3.3029826   -1.7688322  0.094453197   -3.3029826    1.5341505   549034 
 7252000    1.2800555   -3.3041516   -1.7686669  0.086382714   -3.3041516    1.5354847   549033 
 7253000    1.2798601   -3.3049354   -1.7697523  0.089463562   -3.3049354    1.5351831   549057 
 7254000    1.2785115   -3.3032258    -1.769744  0.090774279   -3.3032258    1.5334818   549087 
 7255000     1.278125   -3.3033313   -1.7703662  0.089953094   -3.3033313    1.5329651   549106 
 7256000    1.2773285   -3.3036811   -1.7716406  0.091664393   -3.3036811    1.5320405   549095 
 7257000    1.2793211   -3.3052975   -1.7708755  0.087650715   -3.3052975     1.534422   549098 
 7258000    1.2775357   -3.3035804   -1.7713639  0.085220471   -3.3035804    1.5322165   549121 
 7259000    1.2802675    -3.306043   -1.7706312  0.090188486    -3.306043    1.5354118   549150 
 7260000    1.2792048   -3.3042144   -1.7701413  0.089923421   -3.3042144    1.5340731   549173 
 7261000     1.279434   -3.3047342   -1.7704226  0.087629001   -3.3047342    1.5343116   549186 
 7262000    1.2797626   -3.3041908   -1.7695019  0.083623208   -3.3041908    1.5346889   549192 
 7263000    1.2785669   -3.3027143   -1.7695124  0.087385829   -3.3027143    1.5332019   549211 
 7264000    1.2809475    -3.304523   -1.7685026    0.0888349    -3.304523    1.5360204   549224 
 7265000    1.2790675   -3.3018557   -1.7681233  0.089745445   -3.3018557    1.5337324   549236 
 7266000    1.2788256    -3.302306   -1.7689223  0.090179298    -3.302306    1.5333837   549257 
 7267000    1.2791404   -3.3033965   -1.7697442  0.089505896   -3.3033965    1.5336523   549296 
 7268000    1.2767737   -3.3019891   -1.7712328  0.092038811   -3.3019891    1.5307562   549317 
 7269000    1.2782309   -3.3030117    -1.770542  0.088921804   -3.3030117    1.5324697   549329 
 7270000    1.2783868   -3.3033295   -1.7707119  0.084277999   -3.3033295    1.5326177   549343 
 7271000    1.2795087   -3.3046832   -1.7707233   0.08772182   -3.3046832    1.5339599   549344 
 7272000    1.2786232   -3.3028953   -1.7700305  0.085110703   -3.3028953    1.5328648   549356 
 7273000    1.2775627   -3.3011733   -1.7695325  0.087586891   -3.3011733    1.5316408   549339 
 7274000     1.278463   -3.3026022     -1.76991  0.089538397   -3.3026022    1.5326923   549349 
 7275000    1.2787329   -3.3020107   -1.7689643  0.085381137   -3.3020107    1.5330465   549338 
 7276000     1.279278   -3.3018932   -1.7682741  0.093523864   -3.3018932    1.5336191   549367 
 7277000    1.2807826   -3.3027451   -1.7673642  0.086994475   -3.3027451    1.5353809   549382 
 7278000    1.2785938   -3.3012055   -1.7684931  0.087414432   -3.3012055    1.5327124   549398 
 7279000    1.2784512   -3.3017022   -1.7691943  0.085051328   -3.3017022     1.532508   549410 
 7280000    1.2803857   -3.3046417   -1.7698986  0.087589927   -3.3046417    1.5347431   549440 
 7281000    1.2789018   -3.3045634   -1.7716437  0.077209525   -3.3045634    1.5329197   549456 
 7282000    1.2776286   -3.3020635   -1.7707507  0.082626173   -3.3020635    1.5313128   549485 
 7283000    1.2791782   -3.3027549   -1.7696489  0.088490395   -3.3027549    1.5331059   549508 
 7284000    1.2773279   -3.3010645   -1.7702123  0.087973984   -3.3010645    1.5308521   549521 
 7285000    1.2787066   -3.3023652   -1.7698886  0.087212909   -3.3023652    1.5324766   549531 
 7286000     1.277161   -3.3015078   -1.7709254  0.082061596   -3.3015078    1.5305824   549546 
 7287000    1.2777152   -3.3019716   -1.7707305  0.085120373   -3.3019716     1.531241   549548 
 7288000    1.2777344   -3.3024421   -1.7712839   0.08564369   -3.3024421    1.5311581   549586 
 7289000    1.2784271   -3.3027751   -1.7708482  0.082538438   -3.3027751    1.5319269   549608 
 7290000    1.2794576   -3.3034046   -1.7702792  0.084294284   -3.3034046    1.5331255   549621 
 7291000    1.2800809   -3.3041489   -1.7703211  0.091217632   -3.3041489    1.5338277   549637 
 7292000    1.2789758   -3.3032253   -1.7707524  0.087532776   -3.3032253     1.532473   549648 
 7293000    1.2799665   -3.3046869   -1.7710661   0.08667249   -3.3046869    1.5336209   549662 
 7294000    1.2793948    -3.304485   -1.7715853   0.08584235    -3.304485    1.5328996   549675 
 7295000    1.2806238   -3.3053746   -1.7710276  0.086802857   -3.3053746    1.5343471   549684 
 7296000    1.2803859   -3.3043482   -1.7703253  0.087960924   -3.3043482     1.534023   549698 
 7297000     1.280812    -3.305404   -1.7708901  0.087044611    -3.305404    1.5345139   549705 
 7298000    1.2809691   -3.3048564   -1.7701711  0.090035721   -3.3048564    1.5346854   549711 
 7299000    1.2812212   -3.3052438   -1.7703234  0.094908009   -3.3052438    1.5349204   549735 
 7300000    1.2799057   -3.3048501   -1.7715977  0.088987964   -3.3048501    1.5332524   549768 
 7301000     1.279127   -3.3042265   -1.7719655  0.093021001   -3.3042265     1.532261   549789 
 7302000    1.2793717    -3.305573   -1.7730495  0.093291443    -3.305573    1.5325235   549800 
 7303000    1.2799544   -3.3061041   -1.7728966  0.088985133   -3.3061041    1.5332076   549805 
 7304000    1.2804839   -3.3065702   -1.7727451  0.093208452   -3.3065702    1.5338251   549811 
 7305000    1.2796402   -3.3056333   -1.7728524  0.087451293   -3.3056333    1.5327809   549823 
 7306000    1.2793912   -3.3059394   -1.7734288  0.086344821   -3.3059394    1.5325106   549813 
 7307000    1.2793158   -3.3054143   -1.7730749   0.08527665   -3.3054143    1.5323395   549842 
 7308000    1.2795687   -3.3042872   -1.7716921  0.093169049   -3.3042872     1.532595   549859 
 7309000    1.2822605   -3.3073916   -1.7716256  0.086364031   -3.3073916     1.535766   549878 
 7310000    1.2800387    -3.305745   -1.7726456   0.08911853    -3.305745    1.5330994   549880 
 7311000    1.2801169   -3.3052181   -1.7720335  0.088978181   -3.3052181    1.5331846   549883 
 7312000    1.2796237   -3.3046102   -1.7720664  0.090706873   -3.3046102    1.5325438   549901 
 7313000    1.2810533   -3.3058083   -1.7715941    0.0886809   -3.3058083    1.5342142   549916 
 7314000    1.2810277   -3.3061678   -1.7720457  0.089864936   -3.3061678    1.5341221   549938 
 7315000    1.2796594   -3.3037402   -1.7713014  0.089538475   -3.3037402    1.5324388   549954 
 7316000    1.2787711   -3.3032105   -1.7718159  0.088049482   -3.3032105    1.5313946   549947 
 7317000    1.2791477   -3.3042229   -1.7724135  0.081746554   -3.3042229    1.5318094   549960 
 7318000    1.2771718   -3.3025086   -1.7730987  0.086654597   -3.3025086    1.5294098   549972 
 7319000     1.277472   -3.3018139   -1.7720863  0.092637815   -3.3018139    1.5297276   549987 
 7320000    1.2803097   -3.3048739   -1.7718319  0.085262538   -3.3048739     1.533042   550017 
 7321000    1.2770828    -3.300551   -1.7713896  0.086474412    -3.300551    1.5291614   550023 
 7322000    1.2786982   -3.3042103   -1.7731063  0.081058751   -3.3042103     1.531104   550020 
 7323000    1.2769574   -3.3027069   -1.7737484    0.0830776   -3.3027069    1.5289585   550042 
 7324000    1.2786582    -3.303973   -1.7729753  0.086389523    -3.303973    1.5309977   550041 
 7325000    1.2794276   -3.3028707   -1.7709852  0.089559352   -3.3028707    1.5318855   550053 
 7326000    1.2793453   -3.3024984   -1.7707253  0.088105733   -3.3024984     1.531773   550058 
 7327000    1.2791605   -3.3033806   -1.7718734  0.085174002   -3.3033806    1.5315073   550074 
 7328000    1.2779478   -3.3035048   -1.7734857  0.090172359   -3.3035048    1.5300191   550087 
 7329000    1.2789753   -3.3054133   -1.7742364  0.084670917   -3.3054133    1.5311769   550113 
 7330000    1.2802493   -3.3062283   -1.7734955  0.084703465   -3.3062283    1.5327328   550102 
 7331000    1.2780861   -3.3045736   -1.7744778  0.083920183   -3.3045736    1.5300957   550119 
 7332000     1.280064   -3.3059831   -1.7735445  0.089639878   -3.3059831    1.5324386   550128 
 7333000    1.2794474   -3.3052787   -1.7735672  0.087107674   -3.3052787    1.5317115   550124 
 7334000    1.2802025   -3.3059337   -1.7733851  0.091177374   -3.3059337    1.5325487   550148 
 7335000    1.2807015   -3.3069029    -1.773743  0.086671726   -3.3069029    1.5331599   550143 
 7336000    1.2808339   -3.3071656   -1.7739197  0.089843842   -3.3071656     1.533246   550169 
 7337000    1.2798862   -3.3059016    -1.773843  0.089474669   -3.3059016    1.5320586   550188 
 7338000    1.2802511    -3.306948   -1.7744721  0.093941578    -3.306948    1.5324759   550195 
 7339000    1.2803568   -3.3083159    -1.775758  0.086691301   -3.3083159    1.5325579   550211 
 7340000    1.2797644   -3.3074954    -1.775655   0.09184078   -3.3074954    1.5318404   550214 
 7341000    1.2796063   -3.3073726   -1.7757103  0.089689034   -3.3073726    1.5316623   550210 
 7342000    1.2818961   -3.3094356   -1.7750771  0.084306049   -3.3094356    1.5343585   550226 
 7343000    1.2824292   -3.3115365    -1.776579  0.089403101   -3.3115365    1.5349576   550240 
 7344000    1.2816144   -3.3105978   -1.7766434  0.090141353   -3.3105978    1.5339544   550250 
 7345000    1.2811348   -3.3105388    -1.777189  0.091076541   -3.3105388    1.5333498   550261 
 7346000     1.281954   -3.3120303   -1.7777167   0.09083459   -3.3120303    1.5343135   550267 
 7347000     1.277419    -3.307775   -1.7789476  0.093775258    -3.307775    1.5288274   550288 
 7348000    1.2800007    -3.311468   -1.7795814  0.086756417    -3.311468    1.5318866   550299 
 7349000    1.2796715   -3.3107105   -1.7791706   0.08934515   -3.3107105    1.5315399   550282 
 7350000    1.2801062   -3.3105004   -1.7785014  0.094805693   -3.3105004     1.531999   550304 
 7351000     1.281546   -3.3116172   -1.7779649  0.085456127   -3.3116172    1.5336523   550329 
 7352000    1.2815301   -3.3125297   -1.7789465  0.090508274   -3.3125297    1.5335832   550347 
 7353000    1.2815834   -3.3125755   -1.7790205  0.089677715   -3.3125755     1.533555   550380 
 7354000    1.2825531   -3.3127212   -1.7780616  0.089403002   -3.3127212    1.5346596   550400 
 7355000    1.2824123   -3.3127157   -1.7782497   0.08590272   -3.3127157     1.534466   550409 
 7356000    1.2822879   -3.3131898     -1.77892  0.089511898   -3.3131898    1.5342698   550426 
 7357000    1.2821557   -3.3130731   -1.7790229  0.090107836   -3.3130731    1.5340502   550448 
 7358000    1.2811283   -3.3109065   -1.7780771  0.090216017   -3.3109065    1.5328294   550445 
 7359000    1.2808968   -3.3108064    -1.778293  0.090387768   -3.3108064    1.5325134   550459 
 7360000     1.281847   -3.3117736   -1.7781149  0.089372179   -3.3117736    1.5336587   550456 
 7361000    1.2810308   -3.3100262   -1.7773636  0.086776088   -3.3100262    1.5326626   550463 
 7362000    1.2804033   -3.3093256   -1.7774165  0.094329554   -3.3093256    1.5319092   550464 
 7363000    1.2811177   -3.3101992   -1.7774911  0.087521736   -3.3101992    1.5327081   550484 
 7364000    1.2785359   -3.3079708   -1.7784154  0.094114975   -3.3079708    1.5295554   550507 
 7365000     1.279607   -3.3087787   -1.7780086  0.086369943   -3.3087787    1.5307701   550531 
 7366000    1.2800327    -3.309468   -1.7782443  0.091026198    -3.309468    1.5312237   550551 
 7367000    1.2781288   -3.3092903   -1.7803525  0.086738678   -3.3092903    1.5289378   550554 
 7368000    1.2806833   -3.3103968   -1.7784617  0.083838752   -3.3103968    1.5319351   550575 
 7369000    1.2816729   -3.3111546   -1.7780774  0.084628543   -3.3111546    1.5330772   550590 
 7370000    1.2807625   -3.3100131    -1.778036  0.084679535   -3.3100131    1.5319771   550594 
 7371000    1.2814204   -3.3100749   -1.7773777  0.083938902   -3.3100749    1.5326972   550618 
 7372000    1.2778378   -3.3072469   -1.7788792  0.088998978   -3.3072469    1.5283677   550634 
 7373000    1.2792539   -3.3079664   -1.7779189  0.085474251   -3.3079664    1.5300474   550639 
 7374000    1.2791555    -3.306756   -1.7768484  0.088564852    -3.306756    1.5299076   550647 
 7375000    1.2807066   -3.3085588   -1.7768378  0.083615373   -3.3085588     1.531721   550662 
 7376000      1.27874   -3.3061703    -1.776768  0.087649596   -3.3061703    1.5294023   550650 
 7377000     1.279673   -3.3075361   -1.7770679  0.087648222   -3.3075361    1.5304682   550668 
 7378000    1.2799907   -3.3082199    -1.777394  0.081780486   -3.3082199    1.5308259   550676 
 7379000    1.2813915   -3.3090314   -1.7765748  0.082795289   -3.3090314    1.5324566   550692 
 7380000    1.2828099   -3.3109695   -1.7768667  0.084373613   -3.3109695    1.5341028   550710 
 7381000    1.2811279   -3.3107032   -1.7785952  0.082159442   -3.3107032     1.532108   550704 
 7382000    1.2799066   -3.3084206   -1.7778119  0.087312161   -3.3084206    1.5306086   550718 
 7383000    1.2809179   -3.3078004   -1.7760714  0.085003703   -3.3078004     1.531729   550750 
 7384000    1.2815169   -3.3082105   -1.7758181  0.093779873   -3.3082105    1.5323924   550769 
 7385000     1.282028    -3.310254   -1.7773173  0.086813695    -3.310254    1.5329367   550793 
 7386000    1.2818145   -3.3101107   -1.7774793  0.089215343   -3.3101107    1.5326314   550811 
 7387000    1.2811599   -3.3097531   -1.7779211  0.091897902   -3.3097531     1.531832   550817 
 7388000    1.2820069   -3.3109125   -1.7780955  0.088954075   -3.3109125    1.5328169   550827 
 7389000     1.280688   -3.3098372   -1.7786223  0.093873442   -3.3098372    1.5312149   550836 
 7390000    1.2824919   -3.3111291   -1.7778242  0.088252853   -3.3111291    1.5333049   550860 
 7391000    1.2811642    -3.311021    -1.779323   0.08534995    -3.311021    1.5316981   550867 
 7392000    1.2818161   -3.3120241   -1.7796163  0.090508644   -3.3120241    1.5324079   550892 
 7393000     1.280652   -3.3118093   -1.7808486  0.090304046   -3.3118093    1.5309607   550912 
 7394000    1.2803778   -3.3113561   -1.7807622   0.08823278   -3.3113561    1.5305939   550926 
 7395000    1.2823837   -3.3125199   -1.7796116    0.0869612   -3.3125199    1.5329084   550956 
 7396000    1.2824344   -3.3140987   -1.7811742  0.090296751   -3.3140987    1.5329245   550972 
 7397000    1.2810182   -3.3135377   -1.7823227  0.081392248   -3.3135377     1.531215   550978 
 7398000    1.2810361   -3.3120905   -1.7809292  0.091495553   -3.3120905    1.5311614   551005 
 7399000    1.2832761   -3.3142806   -1.7804837  0.090144647   -3.3142806     1.533797   551020 
 7400000    1.2820305   -3.3124526    -1.780136  0.087792834   -3.3124526    1.5323166   551017 
 7401000    1.2821437   -3.3126356    -1.780206  0.091101485   -3.3126356    1.5324296   551025 
 7402000    1.2820996   -3.3120257   -1.7797239  0.090197141   -3.3120257    1.5323018   551052 
 7403000    1.2808551   -3.3112505   -1.7804694  0.087729252   -3.3112505    1.5307811   551064 
 7404000    1.2813963   -3.3121221   -1.7806747  0.090725803   -3.3121221    1.5314474   551057 
 7405000    1.2824432     -3.31362    -1.780941  0.091001954     -3.31362    1.5326791   551064 
 7406000    1.2821804   -3.3131333   -1.7808351  0.085579071   -3.3131333    1.5322983   551088 
 7407000    1.2818101   -3.3126303    -1.780858  0.089020887   -3.3126303    1.5317723   551118 
 7408000    1.2815769   -3.3126763    -1.781191  0.085097808   -3.3126763    1.5314853   551121 
 7409000    1.2813797   -3.3120287   -1.7807763  0.085377003   -3.3120287    1.5312525   551120 
 7410000    1.2803793   -3.3114113   -1.7814182  0.087180815   -3.3114113    1.5299931   551143 
 7411000    1.2819867   -3.3122745    -1.780394  0.084635995   -3.3122745    1.5318805   551155 
 7412000    1.2820844   -3.3116418   -1.7796694  0.091634975   -3.3116418    1.5319723   551164 
 7413000    1.2815547   -3.3113808   -1.7801193  0.092426961   -3.3113808    1.5312615   551192 
 7414000    1.2824162   -3.3123237   -1.7800134  0.088950292   -3.3123237    1.5323104   551185 
 7415000    1.2811396   -3.3111936   -1.7804253  0.086623924   -3.3111936    1.5307683   551191 
 7416000    1.2830913   -3.3132347    -1.780126  0.081782877   -3.3132347    1.5331087   551188 
 7417000    1.2812722   -3.3112461   -1.7803361  0.084657137   -3.3112461    1.5309101   551197 
 7418000    1.2823636   -3.3117431   -1.7796095  0.085706002   -3.3117431    1.5321335   551226 
 7419000    1.2820032   -3.3109563   -1.7792894  0.089219046   -3.3109563    1.5316668   551239 
 7420000    1.2823566   -3.3119332   -1.7798608  0.091127342   -3.3119332    1.5320724   551245 
 7421000    1.2825853   -3.3123865   -1.7800631  0.080335253   -3.3123865    1.5323234   551253 
 7422000    1.2825582   -3.3114438   -1.7792195  0.091282215   -3.3114438    1.5322243   551277 
 7423000    1.2821927   -3.3120336   -1.7802932  0.083686393   -3.3120336    1.5317404   551294 
 7424000     1.279598   -3.3081027   -1.7795591   0.08819611   -3.3081027    1.5285437   551329 
 7425000    1.2808061   -3.3102129   -1.7802788  0.084784262   -3.3102129    1.5299341   551348 
 7426000    1.2818437   -3.3105204   -1.7793357  0.089159753   -3.3105204    1.5311846   551344 
 7427000     1.281138    -3.309974   -1.7797157  0.083096142    -3.309974    1.5302584   551374 
 7428000    1.2816678   -3.3113199   -1.7804954   0.09117551   -3.3113199    1.5308245   551398 
 7429000    1.2806648   -3.3107449   -1.7811682  0.088005107   -3.3107449    1.5295767   551416 
 7430000    1.2814231   -3.3114144   -1.7809709  0.090929656   -3.3114144    1.5304435   551430 
 7431000    1.2820548   -3.3116831    -1.780549  0.087546261   -3.3116831    1.5311341   551453 
 7432000    1.2826792   -3.3128719   -1.7810033  0.083189928   -3.3128719    1.5318686   551457 
 7433000    1.2831314   -3.3125191   -1.7801965  0.087528031   -3.3125191    1.5323226   551488 
 7434000    1.2849655    -3.314523   -1.7800324  0.090224064    -3.314523    1.5344906   551496 
 7435000    1.2828504   -3.3129885   -1.7810709   0.08802924   -3.3129885    1.5319176   551513 
 7436000    1.2821463   -3.3123613    -1.781354  0.087186277   -3.3123613    1.5310074   551538 
 7437000    1.2853617   -3.3161385   -1.7813779  0.093183531   -3.3161385    1.5347606   551569 
 7438000    1.2845982    -3.314894   -1.7810506  0.088370549    -3.314894    1.5338434   551571 
 7439000    1.2843419   -3.3152022   -1.7816704  0.093469815   -3.3152022    1.5335318   551573 
 7440000    1.2846143   -3.3152627   -1.7814724  0.094286622   -3.3152627    1.5337903   551597 
 7441000    1.2838785   -3.3141574   -1.7812595  0.087748195   -3.3141574    1.5328979   551602 
 7442000    1.2843246   -3.3163411   -1.7829328  0.088689762   -3.3163411    1.5334083   551610 
 7443000    1.2833995   -3.3151675   -1.7829165  0.086316494   -3.3151675     1.532251   551629 
 7444000     1.283572   -3.3159367   -1.7835019  0.086240036   -3.3159367    1.5324347   551637 
 7445000    1.2818882   -3.3141977   -1.7838231  0.091133544   -3.3141977    1.5303746   551655 
 7446000    1.2816535   -3.3141212   -1.7840685  0.086574681   -3.3141212    1.5300527   551670 
 7447000    1.2813086   -3.3133866   -1.7838066  0.089629097   -3.3133866      1.52958   551692 
 7448000    1.2827618   -3.3147648   -1.7835278  0.091173548   -3.3147648     1.531237   551720 
 7449000    1.2826558   -3.3143374   -1.7832186  0.085028889   -3.3143374    1.5311188   551717 
 7450000    1.2824733    -3.314576   -1.7837278  0.087271527    -3.314576    1.5308482   551736 
 7451000     1.282599   -3.3142605   -1.7832928  0.087261606   -3.3142605    1.5309678   551747 
 7452000    1.2821879   -3.3147475   -1.7843232  0.082957512   -3.3147475    1.5304243   551766 
 7453000    1.2824467      -3.3142   -1.7835499   0.08146428      -3.3142    1.5306501   551796 
 7454000    1.2820377   -3.3136112    -1.783527  0.089127553   -3.3136112    1.5300843   551824 
 7455000    1.2815877   -3.3121646   -1.7825925  0.086328362   -3.3121646    1.5295721   551815 
 7456000    1.2826715   -3.3139085   -1.7831344  0.080457988   -3.3139085    1.5307741   551848 
 7457000    1.2833503   -3.3125094   -1.7809141  0.090745032   -3.3125094    1.5315953   551844 
 7458000    1.2857666   -3.3145122   -1.7800805   0.08296149   -3.3145122    1.5344317   551861 
 7459000    1.2831426   -3.3122703   -1.7810366  0.089074568   -3.3122703    1.5312337   551885 
 7460000     1.283704   -3.3116222   -1.7798018  0.089544592   -3.3116222    1.5318204   551915 
 7461000    1.2852524   -3.3137784   -1.7801882  0.089471674   -3.3137784    1.5335902   551943 
 7462000    1.2837961   -3.3124185   -1.7805854  0.085820382   -3.3124185    1.5318331   551950 
 7463000    1.2833531   -3.3123836   -1.7811263  0.082368984   -3.3123836    1.5312573   551967 
 7464000    1.2814303    -3.309929   -1.7809492  0.090879896    -3.309929    1.5289798   551961 
 7465000    1.2826848   -3.3107005   -1.7802489  0.087413348   -3.3107005    1.5304516   551970 
 7466000    1.2846242   -3.3136896    -1.780974   0.08325706   -3.3136896    1.5327157   551988 
 7467000    1.2837655   -3.3137077   -1.7820332  0.082245618   -3.3137077    1.5316745   551994 
 7468000    1.2840016    -3.312345   -1.7803999  0.084813188    -3.312345    1.5319451   551998 
 7469000    1.2852071   -3.3139002   -1.7805501  0.085528495   -3.3139002      1.53335   552010 
 7470000    1.2839246   -3.3141063   -1.7823058   0.08736936   -3.3141063    1.5318005   552017 
 7471000    1.2832808   -3.3141336   -1.7831567  0.086999013   -3.3141336    1.5309769   552037 
 7472000    1.2813167   -3.3123532   -1.7837777   0.08729576   -3.3123532    1.5285756   552058 
 7473000    1.2827029   -3.3131312   -1.7829296  0.089242594   -3.3131312    1.5302016   552068 
 7474000    1.2844092   -3.3159839   -1.7837829  0.088401974   -3.3159839     1.532201   552081 
 7475000    1.2852781   -3.3169165     -1.78369  0.085083783   -3.3169165    1.5332264   552085 
 7476000    1.2827779   -3.3134259   -1.7832291  0.093029444   -3.3134259    1.5301968   552102 
 7477000    1.2849813    -3.317066   -1.7842992  0.079457258    -3.317066    1.5327668   552123 
 7478000    1.2829947   -3.3140954   -1.7837924  0.097153944   -3.3140954     1.530303   552157 
 7479000    1.2841176   -3.3150981   -1.7834947  0.087069152   -3.3150981    1.5316034   552171 
 7480000    1.2839719   -3.3149651    -1.783588  0.088445675   -3.3149651     1.531377   552190 
 7481000    1.2835021   -3.3135331   -1.7827193  0.091306496   -3.3135331    1.5308138   552191 
 7482000    1.2855085   -3.3175324   -1.7843728  0.082935356   -3.3175324    1.5331596   552208 
 7483000     1.284128   -3.3157307   -1.7842895  0.087357146   -3.3157307    1.5314411   552234 
 7484000    1.2843955     -3.31614   -1.7844436   0.08655581     -3.31614    1.5316964   552257 
 7485000    1.2842043   -3.3171021   -1.7856616  0.088037477   -3.3171021    1.5314406   552267 
 7486000    1.2852169   -3.3167585   -1.7841881  0.083512757   -3.3167585    1.5325704   552295 
 7487000    1.2845854   -3.3164972   -1.7847547  0.083700175   -3.3164972    1.5317425   552322 
 7488000    1.2840752   -3.3170111   -1.7858825  0.080947453   -3.3170111    1.5311286   552324 
 7489000    1.2839844   -3.3160309   -1.7850687  0.082064274   -3.3160309    1.5309621   552345 
 7490000    1.2836883   -3.3164838   -1.7859246  0.083775353   -3.3164838    1.5305592   552363 
 7491000    1.2848087   -3.3175558   -1.7856663  0.079617478   -3.3175558    1.5318896   552365 
 7492000    1.2831697   -3.3148522   -1.7849141  0.087515482   -3.3148522    1.5299381   552364 
 7493000    1.2829916   -3.3154371    -1.785714  0.085138658   -3.3154371     1.529723   552365 
 7494000    1.2846057   -3.3167629    -1.785157  0.089362812   -3.3167629    1.5316059   552380 
 7495000    1.2856877   -3.3165177   -1.7836967  0.091146681   -3.3165177     1.532821   552407 
 7496000    1.2843872   -3.3154738   -1.7842171  0.085641657   -3.3154738    1.5312567   552412 
 7497000    1.2848304   -3.3149412   -1.7831561  0.089243272   -3.3149412    1.5317851   552412 
 7498000     1.284126   -3.3144418   -1.7834882  0.084947393   -3.3144418    1.5309536   552409 
 7499000    1.2837073   -3.3132572    -1.782825   0.08913628   -3.3132572    1.5304322   552417 
 7500000     1.284261   -3.3141324   -1.7831065  0.082689902   -3.3141324    1.5310259   552441 
 7501000    1.2838277   -3.3140587   -1.7835826  0.087133961   -3.3140587    1.5304761   552453 
 7502000    1.2849779    -3.315789   -1.7839862  0.084933683    -3.315789    1.5318029   552469 
 7503000    1.2846857   -3.3154915   -1.7840508  0.086514017   -3.3154915    1.5314407   552474 
 7504000    1.2843506   -3.3149399   -1.7839263   0.08586033   -3.3149399    1.5310135   552484 
 7505000    1.2833899   -3.3132978     -1.78346  0.086199661   -3.3132978    1.5298378   552495 
 7506000    1.2829192   -3.3133582   -1.7840897  0.083818977   -3.3133582    1.5292685   552498 
 7507000    1.2810727   -3.3112553   -1.7842239  0.086256353   -3.3112553    1.5270314   552511 
 7508000    1.2828496   -3.3124632   -1.7833497  0.082504376   -3.3124632    1.5291135   552524 
 7509000    1.2848955   -3.3144896   -1.7829485  0.086655163   -3.3144896    1.5315411   552528 
 7510000     1.284275   -3.3132494   -1.7825033  0.088050962   -3.3132494    1.5307461   552548 
 7511000    1.2838645   -3.3135645    -1.783413  0.082393166   -3.3135645    1.5301516   552586 
 7512000    1.2846163   -3.3142728   -1.7832917  0.086806334   -3.3142728    1.5309811   552610 
 7513000    1.2834535   -3.3133334   -1.7837408  0.083543993   -3.3133334    1.5295925   552611 
 7514000    1.2845314   -3.3134251   -1.7825868  0.088023609   -3.3134251    1.5308383   552625 
 7515000    1.2815281   -3.3116036   -1.7843362  0.087450343   -3.3116036    1.5272675   552622 
 7516000    1.2841082   -3.3139167   -1.7836132  0.081384898   -3.3139167    1.5303035   552636 
 7517000    1.2841582   -3.3138599   -1.7835771  0.092964905   -3.3138599    1.5302828   552665 
 7518000    1.2825734   -3.3131341   -1.7847979    0.0880323   -3.3131341    1.5283362   552686 
 7519000    1.2844551   -3.3140415   -1.7834963  0.084326753   -3.3140415    1.5305452   552698 
 7520000    1.2845571   -3.3145409   -1.7838548  0.089144076   -3.3145409    1.5306861   552691 
 7521000    1.2853322   -3.3167761   -1.7851885   0.08884345   -3.3167761    1.5315876   552699 
 7522000    1.2827557   -3.3149095   -1.7863892   0.08979786   -3.3149095    1.5285202   552698 
 7523000    1.2842358   -3.3150611   -1.7847938    0.0890581   -3.3150611    1.5302673   552704 
 7524000    1.2842288   -3.3161887   -1.7859407  0.087090095   -3.3161887    1.5302479   552708 
 7525000    1.2829292   -3.3145535    -1.785951  0.086195442   -3.3145535    1.5286025   552743 
 7526000    1.2842393   -3.3159024   -1.7857971  0.083376007   -3.3159024    1.5301053   552764 
 7527000     1.283717   -3.3149104   -1.7854771  0.087496469   -3.3149104    1.5294333   552782 
 7528000     1.283567   -3.3161014   -1.7868524  0.087707961   -3.3161014     1.529249   552784 
 7529000    1.2837624   -3.3159169   -1.7864987  0.082967228   -3.3159169    1.5294182   552807 
 7530000    1.2852862   -3.3194161   -1.7882767  0.083260015   -3.3194161    1.5311394   552841 
 7531000    1.2835589   -3.3186259   -1.7895913  0.087566845   -3.3186259    1.5290346   552858 
 7532000    1.2840931   -3.3181546   -1.7885139  0.086673635   -3.3181546    1.5296407   552869 
 7533000    1.2856011   -3.3200286   -1.7886553  0.083659271   -3.3200286    1.5313733   552892 
 7534000    1.2825432   -3.3171332    -1.789408  0.090525985   -3.3171332    1.5277253   552894 
 7535000    1.2865356   -3.3210413   -1.7885937  0.087200782   -3.3210413    1.5324476   552906 
 7536000    1.2848781   -3.3200222   -1.7896126  0.084286343   -3.3200222    1.5304096   552929 
 7537000    1.2842601   -3.3181355   -1.7885394   0.08920668   -3.3181355    1.5295961   552957 
 7538000    1.2834074   -3.3183813   -1.7898147  0.088084125   -3.3183813    1.5285667   552962 
 7539000    1.2843344   -3.3196722   -1.7900982  0.082902262   -3.3196722     1.529574   552997 
 7540000    1.2872952   -3.3225279   -1.7894611  0.083816247   -3.3225279    1.5330668   553009 
 7541000    1.2859752   -3.3218704   -1.7904282  0.086452066   -3.3218704    1.5314422   553028 
 7542000    1.2845195   -3.3205183   -1.7908014  0.084013948   -3.3205183    1.5297169   553025 
 7543000    1.2843359   -3.3205559   -1.7910382  0.085968081   -3.3205559    1.5295176   553018 
 7544000    1.2866016   -3.3229836   -1.7908647  0.085622304   -3.3229836    1.5321189   553053 
 7545000    1.2841533   -3.3211233   -1.7920222   0.08517711   -3.3211233    1.5291011   553090 
 7546000    1.2841296   -3.3215839   -1.7925553  0.083972808   -3.3215839    1.5290286   553106 
 7547000    1.2825385   -3.3194087   -1.7922526  0.087154182   -3.3194087    1.5271561   553098 
 7548000    1.2837816   -3.3208685   -1.7922708  0.078869964   -3.3208685    1.5285977   553112 
 7549000    1.2860243   -3.3217923   -1.7905519   0.08872207   -3.3217923    1.5312403   553122 
 7550000    1.2853145   -3.3213265   -1.7909562  0.088221037   -3.3213265    1.5303703   553131 
 7551000    1.2837758   -3.3199412   -1.7913974  0.088573995   -3.3199412    1.5285438   553129 
 7552000    1.2835082   -3.3189795   -1.7907875   0.08711124   -3.3189795     1.528192   553141 
 7553000    1.2860084   -3.3220054   -1.7908698  0.078580088   -3.3220054    1.5311356   553153 
 7554000    1.2854887   -3.3221611   -1.7916608  0.085744343   -3.3221611    1.5305003   553159 
 7555000    1.2835479   -3.3198696   -1.7916938  0.086572074   -3.3198696    1.5281758   553164 
 7556000    1.2853327    -3.321447   -1.7911823  0.088802526    -3.321447    1.5302647   553177 
 7557000    1.2859889   -3.3217654   -1.7906862  0.090724908   -3.3217654    1.5310792   553165 
 7558000    1.2859775   -3.3230648   -1.7920158  0.087122306   -3.3230648     1.531049   553171 
 7559000    1.2845122   -3.3216745   -1.7924087   0.08793402   -3.3216745    1.5292658   553185 
 7560000    1.2843602   -3.3211275   -1.7920814  0.084923777   -3.3211275    1.5290461   553199 
 7561000     1.286958   -3.3239109   -1.7918247  0.085889599   -3.3239109    1.5320862   553218 
 7562000    1.2863137   -3.3224289   -1.7911484  0.084117035   -3.3224289    1.5312805   553232 
 7563000    1.2834242   -3.3200391   -1.7922289  0.093433948   -3.3200391    1.5278102   553243 
 7564000    1.2870966   -3.3229899    -1.790855  0.088113511   -3.3229899    1.5321349   553260 
 7565000     1.285993   -3.3209545   -1.7901332  0.091270924   -3.3209545    1.5308212   553260 
 7566000    1.2865219   -3.3212158   -1.7898592  0.089516676   -3.3212158    1.5313567   553294 
 7567000    1.2846182   -3.3198204   -1.7907574  0.090577058   -3.3198204     1.529063   553304 
 7568000     1.284884   -3.3215106   -1.7921698  0.082223182   -3.3215106    1.5293408   553318 
 7569000    1.2852024   -3.3226397   -1.7929449  0.088644412   -3.3226397    1.5296948   553327 
 7570000    1.2854462   -3.3222658   -1.7923112  0.085532036   -3.3222658    1.5299546   553338 
 7571000    1.2861483   -3.3227014   -1.7919527  0.087639839   -3.3227014    1.5307487   553353 
 7572000    1.2851627   -3.3218328   -1.7922738   0.08368483   -3.3218328    1.5295591   553359 
 7573000    1.2852875   -3.3223649   -1.7927346  0.084225183   -3.3223649    1.5296303   553387 
 7574000    1.2855185    -3.323021   -1.7931463  0.081552712    -3.323021    1.5298747   553398 
 7575000    1.2859199   -3.3223214   -1.7920243  0.087605339   -3.3223214    1.5302971   553418 
 7576000    1.2859118   -3.3229158   -1.7926283  0.087650369   -3.3229158    1.5302875   553418 
 7577000    1.2851635   -3.3215238   -1.7921931   0.08497182   -3.3215238    1.5293307   553442 
 7578000     1.283436   -3.3191448   -1.7919195  0.087887364   -3.3191448    1.5272253   553460 
 7579000    1.2860601   -3.3213232   -1.7910389  0.090467024   -3.3213232    1.5302843   553483 
 7580000    1.2853672   -3.3210277   -1.7916094  0.090760309   -3.3210277    1.5294183   553498 
 7581000    1.2858881   -3.3217682   -1.7917577  0.085380747   -3.3217682    1.5300105   553508 
 7582000    1.2849322   -3.3208409   -1.7919816   0.09082654   -3.3208409    1.5288593   553513 
 7583000    1.2851644   -3.3209053   -1.7918609  0.089811747   -3.3209053    1.5290444   553546 
 7584000    1.2880927   -3.3235003   -1.7909801  0.083703564   -3.3235003    1.5325202   553549 
 7585000    1.2857511   -3.3210007   -1.7912914  0.083380602   -3.3210007    1.5297093   553558 
 7586000    1.2837017   -3.3186286   -1.7913851  0.088785805   -3.3186286    1.5272435   553568 
 7587000    1.2854923   -3.3208766   -1.7915138  0.085875811   -3.3208766    1.5293628   553572 
 7588000    1.2855323   -3.3192659   -1.7898473  0.087967362   -3.3192659    1.5294186   553569 
 7589000    1.2855919   -3.3201898   -1.7906948  0.086169576   -3.3201898     1.529495   553567 
 7590000    1.2849777   -3.3184841   -1.7897558  0.096485971   -3.3184841    1.5287283   553580 
 7591000    1.2865158   -3.3202997   -1.7897358   0.08784768   -3.3202997    1.5305638   553578 
 7592000    1.2867199   -3.3198836   -1.7890964   0.09000766   -3.3198836    1.5307872   553585 
 7593000    1.2862024   -3.3199784   -1.7897764  0.086701708   -3.3199784     1.530202   553574 
 7594000    1.2857601   -3.3196507   -1.7900219  0.085801567   -3.3196507    1.5296288   553591 
 7595000    1.2847787   -3.3187338   -1.7902726  0.085123934   -3.3187338    1.5284613   553591 
 7596000    1.2848424   -3.3182788   -1.7897583  0.092438013   -3.3182788    1.5285205   553597 
 7597000    1.2862317   -3.3192726   -1.7891241  0.089995437   -3.3192726    1.5301484   553606 
 7598000    1.2860352   -3.3196365   -1.7897136  0.089933126   -3.3196365    1.5299229   553603 
 7599000    1.2856007   -3.3185288   -1.7891365  0.083115608   -3.3185288    1.5293922   553608 
 7600000    1.2851141   -3.3190659   -1.7902885  0.086435762   -3.3190659    1.5287774   553621 
 7601000    1.2857531   -3.3197657    -1.790253  0.082141391   -3.3197657    1.5295127   553630 
 7602000    1.2847767   -3.3202414   -1.7919592  0.086891766   -3.3202414    1.5282822   553655 
 7603000    1.2864682   -3.3214301   -1.7911579  0.085848089   -3.3214301    1.5302722   553663 
 7604000    1.2850372   -3.3209198   -1.7923581  0.081710913   -3.3209198    1.5285617   553666 
 7605000    1.2868213   -3.3222605   -1.7916429  0.088889258   -3.3222605    1.5306176   553690 
 7606000    1.2859376   -3.3219326   -1.7923883  0.082719032   -3.3219326    1.5295443   553698 
 7607000    1.2849092    -3.320343   -1.7920467  0.079492256    -3.320343    1.5282963   553707 
 7608000    1.2852704   -3.3202578   -1.7915512  0.079162957   -3.3202578    1.5287066   553714 
 7609000    1.2849624   -3.3199933   -1.7916696  0.084714692   -3.3199933    1.5283237   553720 
 7610000    1.2842518   -3.3202005   -1.7927523  0.085433489   -3.3202005    1.5274481   553731 
 7611000    1.2841197   -3.3200503    -1.792809  0.087625384   -3.3200503    1.5272414   553749 
 7612000    1.2861982   -3.3220286    -1.792318   0.08029334   -3.3220286    1.5297106   553750 
 7613000     1.286533   -3.3222791   -1.7922006  0.079827959   -3.3222791    1.5300785   553761 
 7614000     1.287231   -3.3228467   -1.7919962   0.08496962   -3.3228467    1.5308505   553782 
 7615000    1.2871457   -3.3225022   -1.7917946   0.08799308   -3.3225022    1.5307077   553797 
 7616000    1.2858853   -3.3221211   -1.7930035  0.088399365   -3.3221211    1.5291176   553830 
 7617000    1.2878364   -3.3239973    -1.792648  0.086647872   -3.3239973    1.5313493   553862 
 7618000    1.2880969   -3.3256184   -1.7940174    0.0824635   -3.3256184     1.531601   553883 
 7619000    1.2882246   -3.3238358   -1.7921189  0.082695774   -3.3238358    1.5317169   553896 
 7620000    1.2888312   -3.3245672   -1.7921042  0.090949245   -3.3245672     1.532463   553887 
 7621000     1.287853   -3.3245965   -1.7932882   0.08969507   -3.3245965    1.5313082   553884 
 7622000    1.2887308   -3.3250455   -1.7927296  0.086138668   -3.3250455    1.5323159   553897 
 7623000     1.287309   -3.3245072   -1.7939315  0.086028164   -3.3245072    1.5305756   553915 
 7624000    1.2871193   -3.3242234   -1.7938567  0.081848267   -3.3242234    1.5303667   553909 
 7625000     1.286538   -3.3240344   -1.7944141  0.091913172   -3.3240344    1.5296203   553929 
 7626000    1.2878248   -3.3248577   -1.7937627  0.092111187   -3.3248577     1.531095   553949 
 7627000    1.2865543   -3.3230243   -1.7934785  0.090577862   -3.3230243    1.5295458   553963 
 7628000    1.2864798   -3.3237791   -1.7943992  0.084849305   -3.3237791    1.5293799   553991 
 7629000    1.2876233   -3.3249802   -1.7942878  0.084275487   -3.3249802    1.5306924   554008 
 7630000    1.2891723   -3.3267525   -1.7942933  0.087842567   -3.3267525    1.5324592   554035 
 7631000    1.2891312   -3.3260098   -1.7936162  0.089361317   -3.3260098    1.5323937   554041 
 7632000    1.2880456   -3.3249245   -1.7938572  0.088835556   -3.3249245    1.5310673   554054 
 7633000    1.2884992   -3.3265959   -1.7949646  0.082889293   -3.3265959    1.5316313   554045 
 7634000    1.2881993     -3.32618   -1.7949355  0.082241149     -3.32618    1.5312445   554056 
 7635000    1.2880035   -3.3244747   -1.7934906  0.088235979   -3.3244747     1.530984   554066 
 7636000    1.2900119   -3.3278163    -1.794456  0.086259528   -3.3278163    1.5333603   554070 
 7637000    1.2893666   -3.3271945    -1.794676  0.083807049   -3.3271945    1.5325185   554097 
 7638000    1.2876223   -3.3254565   -1.7950581  0.089316056   -3.3254565    1.5303983   554114 
 7639000    1.2875981   -3.3250319   -1.7946512  0.089403221   -3.3250319    1.5303807   554110 
 7640000    1.2875377   -3.3242211   -1.7938983  0.081813672   -3.3242211    1.5303227   554105 
 7641000    1.2890135   -3.3258616   -1.7937351  0.088314965   -3.3258616    1.5321265   554087 
 7642000    1.2885857    -3.324732   -1.7931444  0.089472047    -3.324732    1.5315876   554098 
 7643000    1.2868873   -3.3217498   -1.7922498  0.088396829   -3.3217498       1.5295   554123 
 7644000    1.2895637   -3.3259407    -1.793246  0.087880748   -3.3259407    1.5326948   554118 
 7645000     1.286722   -3.3230577   -1.7937873  0.085523554   -3.3230577    1.5292703   554135 
 7646000    1.2881316   -3.3244656   -1.7935972   0.08851057   -3.3244656    1.5308683   554163 
 7647000    1.2862914   -3.3231164   -1.7944819  0.088588606   -3.3231164    1.5286345   554180 
 7648000    1.2877423   -3.3256541   -1.7953339  0.091968599   -3.3256541    1.5303201   554194 
 7649000    1.2867828   -3.3236683   -1.7945132  0.089007926   -3.3236683     1.529155   554203 
 7650000     1.287153   -3.3248143   -1.7953049  0.083628678   -3.3248143    1.5295094   554234 
 7651000    1.2867933   -3.3244015   -1.7952672  0.082795817   -3.3244015    1.5291343   554215 
 7652000    1.2875041   -3.3245038      -1.7945  0.087355334   -3.3245038    1.5300039   554206 
 7653000    1.2877972   -3.3247833   -1.7945057  0.089306026   -3.3247833    1.5302776   554233 
 7654000     1.288352    -3.326518   -1.7956557  0.082797645    -3.326518    1.5308623   554260 
 7655000    1.2868409   -3.3247219   -1.7956716  0.084049668   -3.3247219    1.5290503   554266 
 7656000    1.2865025   -3.3241128   -1.7955474  0.086466117   -3.3241128    1.5285654   554296 
 7657000    1.2846248   -3.3224917    -1.796218  0.091485563   -3.3224917    1.5262738   554318 
 7658000    1.2847816   -3.3222317   -1.7957881  0.093287657   -3.3222317    1.5264436   554324 
 7659000    1.2862936   -3.3245621   -1.7963608  0.082680072   -3.3245621    1.5282013   554338 
 7660000     1.285731   -3.3237702   -1.7962868  0.084465743   -3.3237702    1.5274834   554356 
 7661000    1.2867396    -3.323223   -1.7945469   0.08970354    -3.323223    1.5286761   554358 
 7662000    1.2856456   -3.3217303   -1.7943539  0.085731586   -3.3217303    1.5273764   554358 
 7663000    1.2869455   -3.3227551   -1.7938896  0.086595432   -3.3227551    1.5288655   554378 
 7664000     1.287252    -3.323352   -1.7941775  0.093625681    -3.323352    1.5291746   554398 
 7665000    1.2886147   -3.3242059   -1.7934705  0.088176482   -3.3242059    1.5307353   554419 
 7666000    1.2878427   -3.3230394   -1.7933039  0.087438195   -3.3230394    1.5297355   554449 
 7667000    1.2875484   -3.3234093   -1.7940731  0.089362762   -3.3234093    1.5293362   554467 
 7668000    1.2883685   -3.3252571   -1.7949964  0.086541907   -3.3252571    1.5302607   554485 
 7669000    1.2887152   -3.3256088   -1.7949584  0.084663947   -3.3256088    1.5306504   554493 
 7670000    1.2878919   -3.3239752   -1.7942943  0.087477521   -3.3239752    1.5296809   554490 
 7671000    1.2882384   -3.3239926   -1.7939113  0.085614968   -3.3239926    1.5300813   554494 
 7672000    1.2883183   -3.3249023   -1.7947564  0.081417969   -3.3249023    1.5301458   554505 
 7673000    1.2871994    -3.324071   -1.7952431  0.084879101    -3.324071     1.528828   554501 
 7674000    1.2889142   -3.3259561   -1.7950942  0.093092415   -3.3259561    1.5308619   554502 
 7675000    1.2869481   -3.3241859    -1.795684    0.0859319   -3.3241859    1.5285019   554511 
 7676000    1.2886889   -3.3251522   -1.7945827  0.087240051   -3.3251522    1.5305695   554511 
 7677000    1.2883693   -3.3248741   -1.7947394  0.086067555   -3.3248741    1.5301347   554531 
 7678000    1.2897408    -3.324914    -1.793167  0.081929364    -3.324914     1.531747   554537 
 7679000    1.2882081   -3.3237454   -1.7938159  0.086962246   -3.3237454    1.5299295   554536 
 7680000    1.2890972   -3.3253697   -1.7944147  0.083639851   -3.3253697     1.530955   554547 
 7681000    1.2872621   -3.3224936   -1.7936959  0.080631375   -3.3224936    1.5287977   554539 
 7682000       1.2886     -3.32571    -1.795362  0.083753208     -3.32571     1.530348   554553 
 7683000    1.2881453   -3.3249355   -1.7951495   0.08974339   -3.3249355     1.529786   554561 
 7684000    1.2880161   -3.3245957   -1.7950322  0.092434858   -3.3245957    1.5295635   554586 
 7685000    1.2899445   -3.3261641   -1.7943244  0.082823509   -3.3261641    1.5318397   554591 
 7686000    1.2892006   -3.3252107   -1.7942847  0.087887377   -3.3252107     1.530926   554602 
 7687000    1.2873288   -3.3237891   -1.7951244  0.089060767   -3.3237891    1.5286647   554616 
 7688000    1.2892194   -3.3261804   -1.7953204  0.083020645   -3.3261804      1.53086   554634 
 7689000    1.2862216   -3.3250898   -1.7978198  0.081273843   -3.3250898      1.52727   554645 
 7690000    1.2866195   -3.3260847   -1.7983697  0.083736154   -3.3260847     1.527715   554655 
 7691000    1.2881429   -3.3275708   -1.7980745  0.082500872   -3.3275708    1.5294963   554665 
 7692000    1.2874294   -3.3263893   -1.7977513  0.091738543   -3.3263893     1.528638   554669 
 7693000    1.2870228   -3.3267115   -1.7986113  0.088346806   -3.3267115    1.5281002   554689 
 7694000    1.2880923   -3.3288277   -1.7994853  0.083220405   -3.3288277    1.5293424   554699 
 7695000    1.2879197   -3.3285199   -1.7994127  0.086321139   -3.3285199    1.5291072   554710 
 7696000    1.2865211   -3.3270573    -1.799707  0.081746552   -3.3270573    1.5273503   554745 
 7697000    1.2875971   -3.3281293   -1.7995649  0.083212946   -3.3281293    1.5285644   554768 
 7698000    1.2864203   -3.3262398   -1.7991166  0.086878895   -3.3262398    1.5271232   554784 
 7699000    1.2869047   -3.3269031   -1.7992461  0.079978263   -3.3269031     1.527657   554799 
 7700000    1.2876192   -3.3278649   -1.7993872   0.08373518   -3.3278649    1.5284776   554809 
 7701000     1.287408   -3.3275152   -1.7993131  0.088775719   -3.3275152    1.5282021   554818 
 7702000    1.2865623   -3.3279203   -1.8007744  0.093982119   -3.3279203    1.5271459   554837 
 7703000    1.2876382   -3.3292432   -1.8009055  0.086020296   -3.3292432    1.5283377   554868 
 7704000    1.2892868   -3.3306725   -1.8004774  0.086345147   -3.3306725    1.5301951   554904 
 7705000    1.2882369   -3.3302914   -1.8014168  0.080710087   -3.3302914    1.5288746   554931 
 7706000    1.2893491   -3.3308493   -1.8006491  0.085855704   -3.3308493    1.5302002   554929 
 7707000    1.2878746   -3.3290261   -1.8006641  0.088414493   -3.3290261     1.528362   554961 
 7708000    1.2872297    -3.328477   -1.8009078  0.086803975    -3.328477    1.5275692   554971 
 7709000    1.2881799   -3.3292395   -1.8005977  0.087091001   -3.3292395    1.5286418   554991 
 7710000    1.2867596   -3.3272636   -1.8003788  0.093695717   -3.3272636    1.5268848   555017 
 7711000    1.2877814   -3.3276805    -1.799597   0.08990218   -3.3276805    1.5280835   555022 
 7712000    1.2873368   -3.3280725   -1.8005909  0.086049918   -3.3280725    1.5274816   555049 
 7713000    1.2873313   -3.3284697   -1.8009973  0.083995877   -3.3284697    1.5274724   555050 
 7714000    1.2866345   -3.3275658   -1.8009725  0.086034949   -3.3275658    1.5265933   555069 
 7715000    1.2869293   -3.3278473   -1.8009592  0.091210238   -3.3278473    1.5268881   555089 
 7716000    1.2885078   -3.3314941   -1.8027222  0.087535349   -3.3314941    1.5287719   555085 
 7717000    1.2871233   -3.3296683   -1.8025886  0.088193968   -3.3296683    1.5270797   555103 
 7718000    1.2868977   -3.3290771    -1.802265  0.087158081   -3.3290771    1.5268121   555103 
 7719000    1.2868658   -3.3285981   -1.8018459  0.083273229   -3.3285981    1.5267522   555111 
 7720000    1.2876706   -3.3289627   -1.8013052  0.085385795   -3.3289627    1.5276575   555129 
 7721000     1.288115   -3.3288953   -1.8007325  0.084842087   -3.3288953    1.5281627   555137 
 7722000    1.2895432   -3.3303871   -1.8005851  0.085087667   -3.3303871    1.5298019   555157 
 7723000    1.2877459   -3.3290015   -1.8013538  0.088177685   -3.3290015    1.5276477   555165 
 7724000    1.2888286   -3.3290833   -1.8001621  0.082888279   -3.3290833    1.5289212   555169 
 7725000    1.2895566   -3.3298524    -1.800131  0.090039737   -3.3298524    1.5297214   555192 
 7726000    1.2892873   -3.3293004   -1.7999535  0.090766592   -3.3293004    1.5293469   555212 
 7727000    1.2886569    -3.328098    -1.799576  0.087867939    -3.328098     1.528522   555240 
 7728000    1.2870046   -3.3267618   -1.8002437  0.088291723   -3.3267618    1.5265181   555256 
 7729000    1.2873679   -3.3275607   -1.8006474    0.0833272   -3.3275607    1.5269134   555269 
 7730000    1.2875533   -3.3284274   -1.8013134  0.081863293   -3.3284274    1.5271139   555276 
 7731000    1.2863052   -3.3281254    -1.802533  0.080958627   -3.3281254    1.5255925   555291 
 7732000    1.2868352   -3.3285612   -1.8023676  0.084776868   -3.3285612    1.5261935   555301 
 7733000     1.287593   -3.3281266   -1.8010454  0.083044263   -3.3281266    1.5270812   555305 
 7734000    1.2859936   -3.3261467   -1.8010173  0.086936953   -3.3261467    1.5251295   555325 
 7735000    1.2879694   -3.3271927   -1.7997117  0.080849498   -3.3271927     1.527481   555322 
 7736000    1.2875635   -3.3266282   -1.7996341  0.083011587   -3.3266282    1.5269941   555324 
 7737000     1.287401   -3.3259549   -1.7991976  0.082078271   -3.3259549    1.5267573   555340 
 7738000    1.2876208   -3.3267242   -1.7997254  0.082716331   -3.3267242    1.5269988   555347 
 7739000     1.289876   -3.3294543   -1.7998223  0.085828234   -3.3294543    1.5296319   555362 
 7740000    1.2883207   -3.3277999   -1.8000949  0.089595844   -3.3277999     1.527705   555392 
 7741000    1.2866991   -3.3262489   -1.8005135   0.09188923   -3.3262489    1.5257354   555409 
 7742000     1.289534   -3.3295204   -1.8004702  0.093807405   -3.3295204    1.5290502   555426 
 7743000    1.2903441   -3.3302198   -1.8002201  0.081038789   -3.3302198    1.5299997   555430 
 7744000    1.2873644   -3.3266002   -1.8001474   0.09621637   -3.3266002    1.5264529   555435 
 7745000    1.2893685   -3.3300323   -1.8012087  0.083736094   -3.3300323    1.5288236   555437 
 7746000    1.2890271   -3.3289203   -1.8005428  0.092587846   -3.3289203    1.5283775   555452 
 7747000    1.2883993   -3.3291178   -1.8014764  0.083056553   -3.3291178    1.5276414   555449 
 7748000    1.2876813   -3.3280716   -1.8013008  0.087646357   -3.3280716    1.5267708   555456 
 7749000    1.2882296   -3.3290748    -1.801706  0.089000638   -3.3290748    1.5273687   555475 
 7750000    1.2875845   -3.3291504    -1.802585  0.081554675   -3.3291504    1.5265654   555489 
 7751000     1.288103   -3.3288724   -1.8016702  0.092842685   -3.3288724    1.5272021   555481 
 7752000    1.2873886   -3.3293724   -1.8030229   0.08093352   -3.3293724    1.5263496   555483 
 7753000    1.2882652   -3.3303741   -1.8030127   0.08557264   -3.3303741    1.5273614   555493 
 7754000    1.2887669   -3.3302519   -1.8023451  0.081733067   -3.3302519    1.5279068   555511 
 7755000    1.2890228   -3.3312222   -1.8030038   0.08944636   -3.3312222    1.5282184   555508 
 7756000    1.2896724   -3.3322737   -1.8033568  0.089434693   -3.3322737    1.5289169   555534 
 7757000    1.2889763   -3.3298888   -1.8018218  0.084224784   -3.3298888     1.528067   555543 
 7758000    1.2901435    -3.330925   -1.8014853  0.084099414    -3.330925    1.5294397   555547 
 7759000    1.2872424   -3.3290957     -1.80312  0.091074248   -3.3290957    1.5259757   555556 
 7760000      1.28918   -3.3311454   -1.8029387  0.084163134   -3.3311454    1.5282067   555580 
 7761000    1.2898177   -3.3305314   -1.8015963  0.082638232   -3.3305314    1.5289351   555590 
 7762000    1.2901701   -3.3316748   -1.8023854  0.083473313   -3.3316748    1.5292894   555613 
 7763000    1.2888377   -3.3306685   -1.8030161  0.088956055   -3.3306685    1.5276524   555634 
 7764000    1.2874746   -3.3292694   -1.8032382  0.089721458   -3.3292694    1.5260312   555636 
 7765000    1.2882208   -3.3304145   -1.8035043  0.086448936   -3.3304145    1.5269102   555638 
 7766000    1.2888791   -3.3311533   -1.8035206  0.079499643   -3.3311533    1.5276327   555659 
 7767000    1.2870546   -3.3290854   -1.8036673  0.092295654   -3.3290854    1.5254181   555678 
 7768000    1.2886811   -3.3308401   -1.8034832  0.085144089   -3.3308401    1.5273569   555674 
 7769000    1.2892955   -3.3308445    -1.802842  0.089902546   -3.3308445    1.5280025   555704 
 7770000    1.2895435   -3.3311232    -1.802846  0.086742128   -3.3311232    1.5282773   555711 
 7771000    1.2914919   -3.3332374   -1.8026731  0.083141851   -3.3332374    1.5305643   555719 
 7772000    1.2900077   -3.3309565   -1.8022007  0.085437797   -3.3309565    1.5287558   555737 
 7773000    1.2887136   -3.3303662   -1.8032126    0.0874872   -3.3303662    1.5271536   555762 
 7774000    1.2884798   -3.3310616   -1.8042483  0.085765232   -3.3310616    1.5268133   555785 
 7775000    1.2882701   -3.3289755   -1.8024273  0.090850122   -3.3289755    1.5265482   555791 
 7776000    1.2887545   -3.3298291   -1.8027205   0.08503077   -3.3298291    1.5271086   555796 
 7777000    1.2901625   -3.3305084   -1.8017672  0.088663174   -3.3305084    1.5287412   555809 
 7778000    1.2897858   -3.3298033   -1.8015854  0.087277944   -3.3298033    1.5282178   555837 
 7779000    1.2908641   -3.3312713   -1.8017841  0.085871097   -3.3312713    1.5294872   555840 
 7780000    1.2898182   -3.3311112    -1.802965   0.08680904   -3.3311112    1.5281463   555877 
 7781000    1.2909868    -3.331041   -1.8015432  0.089868156    -3.331041    1.5294978   555889 
 7782000    1.2910957   -3.3310962   -1.8015052  0.085685086   -3.3310962     1.529591   555902 
 7783000    1.2908138    -3.330906   -1.8016571  0.081596964    -3.330906    1.5292489   555905 
 7784000    1.2902554   -3.3306793   -1.8021636   0.09327103   -3.3306793    1.5285157   555931 
 7785000    1.2906902   -3.3309959    -1.802009  0.085396259   -3.3309959    1.5289869   555947 
 7786000    1.2933328   -3.3330782   -1.8009911  0.085975878   -3.3330782    1.5320871   555958 
 7787000    1.2916845   -3.3298885   -1.7997926  0.088012369   -3.3298885    1.5300959   555972 
 7788000    1.2916653   -3.3311973   -1.8011186  0.087568076   -3.3311973    1.5300787   555970 
 7789000    1.2926514   -3.3320774   -1.8008608  0.084083628   -3.3320774    1.5312165   555981 
 7790000    1.2911121   -3.3306062   -1.8012516  0.084523836   -3.3306062    1.5293546   555995 
 7791000    1.2910644   -3.3303787   -1.8010916  0.090028161   -3.3303787    1.5292871   555999 
 7792000    1.2902869   -3.3305412   -1.8022053  0.084416008   -3.3305412     1.528336   556010 
 7793000    1.2903191   -3.3303669   -1.8019847  0.086750322   -3.3303669    1.5283823   556007 
 7794000     1.291529   -3.3319585   -1.8021817  0.091832663   -3.3319585    1.5297769   556021 
 7795000    1.2903015   -3.3313847   -1.8030727  0.086321305   -3.3313847     1.528312   556025 
 7796000    1.2889703   -3.3299646   -1.8032678  0.086204711   -3.3299646    1.5266968   556039 
 7797000    1.2909439    -3.331877   -1.8028756  0.088557693    -3.331877    1.5290014   556051 
 7798000    1.2916725   -3.3332766   -1.8034866  0.091427674   -3.3332766      1.52979   556078 
 7799000    1.2912856   -3.3319069   -1.8026494  0.088106735   -3.3319069    1.5292576   556105 
 7800000    1.2909215   -3.3312681   -1.8024417   0.08652106   -3.3312681    1.5288264   556105 
 7801000    1.2906208   -3.3307103   -1.8022758  0.090510051   -3.3307103    1.5284345   556118 
 7802000     1.291043   -3.3315972   -1.8027094  0.082058515   -3.3315972    1.5288878   556135 
 7803000    1.2913127   -3.3325836   -1.8033819   0.08640228   -3.3325836    1.5292017   556137 
 7804000     1.289322   -3.3308051   -1.8039746  0.085626771   -3.3308051    1.5268306   556142 
 7805000    1.2901603   -3.3324263   -1.8046497  0.090340178   -3.3324263    1.5277766   556159 
 7806000    1.2908861   -3.3336286   -1.8050255  0.082865727   -3.3336286    1.5286031   556171 
 7807000    1.2892346   -3.3319858    -1.805385  0.091999159   -3.3319858    1.5266008   556188 
 7808000    1.2913747   -3.3330065   -1.8038909  0.084285972   -3.3330065    1.5291157   556195 
 7809000    1.2921848   -3.3332928   -1.8033143  0.088484163   -3.3332928    1.5299785   556230 
 7810000    1.2910714   -3.3319612   -1.8033394  0.089977659   -3.3319612    1.5286218   556244 
 7811000    1.2926867   -3.3332571   -1.8027447  0.087350984   -3.3332571    1.5305124   556252 
 7812000    1.2934226   -3.3325758   -1.8012446  0.092112661   -3.3325758    1.5313313   556271 
 7813000    1.2924288   -3.3327778   -1.8026671  0.084671564   -3.3327778    1.5301107   556287 
 7814000    1.2934124   -3.3343397   -1.8031195  0.095523877   -3.3343397    1.5312201   556307 
 7815000    1.2923609    -3.334266   -1.8043457  0.087700679    -3.334266    1.5299203   556327 
 7816000    1.2924076   -3.3338921   -1.8039633  0.083241471   -3.3338921    1.5299288   556344 
 7817000    1.2928497   -3.3339395   -1.8035093  0.083412941   -3.3339395    1.5304302   556352 
 7818000    1.2950831   -3.3355203   -1.8024848  0.084889792   -3.3355203    1.5330354   556366 
 7819000    1.2921378   -3.3328687   -1.8033857  0.088110285   -3.3328687     1.529483   556390 
 7820000    1.2909361   -3.3317471   -1.8037552  0.087716142   -3.3317471    1.5279919   556415 
 7821000    1.2901795   -3.3318471   -1.8047672  0.088963853   -3.3318471    1.5270798   556421 
 7822000    1.2916301   -3.3318178    -1.803043  0.087952609   -3.3318178    1.5287748   556429 
 7823000    1.2913982   -3.3322819   -1.8038089  0.086098907   -3.3322819    1.5284729   556439 
 7824000    1.2928241   -3.3335467   -1.8033916  0.080145634   -3.3335467    1.5301551   556441 
 7825000    1.2914958   -3.3310338    -1.802492  0.090815173   -3.3310338    1.5285418   556456 
 7826000    1.2930572   -3.3330632   -1.8027422  0.084916773   -3.3330632     1.530321   556481 
 7827000    1.2923644   -3.3323802   -1.8029122  0.080715931   -3.3323802     1.529468   556493 
 7828000    1.2932193   -3.3324981   -1.8020595  0.082138567   -3.3324981    1.5304386   556508 
 7829000    1.2930443   -3.3311681   -1.8009448  0.083948274   -3.3311681    1.5302233   556511 
 7830000    1.2915506   -3.3299387   -1.8014832  0.085248894   -3.3299387    1.5284555   556511 
 7831000    1.2917684   -3.3295123   -1.8008457   0.08338897   -3.3295123    1.5286666   556528 
 7832000    1.2911292   -3.3292919   -1.8014175  0.083046901   -3.3292919    1.5278744   556541 
 7833000    1.2927242   -3.3309221   -1.8011382  0.087307338   -3.3309221    1.5297839   556533 
 7834000    1.2926914   -3.3317984   -1.8020643  0.088247966   -3.3317984    1.5297341   556537 
 7835000    1.2932063   -3.3312645   -1.8009706  0.087251139   -3.3312645    1.5302939   556555 
 7836000    1.2916851   -3.3301484   -1.8016435  0.084990904   -3.3301484    1.5285049   556551 
 7837000    1.2929821   -3.3323446   -1.8023545  0.085086952   -3.3323446    1.5299901   556569 
 7838000    1.2915011   -3.3307448   -1.8025208  0.089247414   -3.3307448     1.528224   556574 
 7839000    1.2911815   -3.3295415    -1.801715  0.088202195   -3.3295415    1.5278266   556581 
 7840000    1.2907265   -3.3305115   -1.8032618  0.088081121   -3.3305115    1.5272497   556595 
 7841000    1.2925951   -3.3327436   -1.8032773   0.08855558   -3.3327436    1.5294662   556593 
 7842000    1.2920892    -3.330431   -1.8015853  0.086336291    -3.330431    1.5288457   556601 
 7843000    1.2917913   -3.3314483   -1.8030045  0.088096225   -3.3314483    1.5284438   556619 
 7844000    1.2930514   -3.3314696   -1.8016145  0.087115935   -3.3314696     1.529855   556648 
 7845000    1.2918199   -3.3296969   -1.8013621  0.084378956   -3.3296969    1.5283348   556671 
 7846000    1.2912706   -3.3304818   -1.8028436  0.089663515   -3.3304818    1.5276383   556688 
 7847000    1.2933936   -3.3322269    -1.802121  0.085911451   -3.3322269    1.5301059   556704 
 7848000    1.2943674    -3.333204   -1.8019983  0.086362561    -3.333204    1.5312057   556723 
 7849000    1.2947489   -3.3338162    -1.802195  0.088938059   -3.3338162    1.5316213   556736 
 7850000    1.2958038   -3.3351097   -1.8022433  0.088725763   -3.3351097    1.5328664   556737 
 7851000     1.293898   -3.3335258   -1.8029331  0.088128037   -3.3335258    1.5305926   556744 
 7852000     1.295191   -3.3355308   -1.8034691  0.090253344   -3.3355308    1.5320617   556766 
 7853000      1.29406   -3.3334531   -1.8027815  0.088840316   -3.3334531    1.5306716   556785 
 7854000    1.2933168   -3.3327823   -1.8030035  0.089218883   -3.3327823    1.5297788   556790 
 7855000     1.294039   -3.3331924   -1.8026171  0.087315489   -3.3331924    1.5305753   556811 
 7856000    1.2941271   -3.3328388   -1.8022528  0.090506025   -3.3328388     1.530586   556845 
 7857000    1.2925521   -3.3321056   -1.8034263  0.090880131   -3.3321056    1.5286793   556861 
 7858000    1.2927822   -3.3321837    -1.803224  0.094607556   -3.3321837    1.5289597   556858 
 7859000    1.2938939   -3.3339508   -1.8037093  0.085132401   -3.3339508    1.5302415   556870 
 7860000    1.2923054   -3.3325154   -1.8041772  0.088039005   -3.3325154    1.5283381   556879 
 7861000    1.2929112   -3.3331042   -1.8041155  0.091486842   -3.3331042    1.5289887   556903 
 7862000    1.2947679   -3.3350946   -1.8039652   0.08312306   -3.3350946    1.5311294   556923 
 7863000    1.2917862   -3.3321623   -1.8046275  0.088044742   -3.3321623    1.5275348   556948 
 7864000     1.294766   -3.3337602   -1.8027457  0.087285496   -3.3337602    1.5310144   556964 
 7865000    1.2931148   -3.3327592   -1.8037165  0.087447093   -3.3327592    1.5290427   556971 
 7866000    1.2934354   -3.3331528   -1.8037666  0.083899184   -3.3331528    1.5293862   556984 
 7867000     1.293197    -3.332446   -1.8033693  0.084096823    -3.332446    1.5290768   556994 
 7868000     1.294669   -3.3336786   -1.8029547  0.082545914   -3.3336786    1.5307238   557028 
 7869000    1.2938595   -3.3325578   -1.8028185  0.088452983   -3.3325578    1.5297393   557038 
 7870000    1.2943417   -3.3341723   -1.8039316   0.08431873   -3.3341723    1.5302407   557063 
 7871000     1.295211   -3.3348936   -1.8036829  0.077092349   -3.3348936    1.5312108   557084 
 7872000    1.2938266   -3.3329998   -1.8035108  0.088204548   -3.3329998     1.529489   557115 
 7873000    1.2933837    -3.332771   -1.8039043  0.089007118    -3.332771    1.5288667   557151 
 7874000    1.2925382   -3.3323246   -1.8045342  0.085534198   -3.3323246    1.5277905   557179 
 7875000    1.2930684   -3.3320003   -1.8036189  0.084621041   -3.3320003    1.5283814   557192 
 7876000    1.2935065   -3.3333737   -1.8045019  0.083227357   -3.3333737    1.5288718   557202 
 7877000    1.2931249   -3.3327587    -1.804401  0.083230186   -3.3327587    1.5283577   557225 
 7878000    1.2932943   -3.3333267   -1.8048154  0.088650613   -3.3333267    1.5285113   557242 
 7879000    1.2947327   -3.3326918   -1.8025134  0.090054746   -3.3326918    1.5301784   557254 
 7880000    1.2940663   -3.3334234   -1.8040217  0.082401581   -3.3334234    1.5294017   557250 
 7881000    1.2953068   -3.3353025   -1.8044291  0.086978831   -3.3353025    1.5308733   557248 
 7882000    1.2949398   -3.3349088   -1.8045242  0.086339968   -3.3349088    1.5303846   557268 
 7883000    1.2930456   -3.3332914   -1.8051892  0.090921843   -3.3332914    1.5281022   557284 
 7884000    1.2952089    -3.335051   -1.8043977  0.085140854    -3.335051    1.5306532   557286 
 7885000    1.2940613   -3.3331448   -1.8038971  0.090359105   -3.3331448    1.5292477   557304 
 7886000    1.2931553   -3.3330299   -1.8048995  0.086477662   -3.3330299    1.5281304   557321 
 7887000    1.2933595   -3.3337984   -1.8054541  0.081827377   -3.3337984    1.5283442   557331 
 7888000    1.2934125   -3.3343375     -1.80598  0.086937438   -3.3343375    1.5283575   557349 
 7889000    1.2938868   -3.3354005   -1.8065045  0.083376727   -3.3354005     1.528896   557357 
 7890000     1.293096   -3.3344892   -1.8065166  0.089530372   -3.3344892    1.5279725   557353 
 7891000     1.292068   -3.3338797   -1.8071547  0.085181984   -3.3338797     1.526725   557365 
 7892000    1.2938315   -3.3351389   -1.8063988  0.082127539   -3.3351389    1.5287401   557390 
 7893000    1.2933307   -3.3337537   -1.8056189   0.09305728   -3.3337537    1.5281348   557395 
 7894000    1.2929397   -3.3327103   -1.8050403  0.087141046   -3.3327103      1.52767   557396 
 7895000    1.2936511   -3.3330031    -1.804509  0.084978819   -3.3330031    1.5284941   557402 
 7896000    1.2943054   -3.3337131   -1.8045063  0.086715988   -3.3337131    1.5292068   557424 
 7897000    1.2932569   -3.3329885   -1.8050287   0.08708726   -3.3329885    1.5279599   557427 
 7898000    1.2942116   -3.3336631   -1.8046549  0.087734315   -3.3336631    1.5290082   557456 
 7899000    1.2957271   -3.3354471   -1.8046786  0.088242901   -3.3354471    1.5307685   557467 
 7900000    1.2963887   -3.3358566   -1.8043229  0.083768716   -3.3358566    1.5315336   557473 
 7901000    1.2966249   -3.3345728   -1.8027849  0.089861315   -3.3345728    1.5317879   557482 
 7902000    1.2941925   -3.3322248   -1.8033351  0.089336444   -3.3322248    1.5288896   557491 
 7903000    1.2954622   -3.3338261   -1.8034337  0.089308687   -3.3338261    1.5303924   557490 
 7904000    1.2944201   -3.3331929   -1.8040756  0.088352388   -3.3331929    1.5291174   557506 
 7905000     1.294409   -3.3331091   -1.8039911  0.087788359   -3.3331091     1.529118   557501 
 7906000    1.2944979   -3.3325688   -1.8034062  0.096945702   -3.3325688    1.5291627   557523 
 7907000    1.2938673   -3.3323413   -1.8039564  0.087463934   -3.3323413    1.5283849   557535 
 7908000    1.2947577   -3.3327325   -1.8033014   0.08604763   -3.3327325    1.5294311   557537 
 7909000     1.293804   -3.3322836   -1.8040119  0.084619952   -3.3322836    1.5282717   557549 
 7910000    1.2934142   -3.3315744   -1.8038234  0.090846973   -3.3315744     1.527751   557571 
 7911000    1.2939108   -3.3324187   -1.8040618  0.088576335   -3.3324187    1.5283568   557564 
 7912000    1.2943395   -3.3334748   -1.8046281  0.089719854   -3.3334748    1.5288467   557570 
 7913000    1.2941235   -3.3334209   -1.8048486  0.088385562   -3.3334209    1.5285723   557577 
 7914000    1.2955758   -3.3348755   -1.8046481  0.087677229   -3.3348755    1.5302274   557599 
 7915000    1.2930317   -3.3324904   -1.8053172  0.081881908   -3.3324904    1.5271732   557617 
 7916000    1.2942596    -3.333386   -1.8048091  0.079975221    -3.333386    1.5285769   557634 
 7917000    1.2931848   -3.3323943   -1.8050869  0.088311863   -3.3323943    1.5273075   557634 
 7918000    1.2939338   -3.3335501   -1.8053663  0.086336688   -3.3335501    1.5281839   557637 
 7919000    1.2961424   -3.3352248   -1.8044874  0.087102898   -3.3352248    1.5307373   557657 
 7920000    1.2952844    -3.333971   -1.8042743  0.092640731    -3.333971    1.5296967   557667 
 7921000    1.2957872    -3.334205   -1.8039612  0.091901432    -3.334205    1.5302438   557684 
 7922000     1.296815   -3.3350413   -1.8036277  0.088333905   -3.3350413    1.5314136   557700 
 7923000    1.2967758   -3.3355765   -1.8042476  0.086595946   -3.3355765    1.5313289   557714 
 7924000    1.2954759   -3.3346563    -1.804846  0.090280344   -3.3346563    1.5298104   557708 
 7925000    1.2958172   -3.3355824   -1.8053717  0.086861553   -3.3355824    1.5302107   557709 
 7926000     1.297027   -3.3361718   -1.8045902   0.09516457   -3.3361718    1.5315816   557730 
 7927000    1.2962036   -3.3359765   -1.8053865  0.089011718   -3.3359765      1.53059   557737 
 7928000    1.2940166   -3.3328344   -1.8048842  0.092772207   -3.3328344    1.5279501   557758 
 7929000    1.2959304   -3.3355583   -1.8053951  0.083655906   -3.3355583    1.5301632   557775 
 7930000     1.294483   -3.3346021   -1.8061944  0.088989588   -3.3346021    1.5284076   557792 
 7931000    1.2946763   -3.3350056    -1.806367  0.092640318   -3.3350056    1.5286386   557791 
 7932000    1.2950568   -3.3360308   -1.8069676  0.091473615   -3.3360308    1.5290632   557800 
 7933000    1.2950521   -3.3364642    -1.807434  0.083965357   -3.3364642    1.5290302   557810 
 7934000    1.2929714   -3.3334134   -1.8068726  0.092993214   -3.3334134    1.5265408   557822 
 7935000    1.2948456   -3.3362743   -1.8075481  0.090243195   -3.3362743    1.5287262   557832 
 7936000    1.2932204    -3.334709   -1.8079318  0.088908329    -3.334709    1.5267773   557843 
 7937000     1.295355   -3.3369342   -1.8076862  0.091554504   -3.3369342     1.529248   557861 
 7938000     1.296312   -3.3368246   -1.8065098  0.088383771   -3.3368246    1.5303148   557884 
 7939000    1.2964751    -3.337464   -1.8069897  0.088096281    -3.337464    1.5304743   557896 
 7940000    1.2952466   -3.3366045    -1.807594  0.090874062   -3.3366045    1.5290105   557901 
 7941000    1.2951363   -3.3358355   -1.8069388  0.090687528   -3.3358355    1.5288967   557895 
 7942000    1.2967259   -3.3382572   -1.8074621  0.085516143   -3.3382572    1.5307951   557887 
 7943000    1.2961719   -3.3380179   -1.8078685  0.086406688   -3.3380179    1.5301493   557884 
 7944000    1.2953985   -3.3376272   -1.8084402  0.085985986   -3.3376272     1.529187   557902 
 7945000    1.2942954   -3.3370056   -1.8091563  0.088131062   -3.3370056    1.5278493   557915 
 7946000    1.2946898   -3.3363527    -1.808131  0.086207858   -3.3363527    1.5282217   557949 
 7947000    1.2954174   -3.3356609   -1.8066024  0.082359397   -3.3356609    1.5290585   557957 
 7948000    1.2955939   -3.3358295   -1.8065872  0.084879277   -3.3358295    1.5292422   557966 
 7949000    1.2951806   -3.3345962   -1.8058609  0.090404297   -3.3345962    1.5287353   557973 
 7950000    1.2964272   -3.3353353   -1.8051807  0.091481024   -3.3353353    1.5301546   557992 
 7951000    1.2953921   -3.3348765   -1.8059409  0.088859339   -3.3348765    1.5289356   557991 
 7952000    1.2964123   -3.3356349   -1.8055226  0.084394662   -3.3356349    1.5301123   558001 
 7953000    1.2964021    -3.335907   -1.8058753  0.085413908    -3.335907    1.5300317   558026 
 7954000     1.295929   -3.3360312   -1.8066072  0.084564542   -3.3360312     1.529424   558044 
 7955000    1.2962603   -3.3363049   -1.8065036  0.081016848   -3.3363049    1.5298013   558049 
 7956000    1.2957587   -3.3360036   -1.8068052  0.088358013   -3.3360036    1.5291984   558053 
 7957000    1.2949047   -3.3352046   -1.8070798  0.092773174   -3.3352046    1.5281248   558077 
 7958000    1.2969028    -3.336773   -1.8063423  0.087653584    -3.336773    1.5304307   558096 
 7959000    1.2954323   -3.3346045   -1.8059557  0.083583756   -3.3346045    1.5286488   558113 
 7960000    1.2964662   -3.3361483   -1.8062741  0.085420419   -3.3361483    1.5298742   558111 
 7961000    1.2960498   -3.3365057   -1.8071227  0.080520689   -3.3365057     1.529383   558111 
 7962000     1.294503   -3.3340618    -1.806537  0.093503309   -3.3340618    1.5275248   558123 
 7963000    1.2963131   -3.3368043   -1.8071764   0.08513406   -3.3368043    1.5296279   558135 
 7964000    1.2948532   -3.3360054   -1.8081083  0.087547366   -3.3360054     1.527897   558138 
 7965000    1.2950176   -3.3366062   -1.8085015  0.085825452   -3.3366062    1.5281047   558133 
 7966000    1.2951643   -3.3367541   -1.8085393  0.088412742   -3.3367541    1.5282148   558156 
 7967000    1.2942929   -3.3373284   -1.8101719  0.081994582   -3.3373284    1.5271565   558167 
 7968000     1.295324   -3.3371615    -1.808813  0.084774062   -3.3371615    1.5283485   558176 
 7969000    1.2960445   -3.3381456   -1.8090073  0.088711709   -3.3381456    1.5291383   558198 
 7970000    1.2956036   -3.3369778   -1.8084144  0.083857358   -3.3369778    1.5285634   558218 
 7971000    1.2947434   -3.3370586   -1.8095539  0.083828591   -3.3370586    1.5275046   558234 
 7972000    1.2954731   -3.3382358   -1.8098976  0.084050875   -3.3382358    1.5283382   558244 
 7973000    1.2950612   -3.3386504    -1.810842  0.087271458   -3.3386504    1.5278084   558260 
 7974000    1.2955029   -3.3389795    -1.810702  0.083726506   -3.3389795    1.5282775   558279 
 7975000    1.2955125   -3.3384852   -1.8101772  0.087152491   -3.3384852     1.528308   558272 
 7976000    1.2940875   -3.3359869   -1.8093763  0.092656506   -3.3359869    1.5266106   558278 
 7977000    1.2964271   -3.3397749   -1.8103715  0.083370261   -3.3397749    1.5294034   558266 
 7978000    1.2956368   -3.3388148   -1.8103573  0.082454205   -3.3388148    1.5284574   558271 
 7979000    1.2948484   -3.3380782   -1.8105947  0.080164864   -3.3380782    1.5274835   558287 
 7980000    1.2961707   -3.3382398     -1.80918  0.084260576   -3.3382398    1.5290598   558281 
 7981000    1.2957533   -3.3383875   -1.8099132  0.089484024   -3.3383875    1.5284743   558315 
 7982000    1.2967361   -3.3392182   -1.8095954  0.089335802   -3.3392182    1.5296228   558319 
 7983000     1.297217   -3.3400141   -1.8098652  0.090600954   -3.3400141    1.5301489   558334 
 7984000    1.2970126   -3.3391314   -1.8092181  0.087681343   -3.3391314    1.5299133   558332 
 7985000    1.2988349   -3.3402204   -1.8082153  0.080660444   -3.3402204    1.5320051   558353 
 7986000    1.2976136   -3.3377775   -1.8072101  0.088237609   -3.3377775    1.5305674   558352 
 7987000    1.2979852   -3.3380364   -1.8070774  0.093971375   -3.3380364     1.530959   558369 
 7988000     1.296202   -3.3361483   -1.8073254  0.087536617   -3.3361483    1.5288229   558381 
 7989000    1.2965038   -3.3374577   -1.8083062   0.08580511   -3.3374577    1.5291515   558391 
 7990000    1.2953162   -3.3365126   -1.8087783   0.08613474   -3.3365126    1.5277344   558397 
 7991000    1.2962726   -3.3385128   -1.8097024  0.090674532   -3.3385128    1.5288103   558416 
 7992000    1.2961968   -3.3383708   -1.8096443  0.086169574   -3.3383708    1.5287265   558414 
 7993000    1.2962888   -3.3381593   -1.8093489  0.087767808   -3.3381593    1.5288103   558423 
 7994000    1.2951021   -3.3365013   -1.8091398  0.088237993   -3.3365013    1.5273615   558441 
 7995000     1.296409   -3.3385026    -1.809608  0.087552005   -3.3385026    1.5288945   558444 
 7996000    1.2955865   -3.3379318   -1.8100455  0.083955168   -3.3379318    1.5278863   558458 
 7997000    1.2957652   -3.3374691    -1.809342  0.086619714   -3.3374691    1.5281271   558447 
 7998000     1.295934   -3.3365661   -1.8082727  0.088211447   -3.3365661    1.5282934   558459 
 7999000    1.2965457   -3.3375945   -1.8086017  0.088651477   -3.3375945    1.5289928   558467 
 8000000    1.2956851   -3.3359234   -1.8079782  0.086888096   -3.3359234    1.5279451   558479 
Loop time of 10195.5 on 192 procs for 5000000 steps with 558479 atoms

Performance: 211857.189 tau/day, 490.410 timesteps/s
99.2% CPU use with 192 MPI tasks x 1 OpenMP threads

MPI task timing breakdown:
Section |  min time  |  avg time  |  max time  |%varavg|  %CPU | %total
-----------------------------------------------------------------------
Pair    | 2419.4     | 3637       | 4024.2     | 714.7 |  99.1 | 35.67
Bond    | 3.2395     | 3.3885     | 3.5879     |   3.3 | 100.0 |  0.03
Neigh   | 1410.4     | 1797.7     | 1909.1     | 295.3 |  99.5 | 17.63
Comm    | 1226.4     | 2068.1     | 3625.9     |1249.4 |  99.0 | 20.28
Output  | 277.26     | 280.7      | 280.73     |   1.5 |  98.7 |  2.75
Modify  | 2144.9     | 2233.3     | 2697.3     | 369.8 |  99.1 | 21.90
Other   |            | 175.3      |            |       |       |  1.72

Nlocal:        2908.74 ave        3050 max        2660 min
Histogram: 1 0 0 4 22 49 46 50 16 4
Nghost:        3875.17 ave        4226 max        3067 min
Histogram: 8 26 14 0 0 0 0 21 71 52
Neighs:        81637.0 ave       92359 max       62808 min
Histogram: 2 1 8 12 8 33 53 47 24 4

Total # of neighbors = 15674306
Ave neighs/atom = 28.066062
Ave special neighs/atom = 0.0000000
Neighbor list builds = 505000
Dangerous builds = 450000

write_restart   restart_write.dat
System init for write_restart ...
write_data	data.write
System init for write_data ...
WARNING: Not all mixed pair coeffs generated from mixing. Use write_data with 'pair ij' option to store all pair coeffs. (src/write_data.cpp:312)

Total wall time: 2:49:59
